
units lj                  # Use reduced LJ style units
atom_style atomic         # Uncharged point particles
atom_modify map hash      # Needed for indexing of clusters etc
                          # Used to be able to find where atoms are in relation to each other.

lattice fcc 1.0 spacing 1 1 1
Lattice spacing in x,y,z = 1.5874011 1.5874011 1.5874011
region box block 0 10 0 10 0 10 units lattice
create_box 2 box
Created orthogonal box = (0.0000000 0.0000000 0.0000000) to (15.874011 15.874011 15.874011)
  3 by 4 by 4 MPI processor grid
create_atoms 1 box
Created 4000 atoms
  using lattice units in orthogonal box = (0.0000000 0.0000000 0.0000000) to (15.874011 15.874011 15.874011)
  create_atoms CPU = 0.003 seconds
set type 1 type/fraction 2 0.42 78393
Setting atom values ...
  1685 settings made for type/fraction
mass 1 1.0
mass 2 1.0
pair_style lj/cut  3.5
pair_modify tail  yes
pair_coeff 1  1  1.0  1.0   # Intearaction between 1 and 1 set with epsilon = 1 and sigma = 1
pair_coeff 1  2  1.5  0.8
pair_coeff 2  2  0.5  0.88

write_data data.0
System init for write_data ...
Neighbor list info ...
  update every 1 steps, delay 10 steps, check yes
  max neighbors/atom: 2000, page size: 100000
  master list distance cutoff = 3.8
  ghost atom cutoff = 3.8
  binsize = 1.9, bins = 9 9 9
  1 neighbor lists, perpetual/occasional/extra = 1 0 0
  (1) pair lj/cut, perpetual
      attributes: half, newton on
      pair build: half/bin/atomonly/newton
      stencil: half/bin/3d
      bin: standard
WARNING: Not all mixed pair coeffs generated from mixing. Use write_data with 'pair ij' option to store all pair coeffs. (../write_data.cpp:312)


#############################
#   M E L T   S Y S T E M   #
#############################

velocity all create 2.4 3143649 mom yes dist gaussian # Assign velocities
                                                    # Temperature 2.4, random number seed, zero linear momentum
                                                                                # Gaussian distribution

timestep 0.002   # simulation timestep
thermo 1000       # output thermodynamic data every 1000 steps bf 100

# Define a fix  in this case with index 1 applied to all
# particles in the simulation. This fix is for simulations
# in the anisotropic NPT ensemble. Note that we use the MTK
# correction.
fix 1 all npt temp 2.4 2.4 0.1 iso 5.68 5.68 0.5 mtk yes tchain 5 pchain 5 # Use NPT ensemble
                                                                         # Set temperature and pressure and damping
                                                                         # Numbers of thermostats in chain and in barostat
run 10000          # run for 10000 steps
Per MPI rank memory allocation (min/avg/max) = 3.642 | 3.644 | 3.648 Mbytes
Step Temp E_pair E_mol TotEng Press Volume 
       0          2.4   -5.7538232            0   -2.1547232    -4.186528         4000 
    1000    2.3857916   -4.9862264            0   -1.4084336     5.801361    3853.1112 
    2000     2.396248   -5.0045957            0   -1.4111223     5.800955    3842.6079 
    3000    2.3546625   -4.9874678            0   -1.4563571    5.5466341    3862.7846 
    4000    2.4253947    -4.996555            0   -1.3593724     5.774672    3851.0269 
    5000    2.4239905   -5.0998195            0   -1.4647427    5.7357127    3813.6112 
    6000    2.3963701   -5.0026036            0   -1.4089471     5.923482    3838.5834 
    7000    2.3451811   -5.0704225            0   -1.5535303    5.3965638    3839.8434 
    8000    2.4326051   -5.0439827            0   -1.3959872    5.5451614    3854.7333 
    9000    2.4265729   -5.0491562            0   -1.4102068    5.7599466    3836.5597 
   10000    2.3750767   -4.9550161            0   -1.3932917    5.7411899    3864.7065 
Loop time of 2.50502 on 48 procs for 10000 steps with 4000 atoms

Performance: 689816.189 tau/day, 3991.992 timesteps/s
99.7% CPU use with 48 MPI tasks x no OpenMP threads

MPI task timing breakdown:
Section |  min time  |  avg time  |  max time  |%varavg| %total
---------------------------------------------------------------
Pair    | 1.1099     | 1.193      | 1.2656     |   2.6 | 47.62
Neigh   | 0.21081    | 0.21775    | 0.2239     |   0.7 |  8.69
Comm    | 0.77962    | 0.84135    | 0.93019    |   3.4 | 33.59
Output  | 0.00024814 | 0.00025238 | 0.00031548 |   0.0 |  0.01
Modify  | 0.21186    | 0.23751    | 0.26446    |   2.6 |  9.48
Other   |            | 0.0152     |            |       |  0.61

Nlocal:        83.3333 ave          91 max          74 min
Histogram: 3 2 5 2 6 11 3 8 4 4
Nghost:        1683.31 ave        1714 max        1653 min
Histogram: 3 3 5 8 3 8 8 6 2 2
Neighs:        9884.48 ave       11261 max        8496 min
Histogram: 2 2 3 6 8 13 7 2 3 2

Total # of neighbors = 474455
Ave neighs/atom = 118.61375
Neighbor list builds = 907
Dangerous builds = 196

# Equilibrate just above the melting temperature to avoid step fn in T

fix 1 all npt temp 1.25 1.25 0.1 iso 5.68 5.68 0.5 mtk yes tchain 5 pchain 5
run 2000
Per MPI rank memory allocation (min/avg/max) = 3.643 | 3.645 | 3.649 Mbytes
Step Temp E_pair E_mol TotEng Press Volume 
   10000    2.3750767   -4.9550161            0   -1.3932917    5.7411899    3864.7065 
   11000    1.2553446   -7.0226174            0   -5.1400713    5.5249998    3053.2355 
   12000     1.233114   -7.1443243            0   -5.2951157    5.5426246    3021.0631 
Loop time of 0.620939 on 48 procs for 2000 steps with 4000 atoms

Performance: 556576.717 tau/day, 3220.930 timesteps/s
99.6% CPU use with 48 MPI tasks x no OpenMP threads

MPI task timing breakdown:
Section |  min time  |  avg time  |  max time  |%varavg| %total
---------------------------------------------------------------
Pair    | 0.27729    | 0.29992    | 0.33327    |   2.5 | 48.30
Neigh   | 0.039558   | 0.042029   | 0.046502   |   0.7 |  6.77
Comm    | 0.19524    | 0.22883    | 0.25749    |   3.2 | 36.85
Output  | 5.3525e-05 | 5.4373e-05 | 6.9441e-05 |   0.0 |  0.01
Modify  | 0.040899   | 0.045296   | 0.049631   |   1.1 |  7.29
Other   |            | 0.004808   |            |       |  0.77

Nlocal:        83.3333 ave          90 max          76 min
Histogram: 2 4 10 3 2 8 4 6 1 8
Nghost:        1992.40 ave        2016 max        1972 min
Histogram: 4 5 4 5 8 10 3 2 4 3
Neighs:        12657.3 ave       14257 max       10970 min
Histogram: 4 1 5 7 5 8 7 6 1 4

Total # of neighbors = 607551
Ave neighs/atom = 151.88775
Neighbor list builds = 143
Dangerous builds = 9

#############################
# L I N E A R  Q U E N C H  #
#############################

# Define solid atoms. This closely follows ten Wolde  Ruiz-Montero and Frenkel  Faraday Discuss  1996  104  93-110
# Compute components of the per-atom q6 vector
compute q6 all orientorder/atom degrees 1 6 components 6 nnn NULL cutoff 1.3 # compute the Q6 parameter.
                                                                             # Use all neighbours within 1.3 unit cell.

# get number of connections
compute coord_number all coord/atom orientorder q6 0.5

# An atom is solid if it has 8 or more connections (of a possible 14)
variable is_solid atom c_coord_number>=8
group solid dynamic all var is_solid    # Must be dynamic to update
dynamic group solid defined

# do clustering
compute cluster solid cluster/atom 1.3 # Create a cluster where all atoms within are solid and max 1.3 units from another member

# define chunks one chunk per cluster
compute clus_chunks solid chunk/atom c_cluster nchunk every compress yes  # Says which atoms are in which chunk

# count the size of each chunk
compute size_chunks solid property/chunk clus_chunks count


# Find the maximum entry in the vector of chunk sizes
variable max_n equal max(c_size_chunks)


# Thermo style which includes this variable
# thermo_style custom step temp pe vol v_max_n

thermo ${N}  # Print the thermo information every 100 steps
thermo 1000  

# Reset the npt fix at a lower temperature (below freezing)
fix 1  all npt temp  ${temp} ${temp}  0.1  iso  5.68  5.68  0.5  mtk yes tchain  5  pchain  5
fix 1  all npt temp  0.45 ${temp}  0.1  iso  5.68  5.68  0.5  mtk yes tchain  5  pchain  5
fix 1  all npt temp  0.45 0.45  0.1  iso  5.68  5.68  0.5  mtk yes tchain  5  pchain  5

dump dmp2 all dcd ${N} traj.dcd
dump dmp2 all dcd 1000 traj.dcd


compute msd all msd com yes
variable twopoint equal c_msd[4]/6/(step*dt+1.0e-6)
fix 9 all vector 10 c_msd[4]
variable fit equal slope(f_9)/6/(10*dt)
thermo_style custom step temp pe c_msd[4] v_twopoint v_fit v_max_n

fix 1 all npt temp 1.25 ${temp} 0.1 iso 5.68 5.68 0.5 mtk yes tchain 5 pchain 5
fix 1 all npt temp 1.25 0.45 0.1 iso 5.68 5.68 0.5 mtk yes tchain 5 pchain 5
run 5000000 # 5000000  # Run for this many steps
Neighbor list info ...
  update every 1 steps, delay 10 steps, check yes
  max neighbors/atom: 2000, page size: 100000
  master list distance cutoff = 3.8
  ghost atom cutoff = 3.8
  binsize = 1.9, bins = 8 8 8
  4 neighbor lists, perpetual/occasional/extra = 1 3 0
  (1) pair lj/cut, perpetual
      attributes: half, newton on
      pair build: half/bin/atomonly/newton
      stencil: half/bin/3d
      bin: standard
  (2) compute orientorder/atom, occasional
      attributes: full, newton on
      pair build: full/bin/atomonly
      stencil: full/bin/3d
      bin: standard
  (3) compute coord/atom, occasional
      attributes: full, newton on
      pair build: full/bin/atomonly
      stencil: full/bin/3d
      bin: standard
  (4) compute cluster/atom, occasional
      attributes: full, newton on
      pair build: full/bin/atomonly
      stencil: full/bin/3d
      bin: standard
Per MPI rank memory allocation (min/avg/max) = 9.829 | 9.834 | 9.839 Mbytes
Step Temp PotEng c_msd[4] v_twopoint v_fit v_max_n 
   12000     1.233114   -7.1443243 9.7325714e-31 6.7587299e-33 8.3333333e+20            1 
   13000    1.2453706   -7.1444308   0.44567904 0.0028569168  0.035418931            2 
   14000    1.2434121   -7.1030353   0.84186747 0.0050111157  0.034465934            2 
   15000    1.2896302   -7.1297224     1.270228 0.0070568223  0.034400967            1 
   16000    1.2541355   -7.1643928    1.6781144 0.0087401789  0.034026885            3 
   17000    1.2570245   -7.0893354    2.1242779  0.010413127  0.034307402            3 
   18000    1.2475094   -7.1622812    2.6570699  0.012301249  0.035435245            2 
   19000     1.240571   -7.1588844    3.1723833  0.013913961  0.036767767            2 
   20000    1.2233492   -7.1153441    3.6305504  0.015127293  0.037536458            2 
   21000    1.2257992   -7.0888163    4.0977433  0.016260886  0.038057299            1 
   22000     1.227401   -7.1577743    4.4955304  0.017028524  0.038190414            2 
   23000    1.2490839   -7.1407827    4.9722518  0.018015405  0.038108742            2 
   24000    1.2782056   -7.1371893    5.3741789  0.018660343  0.038007531            3 
   25000    1.2596004   -7.1309886    5.8127462   0.01937582  0.037905988            3 
   26000    1.2291772   -7.1287854    6.1226674  0.019623934  0.037644956            2 
   27000    1.2311396   -7.1234691     6.508428   0.02008774  0.037242483            2 
   28000    1.2642004   -7.1445585    6.9131124  0.020574739  0.036881789            2 
   29000    1.2519514   -7.1291091    7.3303316  0.021064171  0.036603884            3 
   30000     1.224952   -7.1839426    7.8255997  0.021737777  0.036380067            2 
   31000    1.2572954   -7.1116785    8.2218496  0.022101746  0.036252104            1 
   32000    1.2526687   -7.1150587    8.5637307  0.022301382  0.036096745            2 
   33000    1.2427357   -7.0674337    8.9716577  0.022655701  0.035882492            3 
   34000    1.2695093   -7.1382536    9.3947622  0.023026378  0.035719856       -1e+20 
   35000    1.2238003   -7.1438763     9.831724  0.023408866  0.035588687            1 
   36000    1.2481525   -7.1872918    10.229137  0.023678558  0.035498136            1 
   37000    1.2391835   -7.0904763    10.677389  0.024048174  0.035415632            2 
   38000    1.2318376   -7.1048705     11.16114  0.024476183  0.035406497            2 
   39000    1.2515198   -7.1178187    11.562332  0.024705837  0.035392849            1 
   40000    1.2638685    -7.112399     12.06036  0.025125749  0.035421119            1 
   41000    1.2256006   -7.1434561    12.453816  0.025312634  0.035442455            3 
   42000    1.2634353   -7.1446987    12.945133  0.025684788  0.035451247            1 
   43000    1.2494347   -7.1111528    13.404722  0.025978142  0.035476975            1 
   44000    1.2438027    -7.161755    13.826022  0.026185647  0.035520842            2 
   45000     1.247245   -7.1412697     14.40514  0.026676185   0.03558635            2 
   46000    1.2249128   -7.1186289    14.795795  0.026803977  0.035664159            1 
   47000     1.231817   -7.1282204      15.1064  0.026784396  0.035694759            1 
   48000    1.2373892   -7.1485707     15.58529  0.027057795  0.035712969            2 
   49000    1.2531416   -7.1227447    16.033532  0.027267911  0.035752064            2 
   50000    1.2276936   -7.1065944    16.554718  0.027591197  0.035810022            2 
   51000    1.2373655   -7.1462329    16.997928  0.027774391  0.035869154            4 
   52000    1.2245971   -7.1410298    17.502032  0.028048129  0.035933455            1 
   53000    1.2495942   -7.1260394    17.945694  0.028216499  0.035996357            1 
   54000    1.2482866   -7.1868542    18.339719  0.028302036  0.036055849            2 
   55000    1.2599504    -7.148077    18.727947  0.028375677  0.036089946            1 
   56000    1.2525848    -7.146404    19.162827  0.028516112  0.036113038            1 
   57000    1.2763045   -7.0700065    19.654576   0.02873476  0.036145291            2 
   58000    1.2325621   -7.1679237    20.066796  0.028831603  0.036177906            1 
   59000    1.2525712   -7.0883699    20.519455  0.028982281   0.03620088            1 
   60000    1.2598424   -7.1625368    20.756488  0.028828455  0.036206465            5 
   61000    1.2529629   -7.1655242    21.187892  0.028945208   0.03618345            6 
   62000    1.2385459   -7.1080653    21.721324  0.029195328  0.036174075            2 
   63000    1.2518847   -7.1412652    22.074524  0.029199106   0.03616392            2 
   64000    1.2333092   -7.1474228    22.465879  0.029252446  0.036138599            3 
   65000    1.2559911    -7.151368    22.925307  0.029391419   0.03611631            1 
   66000    1.2322413   -7.1603132      23.2675  0.029378157  0.036093004            1 
   67000    1.2327274   -7.1073929    23.810655  0.029615242  0.036077207            1 
   68000    1.2374557   -7.1180602    24.065621  0.029492182  0.036058009            1 
   69000    1.2457183   -7.1128871    24.509349  0.029600663  0.036036957            1 
   70000    1.2427806   -7.1448213    25.040541  0.029810168  0.036018198            1 
   71000    1.2268738     -7.09257    25.493573  0.029922034  0.036009981            1 
   72000    1.2447055   -7.1428171    26.062047  0.030164406  0.036010171            1 
   73000    1.2430449   -7.1574674    26.345705  0.030075005  0.036021737            1 
   74000    1.2518711   -7.1511558    26.706231  0.030074584  0.036001612            1 
   75000    1.2394529   -7.1141516    27.267379  0.030297087   0.03598767            1 
   76000    1.2338111   -7.1045272    27.552898  0.030211511  0.035984976            2 
   77000    1.2573655   -7.1725038    27.912874  0.030208738  0.035968857            1 
   78000    1.2257167   -7.1972015     28.16456  0.030090341  0.035941855            5 
   79000    1.2410693    -7.166081    28.558854  0.030125373  0.035907161            1 
   80000    1.2625953    -7.168122    28.967528  0.030174508  0.035866592       -1e+20 
   81000    1.2240704   -7.1770804    29.320851  0.030165485  0.035828355            3 
   82000    1.2442487   -7.1333817    29.882699  0.030368596  0.035794403            3 
   83000    1.2795516   -7.1541892    30.218484  0.030339843  0.035752213            2 
   84000    1.2199861   -7.1139609    30.691398  0.030447815  0.035715834            2 
   85000    1.2605994   -7.1701762    30.887741  0.030282098  0.035677548            2 
   86000    1.2491392   -7.1888635    31.207729  0.030240048  0.035629676            1 
   87000    1.2332779   -7.1587925    31.703593  0.030367426  0.035590037            3 
   88000    1.2339494   -7.1431752    31.978942  0.030283088  0.035542412            1 
   89000    1.2051178   -7.1469692    32.346471  0.030286958  0.035488373            1 
   90000    1.2448489   -7.1744937    32.564526  0.030152339  0.035428297            2 
   91000    1.2351832   -7.1375014    33.062496  0.030277011   0.03536473            2 
   92000    1.2226286   -7.1924148    33.478003  0.030324278  0.035308844            3 
   93000    1.2298047   -7.1404315    34.131395  0.030583687  0.035272349            2 
   94000    1.2466888   -7.1505421    34.626124  0.030696918  0.035245367            2 
   95000    1.2270824   -7.1547501    34.980513   0.03068466  0.035220254            1 
   96000    1.2422453   -7.1413827    35.333499   0.03067144  0.035191251            3 
   97000    1.2366103   -7.1407386    35.757751  0.030719717  0.035162809            1 
   98000    1.2493715   -7.1442091    36.237521  0.030814218  0.035140581            1 
   99000    1.2312139   -7.1980498    36.577903  0.030789481  0.035116425            2 
  100000    1.2262704   -7.1801328    37.061606  0.030884672  0.035091697            1 
  101000    1.2381303   -7.1377184    37.429776  0.030882653  0.035066526            1 
  102000    1.2651487   -7.1716057    37.739127   0.03083262  0.035033721            3 
  103000    1.2283908   -7.1630465    38.221999  0.030923947  0.035013998            2 
  104000    1.2539991   -7.1891434    38.527241  0.030871186  0.034992233            1 
  105000    1.2143758   -7.1484533     38.94286  0.030907032   0.03496622            3 
  106000    1.2450636   -7.1508794    39.278301  0.030879167  0.034939037            1 
  107000    1.2295029   -7.1687949    39.668816  0.030894716  0.034909847            1 
  108000    1.2154479   -7.2185411     40.12988  0.030964413  0.034883308            2 
  109000    1.2301695   -7.1345857    40.577405   0.03102248  0.034861105            2 
  110000    1.2583277    -7.152694    41.048811  0.031097584  0.034841907            2 
  111000    1.2232221   -7.1443073    41.452783  0.031120708  0.034824638            1 
  112000    1.2591548   -7.1537002    41.909732  0.031182837  0.034810339            2 
  113000    1.2405946   -7.1917309    42.256675  0.031162739  0.034801184            1 
  114000    1.2269128   -7.1436446    42.825765  0.031305384  0.034788877            1 
  115000    1.2102907     -7.14379    43.145766  0.031265048  0.034774015            1 
  116000    1.2810746   -7.1675807    43.655565  0.031361757  0.034761904            1 
  117000    1.2496436   -7.1597092    43.802746  0.031198537  0.034750378            2 
  118000    1.2272432   -7.1859726     44.08905  0.031136334  0.034731675            2 
  119000    1.2486927   -7.1726036     44.59661  0.031230119  0.034708478            3 
  120000    1.2325462   -7.1770393    45.036868  0.031275603  0.034689486            1 
  121000    1.2124024   -7.1644815    45.465133  0.031312075   0.03466715            3 
  122000    1.2430586   -7.1807688    45.389576  0.031003809  0.034647037            1 
  123000    1.2062464   -7.1329279    46.018641  0.031177941  0.034621807            3 
  124000    1.2031034   -7.1348272    46.381737  0.031170522  0.034596097            1 
  125000    1.2575737   -7.1798323    46.746617  0.031164411  0.034567187            2 
  126000    1.2426134   -7.1761939    47.030858  0.031105065  0.034538011            2 
  127000    1.2323666   -7.2115811    47.102926  0.030907432  0.034503075            1 
  128000    1.2567412   -7.1638109    47.582845  0.030978414  0.034467887            2 
  129000    1.2342004   -7.1617297    47.893403  0.030938891  0.034432256            1 
  130000    1.2589729   -7.1518532    48.359665  0.030999785  0.034394936            1 
  131000     1.228719   -7.1811612     48.52114  0.030865865  0.034356024            2 
  132000    1.2002148   -7.1505084    48.856898  0.030844001  0.034316752            3 
  133000    1.2569519   -7.1673718    49.297067  0.030887886  0.034281801            2 
  134000    1.2572097    -7.168458    49.979478  0.031081765  0.034253874            2 
  135000    1.2546634   -7.1799892    50.460642  0.031148545  0.034225818            2 
  136000    1.2304178   -7.1577062    50.982264  0.031239132  0.034202342            2 
  137000    1.2013187    -7.147767    51.398304  0.031264175  0.034180905            1 
  138000    1.2403282   -7.1901013     51.67846  0.031206799  0.034162047            1 
  139000    1.2241436   -7.1556172    52.384045  0.031405303  0.034143882            1 
  140000    1.2444408   -7.1386463    52.748008  0.031397624  0.034130752            2 
  141000    1.2380501   -7.1670362     53.31152   0.03150799  0.034120005            3 
  142000    1.2197473   -7.1895993    54.107564  0.031753265  0.034116388            2 
  143000     1.220952   -7.1947997    54.448262  0.031729756  0.034119069            2 
  144000    1.2465785   -7.1234982    55.031111  0.031846708  0.034121622            1 
  145000     1.239167   -7.1618114    55.310223  0.031787485  0.034123736            2 
  146000    1.2234492   -7.1837454     55.70548  0.031795365  0.034125229            4 
  147000    1.2060213     -7.19771    56.347383  0.031942961   0.03412545            3 
  148000     1.247162   -7.2164882    56.283193  0.031690987  0.034126711            1 
  149000    1.2172023   -7.1550168    57.089077  0.031929014   0.03412892            2 
  150000    1.2225155   -7.1538574    57.512299  0.031951277  0.034131184            2 
  151000    1.2263271   -7.2037751    57.608582  0.031792816  0.034134628            2 
  152000    1.2098727    -7.177353    58.345954  0.031987914  0.034138162            1 
  153000    1.2315477   -7.2225036    58.768709  0.032009101  0.034144727            2 
  154000     1.208542    -7.167972    59.185914  0.032027009  0.034153863            3 
  155000    1.2294958   -7.1413345    59.731708  0.032113821  0.034164633            1 
  156000    1.2131472   -7.1786791    60.354689  0.032240752  0.034172266            6 
  157000    1.2300159   -7.2182355    60.003964  0.031849238  0.034178343            1 
  158000    1.2344165   -7.1748719    60.629616  0.031977645  0.034180992            4 
  159000    1.1874717   -7.2007985    60.980367   0.03196036  0.034180816            2 
  160000    1.2157053   -7.1568189    61.252492  0.031902339  0.034179749            3 
  161000    1.2167754   -7.2050424    61.409154  0.031785276  0.034176119            2 
  162000    1.2281406   -7.1897321    61.949785  0.031867173  0.034171747            1 
  163000    1.2552815   -7.1175952    62.751747   0.03208167  0.034166307            3 
  164000    1.2047303   -7.1573628    62.924634  0.031973899   0.03416499            2 
  165000    1.2265946   -7.2019891    63.030879  0.031833777  0.034162215            1 
  166000    1.2343526   -7.2306298    63.426658  0.031840692  0.034154658            2 
  167000    1.2406494   -7.1850571    63.794171  0.031833419  0.034147997            2 
  168000    1.2193851   -7.1725594    64.349135  0.031919214  0.034140242            2 
  169000    1.2219565   -7.1653457      64.8146  0.031959862  0.034133913            1 
  170000    1.2080171   -7.1678068    65.151694  0.031937105  0.034127773            2 
  171000     1.214204   -7.1831827    65.499938  0.031920047  0.034124359            2 
  172000    1.2427652   -7.1705225     66.04955  0.032000751  0.034120481            2 
  173000    1.2144254    -7.196191    66.293259  0.031933169  0.034114118            2 
  174000    1.2438168   -7.2064434    66.242126  0.031725156  0.034101523            1 
  175000    1.2241937    -7.199253    66.384638  0.031611732  0.034086813            1 
  176000    1.2124564   -7.2242117    67.028835  0.031737138  0.034073576            1 
  177000    1.2377651   -7.1489958    67.705983   0.03187664  0.034059232            1 
  178000    1.2422604   -7.1978509    67.766603  0.031725938     0.034045            1 
  179000    1.2247726   -7.1923474    68.155828  0.031729901  0.034031193            1 
  180000    1.2292463   -7.2172778     68.45127  0.031690403  0.034016247            3 
  181000    1.2183216   -7.1387728    69.136736   0.03183091  0.034001876            3 
  182000    1.2260102   -7.2097064    69.145696  0.031660117  0.033987699            1 
  183000     1.236507   -7.1946928    69.519057  0.031657129  0.033971715            1 
  184000    1.2028923   -7.2184393     70.00909  0.031707015  0.033956216            3 
  185000    1.2091389   -7.1490878    70.756155  0.031872142  0.033942221            2 
  186000    1.2304501   -7.1977794     70.71398  0.031681891  0.033928749            2 
  187000    1.2057791   -7.2445836    71.100714   0.03168481  0.033914642            1 
  188000    1.2355088   -7.1725855    71.531306  0.031707139  0.033901556            1 
  189000    1.2085305   -7.1590035    72.083644  0.031782912  0.033885083            1 
  190000    1.2221393   -7.2040892    72.115936  0.031629796  0.033869581            2 
  191000    1.2239975   -7.2182373    72.439896  0.031605539  0.033852571            1 
  192000    1.2352506   -7.2189431    72.714445  0.031560089  0.033836362            1 
  193000    1.2053645   -7.1830091    73.579519  0.031770086  0.033821036            1 
  194000    1.2062538   -7.1865615    73.983792  0.031779979  0.033805366            2 
  195000    1.2094676   -7.1921594    74.071164  0.031654344  0.033789275            1 
  196000    1.2086132   -7.1710314    74.446014  0.031652217  0.033772486            1 
  197000    1.2098025   -7.1874163    74.668571   0.03158569  0.033755713            1 
  198000    1.2067637   -7.2070188    74.999636  0.031565503  0.033737349            1 
  199000    1.2255944   -7.2033535    75.409793   0.03157864  0.033719752            1 
  200000     1.243956   -7.2113351    75.917574  0.031632322  0.033701563            2 
  201000    1.2230279   -7.1928317    75.926618  0.031478697  0.033685714            3 
  202000    1.2179259    -7.225431    76.572853  0.031589461  0.033669297            2 
  203000    1.2254451   -7.2125021    77.084272   0.03164379  0.033651912            2 
  204000    1.2331941   -7.1882395    77.405598  0.031619934  0.033635707            1 
  205000    1.2169962    -7.205583     77.82995  0.031638191  0.033618782            1 
  206000     1.204815   -7.2547709    78.051998  0.031574433   0.03360237            3 
  207000    1.2241401   -7.1952393    78.508822  0.031605806  0.033585977            3 
  208000    1.1902171   -7.1907259     78.99394  0.031648213  0.033571508            2 
  209000    1.2222397   -7.1945425    79.218959  0.031586507  0.033556067            2 
  210000    1.2208699   -7.2500886    79.373484  0.031497414  0.033541078            1 
  211000    1.2260392   -7.2036533    79.924904  0.031565918  0.033523914            1 
  212000    1.2192902   -7.1852677    80.325972  0.031574674  0.033507512            1 
  213000    1.1992662   -7.1803659    80.650691  0.031553478  0.033491441            2 
  214000    1.2100898   -7.1814188    81.269636  0.031647054  0.033475761            1 
  215000    1.2169495   -7.2071205    81.328406  0.031522638  0.033461431            3 
  216000    1.2300377   -7.2550224    81.834247  0.031571855  0.033447274            1 
  217000     1.217116   -7.1834954    82.102478  0.031529369  0.033431645            2 
  218000    1.2226607   -7.1797227     82.74724  0.031631208  0.033415509            1 
  219000    1.2115675   -7.2087623    82.462002  0.031378235  0.033398782            1 
  220000     1.229014   -7.1470499    83.629653  0.031677899  0.033381931            2 
  221000    1.2256203   -7.2033145      83.5843  0.031517459  0.033366406            1 
  222000    1.2074428   -7.2115311    83.704703  0.031420684  0.033349351            2 
  223000    1.2277553   -7.1819362    84.154277  0.031447787  0.033331292            2 
  224000    1.1877397    -7.188317    84.494054    0.0314338  0.033314798            1 
  225000      1.21447   -7.2052725    85.160876  0.031541065  0.033298019            2 
  226000    1.2266777    -7.214899    85.451258  0.031508576   0.03328243            2 
  227000    1.2213359   -7.2048976    85.816338  0.031503795  0.033266508            1 
  228000    1.2100458   -7.2230802    85.785532  0.031354361  0.033249705            1 
  229000    1.2127331   -7.2213005    86.685625  0.031544987  0.033235102            2 
  230000     1.218171   -7.2355728    86.746344  0.031429835  0.033220993            1 
  231000    1.2086287   -7.2116329    87.002461  0.031386169  0.033204479            1 
  232000    1.2031654   -7.2165697     87.73254  0.031513125   0.03318897            1 
  233000    1.2168557   -7.2296392    87.664692   0.03135361  0.033170862            2 
  234000    1.2232351   -7.2002007    88.192291  0.031407511  0.033155521            1 
  235000     1.216453   -7.1689234    88.885351  0.031519628  0.033139599       -1e+20 
  236000    1.2005227   -7.1923614    88.663253  0.031307646  0.033123161            2 
  237000    1.2169077   -7.1947894    88.930821  0.031269628  0.033105906            2 
  238000    1.1967798    -7.235429    89.307126  0.031270002  0.033087901            2 
  239000     1.183926   -7.2267774    89.399842  0.031171493  0.033068963            1 
  240000    1.2300259   -7.2464344    89.607883  0.031113848  0.033048884            2 
  241000    1.1995016   -7.1709651    90.384825  0.031253397  0.033029645            2 
  242000    1.2053932   -7.2234191    90.445004  0.031144974  0.033011143            2 
  243000    1.2293096   -7.2627107    90.761419  0.031125315  0.032989565            1 
  244000    1.2239366   -7.2113946    91.371166  0.031205999  0.032968227            1 
  245000    1.2115844   -7.2118969    91.639109  0.031169765  0.032947958            2 
  246000    1.2208583   -7.1832226    92.264598  0.031254945  0.032927774            1 
  247000    1.2246982   -7.2351384    92.216396  0.031112144   0.03290744            2 
  248000    1.2109796   -7.2000452    92.852245  0.031200351  0.032888634            2 
  249000    1.2222853   -7.1833119    93.172489  0.031182225  0.032871233            2 
  250000    1.1888347   -7.1880697    93.958631  0.031319544  0.032854759            1 
  251000    1.1938104   -7.2221615    93.682773  0.031103178  0.032838185            1 
  252000    1.2170086   -7.1805623     94.51088  0.031253598   0.03282219            1 
  253000    1.1741436   -7.2371931     94.12095   0.03100163  0.032803224            3 
  254000    1.2131752   -7.2159709    95.192036  0.031230983  0.032783358            1 
  255000    1.1835692   -7.1995608     95.11589  0.031083624  0.032763653            2 
  256000     1.195325   -7.2247444    95.732974  0.031163078  0.032745501            1 
  257000    1.2040754    -7.207853    95.840962  0.031076836  0.032727825            1 
  258000    1.1846251   -7.2491728    96.341501  0.031118056  0.032709437            3 
  259000    1.2199444   -7.2121938    96.879509  0.031171013  0.032694123            3 
  260000    1.2097197   -7.2069821     97.05418  0.031107109  0.032677083            3 
  261000    1.2171898   -7.2170233    97.470904  0.031120978  0.032660028            2 
  262000    1.2054137   -7.2101069    97.762056  0.031094802  0.032644458            2 
  263000     1.219708   -7.2144209    98.299251  0.031146784  0.032627847            1 
  264000    1.1931762   -7.2019729    98.730348  0.031164883  0.032612457            2 
  265000    1.2002553   -7.2037492    98.743971  0.031051563  0.032595099            2 
  266000    1.2134293   -7.2559934    99.204226  0.031079018  0.032579758            1 
  267000    1.2244831   -7.1790545    99.932883  0.031190038  0.032564404            4 
  268000    1.2298294   -7.2008461    100.29779  0.031187123  0.032550164            1 
  269000    1.2139317   -7.2359713     100.7964  0.031225652  0.032537129            1 
  270000    1.1704927   -7.2328272     100.6526  0.031065617  0.032523973            2 
  271000    1.2165732   -7.2242743    101.37838  0.031174165  0.032509747            1 
  272000    1.2082159   -7.2563333    101.27591  0.031028159  0.032495271            1 
  273000    1.2087164   -7.2151552    102.15791  0.031183734  0.032482672            3 
  274000    1.2074609   -7.1927283    102.95336   0.03131185  0.032470838            6 
  275000    1.1620845   -7.2757951    102.79718   0.03115066  0.032459481            2 
  276000    1.2605018   -7.1532284    103.70777  0.031312732  0.032448844            2 
  277000    1.1929723   -7.1876463    103.54646  0.031151162  0.032437814            1 
  278000    1.1792109   -7.2413668    103.83691  0.031126172  0.032425199            1 
  279000    1.2084304   -7.2623326    103.89991  0.031033427  0.032411356            1 
  280000    1.2174457   -7.2237724    104.14171  0.030994555  0.032396566            1 
  281000    1.2375929   -7.2567231    104.56683  0.031010328  0.032381993            2 
  282000    1.2123944   -7.2160703    104.73235  0.030949277  0.032366816            1 
  283000    1.2357056   -7.2124075    105.31866  0.031012562  0.032352413            2 
  284000    1.2365736   -7.2487402    105.64159  0.030998119  0.032339286            3 
  285000    1.2135937   -7.2726084     105.9867  0.030990263  0.032324804            2 
  286000    1.2011583   -7.2429005    106.14051  0.030926723  0.032309337            3 
  287000    1.2190108    -7.285209    106.44102   0.03090622  0.032294699            1 
  288000    1.1883528    -7.242903    106.93537  0.030941948   0.03228086            3 
  289000    1.2210234   -7.2600994    107.50362  0.030998737  0.032267199            1 
  290000    1.2109676   -7.2241728    107.75618  0.030964418  0.032254179            1 
  291000    1.1897407   -7.2508916     108.1172  0.030961397  0.032241395            1 
  292000    1.1872743   -7.2427598    109.19764   0.03116371  0.032227837            2 
  293000    1.2001914   -7.2557007    109.23017  0.031066601  0.032215642            2 
  294000    1.2134044   -7.2325081    109.56215  0.031055031  0.032203946            2 
  295000    1.2023268   -7.2164081    109.93419  0.031054856  0.032192993            1 
  296000    1.2155192   -7.2336934    110.28478  0.031048642   0.03218175            2 
  297000    1.2125612     -7.19731    111.03932  0.031155813  0.032172468            2 
  298000    1.2009365   -7.2285652    110.97507  0.031033296  0.032162463            1 
  299000    1.2122487   -7.2446307    111.54428  0.031088151  0.032152636            1 
  300000    1.2494506   -7.2373895    111.77667  0.031049075  0.032140528            3 
  301000    1.2173253   -7.2175958    111.80366  0.030953393  0.032128256            1 
  302000    1.1949673   -7.2256585    112.62811  0.031078398  0.032116365            3 
  303000    1.2091058   -7.1742996     112.5881  0.030964824  0.032103991            3 
  304000    1.2169078   -7.1796352    113.40999  0.031088264  0.032091925            1 
  305000    1.2156978   -7.1568773    113.87864  0.031114383   0.03208056            1 
  306000    1.1841958   -7.1874462    114.00266  0.031046477  0.032069976            2 
  307000    1.1917464   -7.2266829     114.1086  0.030974105   0.03205884            1 
  308000    1.1780954   -7.2110787    114.50495  0.030980776  0.032046443            1 
  309000    1.1774845   -7.2543587    114.28679   0.03082168  0.032032881            1 
  310000    1.1807456   -7.2129167    114.83734  0.030870252  0.032019538            1 
  311000    1.1968816   -7.2491149    115.08998  0.030838686  0.032006301            1 
  312000    1.1986275   -7.1989991    115.54854  0.030862325  0.031992814            2 
  313000    1.2267338   -7.2525108    115.23822  0.030681103  0.031978416            1 
  314000     1.229587   -7.2593311     115.8202  0.030737845  0.031964464            2 
  315000     1.222698   -7.2177934    116.58728  0.030843195  0.031951769            3 
  316000    1.2211192   -7.2185858    117.48097  0.030981267  0.031939431            2 
  317000    1.2237328   -7.2328605    117.20489  0.030810959  0.031927422            4 
  318000    1.2300222   -7.2412831    117.88444  0.030892149  0.031915305            1 
  319000    1.1808573   -7.2827685    118.18419  0.030873612  0.031903775            2 
  320000    1.1950762   -7.2558708    118.30833  0.030809462  0.031892703            2 
  321000    1.1876577   -7.2189322    118.79662  0.030840245   0.03188136            1 
  322000    1.1966665   -7.2440921    119.26597  0.030865935  0.031870999            3 
  323000    1.1890983    -7.212686     120.1417  0.030996311  0.031861173            1 
  324000     1.193957   -7.2331003    120.23111  0.030923638  0.031852333            1 
  325000    1.1937599   -7.2762175    120.38253  0.030867315  0.031842928            1 
  326000    1.1996514   -7.2614916    120.26588  0.030742813  0.031832615            1 
  327000    1.2122138   -7.3046981    120.66593  0.030750746  0.031822362            2 
  328000    1.2173976   -7.2456671    121.77365  0.030938427  0.031812182            2 
  329000    1.2131288   -7.2093748     121.9793  0.030896479  0.031802582            1 
  330000    1.1894222   -7.2262824    122.60591  0.030961087  0.031792879            1 
  331000    1.1858584   -7.2117719    122.80425  0.030917485    0.0317837            2 
  332000    1.1853183   -7.2174836    122.92176  0.030853856  0.031774421            2 
  333000    1.2317123   -7.2458403    123.39075  0.030878565  0.031765749            3 
  334000    1.2078454    -7.210075    123.85741  0.030902547  0.031757471            2 
  335000      1.20279   -7.2720871    124.33129  0.030928182  0.031749665            1 
  336000    1.1823848   -7.1931289    125.20297  0.031052324  0.031741474            1 
  337000    1.2009042   -7.2524641    124.86793  0.030877332  0.031734608            3 
  338000    1.1800913   -7.2491765    125.34446  0.030903467  0.031727331            1 
  339000    1.2275963    -7.269163    125.73771  0.030908976  0.031719984            2 
  340000    1.1773131   -7.2532556    126.04515  0.030893419  0.031712269            1 
  341000    1.2045506   -7.2656563     125.9055  0.030768694  0.031702722            2 
  342000     1.215618   -7.2425699    126.61945  0.030852692  0.031693539            3 
  343000    1.2165293   -7.2540502    126.89081  0.030828671  0.031685683            2 
  344000    1.2166522   -7.2046187    127.50229  0.030887183  0.031677841            3 
  345000     1.189448   -7.2447541    128.05373  0.030930853  0.031669639            1 
  346000    1.1829223   -7.2606535    127.95088  0.030816685  0.031660355            3 
  347000    1.1820565   -7.2585829    127.88817  0.030712816  0.031650723            5 
  348000     1.204329   -7.2072873    128.29442  0.030721843  0.031641396            1 
  349000    1.1724384   -7.2182769    128.90667  0.030780007  0.031631723            3 
  350000    1.1961086   -7.2278482    129.32863  0.030792532  0.031620528            1 
  351000    1.2059786   -7.2617019    128.91887  0.030607518  0.031608523            4 
  352000    1.2104881   -7.2726957    128.77593  0.030486726  0.031595861            2 
  353000    1.1894878   -7.2504768    129.51491  0.030574812  0.031582955            1 
  354000    1.2058537   -7.2869661    129.87173   0.03057244  0.031569752            2 
  355000    1.1766771   -7.2564159    130.26898  0.030579573  0.031557442            6 
  356000    1.1966353   -7.2848468    130.81197  0.030620779  0.031545731            4 
  357000    1.2068913    -7.238882    130.94767  0.030566684   0.03153356            1 
  358000    1.1846128   -7.2649662    130.68453  0.030420048  0.031520441            1 
  359000    1.1834164   -7.2273985    131.74018  0.030580358  0.031507191            2 
  360000    1.1547626   -7.2683618    131.72701  0.030492364  0.031495006            3 
  361000    1.1964334   -7.2791287    131.91108  0.030450388  0.031482769            1 
  362000    1.1847156   -7.2692019    132.06067  0.030400708  0.031469586            2 
  363000    1.1928562    -7.304374    131.94795  0.030291081    0.0314557            3 
  364000    1.1908503   -7.2766815    132.70079  0.030380218  0.031440925            2 
  365000    1.1593349   -7.2992551    133.13625  0.030396404  0.031427104            1 
  366000    1.2095123   -7.2814109    133.72525  0.030447462  0.031413514            3 
  367000    1.1795308   -7.2781075     133.4858  0.030310127  0.031399329            3 
  368000    1.1716183   -7.2751212    133.70204  0.030276729  0.031385218            1 
  369000    1.1830536   -7.2123963    134.71859  0.030424252  0.031371032            3 
  370000    1.1910047    -7.222378    134.98994  0.030403141  0.031357355            1 
  371000    1.2217773   -7.2783052    134.69953  0.030255959  0.031343755            1 
  372000    1.1947032    -7.226815    135.22582  0.030292521  0.031329426            1 
  373000    1.1642667   -7.2459646     135.8827  0.030358065  0.031316446            1 
  374000    1.1723077   -7.2818397    135.85573  0.030270885  0.031302704            2 
  375000    1.2013831   -7.2756943    136.14484  0.030254408  0.031288368            1 
  376000     1.180896   -7.2446358    136.79669  0.030318416  0.031274033            2 
  377000    1.1803859   -7.2254932    137.01294  0.030285795  0.031259588            2 
  378000    1.1765454   -7.2889638    136.64801  0.030125223  0.031245976            3 
  379000    1.1971226   -7.2671385    137.19272  0.030165506   0.03123242            1 
  380000    1.1800081   -7.2914617    138.24474  0.030316829  0.031218835            2 
  381000    1.1999297   -7.2552183    138.11359  0.030208571  0.031205663            2 
  382000    1.1997694   -7.2229795     138.8723  0.030295005  0.031193098            3 
  383000     1.195714   -7.3101695    138.70364  0.030179208  0.031179695            3 
  384000    1.2065697    -7.307829    138.45397  0.030046434  0.031165086            1 
  385000    1.1804458   -7.2552409    139.57933  0.030211975  0.031150696            1 
  386000    1.1661268   -7.2789737    140.06514  0.030238589  0.031137303            3 
  387000    1.1887103   -7.2601964     140.5422  0.030263179  0.031124467            2 
  388000    1.1961852   -7.2640086    141.06796  0.030298102  0.031113006            3 
  389000     1.185499   -7.2728194     141.7066  0.030357026  0.031102255            2 
  390000    1.1867095   -7.2785665    141.72606  0.030283345  0.031092099            2 
  391000    1.1953975   -7.2204507    143.19576  0.030519131  0.031082823            1 
  392000    1.1941817   -7.2836462    142.57272  0.030308826  0.031073235            4 
  393000    1.1618994    -7.267312    143.15827  0.030355867   0.03106262            2 
  394000    1.1998688     -7.28698    143.43762  0.030337906  0.031051989            2 
  395000      1.16408   -7.2613084    143.71867  0.030320394  0.031042157            1 
  396000    1.2082999   -7.3097833    143.67222  0.030234052   0.03103247            2 
  397000    1.1988538   -7.2592572    143.90371  0.030206489  0.031022777            3 
  398000    1.1983797   -7.2937887     145.0909  0.030379167  0.031013512            2 
  399000    1.1763951   -7.2679726    145.07308  0.030299306  0.031004431            1 
  400000    1.1887057   -7.2439755    145.87039  0.030389664  0.030995589            3 
  401000    1.1921166   -7.2749394    146.15465  0.030372953  0.030987365            2 
  402000    1.1974475   -7.2769293     146.8594  0.030443492  0.030978609            2 
  403000    1.1846339   -7.2796454     146.2486  0.030241646  0.030970033            2 
  404000     1.163913   -7.2784531    147.02611  0.030327168  0.030961227            2 
  405000     1.189236   -7.2741185    147.66935   0.03038464  0.030953791            1 
  406000     1.189083   -7.2988185    147.62073  0.030299822  0.030945873            1 
  407000    1.1867136   -7.2732188      148.206  0.030345209  0.030937284            2 
  408000    1.1824342   -7.2861673    148.10015  0.030249213  0.030928626            2 
  409000    1.1954541   -7.2477049    148.79989  0.030317827  0.030920082            1 
  410000    1.1963217   -7.2413203    148.99013  0.030282547  0.030910397            1 
  411000    1.1788571   -7.2593203    149.00802  0.030212494  0.030900755            6 
  412000    1.2049061   -7.2817405     148.9902  0.030135558  0.030890696            1 
  413000    1.2030367   -7.3013291    149.38056  0.030141355  0.030880693            1 
  414000    1.1956395   -7.2483496    150.11014  0.030215406  0.030871232            1 
  415000    1.1798928   -7.2784398    150.58513  0.030237977  0.030861534            4 
  416000    1.1665977   -7.2346018    151.09399  0.030267226  0.030851587            1 
  417000    1.1854833   -7.2813711    151.32535  0.030240877  0.030842621            2 
  418000      1.17951   -7.2594708    151.00987  0.030105637  0.030833262            2 
  419000    1.1976621    -7.283072    151.66454   0.03016399  0.030823986            1 
  420000    1.1767088   -7.2717877     152.1169  0.030181924  0.030814617            3 
  421000    1.2023101   -7.2189256     152.3829  0.030162886  0.030805122            1 
  422000    1.2019391   -7.2516649    153.15966  0.030244799  0.030795724            1 
  423000    1.1962203   -7.2675448    153.25381  0.030191847  0.030786809            2 
  424000    1.1950244   -7.3045188     153.4907  0.030167198  0.030777726            1 
  425000    1.1563176   -7.2807956    153.55356  0.030108541  0.030768219            1 
  426000    1.1666088   -7.3242524    153.51153  0.030029643  0.030757984            2 
  427000    1.1733859   -7.2859943    154.00938  0.030056475  0.030748266            2 
  428000    1.1706402   -7.2407117    155.07985  0.030194675  0.030738522            1 
  429000      1.19146   -7.2789678    154.69686  0.030049895  0.030728488            1 
  430000    1.1843664   -7.2730239    154.83564  0.030006907  0.030719047            5 
  431000    1.1793132   -7.2297667    155.96322  0.030155301  0.030709396            1 
  432000    1.1603785   -7.3121583    155.64832  0.030024753  0.030699564            3 
  433000    1.1526634   -7.2882699    155.86823  0.029997735  0.030688778            2 
  434000    1.2077656   -7.2800561    156.20343  0.029992977  0.030678512            2 
  435000    1.1931708   -7.2928012    157.04889  0.030085994  0.030668593            1 
  436000    1.1743022    -7.275489    156.68214  0.029946893  0.030657988            1 
  437000    1.1929392   -7.2954615    157.28486  0.029993299  0.030647512            3 
  438000    1.1764999   -7.3149174    157.60768   0.02998624  0.030636626            1 
  439000    1.1808253    -7.282791    158.00107   0.02999261  0.030626019            2 
  440000    1.1605751   -7.2397317    157.82842  0.029891746  0.030614968            2 
  441000    1.1996311   -7.2677085     158.4811  0.029947298   0.03060376            1 
  442000    1.1812379   -7.3165979    158.31277  0.029847808   0.03059207            2 
  443000    1.1893572   -7.2290925    159.16706  0.029941132   0.03058113            2 
  444000    1.1730586   -7.2913815    159.21612  0.029882905   0.03056973            3 
  445000     1.192122   -7.2967443    159.59578   0.02988685  0.030558326            1 
  446000    1.2016854   -7.2750219     160.3781  0.029966012  0.030548542            2 
  447000    1.1727719   -7.2703614    161.11496  0.030036345   0.03053981            1 
  448000    1.1771373   -7.2869037    161.27655  0.029999359  0.030531438            2 
  449000    1.1987745   -7.2658395     161.5341  0.029980345  0.030522817            2 
  450000    1.1953524   -7.3197403    161.30561  0.029871408   0.03051378            2 
  451000    1.1713223   -7.3003128     162.0734  0.029947043  0.030505065            1 
  452000    1.1847429   -7.2724559    162.05018  0.029876507  0.030496147            2 
  453000     1.179502   -7.2998644    163.33632  0.030047153  0.030487247            2 
  454000    1.1762216   -7.2650691    163.08273  0.029934421  0.030478649            2 
  455000    1.1938088    -7.283589    163.62954  0.029968779  0.030470062            3 
  456000    1.1715014   -7.2869523    164.17562  0.030002855   0.03046145            9 
  457000    1.1774847   -7.2752849    164.66089  0.030025691  0.030452964            4 
  458000    1.1663097    -7.282624    164.57946  0.029945316  0.030444594            5 
  459000    1.1828817   -7.3242624    164.90083  0.029938421  0.030436859            1 
  460000    1.1828916   -7.2869604    165.53583  0.029988374  0.030429034            1 
  461000    1.1889467   -7.2972055     165.7266  0.029957809  0.030421505            1 
  462000    1.1876671   -7.2867517    166.29176  0.029994907  0.030413882            2 
  463000    1.1641067   -7.2841506    166.85779     0.030032   0.03040603            2 
  464000     1.194672   -7.3193183    167.07736   0.03000671  0.030398043            1 
  465000    1.1711651   -7.2720031    167.03297  0.029934224  0.030390084       -1e+20 
  466000    1.1562513   -7.2776315     166.9069  0.029847443  0.030382145            3 
  467000    1.1939391   -7.2940031    167.73329  0.029930995  0.030373786            2 
  468000    1.1711591   -7.3324282    167.61779  0.029846472  0.030365454            1 
  469000    1.1659483   -7.2650152    167.66954  0.029792029  0.030356754            2 
  470000    1.1584449   -7.2836384    168.20286  0.029823203  0.030348007            1 
  471000    1.1682566   -7.2889348     168.9992  0.029900779  0.030339489            1 
  472000    1.2040901   -7.2833095    168.76147  0.029795458  0.030331544            1 
  473000    1.1761344   -7.2915947     169.0477  0.029782893   0.03032306            1 
  474000    1.1523279   -7.3245683    169.82323  0.029856406  0.030314405            3 
  475000    1.1972865    -7.277552    170.14846  0.029850606  0.030306029            2 
  476000    1.1683582   -7.3030818       169.95  0.029753151  0.030297632            3 
  477000    1.1650921   -7.3364074    170.58414  0.029801562  0.030289078            2 
  478000    1.1629441   -7.3244414    171.41792  0.029884575  0.030281338            1 
  479000    1.1688076   -7.2972823    171.06076  0.029760048  0.030273139            1 
  480000    1.1534655   -7.3121397    171.24871  0.029730679  0.030264633            2 
  481000    1.1781014   -7.2939382    171.76987   0.02975916  0.030255868            1 
  482000    1.1629098   -7.3041902    172.00316  0.029737752  0.030246805            1 
  483000    1.1886321   -7.2608977    172.79293  0.029812444  0.030237758            1 
  484000    1.1754264   -7.2526063    172.83948  0.029758864  0.030228906            1 
  485000    1.1664344    -7.307739    173.23309  0.029765136  0.030220501            2 
  486000    1.1590675   -7.2914068    173.12583  0.029685499  0.030211557            1 
  487000    1.1669375   -7.2973466     173.5923  0.029704363  0.030203381            1 
  488000    1.1820982   -7.3205747    173.79446  0.029678016  0.030195457            2 
  489000    1.1814484   -7.3241257    174.33357  0.029709198  0.030187181            2 
  490000    1.1447204   -7.2927798    174.68168  0.029707768  0.030178966            1 
  491000    1.1635806   -7.3041569    175.10102  0.029718435  0.030170062            3 
  492000    1.2079426   -7.2659489    175.56879   0.02973726  0.030162232            1 
  493000    1.1975547   -7.3321455    175.73765  0.029705485  0.030153985            5 
  494000    1.1604658   -7.2901172    176.21459  0.029725808  0.030146161            2 
  495000    1.1750192   -7.3297471    176.26126  0.029673612   0.03013811            1 
  496000    1.1603307   -7.2937141    176.86607  0.029715402  0.030129962            3 
  497000    1.2031065   -7.3197856    176.73395  0.029633459  0.030121578            4 
  498000    1.2153791   -7.2888293      177.868  0.029763721  0.030113628            2 
  499000    1.1369366   -7.2773478     178.1374  0.029749065  0.030105678            8 
  500000    1.1817565   -7.3115512    177.95695  0.029659491  0.030097536            1 
  501000    1.1519752   -7.2640586    178.88951  0.029755407  0.030089147            1 
  502000    1.2042483   -7.3357121    178.52697  0.029635951   0.03008125            1 
  503000    1.2100782   -7.2569763    178.77953  0.029618875  0.030072885            1 
  504000     1.161664   -7.2912577    178.67328   0.02954254  0.030064727            1 
  505000    1.1863639     -7.30484    179.16305   0.02956486   0.03005544            2 
  506000    1.1733372   -7.3177469    179.49318  0.029560801  0.030046197            1 
  507000     1.169228   -7.3293679    180.09902  0.029602074  0.030037896            1 
  508000    1.1894749   -7.3405628    180.71598   0.02964501  0.030029149            1 
  509000    1.2209811    -7.286869    180.71304  0.029586286   0.03002114            1 
  510000    1.1641303   -7.2661623    181.56432  0.029667373  0.030013318            1 
  511000    1.1874799   -7.2848046    181.41353  0.029584725  0.030005016            1 
  512000    1.1715765   -7.3425308    181.80356  0.029590424  0.029996883            4 
  513000    1.1597327    -7.322536    181.82419  0.029536093  0.029988594            1 
  514000    1.1760548   -7.3257278    181.93528  0.029496641  0.029980262            2 
  515000    1.1645909   -7.3333841    182.35746   0.02950768  0.029972201            2 
  516000    1.1880597   -7.3407392    182.68022   0.02950262  0.029963471            2 
  517000    1.1696969   -7.3015946    182.64884  0.029440497  0.029955191            1 
  518000    1.1633628   -7.3371422     183.1392  0.029462548  0.029946719            3 
  519000    1.1711987   -7.2856478    184.21836  0.029579055   0.02993824            2 
  520000    1.2102062   -7.3029276    184.66276  0.029593391  0.029929792            2 
  521000    1.1856523   -7.3280249    184.42486  0.029498538  0.029921378            1 
  522000    1.1804125   -7.3158112    184.70017  0.029485978  0.029913164            2 
  523000    1.1707358   -7.3364041    184.68349  0.029426942  0.029905449            4 
  524000    1.1570036   -7.3321235    185.71021  0.029534066  0.029898001            2 
  525000    1.1484901    -7.306379    186.12077  0.029542979  0.029890912            1 
  526000    1.1641024   -7.3161026    186.68257  0.029575819  0.029884361            1 
  527000    1.1525849   -7.3226324     186.1758  0.029439564  0.029876837            2 
  528000    1.1505513   -7.3302843    187.10817  0.029530961  0.029868658            1 
  529000    1.1491178   -7.3490031    187.12215  0.029477339  0.029861056            4 
  530000    1.1361239   -7.3636876    187.14143  0.029424753  0.029852584            1 
  531000    1.1824059   -7.2881168    188.32984  0.029555844  0.029844601            1 
  532000    1.1607992   -7.2500937    189.16421  0.029630986  0.029837409            1 
  533000    1.1655837   -7.2923009    188.89464  0.029533245  0.029830648            2 
  534000    1.1659956   -7.3443562    189.32867  0.029545672  0.029823289            1 
  535000    1.1734175   -7.3620107    189.45432  0.029510019  0.029816141            2 
  536000    1.1702396   -7.3172273    189.79703  0.029508245  0.029809059            2 
  537000    1.2068911   -7.3368619     189.8851  0.029466961   0.02980175            2 
  538000    1.1872834   -7.2969876    190.77457  0.029549965  0.029795147            2 
  539000    1.1537627   -7.3357699    191.00222  0.029530338  0.029788455            2 
  540000    1.1600548   -7.2831467    191.51785  0.029555224  0.029781668            1 
  541000    1.1613454    -7.409018    190.95437  0.029413797  0.029775487            2 
  542000    1.1813687   -7.3462482    191.25139  0.029405195  0.029768421            3 
  543000    1.1874459   -7.3245008    192.32452  0.029515734   0.02976141            3 
  544000    1.1476256   -7.3693303    192.78552  0.029532095  0.029755344            3 
  545000    1.1487701   -7.2736958    193.37878  0.029568621  0.029749004            1 
  546000    1.1625462   -7.2981701    193.75038  0.029571182  0.029742898            1 
  547000    1.1569798   -7.2877395    194.06993  0.029565802  0.029737056            4 
  548000    1.1561289   -7.3054113    193.83724  0.029476465  0.029730632            2 
  549000    1.1405021   -7.3574495    194.34953  0.029500536  0.029724275            1 
  550000    1.1906482   -7.3683176    194.79477   0.02951436  0.029718481            3 
  551000    1.1566522   -7.3486506    195.36438  0.029546942  0.029712981            1 
  552000    1.1531394   -7.3067767    195.33633   0.02948918  0.029707383       -1e+20 
  553000    1.2116341   -7.2969542    195.92587  0.029524694  0.029701488            1 
  554000    1.1773129   -7.3295671    196.54183  0.029564053  0.029695719            3 
  555000    1.1460537   -7.3335036    196.59996  0.029519514  0.029689504            2 
  556000    1.1414516   -7.3498033    196.69755  0.029481047  0.029683355            1 
  557000    1.1487437   -7.3533212    197.26991  0.029513751  0.029677498            2 
  558000    1.1208266   -7.3024489    198.13769  0.029590456  0.029672213            2 
  559000    1.1593213   -7.3100724    198.20438  0.029547462  0.029667038            1 
  560000    1.1684075    -7.301169     198.5853  0.029551384  0.029661495            1 
  561000    1.1708586   -7.2985792    199.04862  0.029567531  0.029655957            1 
  562000     1.160203   -7.3470758    199.13332   0.02952748  0.029650944            3 
  563000    1.1735317   -7.3346068    199.38353  0.029512067  0.029645389            2 
  564000    1.1366077     -7.31755    199.74214  0.029512727  0.029639945            2 
  565000    1.1699653   -7.3443103    199.91763  0.029486375  0.029634626            2 
  566000    1.1612607   -7.3728263    199.94737  0.029438658  0.029629078            1 
  567000    1.1746401   -7.3743146    200.31742  0.029441126  0.029623246            1 
  568000    1.1555633   -7.3706896    200.75481  0.029453464  0.029618168            2 
  569000     1.182103   -7.3194859    201.98748  0.029582233  0.029613071            1 
  570000    1.1667296   -7.3286184    202.19127  0.029560127  0.029608272            1 
  571000    1.1619489   -7.3512843    202.03067   0.02948492  0.029603673            2 
  572000    1.1771404   -7.3242343    202.37436  0.029483444  0.029599284            1 
  573000    1.1523893   -7.3435037    203.00515  0.029523727  0.029594791            1 
  574000    1.1746261   -7.3064307     203.4859  0.029542088  0.029590454            1 
  575000    1.1684677    -7.346414    203.31138  0.029465417  0.029585421            4 
  576000    1.1670609   -7.3146987    204.16783   0.02953817  0.029580316            1 
  577000    1.1664282   -7.3229308    204.04942  0.029469876  0.029575085            2 
  578000    1.1763422   -7.2787362    204.03036  0.029416142  0.029569914            1 
  579000    1.1563866   -7.3452158    204.11386  0.029377355  0.029564139            2 
  580000    1.1560896   -7.3372776    203.92694  0.029299848  0.029557956            1 
  581000    1.1813878   -7.3377567     204.9968  0.029402869  0.029551895            1 
  582000    1.1393555   -7.3835386    204.99197  0.029351657  0.029545826            5 
  583000    1.1642352   -7.3363496    206.06234  0.029454309  0.029540318            1 
  584000    1.1401429   -7.3449523    205.98129  0.029392307  0.029534863            2 
  585000    1.1389987   -7.3319086     206.3759  0.029398276  0.029529257            2 
  586000    1.1424775   -7.3539173    207.42683  0.029497558  0.029523789            3 
  587000    1.1351367   -7.3416862    207.43311  0.029448199  0.029518676            2 
  588000    1.1660813   -7.3595015    206.61733  0.029282502  0.029513111            1 
  589000    1.1622611   -7.3700133    206.95695  0.029280836  0.029507342            1 
  590000    1.1598033   -7.3264739    207.83055  0.029354597  0.029501703            2 
  591000    1.1458883   -7.3352348    207.90555  0.029315503   0.02949626            2 
  592000    1.1612991   -7.3517214    209.01591  0.029422285  0.029490717            2 
  593000    1.1810308   -7.3231836    209.86188  0.029491552  0.029485767            2 
  594000    1.1658841   -7.3662785    209.74767   0.02942588  0.029480929            2 
  595000    1.1269947   -7.4025432    210.14169  0.029431609  0.029476109            1 
  596000    1.1635326   -7.3313876    209.80884  0.029335688  0.029471191            1 
  597000    1.1630696   -7.3515053    211.21769  0.029483206  0.029466874            2 
  598000    1.1655397   -7.3644174    210.42028  0.029322782  0.029462087            4 
  599000     1.174069   -7.3442622    211.65828   0.02944606  0.029457315            2 
  600000    1.1641836   -7.3171587    212.04464  0.029450644  0.029452557            1 
  601000    1.1812335   -7.2859315    212.09503  0.029408628  0.029448183            2 
  602000    1.1513928   -7.2988446    212.80115  0.029457523  0.029443685            2 
  603000    1.1429995   -7.2951427    212.90792  0.029423427  0.029439349            1 
  604000    1.1488367   -7.3080853    212.93164  0.029377986  0.029434667            1 
  605000    1.1138443   -7.3671811    212.25435  0.029236136  0.029429921            3 
  606000    1.1273753    -7.318157    212.63241  0.029239881  0.029424405            2 
  607000    1.1518222   -7.3161207    213.61239  0.029326248  0.029418938            2 
  608000    1.1275785   -7.3677031    213.15824  0.029215768  0.029413553            5 
  609000    1.1645288   -7.3430728    213.72845   0.02924582  0.029408265            1 
  610000    1.1663632   -7.3647834    214.22471  0.029265671  0.029402726            2 
  611000    1.1704858   -7.3585267     213.9541  0.029180865  0.029397037            1 
  612000    1.1638632    -7.348344    215.56322   0.02935229  0.029391555            2 
  613000    1.1721587   -7.3761852    215.25914  0.029263069  0.029386509            2 
  614000    1.1734595   -7.3808693    215.07618  0.029190579  0.029380886            1 
  615000    1.1760425   -7.3463045      215.326  0.029176964  0.029375183            5 
  616000    1.1792609   -7.3312849    215.97045  0.029216782   0.02936947            1 
  617000    1.1610809   -7.3884296    216.31751  0.029216303  0.029364039            3 
  618000    1.1502766   -7.3161995     217.2779  0.029298531  0.029358317            2 
  619000    1.1618348   -7.3556348       216.42  0.029135703  0.029352587            1 
  620000    1.1655359    -7.353392    216.78647  0.029137967  0.029346599            2 
  621000    1.1653572   -7.3597845    217.24212   0.02915219  0.029340876            4 
  622000    1.1239648   -7.3149056    218.16231  0.029228606  0.029335308            2 
  623000    1.1586199   -7.3332517    219.17745  0.029317476  0.029330004            2 
  624000    1.1612751   -7.3986239    217.59483  0.029059138  0.029324245            1 
  625000      1.14939   -7.3800955     218.4906   0.02913208  0.029318461            2 
  626000    1.1500106   -7.3485634    218.63722  0.029105061  0.029312695            2 
  627000    1.1703125   -7.3263326    218.92483  0.029096867  0.029306193            1 
  628000    1.1597502   -7.3391901    219.72187  0.029156299  0.029300157            1 
  629000    1.1539693   -7.3575419    220.36268  0.029194844  0.029294253            3 
  630000    1.1523794   -7.3939876    219.27213   0.02900425  0.029288276            1 
  631000    1.1491609   -7.3913294    219.57521  0.028998311  0.029281785            4 
  632000     1.168465   -7.3913079    220.11252  0.029023276  0.029275238            2 
  633000    1.1545035   -7.3003861    220.83444  0.029072464  0.029268846            2 
  634000    1.1375407   -7.3647058    221.22216   0.02907757  0.029262437            1 
  635000    1.1357725   -7.3889662    221.19823  0.029028639  0.029255977            2 
  636000    1.1531661   -7.2924071    222.30699  0.029128274  0.029250234            2 
  637000    1.1540212   -7.3362986     222.2479  0.029074817  0.029244436            1 
  638000    1.1609125    -7.315111    222.80873  0.029102499  0.029238763            1 
  639000    1.1569189   -7.3732823     223.5817  0.029157759  0.029233219            2 
  640000    1.1308287   -7.3622831    223.55994  0.029109367   0.02922749            2 
  641000    1.1422832   -7.3424304    223.32767  0.029033759  0.029221993            3 
  642000     1.142369   -7.3706983    224.10963  0.029090034  0.029216136            3 
  643000    1.1381197   -7.3726721     224.1319   0.02904768  0.029210469            1 
  644000    1.1376984   -7.3849181     224.4218  0.029040088  0.029204904            1 
  645000    1.1586791   -7.3636748    225.27766  0.029105641  0.029199734            3 
  646000    1.1587094   -7.3310139    225.97433  0.029150456  0.029194627            5 
  647000    1.1277064   -7.3625181     225.4982  0.029044075   0.02918928            2 
  648000    1.1269076   -7.3376099    225.65234  0.029019076  0.029183446            1 
  649000    1.1693965   -7.3740653      225.664   0.02897586   0.02917712            1 
  650000    1.1344939   -7.3913239     225.9403  0.028966705  0.029170921            2 
  651000    1.1587762   -7.3723657    226.27633  0.028965224  0.029164436            2 
  652000    1.1380502   -7.3655732    226.73533  0.028979464  0.029157674            2 
  653000    1.1449447   -7.3782469    226.59647  0.028917365  0.029151534            3 
  654000     1.155575   -7.3451558    227.69798  0.029013505  0.029144997            1 
  655000    1.1538523   -7.3527397    227.42443  0.028934406  0.029138989            1 
  656000    1.1520107   -7.3545197    228.73732  0.029057078   0.02913323            3 
  657000     1.150426   -7.3263606     229.0883  0.029057369   0.02912704            2 
  658000    1.1496088   -7.4042027    227.50865  0.028813153  0.029121188            2 
  659000    1.1631999   -7.3698291    228.40791  0.028883144  0.029114863            1 
  660000    1.1357375   -7.3512145    229.24963  0.028945661  0.029109184            1 
  661000    1.1305127   -7.3919915      228.876  0.028854766  0.029103285            3 
  662000    1.1453989   -7.3776919    229.71381  0.028916643  0.029097122            1 
  663000    1.1332493   -7.3663255    229.34139  0.028826218  0.029091163            2 
  664000    1.1292814   -7.3948307    229.94208  0.028858193   0.02908522            2 
  665000    1.1411001   -7.3490359    231.02969  0.028951089  0.029079052            2 
  666000    1.1187429   -7.3421603    231.14386  0.028921904  0.029073095            2 
  667000    1.1764931   -7.3879802    231.44269  0.028915878  0.029066455            1 
  668000    1.1381038   -7.4010516    231.35789  0.028862012  0.029060386            2 
  669000    1.1288002    -7.349605    232.79334  0.028997675  0.029054315            2 
  670000    1.1427339   -7.3984927    232.02231  0.028858497  0.029048398            1 
  671000    1.1499391   -7.3589156    232.85616  0.028919046  0.029042838            2 
  672000    1.1596541   -7.3812344    232.41425  0.028821212  0.029036928            2 
  673000    1.1359307    -7.379842    233.98705  0.028973136  0.029030989            1 
  674000    1.1393325   -7.3994182    233.61221  0.028883805  0.029025592            2 
  675000    1.1451467   -7.3727901    234.09522  0.028900644  0.029019975            1 
  676000    1.1402859   -7.3990543    233.93039  0.028837573  0.029013985            2 
  677000    1.1408772   -7.4108977     233.8864  0.028789561  0.029008087            2 
  678000    1.1458102   -7.3878073    235.16189  0.028903871  0.029002126            1 
  679000    1.1573596   -7.3645637    235.76826  0.028935722  0.028996378            1 
  680000    1.1556803   -7.3680184    235.77455   0.02889394  0.028990972            2 
  681000     1.129584   -7.3924036    235.73787  0.028847022  0.028985359            1 
  682000    1.1334011   -7.3584996    235.74945   0.02880614  0.028979703            2 
  683000     1.120713   -7.3744125    236.34576  0.028836721  0.028974426            2 
  684000    1.1468598   -7.3661465    235.92649  0.028743481  0.028968616            1 
  685000    1.1264569   -7.4094016    236.16181  0.028730147  0.028962694            1 
  686000     1.152083   -7.3729696    237.24888   0.02882032  0.028956634            4 
  687000    1.1411171   -7.4040497     236.9133  0.028737663  0.028950479            1 
  688000    1.1228104   -7.4003354    237.21285  0.028732176  0.028944254            2 
  689000    1.1333123   -7.3855473    237.95476  0.028780208  0.028937846            1 
  690000    1.1377592   -7.3654236    237.53136  0.028687362  0.028931307            1 
  691000    1.1453055    -7.368031    237.72241  0.028668887  0.028925021       -1e+20 
  692000    1.1560371    -7.396895    238.39984  0.028709037  0.028918731            3 
  693000     1.155858   -7.3772547     238.9884  0.028738384   0.02891272            2 
  694000    1.1621939   -7.3743941    239.28324  0.028732378  0.028906333            3 
  695000    1.1416002   -7.3763069    238.45304  0.028591492  0.028899832            2 
  696000    1.1544082   -7.3754406    239.39679  0.028663409  0.028893175            5 
  697000    1.1394279   -7.3697943    239.99315  0.028693585  0.028886457            1 
  698000    1.1288518   -7.3602848    239.49613  0.028593139  0.028879782            1 
  699000    1.1456994   -7.4172267    239.66753  0.028572667  0.028873014            1 
  700000    1.1349646   -7.3923455    239.89555  0.028558994  0.028865848            4 
  701000    1.1283672   -7.4060325    240.78772  0.028624313   0.02885899            1 
  702000    1.1338861   -7.3625405    241.03627  0.028613042  0.028851977            2 
  703000    1.1617553   -7.3930816    241.06202  0.028575394  0.028845054            4 
  704000     1.144139   -7.3934715    241.24341  0.028556275  0.028838066            3 
  705000    1.1398468   -7.3921187    241.26133  0.028517888  0.028831131            1 
  706000    1.1309741   -7.3561661     242.0142  0.028566359  0.028824078            1 
  707000    1.1200867   -7.3716529    242.24806  0.028553519  0.028817011            3 
  708000    1.1511555   -7.3825113    242.37991  0.028528708  0.028810102            4 
  709000    1.1356445   -7.4473242    241.88099   0.02842983  0.028802979            4 
  710000    1.1348777   -7.4154045    243.00717  0.028521968  0.028795847            1 
  711000    1.1317662   -7.4393803    243.21742  0.028506495  0.028788713            2 
  712000    1.1532414   -7.3512693    243.83681  0.028538953  0.028781737            2 
  713000    1.1556878   -7.4667596     242.9568  0.028396073  0.028774246            1 
  714000    1.1533191   -7.4088443    244.28257  0.028511037  0.028767014            2 
  715000    1.1533975   -7.4394842    243.41787  0.028370381  0.028759736            1 
  716000    1.1105257   -7.3858142    244.65263  0.028474468   0.02875257            1 
  717000    1.1496728   -7.3748054    244.94224  0.028468414  0.028745703            1 
  718000    1.1488548   -7.3796554    246.00546  0.028552166  0.028738973            3 
  719000    1.1469273    -7.380216    246.27359  0.028543532  0.028732469            2 
  720000    1.1504665   -7.3597887    246.69097  0.028552195  0.028726029            2 
  721000    1.1286485    -7.360013    247.47284  0.028602964  0.028719882            2 
  722000    1.1384841   -7.3706645    247.61284  0.028579506  0.028713416            1 
  723000     1.123394   -7.4009152    247.24508  0.028497588  0.028707031            8 
  724000    1.1332538    -7.371451    247.78531  0.028520409  0.028700921            2 
  725000    1.1360408   -7.3612649    249.19006  0.028642536  0.028694994            2 
  726000     1.141763   -7.3860892     248.6465   0.02854069  0.028688839            1 
  727000    1.1380482    -7.392959    248.39139   0.02847219  0.028682647            1 
  728000    1.1341367   -7.4145528    248.10005  0.028399731  0.028676472            1 
  729000    1.1250912   -7.4087088    249.08527  0.028473396  0.028670251            5 
  730000    1.1192241   -7.3706226    249.58123  0.028491007  0.028663825            2 
  731000    1.1161256   -7.3855813    249.86364  0.028484227  0.028657604            7 
  732000     1.159689    -7.403582    250.77356  0.028548902  0.028651368            1 
  733000    1.1276314   -7.3750953    250.28296  0.028454179  0.028645047            2 
  734000    1.1359597   -7.3912061    250.51393  0.028441636  0.028638881            2 
  735000    1.1330763   -7.3643963    251.04845  0.028463543  0.028632839            1 
  736000    1.1605829   -7.4086111    251.19285   0.02844122  0.028626591            4 
  737000    1.1454402    -7.386899    251.84973  0.028476903  0.028620439            2 
  738000    1.1174492   -7.3962653    252.24499  0.028482948  0.028614387            1 
  739000    1.1272448   -7.3903849    252.52374  0.028475839  0.028608521            2 
  740000    1.1432385   -7.4257535    252.49573  0.028434204  0.028601946            1 
  741000    1.1019536   -7.3887492    253.18089  0.028472885  0.028595871            1 
  742000    1.1173983   -7.4457826    252.39949  0.028346753  0.028589573            2 
  743000    1.1290855   -7.3713217    253.28244  0.028407631  0.028583369            1 
  744000    1.1152841   -7.3949619    253.21214  0.028361575  0.028576954            4 
  745000    1.1446958   -7.3694581    254.61975  0.028480956  0.028570702            2 
  746000    1.1700876   -7.4129269    253.58956  0.028327698  0.028564255            1 
  747000    1.1204519   -7.4070389    254.26324  0.028364931  0.028557447            2 
  748000    1.0925241   -7.4325938    253.66194   0.02826002  0.028550626            2 
  749000    1.1439106   -7.3970028     254.7093  0.028338818  0.028543537            2 
  750000     1.130415   -7.4707896    254.35056  0.028261173  0.028536558            2 
  751000    1.1277368   -7.4173228    254.93033  0.028287875  0.028529841            1 
  752000    1.1103116   -7.4170509    254.06243  0.028154081  0.028523009            3 
  753000    1.1304204    -7.379795    256.03778    0.0283353   0.02851636            2 
  754000    1.1270687   -7.4096379     255.6015  0.028249503  0.028509851            1 
  755000    1.1400785   -7.4348291    255.67788  0.028220517  0.028503123            1 
  756000    1.1494544   -7.3970178    256.76981   0.02830355  0.028496374            2 
  757000    1.1381093   -7.4001436    257.06643  0.028298815  0.028490154            2 
  758000    1.1417275   -7.4095605    257.06434  0.028261251  0.028483988            3 
  759000    1.1483005   -7.4230634    257.53675  0.028275884  0.028477664            2 
  760000    1.1130229   -7.4163282    258.29149  0.028321436   0.02847125            3 
  761000    1.1211859   -7.4218013    258.99786   0.02836157  0.028465168            3 
  762000    1.1273044   -7.4111734     259.3209  0.028359679  0.028458763            3 
  763000    1.1169337   -7.4247357    258.54225  0.028237467  0.028452325            1 
  764000    1.1534958   -7.3961277    259.48304  0.028303124  0.028446062            1 
  765000    1.1447942   -7.4304321    259.71493  0.028291387  0.028440028            2 
  766000    1.1528767   -7.3826179    259.72339  0.028255373   0.02843394            3 
  767000    1.1297775   -7.4184623    259.56418  0.028201236  0.028427576            2 
  768000    1.1207985    -7.413067    260.81004    0.0282997  0.028421382            1 
  769000    1.1419226   -7.4139565    260.34709  0.028212732  0.028414739            1 
  770000    1.1414248   -7.4295978    261.01647  0.028248536  0.028408601            1 
  771000    1.1162718   -7.4470465    260.58237  0.028164977  0.028402041            2 
  772000    1.1213409   -7.4537879    261.02351  0.028176113  0.028395652            2 
  773000    1.1498158   -7.3989057    262.46694  0.028295271    0.0283893            2 
  774000    1.1232679   -7.4204534    263.01116  0.028317308  0.028383176            1 
  775000    1.1288436   -7.3744498    263.30433  0.028312293  0.028377247            1 
  776000    1.1353795   -7.4388136    261.55311  0.028087748  0.028370945            2 
  777000    1.1437092    -7.416317    262.31266  0.028133061  0.028364466            1 
  778000    1.1264719   -7.4179119    262.45394  0.028112033  0.028357731            2 
  779000    1.1513408   -7.4140991    263.23144  0.028159118  0.028350882            1 
  780000    1.1142881    -7.406036    264.16408  0.028222658  0.028344353            2 
  781000    1.1191299   -7.4153285    263.94506  0.028163151  0.028337884            1 
  782000    1.1095079    -7.404195    263.47038  0.028076553  0.028331234            3 
  783000    1.1329697   -7.3443635    265.70509  0.028278532  0.028324863            2 
  784000    1.1311794   -7.4033507    264.54156  0.028118789  0.028318511            2 
  785000    1.1216242   -7.4119972    265.61414   0.02819683  0.028312113            2 
  786000    1.1517604   -7.4073998    265.62225  0.028161817  0.028305595            2 
  787000    1.1398395   -7.4216662    265.28794  0.028090633  0.028298869            2 
  788000    1.1073502   -7.4049684    265.69465  0.028097996   0.02829205            3 
  789000    1.1101424    -7.437951    264.83169  0.027971239  0.028285206            1 
  790000    1.1260727   -7.4329189    265.51258  0.028007656  0.028278292            3 
  791000    1.1449967   -7.4324681    266.31976  0.028057287  0.028271246            1 
  792000    1.0901431   -7.4126839    266.56014  0.028047153  0.028264193            2 
  793000    1.1210814   -7.4153749    266.44393  0.027999572  0.028257025            2 
  794000    1.1205432   -7.4247463    265.36935  0.027851527  0.028249664            1 
  795000    1.1192704   -7.4620393    265.29473  0.027808672  0.028242162            3 
  796000    1.1406685   -7.4099055    267.39245  0.027993347  0.028234468            2 
  797000    1.1010058   -7.4077461    266.88201  0.027904853  0.028226938            1 
  798000    1.0978229   -7.4169972    266.94559  0.027876523  0.028219051            2 
  799000    1.1182139   -7.3916962    267.67338  0.027917541  0.028211152            1 
  800000    1.1065987   -7.4239861    266.98801  0.027811251  0.028203455            2 
  801000     1.143759   -7.4308341    267.62143  0.027842429  0.028195603            1 
  802000    1.1231736   -7.4264489    268.35767  0.027884214  0.028187776            1 
  803000    1.1277982   -7.4480711    268.14431  0.027827346  0.028180275            3 
  804000    1.1145332   -7.4185408    269.52553  0.027935896  0.028173154            1 
  805000    1.1517715   -7.4171957    269.72132  0.027921462   0.02816617            2 
  806000    1.1304685   -7.4399391    269.32336  0.027845674   0.02815904            4 
  807000    1.1353969    -7.407435    270.65899  0.027949091  0.028151708            1 
  808000    1.1341493    -7.467373    270.47832  0.027895866  0.028144486            1 
  809000    1.1271911   -7.4601145    270.71673  0.027885943  0.028137531            2 
  810000    1.1517872   -7.4650468    269.67175  0.027744007  0.028130304            1 
  811000    1.1162563   -7.3973292    270.51094  0.027796027  0.028122935            1 
  812000    1.0935202   -7.4529706    270.78805  0.027790235  0.028115634            2 
  813000    1.1484014   -7.4267098    271.47719  0.027826691  0.028108299            3 
  814000    1.1590099   -7.4079878    272.01683  0.027847751  0.028101149            3 
  815000    1.1032343   -7.4224009    272.06906  0.027818922  0.028093581            2 
  816000    1.1281586   -7.4488082    271.73224  0.027750433  0.028086233            3 
  817000    1.1175845   -7.4376956    272.44855   0.02778953  0.028078555            3 
  818000    1.1670066    -7.453273    272.69989  0.027781163  0.028071184            2 
  819000     1.098301   -7.4818157    273.31567  0.027809897  0.028063728            1 
  820000    1.0895548   -7.4469681    272.95088  0.027738911    0.0280564            2 
  821000    1.1054625   -7.4275038    273.32657  0.027743257  0.028048992            1 
  822000    1.1318144   -7.4650484    273.53076  0.027730207  0.028041442            1 
  823000    1.1093046   -7.3919899    274.75927  0.027820906  0.028034059            2 
  824000    1.1148028   -7.4373214     274.1878  0.027729349   0.02802704            1 
  825000    1.1003265   -7.4185301    274.77585  0.027755136  0.028019846            1 
  826000    1.1210406   -7.4217925    274.98526  0.027742662  0.028012517            3 
  827000    1.1158006   -7.4510219    275.42583   0.02775351  0.028005169            1 
  828000    1.1281453   -7.4411979    275.11618  0.027688826  0.027998225            2 
  829000    1.0979124   -7.4637215    275.45648  0.027689634  0.027990937            3 
  830000    1.1431733   -7.3891484    277.34861  0.027846246  0.027983853            2 
  831000    1.1047023   -7.4314233    276.87379  0.027765121  0.027976896            2 
  832000    1.0985632   -7.4504016    277.41082  0.027785539  0.027970143            1 
  833000    1.1257022   -7.4344385    277.79499  0.027790615  0.027963501            2 
  834000    1.1098104   -7.4131297    278.29773  0.027807527  0.027957006            1 
  835000    1.0999517   -7.4430118    277.55446  0.027700046  0.027950186            5 
  836000    1.1284091    -7.438968    279.08787  0.027819763  0.027943239            1 
  837000    1.1081799   -7.4294189    278.32226  0.027710301  0.027936337            1 
  838000    1.1291462    -7.456732    278.03096  0.027648265  0.027929217            2 
  839000    1.1451712   -7.4512083    278.00058  0.027612295  0.027922069            2 
  840000    1.1077505   -7.4411892    278.98545  0.027677128   0.02791473            2 
  841000    1.1296053   -7.4425521    279.54831  0.027699991  0.027907385            2 
  842000    1.1302059   -7.4150599    279.78734   0.02769075  0.027900557            1 
  843000    1.0978757   -7.4465521    280.72396   0.02775049  0.027893705            3 
  844000    1.1025359   -7.4569971    280.58458  0.027703849  0.027886804            4 
  845000    1.1553013   -7.4441818    279.92878  0.027606389  0.027879979            1 
  846000    1.1165346   -7.4321513    282.17774  0.027795285  0.027873095            1 
  847000    1.0998226   -7.4421582    280.89036  0.027635809  0.027866194            2 
  848000    1.1187795   -7.4344075    281.53022  0.027666099  0.027859178            4 
  849000    1.1028411    -7.433489    282.48931  0.027727651  0.027852343            1 
  850000    1.1026131   -7.4646316    282.11035  0.027657878  0.027845472            1 
  851000    1.0864488   -7.4450928    281.93727  0.027608428  0.027838511            1 
  852000    1.0965435   -7.4142845    282.93368  0.027673482  0.027831661            1 
  853000    1.0882413   -7.4384602    282.63508  0.027611868  0.027824676            2 
  854000     1.105284   -7.4755627    283.22405  0.027637008  0.027817857       -1e+20 
  855000    1.1130256   -7.4341101    283.70923  0.027651971  0.027811053            6 
  856000    1.1240988   -7.4371533    283.10102  0.027560458  0.027804407            5 
  857000    1.0922251   -7.4317965    283.73172  0.027589626  0.027797694            2 
  858000    1.0883691   -7.4312141    284.60814  0.027642593  0.027790631            1 
  859000    1.1031318   -7.4690708    284.31715  0.027582183  0.027783681            2 
  860000    1.1103997   -7.4359509    284.67303  0.027584596  0.027776691            1 
  861000    1.1108228   -7.4264447    285.60866  0.027643115  0.027770047            3 
  862000    1.0997091   -7.4660193    285.54831  0.027605212  0.027763571            2 
  863000    1.1194151   -7.4571519     285.0245  0.027522644  0.027756945            2 
  864000     1.121891   -7.4364514    285.63648  0.027549814  0.027750154            2 
  865000    1.1064827   -7.4312697    286.22851  0.027575001  0.027743462            2 
  866000    1.1059665   -7.4207471    286.32349  0.027552299  0.027737139            3 
  867000    1.1061146   -7.3995824     287.9323  0.027675153  0.027730626            1 
  868000    1.1016017   -7.3854796    287.75835   0.02762657   0.02772445            6 
  869000    1.1145285   -7.4559659    286.46099  0.027470368  0.027718179            3 
  870000    1.1072628   -7.4442047    287.87067  0.027573819  0.027711981            2 
  871000    1.1090435    -7.422767    289.36894  0.027685509  0.027705654            3 
  872000     1.104993   -7.4750778    288.31633  0.027553166  0.027699541            1 
  873000    1.1162964   -7.4808148    287.93235  0.027484951  0.027693066            2 
  874000    1.1255788    -7.457745    289.54497  0.027607263   0.02768639            1 
  875000    1.1534178   -7.4951932    289.40396  0.027562282  0.027680069            1 
  876000    1.1202369    -7.479887    288.39984  0.027435297  0.027673662            3 
  877000    1.1104204   -7.4108253    290.79204  0.027631323  0.027667312            2 
  878000    1.1378711     -7.43231    291.47093  0.027664287  0.027661241            2 
  879000    1.1221862   -7.4867509    291.13841   0.02760129  0.027655285            1 
  880000    1.1167263   -7.4882032    291.51269  0.027605369  0.027649161            3 
  881000    1.1006781   -7.4590507    291.33811  0.027557521  0.027643305            2 
  882000    1.1101892   -7.4414849    292.41938  0.027628437  0.027637274            5 
  883000    1.0938805   -7.4618057    291.62681  0.027522349  0.027631254            1 
  884000    1.1214233   -7.4486897    292.41019  0.027565063  0.027625245            3 
  885000    1.1304763     -7.46102    291.36429  0.027435432  0.027618962            2 
  886000    1.1149238   -7.4454008    292.60207  0.027520887  0.027613113            2 
  887000    1.1065873   -7.4077864    292.85327   0.02751346  0.027607181            1 
  888000    1.0981607   -7.4923194    292.72532  0.027470469  0.027600663            1 
  889000    1.1041697   -7.5135097    292.27025  0.027396911  0.027594034            4 
  890000    1.1038438   -7.4691837    293.11168  0.027444914   0.02758735            2 
  891000    1.0721145   -7.4744802    292.36922  0.027344671  0.027580747            4 
  892000    1.1159818   -7.4514927    293.75145  0.027443147   0.02757413            1 
  893000    1.1125653   -7.3937741    294.94216  0.027523531  0.027567683            2 
  894000    1.1211127   -7.4633843    293.25281  0.027335274  0.027561095            7 
  895000    1.0987201   -7.4222264    294.23333  0.027396027   0.02755441            1 
  896000    1.1042987   -7.4601979    294.39158  0.027380169  0.027547689            1 
  897000    1.1151045   -7.4327225     295.6809  0.027469426  0.027541007            1 
  898000    1.1034095   -7.4453716    294.57553  0.027336259  0.027534126            1 
  899000    1.1077769   -7.4366335    296.00971  0.027438794  0.027527428            4 
  900000    1.1138943   -7.4177501    295.78015  0.027387051  0.027520679            2 
  901000    1.0921301   -7.4731916    295.89211   0.02736701  0.027513987            2 
  902000    1.1084595   -7.4898617    294.28945  0.027188604  0.027506983            2 
  903000    1.1124717   -7.4538943    296.05454  0.027321386  0.027500008            1 
  904000    1.1222884   -7.4553166    296.55415  0.027337219   0.02749314            3 
  905000    1.1070268    -7.430804    296.73647    0.0273238  0.027486382            3 
  906000    1.1201056   -7.4732654    295.68528  0.027196953  0.027479663            2 
  907000    1.1051419   -7.4613689    297.00528  0.027288247  0.027472717            4 
  908000    1.0765402   -7.4377112    297.04408  0.027261755  0.027465719            3 
  909000    1.1159658   -7.4750061    297.17969  0.027244196  0.027458652            1 
  910000     1.102645   -7.4675733     298.3417  0.027320668  0.027451688            2 
  911000    1.0972057   -7.4110123    298.69194  0.027322716  0.027444991            1 
  912000    1.1035357   -7.4365556    299.72798  0.027387425  0.027438578            1 
  913000    1.0909328   -7.4752947    299.30802  0.027319096   0.02743186            1 
  914000    1.0949538   -7.4771705    298.67393  0.027231394   0.02742511            2 
  915000     1.109841   -7.4528352    300.37936  0.027356954    0.0274187            2 
  916000    1.0817967   -7.4549702    301.80101  0.027456424  0.027412498            2 
  917000    1.1198495   -7.5170587    300.79865  0.027335392  0.027406486            4 
  918000    1.1033277    -7.469254    301.13143  0.027335824  0.027400482            1 
  919000    1.1063921   -7.4614599    301.14826  0.027307604   0.02739472            3 
  920000    1.1012868   -7.4659125    302.81883  0.027429241  0.027388865            3 
  921000      1.11039   -7.4680141    302.17474  0.027341182  0.027383129            2 
  922000    1.1188532   -7.4690293    302.28902  0.027321857  0.027377113            2 
  923000    1.1097821   -7.5102769    301.24013  0.027197556  0.027370732            2 
  924000    1.1072558   -7.4758471    302.38504  0.027271378  0.027364191            1 
  925000     1.116095   -7.4790864    302.35569  0.027239251  0.027357483            2 
  926000    1.1008879   -7.4785961    302.73222   0.02724372  0.027350704            1 
  927000    1.1025087    -7.432918    302.26215  0.027172074  0.027343916            1 
  928000    1.0973401   -7.4392154    303.09106  0.027217228  0.027337481            1 
  929000    1.0946523   -7.4803996    303.30589  0.027207203  0.027330985            3 
  930000    1.0927628   -7.4770375    302.42221  0.027098765  0.027324333            1 
  931000    1.1156179   -7.4934923    302.59829  0.027085418  0.027317486            2 
  932000    1.1084249   -7.4858564    303.23172  0.027112994  0.027310621            1 
  933000    1.0826903   -7.4619462    304.29274  0.027178701  0.027303994            2 
  934000    1.1209367   -7.4747204    303.61361  0.027089008  0.027297201            2 
  935000    1.0776897   -7.5132101    303.46915  0.027047161  0.027290305            2 
  936000    1.1055249   -7.5125606    303.90965  0.027057483  0.027283412            2 
  937000    1.1150484   -7.4599225     304.9931  0.027124964  0.027276673            2 
  938000    1.1027477   -7.4679752    304.71078  0.027070965  0.027269716            1 
  939000    1.1130647   -7.5142552    304.86407  0.027055739  0.027262969            1 
  940000    1.0916216   -7.4155955    306.61628  0.027182295  0.027255783            1 
  941000    1.1051563   -7.4605747    306.22925  0.027119133  0.027248902            6 
  942000    1.0912115   -7.4948908    305.16346  0.026996059   0.02724199            2 
  943000     1.101699   -7.4636447    305.33121  0.026982256  0.027235116            3 
  944000    1.0927034   -7.4844555    305.89661  0.027003585  0.027228043            3 
  945000    1.0898505   -7.4703275    306.44539  0.027023403  0.027220873            1 
  946000    1.1088482   -7.4427311    307.50422   0.02708811  0.027213708            3 
  947000    1.1044398   -7.4825298    306.55434  0.026975919  0.027206899            1 
  948000    1.0960869   -7.4627524      306.578  0.026949543   0.02720011            4 
  949000    1.0926418   -7.4717504    307.73826   0.02702303  0.027193263            2 
  950000    1.1008708   -7.4532325    307.71829  0.026992833  0.027186204            1 
  951000     1.125515   -7.4885028    307.89358  0.026979809  0.027179156            2 
  952000     1.125346   -7.5245598    306.54347  0.026833287  0.027172102            6 
  953000    1.0693842   -7.4668431    307.51606  0.026890177  0.027164758            2 
  954000    1.1035076   -7.5076534    307.49164  0.026859857  0.027157511            1 
  955000    1.1041327   -7.5016595    308.50445  0.026920109  0.027150307            2 
  956000    1.0860952   -7.5136233    308.89457  0.026925956  0.027143142            2 
  957000    1.0949963   -7.4661738    309.90635  0.026985924  0.027135936            3 
  958000    1.1065307   -7.4559676    309.39954  0.026913669  0.027128801            1 
  959000    1.1114715   -7.4495369    309.73549  0.026914798  0.027121609            1 
  960000    1.1049342   -7.4855099    309.36821  0.026854879  0.027114308            3 
  961000    1.1135396   -7.5047239    309.41811  0.026831261  0.027107015            1 
  962000    1.1078843   -7.4942541    310.52868  0.026899574  0.027099665            1 
  963000    1.0627278   -7.5265349    310.14442  0.026838389  0.027092294            1 
  964000    1.0826043   -7.4880497    310.21726  0.026816845  0.027084895            2 
  965000    1.1271782   -7.4797606    310.81885  0.026841006  0.027077655            2 
  966000    1.0767652    -7.513063    310.42024  0.026778834  0.027070362            2 
  967000    1.1055862   -7.5131305    311.68444  0.026860086  0.027063041            3 
  968000    1.0808398   -7.4965686    312.28135  0.026883725  0.027055867            3 
  969000    1.0779359   -7.4754352    312.67833  0.026890121  0.027048664            1 
  970000    1.0991397   -7.4878169    312.63471  0.026858652  0.027041642            2 
  971000    1.0949565   -7.5011339    313.58724  0.026912739   0.02703469            2 
  972000    1.0900818   -7.4729722    313.15298  0.026847821  0.027027715            1 
  973000    1.1142763   -7.4849212    313.90754  0.026884853   0.02702094            3 
  974000    1.1005702   -7.4951675    314.10275  0.026873952  0.027014215            1 
  975000      1.08551   -7.4585726    314.90898  0.026915297  0.027007546            2 
  976000    1.0958666    -7.504932    314.29059   0.02683492  0.027000857            2 
  977000      1.06747   -7.5066062    313.91635  0.026775533  0.026994048            3 
  978000    1.1114193   -7.5243186    315.39001  0.026873722   0.02698709            4 
  979000    1.0966402    -7.502857    315.97546  0.026896106  0.026980415            1 
  980000    1.1002912   -7.4569672    316.14561   0.02688313  0.026974026            1 
  981000    1.0674943   -7.4988914    315.95336  0.026839395  0.026967783            2 
  982000    1.0747474   -7.5085195    316.38919  0.026849049  0.026961377            2 
  983000     1.095848   -7.5120539    316.78416  0.026855219  0.026954729            4 
  984000    1.1008673   -7.5253042    318.00064  0.026930948  0.026948264            3 
  985000    1.1045866     -7.49138    317.46228  0.026858061  0.026941839            2 
  986000    1.0698968   -7.4865681    317.45521  0.026830224  0.026935527            2 
  987000    1.1120742   -7.5398961    316.38359  0.026712562  0.026929018            2 
  988000    1.0998571   -7.5140677    318.05018  0.026826095  0.026922308            2 
  989000    1.0956843   -7.5307286    318.06956  0.026800603  0.026915804            2 
  990000    1.0897398   -7.4888268    318.18181  0.026782981   0.02690927            3 
  991000    1.1110176   -7.4986867      318.229  0.026759923   0.02690271            2 
  992000    1.0982959   -7.4854626    319.66611  0.026853672  0.026896321            2 
  993000    1.0879591    -7.484989    319.25949  0.026792505  0.026889998            2 
  994000    1.1023784   -7.4474649    320.27335  0.026850549  0.026883618            1 
  995000    1.0987222   -7.4931859    320.25562  0.026822079  0.026877334            2 
  996000     1.098247   -7.4658847    321.00892  0.026858176  0.026871162            3 
  997000    1.0807146   -7.5031498      320.564  0.026794049  0.026865153            2 
  998000    1.0648107   -7.4993348    321.42172  0.026838821  0.026858867            2 
  999000    1.0843321   -7.4930251    320.03664  0.026696417  0.026852614            1 
 1000000    1.0804249   -7.5315624    320.63824  0.026719854   0.02684626            1 
 1001000    1.1070225   -7.5358348    321.66497  0.026778635  0.026839743            2 
 1002000    1.1216731   -7.5075891    320.92698  0.026690534  0.026833053            4 
 1003000    1.1162699     -7.48471      322.285  0.026776753   0.02682679            1 
 1004000    1.0859371   -7.5057706    322.56138  0.026773023   0.02682049            1 
 1005000    1.1095582   -7.5179369    322.27287   0.02672246  0.026814407            4 
 1006000    1.1003813    -7.495172     323.7533  0.026818531  0.026808199            2 
 1007000      1.09693   -7.5277154    322.96862  0.026726963  0.026801921            3 
 1008000    1.1095843    -7.526907     323.1373  0.026714393  0.026795615            3 
 1009000     1.080762   -7.4976813     324.5082   0.02680114  0.026789382            1 
 1010000    1.0834143   -7.4861275    324.27286  0.026755187  0.026783178            5 
 1011000    1.0941786   -7.4851429    325.17035    0.0268027  0.026777023            1 
 1012000    1.0771352   -7.5133416    324.35687  0.026709228  0.026770786       -1e+20 
 1013000    1.0832441   -7.4937614    324.94551  0.026731286  0.026764562            2 
 1014000    1.0825615     -7.48909    324.94457  0.026704846  0.026758454            2 
 1015000    1.0952297   -7.5302062    325.05476  0.026687583  0.026752623            2 
 1016000    1.0817146   -7.4854023    326.64673  0.026791891  0.026746691            2 
 1017000    1.1032371   -7.5085817    327.03574  0.026797422  0.026740973            2 
 1018000    1.0996691   -7.5149113    327.59037  0.026816501  0.026735131            3 
 1019000    1.0628547   -7.5245654    326.92595  0.026735848  0.026729269            1 
 1020000    1.0974326   -7.5095404    328.33466  0.026824727  0.026723636            2 
 1021000    1.0920482   -7.5185485    327.53454  0.026733149  0.026718203            1 
 1022000    1.0784592   -7.5021104    327.23535  0.026682595   0.02671255            1 
 1023000    1.0768277    -7.494022    328.13861  0.026730092  0.026706711            1 
 1024000    1.0863333   -7.5319209    328.22525  0.026711039  0.026700885            1 
 1025000     1.079242   -7.5431441    328.27992  0.026689425  0.026695057            3 
 1026000    1.0740524   -7.5631803    328.15545  0.026653301  0.026689256            1 
 1027000    1.1089128   -7.5399018    327.99268  0.026614142  0.026683413            2 
 1028000    1.0659997    -7.460828    329.41452  0.026703511  0.026677649            3 
 1029000    1.0980534   -7.4833662    329.78963  0.026707939  0.026671748            1 
 1030000    1.0783395   -7.5668929    329.05149  0.026622289  0.026665522            2 
 1031000    1.1035602   -7.5137141    330.09529  0.026680835  0.026659545            3 
 1032000    1.0906529   -7.5165953    330.22232  0.026665239  0.026653675            1 
 1033000    1.0568178   -7.4920738     331.2714  0.026724056  0.026647645            2 
 1034000    1.0895264   -7.5309135    330.26011  0.026616708   0.02664175            2 
 1035000    1.0815598   -7.4899444    331.15366  0.026662936  0.026635901            2 
 1036000     1.078144   -7.4730714    331.42143  0.026658738  0.026629788            3 
 1037000    1.0767994   -7.5510327    331.33341  0.026625957  0.026623737            1 
 1038000    1.1016238   -7.5361974    331.34299  0.026601075  0.026617618            1 
 1039000     1.112065   -7.5187934    331.80268  0.026612342  0.026611511            2 
 1040000    1.0987759   -7.5380217    330.91787  0.026515855  0.026605418            5 
 1041000    1.0747536   -7.4999152    332.21852  0.026594502  0.026599303            2 
 1042000    1.0829458   -7.5050921    332.52636  0.026593599  0.026593209            1 
 1043000    1.0591268    -7.516857    331.45273  0.026482321  0.026586973            2 
 1044000    1.0757488   -7.4957883    332.66687  0.026553869   0.02658099            3 
 1045000    1.0920625   -7.4729119    333.59661  0.026602601  0.026574971            3 
 1046000    1.0872526   -7.5279209     332.5259  0.026491866  0.026568839            1 
 1047000    1.1186511   -7.5125478    331.91579  0.026418003  0.026562734            1 
 1048000    1.0491161   -7.5303446    333.51274  0.026519779  0.026556674            3 
 1049000    1.1052232   -7.5299398     333.4594  0.026490261   0.02655055            1 
 1050000    1.0898267   -7.5273152    333.95713  0.026504534   0.02654447            3 
 1051000    1.1005401   -7.5605525    333.63291  0.026453609  0.026538242            2 
 1052000    1.0795041   -7.5256157    333.84502  0.026445264  0.026532106            2 
 1053000    1.0698094   -7.5277548    333.52801  0.026395062  0.026525778            2 
 1054000    1.0873329   -7.5408263    334.96493  0.026483628  0.026519511            2 
 1055000    1.0964658   -7.5273447    335.43761  0.026495862  0.026513417            2 
 1056000    1.0878763   -7.5486539    336.07146  0.026520791  0.026507374            1 
 1057000    1.0893101   -7.5715566    335.47749  0.026448871  0.026501277            4 
 1058000    1.1050396   -7.4655217    337.19638  0.026559261  0.026495439            2 
 1059000    1.0843228   -7.5264465    336.92338  0.026512699  0.026489687            2 
 1060000    1.0670378   -7.5273379    338.69373  0.026626866  0.026484023            2 
 1061000    1.0834228    -7.542376    337.12017  0.026478178  0.026478174            3 
 1062000    1.0972504   -7.5335104    337.58673  0.026489856  0.026472389            2 
 1063000     1.107931    -7.547452    337.59409  0.026465513  0.026466426            3 
 1064000    1.0844407   -7.5301411    337.88498  0.026463423  0.026460708            2 
 1065000    1.0911012   -7.5401898    337.59541  0.026415916  0.026454749            2 
 1066000    1.1147643   -7.5162039    337.63951  0.026394583  0.026448591            3 
 1067000     1.072623   -7.5782674    337.74314  0.026377939  0.026442511            3 
 1068000    1.1013614   -7.5865333    337.82964   0.02635999  0.026436367            2 
 1069000    1.0726126   -7.5247499    338.27912  0.026370371  0.026430189            1 
 1070000    1.0999128   -7.5060288    339.44104  0.026436218   0.02642409            4 
 1071000    1.0963894   -7.5395241    339.79731  0.026439255  0.026417868            2 
 1072000    1.0758241   -7.5087279     340.4771  0.026467437  0.026411795            3 
 1073000     1.066393     -7.53259    339.19467  0.026343171  0.026405546            1 
 1074000    1.0758877   -7.5592459    338.85549  0.026292326  0.026399181            3 
 1075000      1.10421   -7.5154424    340.62475   0.02640502  0.026392889            1 
 1076000    1.0857243   -7.5682682    339.16457  0.026267392  0.026386441            2 
 1077000    1.0966437   -7.5262481    340.25252  0.026327184  0.026380241            1 
 1078000    1.0856863   -7.5056142    341.08845  0.026367382  0.026373987            2 
 1079000     1.093683   -7.5608574    340.48801  0.026296571  0.026367952            7 
 1080000    1.0756245   -7.5629387    341.05013  0.026315596  0.026361785            2 
 1081000    1.0788777   -7.5354337    341.43207  0.026320696  0.026355578            2 
 1082000    1.0674018   -7.5663609    340.46401  0.026221813  0.026349169            3 
 1083000    1.0687651   -7.5620234    340.94198  0.026234378  0.026342802            1 
 1084000    1.0650733   -7.5291875    341.16928  0.026227651  0.026336521            2 
 1085000    1.0793654   -7.5441989    342.30085  0.026290388  0.026330271            2 
 1086000    1.0851304   -7.5312331    341.82866  0.026229947  0.026323908            2 
 1087000    1.0757093     -7.52001    342.77735  0.026278545  0.026317674            2 
 1088000    1.0616242   -7.5271241    342.53168  0.026235576  0.026311178            2 
 1089000    1.0680098   -7.5475991    342.57187   0.02621456  0.026304816            1 
 1090000    1.0638962   -7.5185249     344.1571  0.026311705  0.026298712            2 
 1091000    1.0837346   -7.5321096    343.40061  0.026229805  0.026292465            4 
 1092000    1.0614847    -7.526705    343.54488  0.026216795  0.026286427            3 
 1093000    1.0670335   -7.5394493    344.83254  0.026290984  0.026280496            2 
 1094000    1.0596746   -7.5617843     344.2422  0.026221983  0.026274564            2 
 1095000    1.0644021   -7.5345589    345.79338  0.026316087  0.026268385            2 
 1096000    1.0670026   -7.5343345    344.88618  0.026223098  0.026262194            3 
 1097000    1.0760665   -7.5706182    344.79236  0.026192067  0.026256246            1 
 1098000    1.0908338   -7.5255365    344.65502  0.026157788  0.026250357            2 
 1099000    1.0803218   -7.5214994    346.23737  0.026253971   0.02624417            1 
 1100000    1.0655238   -7.5482541     345.9563   0.02620881  0.026237974            1 
 1101000    1.0720753   -7.4668704    346.37953   0.02621704  0.026231971            1 
 1102000    1.0732459   -7.5596604    346.24126  0.026182794   0.02622576            2 
 1103000    1.0800677   -7.5682504    346.82652  0.026203273  0.026219547            1 
 1104000     1.065763   -7.5231611     345.8464  0.026105555  0.026213347            1 
 1105000     1.053708   -7.5205442    348.73095  0.026299469  0.026207142            3 
 1106000    1.0704292   -7.5346673    348.14766   0.02623174  0.026201335            3 
 1107000    1.0754554    -7.550952    347.76296  0.026179085  0.026195445            4 
 1108000     1.089261   -7.5460228    348.46262  0.026208079  0.026189653            2 
 1109000    1.0870735   -7.5218472    349.67713  0.026275709  0.026183745            2 
 1110000    1.0805805   -7.5468027    347.93464  0.026121219  0.026177952            7 
 1111000    1.0732693   -7.5742347    348.07402  0.026108162  0.026172011            2 
 1112000    1.0965188    -7.534068    349.53586  0.026194234  0.026165902            3 
 1113000    1.0944266   -7.5527781    348.47174  0.026091026  0.026160011            2 
 1114000    1.0793153   -7.5638956    348.25646  0.026051501  0.026153878            3 
 1115000    1.0789038   -7.5456447    348.79427  0.026068331  0.026147749            1 
 1116000    1.0587242   -7.5591503    349.83382  0.026122597  0.026141548            3 
 1117000    1.0566086   -7.5512434     350.1828  0.026125246  0.026135256            1 
 1118000    1.0778695   -7.5085724    352.06786  0.026242387  0.026129433            2 
 1119000    1.0966729   -7.5067542     351.2722  0.026159681  0.026123581            3 
 1120000    1.0466933   -7.5566537     350.7332  0.026096221  0.026117697            4 
 1121000    1.0698534   -7.5728192    351.45754  0.026126787  0.026111694            1 
 1122000    1.0645037    -7.628428    351.35163  0.026095635  0.026105688            3 
 1123000    1.0628045   -7.5545461    351.19146  0.026060512   0.02609957            1 
 1124000    1.0869367   -7.5495774    353.11996  0.026180305  0.026093659            3 
 1125000    1.0798287    -7.543689    351.91348  0.026067665  0.026087572            6 
 1126000    1.0742524   -7.5300486    350.86195  0.025966693  0.026081531            1 
 1127000    1.0651365   -7.5342997    351.70251  0.026005805  0.026075292            3 
 1128000    1.0545884   -7.5902045    351.32887  0.025955147   0.02606915            2 
 1129000    1.0551383   -7.5906702    352.95762  0.026052378  0.026063135            2 
 1130000      1.07554   -7.5555695    353.45084  0.026065696  0.026057285            1 
 1131000    1.0610932   -7.5372659    352.93219  0.026004435   0.02605153            2 
 1132000    1.0661209   -7.5438309    353.22501  0.026003019  0.026045636            2 
 1133000    1.0444677   -7.5486118    353.26331  0.025982885  0.026039472            1 
 1134000     1.074996   -7.5436014    353.45078  0.025973749  0.026033392            2 
 1135000    1.0761947   -7.5483485    353.69036  0.025968455  0.026027381            1 
 1136000    1.0741216   -7.5820666    354.16333  0.025980291  0.026021226            2 
 1137000    1.0612786   -7.5614966    354.25341  0.025964043  0.026015013            2 
 1138000    1.0846336   -7.5163121    355.93933  0.026064684   0.02600876            1 
 1139000    1.0637468   -7.6229611    354.87454  0.025963897  0.026002505            2 
 1140000    1.0762686     -7.55145    355.91155  0.026016926  0.025996394            3 
 1141000    1.0847715   -7.5207059    355.13498  0.025937408  0.025990312            2 
 1142000    1.0622995   -7.5086771    355.66228  0.025953173  0.025984183            1 
 1143000    1.0859786   -7.4953421    357.22792  0.026044614  0.025978342            3 
 1144000    1.0864521   -7.4980595    356.45012  0.025965189  0.025972424            4 
 1145000    1.0941178   -7.5368782    357.07537  0.025988018  0.025966367            2 
 1146000    1.0922386    -7.544369    356.02279  0.025888801  0.025960198            1 
 1147000    1.0611564   -7.5353551    356.89438  0.025929554  0.025953945            4 
 1148000    1.0758048   -7.5506257    356.43509  0.025873628  0.025947723            1 
 1149000    1.0661884   -7.5439398    358.04016   0.02596752  0.025941586            4 
 1150000    1.0571079   -7.5703128    357.31487  0.025892382   0.02593536            1 
 1151000     1.059408   -7.5945636    358.36065  0.025945601  0.025929133            2 
 1152000    1.0526266   -7.5251726     358.7471  0.025951034  0.025923193            2 
 1153000    1.0422756   -7.5633031    358.15313  0.025885598  0.025917146            2 
 1154000    1.0797174   -7.5420053    358.79913  0.025909816  0.025911147            2 
 1155000    1.0695443   -7.5543746    359.32614  0.025925407  0.025904956            3 
 1156000    1.0851772   -7.5798847    358.36491  0.025833687  0.025898974            2 
 1157000     1.079481    -7.557138    359.39957  0.025885881  0.025892813            1 
 1158000     1.077764    -7.579548    360.19618  0.025920854  0.025886711            3 
 1159000    1.0578794   -7.5818208    359.49698  0.025848216  0.025880599            2 
 1160000     1.082518   -7.5610081    360.50414  0.025898286  0.025874441            2 
 1161000    1.0673825    -7.595808     359.8037  0.025825704  0.025868353            2 
 1162000    1.0723969    -7.573267    358.75287  0.025728118  0.025862015            3 
 1163000    1.0599201   -7.5637123    360.65496  0.025842287  0.025855788            2 
 1164000    1.0910861   -7.5087422    361.25372  0.025862953  0.025849688            3 
 1165000    1.0764544   -7.5337775    361.58428  0.025864398  0.025843821            1 
 1166000    1.0660423   -7.5868856    360.65314  0.025775668  0.025837882            1 
 1167000    1.0739117   -7.6083948    361.26048   0.02579695  0.025831883            1 
 1168000    1.0673124   -7.5686348    362.60558  0.025870832  0.025825933            2 
 1169000    1.0853215   -7.5964007    360.67697  0.025711218  0.025819829            1 
 1170000    1.0697299   -7.5731442    362.73666  0.025835945  0.025813767            4 
 1171000    1.0486032   -7.5611941    362.92096  0.025826997  0.025807713            2 
 1172000    1.0707341   -7.5774925    362.32637  0.025762683   0.02580183            5 
 1173000    1.0676116    -7.574647    362.92252  0.025783072  0.025795904            3 
 1174000     1.065312   -7.6162593    361.90424   0.02568883  0.025790035            3 
 1175000    1.0429893   -7.5272215    363.80991  0.025802121  0.025784245            1 
 1176000    1.0664974   -7.5657434    364.31671  0.025816093  0.025778598            1 
 1177000    1.0550177   -7.5399793    364.44021  0.025802904  0.025772818            2 
 1178000    1.0641986   -7.5878746    363.89285  0.025742279   0.02576713            1 
 1179000    1.0727971    -7.582626    364.31827  0.025750514  0.025761198            2 
 1180000    1.0474491   -7.5841314    364.13042  0.025715425  0.025755332            2 
 1181000    1.0469151   -7.5657881    365.76618  0.025809073  0.025749663            2 
 1182000    1.0562123   -7.5636809    365.29213  0.025753816  0.025743931            4 
 1183000    1.0673551   -7.5924579    365.87487  0.025773096  0.025738268            2 
 1184000    1.0773583   -7.5532186     367.2456  0.025847804  0.025732558            2 
 1185000    1.0948339   -7.5421189    367.04724  0.025812042  0.025726868            1 
 1186000     1.061584   -7.5691217    366.27082  0.025735724   0.02572107            2 
 1187000    1.0637737   -7.5385041    367.20517  0.025779638    0.0257152            2 
 1188000    1.0642797   -7.5749629     366.4783  0.025706952  0.025709396            2 
 1189000    1.0526769   -7.5532025    367.32728  0.025744834  0.025703534            4 
 1190000    1.0775384   -7.5871159    367.01002  0.025700982  0.025697782            3 
 1191000    1.0674394   -7.5658964     367.7717  0.025732697  0.025692003            1 
 1192000    1.0812148   -7.5870661    368.77668  0.025781368  0.025686405            1 
 1193000    1.0773002   -7.5759662    368.59814  0.025747286  0.025680758            3 
 1194000    1.0559495   -7.5897568    368.08492  0.025689902  0.025675144            2 
 1195000    1.0819529   -7.6049855    368.95427  0.025729028  0.025669607            3 
 1196000    1.0420331   -7.6123474    370.29291  0.025800788  0.025664034            2 
 1197000    1.0667263   -7.5921028    369.94465  0.025754988  0.025658489            1 
 1198000    1.0293776    -7.581912    369.44598  0.025698802   0.02565308            2 
 1199000    1.0595531    -7.572255     371.6984  0.025833917  0.025647639            1 
 1200000    1.0764535   -7.6063431    369.72463  0.025675322   0.02564209            2 
 1201000    1.0809656   -7.5961935    371.56878  0.025781903  0.025636635            1 
 1202000     1.062394   -7.5770052    370.19363  0.025665116  0.025631153            2 
 1203000    1.0611722   -7.5773125    370.49014  0.025664321  0.025625494            2 
 1204000    1.0574779   -7.5951302    370.81283   0.02566534  0.025619995            4 
 1205000    1.0505904   -7.5866195    371.62534  0.025700231  0.025614492            3 
 1206000    1.0780704   -7.5802203    371.87347  0.025696066  0.025608846            2 
 1207000    1.0776139   -7.6096865    371.33261  0.025637435  0.025603009            2 
 1208000    1.0281223   -7.5933462    371.48036  0.025626405   0.02559737            2 
 1209000    1.0587762   -7.6279891    371.55875  0.025610611  0.025591542            1 
 1210000    1.0672806    -7.587004     371.9969  0.025619621  0.025585615            5 
 1211000    1.0745391   -7.5724169    373.01256  0.025668357  0.025579653            2 
 1212000    1.0447376   -7.6111609    372.81908  0.025633875   0.02557378            2 
 1213000    1.0654428   -7.5876069    372.90944   0.02561895  0.025567875            2 
 1214000    1.0683898   -7.5952112    373.25671  0.025621685  0.025562186            3 
 1215000    1.0843868   -7.5881073    373.83431  0.025640214  0.025556641            3 
 1216000    1.0616767   -7.6283562    372.19537   0.02550681  0.025551059            2 
 1217000    1.0517224   -7.5290533    374.65849  0.025654512  0.025545401            3 
 1218000    1.0495811   -7.5760924    375.36675  0.025681907  0.025540015            2 
 1219000    1.0704614    -7.603368    374.72559  0.025617008  0.025534486            7 
 1220000    1.0662635   -7.6349236    374.29157  0.025566364  0.025528782            1 
 1221000    1.0666786    -7.565753    374.67841  0.025571827  0.025522957            3 
 1222000    1.0478112   -7.6069825    374.49461  0.025538366  0.025517176            2 
 1223000    1.0647764   -7.5813698    374.98824   0.02555112  0.025511358            5 
 1224000    1.0702183   -7.5705375    375.58046  0.025570565  0.025505716            1 
 1225000    1.0670537   -7.6062688    375.93715  0.025573956  0.025500113            1 
 1226000     1.070762   -7.5888308    375.88127  0.025549298   0.02549445            6 
 1227000    1.0471406   -7.6230192    376.41483  0.025564713  0.025488863            1 
 1228000    1.0462207   -7.5778346     377.0397  0.025586299  0.025483433            1 
 1229000    1.0393737   -7.5420037    377.87435  0.025622074    0.0254781            1 
 1230000    1.0754192   -7.5825993    377.24569  0.025558651  0.025472619            1 
 1231000    1.0590042   -7.5825605    378.24817  0.025605752  0.025467128            2 
 1232000     1.062048   -7.5581979     378.4642  0.025599581  0.025461631            2 
 1233000    1.0507936   -7.5861729    377.04452  0.025482868  0.025456053            1 
 1234000     1.049003   -7.5972112     377.2401  0.025475425  0.025450496            2 
 1235000     1.053202   -7.5737103    379.30033  0.025593815  0.025444942            3 
 1236000    1.0594684   -7.5855586    379.40024  0.025579844    0.0254394            1 
 1237000    1.0556631   -7.5758528    380.00394  0.025599835  0.025433984            3 
 1238000    1.0607751   -7.6115445    379.62504  0.025553651  0.025428565            2 
 1239000    1.0539738   -7.6000691    379.01443  0.025491958  0.025423072            2 
 1240000    1.0573285   -7.6222174    379.08729  0.025476296    0.0254174            1 
 1241000    1.0634123   -7.6047643    380.63354  0.025559598  0.025412124            1 
 1242000    1.0599859   -7.6084669    379.62586  0.025471407  0.025406821            2 
 1243000    1.0489008   -7.5961061    381.19409  0.025556053  0.025401489            2 
 1244000    1.0425719   -7.6014468    381.04332   0.02552541  0.025396181            1 
 1245000    1.0441626   -7.5716171    382.63196  0.025611242  0.025390899            1 
 1246000    1.0450217   -7.6339873    380.76914  0.025466101  0.025385567            3 
 1247000    1.0718864   -7.6078263    382.42091  0.025556062  0.025380229            3 
 1248000    1.0647451   -7.5774609     381.7878  0.025493309  0.025374916            3 
 1249000    1.0493841   -7.5944535    382.60973  0.025527737  0.025369595            3 
 1250000    1.0475511   -7.5797154     383.9793   0.02559862   0.02536436            4 
 1251000    1.0527896   -7.5936968      382.241  0.025462364  0.025359226            1 
 1252000    1.0639081   -7.5910414    383.19682  0.025505646  0.025353887            1 
 1253000    1.0589692   -7.6092902    382.81382  0.025459817  0.025348556            2 
 1254000    1.0447347   -7.6017431    383.23045  0.025467202  0.025343236            2 
 1255000    1.0659231    -7.633728    382.26324  0.025382685  0.025337865            4 
 1256000    1.0552125   -7.5895618    384.78683  0.025529912  0.025332446            2 
 1257000    1.0709707   -7.5981008     384.5125  0.025491415  0.025327236            3 
 1258000    1.0345815   -7.6391455    382.86754  0.025362185  0.025321816            2 
 1259000    1.0541809   -7.5959952    384.70242  0.025463491   0.02531633            1 
 1260000    1.0511834   -7.5750556    384.53248  0.025432042  0.025310934            2 
 1261000    1.0579949   -7.5768895    385.20982  0.025456636  0.025305701            1 
 1262000    1.0503048   -7.5952627    385.56227  0.025459738  0.025300616            4 
 1263000    1.0336014   -7.6301321    385.75733   0.02545245  0.025295329            3 
 1264000    1.0319497   -7.6019028    386.78439  0.025500025  0.025290198            4 
 1265000     1.056696   -7.6387662    385.89174  0.025421063  0.025285205            2 
 1266000    1.0451484   -7.6067065    386.42236  0.025435911  0.025279916            1 
 1267000      1.04425   -7.6172609    386.27404   0.02540608  0.025274689            1 
 1268000    1.0406962   -7.5899988    386.93141  0.025429246  0.025269505            3 
 1269000     1.036894   -7.5910963    387.45495  0.025443588   0.02526431            2 
 1270000    1.0320138   -7.6143843     387.1919  0.025406292  0.025259265            3 
 1271000    1.0619584   -7.6438587    387.69009  0.025418967  0.025254058            4 
 1272000    1.0432896   -7.6451801    386.84679  0.025343736   0.02524875            4 
 1273000     1.047612   -7.5950523    387.49062  0.025365974  0.025243498            1 
 1274000    1.0326809   -7.5907404    388.75412   0.02542871  0.025238386            2 
 1275000    1.0484448   -7.5967707    389.01013  0.025425498   0.02523307            2 
 1276000    1.0555997   -7.6385081    388.21794  0.025353836  0.025227819            2 
 1277000    1.0225084    -7.577389    389.20181  0.025398187  0.025222627            6 
 1278000    1.0372262   -7.6318972    388.37712  0.025324538   0.02521735            1 
 1279000    1.0454135    -7.612855    388.96056  0.025342752  0.025212142            2 
 1280000    1.0733505   -7.6013286    388.32016  0.025281261  0.025206772            1 
 1281000    1.0319805   -7.5759034    389.80257  0.025357961  0.025201602            1 
 1282000    1.0677824   -7.6050572    389.58639  0.025324129  0.025196526            3 
 1283000    1.0475847   -7.6022831    389.94932  0.025327963  0.025191313            4 
 1284000     1.048882   -7.6152419    389.29662  0.025265876  0.025185932            1 
 1285000    1.0226172    -7.624713      389.817  0.025279961  0.025180489            1 
 1286000    1.0671126   -7.6228889     389.3152  0.025227786  0.025175103            3 
 1287000    1.0217092   -7.6325386    389.93023  0.025248008  0.025169815            3 
 1288000    1.0429805   -7.6312912    391.20182  0.025310677  0.025164374            3 
 1289000     1.033982   -7.6359134    390.95935  0.025275365  0.025158888            2 
 1290000    1.0401836   -7.5901792    392.60659  0.025362183  0.025153635            1 
 1291000    1.0414721     -7.56539    391.82802  0.025292281  0.025148564            2 
 1292000    1.0465032   -7.6374892    392.22953  0.025298602  0.025143457            2 
 1293000    1.0415769   -7.6540021    391.82375  0.025252884   0.02513825            2 
 1294000     1.046305   -7.6365843    392.36654  0.025268325  0.025132973            2 
 1295000    1.0507848    -7.630682    393.06919  0.025294028  0.025127711            2 
 1296000    1.0439982   -7.6099988    393.04048  0.025272664   0.02512261            2 
 1297000     1.050187   -7.5900542    394.09719  0.025321074  0.025117663            2 
 1298000    1.0360169   -7.5710228    394.50365  0.025327661  0.025112796            2 
 1299000    1.0692278   -7.6321334     394.0788  0.025280908  0.025108019            1 
 1300000    1.0252285   -7.6534047    393.94661  0.025252988  0.025103052            2 
 1301000    1.0472477   -7.6515568    394.34669  0.025259204  0.025097857            3 
 1302000    1.0480732   -7.6363965    393.80966  0.025205431   0.02509278            1 
 1303000    1.0368424   -7.6048273    394.72041  0.025244334  0.025087669            5 
 1304000    1.0227229   -7.6168672    394.69943  0.025223634  0.025082692            3 
 1305000     1.044229   -7.6605323    394.82082  0.025212057  0.025077809            2 
 1306000    1.0420764   -7.6413099     396.0585  0.025271727  0.025072864            1 
 1307000     1.049316   -7.6324384    396.08485  0.025254071  0.025067849            2 
 1308000    1.0488931   -7.6382731    396.31988  0.025249737  0.025062775            2 
 1309000    1.0261581   -7.5972003    397.19665  0.025286265  0.025057728            2 
 1310000    1.0370065   -7.6292617    396.35626  0.025213502  0.025052718            3 
 1311000    1.0446956   -7.5901242    397.54965  0.025270128  0.025047696            1 
 1312000    1.0502928   -7.6163917    396.16923  0.025163188  0.025042748            2 
 1313000    1.0308521   -7.6486029     396.7935  0.025183644  0.025037511            5 
 1314000    1.0536386   -7.6324435    398.61982  0.025280303  0.025032425            5 
 1315000    1.0473625   -7.6707219    396.77153   0.02514395  0.025027231            2 
 1316000    1.0501351   -7.6460196    397.40189   0.02516476  0.025022084            2 
 1317000    1.0379626   -7.6319351    398.47167  0.025213343  0.025017023            4 
 1318000    1.0190209   -7.6811481    397.83988  0.025154266  0.025011871            2 
 1319000    1.0180894   -7.6392936    398.83286  0.025197932  0.025006767            2 
 1320000    1.0502695   -7.6374688    398.70707  0.025170901  0.025001685            3 
 1321000    1.0441714   -7.6612507    397.34627  0.025066002  0.024996726            1 
 1322000    1.0443416   -7.6122822    398.74761  0.025135376  0.024991679            1 
 1323000    1.0193868   -7.6124812    400.31514  0.025215113  0.024986557            8 
 1324000    1.0457325   -7.6389488    399.80493  0.025163956  0.024981508            3 
 1325000    1.0204786   -7.6712678    398.59369  0.025068786   0.02497628            2 
 1326000    1.0649244   -7.6334982    399.03821  0.025077816  0.024971055            2 
 1327000    1.0353836   -7.6321789    400.72426  0.025164799  0.024965871            2 
 1328000    1.0155373   -7.6417787    401.17553  0.025174167  0.024960811            4 
 1329000    1.0487904   -7.6223073    400.60988  0.025119757  0.024955722            2 
 1330000     1.028484   -7.6253838    400.32011  0.025082713  0.024950675            1 
 1331000    1.0559278   -7.6537822    400.46143  0.025072716  0.024945567            3 
 1332000     1.027663   -7.6094832    401.36588  0.025110478  0.024940462            2 
 1333000     1.064072   -7.6864781    400.90418  0.025062777  0.024935454            1 
 1334000    1.0241029   -7.6554537    401.20954  0.025063065  0.024930343            2 
 1335000    1.0518152   -7.6093853    403.12217  0.025163681  0.024925248            2 
 1336000    1.0136007   -7.5940602    402.17406  0.025085707  0.024920333            3 
 1337000    1.0254918   -7.6217819    402.13391  0.025064442  0.024915314            3 
 1338000    1.0418322   -7.6597821    402.11313  0.025044415  0.024910232            2 
 1339000    1.0168032   -7.6201432    403.70459  0.025124756   0.02490521            3 
 1340000    1.0171984   -7.6479867    403.05249  0.025065453  0.024900184            3 
 1341000    1.0353757   -7.6249001    404.02193  0.025107006  0.024895007            3 
 1342000    1.0397807    -7.680481    403.19694  0.025037068   0.02488992            4 
 1343000    1.0171994   -7.5933833    404.01614  0.025069256  0.024884851            1 
 1344000    1.0311759   -7.6534322    403.39567  0.025012132  0.024879817            5 
 1345000    1.0105977   -7.6859213    403.36415  0.024991583  0.024874788            2 
 1346000    1.0523275    -7.670041    404.01079  0.025013051  0.024869652            4 
 1347000    1.0290653   -7.6473556    404.41761  0.025019649  0.024864553            1 
 1348000    1.0242849   -7.6306652     405.0602  0.025040814  0.024859391            1 
 1349000    1.0505433   -7.6497679    404.04696  0.024959659  0.024854188            1 
 1350000    1.0268136   -7.6216791    404.36989  0.024961104  0.024848946            2 
 1351000     1.057498   -7.6368821    404.10663   0.02492639  0.024843609            2 
 1352000    1.0301366   -7.6373816    405.22954  0.024977166  0.024838424            3 
 1353000    1.0339034   -7.6384804    406.40146  0.025030886  0.024833274            1 
 1354000     1.039494   -7.6618177    405.14558  0.024935104  0.024828111            1 
 1355000    1.0493005   -7.6762341     406.9536  0.025027897  0.024823029            1 
 1356000    1.0524802   -7.6681715    406.53409  0.024983658  0.024817916            3 
 1357000    1.0204194   -7.6749929    405.81685  0.024921202   0.02481282            2 
 1358000    1.0406381   -7.6694001    406.91227   0.02497007  0.024807726            1 
 1359000     1.042088   -7.6442028    406.98415  0.024956105  0.024802656            3 
 1360000    1.0301256   -7.6258829    408.33263  0.025020382  0.024797584            2 
 1361000    1.0432973   -7.6657103    408.56888  0.025016463  0.024792436            1 
 1362000    1.0255915    -7.653624    407.69127    0.0249444  0.024787387            2 
 1363000    1.0371879   -7.6477001    407.89512  0.024938562  0.024782349            2 
 1364000    1.0477979   -7.6465994    407.75714  0.024911849  0.024777291            2 
 1365000    1.0365937   -7.6049204    410.05656  0.025033978  0.024772126            2 
 1366000    1.0458667    -7.690022    407.63227  0.024867757  0.024767027            2 
 1367000     1.026516   -7.6695862    408.75991  0.024918307  0.024761819            2 
 1368000    1.0166857   -7.6669797    408.41816  0.024879274  0.024756684            1 
 1369000    1.0387505   -7.6660299    408.56809  0.024870227  0.024751416            2 
 1370000    1.0063224   -7.6736194    407.78338  0.024804342  0.024746044            1 
 1371000    1.0408568   -7.6685261    409.14319  0.024868903  0.024740776            3 
 1372000    1.0482771   -7.6554233     409.1105  0.024848791  0.024735545            3 
 1373000    1.0283044   -7.6431613     409.2682  0.024840264  0.024730363            5 
 1374000    1.0548514    -7.662567    409.98065  0.024865396  0.024725178            2 
 1375000    1.0276065   -7.6661728     410.2431  0.024863218  0.024719978            3 
 1376000    1.0436042   -7.6523668    411.18726  0.024902329  0.024714791            3 
 1377000    1.0272303   -7.6434974    411.56997  0.024907406  0.024709606            3 
 1378000    1.0379409   -7.6530057    410.33328  0.024814543  0.024704428            5 
 1379000    1.0399529   -7.6709973    410.49956  0.024806596   0.02469908            3 
 1380000    1.0147415   -7.6699577     410.8483   0.02480968  0.024693753            2 
 1381000    1.0561905   -7.6160105    411.30471  0.024819256  0.024688441            4 
 1382000    1.0219766   -7.5969595    412.33746  0.024863571  0.024683222            2 
 1383000    1.0271215   -7.6866113    411.51707   0.02479616  0.024677846            3 
 1384000    1.0353959    -7.661534    411.88065  0.024800136  0.024672481            2 
 1385000    1.0352848   -7.6511195    411.49043  0.024758751  0.024667171            3 
 1386000    1.0204966   -7.6528432    413.59542   0.02486745  0.024661957            2 
 1387000    1.0531826   -7.6180334    413.13038   0.02482158  0.024656826            1 
 1388000    1.0106687   -7.6288571    411.97338  0.024734233  0.024651687            2 
 1389000    1.0209244   -7.6472992    413.44617  0.024804786  0.024646555            1 
 1390000    1.0369289   -7.6430361    413.65115  0.024799229    0.0246412            2 
 1391000    1.0270242   -7.6513915    414.09572  0.024808035   0.02463591            3 
 1392000     1.037603   -7.6948532    413.41033  0.024749181  0.024630544            1 
 1393000    1.0390878   -7.6346248    414.54165  0.024799094  0.024625213            1 
 1394000    1.0284882   -7.6641766    413.84238  0.024739501  0.024620078            2 
 1395000    1.0128448   -7.6563481    414.33378  0.024751122  0.024614953            3 
 1396000    1.0338582    -7.658957    413.89422  0.024707153  0.024609822            2 
 1397000    1.0095501   -7.6461197    415.18432  0.024766423  0.024604712            1 
 1398000    1.0530807   -7.6591706    413.50826    0.0246488  0.024599482            3 
 1399000    1.0160079   -7.6282896    414.95611  0.024717424   0.02459416            2 
 1400000     1.030189   -7.6870651    414.71228  0.024685255  0.024588766            1 
 1401000    1.0307744   -7.6485951    415.56339   0.02471826  0.024583409            2 
 1402000    1.0353787   -7.6761254    414.92884  0.024662913  0.024577866            2 
 1403000    1.0118391   -7.6922231    413.57246   0.02456477  0.024572301            2 
 1404000    1.0178562   -7.6785345    415.36804  0.024653849  0.024566668            1 
 1405000    1.0091254   -7.6520037    415.40131  0.024638275  0.024561241            3 
 1406000     1.038613   -7.6737239    414.49787  0.024567204  0.024555803            2 
 1407000    1.0211877   -7.7211818    414.89329  0.024573164  0.024550216            3 
 1408000    1.0274303   -7.6920893    414.79576  0.024549939   0.02454459            1 
 1409000    1.0411965   -7.7170371    416.19739  0.024615412  0.024539072            2 
 1410000      1.03532   -7.6634059    416.52522   0.02461733  0.024533468            3 
 1411000    1.0261648   -7.6463283    416.40728  0.024592917  0.024527947            3 
 1412000    1.0204316   -7.6440214    416.71569  0.024593702  0.024522558            2 
 1413000    1.0176019   -7.6655846    416.89903   0.02458711  0.024517016            1 
 1414000    1.0497416   -7.6772627    417.09578  0.024581317  0.024511483            2 
 1415000    1.0308599   -7.6636213    417.77803  0.024604124  0.024505944            3 
 1416000    1.0384763   -7.6619436    417.67789  0.024580855  0.024500543            2 
 1417000    1.0036649   -7.7102965    416.63635  0.024502256  0.024494967            5 
 1418000    1.0334769   -7.6749129    417.94822  0.024562072  0.024489442            2 
 1419000    1.0170605   -7.6539525    419.09497  0.024612108  0.024483989            2 
 1420000    1.0356241   -7.6826044    417.79533  0.024518505  0.024478607            2 
 1421000    1.0479795   -7.6536878    418.25016  0.024527924   0.02447312            2 
 1422000    1.0146034   -7.6941295    418.68482  0.024536148  0.024467599            2 
 1423000    1.0169884   -7.7537204    417.42022  0.024444848   0.02446195            2 
 1424000    1.0358233   -7.6730353    417.75524  0.024447287  0.024456356            3 
 1425000    1.0047023   -7.6357903     418.9391  0.024499362  0.024450775            1 
 1426000   0.99150411    -7.659651    418.70862  0.024468713  0.024445194            3 
 1427000    1.0239953   -7.6822818    419.31078  0.024486731   0.02443944            2 
 1428000    1.0274724   -7.6690756    418.96465  0.024449384  0.024433861            1 
 1429000    1.0328901   -7.6708815    419.57476  0.024467854  0.024428064            4 
 1430000    1.0192913   -7.6864966    418.38771  0.024381568  0.024422356            2 
 1431000    1.0056629   -7.6635876    419.87942  0.024451399  0.024416703            2 
 1432000    1.0463002    -7.674829    419.89609  0.024435294  0.024410942            2 
 1433000    1.0175104   -7.7128373    419.00077  0.024366176  0.024405201            2 
 1434000    1.0084968   -7.7053459     420.5634  0.024439993   0.02439941            1 
 1435000    1.0183607   -7.6641395    421.00078  0.024448361  0.024393645            1 
 1436000   0.99280014   -7.6795035    419.61762  0.024351069  0.024387871            3 
 1437000    1.0191489   -7.6713194    421.50585  0.024443624  0.024382058            2 
 1438000    1.0228431   -7.6326989    422.11124  0.024461709   0.02437643            2 
 1439000     1.020266   -7.6725075    421.39885  0.024403455  0.024370913            2 
 1440000   0.99555745   -7.6695718    421.27795  0.024379511  0.024365331            2 
 1441000    1.0123755   -7.6826813    421.12497  0.024353746  0.024359631            1 
 1442000    1.0137637   -7.6655787    421.01958  0.024330766   0.02435397            2 
 1443000    1.0226173   -7.6932033    421.77487  0.024357523  0.024348318            1 
 1444000     1.035887   -7.6598212    423.36017  0.024432142  0.024342609            1 
 1445000    1.0254928   -7.7014782    423.02963  0.024396172  0.024336866            1 
 1446000    1.0306836   -7.6978882    422.13174  0.024327555  0.024331053            2 
 1447000    1.0184311   -7.6686241    423.07931  0.024365314  0.024325297            2 
 1448000     1.005262   -7.7122231    422.53689   0.02431727   0.02431944            2 
 1449000    1.0269332   -7.6703632    422.66053  0.024307599  0.024313612            4 
 1450000   0.99319502   -7.7265357    422.30354  0.024270318  0.024307701            2 
 1451000     1.018644   -7.7050626    422.86605  0.024285898  0.024301803            1 
 1452000    1.0069712   -7.6981998    423.51353  0.024306332  0.024295942            3 
 1453000    1.0247936   -7.7050605    422.99916  0.024260103  0.024290174            3 
 1454000    1.0109831   -7.7085612    422.85829  0.024235344  0.024284347            2 
 1455000    1.0042357   -7.6404836    424.51811  0.024313752   0.02427847            1 
 1456000    1.0211874   -7.7067275    423.05491  0.024213308  0.024272668            2 
 1457000    1.0435319   -7.7067068    424.23127  0.024263971  0.024266803            2 
 1458000    1.0060542   -7.6533194    424.42648  0.024258486     0.024261            2 
 1459000    1.0141923   -7.7394722     424.1936  0.024228558  0.024255194            2 
 1460000    1.0132988   -7.7138183    425.08087  0.024262607  0.024249388            1 
 1461000    1.0321227   -7.6656835    425.17422  0.024251325  0.024243607            1 
 1462000     1.003003   -7.7528418    424.90062  0.024219141  0.024237817            2 
 1463000    1.0221229   -7.6745833    425.98518  0.024264364   0.02423205            1 
 1464000    1.0310817   -7.6643767    426.42514  0.024272834   0.02422626            2 
 1465000   0.98851673    -7.677772    426.39486  0.024254543  0.024220598            1 
 1466000    1.0213813   -7.6845259    426.25202  0.024229878  0.024214898            3 
 1467000    1.0326444   -7.6835466    425.72554  0.024183455  0.024209202            4 
 1468000    1.0200845   -7.6753958    428.14683   0.02430443  0.024203419            1 
 1469000    1.0046642   -7.6883511    427.26345  0.024237772  0.024197712            1 
 1470000   0.99440203   -7.7048071    426.59591  0.024183441  0.024191928            3 
 1471000    1.0279895   -7.6815787    428.03485  0.024248518  0.024186086            3 
 1472000    1.0226616   -7.6831049    427.30783  0.024190887  0.024180199            3 
 1473000    1.0004673   -7.6753112    426.24374  0.024114264  0.024174315            2 
 1474000    1.0269204    -7.658546    428.03791  0.024199339  0.024168519            2 
 1475000    1.0252323   -7.6961543    427.40276  0.024147049  0.024162804            1 
 1476000    1.0379289   -7.6872258    429.06372  0.024224465  0.024157119            2 
 1477000    1.0249119   -7.6990158    427.52197  0.024121077  0.024151413            2 
 1478000   0.99933326   -7.6967761     427.9935  0.024131343  0.024145534            1 
 1479000    1.0249437   -7.7388538    427.46769  0.024085401  0.024139737            3 
 1480000    1.0239656   -7.7419479    427.71092  0.024082822  0.024133815            2 
 1481000   0.98024878   -7.6643645    429.73571  0.024180492  0.024127999            2 
 1482000    1.0256382   -7.7178727    429.00866  0.024123294  0.024122198            2 
 1483000    1.0124824   -7.6884732     428.6513  0.024086947  0.024116273            2 
 1484000   0.99321697   -7.7011405    429.79804   0.02413511  0.024110512            7 
 1485000    1.0126083   -7.6770368    430.40834  0.024153106  0.024104686            2 
 1486000    1.0263283     -7.70778    429.99925   0.02411391  0.024098881            3 
 1487000    1.0117219   -7.6819305    430.62421  0.024132717  0.024093086            3 
 1488000     1.027177   -7.7169403    429.95611  0.024079083  0.024087233            2 
 1489000     1.037537   -7.6893836    430.57872  0.024097757  0.024081515            3 
 1490000    1.0093506   -7.6863139    430.61924   0.02408385  0.024075841            1 
 1491000    1.0049284   -7.6681161    431.90073  0.024139321  0.024070181            3 
 1492000    1.0178011   -7.6988975    432.03884  0.024130856  0.024064484            4 
 1493000    1.0135155    -7.700304    431.42847  0.024080625  0.024058734            7 
 1494000    1.0100615   -7.7067474    430.60617   0.02401864  0.024053103            6 
 1495000    1.0092464   -7.7212643    431.71878  0.024064592   0.02404741            6 
 1496000    1.0061385   -7.7211814    432.78334  0.024107806  0.024041766            1 
 1497000    1.0176842   -7.6822273    432.15666  0.024056817  0.024036173            4 
 1498000    1.0204779   -7.7190322    431.71003  0.024015912  0.024030584            3 
 1499000   0.99864133   -7.6951376    432.84787  0.024063146  0.024024831            2 
 1500000    1.0035887   -7.7095061    433.71934  0.024095519  0.024019161            2 
 1501000    1.0091294   -7.6943326    432.13963  0.023991763  0.024013502            1 
 1502000    1.0196652    -7.659909    434.07821  0.024083345  0.024007945            2 
 1503000    1.0185175   -7.7271644    432.93878  0.024004146  0.024002262            5 
 1504000    1.0127874   -7.7055348    433.53976  0.024021485  0.023996609            4 
 1505000    1.0148922   -7.6876167    433.80082  0.024019979  0.023990929            3 
 1506000   0.99891367   -7.7171227    434.45096  0.024040004  0.023985309            2 
 1507000     1.017317   -7.7054578    434.92344  0.024050179  0.023979706            4 
 1508000    1.0128625    -7.702826    435.41998   0.02406167  0.023974132            2 
 1509000    1.0134516   -7.7077444    434.54591  0.023997455  0.023968538            2 
 1510000   0.99852444   -7.6999854    434.66717  0.023988254   0.02396292            1 
 1511000   0.99979149   -7.7346426    434.98246  0.023989767  0.023957266            2 
 1512000    1.0047237   -7.6960135    436.04378  0.024032395  0.023951687            2 
 1513000   0.99738745   -7.6851523    435.88772  0.024007916   0.02394617            2 
 1514000    1.0124004   -7.6736945    436.45486  0.024023275  0.023940668            2 
 1515000   0.99976767   -7.7079803    436.53871   0.02401203  0.023935146            2 
 1516000     1.003368   -7.6758933    436.85117  0.024013367  0.023929561            3 
 1517000    1.0109933   -7.7074375    436.22825  0.023963319  0.023923995            2 
 1518000    1.0031152   -7.6955692    436.67098  0.023971837  0.023918367            2 
 1519000    1.0290205   -7.7051083    436.57197  0.023950624  0.023912686            2 
 1520000     1.006401   -7.6976274      435.617  0.023882511  0.023906951            1 
 1521000    0.9921226    -7.750188    435.24778   0.02384658  0.023901183            7 
 1522000    1.0261189   -7.7105233    436.86198  0.023919294  0.023895399            1 
 1523000   0.99575054   -7.6894754    436.87644  0.023904379  0.023889766            1 
 1524000    1.0144699   -7.7025127    437.47965  0.023921678  0.023884041            1 
 1525000    1.0214889   -7.6804461    437.87128  0.023927392  0.023878308            2 
 1526000    1.0148047    -7.730603    436.09676  0.023814808  0.023872551            2 
 1527000    1.0178837   -7.7307217    436.94997  0.023845774  0.023866766            4 
 1528000    1.0001551   -7.7159959    436.63438  0.023812957  0.023860964            2 
 1529000    1.0022046    -7.693573    439.26317  0.023940657  0.023855232            2 
 1530000    1.0103792   -7.7120215    437.53923  0.023831113   0.02384958            3 
 1531000    1.0144276    -7.714673    438.48118  0.023866818  0.023843914            8 
 1532000   0.99657596   -7.7344596    438.00703  0.023825448  0.023838265            2 
 1533000    1.0128265   -7.7228293    438.05318  0.023812415   0.02383248            5 
 1534000    1.0087432   -7.7371686    438.84213  0.023839751  0.023826642            4 
 1535000     1.009995   -7.7278626    438.57589  0.023809766  0.023820848            1 
 1536000    1.0240037   -7.6957308    439.64523   0.02385228  0.023815018            2 
 1537000    1.0006874   -7.7326841    438.13975  0.023755137  0.023809333            2 
 1538000    1.0019706   -7.7401887    440.09213  0.023845477  0.023803664            1 
 1539000    1.0273027   -7.7573673    438.27286  0.023731474  0.023797937            2 
 1540000    1.0104589   -7.7261566    440.90277  0.023858375  0.023792181            1 
 1541000   0.98641148   -7.7027918    440.58761   0.02382585  0.023786489            2 
 1542000    1.0085387   -7.7183893    439.75576  0.023765443  0.023780702            3 
 1543000   0.97567884   -7.7415438    441.29646   0.02383325  0.023774973            1 
 1544000   0.97787716   -7.7645082    439.73484   0.02373353  0.023769206            4 
 1545000    1.0130493   -7.7384104    439.93476  0.023728952  0.023763233            3 
 1546000    1.0075912   -7.7669759    440.01802  0.023718091  0.023757336            2 
 1547000    1.0169635   -7.7452169     441.6782  0.023792189  0.023751603            3 
 1548000   0.99528554   -7.7463591    442.40483  0.023815936  0.023745878            1 
 1549000     0.986366   -7.6864748    441.66239  0.023760619  0.023740097            3 
 1550000   0.99916989   -7.7103408    443.08152  0.023821587  0.023734358            4 
 1551000    1.0088556   -7.7186133    443.04492  0.023804262  0.023728789            2 
 1552000    1.0107435   -7.6947279    442.96937  0.023784868  0.023723146            5 
 1553000   0.99897974   -7.7402725    441.88795  0.023711524  0.023717523            4 
 1554000    1.0040482   -7.7198856    442.84374  0.023747519  0.023711881            5 
 1555000   0.99630841   -7.7003953    443.99815  0.023794113  0.023706259            2 
 1556000   0.99996573   -7.7134674    442.30666  0.023688231   0.02370066            1 
 1557000   0.98940243    -7.715888    442.89285  0.023704392   0.02369499            3 
 1558000    1.0128106   -7.7128524    444.41322  0.023770498  0.023689293            2 
 1559000   0.99976419   -7.7362044    443.34771  0.023698295  0.023683619            2 
 1560000   0.98977893   -7.7574859    442.70914  0.023648992  0.023677865            3 
 1561000    1.0134081   -7.7672217    444.06304   0.02370612  0.023672047            6 
 1562000    1.0021058   -7.7114658    444.56448  0.023717695  0.023666343            3 
 1563000    1.0109141    -7.718001    443.19231  0.023629362  0.023660642            3 
 1564000     1.012734    -7.744337    444.32099  0.023674392  0.023654909            2 
 1565000    1.0139783   -7.6836862    445.36641  0.023714931  0.023649183            2 
 1566000      0.98865   -7.6905612    445.76605  0.023721054  0.023643546            1 
 1567000     1.004199   -7.7289628    444.77711  0.023653324  0.023637762            3 
 1568000    1.0094898   -7.7097169    444.85818  0.023642548  0.023631985            1 
 1569000    1.0029306   -7.7361716    443.40545  0.023550321  0.023626156            2 
 1570000    1.0123395   -7.7834819    443.69964  0.023550936  0.023620281            3 
 1571000   0.98306071   -7.7545294    444.81264  0.023594984  0.023614351            2 
 1572000   0.99702827   -7.7355266    444.69419  0.023573695  0.023608381            2 
 1573000   0.97600588   -7.7575386    443.33347  0.023486622  0.023602301            4 
 1574000   0.99753146   -7.7534983    444.80108  0.023549401   0.02359626            1 
 1575000    1.0086871   -7.7803234    444.77774  0.023533214  0.023590174            3 
 1576000   0.98657517   -7.7441627    444.37129   0.02349679   0.02358405            3 
 1577000    1.0108797   -7.7637569    444.99522   0.02351486  0.023577995            3 
 1578000    1.0084723   -7.7816676    444.25005  0.023460607  0.023571846            2 
 1579000   0.99335223   -7.7458158    445.49452  0.023511427  0.023565677            2 
 1580000   0.99792539   -7.7448395    445.98367  0.023522345  0.023559617            1 
 1581000   0.97478367   -7.7005137    446.13024  0.023515193  0.023553576            1 
 1582000    0.9828301   -7.7809467     445.0318  0.023442467  0.023547533            2 
 1583000   0.97823112   -7.7500777    445.34099  0.023443935  0.023541402            2 
 1584000   0.99445278   -7.7711792    444.20316  0.023369274  0.023535227            2 
 1585000    1.0021623   -7.7251726    447.33207  0.023519036  0.023529105            3 
 1586000   0.99934842   -7.7321048    445.59533  0.023412953  0.023523037            3 
 1587000    1.0067306   -7.7306909    445.57134  0.023396941  0.023516942            2 
 1588000   0.99530253   -7.7429181    445.92727  0.023400885  0.023510814            2 
 1589000    1.0060919   -7.7538581    445.28037  0.023352233  0.023504581            2 
 1590000   0.99997188   -7.7381199    446.80558  0.023417483  0.023498268            2 
 1591000    0.9896795   -7.7855386    445.89668  0.023355158  0.023492017            4 
 1592000    1.0020037   -7.6889388    448.87753   0.02349652  0.023485914            2 
 1593000   0.98002557    -7.754583    448.64455  0.023469583  0.023479822            3 
 1594000   0.98670621   -7.7227772    447.59217  0.023399842  0.023473788            1 
 1595000   0.98283103   -7.7208565     448.3912  0.023426917  0.023467684            2 
 1596000   0.99261037   -7.7322981    449.28892  0.023459112  0.023461602            2 
 1597000   0.99032013   -7.7533312    448.52721  0.023404676  0.023455513            2 
 1598000    1.0104486   -7.7456903    449.49571  0.023440536  0.023449503            1 
 1599000   0.98970875   -7.7233261    448.89532  0.023394586  0.023443517            3 
 1600000   0.98469108   -7.7425031    447.81356  0.023323623  0.023437438            2 
 1601000   0.99324105   -7.7429088    449.83343   0.02341419  0.023431334            2 
 1602000     0.991274   -7.7278951     449.3823  0.023376108  0.023425284            2 
 1603000   0.99555404   -7.7504113    450.16827  0.023402385  0.023419337            1 
 1604000    0.9806999    -7.733449    449.92136  0.023374967  0.023413355            4 
 1605000   0.99183795   -7.7470793    449.69297  0.023348545  0.023407445            3 
 1606000    1.0066529   -7.7327204     452.5075  0.023480049  0.023401507            2 
 1607000   0.99529442   -7.7358581     450.3792  0.023355072  0.023395547            2 
 1608000   0.97651415   -7.7472596    451.10136  0.023377973  0.023389561            7 
 1609000   0.99728887   -7.7660442    450.17683   0.02331556  0.023383519            2 
 1610000   0.99002031   -7.7861822    449.64306   0.02327345  0.023377437            2 
 1611000    1.0061747   -7.7354829    449.69988  0.023261943  0.023371304            1 
 1612000   0.99936684   -7.7606709    450.17526  0.023272087  0.023365191            1 
 1613000   0.99748722   -7.7539456    449.99897  0.023248552  0.023359042            1 
 1614000   0.98568062   -7.7658779    449.74788  0.023221183  0.023352943            2 
 1615000    1.0017511   -7.7621451    450.50718  0.023245984  0.023346814            2 
 1616000    1.0032072   -7.7465121    452.55604  0.023337254  0.023340699            3 
 1617000    1.0080247   -7.7403577    452.82091  0.023336472  0.023334602            4 
 1618000   0.97564475   -7.7766093    451.26216  0.023241768  0.023328471            2 
 1619000   0.99200061   -7.7514923    451.74408  0.023252218  0.023322259            4 
 1620000   0.98673763   -7.7808264    450.85469  0.023192113  0.023316063            2 
 1621000    1.0029354   -7.7930148     451.4825  0.023210081   0.02330987            2 
 1622000   0.99615683   -7.7476406    452.25586  0.023235504  0.023303798            1 
 1623000   0.99360192   -7.7606753     452.1243  0.023214433  0.023297736            2 
 1624000   0.98729234   -7.7703643    453.16406  0.023253492  0.023291705            1 
 1625000    1.0007774   -7.7527718    453.68881  0.023266093  0.023285685            2 
 1626000   0.99558367   -7.7347014    453.88244  0.023261708  0.023279626            3 
 1627000   0.98896142   -7.7661014     454.2897   0.02326827  0.023273602            3 
 1628000    0.9932662   -7.7626486    452.85019  0.023180292  0.023267586            1 
 1629000     1.005395   -7.7530794    454.76767  0.023264154  0.023261607            4 
 1630000   0.99052335   -7.7283535    454.38004  0.023230063  0.023255571            3 
 1631000   0.96348736   -7.7294857    454.07483  0.023200226  0.023249527            2 
 1632000   0.98826509   -7.7468978    454.18405  0.023191587  0.023243486            1 
 1633000   0.99958332   -7.8044823    453.28714  0.023131616  0.023237392            5 
 1634000   0.97389936   -7.7273281    455.69468  0.023240243  0.023231373            2 
 1635000   0.98820349   -7.7492236    455.16812  0.023199191  0.023225341            1 
 1636000   0.97842523   -7.7607851    454.51071  0.023151523  0.023219319            1 
 1637000   0.98605589   -7.7639723    454.81736  0.023152991  0.023213331            2 
 1638000   0.99023512   -7.7494551    456.75837  0.023237605  0.023207403            3 
 1639000    1.0148874   -7.7639602    456.59574  0.023215159  0.023201489            2 
 1640000   0.96288694   -7.7502059    455.41878  0.023141198  0.023195493            2 
 1641000     0.991115   -7.7771169    455.78862  0.023145877  0.023189436            2 
 1642000   0.97504204   -7.7371268    456.42708  0.023164184  0.023183529            3 
 1643000   0.98536525   -7.7577134    456.07411  0.023132183  0.023177485            1 
 1644000   0.98296391   -7.7905066    455.44998  0.023086475  0.023171449            2 
 1645000   0.97390867   -7.7727011    456.58417  0.023129897  0.023165456            1 
 1646000   0.98645435   -7.7427769    457.56772   0.02316564  0.023159593            4 
 1647000   0.98412717   -7.7610147    457.24201  0.023135095  0.023153781            5 
 1648000   0.98602278   -7.8018376    458.36944  0.023178066  0.023147887            2 
 1649000    0.9845225   -7.8109199    456.82584  0.023086004  0.023141937            2 
 1650000    1.0168032   -7.7776399    456.97776  0.023079685  0.023135982            2 
 1651000   0.98314909   -7.7711438     458.3751  0.023136235  0.023130095            2 
 1652000   0.99152535   -7.7761735     458.7317  0.023140219  0.023124226            2 
 1653000    0.9899597   -7.7393417    459.04231  0.023141879  0.023118337            3 
 1654000   0.98273312   -7.7717324    458.65443  0.023108345  0.023112457            1 
 1655000   0.98555421   -7.7540168    458.63624  0.023093466  0.023106555            2 
 1656000   0.97598869   -7.7752886    459.51357   0.02312367  0.023100699            2 
 1657000   0.96363555   -7.7883027    459.14599  0.023091229  0.023094863            1 
 1658000   0.98260077   -7.7675438    461.05964  0.023173484  0.023089132            2 
 1659000   0.98109692   -7.7998419    459.44698   0.02307851   0.02308339            2 
 1660000   0.99779761   -7.7566333    460.27338  0.023106093  0.023077624            2 
 1661000    1.0031812   -7.7874786    459.09885  0.023033256  0.023071833            1 
 1662000   0.98153144   -7.7874684    460.37417  0.023083342  0.023066038            3 
 1663000   0.99460454   -7.7933404    458.49304  0.022975197   0.02306028            2 
 1664000   0.97004256    -7.760436    460.15373  0.023044558   0.02305446            2 
 1665000   0.94411856   -7.7901974    461.55406  0.023100804  0.023048723            2 
 1666000   0.96598484   -7.7606059    462.07272  0.023112881  0.023042908            2 
 1667000   0.99316147   -7.7923565    461.60724  0.023075747  0.023037069            3 
 1668000   0.98423362   -7.7610081    462.18598  0.023090827  0.023031257            5 
 1669000    1.0025266   -7.7593135    462.36521   0.02308594  0.023025629            2 
 1670000   0.97173637   -7.7572735    463.54816  0.023131146  0.023019987            2 
 1671000   0.96984276   -7.7779588    462.92422  0.023086187  0.023014299            1 
 1672000   0.98660605   -7.8031393    463.79594  0.023115826  0.023008565            1 
 1673000    0.9836416   -7.8016411     462.1094  0.023018002  0.023002994            9 
 1674000   0.97635216   -7.7740858    463.83726  0.023090266  0.022997391            3 
 1675000    1.0081541   -7.8055477    462.60605  0.023015226  0.022991791            2 
 1676000   0.97806835   -7.7679786    463.86906  0.023064293  0.022986208            2 
 1677000    0.9888797   -7.7485636    464.37224  0.023075544  0.022980606            2 
 1678000   0.98452084   -7.7587695    464.94696  0.023090334  0.022974978            3 
 1679000   0.97263981   -7.7456545    464.28309  0.023043632  0.022969345            2 
 1680000   0.98144906   -7.7848019    463.89196  0.023010514  0.022963669            2 
 1681000   0.97818428   -7.7933738    465.13101   0.02305825  0.022957907            5 
 1682000    0.9735649   -7.8137471    463.23777  0.022950742  0.022952194            4 
 1683000    1.0156738   -7.8078098    463.22441  0.022936444  0.022946375            2 
 1684000   0.96933241   -7.7969329    464.02308  0.022962345  0.022940639            3 
 1685000   0.99299953    -7.807543    463.56205  0.022925917  0.022934855            1 
 1686000   0.99428818   -7.7785948    463.98406  0.022933178  0.022929078            1 
 1687000   0.98454521   -7.7839017    465.20082  0.022979689  0.022923253            1 
 1688000     0.953695   -7.7323455    465.52468  0.022982064  0.022917487            1 
 1689000   0.95888387   -7.8005295    465.67221  0.022975736  0.022911687            2 
 1690000   0.96651119   -7.7872251    464.96712  0.022927373  0.022905799            2 
 1691000   0.96724132   -7.7916925    464.41822  0.022886764   0.02289996            3 
 1692000   0.98864209   -7.8007853    464.94965  0.022899412  0.022894002            1 
 1693000    0.9720751   -7.7777724    464.93305  0.022885068  0.022888168            3 
 1694000   0.97079163   -7.7746585    465.68677  0.022908637  0.022882392            1 
 1695000    1.0020697   -7.7752828    465.96628  0.022908863  0.022876695            2 
 1696000   0.98197473   -7.7779984    467.04804  0.022948508  0.022870992            4 
 1697000   0.97677059   -7.7951184    465.63701  0.022865695  0.022865216            3 
 1698000    0.9935355   -7.8202882     467.1245  0.022925231  0.022859426            7 
 1699000   0.97622734   -7.8152251    466.41514  0.022876944  0.022853671            3 
 1700000   0.98796353    -7.781913    466.42551  0.022863995  0.022847957            3 
 1701000   0.96442778   -7.7897363    467.99859  0.022927621  0.022842269            2 
 1702000    0.9672984   -7.7598862    469.09325  0.022967746   0.02283669            3 
 1703000   0.97703307   -7.7531927    469.16099  0.022957574  0.022831053            1 
 1704000   0.99866573    -7.778663    467.88169  0.022881538  0.022825476            1 
 1705000   0.97688127    -7.777281    468.53945  0.022900266  0.022819884            3 
 1706000   0.97637537    -7.757826    468.35519  0.022877842    0.0228143            3 
 1707000   0.98804002   -7.7678607    469.00023   0.02289593  0.022808769            2 
 1708000   0.96054926   -7.7733998    467.65301  0.022816794  0.022803141            2 
 1709000   0.97591873    -7.822864    467.99963  0.022820345  0.022797514            2 
 1710000    0.9803612   -7.7896187    469.23628  0.022867265  0.022791855            2 
 1711000   0.98679086   -7.7997919    467.97576  0.022792507  0.022786246            3 
 1712000   0.97486143   -7.8017368    468.68776  0.022813851  0.022780503            2 
 1713000   0.96057773   -7.7994571    468.96924  0.022814226  0.022774826            1 
 1714000   0.98496067   -7.7747679    469.74859  0.022838807  0.022769255            2 
 1715000   0.98357562   -7.8328697    467.76672  0.022729189   0.02276355            1 
 1716000   0.97245996   -7.7804687    470.56014    0.0228516  0.022757824            1 
 1717000   0.97508191   -7.8269263    468.65115  0.022745639  0.022752131            2 
 1718000   0.97408935   -7.8069582    470.79305  0.022836295  0.022746396            3 
 1719000   0.99147805     -7.80471    469.24923  0.022748169  0.022740746            1 
 1720000   0.95403251   -7.8231647    468.96327  0.022721089  0.022735032            3 
 1721000   0.97994707   -7.8572432    468.48528  0.022684742  0.022729249            2 
 1722000   0.97895754   -7.8413356    469.62019   0.02272649  0.022723498            3 
 1723000   0.97664808   -7.7831876    471.69498  0.022813648  0.022717826            2 
 1724000   0.98131461   -7.8125243    470.60635  0.022747793  0.022712216            1 
 1725000   0.98695565   -7.8277794    470.80957  0.022744424  0.022706496            2 
 1726000   0.96815463    -7.834841    471.47059  0.022763161   0.02270085            2 
 1727000   0.97548348   -7.8116243    470.78285  0.022716795  0.022695275            2 
 1728000   0.97350476   -7.7617175    472.83692  0.022802706  0.022689805            6 
 1729000   0.96152969   -7.7992974    473.88189  0.022839883  0.022684296            5 
 1730000   0.99483519   -7.7827285    473.31674  0.022799458  0.022678749            1 
 1731000   0.98754909   -7.8502602    472.41824  0.022743031  0.022673214            2 
 1732000   0.96461017   -7.7911741    472.64995  0.022741048  0.022667609            1 
 1733000   0.94845884   -7.8145728    472.15454  0.022704103  0.022661989            2 
 1734000   0.97322252   -7.8361568    471.37361   0.02265348  0.022656366            1 
 1735000   0.97325588   -7.7953555    473.43388  0.022739379  0.022650693            2 
 1736000   0.96364691   -7.8260547    473.26437  0.022718144  0.022645017            3 
 1737000   0.97444963   -7.8083136    472.87977  0.022686614  0.022639351            2 
 1738000   0.96453627   -7.8257286    473.45526  0.022701154  0.022633687            1 
 1739000   0.97618553   -7.7924211    474.04991  0.022716595  0.022628043            4 
 1740000    0.9653718   -7.8149929    474.44978  0.022722691  0.022622469            2 
 1741000   0.97932877   -7.7941301    473.55246  0.022666689  0.022616845            2 
 1742000   0.96250088   -7.8014352    472.41215  0.022599127   0.02261119            3 
 1743000   0.96713958   -7.8271694    473.59483  0.022642705  0.022605534            1 
 1744000   0.98332458     -7.77929    474.73745   0.02268432  0.022599926            2 
 1745000   0.95201385   -7.8355062    473.08063  0.022592198  0.022594186            2 
 1746000   0.95083736    -7.843671    473.71789  0.022609674  0.022588382            3 
 1747000   0.98416073   -7.8389005    474.69225   0.02264321   0.02258266            4 
 1748000   0.94503665   -7.7800599    475.23233  0.022656004  0.022577046            1 
 1749000   0.94997315   -7.7975039    473.29978  0.022550971  0.022571339            2 
 1750000   0.98404999   -7.8176267    474.25641  0.022583639  0.022565687            2 
 1751000    0.9765898   -7.7996154    475.88183  0.022648098   0.02256002            1 
 1752000   0.94881593   -7.7712234    475.62916  0.022623153  0.022554351            2 
 1753000   0.95392317   -7.8050509    475.97194  0.022626542  0.022548709            2 
 1754000   0.98479793   -7.8048248     475.8971  0.022610087  0.022543032            3 
 1755000   0.96327798   -7.7829944    478.24507  0.022708693  0.022537406            3 
 1756000   0.97061305    -7.828657    475.41633  0.022561519  0.022531833            2 
 1757000   0.96833485   -7.8223868    475.82349   0.02256799  0.022526142            2 
 1758000   0.96489414    -7.783185    476.87269  0.022604887  0.022520548            3 
 1759000   0.96639539   -7.7595839    477.25642  0.022610215   0.02251498            2 
 1760000   0.95572597   -7.8029098    477.42698  0.022605444  0.022509385            2 
 1761000   0.97590035   -7.8120277    477.14479  0.022579254  0.022503782            3 
 1762000   0.97769786   -7.7939336    477.60335  0.022588127  0.022498179            1 
 1763000   0.96347804   -7.8114214    476.43699  0.022520183  0.022492584            2 
 1764000   0.96195114   -7.8152029    476.49701  0.022510252  0.022486884            7 
 1765000   0.99891883   -7.8261901    477.63754  0.022551348   0.02248118            2 
 1766000   0.96464814   -7.8352119    477.59226  0.022536441  0.022475523            3 
 1767000    0.9332229   -7.8298664    478.02598  0.022544142  0.022469831            4 
 1768000   0.96387178   -7.8329401    477.53374  0.022508189  0.022464062            3 
 1769000   0.96743891   -7.8161232    478.64615  0.022547869  0.022458339            1 
 1770000   0.95061565   -7.8424026       477.97  0.022503296  0.022452685            1 
 1771000   0.95741132   -7.8248055    477.84827  0.022484861  0.022447049            3 
 1772000   0.96511633   -7.8031513    479.42304   0.02254623  0.022441491            2 
 1773000   0.95104328   -7.8155527    478.70594  0.022499809  0.022435952            3 
 1774000   0.98649614   -7.7987654    479.59776  0.022529019  0.022430307            1 
 1775000   0.98523625   -7.7998049     478.5661  0.022467892  0.022424783            3 
 1776000   0.97058399   -7.8256819    479.30037  0.022489694  0.022419209            3 
 1777000    0.9689932   -7.8157166      479.469  0.022484946  0.022413577            2 
 1778000   0.94676273   -7.8294789    479.21793  0.022460533  0.022407979            3 
 1779000   0.96909867   -7.8149058    479.08952  0.022441893   0.02240229            2 
 1780000   0.95973033   -7.8166836    480.30295  0.022486093  0.022396685            1 
 1781000   0.98132778   -7.8353809    479.97096  0.022457934  0.022391172            2 
 1782000    1.0007946   -7.8225971    480.10611  0.022451651   0.02238562            3 
 1783000   0.97733272    -7.827898    481.02079  0.022481809  0.022380081            3 
 1784000    0.9512015   -7.8287751    480.67683   0.02245314  0.022374599            4 
 1785000    0.9674764   -7.8687779     480.6282  0.022438291  0.022368997            4 
 1786000   0.96988205   -7.8463271    481.26796  0.022455579  0.022363344            5 
 1787000   0.96002035   -7.8229848    481.33567   0.02244617  0.022357683            1 
 1788000   0.94992306   -7.8219487    480.24881  0.022382961  0.022352036            3 
 1789000   0.97232905   -7.8479444     480.7391  0.022393288   0.02234644            2 
 1790000   0.96345927    -7.846775    481.49107  0.022415786  0.022340818            1 
 1791000   0.97069948   -7.7951512    482.17278  0.022434989  0.022335257            2 
 1792000   0.97114567   -7.8146182    482.42113  0.022434018  0.022329646            3 
 1793000   0.96561525   -7.8176432    482.29122  0.022415469  0.022324066            2 
 1794000   0.94739225   -7.8050508    481.69494  0.022375276   0.02231854            2 
 1795000   0.95112756   -7.8053791    483.52165  0.022447616  0.022313084            1 
 1796000   0.98940276   -7.8304306    483.08821  0.022415006  0.022307636            2 
 1797000   0.97918133   -7.8297431    481.63124  0.022334968  0.022302141            2 
 1798000   0.96115906   -7.8457067    483.44971  0.022406827  0.022296622            1 
 1799000   0.96592597   -7.8210666    482.50989  0.022350838   0.02229101            4 
 1800000   0.94520137   -7.8755466     482.6691  0.022345792  0.022285389            1 
 1801000   0.96929947   -7.8158291    483.58231  0.022375639  0.022279798            2 
 1802000   0.98361672   -7.8259504    483.26112  0.022348368  0.022274295            3 
 1803000   0.98203343   -7.8642902    483.60171  0.022351715  0.022268825            1 
 1804000   0.94759601   -7.8679728    483.53194  0.022336102  0.022263248            3 
 1805000   0.96020247   -7.8272385    483.89011  0.022340264  0.022257657            4 
 1806000   0.94821723   -7.8136297    484.37843  0.022350426  0.022252215            5 
 1807000   0.95281596   -7.8327399    484.51688  0.022344442    0.0222468            3 
 1808000   0.95837937   -7.8531937    484.02772  0.022309537  0.022241251            2 
 1809000   0.97016178   -7.8372572    484.57675  0.022322496  0.022235725            2 
 1810000   0.94431121   -7.8758812    482.71643  0.022224513  0.022230093            2 
 1811000   0.97277312   -7.8394356    484.31209  0.022285666  0.022224426            1 
 1812000   0.97095804    -7.842702    484.32879  0.022274135  0.022218886            2 
 1813000   0.95247764   -7.8787659    482.55246  0.022180202  0.022213289            1 
 1814000   0.95790617   -7.8193035    484.63086  0.022263454  0.022207612            2 
 1815000   0.95796881   -7.8762236    485.05624  0.022270718  0.022201969            2 
 1816000   0.95210138   -7.8073129    485.12559  0.022261637  0.022196359            1 
 1817000   0.95924502   -7.8229729    485.32759  0.022258649  0.022190721            2 
 1818000    0.9329192   -7.8548727     485.2925  0.022244797   0.02218503            3 
 1819000   0.95757516    -7.843127    485.52462  0.022243202  0.022179349            2 
 1820000    0.9637255   -7.8638797    484.93793  0.022204118  0.022173693            1 
 1821000   0.96644381   -7.8190924     485.7049  0.022227023  0.022168015            4 
 1822000   0.96087672   -7.8763076    484.48118  0.022158854  0.022162315            2 
 1823000   0.93610547   -7.8587371     484.9259  0.022167028   0.02215657            3 
 1824000   0.94215696   -7.8579222    486.02265  0.022204982  0.022150873            2 
 1825000    0.9808816   -7.8473666    486.27454  0.022204317  0.022145199            4 
 1826000   0.95744567   -7.8828973    485.04679  0.022136126  0.022139542            6 
 1827000   0.95669246   -7.8766105    486.35935  0.022183878  0.022133891            2 
 1828000   0.96209485   -7.8352194    486.77049  0.022190486  0.022128214            2 
 1829000   0.94205292   -7.8446124    486.47981  0.022165109  0.022122512            1 
 1830000   0.95490145   -7.8461914    487.34128  0.022192226  0.022116891            1 
 1831000   0.95765078   -7.8191208    488.64244  0.022239325  0.022111385            2 
 1832000   0.95660092   -7.8006656    488.70618  0.022230085  0.022105921            2 
 1833000   0.97396692    -7.816063    488.07012   0.02218904  0.022100464            2 
 1834000   0.95415642    -7.833691    487.41752  0.022147288  0.022094943            2 
 1835000     0.970369   -7.8475894    487.94876  0.022159344  0.022089381            3 
 1836000   0.95556547   -7.8198549    488.07882  0.022153178  0.022083777            3 
 1837000   0.96447254   -7.8315966    487.43159  0.022111758  0.022078149            4 
 1838000   0.96243376   -7.8637182    487.83318  0.022117935  0.022072531            1 
 1839000   0.93830371   -7.8822125    489.18321  0.022167084  0.022066982            2 
 1840000   0.95534464   -7.9019013    487.93996   0.02209873  0.022061411            1 
 1841000   0.95450528   -7.8414851    488.70841   0.02212151  0.022055733            1 
 1842000   0.96260793   -7.8588186    489.48182  0.022144491  0.022050112            6 
 1843000   0.99611674   -7.8512953    488.74628  0.022099217  0.022044499            3 
 1844000    0.9501096   -7.8558054    488.28994   0.02206661  0.022038902            3 
 1845000   0.96823765   -7.8685585    489.82857  0.022124145  0.022033353            2 
 1846000   0.94784419   -7.8122547    490.18953  0.022128455  0.022027897            3 
 1847000   0.94913661    -7.879903     489.9692  0.022106533  0.022022408            4 
 1848000   0.96959552     -7.85046    488.59452  0.022032581  0.022016844            1 
 1849000   0.93540062   -7.8333474    490.33656  0.022099178  0.022011364            1 
 1850000   0.97707896   -7.9070834    489.59711  0.022053924  0.022005846            2 
 1851000   0.93739745   -7.8639975    490.50233  0.022082763  0.022000256            4 
 1852000   0.96136322   -7.8985829    490.65359  0.022077645  0.021994681            1 
 1853000   0.94984393   -7.8487374    490.31099  0.022050323  0.021989103            4 
 1854000    0.9534652   -7.8687185    490.48491  0.022046247  0.021983465            1 
 1855000   0.96607578   -7.8792654    489.65964  0.021997289  0.021977754            2 
 1856000   0.96226005   -7.8313894    490.13782  0.022006906  0.021971985            4 
 1857000   0.96920324   -7.8440064    490.00988  0.021989314  0.021966253            2 
 1858000   0.94248066   -7.8181543    490.61322   0.02200454  0.021960501            2 
 1859000   0.98211563    -7.858502     490.1315  0.021971109  0.021954688            1 
 1860000   0.93968928   -7.8794948    490.12706  0.021959098  0.021948875            1 
 1861000   0.94915092   -7.8952314    489.91434  0.021937773  0.021943019            2 
 1862000   0.95618523   -7.8752034    489.22014  0.021894922  0.021937162            2 
 1863000   0.94763817   -7.8463972    490.56706  0.021943418  0.021931342            2 
 1864000   0.94422485   -7.8819715    490.99352  0.021950712  0.021925543            3 
 1865000   0.96352857   -7.8619115    490.93091  0.021936144  0.021919766            1 
 1866000   0.95561603    -7.905197    489.86026  0.021876575  0.021913984            2 
 1867000     0.964917   -7.8669132    489.96256  0.021869423  0.021908221            3 
 1868000   0.96784757   -7.8540981    490.92971  0.021900861   0.02190244            2 
 1869000   0.95313077   -7.8173409    493.90918  0.022021989  0.021896685            2 
 1870000   0.96392888   -7.8386701     492.3912  0.021942567  0.021890998            1 
 1871000   0.94467598   -7.8447505    492.39781  0.021931134  0.021885331            3 
 1872000   0.94036056   -7.8640838    492.60089  0.021928458  0.021879621            3 
 1873000   0.94364601   -7.8856797    492.17801  0.021897936  0.021873914            2 
 1874000   0.94785752   -7.8537755    493.29682  0.021936002  0.021868244            1 
 1875000   0.96239452   -7.8872031    491.05596   0.02182471  0.021862465            1 
 1876000   0.94418808   -7.8396504     493.7136   0.02193113  0.021856745            5 
 1877000   0.94528172   -7.8723582     491.8958  0.021838741  0.021850982            2 
 1878000   0.95240958   -7.8426811     493.2322  0.021886413  0.021845161            3 
 1879000   0.94923043   -7.8480363    493.27251  0.021876552  0.021839422            3 
 1880000   0.92895316   -7.8819269    494.01676  0.021897906  0.021833595            3 
 1881000    0.9538778   -7.8726986    494.13422  0.021891468  0.021827812            2 
 1882000   0.95372686   -7.8465291    493.10088  0.021834081  0.021822019            2 
 1883000   0.95264227   -7.8299094     493.6429  0.021846473  0.021816242            2 
 1884000    0.9376357   -7.8453644    493.28073  0.021818858   0.02181051            3 
 1885000   0.93749573   -7.8749636    494.16212  0.021846248  0.021804749            1 
 1886000   0.95085459   -7.8877265    492.48007  0.021760342  0.021798943            2 
 1887000   0.96281845   -7.8838336    492.46805   0.02174828  0.021793098            2 
 1888000   0.99035864   -7.8244038    494.45981  0.021824674  0.021787294            3 
 1889000   0.94869152   -7.8605265      494.002  0.021792924  0.021781473            3 
 1890000   0.96143133   -7.8874051    494.03172  0.021782704  0.021775674            3 
 1891000   0.95182753   -7.8870039    493.08883  0.021729633  0.021769825            2 
 1892000   0.93349936   -7.8768124    492.44612   0.02168984  0.021763967            2 
 1893000   0.96258617   -7.8565764    494.55618  0.021771271  0.021758166            6 
 1894000   0.93757529   -7.8415197    495.57357  0.021804539  0.021752473            1 
 1895000    0.9741909   -7.8804385    496.53119  0.021835144  0.021746713            2 
 1896000   0.93638254    -7.845946    497.50858  0.021866587  0.021740913            2 
 1897000    0.9388834   -7.8769877    495.69296  0.021775302   0.02173517            2 
 1898000   0.94194977   -7.8967363    493.99268  0.021689177  0.021729379            3 
 1899000   0.94924576   -7.9034457    495.18041  0.021729876  0.021723579            3 
 1900000   0.96454441    -7.853898    495.83288  0.021747056    0.0217178            2 
 1901000   0.93471472   -7.8435007    497.46859   0.02180732  0.021712132            1 
 1902000   0.94074427   -7.8648113     495.9703  0.021730209  0.021706423            2 
 1903000    0.9374176   -7.8717084    496.84983  0.021757306  0.021700646            4 
 1904000    0.9698259   -7.8738154    495.81037  0.021700384  0.021694897            4 
 1905000   0.93523213   -7.8737054    496.40079   0.02171482  0.021689218            3 
 1906000   0.94205847   -7.8722834    495.64059   0.02167019  0.021683538            1 
 1907000   0.92366827   -7.8738373    497.69163  0.021748455  0.021677842            5 
 1908000   0.91839222   -7.8907766    497.88081  0.021745318  0.021672253            1 
 1909000   0.96771263   -7.8540119    497.21735  0.021704966  0.021666539            6 
 1910000   0.94918263   -7.9026419    497.87795  0.021722424  0.021660902            2 
 1911000   0.94887207   -7.8681761    497.82843  0.021708897  0.021655271            2 
 1912000   0.95416625   -7.8827648    498.96098  0.021746905   0.02164969            2 
 1913000   0.95329414   -7.8540913     498.5986  0.021719751  0.021644023            4 
 1914000   0.93584277   -7.8425736     499.0967   0.02173009  0.021638467            2 
 1915000   0.95720319    -7.896207    497.70132  0.021658021  0.021632875            6 
 1916000   0.94827598   -7.9103022    497.82088  0.021651917  0.021627191            4 
 1917000   0.95913767   -7.8751802    499.78127  0.021725842  0.021621525            4 
 1918000   0.93411411   -7.8780955    499.33979  0.021695333  0.021615867            2 
 1919000    0.9474291   -7.8568353    498.50064  0.021647587  0.021610242            2 
 1920000   0.94289393   -7.8867411    499.47647  0.021678666  0.021604622            1 
 1921000   0.92574363   -7.8610025    500.38022  0.021706586  0.021599053            2 
 1922000   0.94216885   -7.8920561    498.82644  0.021627924  0.021593371            3 
 1923000   0.92963095   -7.8833571    499.48795  0.021645343  0.021587776            2 
 1924000   0.93124981   -7.9049605    499.94444  0.021653865  0.021582137            1 
 1925000   0.94312401   -7.8891583    499.48698  0.021622813  0.021576488            3 
 1926000   0.94633074   -7.8486906     500.4735   0.02165427  0.021570842            7 
 1927000   0.93675669   -7.8691563    500.60499  0.021648719  0.021565296            4 
 1928000   0.94254663   -7.8914494     499.5717  0.021592829    0.0215597            3 
 1929000   0.93683526   -7.8762992    501.36118  0.021658942  0.021554151            2 
 1930000   0.92345328   -7.8513426    502.56005  0.021699484  0.021548637            3 
 1931000   0.94573921   -7.8878772    500.74849  0.021610068  0.021543107            3 
 1932000   0.93157463   -7.8555682    501.78563  0.021643618  0.021537563            2 
 1933000   0.93761577   -7.8774268    502.02092  0.021642564  0.021532079            3 
 1934000   0.93476447   -7.8587583    501.49765  0.021608827  0.021526557            2 
 1935000   0.93460113   -7.9025799    501.45205  0.021595695   0.02152101            4 
 1936000   0.94646831   -7.8695865     501.6627  0.021593608  0.021515485            1 
 1937000   0.95885529   -7.8648998    501.75604  0.021586476  0.021510044            2 
 1938000   0.93031764    -7.912084    502.26283  0.021597129  0.021504479            1 
 1939000     0.943997   -7.8875745    501.83146  0.021567451  0.021498967            2 
 1940000   0.94393849   -7.9042167    500.83959  0.021513728  0.021493413            4 
 1941000   0.93107191   -7.8855615     502.8108  0.021587274  0.021487894            2 
 1942000    0.9337053   -7.8452161    504.08712  0.021630927  0.021482355            1 
 1943000   0.92292323   -7.9031975    502.68217  0.021559537  0.021476792            4 
 1944000   0.94260835   -7.9068245     503.1212  0.021567267   0.02147119            3 
 1945000    0.9500174   -7.9306517    501.46647  0.021485281  0.021465565            3 
 1946000   0.95749734   -7.9259981    502.50285  0.021518622  0.021459929            2 
 1947000   0.91938562   -7.9071285    502.45117  0.021505357  0.021454255            3 
 1948000   0.94675493   -7.8871598     503.0985   0.02152201  0.021448562            6 
 1949000   0.91125929    -7.865104    503.14603  0.021512999  0.021442889            5 
 1950000   0.95454966   -7.9136863    503.23009   0.02150556   0.02143721            3 
 1951000   0.94693603   -7.9359004    502.76607  0.021474717  0.021431588            2 
 1952000   0.94214033   -7.9153195    501.70332  0.021418345  0.021425874            2 
 1953000   0.91900234   -7.8841813    504.46297  0.021525131  0.021420281            2 
 1954000   0.93029505   -7.8950623    502.58913    0.0214342  0.021414739            3 
 1955000   0.94937841   -7.9317271    502.23275  0.021408045  0.021409113            1 
 1956000   0.94250379   -7.9024283    504.94556  0.021512677  0.021403533            2 
 1957000   0.92932294   -7.9045534     503.8092  0.021453296  0.021397927            1 
 1958000   0.94394267   -7.8934549    505.27034  0.021504526  0.021392316            2 
 1959000   0.95671322   -7.8824227    505.29343  0.021494531  0.021386743            6 
 1960000   0.94989472   -7.8989288    505.40502  0.021488309  0.021381123            2 
 1961000   0.97084572   -7.9033216    504.90557  0.021456127  0.021375469            2 
 1962000   0.94214861   -7.9412368    503.80208  0.021398321  0.021369728            3 
 1963000   0.91708402   -7.9190522    504.54967  0.021419157  0.021364049            3 
 1964000   0.94953205   -7.8945811    504.42994  0.021403171    0.0213584            1 
 1965000   0.94494402   -7.9208485    505.83972  0.021452066  0.021352723            2 
 1966000   0.92558098   -7.8815546    505.42527  0.021423587  0.021347134            2 
 1967000   0.94008405   -7.8873017    506.64227  0.021464255  0.021341615            2 
 1968000   0.93725092   -7.9502154    505.39715  0.021400624  0.021336018            3 
 1969000   0.93032533   -7.8861221    505.68101   0.02140177  0.021330403            1 
 1970000   0.94577528   -7.9127036    505.48706  0.021382701  0.021324817            5 
 1971000   0.93352431   -7.9131029    506.29942  0.021406199  0.021319213            1 
 1972000   0.93649364   -7.8571516     507.1069  0.021429467   0.02131365            3 
 1973000    0.9437977   -7.8562573    506.08449  0.021375422  0.021308101            1 
 1974000   0.94286178   -7.9065098    505.92489  0.021357856  0.021302532            2 
 1975000   0.95229484   -7.9198517    505.77482   0.02134071    0.0212969            3 
 1976000   0.93889433   -7.9252468    505.53594  0.021319836  0.021291247            3 
 1977000   0.93314927    -7.913932    505.84998  0.021322289  0.021285576            2 
 1978000   0.93464408   -7.8835706    505.87143  0.021312413  0.021279947            7 
 1979000    0.9605461   -7.9167512    505.69798   0.02129434  0.021274265            2 
 1980000   0.92989959   -7.9103298    505.66407  0.021282158   0.02126861            1 
 1981000   0.94779254   -7.9183628     506.1697  0.021292685  0.021262921            5 
 1982000   0.93461168   -7.9062975    507.31163  0.021329954  0.021257369            3 
 1983000   0.95227525   -7.9106155    507.46129  0.021325487  0.021251782            2 
 1984000   0.91807335   -7.8975833    508.04413  0.021339219  0.021246168            3 
 1985000   0.94185471   -7.8643307     508.6587  0.021354269  0.021240498            1 
 1986000   0.92208421   -7.8914162    508.19249  0.021323955  0.021234893            2 
 1987000   0.93784489   -7.8739901    508.55304  0.021328344   0.02122929            3 
 1988000    0.9415976   -7.8834962     508.2623  0.021305428  0.021223714            4 
 1989000   0.94077544   -7.8982683    507.19695  0.021250082  0.021218075            1 
 1990000   0.94442441   -7.9029535    506.78025  0.021221954    0.0212124            1 
 1991000   0.93499128   -7.9068917    508.03089   0.02126364  0.021206674            2 
 1992000    0.9360907   -7.9295798    506.36416   0.02118324  0.021201008            6 
 1993000   0.91593761   -7.9052208    507.57303  0.021223157  0.021195317            2 
 1994000   0.93468398   -7.9058648    508.06494  0.021233072  0.021189588            4 
 1995000   0.92981549   -7.8929869    508.70187  0.021249034  0.021183894            5 
 1996000   0.94849549   -7.9354158    508.87085  0.021245443  0.021178192            3 
 1997000   0.92057774   -7.9462375    508.33036   0.02121225  0.021172506            2 
 1998000   0.92982338   -7.9147802    509.33347  0.021243471  0.021166804            3 
 1999000   0.90016516   -7.9298681    507.72189  0.021165662  0.021161104            3 
 2000000   0.95109504   -7.9581725    507.87941  0.021161642   0.02115535            2 
 2001000   0.93393023   -7.9531626    507.59987  0.021139425  0.021149595            5 
 2002000   0.92579872   -7.8921511    510.18998  0.021236679  0.021143932            3 
 2003000   0.92157593   -7.8783373    511.87789  0.021296301  0.021138355            2 
 2004000   0.94053031   -7.9333014    509.03139  0.021167307  0.021132739            1 
 2005000   0.94345626   -7.9203576    509.66012  0.021182881  0.021127046            1 
 2006000   0.93000558   -7.9114547     509.2066  0.021153481  0.021121357            3 
 2007000   0.93905096   -7.9158358    509.53765  0.021156687  0.021115614            3 
 2008000   0.93363732   -7.8936919    512.63244  0.021274587  0.021109929            2 
 2009000   0.96394164   -7.9252507    510.06265  0.021157402  0.021104302            1 
 2010000   0.90697218   -7.8766961     510.8137  0.021178014  0.021098612            2 
 2011000   0.93242388    -7.923364    509.87241  0.021128477  0.021092918            1 
 2012000   0.92830921   -7.8810221    510.46238  0.021142411    0.0210872            1 
 2013000   0.93192518   -7.9214533    510.74776  0.021143723  0.021081452            3 
 2014000   0.92114859   -7.9135241    509.57194  0.021084572  0.021075722            1 
 2015000   0.93018652   -7.9058359    508.93688  0.021047845  0.021069998            1 
 2016000   0.92702074    -7.926725    511.74281   0.02115339  0.021064297            4 
 2017000   0.90798425   -7.8866639    510.08908  0.021074578  0.021058591            4 
 2018000   0.93245778   -7.9171282    510.93387   0.02109902  0.021052952            2 
 2019000   0.93376298   -7.9302472    510.30987  0.021062815  0.021047324            2 
 2020000   0.95175239   -7.9081339    511.04565  0.021082741  0.021041639            4 
 2021000    0.9117417   -7.9269635    511.19843  0.021078609  0.021036023            5 
 2022000    0.9120129   -7.9102836    511.91873  0.021097871  0.021030376            3 
 2023000   0.90983715   -7.9315512    511.77674  0.021081593    0.0210247            4 
 2024000   0.94903664   -7.9525966    510.91542  0.021035714  0.021018955            2 
 2025000   0.93853938   -7.9780574    511.09328  0.021032645  0.021013168            3 
 2026000   0.92325599   -7.9484839    511.11556   0.02102318  0.021007363            1 
 2027000   0.93698177   -7.9416681    511.81561  0.021041589  0.021001597            4 
 2028000   0.89563667   -7.9414848    510.32968  0.020970154  0.020995783            3 
 2029000   0.92383044   -7.9330777    512.21281  0.021037162  0.020989994            2 
 2030000   0.92743404    -7.929612     510.9011  0.020972952  0.020984189            2 
 2031000   0.93508395   -7.9739777    510.84615  0.020960371   0.02097834            4 
 2032000   0.92924856   -7.9318294    511.77679  0.020988221  0.020972514            2 
 2033000   0.95064219   -7.9199756    511.43046  0.020963702  0.020966754            3 
 2034000   0.95490338   -7.9368203    513.48493  0.021037567  0.020961032            2 
 2035000   0.93389909    -7.897303    512.91984  0.021004088  0.020955351            1 
 2036000   0.92522591   -7.8899817    513.49528  0.021017325  0.020949696            3 
 2037000   0.93336531   -7.8881404    513.74849  0.021017366  0.020944089            2 
 2038000   0.91063391    -7.926551    512.68032  0.020963376    0.0209384            2 
 2039000   0.92609517   -7.9077743    513.27593  0.020977437  0.020932667            5 
 2040000    0.9129916    -7.913911    513.14405  0.020961767  0.020926869            5 
 2041000   0.93171492   -7.9498138    511.60912  0.020888826  0.020921031            5 
 2042000   0.92840326   -7.9117092    512.58003  0.020918219  0.020915262            1 
 2043000   0.92911196   -7.8742866    514.71025  0.020994871  0.020909486            4 
 2044000   0.92726355   -7.8987424    513.81382  0.020948052   0.02090374            1 
 2045000   0.92342615   -7.9135423    513.50647  0.020925284  0.020898039            2 
 2046000   0.92844441   -7.9308965    512.63961  0.020879749  0.020892253            3 
 2047000   0.93302598   -7.9357231    514.05937  0.020927348  0.020886497            2 
 2048000   0.90971066   -7.9267472    513.14466   0.02087991  0.020880745            5 
 2049000   0.94554805   -7.9553769    512.99132  0.020863483  0.020874948            2 
 2050000   0.93601922   -7.9149394     514.0298   0.02089552  0.020869103            2 
 2051000   0.91739502   -7.9752088    513.67561  0.020870941  0.020863311            4 
 2052000   0.92636504   -7.9341855    514.40086  0.020890223  0.020857458            2 
 2053000   0.92248503   -7.9428409    513.58314  0.020846856  0.020851603            4 
 2054000   0.92351577   -7.9933061    512.46421   0.02079131  0.020845699            5 
 2055000   0.91595769   -7.9293212    514.10573  0.020847759  0.020839825            5 
 2056000   0.92597483   -7.9667948    513.95103  0.020831348  0.020833942            2 
 2057000   0.92411977   -7.9659119    513.28657  0.020794303   0.02082813            3 
 2058000   0.93602928   -7.9289613    514.79808  0.020845403  0.020822307            2 
 2059000   0.92272765    -7.922669    514.68599  0.020830743   0.02081648            3 
 2060000   0.93030632   -7.9507643    514.79416  0.020825007  0.020810699            1 
 2061000   0.92017727   -7.9470615    513.75585   0.02077292  0.020804899            3 
 2062000   0.92093611   -7.9385427    514.55861  0.020795288  0.020799167            3 
 2063000   0.93519439   -7.9019907    515.82917  0.020836531  0.020793333            7 
 2064000   0.89642492   -7.8969989    514.87451  0.020787892   0.02078747            4 
 2065000   0.90563308   -7.9256837    515.80942  0.020815554   0.02078166            6 
 2066000   0.93443198   -7.9389093    515.10132  0.020776917  0.020775852            3 
 2067000    0.9204149   -7.9634746    515.96354  0.020801626  0.020770028            2 
 2068000   0.93116241   -7.9289062    514.83982  0.020746286  0.020764213            5 
 2069000   0.93172617   -7.9552732    515.17337  0.020749693  0.020758364            3 
 2070000   0.92423329   -7.9604679    516.12642  0.020778036  0.020752519            1 
 2071000   0.90922208   -7.9414267    516.28824  0.020774515  0.020746706            2 
 2072000   0.93893551   -7.9383392    515.72571  0.020741864  0.020740924            1 
 2073000   0.93104854   -7.9515703    514.47501  0.020681581  0.020735086            3 
 2074000   0.93399746   -7.9734349    516.71428  0.020761583  0.020729222            7 
 2075000   0.93225092   -7.9200591    516.45377  0.020741115  0.020723388            4 
 2076000   0.92986021    -7.944295    515.46702  0.020691515  0.020717565            3 
 2077000   0.91880903   -7.9479346    517.26303  0.020753612  0.020711718            3 
 2078000   0.93747813   -7.9464572    516.95203  0.020731153   0.02070587            1 
 2079000   0.90498262    -7.973342    516.42991  0.020700253  0.020699983            2 
 2080000   0.91612225   -7.9692193    516.35726   0.02068739  0.020694113            3 
 2081000   0.92844631   -7.9084963    516.46938  0.020681939  0.020688324            3 
 2082000   0.90132848    -7.938793    516.39565  0.020669054  0.020682487            2 
 2083000   0.92979398   -7.9681978    515.06235  0.020605791  0.020676553            2 
 2084000   0.94198754   -7.9628475    516.27356  0.020644336  0.020670654            2 
 2085000   0.91995184   -7.9329335    517.24281  0.020673174   0.02066475            2 
 2086000   0.90201225   -7.9530511    515.64895  0.020599591  0.020658902            2 
 2087000   0.92352884   -7.9328061    516.70182  0.020631761  0.020652998            3 
 2088000   0.92909464   -7.9674626    516.79672  0.020625667  0.020647063            2 
 2089000   0.93540767   -7.9343503    517.78047  0.020655037  0.020641136            3 
 2090000    0.9126551   -7.9738181    516.15796  0.020580461  0.020635156            2 
 2091000   0.92249625   -7.9749314    516.84476   0.02059799  0.020629141            2 
 2092000   0.90990489   -7.9695335    515.59341  0.020538297  0.020623082            3 
 2093000    0.9320668   -7.9662797    515.55451  0.020526935  0.020617057            2 
 2094000   0.90334372   -7.9505692    516.67562  0.020561749     0.020611            1 
 2095000    0.8927329   -7.9427546    515.00272  0.020485391  0.020604914            3 
 2096000    0.9168344   -7.9618126    515.07054  0.020478314   0.02059888            4 
 2097000   0.92984732    -7.947837    517.06176  0.020547677  0.020592849            3 
 2098000   0.90971158   -7.9474033    519.37247  0.020629666  0.020586862            1 
 2099000   0.90318995   -7.9659343    517.84333  0.020559129  0.020580906            2 
 2100000   0.91270364   -7.9699352    516.67027  0.020502789  0.020574903            1 
 2101000    0.9165753   -7.9924159    516.86615  0.020500799  0.020568857            2 
 2102000   0.93504841   -7.9408943     518.1067  0.020540228  0.020562794            8 
 2103000   0.94325015    -7.972214     517.1457   0.02049238  0.020556806            1 
 2104000   0.89986748   -7.9283742    518.91776  0.020552826  0.020550818            2 
 2105000   0.91435533   -7.9901531    516.26777  0.020438154  0.020544854            1 
 2106000   0.90680944   -7.9477686    517.36985  0.020472058  0.020538842            7 
 2107000    0.9171074   -7.9577322    518.61966  0.020511773  0.020532835            2 
 2108000   0.89451132   -7.9555003    518.39777  0.020493271  0.020526809            3 
 2109000    0.9261125    -7.967775    516.77838  0.020419566  0.020520735            1 
 2110000   0.90494377   -7.9861239    517.76367  0.020448802   0.02051465            3 
 2111000   0.90567765   -7.9588676    518.44564  0.020466037  0.020508613            2 
 2112000   0.92530128   -7.9920658    518.49582  0.020458326  0.020502604            4 
 2113000   0.89815855   -7.9648869    519.56342  0.020490749  0.020496587            3 
 2114000   0.93800253   -7.9810563    518.37842  0.020434343  0.020490569            2 
 2115000   0.89499949   -7.9519027    518.57907  0.020432588  0.020484518            7 
 2116000   0.90127029   -7.9757443    518.13246  0.020405343  0.020478501            9 
 2117000   0.89234487   -7.9869458     517.7137   0.02037922  0.020472496            4 
 2118000   0.92640183   -7.9571819    517.50302  0.020361309  0.020466413            2 
 2119000   0.91141506   -7.9711003    517.83159  0.020364621  0.020460421            2 
 2120000   0.90901166   -7.9716361    517.38051  0.020337284  0.020454432            3 
 2121000   0.91407745   -8.0092473    517.19015  0.020320216  0.020448391            1 
 2122000   0.92188358   -7.9585223    518.23316  0.020351601  0.020442336            1 
 2123000   0.90601864   -7.9427755    519.91774  0.020408139  0.020436312            5 
 2124000   0.91913049   -7.9548725    518.82527  0.020355668  0.020430246            5 
 2125000   0.93054317   -7.9272916    518.24957  0.020323513  0.020424279            2 
 2126000   0.91554635    -7.934009    519.08589  0.020346734  0.020418313            4 
 2127000   0.92130065    -7.933354    521.18596  0.020419447  0.020412318            2 
 2128000   0.89129331   -7.9536628    520.01569  0.020364023  0.020406257            2 
 2129000   0.90335158   -7.9868292    517.91742  0.020272327  0.020400123            2 
 2130000   0.91328828   -7.9900175    517.44729  0.020244417  0.020393956            2 
 2131000   0.91538847   -8.0024052     518.2597  0.020266686  0.020387802            1 
 2132000   0.90650108   -7.9457984    518.82189  0.020279155   0.02038168            3 
 2133000   0.90900423   -7.9611318    518.19327  0.020245088  0.020375523            3 
 2134000   0.90050792   -7.9543887    518.81774  0.020259987   0.02036937            3 
 2135000    0.9279966   -8.0061581    519.14479  0.020263263  0.020363196            6 
 2136000   0.93084109   -7.9804113    518.50436  0.020228791  0.020357059            1 
 2137000   0.90766345   -7.9779216    519.49165  0.020257825   0.02035088            3 
 2138000   0.90844707   -7.9557729     519.0514   0.02023119  0.020344707            3 
 2139000    0.9063632   -7.9895837    518.44195  0.020197988  0.020338505            2 
 2140000   0.89960371   -8.0019662    520.25925  0.020259317  0.020332318            1 
 2141000   0.90590868   -7.9366922    520.38335  0.020254684  0.020326134            1 
 2142000   0.93295601   -7.9556308    521.35495  0.020283028  0.020319991            3 
 2143000   0.90608916   -7.9767376      518.907  0.020178371  0.020313828            2 
 2144000   0.93166068   -8.0075498    518.58299  0.020156366  0.020307628            3 
 2145000   0.92567426   -7.9723162    519.57659  0.020185571  0.020301414            8 
 2146000   0.89805786   -8.0259465    519.29039  0.020165051  0.020295212            2 
 2147000   0.89743857   -7.9750317    520.07926  0.020186278  0.020289096            4 
 2148000   0.89661028   -8.0210234    518.85906  0.020129541  0.020282962            9 
 2149000   0.89710235   -7.9688745    519.75315  0.020154845   0.02027687            4 
 2150000    0.9332867   -7.9850867     519.8439  0.020148988    0.0202707            2 
 2151000   0.92511744   -8.0248409    520.51303  0.020165544  0.020264479            5 
 2152000   0.89811966   -8.0352337    518.29263  0.020070192  0.020258236            2 
 2153000   0.91985483   -8.0210542    519.84189  0.020120835   0.02025198            7 
 2154000   0.90242134   -8.0263136    517.54364   0.02002258  0.020245758            3 
 2155000   0.90178141    -7.992267    520.21014  0.020116401  0.020239466            2 
 2156000    0.9245575    -7.997505    521.12442  0.020142409  0.020233229            2 
 2157000   0.91743015   -8.0156136    519.87462  0.020084787   0.02022699            3 
 2158000   0.91124971   -8.0145305    519.65509  0.020067002  0.020220731            3 
 2159000   0.92624731   -8.0408035    517.93875   0.01999146  0.020214493            2 
 2160000   0.88573319   -7.9880017    520.28219  0.020072615  0.020208204            3 
 2161000   0.90217989   -8.0283425    519.13355  0.020019032  0.020201919            2 
 2162000   0.91854051   -7.9892109    520.49399   0.02006221  0.020195612            3 
 2163000   0.90235862   -7.9739588    520.91081  0.020068994  0.020189347            3 
 2164000   0.89490859   -7.9868009    519.86688  0.020019519  0.020183125            1 
 2165000   0.92216789   -8.0064239    520.93354  0.020051329  0.020176892            3 
 2166000   0.91065636   -7.9930527    520.91632   0.02004141  0.020170721            3 
 2167000   0.88151689   -7.9795736    521.11502  0.020039802  0.020164564            3 
 2168000   0.89504979   -7.9898401    521.86306  0.020059312  0.020158435            3 
 2169000   0.89764681   -8.0058747    520.91952  0.020013813  0.020152267            8 
 2170000   0.90687961    -7.983519    523.37614   0.02009893  0.020146138            2 
 2171000    0.9237711   -7.9733748    522.77374  0.020066549  0.020140017            4 
 2172000   0.90556175   -8.0077242    521.92678  0.020024815  0.020133882            1 
 2173000   0.89026575   -7.9665328    522.17623  0.020025166  0.020127776            2 
 2174000   0.90664211   -7.9798009    522.42235  0.020025389  0.020121683            1 
 2175000   0.91930039   -7.9811277     522.7812  0.020029931  0.020115546            3 
 2176000   0.91608112   -7.9825396    522.56825  0.020012571  0.020109416            1 
 2177000   0.90219344   -8.0008867    522.77921  0.020011454   0.02010329            2 
 2178000   0.89590733   -7.9898744    521.48618  0.019952792  0.020097116            3 
 2179000    0.8999645   -7.9768728    522.44495  0.019980302  0.020090941            4 
 2180000   0.91460587   -7.9848994    522.88222  0.019987852  0.020084809            3 
 2181000   0.91144283   -8.0095894    521.69601  0.019933364  0.020078651            3 
 2182000   0.91962147   -8.0056495    522.16801  0.019942255  0.020072521            2 
 2183000   0.89420321   -7.9530829    523.91233  0.019999707  0.020066452            3 
 2184000   0.90155402   -7.9837941    524.13023  0.019998864  0.020060362            1 
 2185000   0.89264425   -7.9856242     522.7982  0.019938909  0.020054223            4 
 2186000    0.9064195   -7.9945848     522.5099  0.019918798  0.020048113            1 
 2187000   0.89776872   -7.9735387    524.08475  0.019969698  0.020042004            2 
 2188000   0.89334576   -7.9812066    522.36702  0.019895148  0.020035908            1 
 2189000   0.89887528   -8.0278638    522.83117   0.01990373  0.020029752            3 
 2190000   0.89709176   -8.0127589    524.33403  0.019951828    0.0200236            3 
 2191000   0.90066354    -8.012089    521.78978  0.019845952  0.020017461            4 
 2192000   0.89298577   -7.9993515    523.09288  0.019886438  0.020011324            7 
 2193000   0.88177759   -8.0038663    523.38024   0.01988829  0.020005173            5 
 2194000   0.89298113   -8.0099582    522.84921  0.019859055   0.01999902            4 
 2195000   0.90006353   -7.9976742    523.91968  0.019890649  0.019992846            3 
 2196000   0.89190161   -7.9951592    524.67343  0.019910194  0.019986722            7 
 2197000    0.9143685   -8.0308774    524.11221  0.019879844  0.019980615            2 
 2198000   0.90618765   -8.0300968    523.25953  0.019838472  0.019974526            4 
 2199000   0.88690819   -8.0130289    523.88288  0.019853073  0.019968405            1 
 2200000   0.89893311   -8.0068496    524.86543  0.019881266  0.019962269            3 
 2201000   0.85784207   -8.0002665    524.42143  0.019855423  0.019956173            9 
 2202000   0.89305576   -8.0115175    524.70214  0.019857029  0.019950042            4 
 2203000   0.90181656   -7.9988201    524.02239  0.019822302  0.019943893            2 
 2204000   0.88942998   -8.0138459    525.12944  0.019855166  0.019937735            1 
 2205000   0.88843584   -8.0499708    524.09351  0.019807011   0.01993156            6 
 2206000   0.88590072   -8.0186299    524.83947  0.019826212  0.019925385            2 
 2207000   0.92601708   -8.0428486    524.59611  0.019808039  0.019919249            1 
 2208000   0.88390426   -8.0240289    524.67069  0.019801883  0.019913072            2 
 2209000   0.88921388    -7.975067    524.93167  0.019802764  0.019906903            2 
 2210000   0.90777503    -8.022748     525.6833  0.019822146  0.019900755            4 
 2211000    0.8749492   -8.0032226    525.27985  0.019797974  0.019894647            2 
 2212000   0.89992715   -7.9705782    526.84726  0.019848073  0.019888524            2 
 2213000   0.90975029   -7.9976195    525.47065  0.019787266  0.019882398            3 
 2214000   0.88636217   -8.0270672    524.30779   0.01973456  0.019876239            4 
 2215000   0.91179231   -7.9954343    526.21921  0.019797562  0.019870059            5 
 2216000   0.89932376   -7.9985818    525.68532  0.019768552  0.019863863            3 
 2217000   0.90407448   -8.0196198    524.35386  0.019709587  0.019857711            1 
 2218000   0.90368203   -7.9877264    526.29659  0.019773692   0.01985154            1 
 2219000   0.90425096    -8.014496    525.59543  0.019738449  0.019845295            3 
 2220000   0.89104075   -8.0085545    525.64697  0.019731493  0.019839079            3 
 2221000   0.89502259    -8.007131    525.41498  0.019713905   0.01983287            2 
 2222000   0.89195022   -8.0125958    524.32699  0.019664228  0.019826672            6 
 2223000   0.88726687   -7.9910014    526.46867  0.019735668  0.019820449            4 
 2224000   0.88756232   -8.0298832    525.23302  0.019680494  0.019814205            3 
 2225000   0.89025854   -8.0057289    524.93406  0.019660452     0.019808            4 
 2226000   0.88699042    -8.004173    526.12731   0.01969629  0.019801786            3 
 2227000     0.898185   -7.9620162     526.8889  0.019715945  0.019795614            4 
 2228000   0.90415618   -8.0311754    525.12959  0.019641292  0.019789478            1 
 2229000   0.90675436   -8.0132324     526.1197  0.019669497  0.019783316            2 
 2230000   0.90575767   -7.9645084    527.63915  0.019717457  0.019777106            2 
 2231000   0.88194666   -7.9906081    526.76115  0.019675824  0.019770962            3 
 2232000   0.91785717   -7.9870423    526.89894  0.019672153  0.019764811            2 
 2233000   0.89947825   -7.9941351    527.01134  0.019667538  0.019758664            2 
 2234000   0.87039871   -8.0153911    525.82234  0.019614382  0.019752444            5 
 2235000   0.88527139    -8.050848    524.89103  0.019570881  0.019746226            2 
 2236000   0.87549737   -8.0145471     526.2943  0.019614427  0.019740029            6 
 2237000   0.88017612   -8.0367708    526.09034  0.019598061  0.019733821            2 
 2238000   0.90593494   -8.0104808    526.27192  0.019596065  0.019727627            3 
 2239000   0.89477515     -8.02201     526.7009  0.019603279  0.019721423            2 
 2240000   0.86790873    -8.026277    526.33698  0.019580989  0.019715165            2 
 2241000    0.8961192   -8.0206317    525.73171  0.019549744  0.019708861            4 
 2242000   0.90830996   -8.0409602    526.31566  0.019562729  0.019702608            1 
 2243000     0.886998   -8.0283203    527.47897  0.019597227  0.019696378            3 
 2244000   0.88768997   -8.0651082    525.82637  0.019527123  0.019690125            1 
 2245000    0.8911247   -8.0349294    526.47132  0.019542365  0.019683858            2 
 2246000   0.89218053   -8.0349243    526.84475   0.01954752  0.019677593            2 
 2247000   0.91133164   -8.0275395    527.56029  0.019565357  0.019671335            3 
 2248000   0.88276844   -7.9859442    527.23431   0.01954457   0.01966509            1 
 2249000   0.88512602   -8.0240132    528.64121   0.01958801  0.019658868            3 
 2250000   0.89374718   -8.0297127    526.42569  0.019497248  0.019652656            5 
 2251000    0.8795853   -8.0500765    527.85719  0.019541581  0.019646426            2 
 2252000    0.8959485   -8.0262217    527.63794   0.01952479  0.019640201            7 
 2253000   0.88587572   -8.0426267    527.92159  0.019526616  0.019633952            6 
 2254000    0.8760482   -8.0281517    527.49887  0.019502324  0.019627729            4 
 2255000    0.8982838   -8.0281017    527.66428  0.019499789  0.019621508            4 
 2256000   0.89063369   -8.0437736    528.69931  0.019529378  0.019615292            5 
 2257000   0.89140586   -8.0375816    527.16074  0.019463918  0.019609035            1 
 2258000   0.89115296   -8.0631071    527.67122  0.019474137  0.019602787            2 
 2259000    0.8946198    -8.014366    527.83116  0.019471416  0.019596566            5 
 2260000   0.88927307   -8.0247488    527.80914  0.019461989  0.019590349            5 
 2261000   0.89061262   -8.0169853    528.93992  0.019495058  0.019584131            2 
 2262000   0.89537804   -8.0044008    528.60442   0.01947408  0.019577897            3 
 2263000   0.89128464   -8.0332948    527.96573  0.019441955   0.01957166            3 
 2264000   0.89685684   -8.0422741    526.99032  0.019397465  0.019565408            2 
 2265000   0.87154245   -8.0237164    528.19121  0.019433084  0.019559171            2 
 2266000    0.9039149   -8.0356423     527.5293  0.019400165  0.019552933            2 
 2267000   0.90515959   -8.0387372    527.42679   0.01938784  0.019546698            1 
 2268000   0.89882588   -8.0235662    529.09354  0.019440533  0.019540489            3 
 2269000   0.89505921   -8.0107008    529.06659  0.019430975  0.019534296            4 
 2270000   0.89310243   -8.0489295    529.82037  0.019450087  0.019528091            8 
 2271000   0.89190178   -8.1091371    527.55824  0.019358515   0.01952185           13 
 2272000   0.89370834   -8.0677655    527.75963  0.019357381  0.019515608            9 
 2273000   0.90084318   -8.0691716    528.25578  0.019367054  0.019509348            5 
 2274000   0.88772378    -8.064586    529.18106  0.019392446  0.019503132            3 
 2275000   0.88695761   -8.0568515    530.02679  0.019414901  0.019496959            2 
 2276000   0.88922571   -8.0231454    529.88737  0.019401266  0.019490837            3 
 2277000   0.89762281   -8.0842939    528.37608  0.019337435  0.019484632            3 
 2278000   0.88781364   -8.0296228    530.26721  0.019398127  0.019478419            2 
 2279000   0.89530336   -8.0541079    529.36408  0.019356592  0.019472232            2 
 2280000   0.87177694   -8.0593185    529.01753  0.019335436  0.019466045            3 
 2281000   0.88033616   -7.9934008    529.89655  0.019359073  0.019459859            2 
 2282000   0.88723572   -8.0504506    530.06483  0.019356735  0.019453609            2 
 2283000   0.90126233   -8.0344172    529.52787  0.019328656  0.019447411            4 
 2284000   0.88126122   -8.0567276    529.67222  0.019325461   0.01944118            2 
 2285000   0.87345101   -8.0500175    529.37889  0.019306305  0.019434938            7 
 2286000   0.89102555   -8.0817903    528.63122  0.019270604  0.019428733            3 
 2287000   0.87335355   -8.0730821    530.89235  0.019344569  0.019422502            3 
 2288000   0.89210822    -8.052911    530.44836  0.019319943   0.01941632            2 
 2289000   0.89491538   -8.0412105       530.47  0.019312291  0.019410146            4 
 2290000   0.89065823   -8.0400695     529.4341  0.019266161  0.019403988            3 
 2291000   0.87463999   -8.0156685    532.19885  0.019358317  0.019397889            3 
 2292000   0.88105092   -8.0319551    529.89144  0.019265977  0.019391797            3 
 2293000   0.87469813   -8.0414646     531.4684  0.019314886  0.019385724            2 
 2294000    0.8810694   -8.0118297    531.26128  0.019298942  0.019379636            2 
 2295000   0.87627045   -8.0485491    531.04141  0.019282549  0.019373523            4 
 2296000    0.8735477   -8.0624746    532.46631  0.019325868  0.019367391            3 
 2297000   0.88238848   -8.0668778    531.88768  0.019296462  0.019361282            2 
 2298000   0.87399673   -8.0329602    532.78775  0.019320704  0.019355142            3 
 2299000   0.88124061   -8.0695682    531.69029   0.01927252  0.019349027            2 
 2300000   0.84259918   -8.0522258    532.02693  0.019276338  0.019342888            3 
 2301000   0.87139235   -8.0542029    532.51537   0.01928565  0.019336778            4 
 2302000   0.87936908   -8.0644906    531.56323  0.019242804  0.019330625            2 
 2303000   0.86891873   -8.0476275    531.01528  0.019214621  0.019324462            1 
 2304000   0.88464313   -8.0335738    531.34037   0.01921804   0.01931828            1 
 2305000   0.88743725    -8.048906    531.01088   0.01919779  0.019312039            4 
 2306000   0.87193639   -8.0828652    531.24124   0.01919779  0.019305825            3 
 2307000   0.88089482   -8.0517346    530.52363  0.019163547  0.019299646            2 
 2308000   0.91083798   -8.0280258    532.08761  0.019211713  0.019293479            2 
 2309000   0.88164606    -8.016971    532.70424  0.019225647  0.019287372            1 
 2310000   0.90481848   -8.0306068    532.58551  0.019213041  0.019281244            2 
 2311000   0.86224562   -8.0500455    531.24677  0.019156454   0.01927512            2 
 2312000   0.88371889   -8.0775519     531.9614  0.019173926  0.019268948            2 
 2313000    0.8810232   -8.0408594    532.22762  0.019175228  0.019262811            2 
 2314000   0.89560409    -8.009075    534.72489  0.019256874  0.019256678            2 
 2315000   0.89137113   -8.0271994    532.88943  0.019182485  0.019250554            2 
 2316000   0.87635888   -8.0587317    532.36977  0.019155504  0.019244428            2 
 2317000   0.87890213   -8.0306277    532.56274  0.019154177  0.019238301            2 
 2318000   0.88601316   -8.0407305    531.85121  0.019120334  0.019232173            1 
 2319000   0.88494916   -8.0644621    531.94394  0.019115421  0.019225989            3 
 2320000   0.87789131   -8.0634362    531.46959  0.019090143  0.019219781            1 
 2321000   0.88209417   -8.0599217    531.25664  0.019074273  0.019213517            4 
 2322000   0.86828408   -8.0723819    531.53566  0.019076071   0.01920724            2 
 2323000   0.86977279   -8.0763875    532.85774  0.019115287  0.019201014            3 
 2324000   0.88021474   -8.0687012    532.87772  0.019107778  0.019194783            1 
 2325000   0.88768108   -8.0839039    531.71439  0.019057863  0.019188535            2 
 2326000   0.88844498   -8.0892148    532.72313   0.01908581   0.01918235            3 
 2327000   0.87929101   -8.1056085    531.02767  0.019016891   0.01917616            3 
 2328000   0.86492249    -8.092416    531.59107   0.01902889  0.019169923           10 
 2329000   0.86593089   -8.1094251    532.18467  0.019041959  0.019163716            4 
 2330000   0.88262279   -8.0851576    531.72485  0.019017341   0.01915749            4 
 2331000   0.89010433   -8.0889936    533.54594  0.019074286  0.019151319            1 
 2332000   0.87961522    -8.065952    532.71019  0.019036242  0.019145102            2 
 2333000   0.88867968   -8.0674599    533.21334  0.019046054  0.019138897            8 
 2334000   0.87367713   -8.0854319    532.13958  0.018999557  0.019132731            2 
 2335000   0.86517791    -8.077897    532.50121  0.019004326  0.019126511            4 
 2336000   0.88292071   -8.0877105    531.52847  0.018961489  0.019120302            4 
 2337000   0.87433996   -8.0666961    532.33673  0.018982197  0.019114091            2 
 2338000   0.87799902   -8.0533799    533.63576  0.019020379  0.019107919            6 
 2339000   0.86995803   -8.0275743    535.01715  0.019061463  0.019101841            3 
 2340000   0.86863701   -8.0736777    533.81447  0.019010487  0.019095717            7 
 2341000   0.87861854   -8.0917938    534.06209  0.019011181   0.01908956            1 
 2342000   0.88216869   -8.0907197    533.46374  0.018981773  0.019083407            2 
 2343000   0.86473309   -8.0496569    534.02567  0.018993657  0.019077263            3 
 2344000   0.88630495   -8.0473323    535.09049   0.01902341  0.019071133            2 
 2345000   0.87494836   -8.0533912    534.18457  0.018983105  0.019064981            1 
 2346000   0.86487532   -8.0875002    535.16794  0.019009944  0.019058827            2 
 2347000   0.88877739    -8.086069    533.26633  0.018934325  0.019052676            3 
 2348000   0.85127876   -8.0862502    533.17232  0.018922925  0.019046523            3 
 2349000   0.87822893    -8.111245    531.50508  0.018855722  0.019040346            2 
 2350000   0.87275085   -8.0508404    535.03524  0.018972881  0.019034161            3 
 2351000   0.89769152   -8.0663801    534.71048  0.018953299  0.019028015            2 
 2352000   0.86135529   -8.0836141    533.66487  0.018908194  0.019021848            3 
 2353000   0.88683811   -8.0633362    534.11961  0.018916263  0.019015694            2 
 2354000   0.86511578   -8.1304281    534.12733  0.018908501  0.019009462            4 
 2355000   0.86246483    -8.114206     533.8945  0.018892233  0.019003229            1 
 2356000   0.87879526    -8.101426    533.29179  0.018862896  0.018997005            2 
 2357000    0.8629998   -8.0639753     534.1425   0.01888497  0.018990804            2 
 2358000   0.88008023   -8.0686285    534.70155  0.018896719  0.018984646            2 
 2359000   0.89488616   -8.0773953    534.48115  0.018880922  0.018978522            2 
 2360000   0.85262061   -8.0835783    534.70717  0.018880903  0.018972418            1 
 2361000   0.86916155    -8.070706    535.35564  0.018895794  0.018966301            5 
 2362000   0.87073228   -8.1087799    534.51366  0.018858088  0.018960135            5 
 2363000   0.86048892   -8.1177161    535.14534  0.018872385  0.018953993            2 
 2364000   0.87247321   -8.1153452    535.43288  0.018874537  0.018947809            5 
 2365000   0.87724387   -8.0725041    535.89287  0.018882765  0.018941639           10 
 2366000   0.83957374   -8.0888595    536.39053  0.018892312  0.018935497            5 
 2367000   0.85375413   -8.0692927    535.72822  0.018861013  0.018929371            3 
 2368000   0.85660324   -8.1146127     535.0063  0.018827643  0.018923232            4 
 2369000   0.87014144   -8.0965805    535.29295  0.018829779  0.018917132            4 
 2370000   0.86950626   -8.0993732     535.2532  0.018820436   0.01891103            4 
 2371000   0.90097906   -8.0784538    534.32169  0.018779759  0.018904842            5 
 2372000    0.8769784   -8.0797117    536.56877  0.018850786  0.018898679            5 
 2373000   0.88637531   -8.0916396    534.86959  0.018783172  0.018892532            3 
 2374000   0.87074465   -8.1370846     534.2087  0.018752061  0.018886318            3 
 2375000   0.86886401     -8.06664    536.21618  0.018814603  0.018880182            3 
 2376000   0.86417305   -8.0602112    536.19223  0.018805844  0.018874091            4 
 2377000   0.87195295   -8.0775246    536.68632  0.018815255  0.018868045            4 
 2378000   0.89325724   -8.0752427    536.32566  0.018794703  0.018862011            4 
 2379000   0.87401588   -8.0630132    537.49303  0.018827695  0.018855988            2 
 2380000   0.88497976   -8.0619399    538.28184  0.018847403  0.018849959            2 
 2381000   0.86838465   -8.0406135    538.69122  0.018853816  0.018843951            2 
 2382000   0.89661744   -8.0786278    536.07219  0.018754275  0.018837868            3 
 2383000   0.84845979   -8.0854876    536.58341  0.018764282  0.018831779            9 
 2384000   0.84579912   -8.0726951    536.39962  0.018749987  0.018825681            3 
 2385000   0.85753083   -8.0991184    536.43954   0.01874352  0.018819595            2 
 2386000   0.85535269    -8.078156    537.02882  0.018756245  0.018813474            2 
 2387000   0.87281067    -8.093344    536.32886  0.018723951  0.018807379            2 
 2388000   0.86428896   -8.0721186    536.73037  0.018730122  0.018801295            9 
 2389000   0.86941651   -8.1045306    536.93627  0.018729464   0.01879516            2 
 2390000   0.86993116   -8.0834561    536.73575  0.018714636  0.018789063            2 
 2391000   0.86602272   -8.0672979    537.19581  0.018722843  0.018783018            3 
 2392000   0.89861008   -8.1007638    536.99052  0.018707864  0.018776936            3 
 2393000   0.86379935   -8.0890056    537.51795  0.018718413  0.018770879            2 
 2394000   0.86609056   -8.0763311    536.49872  0.018675116  0.018764809            2 
 2395000   0.88077935   -8.1250357    536.76484  0.018676578  0.018758727            2 
 2396000   0.86236517   -8.0944618    536.64483  0.018664609  0.018752608            4 
 2397000   0.87103961   -8.1041808     536.6123  0.018655691  0.018746474            5 
 2398000   0.87939598   -8.0851025    537.21447  0.018668837  0.018740331            2 
 2399000   0.86950075   -8.0641848    537.08904  0.018656699  0.018734172            6 
 2400000   0.86765314    -8.091997     536.9589  0.018644406  0.018728054            4 
 2401000   0.86633134   -8.1066269    537.91927  0.018669973  0.018721879            6 
 2402000   0.87625477   -8.1022471    536.18091  0.018601891  0.018715759            5 
 2403000   0.86580598    -8.056432    537.84123  0.018651728  0.018709645            4 
 2404000   0.87057921   -8.0815819    537.46583  0.018630956  0.018703488            2 
 2405000   0.87345221   -8.1203528    536.41422  0.018586771  0.018697343            5 
 2406000   0.86896647   -8.1089858    537.01186  0.018599746  0.018691204            3 
 2407000   0.84993461   -8.0669212    537.72728  0.018616787  0.018685051            8 
 2408000   0.87011747   -8.0829367     537.5952  0.018604485  0.018678968            4 
 2409000   0.87105685   -8.0839195    538.64505  0.018633079  0.018672826            2 
 2410000   0.85603505   -8.1053107    536.44915  0.018549418  0.018666682            4 
 2411000   0.86708022   -8.0839732    538.72954  0.018620543  0.018660559            2 
 2412000   0.85814083   -8.0970586    537.82492  0.018581569   0.01865441            1 
 2413000   0.87437781   -8.1011051    537.39576  0.018559047  0.018648248            2 
 2414000   0.88414719   -8.1271658    537.21479  0.018545111  0.018642092            2 
 2415000   0.86108137   -8.1270184    538.02186  0.018565282  0.018635952            4 
 2416000   0.86558852   -8.1384361    536.40004  0.018501657   0.01862982            2 
 2417000   0.86550512   -8.1258318    538.11577  0.018553157  0.018623683            2 
 2418000   0.85762367    -8.075507    538.74499  0.018567169   0.01861756            6 
 2419000   0.85110536   -8.0943196    538.02971  0.018534853  0.018611413            1 
 2420000   0.86011938   -8.0807025    537.39076  0.018505191  0.018605228            5 
 2421000   0.86772945   -8.1187121    537.78051  0.018510963  0.018599076            1 
 2422000   0.86847487    -8.088261    537.45536  0.018492133  0.018592948            3 
 2423000    0.8555443   -8.0959053    539.15899  0.018543094  0.018586834            3 
 2424000   0.86400823    -8.104904    538.45511  0.018511245  0.018580676            5 
 2425000   0.86163695   -8.0996471    537.77688  0.018480305  0.018574543            2 
 2426000   0.88358279   -8.1025856    537.37048  0.018458727  0.018568416            7 
 2427000   0.85371095   -8.1016583    537.79509  0.018465702  0.018562287            6 
 2428000    0.8568946   -8.0940503    537.88101  0.018461045   0.01855616            4 
 2429000   0.86060901   -8.1165796    538.70208  0.018481614  0.018550007            4 
 2430000   0.86798392   -8.1159223     537.6397  0.018437576  0.018543852            2 
 2431000   0.85127237    -8.085169    538.52457  0.018460324  0.018537735            1 
 2432000   0.85514565   -8.1191198    538.39031  0.018448133  0.018531571            1 
 2433000   0.86152968    -8.087856    539.90935  0.018492579  0.018525465            3 
 2434000   0.85651438   -8.1219621    538.91288  0.018450866  0.018519357            1 
 2435000   0.84641763   -8.1052526    537.30994   0.01838843   0.01851326            2 
 2436000   0.86344105    -8.150513    537.20225  0.018377198  0.018507099            3 
 2437000   0.83708715   -8.1115061     538.0807  0.018399696  0.018500934            2 
 2438000   0.85114465   -8.1250823    538.92612  0.018421046   0.01849481            2 
 2439000   0.87173613   -8.1009407    539.24622   0.01842443  0.018488719            1 
 2440000   0.85816312   -8.1128893    539.04777  0.018410101  0.018482653            6 
 2441000   0.86444463   -8.1076661    540.30239  0.018445391  0.018476614            5 
 2442000    0.8566228   -8.0671861    540.16948  0.018433302  0.018470608            6 
 2443000   0.85753121   -8.1304643    540.05916  0.018421994  0.018464575            3 
 2444000   0.85869754   -8.1292542    538.35812  0.018356455  0.018458536            1 
 2445000   0.86111293   -8.1255592    538.81502   0.01836452  0.018452476            3 
 2446000   0.86689928   -8.1253147    539.58843  0.018383362  0.018446405            2 
 2447000   0.87222892   -8.1227757    541.00087   0.01842395  0.018440349            2 
 2448000   0.86983595   -8.0720079    540.25282  0.018390959  0.018434293            3 
 2449000   0.86416015   -8.1284639    539.63496  0.018362425  0.018428211            2 
 2450000   0.85889187    -8.106204       539.09  0.018336394  0.018422143            4 
 2451000   0.88844157   -8.1159974      539.756  0.018351557  0.018416078            2 
 2452000   0.84053535   -8.1080248      540.174  0.018358279  0.018410021            3 
 2453000    0.8548961   -8.0798849     542.6988  0.018436567  0.018403974            3 
 2454000   0.88233625   -8.1717658    538.61721  0.018290451  0.018397902            4 
 2455000   0.85029197    -8.137275     538.5442  0.018280523  0.018391777            3 
 2456000   0.86186055   -8.0575892     542.1819  0.018396509  0.018385722            1 
 2457000   0.86313431   -8.1349537    540.54043  0.018333348  0.018379666            2 
 2458000   0.85222695   -8.1466142    540.42136  0.018321852  0.018373593            2 
 2459000    0.8553034   -8.1105994    540.34601  0.018311848  0.018367496            1 
 2460000   0.86858087   -8.1396437    539.49586  0.018275605  0.018361377            3 
 2461000   0.86111138   -8.1533669    540.18302  0.018291447  0.018355247            2 
 2462000   0.86776469   -8.1308449    541.15926  0.018317061  0.018349143            2 
 2463000    0.8625827   -8.0913802    540.88184  0.018300238  0.018343062            2 
 2464000   0.84438539   -8.1154221    541.01676  0.018297374  0.018337018            4 
 2465000   0.85130252   -8.1504786    540.47873  0.018271762   0.01833093            3 
 2466000   0.83629967   -8.1142864    539.67347  0.018237141  0.018324829            7 
 2467000   0.86986897    -8.126055    541.52725  0.018292368  0.018318744            2 
 2468000   0.85272233   -8.1108193     540.0411  0.018234775  0.018312657            4 
 2469000   0.85122676   -8.1447524    540.45447  0.018241342  0.018306561            3 
 2470000   0.87554789    -8.132036    541.47769  0.018268478  0.018300481            1 
 2471000   0.85149063    -8.116098    540.56896  0.018230438  0.018294376            4 
 2472000   0.85033225   -8.1025454    540.99033  0.018237268  0.018288288            6 
 2473000   0.85647387   -8.1391485     540.2273  0.018204182  0.018282179            2 
 2474000   0.86052799   -8.1513781    539.66679  0.018177944  0.018276044            3 
 2475000   0.84629607   -8.1282168    541.10103   0.01821889  0.018269884            2 
 2476000   0.85815152     -8.10492    541.66392  0.018230477  0.018263779            2 
 2477000   0.85904333   -8.1240453    540.31935  0.018177881  0.018257725            3 
 2478000   0.87185939   -8.0953154    541.75598  0.018218859  0.018251626            3 
 2479000     0.847334   -8.1534464    540.11581  0.018156374  0.018245496            5 
 2480000   0.87165734   -8.1356467    541.32797  0.018189784  0.018239407            3 
 2481000   0.85487193   -8.1087033    539.50039  0.018121066  0.018233327            2 
 2482000   0.85059606   -8.1526179    541.70283  0.018187713  0.018227204            2 
 2483000   0.86352493    -8.132466    540.77955  0.018149401  0.018221059            2 
 2484000   0.84791298   -8.1617677    540.26316  0.018124771   0.01821491            1 
 2485000   0.84262738   -8.1376063    542.33833  0.018187067  0.018208767            2 
 2486000   0.83607963    -8.125559    540.85401  0.018129995  0.018202672            3 
 2487000   0.84637789   -8.1576678    539.91248  0.018091157  0.018196532            3 
 2488000   0.86237911   -8.0984635    541.20459  0.018127163  0.018190384            1 
 2489000   0.83639292   -8.1285284    540.16748  0.018085157  0.018184267            2 
 2490000     0.864987   -8.1345646    541.62822  0.018126781  0.018178142            2 
 2491000   0.86276963   -8.1461734    541.44714  0.018113446  0.018172017            6 
 2492000   0.84214432   -8.1168177     540.3744  0.018070305  0.018165876            2 
 2493000   0.86582179   -8.1271956     540.0471  0.018052116  0.018159716            2 
 2494000   0.85529584   -8.0868378    541.67431  0.018099249  0.018153602            2 
 2495000   0.84700491   -8.1128355    540.69725   0.01805936  0.018147484            3 
 2496000   0.85386072   -8.1411152    541.83005  0.018089946  0.018141343            2 
 2497000    0.8520027   -8.1412349    540.99859  0.018054952  0.018135228            6 
 2498000    0.8354292   -8.1483592    540.44924  0.018029398  0.018129106            4 
 2499000   0.86278083   -8.1241968    541.06118   0.01804259  0.018122976            3 
 2500000   0.83890579   -8.1374961    541.71214  0.018057071  0.018116898            2 
 2501000   0.84170603   -8.1123727    541.98567  0.018058965  0.018110848            2 
 2502000   0.85416575   -8.1244472    542.36633  0.018064426   0.01810479            3 
 2503000   0.85589979   -8.1130327    543.22446  0.018085779  0.018098713            4 
 2504000   0.85261531   -8.0826615    543.28689  0.018080634  0.018092671            2 
 2505000   0.83659723   -8.1253241    543.27874  0.018073145  0.018086616            3 
 2506000   0.84711134   -8.0923536    541.81556  0.018017277  0.018080577            1 
 2507000   0.83871103   -8.1344811    542.19732   0.01802278  0.018074521            3 
 2508000   0.83669284   -8.1341898    543.91585  0.018072696  0.018068481            3 
 2509000   0.83119867   -8.1357501    541.70257  0.017991981  0.018062427            2 
 2510000   0.84612065   -8.1186308    541.38477  0.017974262  0.018056345            2 
 2511000   0.84996126   -8.1209802    542.75706  0.018012646   0.01805027            4 
 2512000   0.85322204   -8.1452281    541.36267  0.017959218  0.018044214            3 
 2513000    0.8441867   -8.0994454    542.68182  0.017995816  0.018038136            2 
 2514000   0.83263031   -8.1351568    542.31864  0.017976619  0.018032025            6 
 2515000   0.83578516   -8.1334079    541.09342  0.017928874  0.018025918            3 
 2516000   0.84677699   -8.1248295     541.9728  0.017950875  0.018019832            2 
 2517000   0.83573017   -8.1325278    542.05195  0.017946363  0.018013751            6 
 2518000   0.86328147   -8.1727842     541.6066  0.017924497  0.018007671            3 
 2519000   0.84999541   -8.1223594    542.60691  0.017950473  0.018001563            5 
 2520000   0.84129634   -8.1374792    542.44239   0.01793791  0.017995455            2 
 2521000   0.85693506   -8.1613436    541.44059  0.017897679  0.017989341            4 
 2522000   0.85102876   -8.1563832    541.79409  0.017902263   0.01798324            5 
 2523000   0.86516142   -8.1746487    541.33905  0.017880138  0.017977117            5 
 2524000   0.82965778   -8.1503294    542.98131  0.017927275  0.017971022            1 
 2525000   0.85560968   -8.1615304    541.72923  0.017878852  0.017964967            3 
 2526000   0.84056009   -8.1303951    542.07262  0.017883103  0.017958933            5 
 2527000   0.84693462   -8.1647628    542.77341  0.017899136  0.017952888            3 
 2528000   0.85077348   -8.1408836    543.30868  0.017909701  0.017946808            2 
 2529000    0.8385079   -8.1415048    542.30353  0.017869498  0.017940718            4 
 2530000   0.85384396   -8.1113194    542.28049  0.017861676  0.017934637            4 
 2531000   0.83940677   -8.1322201    542.94793  0.017876594  0.017928536            2 
 2532000   0.84352812   -8.1488175    542.69343  0.017861158  0.017922448            4 
 2533000   0.84780595   -8.1410773    543.83196  0.017891563  0.017916403            3 
 2534000   0.85439731   -8.1269401    543.04138  0.017858504  0.017910356            2 
 2535000   0.85972049   -8.1466901    544.26237  0.017891597  0.017904301            2 
 2536000   0.84801552   -8.1545137    543.09121  0.017846057   0.01789823            7 
 2537000   0.85298639   -8.1607429    543.80036  0.017862316  0.017892177            2 
 2538000   0.82463859    -8.133748    543.30076  0.017838874  0.017886144            2 
 2539000   0.86194129   -8.1436297    543.69624  0.017844829  0.017880093            2 
 2540000   0.84531136   -8.1535616    544.19617  0.017854205  0.017874036            2 
 2541000   0.83858748   -8.1335866     542.4423  0.017789659  0.017867961            3 
 2542000   0.84005065   -8.1988702    541.44569   0.01774999  0.017861856            6 
 2543000   0.86414777   -8.1784555    544.12285   0.01783074  0.017855742            3 
 2544000   0.85039021   -8.1630592    542.64016  0.017775162  0.017849638            3 
 2545000   0.83587514   -8.1764203    542.51556  0.017764098   0.01784352            3 
 2546000   0.84598749   -8.1750095    542.61967  0.017760529  0.017837401            2 
 2547000   0.86052756   -8.1928699    543.27748  0.017775078  0.017831329            2 
 2548000   0.83514464   -8.1303493    545.46817  0.017839749  0.017825273            1 
 2549000   0.85408398   -8.1538811    543.96765  0.017783695  0.017819225            1 
 2550000   0.85492078   -8.1645869    543.34697  0.017756437  0.017813183            1 
 2551000   0.85227904   -8.1622226    543.10355  0.017741525  0.017807119            3 
 2552000   0.85216088   -8.1172162    543.27485  0.017740166  0.017801081            3 
 2553000   0.84717821   -8.1460642    544.19841  0.017763364  0.017795051            2 
 2554000   0.83615486   -8.1532282    543.47625  0.017732846   0.01778902            3 
 2555000   0.84332781   -8.1452741    544.11371  0.017746696  0.017782985            2 
 2556000    0.8594294   -8.1791442    543.27703  0.017712475  0.017776918            3 
 2557000   0.83010891   -8.1414012    544.22097  0.017736311   0.01777084            2 
 2558000   0.85331336   -8.1648471    544.34733  0.017733494  0.017764804            3 
 2559000   0.86165483   -8.1394297    544.33388  0.017726126  0.017758748            2 
 2560000   0.84356167   -8.1675144    543.57269  0.017694424  0.017752723            1 
 2561000   0.84161014    -8.140532    545.61576  0.017753994   0.01774668            2 
 2562000   0.84690666   -8.1610207    544.20109   0.01770105   0.01774062            1 
 2563000   0.82842196    -8.166987    544.79433  0.017713432  0.017734567            5 
 2564000   0.84450173   -8.1766375    544.35073  0.017692107  0.017728537            3 
 2565000    0.8318321   -8.1772765     544.4699  0.017689081    0.0177225            3 
 2566000   0.82812017   -8.1721134    545.00793   0.01769966  0.017716464            3 
 2567000   0.83111005   -8.1504826    543.96605  0.017658942  0.017710414            1 
 2568000   0.85380995   -8.1625692    544.27224  0.017662002   0.01770433            1 
 2569000   0.83321718   -8.1741657    544.18711  0.017652365  0.017698244            2 
 2570000   0.84068834   -8.2124916    545.12243  0.017675824  0.017692151            5 
 2571000   0.82273585   -8.2046008    544.36998   0.01764456  0.017686088            2 
 2572000   0.85212472   -8.2072162    542.67341  0.017582731  0.017680016            2 
 2573000   0.82267341   -8.2302116    543.22204  0.017593666  0.017673886            3 
 2574000   0.85287608   -8.1749972    545.38966  0.017657008  0.017667768            3 
 2575000   0.84561687   -8.1973286    544.51767  0.017621931  0.017661696            5 
 2576000   0.85699252   -8.1711916    544.97741  0.017629963  0.017655629            3 
 2577000   0.84051136   -8.1702092    545.89068  0.017652654  0.017649549            6 
 2578000   0.83755852    -8.208926    544.57621  0.017603317  0.017643452            3 
 2579000   0.83551002   -8.1732337    543.78143   0.01757081  0.017637375            3 
 2580000   0.84533027   -8.1889488    544.46883  0.017586203   0.01763125            4 
 2581000   0.84768958   -8.1651982    544.57638  0.017582861   0.01762518            3 
 2582000    0.8390033   -8.1853548     543.6877   0.01754737  0.017619094            9 
 2583000   0.84659902   -8.1724372    543.34121  0.017529398  0.017613031            4 
 2584000   0.83917398   -8.1759549    544.45549  0.017558549  0.017606957            3 
 2585000   0.82476165    -8.206999    544.72287  0.017560376  0.017600857            3 
 2586000   0.84960587   -8.1912331    544.98816  0.017562135  0.017594765            8 
 2587000   0.84547041   -8.2068078    543.11467  0.017494997  0.017588665            2 
 2588000    0.8488142   -8.1938263    544.50259  0.017532927  0.017582569            2 
 2589000   0.84220041    -8.188282    544.19764   0.01751634  0.017576458            4 
 2590000   0.84241205   -8.1814506    544.24952  0.017511246  0.017570335            3 
 2591000   0.82982661   -8.2066852    544.81552  0.017522691  0.017564224            2 
 2592000   0.84394876   -8.2052318    543.25233  0.017465674  0.017558092            2 
 2593000   0.84538134   -8.1870413     543.5302  0.017467869  0.017551952            4 
 2594000   0.85027954   -8.1945456    543.22667  0.017451384  0.017545824            5 
 2595000   0.81988749   -8.1839902     543.7971  0.017462977  0.017539709            7 
 2596000   0.84341963   -8.2187706    545.27754  0.017503773  0.017533601            5 
 2597000   0.84062759    -8.168766    543.54284   0.01744137  0.017527532            3 
 2598000   0.84807966   -8.2154113    543.87575  0.017445335   0.01752144            4 
 2599000   0.83254658   -8.2169193    543.38899  0.017423015   0.01751533            1 
 2600000   0.83008732   -8.1783482    544.34488  0.017446951  0.017509196            1 
 2601000   0.83962089   -8.2339264    543.88509  0.017425512  0.017503062            2 
 2602000   0.83601605   -8.1805975     545.0547  0.017456274  0.017496948            2 
 2603000   0.82986472   -8.2039019    545.07107  0.017450092  0.017490835            1 
 2604000   0.83966673   -8.2099931    545.14809  0.017445856  0.017484721            5 
 2605000   0.83961497     -8.18748    544.04036  0.017403722  0.017478613            4 
 2606000   0.84979644   -8.1970784    545.07219  0.017430039  0.017472511            5 
 2607000   0.85232873   -8.1758124    544.70487  0.017411612  0.017466421            3 
 2608000   0.83628518   -8.1730889    545.31787  0.017424523  0.017460342            2 
 2609000   0.83491227   -8.1598061    546.10544     0.017443  0.017454283            2 
 2610000   0.83455167   -8.1425969    547.93027  0.017494581  0.017448263            3 
 2611000   0.82129661   -8.1979415    545.78249  0.017419331  0.017442249            6 
 2612000   0.83151485   -8.1651247    546.22803  0.017426877  0.017436212            4 
 2613000    0.8368313    -8.187098    546.29805  0.017422441  0.017430198            2 
 2614000   0.82845016   -8.1608971    546.53351  0.017423282  0.017424195            2 
 2615000   0.83652738   -8.1955402    546.98864  0.017431123  0.017418174            3 
 2616000   0.84014782   -8.1871223     546.4074  0.017405944  0.017412136            5 
 2617000   0.82407836   -8.2005308    544.55021  0.017340154  0.017406075            4 
 2618000   0.82057612   -8.1937716    545.68594  0.017369682  0.017400037            2 
 2619000   0.83448927   -8.1689655    545.98335  0.017372513  0.017394008            2 
 2620000   0.85386654   -8.1701701    546.69258  0.017388441  0.017388013            2 
 2621000   0.82529931   -8.1933979    544.64286  0.017316637  0.017382034            3 
 2622000    0.8257766   -8.1627117    546.89582  0.017381637  0.017376061            2 
 2623000   0.82230605   -8.1446901    546.86241  0.017373949  0.017370132            3 
 2624000   0.84207485   -8.1721136    545.54945   0.01732563  0.017364194            2 
 2625000   0.84993796   -8.1744117    546.30057  0.017342875  0.017358227            3 
 2626000    0.8278021   -8.1888211    547.23427  0.017365901  0.017352244            2 
 2627000   0.83117628    -8.198588    544.64942  0.017277294  0.017346235            2 
 2628000   0.83890283   -8.2065848    546.31421   0.01732351  0.017340226            1 
 2629000    0.8138727    -8.174096    547.49191  0.017354251  0.017334199            6 
 2630000   0.83040565   -8.1895491    546.03461  0.017301477  0.017328186            3 
 2631000   0.83603494   -8.2158772    546.08339  0.017296446   0.01732218            4 
 2632000    0.8268936    -8.210722    546.19694   0.01729347  0.017316157            3 
 2633000   0.83020099   -8.1976314    546.79553  0.017305847  0.017310146            4 
 2634000   0.84446499   -8.1535344    547.64556  0.017326169   0.01730417            3 
 2635000   0.82401504   -8.1419334    547.89521  0.017327489  0.017298238            3 
 2636000    0.8183823   -8.1600013    547.77744  0.017317193  0.017292344            3 
 2637000   0.84148191    -8.180225    547.24098  0.017293673  0.017286408            2 
 2638000   0.84187007    -8.194774    547.16325  0.017284662  0.017280427            2 
 2639000    0.8353105   -8.1955294    547.55757  0.017290564   0.01727448            9 
 2640000   0.83374251   -8.1812049    547.16686  0.017271681  0.017268521            2 
 2641000   0.82597304   -8.2149765    547.71635   0.01728248  0.017262559            6 
 2642000   0.84140674   -8.1954908     546.6836  0.017243364  0.017256584            1 
 2643000   0.83520752   -8.1809109    548.43186  0.017291962  0.017250644            3 
 2644000   0.83612977   -8.1931618    547.88167  0.017268081   0.01724472            9 
 2645000   0.84495142   -8.1887102    547.36081  0.017245142  0.017238795            2 
 2646000   0.82014732   -8.2106613    546.96207  0.017226067  0.017232834            4 
 2647000   0.82349986   -8.1767571    547.70435  0.017242928  0.017226882            3 
 2648000   0.82252239   -8.2031894    546.68966  0.017204483  0.017220932            3 
 2649000   0.81323267   -8.2029864    545.78743  0.017169606  0.017214971            3 
 2650000   0.82785037   -8.2195502    546.85019  0.017196547  0.017209011            5 
 2651000   0.79984843   -8.1969321    548.63998  0.017246322  0.017203077            2 
 2652000   0.82090017   -8.2159116    547.43298  0.017201891  0.017197138            3 
 2653000   0.82230642   -8.2061572    548.20418  0.017219631  0.017191205            4 
 2654000    0.8398326    -8.223224    547.50708  0.017191255  0.017185262            8 
 2655000   0.81438148     -8.23336     547.8474  0.017195461  0.017179314            6 
 2656000   0.81069062   -8.2081413    547.52839  0.017178978  0.017173356            1 
 2657000   0.83840956   -8.2198926    547.23664  0.017163362  0.017167377            2 
 2658000   0.83270066    -8.233933     547.3809  0.017161428  0.017161413            2 
 2659000   0.83732263   -8.2005543    546.90468  0.017140049  0.017155447            2 
 2660000   0.81885715   -8.2361356    548.50939  0.017183878  0.017149497            1 
 2661000   0.84570204    -8.204839    548.48441  0.017176638  0.017143531            4 
 2662000   0.82710269   -8.2381707    547.69198  0.017145379  0.017137594            2 
 2663000   0.80571875   -8.2233825    548.46013  0.017162978  0.017131649           11 
 2664000   0.81986046   -8.2253331    547.27631  0.017119504  0.017125683            8 
 2665000   0.81044294   -8.2112541    547.78422  0.017128962  0.017119722            8 
 2666000   0.82234433   -8.2344947    548.16812  0.017134537  0.017113803           10 
 2667000   0.81196075    -8.224661    549.08037  0.017156617   0.01710787            4 
 2668000   0.83270265   -8.2188069    548.20025  0.017122697  0.017101945            5 
 2669000   0.82624556   -8.2143157    548.54234  0.017126962  0.017096018            4 
 2670000   0.83433797   -8.2444553    547.63689  0.017092287  0.017090072            7 
 2671000   0.81963698    -8.223441    548.21229   0.01710384   0.01708414            5 
 2672000   0.81984411   -8.2020808      549.235  0.017129335  0.017078214            6 
 2673000   0.82542924   -8.2312717    548.64015  0.017104382  0.017072285            3 
 2674000   0.81824637   -8.2387972    547.14282  0.017051322  0.017066327            4 
 2675000   0.81856856   -8.2461785    547.71804  0.017062867  0.017060372            5 
 2676000   0.83090719   -8.2407357    547.61885  0.017053402   0.01705441            3 
 2677000   0.80935964   -8.2185187    548.66769  0.017079681  0.017048452            4 
 2678000   0.82752799   -8.2644188     547.3658  0.017032792   0.01704249            2 
 2679000   0.81106346   -8.2049156    549.44215  0.017091021  0.017036584            6 
 2680000   0.80824896   -8.2409869    548.81462  0.017065131  0.017030683            9 
 2681000   0.81377546   -8.2321971    549.71452  0.017086738  0.017024763            2 
 2682000   0.81160587   -8.2291184    549.19182  0.017064126  0.017018874            3 
 2683000   0.84273271   -8.1984856    549.40753  0.017064466  0.017012981            2 
 2684000   0.81468251   -8.2195813    549.48624  0.017060552  0.017007099            3 
 2685000   0.83130865   -8.2218397    548.35584  0.017019114  0.017001222            3 
 2686000   0.83748249   -8.2119458     549.5637  0.017050251  0.016995322            7 
 2687000   0.85094911   -8.2058492    549.59101  0.017044753  0.016989441            2 
 2688000    0.8209282    -8.232108    548.15234   0.01699381  0.016983574            4 
 2689000   0.81278232   -8.2246303     549.2097  0.017020259  0.016977682            1 
 2690000   0.81830912   -8.2040715    550.34368  0.017049061  0.016971834            2 
 2691000   0.81137075   -8.2206076    549.63179   0.01702068  0.016965985            5 
 2692000    0.8133083   -8.2200274    550.01266  0.017026147  0.016960108            2 
 2693000   0.82972302   -8.2084485    550.09899  0.017022496  0.016954259            1 
 2694000   0.83112148   -8.2534583    549.80347  0.017007036  0.016948392            1 
 2695000    0.8341012   -8.2121813    550.53991  0.017023498  0.016942537            3 
 2696000   0.81800275   -8.2210254    548.88286  0.016965964  0.016936682            5 
 2697000   0.81902289   -8.2034346    550.08703   0.01699688  0.016930831            5 
 2698000   0.83867019   -8.2197994    550.55128   0.01700492  0.016925018            1 
 2699000   0.82003681   -8.2165392    550.44477  0.016995331  0.016919188            6 
 2700000   0.82957764   -8.2441626    550.36872  0.016986689  0.016913384            2 
 2701000   0.81817525   -8.1923095    550.89808  0.016996732  0.016907563            2 
 2702000   0.81315431   -8.2188654    550.56221  0.016980083  0.016901736            4 
 2703000   0.83099482   -8.2383052    550.12282  0.016960255  0.016895919            3 
 2704000    0.8230539   -8.2180184    549.91307  0.016947518  0.016890106            3 
 2705000    0.8256825   -8.2017928    550.57823  0.016961745  0.016884301            3 
 2706000   0.81656489   -8.2333876    550.34885  0.016948413  0.016878458            3 
 2707000   0.81592239   -8.2186431    550.44003  0.016944958  0.016872648            3 
 2708000   0.82585028   -8.2307395    550.27039  0.016933481  0.016866843            1 
 2709000   0.81046471   -8.2323086    549.97876  0.016918259   0.01686102            2 
 2710000   0.81528192   -8.2335291     550.2993  0.016921873  0.016855203            4 
 2711000   0.82994369   -8.2256674    549.13431   0.01687982  0.016849378            2 
 2712000   0.80933499    -8.242881     548.3658  0.016849981  0.016843532           10 
 2713000   0.82496612   -8.2591589    549.83522  0.016888906  0.016837658            9 
 2714000   0.81787537   -8.2882863    549.06127  0.016858919  0.016831798            3 
 2715000   0.81304616   -8.2276161    551.24277  0.016919668  0.016825966            3 
 2716000   0.83165406   -8.2362302    549.80962  0.016869465  0.016820119            3 
 2717000   0.82830308   -8.2769469     549.6434  0.016858158  0.016814254            2 
 2718000   0.80058065   -8.2626913    549.96161  0.016861712  0.016808398            3 
 2719000   0.83975457   -8.2474665    550.94656  0.016885698  0.016802546            2 
 2720000   0.80794973   -8.2523545    549.33027  0.016829971  0.016796743            5 
 2721000   0.81603508   -8.2414499    551.19024   0.01688075  0.016790955            3 
 2722000   0.81423736   -8.2500766    549.82769  0.016832834  0.016785158            4 
 2723000   0.81433838   -8.2361464     550.9235  0.016860188  0.016779329            4 
 2724000    0.8151226   -8.2333948    552.53985  0.016903446  0.016773546            3 
 2725000   0.82898899   -8.2800033    551.17825  0.016855604  0.016767779            5 
 2726000   0.82020261   -8.2473074      551.684  0.016864881  0.016761993            2 
 2727000   0.80054972   -8.2376333    551.72611  0.016859984  0.016756223            3 
 2728000   0.82439191   -8.2395035    549.58543  0.016788411  0.016750464            4 
 2729000   0.82689681   -8.2535453    550.99406  0.016825274  0.016744702            2 
 2730000   0.82469945   -8.2224932    551.56688  0.016836596   0.01673893            4 
 2731000   0.80822286   -8.2314949    550.90845  0.016810339  0.016733181            3 
 2732000   0.80294076   -8.2449032    552.21437   0.01684402  0.016727396            2 
 2733000   0.81672092   -8.2410177    550.43003   0.01678345  0.016721609            2 
 2734000   0.80601324   -8.1986148     552.5549  0.016842078  0.016715853            4 
 2735000   0.82420293   -8.2479962    550.21725  0.016764694  0.016710078            8 
 2736000   0.81867103   -8.2659687    551.40106  0.016794623  0.016704314            2 
 2737000   0.81122134   -8.2142121    553.12898  0.016841097  0.016698561            4 
 2738000   0.80341872   -8.2241741    551.76111  0.016793313  0.016692854            3 
 2739000   0.83660034   -8.1917176    552.50609  0.016809848  0.016687171            4 
 2740000   0.80574637   -8.2448262    552.24437  0.016795753  0.016681494            2 
 2741000    0.8219077   -8.2283041    551.81635  0.016776613  0.016675799            4 
 2742000   0.81948882   -8.2217833    551.74167  0.016768225  0.016670068            2 
 2743000   0.79785206    -8.219177    552.35701  0.016780806   0.01666434            8 
 2744000   0.81181029    -8.260724    550.88283  0.016729921  0.016658601            7 
 2745000   0.81674837   -8.2284883    551.11989  0.016731023  0.016652877            3 
 2746000   0.80664466   -8.2453705    551.50464  0.016736606  0.016647179            4 
 2747000   0.81954274   -8.2259149    552.60303  0.016763834  0.016641459            2 
 2748000     0.809218   -8.2223075    552.63804  0.016758795  0.016635762            2 
 2749000     0.798056   -8.2416033    552.73261  0.016755566  0.016630062            3 
 2750000     0.809285   -8.2381419     553.8623  0.016783706  0.016624358            2 
 2751000   0.81670201   -8.2167021    553.11527  0.016754976  0.016618665            4 
 2752000   0.80955936    -8.223609    552.59366  0.016733093  0.016612968            2 
 2753000   0.82491985   -8.2301236    552.11249   0.01671245  0.016607269            2 
 2754000   0.80195754   -8.2364964     553.8394  0.016758636   0.01660156            4 
 2755000   0.82623322   -8.2048735    553.30054  0.016736253   0.01659586            2 
 2756000   0.80875676   -8.2364409    553.49107  0.016735942  0.016590174            5 
 2757000   0.80983397   -8.2430587    553.12965  0.016718947  0.016584485            4 
 2758000   0.79500421    -8.258644    552.38949  0.016690521  0.016578772            2 
 2759000   0.81129128   -8.2602736    552.18269  0.016678226  0.016573059            6 
 2760000    0.8057598   -8.2509905    552.80993  0.016691121  0.016567366            1 
 2761000    0.8110166   -8.2437942    552.33904  0.016670863  0.016561668            3 
 2762000   0.81556531   -8.2478742    552.98707  0.016684379  0.016555977            3 
 2763000   0.80064276   -8.2530448    553.92058  0.016706496  0.016550291            5 
 2764000   0.80215006   -8.2121853    554.92922  0.016730862  0.016544629            6 
 2765000   0.81577424   -8.2522016    552.00908  0.016636802   0.01653896            6 
 2766000   0.80644903   -8.2216389    553.89058  0.016687472  0.016533266            2 
 2767000   0.79245877   -8.2507059    554.32231  0.016694444  0.016527589            2 
 2768000   0.83113055   -8.2615247    553.38707  0.016660256  0.016521901            2 
 2769000    0.8218282   -8.2480293    554.47178  0.016686884  0.016516221            2 
 2770000   0.80058846   -8.2769182    552.82891  0.016631435   0.01651054            2 
 2771000   0.81218197   -8.2987448    552.05816  0.016602254   0.01650483            2 
 2772000   0.81407709   -8.2671054    552.85632   0.01662026  0.016499103            2 
 2773000   0.82390922   -8.2425121    552.96661  0.016617581  0.016493414            4 
 2774000   0.80477701   -8.2411804    553.28781  0.016621239  0.016487763            2 
 2775000   0.80679614   -8.2388235    554.66655  0.016656653  0.016482114            2 
 2776000   0.81029374   -8.2544555    554.01344  0.016631047  0.016476444            2 
 2777000   0.79624769   -8.2884884    553.21438   0.01660108  0.016470781            3 
 2778000   0.80862907   -8.2796681    551.69682  0.016549581  0.016465114            4 
 2779000   0.81302237   -8.2896713    552.30721  0.016561929  0.016459435            2 
 2780000    0.8174834    -8.276665    552.84964  0.016572231  0.016453744            2 
 2781000   0.81950373   -8.2841587    552.58591  0.016558369  0.016448069            5 
 2782000   0.80835232   -8.2609985      553.146  0.016569195  0.016442416            2 
 2783000   0.81645173   -8.2966661    552.93908  0.016557045   0.01643675            2 
 2784000   0.81237001   -8.3033827    552.82586  0.016547709  0.016431064            3 
 2785000   0.80000547   -8.2673322    552.79676  0.016540897  0.016425371            2 
 2786000    0.7923989   -8.2639518    553.40318  0.016553098  0.016419703            2 
 2787000    0.8147379   -8.2612687    554.52086  0.016580578  0.016414056            2 
 2788000   0.80823399   -8.2807994    554.54546  0.016575366  0.016408415            3 
 2789000   0.82987834   -8.2936504    553.82646   0.01654794  0.016402739            2 
 2790000   0.82230846   -8.2593597    554.44043  0.016560347  0.016397117            3 
 2791000   0.81316555   -8.2825119    553.53751  0.016527455    0.0163915            1 
 2792000   0.81091284   -8.3050493    553.56503  0.016522356   0.01638585            2 
 2793000   0.80940874   -8.2633151    554.78037  0.016552702  0.016380221            1 
 2794000   0.80260172   -8.3079326     553.5184  0.016509139  0.016374559            3 
 2795000   0.79585323   -8.2892137    553.58923  0.016505344  0.016368911            4 
 2796000   0.81296816   -8.2940845    554.21459  0.016518079  0.016363266            3 
 2797000   0.81132806   -8.2837694     554.6344  0.016524681  0.016357612            3 
 2798000   0.79532997   -8.2832072    553.74521  0.016492292  0.016351971            3 
 2799000   0.80284002   -8.3211319    553.84365  0.016489331  0.016346308            2 
 2800000   0.81078886   -8.3017014    552.66701  0.016448423   0.01634065            3 
 2801000   0.80481611   -8.2960172    553.67862  0.016472647  0.016334996            2 
 2802000   0.81144592   -8.2534141    555.39141  0.016517708  0.016329358            4 
 2803000   0.79149609   -8.2795828    553.75429  0.016463143  0.016323719            4 
 2804000    0.8025247   -8.2824885    554.33474  0.016474523  0.016318098            3 
 2805000   0.80846208    -8.294559    554.41115  0.016470919  0.016312464            4 
 2806000   0.80560725    -8.272998    553.40025  0.016435028  0.016306811            4 
 2807000   0.77832926   -8.3061419     554.1134  0.016450344  0.016301154            6 
 2808000   0.80568021   -8.3060499    553.64439  0.016430567  0.016295488            5 
 2809000    0.8051451   -8.3024983    553.06053  0.016407397  0.016289827            3 
 2810000   0.80814829   -8.2908308    553.34931  0.016410122  0.016284167            4 
 2811000   0.82206359     -8.27209     554.1129  0.016426921  0.016278528            2 
 2812000    0.7914598   -8.2825793     553.3194  0.016397564  0.016272908            2 
 2813000    0.7979895   -8.2726572    555.29315  0.016450206  0.016267278            6 
 2814000   0.79037634   -8.2897102    554.56938  0.016422927  0.016261658            1 
 2815000   0.78619674   -8.3089902    554.51795   0.01641557  0.016256031            1 
 2816000    0.8089612   -8.2558295    555.06344  0.016425883  0.016250433            2 
 2817000   0.80417215   -8.2667056    554.63871  0.016407487  0.016244826            3 
 2818000    0.7988494   -8.2628486    554.89414  0.016409219  0.016239208            3 
 2819000   0.79379944   -8.2805123    554.43897  0.016389942  0.016233601            2 
 2820000   0.80891952   -8.2671946    554.50422  0.016386059  0.016228012            2 
 2821000   0.79961221   -8.2860025    554.65422  0.016384681  0.016222427            3 
 2822000   0.81418642   -8.2500794    553.90991  0.016356896  0.016216864            3 
 2823000   0.77452589   -8.2684943    555.38666  0.016394694  0.016211298            5 
 2824000   0.80722895   -8.3014666    555.16387  0.016382314  0.016205721            2 
 2825000    0.8206044   -8.2901953    555.60136  0.016389421  0.016200151            3 
 2826000   0.80752824   -8.2660869    554.90349  0.016363042  0.016194599            3 
 2827000   0.80207646   -8.3076727    553.91252  0.016328043  0.016189018            2 
 2828000   0.78466466   -8.3043419    554.55161  0.016341101  0.016183419            2 
 2829000   0.79485968   -8.2799443    555.20273  0.016354505  0.016177796            2 
 2830000    0.8145029   -8.3016054    554.84413  0.016338166  0.016172187           11 
 2831000    0.8094933   -8.3397449    554.51564  0.016322726  0.016166578            5 
 2832000   0.81141217   -8.3053844    556.09184  0.016363343  0.016160967            3 
 2833000   0.79918556   -8.3239771    554.62147  0.016314315  0.016155342            3 
 2834000   0.80761422   -8.3149795    554.65041   0.01630941  0.016149756            2 
 2835000   0.79069377   -8.2866514    554.07086  0.016286621   0.01614415            2 
 2836000   0.79026702   -8.3155658     554.6411  0.016297635  0.016138525            2 
 2837000   0.82397394   -8.2795941    555.11669   0.01630586  0.016132932            3 
 2838000    0.7962211   -8.2854464    555.26743  0.016304541  0.016127379            1 
 2839000   0.79401387   -8.2615603     556.3451   0.01633043  0.016121815            2 
 2840000   0.80864072   -8.2582769    556.14784  0.016318892   0.01611628            2 
 2841000   0.79609566   -8.2929667    555.38055  0.016290641  0.016110732            4 
 2842000   0.81137317   -8.2592963    556.31425  0.016312287  0.016105165            3 
 2843000   0.79080127   -8.2569804    557.02231  0.016327304  0.016099623            2 
 2844000   0.78826229   -8.2704637     557.6979  0.016341359  0.016094087            2 
 2845000   0.77921626   -8.2872032    555.19166  0.016262205  0.016088568            3 
 2846000   0.79087896   -8.3068605    557.33136  0.016319143  0.016083029            4 
 2847000   0.80381948   -8.3256986    556.18426  0.016279834  0.016077483            3 
 2848000    0.8104719   -8.3175788    554.81776  0.016234134  0.016071929            4 
 2849000   0.76633515   -8.3096557    556.24412  0.016270157  0.016066394            3 
 2850000   0.80785581   -8.3116571    555.12125  0.016231615  0.016060868            5 
 2851000   0.79581951   -8.3079751    556.22249  0.016258111   0.01605531            3 
 2852000   0.79457395   -8.2779114    555.85473  0.016241665  0.016049785            2 
 2853000   0.80340436    -8.300568    556.15322   0.01624469    0.0160443            5 
 2854000   0.78760322   -8.2644386    556.98112  0.016263172  0.016038804           10 
 2855000   0.80456644   -8.3038521    556.31139  0.016237927  0.016033326            5 
 2856000   0.78458773   -8.2838537    557.17769  0.016257519  0.016027848            2 
 2857000    0.7821876   -8.3016302    556.58547  0.016234555  0.016022353           15 
 2858000   0.80868075   -8.2999472     556.5986  0.016229257  0.016016865            7 
 2859000   0.78104131   -8.3132567    557.59522   0.01625263  0.016011361            7 
 2860000   0.79205473   -8.2949935    557.72351  0.016250685  0.016005854            8 
 2861000   0.78171731   -8.3280571    558.00225  0.016253124  0.016000355            3 
 2862000   0.79671912   -8.3290034    554.62436   0.01614909  0.015994832            2 
 2863000   0.78925193   -8.3225226    556.01532  0.016183936  0.015989288            2 
 2864000   0.80514608   -8.3178375    557.40924  0.016218844  0.015983789            5 
 2865000   0.79948134   -8.3206733    555.87677  0.016168609  0.015978267            3 
 2866000   0.80172261   -8.2921796    557.27055  0.016203494  0.015972757            5 
 2867000   0.81156838   -8.3113744    557.55176  0.016206016  0.015967255            3 
 2868000    0.8028023   -8.3446359    555.91184  0.016152715  0.015961742            6 
 2869000    0.7911739   -8.3252344    555.76528  0.016142828  0.015956221            7 
 2870000    0.8083055   -8.3010506    555.25062   0.01612226  0.015950707            2 
 2871000   0.78632949   -8.2979505     557.7247  0.016188456  0.015945209            2 
 2872000   0.79607678   -8.2944913    557.23693  0.016168667   0.01593973            5 
 2873000   0.78191527   -8.2557912    557.78689  0.016178991   0.01593426            2 
 2874000   0.80256845   -8.3030933    557.37107  0.016161305  0.015928803            5 
 2875000   0.78736779   -8.3225782    556.60354  0.016133436  0.015923341            3 
 2876000    0.7789245   -8.3171888    557.40464  0.016151038  0.015917867            2 
 2877000     0.791026   -8.2836352    557.90976  0.016160056  0.015912423            3 
 2878000   0.78577984   -8.3022207    556.28813  0.016107486  0.015906958            2 
 2879000   0.80066663   -8.2924714    556.25574  0.016100953  0.015901484            2 
 2880000   0.78148128     -8.32737    557.41733  0.016128974  0.015895985            7 
 2881000   0.79910912   -8.3447843    557.77264  0.016133653    0.0158905            4 
 2882000   0.79549268   -8.3088964    557.64287  0.016124302  0.015885022            2 
 2883000   0.80257575   -8.3162997    558.02966   0.01612989   0.01587954            1 
 2884000   0.79506881   -8.2854624    559.24612  0.016159446   0.01587407            3 
 2885000   0.78688542   -8.3191695    556.82759  0.016083986  0.015868606            5 
 2886000   0.77131561   -8.3152514    557.19159  0.016088923  0.015863126            3 
 2887000   0.78114369   -8.3166253    557.20924   0.01608386  0.015857673            5 
 2888000   0.79805105   -8.3376131    556.17283  0.016048385  0.015852202            1 
 2889000   0.80221806    -8.338909    557.28222  0.016074831   0.01584671            3 
 2890000   0.78516788   -8.2929016    557.81958  0.016084763  0.015841236            3 
 2891000   0.79192704   -8.3224938    558.00679  0.016084596  0.015835779            4 
 2892000   0.80792736   -8.3515493    557.45357  0.016063093  0.015830302            2 
 2893000   0.79682051   -8.3074788     557.1305  0.016048234  0.015824863            4 
 2894000   0.78993549   -8.2987585    557.41494   0.01605088  0.015819431            5 
 2895000   0.78585762   -8.3321698    557.00831   0.01603363  0.015813962            6 
 2896000   0.76097892   -8.3302156    557.62956   0.01604597  0.015808508            2 
 2897000   0.80148689   -8.3107053    558.71676  0.016071705  0.015803049            6 
 2898000   0.78488946   -8.2908819    557.51612  0.016031635  0.015797609            4 
 2899000   0.79732264   -8.3109746    558.22148   0.01604638  0.015792179            5 
 2900000   0.80680016   -8.3099329    557.29383  0.016014191  0.015786773            4 
 2901000   0.76826508   -8.2777332    558.12944  0.016032674  0.015781365            2 
 2902000   0.78299732   -8.3020633    559.01181  0.016052487  0.015775978            4 
 2903000   0.78489764   -8.3028688    558.47017  0.016031409   0.01577056            3 
 2904000   0.79814997   -8.3126117    557.65841  0.016002594   0.01576512            3 
 2905000   0.80648777   -8.3524215    558.25014   0.01601406  0.015759665            3 
 2906000    0.7850457   -8.3232478    558.00305  0.016001464  0.015754203            3 
 2907000   0.78113506   -8.3273582    557.89176  0.015992769  0.015748743            5 
 2908000   0.77320837   -8.3611761    556.53318  0.015948337   0.01574328            2 
 2909000   0.77941469    -8.350306    555.96497  0.015926577  0.015737789            2 
 2910000   0.78321749    -8.351326    558.63717  0.015997628   0.01573232            4 
 2911000     0.772542   -8.3059837    557.65357  0.015963975  0.015726875            6 
 2912000   0.78170774   -8.3235876    558.41521  0.015980289  0.015721452            2 
 2913000   0.78107131    -8.330648    558.61537  0.015980529  0.015716032            2 
 2914000    0.7934432   -8.3541012    558.23934  0.015964291  0.015710604            3 
 2915000   0.78519012   -8.3281189     557.8865  0.015948728  0.015705158            6 
 2916000   0.80237474   -8.3380491    557.30617  0.015926674  0.015699742            3 
 2917000   0.77530615   -8.3500615    557.16572  0.015917201  0.015694299            5 
 2918000   0.78463212   -8.3260802    558.51166  0.015950185  0.015688869           11 
 2919000   0.78070839   -8.3250143    558.43713  0.015942592  0.015683458            5 
 2920000   0.78738743   -8.3284895    557.96934  0.015923782  0.015678045            1 
 2921000   0.77354678   -8.3303137    557.84679  0.015914835   0.01567264            3 
 2922000   0.78046841   -8.3097295    559.52605   0.01595728  0.015667249            3 
 2923000   0.79339326   -8.3399722    558.02468  0.015909017  0.015661853            3 
 2924000   0.78368889   -8.3459819    558.78035  0.015925113  0.015656459            4 
 2925000   0.77931076   -8.3238249    559.16297  0.015930569  0.015651103            1 
 2926000   0.76512658    -8.340077    557.52417  0.015878451  0.015645746            6 
 2927000   0.77500808   -8.3057196    558.70897  0.015906758  0.015640353            4 
 2928000   0.79069384   -8.3326888    557.28935  0.015860922  0.015634976            9 
 2929000   0.77799622    -8.293068    558.28797  0.015883919  0.015629598            5 
 2930000   0.79141499   -8.3215197    558.06568  0.015872175  0.015624208            8 
 2931000   0.76144552   -8.3292781    559.16643  0.015898056  0.015618825            4 
 2932000   0.77518298   -8.3253105    558.76186  0.015881135  0.015613423            3 
 2933000   0.78453342   -8.3430577      558.522  0.015868906  0.015608027            4 
 2934000   0.76973681   -8.3371313    558.28194  0.015856679   0.01560263            2 
 2935000   0.77836914   -8.3356511    557.61792  0.015832423  0.015597231            3 
 2936000   0.77399387   -8.3360038    558.14746   0.01584206   0.01559184            6 
 2937000   0.77444194   -8.3333377    558.22328  0.015838817  0.015586436            2 
 2938000   0.80143537   -8.3467904    557.46645   0.01581196  0.015581049            2 
 2939000   0.78583336     -8.34796    558.55132   0.01583734  0.015575667            3 
 2940000   0.78353742   -8.2976789    559.65085  0.015863119  0.015570309            4 
 2941000   0.77320078     -8.33477    558.11452  0.015814193  0.015564952            4 
 2942000   0.77995869   -8.3203015    558.89108  0.015830815  0.015559571            4 
 2943000   0.78063857   -8.3593211    558.56158  0.015816105  0.015554197            1 
 2944000   0.75948699    -8.362352    558.50769  0.015809208  0.015548836            4 
 2945000   0.78029655   -8.3324016    558.03989  0.015790602  0.015543482            2 
 2946000    0.7658445   -8.3515185    558.31241  0.015792951  0.015538116            4 
 2947000   0.77553789   -8.3629664    557.83853  0.015774192  0.015532753            4 
 2948000   0.78429546   -8.3438615    559.72086  0.015822051  0.015527387           10 
 2949000   0.78657949   -8.3414786    559.05805  0.015797956  0.015522014            4 
 2950000   0.78191176   -8.3626447    559.44892  0.015803642  0.015516639            5 
 2951000   0.77384515   -8.3571315    558.08266  0.015759705  0.015511287            3 
 2952000    0.7817114   -8.3674314    558.66044  0.015770676   0.01550592            4 
 2953000   0.78569973   -8.3942261    558.45009    0.0157594  0.015500534            4 
 2954000   0.78272208   -8.3490072     558.2937  0.015749653  0.015495165            2 
 2955000   0.77065337   -8.3664001    558.49389  0.015749969  0.015489778            2 
 2956000   0.77769553   -8.3621317    558.08127  0.015733008  0.015484383            3 
 2957000   0.76373291   -8.3564652    560.35081  0.015791647  0.015479012            3 
 2958000   0.79054299   -8.3948175    557.82211   0.01571507  0.015473625            3 
 2959000   0.77599521   -8.3451492    558.80432   0.01573742  0.015468241            2 
 2960000   0.76775092   -8.3596962    559.20165   0.01574329  0.015462875            4 
 2961000   0.78242442   -8.3535581    558.13577  0.015707975  0.015457494            2 
 2962000   0.78142359   -8.3579792    558.25444  0.015706011  0.015452118            4 
 2963000   0.77007647   -8.3536798    558.71733  0.015713729  0.015446756            5 
 2964000   0.77610732     -8.38899    557.97444  0.015687541  0.015441381            9 
 2965000   0.78600314    -8.393503    557.71573  0.015674978  0.015435998            4 
 2966000   0.78698394   -8.3934385    557.43485  0.015661802  0.015430602            5 
 2967000   0.77987579   -8.3848026    557.82773  0.015667558  0.015425194            3 
 2968000   0.77896541   -8.3868038     559.6022  0.015712101  0.015419793            4 
 2969000   0.79892872   -8.3665936    558.99043  0.015689638  0.015414386            9 
 2970000    0.7676371   -8.3834937    558.79924  0.015678991  0.015408979            6 
 2971000   0.78329021   -8.3898915    558.14035  0.015655232  0.015403581            4 
 2972000   0.75963732   -8.4186255    557.81957   0.01564097   0.01539817            6 
 2973000    0.7836825   -8.3891103    557.69245  0.015632146  0.015392756            4 
 2974000    0.7788328   -8.3698696    557.54933   0.01562288  0.015387359            5 
 2975000   0.76746358   -8.4012707    557.23374  0.015608788  0.015381939            2 
 2976000   0.76537645   -8.3951014    559.85947  0.015677069  0.015376518            4 
 2977000   0.77145274   -8.3563669    559.28324  0.015655672  0.015371122            8 
 2978000    0.7748798   -8.3676485    558.71357  0.015634474   0.01536576           15 
 2979000   0.75620603   -8.3801328    558.73299  0.015629769  0.015360407            2 
 2980000   0.76322494    -8.344743    558.35718  0.015614015  0.015355026            3 
 2981000   0.77137542   -8.3795649    557.41051  0.015582313  0.015349669            2 
 2982000   0.76663583   -8.3439814    558.70613  0.015613294  0.015344321            3 
 2983000   0.75782879   -8.3614703    557.83214  0.015583645  0.015338983            4 
 2984000   0.76185838   -8.3538223    559.29029  0.015619144  0.015333643            3 
 2985000   0.78141341   -8.3645179    559.27514  0.015613488    0.0153283            2 
 2986000   0.76136329   -8.3673782    559.46832   0.01561365   0.01532295            3 
 2987000    0.7603067   -8.4091997    558.05327  0.015568945  0.015317586            1 
 2988000   0.77913446   -8.3818446    559.06773  0.015592027  0.015312231            5 
 2989000   0.77864754    -8.379341    559.81476  0.015607638  0.015306881            3 
 2990000   0.75820504   -8.3896652    557.74498  0.015544732  0.015301528            2 
 2991000   0.76045891   -8.3617907     558.4629  0.015559537   0.01529619            2 
 2992000   0.77967663   -8.3622353     558.6085  0.015558392  0.015290862            1 
 2993000   0.77800679   -8.3806394     560.3806  0.015602534  0.015285558            2 
 2994000   0.78468918    -8.369127    560.20107  0.015592326  0.015280257            3 
 2995000   0.77765758   -8.3421425    559.86873  0.015577872  0.015274934            6 
 2996000   0.77005984    -8.383739    559.02842    0.0155493  0.015269617           27 
 2997000   0.76227304   -8.3778297    559.70059  0.015562801  0.015264296           17 
 2998000   0.76983021   -8.3955861    558.31811  0.015519183  0.015258958            5 
 2999000   0.77392989   -8.3710741    559.84674  0.015556484  0.015253613            3 
 3000000   0.77659632   -8.3463161    560.32478  0.015564577  0.015248301           11 
 3001000   0.76247359   -8.3629122    560.97668  0.015577493  0.015242992            4 
 3002000   0.77805499   -8.3568539    559.94606  0.015543695  0.015237697            9 
 3003000   0.76399554   -8.3606151    558.44269    0.0154968  0.015232412            2 
 3004000   0.76283821   -8.3579658    560.48617  0.015548329  0.015227124            2 
 3005000   0.77287692   -8.3382859    560.21884  0.015535742  0.015221844            6 
 3006000    0.7810925   -8.3494135    558.95296   0.01549548  0.015216576            2 
 3007000   0.75670864   -8.3465281     560.0733  0.015521375  0.015211293            2 
 3008000   0.77684714   -8.3775094    559.92354  0.015512066  0.015205988            3 
 3009000   0.77023363   -8.3490838    561.38292  0.015547328  0.015200718            3 
 3010000    0.7635418   -8.3568049    561.01296   0.01553192  0.015195436            2 
 3011000   0.77519696     -8.35512    560.24346  0.015505465  0.015190185            2 
 3012000   0.76876245   -8.3507201    560.95509  0.015520006  0.015184911            3 
 3013000   0.77592766   -8.3532382    560.49342  0.015502086  0.015179656            2 
 3014000   0.76553545    -8.355081    560.52153   0.01549772  0.015174415            6 
 3015000   0.79338822   -8.3507311    558.91491  0.015448173  0.015169167            4 
 3016000   0.77577773   -8.3698877    562.07917  0.015530481  0.015163902            4 
 3017000   0.77815603   -8.3951567    560.30093  0.015476216  0.015158638            2 
 3018000   0.78650864   -8.3947855    560.03785  0.015463824  0.015153342            4 
 3019000   0.76629578   -8.4042492    559.46599  0.015442917  0.015148064            5 
 3020000   0.76278865   -8.3901209    560.00177  0.015452587  0.015142767            1 
 3021000   0.75769984   -8.3997583    560.27455  0.015454997  0.015137491            4 
 3022000   0.76654821   -8.3946847    560.90363   0.01546723  0.015132204            3 
 3023000     0.758879   -8.3966907    559.26291  0.015416885  0.015126923            4 
 3024000   0.75908478   -8.4048786    557.49203  0.015362986   0.01512164            3 
 3025000   0.74703457   -8.3789223    557.92097  0.015369724  0.015116358            6 
 3026000   0.76053399   -8.3939656    559.32675  0.015403358  0.015111083            2 
 3027000   0.78361194   -8.3793447    559.81904  0.015411822  0.015105814            2 
 3028000   0.77457066   -8.3580063    561.33479  0.015448448  0.015100566            4 
 3029000   0.76342877   -8.3805314    560.37364  0.015416904  0.015095309            2 
 3030000   0.78100659    -8.366319     560.7954  0.015423416  0.015090054            4 
 3031000    0.7728149   -8.3655145    559.74892  0.015389556  0.015084801            2 
 3032000   0.77946658   -8.3872017    559.89313  0.015388443  0.015079531            3 
 3033000   0.75271038    -8.378155    560.08324  0.015388593  0.015074262            5 
 3034000   0.76952644     -8.35484    560.77208  0.015402441  0.015069004            7 
 3035000   0.75867415   -8.3847012    559.76762  0.015369786   0.01506374            2 
 3036000   0.75724042   -8.3784986     559.9054  0.015368506  0.015058466            3 
 3037000   0.77520763   -8.3956598    560.30071  0.015374292  0.015053188            7 
 3038000   0.78273493   -8.3808355    559.96069  0.015359905  0.015047921            4 
 3039000   0.77663093   -8.3817239     560.9828  0.015382878  0.015042667            6 
 3040000   0.75973076   -8.3549938    561.59961  0.015394726  0.015037417            3 
 3041000   0.76452232     -8.37464    559.97786  0.015345223   0.01503217            2 
 3042000   0.76805026   -8.3529339    559.53387  0.015328015  0.015026922            3 
 3043000   0.75578822   -8.3849067    560.10725   0.01533868  0.015021672            2 
 3044000   0.75679169   -8.3937141    559.26491  0.015310581  0.015016412            5 
 3045000   0.76875716   -8.4035061      559.383  0.015308785  0.015011152            5 
 3046000   0.75100112   -8.4154012    560.56047  0.015335973  0.015005884            3 
 3047000   0.78057901    -8.397541    561.32286   0.01535179   0.01500063            3 
 3048000   0.76953425   -8.3912478    560.41992  0.015322067  0.014995391            5 
 3049000   0.75961943   -8.3949762    560.45774  0.015318075   0.01499014            3 
 3050000   0.75840356   -8.3798532    561.20421  0.015333448  0.014984885            3 
 3051000   0.77067588   -8.4108815    560.65749   0.01531349  0.014979627            2 
 3052000   0.76861516   -8.3967911    560.64485  0.015308127  0.014974376            5 
 3053000   0.76769306   -8.3854552    561.26644   0.01532008  0.014969149            2 
 3054000   0.76627088   -8.3857716      559.823  0.015275677  0.014963926            1 
 3055000   0.75851648    -8.384226    559.68206  0.015266832  0.014958694            3 
 3056000   0.76395148   -8.3842883    560.04888  0.015271839  0.014953462            3 
 3057000   0.76996916   -8.3680292    560.28378  0.015273247  0.014948232            1 
 3058000   0.76573689    -8.378463    560.63034  0.015277696  0.014942984            5 
 3059000   0.76073918   -8.3954653    559.97614   0.01525488  0.014937736            2 
 3060000   0.75783323   -8.3785735    560.30022  0.015258721  0.014932496            2 
 3061000   0.76832603   -8.4069992    559.40145  0.015229268  0.014927261            4 
 3062000   0.76352712   -8.3996335    561.01341  0.015268164  0.014922012           11 
 3063000   0.77461159   -8.3709476    560.03603  0.015236588   0.01491678            3 
 3064000   0.78719658   -8.3690068    560.67319  0.015248944  0.014911561            3 
 3065000   0.75269861   -8.3885692    560.63556  0.015242946  0.014906348            3 
 3066000   0.76360891   -8.4036306    560.81658  0.015242895  0.014901147            4 
 3067000   0.76930772    -8.392727    562.20932  0.015275767  0.014895926            2 
 3068000   0.74798626   -8.3764166    560.24615  0.015217464  0.014890711            4 
 3069000   0.74828398   -8.4069579    560.19822  0.015211204   0.01488549            3 
 3070000   0.76040664   -8.4054888    560.06481  0.015202628  0.014880259            8 
 3071000   0.74799352   -8.4316194    559.57349  0.015184345  0.014875019            8 
 3072000   0.75751431   -8.4016442    560.99763  0.015218035  0.014869781            2 
 3073000   0.75762148   -8.3839417    560.07617  0.015188095  0.014864543           22 
 3074000   0.76197616   -8.3906882    560.76989   0.01520196  0.014859315            4 
 3075000   0.74901451   -8.3813574    561.27477  0.015210698  0.014854108            4 
 3076000    0.7498753   -8.3920357    560.64702  0.015188747  0.014848904            3 
 3077000   0.75573534   -8.4016732    561.31571  0.015201921  0.014843694            4 
 3078000   0.75661672    -8.387086    560.71131  0.015180618  0.014838491            5 
 3079000   0.77354822   -8.4084104    561.52952  0.015197833  0.014833304            4 
 3080000   0.74940266   -8.3861383    561.65694  0.015196346  0.014828078           11 
 3081000   0.76033201   -8.3941777    561.48267    0.0151867  0.014822876            5 
 3082000    0.7786037   -8.3924864    560.56757  0.015157029  0.014817684            2 
 3083000     0.756502   -8.4088871    560.50085  0.015150309  0.014812471            5 
 3084000   0.77132075   -8.4193897    560.66861   0.01514993  0.014807283            4 
 3085000   0.76296844    -8.419638    561.04554  0.015155201  0.014802071            3 
 3086000   0.77123818   -8.4295997    560.12715   0.01512549  0.014796894            4 
 3087000    0.7643902   -8.4150736    561.19783  0.015149493  0.014791714            6 
 3088000   0.74636009   -8.3847485    561.65727  0.015156986   0.01478655            3 
 3089000    0.7550852   -8.3803942     561.0506  0.015135713  0.014781369            2 
 3090000   0.76852683   -8.4149995    560.18121  0.015107368  0.014776201            2 
 3091000   0.75133572   -8.4255463    561.43302   0.01513623  0.014771021            3 
 3092000   0.75140668   -8.4095902    560.84717  0.015115545  0.014765831            5 
 3093000   0.74776065   -8.4139725    560.57631   0.01510336  0.014760648            3 
 3094000   0.74569532   -8.4285614    561.56353  0.015125068  0.014755472            1 
 3095000    0.7511966   -8.4069846    561.86241  0.015128229  0.014750314            2 
 3096000   0.74867679   -8.3975712    561.88197  0.015123869  0.014745175            6 
 3097000   0.75860115   -8.3784207    562.19305  0.015127356  0.014740027            5 
 3098000   0.75611509   -8.4229844    560.54614  0.015078172  0.014734865            3 
 3099000   0.76360962   -8.4108859    561.52749  0.015099696  0.014729707            4 
 3100000   0.74821219   -8.4375002    561.25658  0.015087543  0.014724544            2 
 3101000     0.751325   -8.4297921    560.91225  0.015073424  0.014719377            2 
 3102000   0.74986841   -8.4170391    561.32092  0.015079543  0.014714216            2 
 3103000   0.75403985   -8.4302683    560.37166  0.015049191  0.014709049            2 
 3104000   0.74161625   -8.4201319    562.00612  0.015088223  0.014703899            2 
 3105000   0.75945226   -8.3937071    561.23494  0.015062666  0.014698757            3 
 3106000   0.75768001   -8.4297151    561.17016  0.015056079  0.014693621            2 
 3107000   0.74057853   -8.4045689    561.86731  0.015069931  0.014688491            5 
 3108000   0.74653293   -8.4174598    561.99577  0.015068527  0.014683348            4 
 3109000   0.73433389   -8.4199995    562.87426  0.015087227  0.014678209            2 
 3110000   0.75087051   -8.4184478    561.22686  0.015038233  0.014673083            5 
 3111000   0.76880203    -8.399927    560.72725  0.015020016  0.014667963            4 
 3112000   0.77077129   -8.4239827    561.34551  0.015031746  0.014662822            9 
 3113000   0.74877663   -8.4402679    561.29284  0.015025507  0.014657681            6 
 3114000   0.74639361   -8.4368572    561.70629  0.015031746  0.014652546            5 
 3115000    0.7540872   -8.4151058    563.31259  0.015069893  0.014647418            2 
 3116000   0.76311589   -8.4102019    561.99489  0.015029816  0.014642293            6 
 3117000   0.77352169   -8.3959433     562.0071  0.015025321  0.014637188            6 
 3118000   0.75044045   -8.4130548    562.45121  0.015032371   0.01463209            6 
 3119000   0.74441566   -8.4188863     562.1028  0.015018243   0.01462699            7 
 3120000   0.75576348   -8.4105827    562.13141  0.015014194  0.014621877            3 
 3121000    0.7676493   -8.4098783    561.56518  0.014994264  0.014616767            5 
 3122000    0.7528532    -8.434894    562.41469  0.015012137  0.014611651            4 
 3123000   0.75191572   -8.4341122    560.98624  0.014969213  0.014606525            4 
 3124000   0.74982289    -8.424645    563.11668  0.015021252  0.014601405            1 
 3125000   0.75697649   -8.4205651    561.71681  0.014979115  0.014596294            4 
 3126000   0.74642666   -8.4165706    561.90531  0.014979348  0.014591187            3 
 3127000   0.75648692   -8.4269329    561.58722  0.014966081  0.014586094            2 
 3128000   0.73994875   -8.4216373    561.71799   0.01496478  0.014581001            2 
 3129000   0.75772456    -8.427266    560.98614  0.014940506  0.014575893            5 
 3130000    0.7539081   -8.4333903    561.46446  0.014948468  0.014570786            3 
 3131000   0.73748892   -8.4177725    563.56686   0.01499965  0.014565693            3 
 3132000   0.75844731   -8.4227099    561.42002   0.01493774  0.014560604            4 
 3133000   0.73918751   -8.4217241      562.011  0.014948691   0.01455551            4 
 3134000   0.74400239   -8.4288508    561.74673  0.014936895  0.014550415            2 
 3135000   0.74761596   -8.4230715    561.47903  0.014925014  0.014545304            8 
 3136000   0.74391267   -8.4431774    561.59685  0.014923386  0.014540184            3 
 3137000   0.76363145   -8.4547267    561.13285  0.014906302  0.014535067            7 
 3138000   0.73489134   -8.4595607    561.38903  0.014908355  0.014529949            4 
 3139000   0.75736799   -8.4588533    562.18501  0.014924737   0.01452482            2 
 3140000   0.74566085   -8.4686494    561.79944  0.014909752  0.014519709            4 
 3141000   0.75372318   -8.4580634    562.42652  0.014921642  0.014514588            3 
 3142000    0.7500842   -8.4477496    562.31959  0.014914057  0.014509469            3 
 3143000   0.73842901   -8.4567243    561.43082  0.014885747   0.01450436            3 
 3144000   0.75036877    -8.482437    559.39447  0.014827037  0.014499237            4 
 3145000   0.73992553   -8.4221949    561.89326  0.014888534  0.014494144            5 
 3146000    0.7584389   -8.4464505     561.9196  0.014884499   0.01448906            2 
 3147000   0.76069333   -8.4024185    562.67933  0.014899887  0.014483973            2 
 3148000   0.73753567   -8.4257989    562.51614  0.014890834  0.014478907            2 
 3149000   0.75243886     -8.44858     561.2062   0.01485144  0.014473828            2 
 3150000   0.74286421   -8.4333641    561.25657  0.014848057  0.014468748            1 
 3151000   0.74844377   -8.4649578     562.3154  0.014871348  0.014463649            3 
 3152000   0.74071769   -8.4339963     562.8606  0.014881044  0.014458563            2 
 3153000   0.73592187    -8.438547    563.03974  0.014881059  0.014453493            5 
 3154000   0.74618902    -8.444942    562.61937  0.014865234  0.014448427            8 
 3155000   0.75408381   -8.4557104     562.0753  0.014846152  0.014443383            2 
 3156000   0.73499382   -8.4448991    563.36444  0.014875487  0.014438325            2 
 3157000   0.76212551   -8.4618001    561.43093  0.014819737  0.014433245            3 
 3158000   0.74190126   -8.4498793    560.68871  0.014795459  0.014428178            4 
 3159000   0.73866788   -8.4492501    562.82003  0.014846999   0.01442311            3 
 3160000   0.75755967   -8.4273093    561.51282  0.014807828  0.014418049            2 
 3161000   0.74997859   -8.4157877    563.82009  0.014863969  0.014412996            2 
 3162000   0.74934705    -8.452616    561.34367  0.014794004  0.014407939            3 
 3163000   0.74418564   -8.4372007    563.29361    0.0148407  0.014402881            4 
 3164000   0.74108022   -8.4542817    563.62441  0.014844722   0.01439785            4 
 3165000   0.74760943   -8.4552723    562.61114  0.014813353  0.014392819            6 
 3166000   0.74258788   -8.4454064    562.06121  0.014794199  0.014387799            2 
 3167000   0.74361416   -8.4426004    562.71075  0.014806619  0.014382752            3 
 3168000   0.72931752   -8.4510081    562.53278  0.014797264  0.014377706            5 
 3169000   0.72683179    -8.457553    562.53631  0.014792687  0.014372656            4 
 3170000   0.74785396   -8.4094485    562.09235   0.01477635  0.014367636            4 
 3171000   0.73002431   -8.4113762    563.24602  0.014802008  0.014362608            3 
 3172000   0.74912359    -8.453876    562.67499   0.01478234  0.014357589            4 
 3173000   0.74360702   -8.4352446    561.99693  0.014759873  0.014352561            4 
 3174000   0.74104394   -8.4529697     562.9351  0.014779855  0.014347532            3 
 3175000   0.75267458   -8.4580179    562.82017  0.014772183  0.014342503            3 
 3176000   0.75702705   -8.4575646    562.24006  0.014752311  0.014337469            4 
 3177000   0.73552006   -8.4098534    563.95612   0.01479268  0.014332449            2 
 3178000   0.74778083   -8.4281413    562.54601  0.014751049  0.014327438            1 
 3179000   0.73287495   -8.4610997    563.43594  0.014769737  0.014322419            6 
 3180000   0.73537838   -8.4416157    562.57993  0.014742661  0.014317406            3 
 3181000   0.73494974    -8.420175    562.22672  0.014728773  0.014312389            4 
 3182000   0.74233535   -8.4661151    562.62412  0.014734552  0.014307387            7 
 3183000   0.74525664   -8.4335905    563.03111  0.014740578  0.014302381            8 
 3184000    0.7348097     -8.41331    562.76651  0.014729023  0.014297386           11 
 3185000   0.74557897   -8.4557491    562.92769  0.014728616  0.014292393            4 
 3186000   0.74884821   -8.4722387    562.64944  0.014716715  0.014287386            4 
 3187000   0.73782739   -8.4282667    563.29925  0.014729088  0.014282366            2 
 3188000   0.73607594   -8.4677423    562.89121  0.014713802   0.01427734            3 
 3189000   0.73802868   -8.4707842    562.13248  0.014689361  0.014272318            3 
 3190000   0.73238057   -8.4441342    562.80457  0.014702314  0.014267281            5 
 3191000   0.73433928   -8.4787654    561.95979  0.014675645   0.01426226            3 
 3192000   0.75857611   -8.4396994    562.86743  0.014694743  0.014257242            2 
 3193000   0.75268111   -8.4483515    562.44521  0.014679121  0.014252232            2 
 3194000   0.72451706   -8.4504089    562.23307  0.014668991  0.014247205            5 
 3195000   0.73578556   -8.4527965    563.02466  0.014685046  0.014242187            2 
 3196000   0.75051861   -8.4427514    563.29433  0.014687483  0.014237186            3 
 3197000   0.72148899   -8.4638183    563.40314  0.014685725  0.014232187            3 
 3198000   0.74216182   -8.4420312    564.28134  0.014704017    0.0142272            1 
 3199000   0.74739697   -8.4926767     562.7563  0.014659693   0.01422222            2 
 3200000   0.72145467   -8.4768875    562.11997  0.014638541   0.01421724            5 
 3201000   0.74448406   -8.4684741    562.17838  0.014635488  0.014212258            5 
 3202000   0.72712072    -8.470756     563.4394  0.014663736  0.014207275            2 
 3203000   0.73914515    -8.444333    562.75106  0.014641249  0.014202297            4 
 3204000   0.75750758   -8.4702879    563.10671   0.01464593  0.014197318            3 
 3205000   0.73189019   -8.4871624    562.87801  0.014635414  0.014192345            4 
 3206000   0.72734513   -8.4554005    562.81753  0.014629277   0.01418735            3 
 3207000   0.74789152   -8.4629859    563.31061  0.014637527  0.014182362            3 
 3208000   0.72077767    -8.454553    563.22345  0.014630701  0.014177381            1 
 3209000   0.73796821   -8.4427235    562.93453  0.014618639  0.014172412            2 
 3210000    0.7509152   -8.4901761     561.7094  0.014582279  0.014167449            2 
 3211000   0.73482303    -8.458517    564.09094  0.014639545  0.014162468            2 
 3212000   0.73920508   -8.4512513    564.17738   0.01463723  0.014157493            2 
 3213000   0.75532378   -8.4642899    563.32179  0.014610483  0.014152533            4 
 3214000   0.72741353   -8.4851876    562.95617  0.014596457  0.014147581            3 
 3215000   0.74406072    -8.461202    563.26252  0.014599858   0.01414262            2 
 3216000   0.74280622    -8.493571     562.7549  0.014582165  0.014137647            4 
 3217000   0.74590356   -8.4607999     562.6036  0.014573713   0.01413268            8 
 3218000   0.73059911   -8.4819429       563.42  0.014590325  0.014127711            5 
 3219000   0.74044932   -8.4955512    563.96006  0.014599774  0.014122762            3 
 3220000   0.74407373   -8.4646354    563.60547  0.014586063  0.014117799            6 
 3221000   0.73619683   -8.4326024    563.29375   0.01457347  0.014112838            7 
 3222000   0.73895823   -8.4655422    562.33397  0.014544123  0.014107883            2 
 3223000    0.7283369   -8.4614072    562.47956  0.014543375  0.014102916            2 
 3224000   0.73001681   -8.4542172    563.07768  0.014554324  0.014097976            2 
 3225000   0.74772635   -8.4556172    564.01625  0.014574063  0.014093018            2 
 3226000   0.74778279   -8.4795063    562.07571  0.014519418  0.014088055            2 
 3227000   0.73725313   -8.4717944    563.06865   0.01454056  0.014083086            5 
 3228000   0.74850198   -8.4672415    563.50691   0.01454737  0.014078129            3 
 3229000   0.71795765     -8.45611    564.08564    0.0145578  0.014073175            7 
 3230000   0.73332706    -8.496669    561.97837  0.014498926  0.014068219            4 
 3231000   0.74363948   -8.4465625    564.20513  0.014551871  0.014063267            3 
 3232000   0.73142389   -8.4478201    563.66475  0.014533435  0.014058329            3 
 3233000    0.7224756   -8.4742121    562.13784  0.014489583  0.014053371            2 
 3234000   0.73588088   -8.4819252    563.20306  0.014512551  0.014048417           14 
 3235000   0.73345106   -8.4717996    562.21308  0.014482563   0.01404345            3 
 3236000   0.72786488    -8.481484    561.09497  0.014449294  0.014038492            2 
 3237000   0.73933522   -8.4918219    562.86113  0.014490298  0.014033537            2 
 3238000   0.73872036   -8.4766138    561.22699  0.014443767  0.014028561            2 
 3239000   0.74375279   -8.4875235    561.96665  0.014458337  0.014023601            2 
 3240000   0.73884038   -8.4770207      561.838  0.014450566  0.014018641            2 
 3241000   0.74914608   -8.4719752    562.20897  0.014455646  0.014013676            8 
 3242000   0.75391046   -8.4851106    562.03679  0.014446761  0.014008714            3 
 3243000   0.74117399    -8.468115    563.52531  0.014480556  0.014003765            3 
 3244000   0.74078456   -8.4833818    561.85328   0.01443314  0.013998787            2 
 3245000   0.73658651   -8.5173144    561.44592  0.014418231  0.013993811            2 
 3246000   0.74015905   -8.5049487    561.44107  0.014413665  0.013988837            4 
 3247000   0.73059703   -8.4987194    562.12603  0.014426805  0.013983859            3 
 3248000   0.74396396   -8.4914041    560.86196  0.014389931  0.013978896            4 
 3249000   0.73312979   -8.4997972    561.76192  0.014408585  0.013973921            4 
 3250000   0.74076614   -8.4703796    562.17193  0.014414665  0.013968954            3 
 3251000   0.73504151   -8.4547397    562.20938  0.014411191  0.013963986            2 
 3252000    0.7223703   -8.4753511    562.81234   0.01442221  0.013959026            3 
 3253000   0.72982826    -8.473818    562.52376  0.014410384  0.013954056            5 
 3254000    0.7358391   -8.4684944     564.4555  0.014455427  0.013949086            2 
 3255000     0.737015   -8.4954862    561.61114  0.014378166  0.013944112            2 
 3256000   0.73082845   -8.5114643      560.518  0.014345772  0.013939144            3 
 3257000   0.75098518   -8.4981968    562.13458  0.014382729   0.01393417            2 
 3258000   0.74067109   -8.5086844    562.03337  0.014375726  0.013929203            2 
 3259000   0.72306361   -8.5119103    561.38887  0.014354834  0.013924245            3 
 3260000   0.73129937   -8.4828132    562.54405   0.01437996  0.013919287            4 
 3261000   0.72732502   -8.4996605    562.47399   0.01437376  0.013914344            2 
 3262000   0.72572129   -8.4811875    561.92053  0.014355215  0.013909378            5 
 3263000   0.72917138   -8.5097183    562.28905  0.014360227  0.013904421            2 
 3264000   0.72511775   -8.4744416    561.81892  0.014343825  0.013899463            3 
 3265000   0.72853056   -8.5047924    561.61194  0.014334149  0.013894501            6 
 3266000   0.73477719   -8.5013655    561.36249  0.014323395  0.013889519            3 
 3267000    0.7264264   -8.4973659    560.44008  0.014295482  0.013884549            4 
 3268000   0.73576808   -8.4691142    561.14783  0.014309155  0.013879572            3 
 3269000   0.73635132   -8.4979252    561.55195   0.01431508  0.013874591            3 
 3270000   0.74631401   -8.4915598    560.91134  0.014294377  0.013869619            3 
 3271000   0.72031175   -8.4907813    562.22426  0.014323455  0.013864637            3 
 3272000   0.72432922   -8.5130474    562.14034   0.01431694  0.013859661            9 
 3273000   0.74124978   -8.5063803    562.46467  0.014320824  0.013854682            4 
 3274000   0.71695273   -8.5131422    560.63612  0.014269907  0.013849704            2 
 3275000   0.73165153   -8.5078603    561.96743  0.014299426  0.013844731            5 
 3276000   0.72270916   -8.5140107    562.01166  0.014296186  0.013839758            5 
 3277000   0.73807992   -8.5047835    561.50838  0.014279025  0.013834786            3 
 3278000   0.72912221   -8.5124024    561.92003  0.014285134   0.01382982            3 
 3279000   0.73621757   -8.5160172    562.33216  0.014291251  0.013824859            2 
 3280000   0.74049923   -8.4752084    561.57192  0.014267579  0.013819906            3 
 3281000    0.7357129   -8.4964866    561.73523  0.014267379  0.013814964            3 
 3282000   0.71469254   -8.4864555    561.73308  0.014262977  0.013810025            2 
 3283000   0.72134214   -8.4670932    562.22852  0.014271208  0.013805093            2 
 3284000   0.72794676   -8.4815879    561.79338  0.014255821  0.013800175            7 
 3285000   0.72264851   -8.5013274    562.38519  0.014266494  0.013795247            3 
 3286000   0.71800799   -8.4936013    562.59131   0.01426738  0.013790327            2 
 3287000   0.72969401   -8.4898999    563.75491  0.014292539  0.013785401            2 
 3288000   0.73834611   -8.4867453    561.68816  0.014235811  0.013780472            3 
 3289000   0.71866179   -8.4904144    562.07408  0.014241261  0.013775548            3 
 3290000   0.73262393   -8.4915399    561.71586  0.014227859  0.013770621            2 
 3291000   0.72487888   -8.4885414    561.91449  0.014228565   0.01376571            2 
 3292000   0.72325356    -8.478148    561.53496  0.014214636  0.013760802            2 
 3293000   0.72195095    -8.474294    562.41633  0.014232623  0.013755903            2 
 3294000   0.72908033   -8.4869168    561.64954  0.014208904  0.013750991            2 
 3295000   0.73056714   -8.4842011    562.06813  0.014215178  0.013746074            3 
 3296000   0.71429593   -8.4920925    563.13249  0.014237775  0.013741156            5 
 3297000    0.7314179   -8.4780743    562.65015  0.014221265   0.01373625            1 
 3298000   0.73205434   -8.4947109    562.64454  0.014216812  0.013731334            3 
 3299000   0.72697975   -8.5141438    561.90761  0.014193887  0.013726418            3 
 3300000   0.73214878   -8.4765615    563.22908  0.014222956  0.013721499            3 
 3301000   0.72921773   -8.4917542    561.42128   0.01417301  0.013716583            4 
 3302000   0.73186628   -8.4934801    561.92232  0.014181363  0.013711669            2 
 3303000   0.72738899   -8.5137412    561.05627  0.014155219  0.013706748            3 
 3304000   0.72245416    -8.506929    562.29362  0.014182143  0.013701831            3 
 3305000   0.71432148   -8.4892448    562.72664   0.01418877  0.013696913            2 
 3306000   0.71773449    -8.530244    561.45105  0.014152325  0.013691988            2 
 3307000   0.72176334   -8.5208218    561.41771  0.014147206  0.013687056            1 
 3308000   0.72147586   -8.5253756    561.59443  0.014147381  0.013682136            2 
 3309000   0.71653087   -8.5022087    562.86663  0.014175144  0.013677219            5 
 3310000   0.72544846   -8.4845105    562.51041  0.014161893  0.013672294            3 
 3311000   0.71626842   -8.5119363    562.15008  0.014148547  0.013667378            4 
 3312000   0.72065403   -8.4997422    562.27052  0.014147306  0.013662473            2 
 3313000   0.72034517   -8.5130217    562.10356  0.014138836  0.013657567            4 
 3314000   0.71446129   -8.4881965    562.81892  0.014152558  0.013652647            3 
 3315000   0.72131883   -8.5032094    561.45717  0.014114056  0.013647747            4 
 3316000   0.71734719   -8.4869076    561.63643  0.014114305  0.013642834            6 
 3317000   0.71952653   -8.4822662    563.12324  0.014147403  0.013637941            2 
 3318000   0.71304448   -8.4986474    561.55183  0.014103673  0.013633046            3 
 3319000   0.73467523   -8.5088879    561.68061  0.014102657  0.013628145            4 
 3320000   0.73100866   -8.5263441    562.02827  0.014107135  0.013623241            3 
 3321000   0.72364719   -8.5431606    560.95739  0.014076016  0.013618331            2 
 3322000   0.72036452   -8.5243687    560.70639  0.014065482  0.013613431            2 
 3323000   0.70977321   -8.5237061    562.41333  0.014104056  0.013608535            3 
 3324000   0.71336288   -8.5296409    562.38012   0.01409898  0.013603631            7 
 3325000   0.71289106   -8.4964815    562.21126  0.014090508  0.013598749            2 
 3326000   0.72700809   -8.4958549    562.74326  0.014099601  0.013593872            2 
 3327000   0.72267677   -8.5003568    562.22459  0.014082371  0.013588993            2 
 3328000   0.71961471   -8.4973099    562.50177   0.01408508  0.013584126            3 
 3329000   0.70896941   -8.5280281     560.9509  0.014042027  0.013579243            3 
 3330000    0.7192713   -8.5100718    561.49689  0.014051474  0.013574351            2 
 3331000   0.71773815   -8.5040786    560.14192  0.014013357  0.013569463            5 
 3332000   0.71194905   -8.5473409    561.33897   0.01403909  0.013564568            2 
 3333000   0.71494691   -8.4999526    560.73974  0.014019895  0.013559696            3 
 3334000   0.71189748   -8.5188725     561.4171  0.014032621  0.013554821            2 
 3335000   0.73087579   -8.4978949    561.61944  0.014033469  0.013549952            4 
 3336000   0.71324173   -8.4965707    562.50597  0.014051408  0.013545098            2 
 3337000   0.70484506     -8.51838    561.47388  0.014021423  0.013540227            3 
 3338000    0.7260059   -8.5093002    562.96328  0.014054406   0.01353536            2 
 3339000   0.71408579   -8.5435935    562.33356   0.01403448   0.01353049            3 
 3340000   0.72880357   -8.5225901    561.77956  0.014016456   0.01352561            2 
 3341000   0.72312166    -8.537497    561.14023  0.013996314  0.013520723            4 
 3342000    0.7144333    -8.526801    561.44255  0.013999665  0.013515838            3 
 3343000   0.72343009   -8.5120251    561.59997  0.013999401  0.013510959            4 
 3344000    0.7315604   -8.5559977    560.53318   0.01396863  0.013506077            5 
 3345000   0.70590134   -8.5335777    562.68837  0.014018146  0.013501193            6 
 3346000   0.72643781   -8.5068482    562.38754  0.014006464   0.01349632            3 
 3347000   0.72533486   -8.5625726    560.92113  0.013965769   0.01349145            6 
 3348000   0.72559194   -8.5115784    561.12319  0.013966627  0.013486568            2 
 3349000   0.72178525   -8.5289016    561.06044  0.013960895   0.01348169            2 
 3350000   0.71371084   -8.5653218    560.48022  0.013942294  0.013476808            2 
 3351000   0.73213673     -8.53802    561.18283  0.013955606  0.013471929            4 
 3352000   0.72982878   -8.5268633    560.55699  0.013935884  0.013467059            4 
 3353000   0.71893928   -8.5692922    560.75046  0.013936536  0.013462177            4 
 3354000   0.71731233   -8.5544673    559.14642  0.013892527  0.013457291            4 
 3355000   0.72647266   -8.5307829    562.84004   0.01398013   0.01345242            4 
 3356000   0.71536191   -8.5554912    561.01062  0.013930538   0.01344755            4 
 3357000   0.70216147   -8.5419267    560.49669  0.013913631  0.013442684            2 
 3358000   0.70582759   -8.5515201    561.66744  0.013938541  0.013437815            4 
 3359000   0.70807297   -8.5594031    560.48249  0.013904994  0.013432952            5 
 3360000   0.71108736   -8.5493258    560.78638  0.013908392  0.013428085            3 
 3361000    0.7238575   -8.5292333    560.90617  0.013907224  0.013423214            4 
 3362000   0.72368431   -8.5248257    560.95713  0.013904351  0.013418351            3 
 3363000   0.73024001   -8.5685944    560.78819   0.01389603  0.013413483            4 
 3364000   0.70550432   -8.5408406     561.3921  0.013906859  0.013408611            2 
 3365000   0.70587731   -8.5480181    559.84873  0.013864506  0.013403751            6 
 3366000   0.72310184   -8.5664062    560.55366  0.013877839  0.013398885            3 
 3367000   0.71675594   -8.5173193    560.65691  0.013876272  0.013394011            3 
 3368000   0.70402201   -8.5832875    559.75171  0.013849755  0.013389131            5 
 3369000   0.71497976   -8.5755558    559.70392  0.013844462  0.013384254            3 
 3370000   0.72294633   -8.5696768    559.97717  0.013847111  0.013379391            3 
 3371000   0.71474428   -8.5510853    560.66698  0.013860056  0.013374533            2 
 3372000   0.70795792   -8.5540858    560.79887  0.013859205   0.01336969            2 
 3373000   0.71780132   -8.5499868    561.68043  0.013876876  0.013364849            5 
 3374000   0.70619101   -8.5439189    561.20612  0.013861048  0.013360018            2 
 3375000   0.71410221    -8.523026    560.69922  0.013844425  0.013355183            5 
 3376000   0.72507934    -8.506479    561.58917  0.013862292  0.013350341            4 
 3377000   0.72707242   -8.5371893    561.27191  0.013850358  0.013345492            5 
 3378000   0.69982838   -8.5275682    561.35104   0.01384821   0.01334065            6 
 3379000   0.71203722   -8.5368828    561.82803  0.013855875  0.013335809            3 
 3380000   0.69472965   -8.5610104    560.82021  0.013826928  0.013330973            4 
 3381000   0.70952255   -8.5371008    561.45843  0.013838569  0.013326146            3 
 3382000   0.73148334   -8.5377578    562.09478  0.013850157  0.013321316            6 
 3383000   0.70530331   -8.5595086    559.81026  0.013789789  0.013316494            8 
 3384000   0.71426876    -8.555273    560.59499  0.013805038  0.013311659            4 
 3385000   0.69263278   -8.5461213    561.16072  0.013814887   0.01330683            7 
 3386000   0.69671058   -8.5618975    559.61617  0.013772794  0.013301993            6 
 3387000   0.71853339   -8.5668806    559.71932  0.013771266  0.013297154            5 
 3388000   0.71227808   -8.5402697    560.72278  0.013791883  0.013292312            2 
 3389000    0.7136599   -8.5647976    561.38184  0.013804019  0.013287472            4 
 3390000   0.70567988    -8.543211    560.85253  0.013786935  0.013282623            3 
 3391000   0.72047939   -8.5604177    561.12647  0.013789602  0.013277777            5 
 3392000   0.70077316   -8.5905331    559.30688  0.013740833  0.013272935            3 
 3393000   0.69930722   -8.5823029    560.23837  0.013759661  0.013268086            3 
 3394000   0.70931697   -8.5679321    561.10991  0.013777006  0.013263249            1 
 3395000    0.7075926   -8.5452631    561.47126  0.013781818  0.013258423            3 
 3396000   0.71678841   -8.5759352    559.49892  0.013729361  0.013253607            4 
 3397000   0.71157879    -8.538671    562.25992  0.013793051  0.013248799            2 
 3398000    0.7089897    -8.556203    560.97889  0.013757575  0.013243989            1 
 3399000   0.72261989   -8.5764278    559.19506  0.013709794   0.01323917            2 
 3400000   0.69903443    -8.557499    561.80482  0.013769726   0.01323436            2 
 3401000    0.7214822   -8.5941332    559.54341  0.013710267  0.013229544            3 
 3402000   0.70107616   -8.5825105    560.43455  0.013728065  0.013224733            2 
 3403000   0.72019274   -8.5721385    559.31311   0.01369657  0.013219924            2 
 3404000   0.70214398   -8.5489909    560.75355  0.013727809  0.013215098            3 
 3405000   0.69800589   -8.5623541    561.05513  0.013731158  0.013210281            4 
 3406000    0.7069839    -8.580661    560.61573  0.013716376  0.013205471            3 
 3407000   0.69406389   -8.5697244    560.33727  0.013705539  0.013200655            3 
 3408000   0.70142791   -8.5687231    560.61939  0.013708416  0.013195854            3 
 3409000   0.71220999   -8.5586295    560.46938  0.013700728  0.013191039            4 
 3410000    0.7107134   -8.5868568    559.98338  0.013684833   0.01318623            3 
 3411000   0.70935994   -8.5538385     561.2877  0.013712687   0.01318142            4 
 3412000   0.69976431    -8.565008    560.56878  0.013691109  0.013176618            7 
 3413000   0.70858021   -8.5613482    560.80425  0.013692847  0.013171807            2 
 3414000   0.70146613   -8.5927877    558.95174  0.013643618  0.013166993            2 
 3415000   0.70211775   -8.5556718    560.61667  0.013680251  0.013162188            3 
 3416000   0.70278856    -8.543427    559.86439  0.013657894  0.013157388            2 
 3417000   0.71696945   -8.5539998    561.16641   0.01368565  0.013152593            2 
 3418000   0.70838755   -8.5415428    560.45516  0.013664306  0.013147793            4 
 3419000   0.71294053   -8.5782205    560.73436  0.013667114  0.013142989            5 
 3420000   0.70355541   -8.5540771     559.5991  0.013635456  0.013138198            3 
 3421000   0.70649887   -8.5652714     560.5337  0.013654236  0.013133397            4 
 3422000   0.70080323    -8.577353    560.45096  0.013648231  0.013128593            4 
 3423000   0.70945787   -8.5922531    560.14595  0.013636818  0.013123795            1 
 3424000   0.70901467   -8.5636548    560.98581  0.013653276  0.013118999            1 
 3425000   0.69815025   -8.5455408    561.36016  0.013658398  0.013114198            2 
 3426000    0.7006635   -8.5730622    560.61088  0.013636186   0.01310941            7 
 3427000   0.70752467   -8.5787224    560.54141  0.013630518  0.013104622            5 
 3428000   0.71340908   -8.5701091    560.37559  0.013622511  0.013099832            4 
 3429000   0.70028055   -8.5729377    560.11415  0.013612184   0.01309505            2 
 3430000   0.69495071   -8.5792159    561.24167  0.013635609  0.013090259            4 
 3431000   0.70585899   -8.5685043    560.87096  0.013622631  0.013085483            2 
 3432000   0.71457668   -8.5922945    560.24576  0.013603481    0.0130807            4 
 3433000   0.71053715   -8.5666374    560.97286  0.013617168  0.013075929            2 
 3434000   0.69934168   -8.5813567    560.44446   0.01360038  0.013071151            2 
 3435000   0.69635149   -8.5604005    561.17393  0.013614118  0.013066371            2 
 3436000   0.71053494   -8.5712372    560.79249  0.013600904  0.013061593            1 
 3437000   0.71116888   -8.5899191    559.99948   0.01357772  0.013056807            2 
 3438000   0.70473918   -8.5905242    561.47062  0.013609429   0.01305203            3 
 3439000   0.69192188   -8.5973637    559.87101   0.01356671  0.013047262            3 
 3440000   0.70252543   -8.5667283    559.95761  0.013564865  0.013042497            5 
 3441000   0.69303114   -8.5728433    560.20936  0.013567019   0.01303773            9 
 3442000   0.70926546   -8.5711278    560.61313  0.013572853  0.013032966            8 
 3443000   0.71046027   -8.5870409    561.12609  0.013581327  0.013028196            3 
 3444000   0.70321804   -8.5804809    559.97119  0.013549438  0.013023426            8 
 3445000   0.68691781   -8.5612905    560.47872  0.013557782   0.01301865            7 
 3446000   0.71703674   -8.5862323    560.09957  0.013544679  0.013013875            4 
 3447000   0.69757782   -8.5660049    560.62164  0.013553371   0.01300911            3 
 3448000   0.70244471   -8.5830789    560.29939  0.013541652  0.013004338            4 
 3449000   0.69410004    -8.581534    559.75629  0.013524604  0.012999563            6 
 3450000   0.70871996    -8.613002    558.96601  0.013501594  0.012994788           10 
 3451000   0.70458789   -8.5913218    560.02841  0.013523336  0.012990027            7 
 3452000   0.69895792   -8.6069945    559.74017  0.013512461   0.01298526           11 
 3453000    0.7104891   -8.5685401    560.57079  0.013528593  0.012980502            9 
 3454000   0.68521992   -8.5927027    558.99147  0.013486573  0.012975739            6 
 3455000   0.70175508   -8.5754124    560.31803  0.013514665   0.01297098            4 
 3456000   0.67830291   -8.5872235    560.66884  0.013519214  0.012966241            2 
 3457000   0.69685705   -8.6092816    558.94148  0.013473664  0.012961485           13 
 3458000   0.70834811   -8.6149369    559.49694  0.013483154  0.012956722            4 
 3459000   0.68227661   -8.6096165    560.31129  0.013498875  0.012951971            8 
 3460000    0.6996262    -8.583588    559.31689  0.013471023  0.012947207            4 
 3461000   0.71137826   -8.5903381    559.95259  0.013482437  0.012942459            1 
 3462000   0.69935822   -8.6048133    558.87682  0.013452648  0.012937721            9 
 3463000   0.69096598   -8.5911306    560.87144  0.013496762  0.012932987            4 
 3464000    0.7048533   -8.5966274    560.42671  0.013482167  0.012928245            6 
 3465000    0.6977003   -8.5799206    560.19315  0.013472659  0.012923502           19 
 3466000   0.70642561    -8.562716    560.24497  0.013470017  0.012918758           12 
 3467000   0.69489383   -8.5906972    559.93898  0.013458778  0.012914014            3 
 3468000   0.69865805   -8.6109392    559.25247    0.0134384   0.01290926            6 
 3469000   0.68752791   -8.5954752    560.29105  0.013459476  0.012904519            2 
 3470000   0.71157886   -8.6015851    560.81311  0.013468134  0.012899781            5 
 3471000   0.69403519   -8.6075749    559.22528  0.013426133  0.012895035            6 
 3472000   0.72299888    -8.609219    559.14191  0.013420265    0.0128903            9 
 3473000   0.70567948   -8.6012854    560.07246  0.013438729  0.012885553            4 
 3474000   0.69624402   -8.6087883     558.5812  0.013399088  0.012880818            4 
 3475000   0.70606143   -8.5972415    560.37325  0.013438207  0.012876079            6 
 3476000   0.68902824   -8.5843666     559.3979  0.013410958  0.012871351            5 
 3477000   0.68914519   -8.6242804    558.89205  0.013394978  0.012866617            8 
 3478000   0.68369544   -8.6260565    558.69535  0.013386413  0.012861877            4 
 3479000   0.70870774   -8.6155148    558.44875  0.013376659  0.012857138            8 
 3480000   0.68329381   -8.6055985    560.20413   0.01341485  0.012852402            5 
 3481000   0.67734056   -8.6188721    558.98314  0.013381766  0.012847671            6 
 3482000   0.70710365   -8.6092044     558.8113  0.013373811  0.012842937            7 
 3483000   0.70053129   -8.6088216    558.55135  0.013363751  0.012838202            4 
 3484000   0.68335924   -8.5833872    558.56238  0.013360179  0.012833481            7 
 3485000    0.7008248   -8.6081097    559.66121  0.013382621  0.012828753            4 
 3486000   0.70285891   -8.5911846    558.56646  0.013352612  0.012824031            3 
 3487000   0.68374903   -8.5952495    559.76655  0.013377463  0.012819309            4 
 3488000     0.697949   -8.5950674    560.29602  0.013386277  0.012814592            7 
 3489000   0.70374167   -8.6121975    559.39935  0.013361024  0.012809866            6 
 3490000      0.69091   -8.6155982    559.47622  0.013359031  0.012805129            4 
 3491000   0.70408612   -8.6214347    558.65995  0.013335719  0.012800397            9 
 3492000   0.68318854   -8.6327751    558.36406  0.013324839  0.012795665            5 
 3493000   0.71116388   -8.6024496    558.79828  0.013331384   0.01279094           11 
 3494000   0.68298516   -8.6177929    559.45651  0.013343267  0.012786228            5 
 3495000   0.68822068    -8.611113    558.90043   0.01332619  0.012781515            6 
 3496000   0.68085621   -8.5838272    559.00125  0.013324782  0.012776806            5 
 3497000   0.68627654   -8.6155529    559.21966  0.013326176   0.01277209            9 
 3498000   0.68825059   -8.6141144    559.64114  0.013332408  0.012767374            7 
 3499000   0.69860854   -8.6130573    559.38634  0.013322529  0.012762661            6 
 3500000   0.68666845   -8.6267673     558.9001  0.013307145   0.01275795            2 
 3501000   0.70154646   -8.6204264    559.01905  0.013306176  0.012753237            3 
 3502000   0.69059949   -8.6118447    559.41917  0.013311897  0.012748534            3 
 3503000   0.69533337   -8.6128142    558.66677  0.013290198  0.012743832            5 
 3504000   0.67531426   -8.6084482    558.44351  0.013281096  0.012739128            3 
 3505000    0.6966022   -8.5860531    559.51803  0.013302854  0.012734436            2 
 3506000   0.71235971   -8.6129546    559.00006  0.013286748  0.012729751            3 
 3507000   0.69672505   -8.6303101    558.64001  0.013274404  0.012725054            2 
 3508000   0.69706815   -8.6289726    559.64845  0.013294576  0.012720364            2 
 3509000   0.66759878   -8.6053902    560.03841  0.013300048  0.012715677            2 
 3510000   0.69486735   -8.6461799    558.66491  0.013263649  0.012710988            5 
 3511000    0.6838503    -8.625922    559.29925  0.013274928  0.012706299            3 
 3512000   0.69737265   -8.6194676    558.48111  0.013251735  0.012701608            1 
 3513000   0.68270006   -8.6180158    558.91515  0.013258259  0.012696921            1 
 3514000   0.68707014   -8.6008133     558.6149  0.013247365  0.012692244            3 
 3515000   0.69676836   -8.6176908    559.55575  0.013265902  0.012687558            2 
 3516000   0.68912257   -8.6000412    560.01352  0.013272979  0.012682882            3 
 3517000   0.67870943   -8.6049769    558.81723  0.013240859  0.012678208            5 
 3518000   0.69203782   -8.6096391     559.7622   0.01325948  0.012673536            5 
 3519000   0.68416351    -8.621013    560.06333  0.013262843  0.012668867            2 
 3520000   0.68092988   -8.6018656    560.31287  0.013264983  0.012664207            6 
 3521000   0.68317003   -8.5921368      559.853  0.013250331  0.012659551            1 
 3522000   0.70098665   -8.6237816    558.65552  0.013218236  0.012654893            3 
 3523000   0.70196274   -8.6195281    560.18326  0.013250621   0.01265023            2 
 3524000   0.66562208   -8.6066559    558.63067  0.013210146  0.012645564            1 
 3525000   0.68794336   -8.6310933    559.19469  0.013219733  0.012640895            2 
 3526000    0.6930737   -8.6428268    558.77447  0.013206052  0.012636233            3 
 3527000   0.68377718   -8.6180311    558.50293  0.013195892  0.012631565            1 
 3528000   0.68721638   -8.6402096    559.16853  0.013207873  0.012626905            3 
 3529000   0.68727592   -8.6277914    558.60976  0.013190936  0.012622245            1 
 3530000   0.70024127   -8.6213941    559.67678  0.013212389  0.012617577            3 
 3531000     0.679955   -8.6370287    558.50414  0.013180972  0.012612923            2 
 3532000   0.69370764   -8.6168307    559.44486  0.013199435  0.012608261            3 
 3533000   0.68070644   -8.6314289    559.23541  0.013190759  0.012603597            5 
 3534000    0.6773936   -8.6352547     559.2602  0.013187611  0.012598939            2 
 3535000   0.67800595   -8.6468208    558.80386  0.013173123   0.01259428            3 
 3536000   0.68832464   -8.6416963     557.9874  0.013150156  0.012589626            2 
 3537000   0.68799566   -8.6294265    558.97809  0.013169779  0.012584972            4 
 3538000   0.68567519    -8.630312    558.47234  0.013154144  0.012580317            5 
 3539000   0.69647085   -8.6346988    558.10619  0.013141805  0.012575664            5 
 3540000   0.68519817   -8.6478593    558.38522  0.013144662  0.012571007            7 
 3541000   0.67978428   -8.6617814     558.4297  0.013141996  0.012566361            5 
 3542000   0.68686688    -8.635699    558.02409  0.013128743  0.012561706            4 
 3543000   0.68589775    -8.644705    558.49294  0.013136065  0.012557061            3 
 3544000   0.68818151   -8.6340607    559.22322   0.01314953  0.012552415            4 
 3545000   0.68563159   -8.6378659    558.73545  0.013134355   0.01254778            3 
 3546000   0.67474899   -8.6371926    559.45417  0.013147541  0.012543137            4 
 3547000    0.6802958    -8.629599    559.48221  0.013144493  0.012538498            4 
 3548000   0.67829469   -8.6715843    559.75528  0.013147202  0.012533852            3 
 3549000   0.68567326   -8.6396863    558.15713  0.013105972  0.012529211            3 
 3550000    0.6747176   -8.6270135    557.78245  0.013093485  0.012524559            1 
 3551000   0.67814371   -8.6210981    557.86504  0.013091736  0.012519914            6 
 3552000   0.68554345   -8.6475598    558.79222  0.013109803  0.012515273           10 
 3553000    0.6976612    -8.653888    558.10425  0.013089977  0.012510639            3 
 3554000   0.68116443   -8.6531417    558.18816  0.013088261   0.01250601            4 
 3555000   0.67392751   -8.6443959    558.32483  0.013087783  0.012501376            4 
 3556000   0.68135451   -8.6369288    558.99676  0.013099849  0.012496734            2 
 3557000   0.69243619   -8.6509851    558.81475  0.013091902  0.012492093           11 
 3558000   0.68678333   -8.6515833     558.5971  0.013083125  0.012487458            6 
 3559000   0.67577092   -8.6271563    558.61977   0.01307998  0.012482834           14 
 3560000   0.67567484   -8.6583383    558.30527  0.013068943   0.01247821            4 
 3561000   0.68752136   -8.6066663    558.98363  0.013081148  0.012473587            5 
 3562000   0.68805037   -8.6208686    558.37508  0.013063239  0.012468968            2 
 3563000   0.68839594    -8.638175    558.82993  0.013070211  0.012464351            6 
 3564000   0.67769325   -8.6151242    559.33935  0.013078455  0.012459735            2 
 3565000    0.6717615   -8.6632249    558.14244  0.013046808  0.012455125            6 
 3566000   0.69059783   -8.6443661    558.04379  0.013040844  0.012450513            3 
 3567000   0.68302647   -8.6329124    559.10378  0.013061952    0.0124459            1 
 3568000    0.6751283   -8.6714918    558.31576  0.013039886  0.012441281            3 
 3569000   0.68595811   -8.6292973    556.85332  0.013002086  0.012436656            2 
 3570000   0.67965922   -8.6460924    557.91494  0.013023224  0.012432026            8 
 3571000   0.67423653   -8.6610322    558.54266  0.013034226  0.012427417            2 
 3572000   0.68856253   -8.6703494    558.08678  0.013019942  0.012422807            2 
 3573000   0.67759494   -8.6526194     558.5688   0.01302754  0.012418192            3 
 3574000   0.66853421    -8.629591    558.63383  0.013025411  0.012413594            3 
 3575000   0.68440989   -8.6465061    559.13557  0.013033463  0.012408999            3 
 3576000   0.69550419   -8.6631819     558.6154  0.013017697  0.012404399            4 
 3577000   0.67780138   -8.6415118    558.74477  0.013017071  0.012399815            3 
 3578000   0.69056752   -8.6437694    558.01094  0.012996342  0.012395226            9 
 3579000   0.68570705   -8.6283506    559.09815  0.013018025  0.012390638            4 
 3580000   0.65584585   -8.6370423    558.55949   0.01300185  0.012386049            5 
 3581000   0.67583474    -8.650269    559.41107  0.013018037  0.012381464            9 
 3582000   0.66467322   -8.6477185    558.39384  0.012990737  0.012376879            2 
 3583000   0.68010765   -8.6356217    558.93469   0.01299969  0.012372296            4 
 3584000   0.68005728   -8.6384721    559.55171   0.01301041  0.012367714            4 
 3585000   0.69366892    -8.647788    558.69537  0.012986875  0.012363137            8 
 3586000   0.68404358   -8.6419454    558.13633  0.012970262  0.012358556            8 
 3587000   0.67312674    -8.655934    558.72925  0.012980421  0.012353979            2 
 3588000   0.66470606    -8.639467    558.04568  0.012960927  0.012349408            3 
 3589000   0.67727154   -8.6617061    558.15327  0.012959814  0.012344832            6 
 3590000    0.6707459   -8.6382677    558.01591  0.012953016  0.012340255            6 
 3591000   0.69075228   -8.6596038    559.22527  0.012977473  0.012335681            8 
 3592000   0.69029508   -8.6450341    558.55731  0.012958364  0.012331109            4 
 3593000   0.67455507   -8.6238882    557.72553  0.012935465  0.012326546            4 
 3594000   0.66440199   -8.6582377    558.65668  0.012953457  0.012321979            8 
 3595000   0.67229167   -8.6336626    558.83105  0.012953895  0.012317415            4 
 3596000   0.67226479   -8.6525544    557.83871  0.012927297  0.012312858            9 
 3597000   0.67548044   -8.6572332    559.02605  0.012951211  0.012308309            6 
 3598000   0.67144971   -8.6504256      558.725  0.012940638  0.012303756            7 
 3599000   0.69090964   -8.6724973    558.73709  0.012937323  0.012299203            7 
 3600000   0.68400203    -8.640195     558.6929  0.012932706  0.012294653            5 
 3601000   0.66906499   -8.6583378    558.52811  0.012925301  0.012290113            4 
 3602000   0.66916766   -8.6497425    559.39472  0.012941762  0.012285554            7 
 3603000   0.67010914   -8.6530803    558.82917   0.01292509  0.012281005            5 
 3604000   0.66962569   -8.6454791    558.78645  0.012920515  0.012276464            3 
 3605000   0.68029754   -8.6595327    558.01053  0.012898995  0.012271927            6 
 3606000   0.69621591   -8.6561766    558.33625  0.012902945  0.012267395            9 
 3607000   0.68483698   -8.6826552    558.28305  0.012898139  0.012262856            3 
 3608000   0.66672097   -8.6870693    559.07827  0.012912931  0.012258311            6 
 3609000    0.6562929   -8.6649079    558.55987  0.012897383  0.012253771            8 
 3610000   0.67115314   -8.6717464    558.24818  0.012886615  0.012249224            3 
 3611000   0.68212232   -8.6594537    558.07503  0.012879051  0.012244682            3 
 3612000   0.66250396   -8.6594697    558.48463  0.012884935  0.012240147            2 
 3613000   0.67146306   -8.6761579    559.23379  0.012898648  0.012235615            2 
 3614000   0.66475451   -8.6488337    558.18662  0.012870933  0.012231097            5 
 3615000   0.67270493   -8.6386878    559.01236  0.012886408  0.012226582            5 
 3616000   0.66990597   -8.6525185    557.37724  0.012845161  0.012222066            7 
 3617000   0.67451599   -8.6514108    558.54878  0.012868602  0.012217539            4 
 3618000   0.67661078   -8.6797218    558.46137  0.012863031  0.012213016           10 
 3619000    0.6593907   -8.6620568    558.44277  0.012859049  0.012208497            6 
 3620000   0.68441989   -8.6588079    557.92014  0.012843465  0.012203984            3 
 3621000   0.67427549   -8.6649589    559.45994  0.012875355  0.012199469            2 
 3622000   0.68215152    -8.663224    558.57001  0.012851325  0.012194964            3 
 3623000   0.68510232   -8.6623737    558.61769  0.012848875  0.012190451            2 
 3624000   0.67028171   -8.6764335    557.91719  0.012829222  0.012185948            3 
 3625000   0.66427634   -8.6661866    558.45125   0.01283796  0.012181438            4 
 3626000   0.66646877   -8.6604717    558.72131  0.012840626  0.012176926            3 
 3627000   0.66744429   -8.6736824    558.51124  0.012832259  0.012172414            4 
 3628000   0.66379585   -8.6711657    557.73876  0.012810978  0.012167895            5 
 3629000   0.66637647    -8.656021     558.1776  0.012817525  0.012163374            4 
 3630000   0.67389303   -8.6899168    557.93521   0.01280843  0.012158852            7 
 3631000   0.65648103   -8.6553426    559.01055  0.012829582  0.012154338            5 
 3632000   0.66763259   -8.6767098    558.00323  0.012802938  0.012149822            5 
 3633000   0.68402455   -8.6708018    557.99313  0.012799182  0.012145319            5 
 3634000   0.66408218   -8.6652503    558.49016  0.012807058  0.012140818            7 
 3635000   0.66328784    -8.684281    558.55334  0.012804982  0.012136313            4 
 3636000   0.67374469   -8.6599289    558.37325  0.012797333   0.01213181            3 
 3637000   0.67011306   -8.6481692    558.00684  0.012785419  0.012127311            3 
 3638000   0.65958811   -8.6713817    558.85123  0.012801247  0.012122816            4 
 3639000   0.66592278   -8.6868937    557.49909  0.012766765  0.012118322            6 
 3640000   0.65639131   -8.6555294    558.22206  0.012779809  0.012113827            3 
 3641000   0.67250861   -8.6728138    558.42333  0.012780906  0.012109346            3 
 3642000   0.67632653   -8.6791968    558.31826  0.012774992  0.012104859            1 
 3643000   0.67917838   -8.6678981    558.51451  0.012775975  0.012100383            5 
 3644000   0.67274703   -8.6545534    558.98872  0.012783313    0.0120959            4 
 3645000   0.66382916   -8.6713005    558.83584  0.012776311  0.012091424            2 
 3646000    0.6765435   -8.6804581    559.23653  0.012781965  0.012086954            2 
 3647000   0.66442008   -8.6628023    557.16939  0.012731226  0.012082486            2 
 3648000    0.6721735   -8.6729605    557.56264   0.01273672  0.012078028            3 
 3649000   0.67903061   -8.6727095     558.2189  0.012748216  0.012073558            5 
 3650000   0.66867635   -8.6415077    558.19033  0.012744072   0.01206909            8 
 3651000   0.67686227   -8.6894565    558.14329  0.012739507  0.012064629            3 
 3652000    0.6649619   -8.6803354    558.08326  0.012734649  0.012060154            3 
 3653000   0.66829927   -8.6583739    557.20822  0.012711201  0.012055678            5 
 3654000   0.65422602    -8.678953    557.68226  0.012718534  0.012051219            3 
 3655000   0.67171068   -8.6778568    557.13154  0.012702497  0.012046744            2 
 3656000   0.66635641   -8.6558687    558.59638  0.012732412  0.012042292            2 
 3657000   0.66693866   -8.6780279    557.69704  0.012708437  0.012037839            4 
 3658000   0.66414582   -8.6757339    558.01749  0.012712263  0.012033374            1 
 3659000    0.6612766   -8.6899687     558.4663   0.01271901  0.012028913            3 
 3660000   0.67008493   -8.6988336    557.36318  0.012690419  0.012024449            2 
 3661000   0.65985553    -8.684452    557.99377  0.012701306  0.012019994            1 
 3662000   0.67471262   -8.6638756    558.28961   0.01270457  0.012015546            2 
 3663000   0.66250239   -8.6912014    559.31024  0.012724321  0.012011104            5 
 3664000   0.65783669   -8.6994354    557.95374  0.012689996  0.012006654            6 
 3665000   0.67006157    -8.663886    558.52582  0.012699541  0.012002215            2 
 3666000    0.6667737   -8.6713638    558.55553  0.012696752  0.011997777            4 
 3667000    0.6669362   -8.6792698    557.92311  0.012678918  0.011993341            4 
 3668000    0.6560013   -8.6689661    558.33897  0.012684909  0.011988899            5 
 3669000   0.65690386   -8.6807415    558.35606   0.01268184  0.011984464            4 
 3670000   0.66867973    -8.690706    558.13134  0.012673282  0.011980032            5 
 3671000     0.672349   -8.6683596    558.64289  0.012681442  0.011975603            4 
 3672000   0.66712598   -8.6657781     557.4759  0.012651505  0.011971167            3 
 3673000   0.66531653   -8.6878863    558.01098    0.0126602  0.011966744            4 
 3674000   0.66493605   -8.6820664    558.88102  0.012676488  0.011962315            4 
 3675000    0.6728529   -8.6654212    557.93281  0.012651538  0.011957891            6 
 3676000   0.67957064   -8.6957946    557.80643  0.012645231  0.011953474            6 
 3677000   0.66603962   -8.6998802     558.3707   0.01265458  0.011949054            5 
 3678000   0.65873361    -8.670853    558.92419   0.01266368  0.011944641            5 
 3679000   0.66615757   -8.6739076    558.67026  0.012654486  0.011940226            6 
 3680000   0.67409414   -8.6963936    556.65626  0.012605441  0.011935822            4 
 3681000   0.66833004   -8.6918137    557.44556  0.012619885  0.011931413            4 
 3682000   0.66894517   -8.6991304    558.35585   0.01263706  0.011927007            6 
 3683000   0.65472936   -8.7115502    557.87316  0.012622707   0.01192259            2 
 3684000   0.66004652   -8.6887063    557.60836  0.012613291  0.011918175            3 
 3685000   0.66178825    -8.693745    557.80238  0.012614255   0.01191376            2 
 3686000    0.6675542   -8.6833945    557.68368   0.01260815  0.011909353            2 
 3687000   0.67273568   -8.7011989    558.02963  0.012612549  0.011904943            3 
 3688000   0.66042074   -8.6760149    559.25794  0.012636884  0.011900535            2 
 3689000   0.66717107   -8.6973982    557.62244  0.012596513  0.011896138            5 
 3690000   0.65449182   -8.6775241     558.3397  0.012609298  0.011891737            4 
 3691000   0.65846362   -8.6918462    559.02863  0.012621436  0.011887339            3 
 3692000   0.66781358   -8.6971978    558.21012  0.012599542  0.011882944            5 
 3693000    0.6696469   -8.6749229    558.64263   0.01260589  0.011878555            2 
 3694000    0.6637192   -8.6546371      558.043  0.012588951  0.011874172            4 
 3695000   0.66948083    -8.701096    559.11397  0.012609697  0.011869791            3 
 3696000   0.66184854   -8.6908194    557.69039  0.012574188  0.011865407            4 
 3697000   0.67048352   -8.6891893    558.54339  0.012590014  0.011861016            1 
 3698000   0.66225468   -8.6760576    557.75273  0.012568792  0.011856632            3 
 3699000   0.68439018   -8.6936699     558.1581  0.012574527   0.01185225            2 
 3700000   0.67040376   -8.6765399    558.43458  0.012577355  0.011847873            5 
 3701000   0.65883097   -8.6770449    558.57812  0.012577189  0.011843503            4 
 3702000   0.66440845   -8.6905834    558.25907   0.01256661  0.011839134            3 
 3703000   0.63985333   -8.6978669    558.27126  0.012563491  0.011834767            5 
 3704000   0.66269072   -8.6759045     558.4997  0.012565238    0.0118304            3 
 3705000   0.65677742   -8.6951695    558.77854  0.012568118   0.01182604            2 
 3706000   0.65890765   -8.6704084    557.81455  0.012543051  0.011821677            5 
 3707000   0.65508932   -8.6868899    558.80079  0.012561838  0.011817311            2 
 3708000   0.65988308   -8.6866975     559.3771  0.012571402  0.011812947            2 
 3709000   0.64495417   -8.6950917    557.71858  0.012530749  0.011808583            2 
 3710000   0.66402362   -8.7025447     557.3201  0.012518421   0.01180422            1 
 3711000   0.67305241   -8.6690391    558.96699   0.01255203  0.011799865            3 
 3712000   0.65520013   -8.7055457    557.35527  0.012512466  0.011795504            4 
 3713000   0.66282258   -8.6754822    558.66756  0.012538548  0.011791153            3 
 3714000   0.66435589   -8.6869219    558.33491  0.012527709  0.011786805            5 
 3715000   0.66563414   -8.6599332    559.84029  0.012558104  0.011782464            3 
 3716000   0.65842959   -8.7097661    558.13666   0.01251652  0.011778113            3 
 3717000   0.65491544   -8.7159335    558.00102  0.012510112  0.011773763            4 
 3718000   0.65944705   -8.7014957    558.56444  0.012519375  0.011769407            4 
 3719000   0.66055954   -8.7165694    557.23749  0.012486275  0.011765046            5 
 3720000   0.65958973   -8.6984485    557.19633  0.012481997  0.011760692            6 
 3721000    0.6581414   -8.6990201    557.13582  0.012477287  0.011756345            3 
 3722000   0.65246159   -8.7051617    557.68032  0.012486126  0.011751999            5 
 3723000   0.65498545   -8.6895634    559.55969  0.012524839  0.011747655            2 
 3724000    0.6478638   -8.7041751    556.98815  0.012463931  0.011743301            3 
 3725000   0.65527407   -8.6814598    557.10441  0.012463186  0.011738949            4 
 3726000   0.65459614   -8.7094952    557.13585  0.012460544  0.011734608            6 
 3727000   0.65473332   -8.7027601    558.73267  0.012492905  0.011730268            3 
 3728000    0.6593431   -8.6882792    557.98097  0.012472751  0.011725925            3 
 3729000   0.65471896   -8.7076409    557.12335   0.01245024  0.011721581            6 
 3730000   0.64178206   -8.6839119     557.7515  0.012460936  0.011717236            4 
 3731000   0.64994447   -8.6982014    557.70846  0.012456635  0.011712903            2 
 3732000   0.65488958   -8.7246914    558.38999  0.012468515  0.011708557            5 
 3733000   0.65679533   -8.7299226    556.19541  0.012416185  0.011704225           10 
 3734000   0.65946147   -8.6930075    557.62708  0.012444811  0.011699896            3 
 3735000   0.65881755    -8.690018    557.75122  0.012444248  0.011695567            5 
 3736000   0.63589702   -8.7047395    558.13593  0.012449499  0.011691243            6 
 3737000   0.65719267   -8.7343278    557.70718  0.012436606  0.011686922            7 
 3738000   0.65219155   -8.7010253     557.6818  0.012432714  0.011682601            4 
 3739000   0.65312614   -8.7244968    557.76714   0.01243129  0.011678277            2 
 3740000   0.66215799   -8.7116244     557.6791  0.012426005  0.011673954            3 
 3741000   0.63362167    -8.715605     557.8931   0.01242745  0.011669633            2 
 3742000   0.64165681    -8.704366    556.89676  0.012401941  0.011665307            5 
 3743000   0.64756368   -8.7119515    557.87203  0.012420341  0.011660986            4 
 3744000   0.65951588   -8.7313468    558.37057   0.01242812  0.011656674            3 
 3745000    0.6697908   -8.7451942    558.69996  0.012432131  0.011652357            3 
 3746000   0.63291794   -8.7059919    557.81186  0.012409055   0.01164805            4 
 3747000   0.64162641   -8.7131969    558.11793  0.012412551  0.011643744            4 
 3748000   0.65349585   -8.7162167    558.12895  0.012409484  0.011639429            5 
 3749000   0.67409299   -8.7038003    556.97419  0.012380506  0.011635127            7 
 3750000   0.66970109   -8.7111155    557.70296  0.012393399  0.011630833            5 
 3751000   0.64379645   -8.7215284    557.40981  0.012383582  0.011626541            4 
 3752000   0.66687006   -8.7299553    557.59712  0.012384442  0.011622253            3 
 3753000   0.65915886   -8.7170045    557.89516   0.01238776  0.011617966            2 
 3754000   0.64881434   -8.7193426     559.3344  0.012416409  0.011613678            5 
 3755000   0.64391059   -8.6967622    556.97505  0.012360742  0.011609393            5 
 3756000   0.63302896   -8.7202246    557.39329  0.012366731  0.011605111            4 
 3757000   0.64698091   -8.7105107    557.19794  0.012359106  0.011600829            5 
 3758000    0.6672433   -8.6999163    557.78782  0.012368898   0.01159655            5 
 3759000   0.64835535   -8.6945089    558.56464  0.012382829  0.011592277            3 
 3760000   0.65305359   -8.7152384    558.50794  0.012378279  0.011587997            9 
 3761000   0.65679612   -8.7491304    557.31688  0.012348597  0.011583719            2 
 3762000   0.64463001   -8.7202473    558.30236  0.012367144  0.011579441            3 
 3763000   0.64603737   -8.7267512    557.41974  0.012344312  0.011575167            4 
 3764000   0.64913536   -8.7125685    557.07777  0.012333461  0.011570892            6 
 3765000   0.65426137   -8.7458129    557.97321  0.012350005  0.011566612            2 
 3766000   0.65259954   -8.7383974    557.21215  0.012329885  0.011562337            3 
 3767000   0.65606852   -8.7213578    556.91083  0.012319946  0.011558063            4 
 3768000   0.64336803   -8.7294274    557.06046  0.012319985  0.011553796            4 
 3769000   0.65388867   -8.7194745    557.33215  0.012322724  0.011549532            5 
 3770000    0.6608586   -8.7270787    557.17895  0.012316069  0.011545265            4 
 3771000   0.64367481   -8.7312376    557.37128  0.012317053  0.011541001            5 
 3772000    0.6491529   -8.7208942    557.64094  0.012319745  0.011536742            5 
 3773000   0.64694361   -8.7132717    557.09059  0.012304324  0.011532495            4 
 3774000   0.64223373    -8.711866    557.34863  0.012306762  0.011528236            5 
 3775000   0.64681714   -8.7299764    558.49212  0.012328744  0.011523984            6 
 3776000   0.65397386   -8.7172644    558.12999  0.012317487  0.011519736            3 
 3777000   0.64934149   -8.7149647    556.73373   0.01228342  0.011515493            4 
 3778000   0.65632301    -8.726867    557.43057  0.012295539  0.011511248            4 
 3779000    0.6506936   -8.7112744    557.63315  0.012296753  0.011507001            3 
 3780000   0.63576279   -8.7252248    557.22223  0.012284441  0.011502758            4 
 3781000   0.65032279   -8.7592769    557.56907  0.012288836  0.011498514            2 
 3782000   0.63987355   -8.7437651      557.555  0.012285277   0.01149427            2 
 3783000   0.63860414   -8.7366757     557.8891  0.012289389  0.011490028            2 
 3784000   0.63030842   -8.7287844    556.76924  0.012261479  0.011485788            2 
 3785000   0.65249822    -8.727027    556.79086  0.012258715  0.011481549            9 
 3786000   0.64727286   -8.7300785    557.85647  0.012278933  0.011477316            8 
 3787000   0.64616579   -8.7312462    558.50679  0.012290001  0.011473085            9 
 3788000   0.64870594   -8.6920997    558.11138  0.012278057   0.01146886            6 
 3789000   0.63698489    -8.748123    557.41555  0.012259513  0.011464638            5 
 3790000   0.64977931   -8.7392543    557.10174  0.012249379  0.011460414            2 
 3791000   0.65470403   -8.7071448    557.96029   0.01226502  0.011456188            6 
 3792000    0.6552279   -8.7280031    557.55878  0.012252962  0.011451969            3 
 3793000   0.64846967   -8.7377433     558.8314  0.012277691  0.011447754            3 
 3794000   0.64851619   -8.7403801    558.03482  0.012256959  0.011443527            2 
 3795000   0.62749276   -8.7254339    558.41182  0.012262007  0.011439314            4 
 3796000   0.63444099   -8.7439163    557.50431  0.012238855  0.011435097            4 
 3797000   0.64126393   -8.7066898    559.11544  0.012270991  0.011430885            1 
 3798000   0.64228954   -8.7322725    558.09544   0.01224538   0.01142667            5 
 3799000   0.64120022   -8.7124306    557.67974  0.012233038  0.011422462            3 
 3800000   0.64752824   -8.7214801    558.56725  0.012249282  0.011418265            4 
 3801000   0.64559659   -8.7111512    558.31317  0.012240489  0.011414062            4 
 3802000   0.65185033   -8.7356997    557.01698  0.012208859  0.011409865            5 
 3803000   0.63371179   -8.7323424    557.42798  0.012214655  0.011405666            5 
 3804000   0.64326508   -8.7287775    557.62113  0.012215675  0.011401465            2 
 3805000   0.63868981   -8.7283849    557.08167   0.01220065   0.01139727            3 
 3806000   0.64180005   -8.7099372    558.55004  0.012229595  0.011393066            4 
 3807000    0.6478797   -8.7323123    558.18472  0.012218385  0.011388864            2 
 3808000   0.62764216   -8.7523272    557.76079    0.0122059  0.011384659            2 
 3809000   0.64873002   -8.7235211    558.54267  0.012219801  0.011380463            2 
 3810000   0.64634837   -8.7363291    557.79513  0.012200243  0.011376275            2 
 3811000   0.64416651   -8.7328124    557.43179  0.012189097   0.01137209            3 
 3812000   0.63695975   -8.7200791    557.75853  0.012193042  0.011367912            8 
 3813000   0.63068323     -8.72329      557.743  0.012189505  0.011363724            6 
 3814000   0.64272573   -8.7418724    557.49305  0.012180848  0.011359542            4 
 3815000   0.63807453   -8.7254949    557.37007  0.012174969  0.011355356            9 
 3816000   0.63665937   -8.7272995    556.23321  0.012146952  0.011351174            5 
 3817000   0.63188499   -8.7544475    556.81575  0.012156487  0.011346995            3 
 3818000   0.64063421   -8.7350739    557.08279  0.012159132  0.011342814            5 
 3819000   0.64211318   -8.7350604    557.84118  0.012172497  0.011338632            8 
 3820000   0.64697731   -8.7639164    557.68356  0.012165872  0.011334453            6 
 3821000   0.62396103   -8.7418264    557.98545  0.012169272  0.011330277            2 
 3822000   0.64670505   -8.7738389    556.48697  0.012133416  0.011326093            3 
 3823000   0.63404369   -8.7462331    557.27998  0.012147528   0.01132192            4 
 3824000   0.63030539   -8.7517951    556.89939  0.012136057  0.011317747            3 
 3825000    0.6590809   -8.7423643    556.74965  0.012129622  0.011313573            2 
 3826000   0.64803663   -8.7474553    556.11393  0.012112605  0.011309405            3 
 3827000   0.66010071   -8.7452203    556.67775  0.012121717  0.011305237            4 
 3828000   0.63101039   -8.7553258    556.98973  0.012125343  0.011301072            4 
 3829000   0.63658793   -8.7344027    557.59449  0.012135338  0.011296901            5 
 3830000   0.64202964   -8.7512243      557.454  0.012129112  0.011292735            1 
 3831000   0.63065715   -8.7396991    557.10607  0.012118378   0.01128857            5 
 3832000   0.63032522   -8.7484453    557.07792  0.012114603  0.011284407            2 
 3833000   0.64546244   -8.7514057    555.92143  0.012086299  0.011280243            2 
 3834000   0.63016295   -8.7517701    558.41015   0.01213724  0.011276083            3 
 3835000   0.63923657   -8.7623173    556.26104  0.012087376  0.011271927            3 
 3836000   0.65546585   -8.7572328    557.04804  0.012101322  0.011267773            1 
 3837000   0.63791251   -8.7547589    558.08079  0.012120598  0.011263622            7 
 3838000   0.62075092   -8.7423653    557.85098   0.01211245  0.011259463            5 
 3839000   0.64375337   -8.7446325    557.41711  0.012099877  0.011255315            2 
 3840000   0.63938377   -8.7620006    556.09261  0.012067982   0.01125117            2 
 3841000    0.6309579    -8.769095    557.39305  0.012093054  0.011247025            2 
 3842000   0.64336229   -8.7710767    556.59542  0.012072606   0.01124288            2 
 3843000   0.62626838   -8.7627927    557.26173  0.012083913  0.011238737            5 
 3844000   0.63998005   -8.7591752    556.61869  0.012066829  0.011234593            2 
 3845000   0.64123546   -8.7391756    557.86944  0.012090799  0.011230451            3 
 3846000   0.62967906    -8.740253    557.74756  0.012085014  0.011226312            7 
 3847000   0.64631086   -8.7554989    557.27688  0.012071677  0.011222175            2 
 3848000   0.64497322   -8.7519461    557.93083  0.012082702  0.011218039            3 
 3849000   0.62851103   -8.7819677    556.48948  0.012048356  0.011213903            3 
 3850000   0.63556626      -8.7642    556.88397  0.012053766  0.011209771            5 
 3851000   0.63186302   -8.7695149    557.61766  0.012066512  0.011205641            2 
 3852000   0.64388418   -8.7338719    557.21423  0.012054652  0.011201514            4 
 3853000    0.6418441   -8.7748354    557.42543  0.012056091  0.011197396            2 
 3854000   0.64616205    -8.745611    556.65422  0.012036287  0.011193274            2 
 3855000   0.65024482   -8.7473769    557.61581  0.012053952  0.011189159            6 
 3856000   0.63655765   -8.7551681    556.37576  0.012024027  0.011185035            3 
 3857000   0.63284598   -8.7704287    556.42331  0.012021937  0.011180917            3 
 3858000   0.63725594   -8.7635188    557.77359  0.012047987  0.011176805            5 
 3859000   0.63487359   -8.7654027    557.28257  0.012034261  0.011172692            5 
 3860000   0.62229906   -8.7437293    558.08654    0.0120485  0.011168584            6 
 3861000   0.63457723   -8.7753648      557.398  0.012030519  0.011164473            5 
 3862000    0.6339133   -8.7560427    557.59998  0.012031762  0.011160359            4 
 3863000   0.65039505   -8.7850256    557.07584  0.012017341   0.01115625            4 
 3864000   0.62381327   -8.7450929    557.43232  0.012021919   0.01115214            1 
 3865000   0.63662787   -8.7409423    557.13587  0.012012416  0.011148031            4 
 3866000   0.63682389   -8.7499388    556.73144  0.012000591  0.011143925            3 
 3867000    0.6410386   -8.7469507    557.98748  0.012024556  0.011139831            4 
 3868000   0.63745451   -8.7625477    556.99567  0.012000079  0.011135735            4 
 3869000   0.65157416   -8.7506363    556.44863  0.011985195  0.011131637            3 
 3870000   0.62750618    -8.754442    558.22262  0.012020298  0.011127542            2 
 3871000   0.62382509   -8.7479915     556.8683  0.011988037  0.011123447            5 
 3872000   0.64644439   -8.7572258    556.59644   0.01197909  0.011119347            1 
 3873000   0.64151076   -8.7374734    557.48171  0.011995045  0.011115257            2 
 3874000   0.62916119   -8.7573475     557.3419  0.011988941  0.011111166            4 
 3875000    0.6248052   -8.7559489     556.9713  0.011977877  0.011107072            2 
 3876000   0.63276847   -8.7740047    557.69014  0.011990242   0.01110298            2 
 3877000   0.62557757   -8.7841855    556.30707  0.011957421  0.011098886            2 
 3878000   0.62699147   -8.7500111     557.2541  0.011974688  0.011094795            5 
 3879000   0.62506261   -8.7657191    556.93004  0.011964639   0.01109071            4 
 3880000   0.63630804    -8.788781    556.79781  0.011958716  0.011086618            5 
 3881000   0.62857712   -8.7822852    556.84177  0.011956578  0.011082534            5 
 3882000   0.62659307   -8.7698928    556.71738  0.011950828  0.011078453            4 
 3883000   0.63680964   -8.7789606    556.13841  0.011935325   0.01107437            3 
 3884000   0.62881324   -8.7555471    557.56394  0.011962838  0.011070293            3 
 3885000   0.64649851     -8.74037    556.93657  0.011946301  0.011066219            2 
 3886000   0.62991725   -8.7565415    556.13382  0.011926013  0.011062142            6 
 3887000   0.61679653   -8.7770697    556.00616  0.011920208  0.011058068            2 
 3888000   0.63152055   -8.7640937    555.80612  0.011912854  0.011053987            4 
 3889000    0.6250393   -8.7447743    556.34036  0.011921239  0.011049917            2 
 3890000   0.62411268   -8.7631152    556.15272  0.011914154  0.011045842            4 
 3891000   0.62718762    -8.761101    556.56948  0.011920018  0.011041771            7 
 3892000   0.62898097   -8.7685182    556.13828  0.011907723  0.011037701            3 
 3893000   0.62420973   -8.7927223     556.3741  0.011909712  0.011033632            4 
 3894000   0.63103922   -8.7552196     557.1105  0.011922413  0.011029564            2 
 3895000   0.62781079    -8.765466    556.46344  0.011905508  0.011025495            3 
 3896000   0.62166978   -8.7891335    556.32827  0.011899561   0.01102143            3 
 3897000   0.61802901    -8.755625     556.5892  0.011902087  0.011017367            2 
 3898000   0.64116639    -8.787625    555.76022  0.011881311  0.011013302            3 
 3899000   0.62008101   -8.7774078    555.82171  0.011879578  0.011009237            5 
 3900000   0.63338976   -8.7740782    555.89647   0.01187813  0.011005177            4 
 3901000   0.62373936   -8.7747969    555.92451  0.011875684  0.011001117            3 
 3902000   0.63334668   -8.7700076    556.36329  0.011882011  0.010997056            3 
 3903000   0.62984586   -8.7809934    557.22446  0.011897354  0.010992996            6 
 3904000   0.62183562    -8.776082    556.14964  0.011871364  0.010988938            4 
 3905000   0.62868889   -8.7936988    556.85639  0.011883406  0.010984889            4 
 3906000   0.61996916   -8.7822193    556.61433  0.011875199  0.010980846            5 
 3907000   0.62370031    -8.762744    556.33311  0.011866161  0.010976803            3 
 3908000   0.61599828   -8.7746899     555.5281  0.011845959  0.010972759            5 
 3909000   0.63626567   -8.7818819    556.78647  0.011869755  0.010968717            2 
 3910000   0.63892759   -8.7846382    555.36437   0.01183641  0.010964672            2 
 3911000   0.63058774   -8.7948325    556.04102  0.011847801  0.010960634            3 
 3912000   0.62880339   -8.7634332    555.92959  0.011842399  0.010956594            4 
 3913000   0.63166282   -8.7994393    555.56369   0.01183158  0.010952555            5 
 3914000    0.6228407   -8.7659425    556.58371  0.011850275  0.010948521            3 
 3915000   0.61865727   -8.7876367    556.42751  0.011843923   0.01094449            3 
 3916000    0.6150713   -8.7979859    556.06414  0.011833166  0.010940454            3 
 3917000   0.61796142   -8.7760834    555.61474  0.011820584  0.010936422            2 
 3918000   0.62783877   -8.7963231    555.86723  0.011822937  0.010932391            4 
 3919000   0.60859404   -8.7798473    556.20179  0.011827035  0.010928362            3 
 3920000   0.61736388   -8.7825778    556.05552  0.011820908  0.010924332            4 
 3921000   0.62202737   -8.7730071    556.87338  0.011835275   0.01092031            3 
 3922000   0.62719267   -8.7592256    556.16952  0.011817302  0.010916293            2 
 3923000   0.60651602   -8.7728603    555.74221  0.011805213  0.010912272            1 
 3924000   0.62450126   -8.7892248    557.19962  0.011833155  0.010908255            3 
 3925000   0.61765857   -8.7712148     556.4866  0.011815002  0.010904236            2 
 3926000   0.61411251   -8.7813811    556.44884  0.011811191  0.010900216            3 
 3927000   0.62358272   -8.7949518    555.60838  0.011790349  0.010896196            4 
 3928000   0.62267766   -8.7966725    555.73133  0.011789955   0.01089218            4 
 3929000   0.63209114    -8.804893    557.41315  0.011822626  0.010888164            2 
 3930000   0.62668983   -8.7976708    555.55313  0.011780177  0.010884145            1 
 3931000   0.62704973   -8.8000311    556.01694  0.011787012  0.010880141            2 
 3932000     0.636805     -8.79616    557.54451  0.011816389  0.010876134            2 
 3933000   0.61430061    -8.790205     555.8244  0.011776939  0.010872133            2 
 3934000   0.62676028    -8.792159    556.29984  0.011784016   0.01086814            2 
 3935000   0.62581297   -8.7796139    556.07367  0.011776232  0.010864144            1 
 3936000   0.61775236   -8.7757075    555.77323  0.011766879  0.010860147            2 
 3937000   0.61551138   -8.8007549    556.30885  0.011775228   0.01085615            2 
 3938000    0.6273879   -8.7700431    556.62297  0.011778885  0.010852159            2 
 3939000   0.62536076   -8.7737369    556.04036  0.011763569  0.010848172            3 
 3940000   0.62541955   -8.7714753    555.68968  0.011753166  0.010844184            4 
 3941000   0.62431602   -8.8009362    555.33524  0.011742689  0.010840191            3 
 3942000   0.61996022   -8.7794514    555.25682  0.011738052  0.010836207            2 
 3943000   0.61846157   -8.7890842    555.57582  0.011741817  0.010832218            5 
 3944000   0.61862761   -8.7995258    555.60648  0.011739488  0.010828238            2 
 3945000   0.60339087   -8.7783088    555.46662  0.011733558  0.010824259            5 
 3946000   0.62180711   -8.7971547    555.34537  0.011728024  0.010820278            3 
 3947000   0.61864173   -8.7758021    556.98815  0.011759736  0.010816304            2 
 3948000   0.63046943   -8.7725829    556.05395  0.011737039  0.010812327            6 
 3949000   0.59572058   -8.7817681    557.47974  0.011764154  0.010808352            3 
 3950000    0.6261369   -8.7920149    555.87249  0.011727268  0.010804381            6 
 3951000   0.60648875   -8.7705317    556.35591  0.011734496  0.010800413            4 
 3952000   0.60427526   -8.7697504    556.11048  0.011726351  0.010796446            1 
 3953000   0.62106864   -8.7788298     555.8442  0.011717771  0.010792479            4 
 3954000   0.61505112   -8.7873346    557.07168  0.011740678  0.010788516            4 
 3955000   0.62445309   -8.7877337    555.82549  0.011711451   0.01078455            4 
 3956000   0.61565541    -8.791044    555.53773  0.011702429  0.010780585            2 
 3957000   0.63356489   -8.7833811    555.51381  0.011698968  0.010776627            2 
 3958000    0.6137899   -8.7908587    554.92298  0.011683573  0.010772663            2 
 3959000   0.61872765   -8.7966554    555.70188  0.011697017  0.010768703            7 
 3960000   0.62617038   -8.7862842    556.26303  0.011705872  0.010764745            2 
 3961000   0.60473071   -8.7927591    556.67317  0.011711545  0.010760793            3 
 3962000   0.61493703   -8.7831087    556.23609  0.011699396  0.010756837            3 
 3963000   0.62777221   -8.8082902    555.51937  0.011681373  0.010752887            5 
 3964000   0.62254813   -8.7882642    555.72155  0.011682676  0.010748942            4 
 3965000    0.6227047   -8.7895483    555.18486   0.01166845  0.010744995            3 
 3966000   0.61778909   -8.8044642    555.99118   0.01168245  0.010741045            3 
 3967000   0.61819918   -8.7878527    556.42787  0.011688679  0.010737099            3 
 3968000   0.61337223   -8.7784889    555.56858  0.011667687  0.010733152            3 
 3969000   0.61092584    -8.793593    556.26971  0.011679468  0.010729203            4 
 3970000   0.60369757   -8.7953458     556.7379  0.011686354  0.010725257            3 
 3971000   0.62629157   -8.7925461    556.01059  0.011668148  0.010721314            4 
 3972000   0.61926754   -8.8010233    556.58469  0.011677255  0.010717381            5 
 3973000    0.6130959   -8.7871912    556.05684  0.011663244  0.010713445            2 
 3974000   0.61208054   -8.7927961    556.01149  0.011659359  0.010709508            5 
 3975000   0.62902868   -8.7976825    556.69883  0.011670835  0.010705574            2 
 3976000   0.62216644   -8.7995929    556.29481  0.011659432  0.010701636            4 
 3977000   0.62137575   -8.8024438    556.36388  0.011657947  0.010697695            6 
 3978000   0.60317067     -8.82266    555.89304  0.011645153  0.010693752            4 
 3979000   0.61862892   -8.8112597    556.41587  0.011653176  0.010689817            3 
 3980000   0.60577553   -8.8079491    556.62459  0.011654619  0.010685878            1 
 3981000   0.61316988   -8.8002705    555.12585  0.011620318   0.01068194            2 
 3982000   0.60742071   -8.7878415    555.70184  0.011629454  0.010678001            3 
 3983000   0.60870585    -8.821805    555.37747  0.011619748  0.010674067            2 
 3984000   0.60892721   -8.8068185    555.47668  0.011618906  0.010670139            3 
 3985000   0.61637608   -8.7965751    556.30728   0.01163336  0.010666209            2 
 3986000   0.61942396   -8.7905335    556.70549  0.011638767  0.010662279            5 
 3987000   0.60151844   -8.7989978    555.51885  0.011611045   0.01065836            2 
 3988000   0.62315459   -8.8106364     555.6403  0.011610672  0.010654439            3 
 3989000   0.61131221   -8.8047656    555.23663  0.011599328  0.010650515            3 
 3990000   0.60455638   -8.8224842    555.96964   0.01161173  0.010646593            4 
 3991000    0.6071691   -8.7837082    555.68946   0.01160297  0.010642672            6 
 3992000   0.60808254   -8.8121543    554.90264  0.011583639  0.010638757            4 
 3993000   0.61127011   -8.8001131     555.9301  0.011602181  0.010634843            3 
 3994000   0.59878186   -8.8143526     555.6297  0.011593008  0.010630927            2 
 3995000   0.60281108   -8.7977794    554.98258  0.011576608  0.010627013            4 
 3996000   0.60641798   -8.8001086    556.42655  0.011603824  0.010623102            3 
 3997000   0.61111923   -8.8219371    554.84792  0.011568008  0.010619191            4 
 3998000   0.61610395   -8.8179858     556.2824  0.011595014  0.010615279            2 
 3999000   0.60235963   -8.7864965    554.72047  0.011559566  0.010611369            2 
 4000000   0.60849327   -8.8103958    554.57848  0.011553718  0.010607464            2 
 4001000   0.59692629    -8.802769    555.89703  0.011578294  0.010603567            5 
 4002000   0.60627135    -8.810498    556.18443  0.011581385  0.010599666            8 
 4003000   0.61388077   -8.8119173    555.40486  0.011562263  0.010595763            4 
 4004000   0.61435402   -8.8078407    555.80199   0.01156764  0.010591866            5 
 4005000   0.61033019    -8.817934    555.82153  0.011565159  0.010587972            3 
 4006000   0.61433819   -8.7892023    555.60175    0.0115577  0.010584081            7 
 4007000   0.61545473   -8.8165567    554.36279  0.011529049  0.010580189            1 
 4008000   0.61580474   -8.8072681    555.75656  0.011555151  0.010576295            2 
 4009000   0.60624447   -8.8165697    555.69899  0.011551072  0.010572408            8 
 4010000   0.61825299   -8.8023554    554.61632  0.011525692  0.010568526            6 
 4011000   0.61161978    -8.792665    555.53426   0.01154189  0.010564642            5 
 4012000   0.61475403   -8.8189853    554.71291  0.011521953  0.010560757            6 
 4013000    0.5967691   -8.8112009    555.66303  0.011538812  0.010556877            6 
 4014000   0.61097489   -8.8099459    554.85558  0.011519174  0.010552996            5 
 4015000   0.60935613   -8.8175609    555.25637  0.011524624   0.01054911            6 
 4016000   0.61887941   -8.8118914    555.14948  0.011519536  0.010545234            5 
 4017000    0.6134218    -8.824915    554.72912  0.011507948  0.010541358            4 
 4018000   0.61929313   -8.7965903    555.43111  0.011519643  0.010537482            7 
 4019000   0.60025262   -8.8396375    554.88375  0.011505427  0.010533608            6 
 4020000   0.59697628   -8.8229438    555.28688  0.011510922  0.010529736            3 
 4021000   0.59493219   -8.8177334    553.69733  0.011475117  0.010525859            3 
 4022000   0.61155247   -8.8227297    555.36286  0.011506772  0.010521988            4 
 4023000   0.60308911   -8.8103276    555.69199   0.01151073  0.010518121            2 
 4024000   0.61402621   -8.8354178    556.09045  0.011516121  0.010514255            5 
 4025000    0.6189773   -8.7892223    555.63963  0.011503926  0.010510392            5 
 4026000   0.60342964   -8.8239834    555.86793  0.011505794  0.010506532            3 
 4027000   0.59609897   -8.8079224    555.60503  0.011497497  0.010502674            6 
 4028000   0.61995175   -8.8119713    554.78936  0.011477767  0.010498814            3 
 4029000   0.60276469   -8.8265745    555.29706  0.011485419  0.010494962            3 
 4030000   0.60714715   -8.8173402    554.42923  0.011464624  0.010491105            5 
 4031000   0.60455048   -8.8273211    555.13099  0.011476288   0.01048725           10 
 4032000   0.59078606     -8.82767    555.73535  0.011485932  0.010483396            6 
 4033000   0.61623636   -8.8212616    556.19036  0.011492486   0.01047955            4 
 4034000   0.62579362   -8.8274966    555.63674  0.011478201  0.010475704            2 
 4035000   0.61723996   -8.8256894    554.91206  0.011460389  0.010471858            3 
 4036000   0.60677266   -8.8137878     554.5077  0.011449201  0.010468012            6 
 4037000   0.60029153   -8.8366538    555.41625   0.01146512   0.01046417            5 
 4038000   0.60413055   -8.8318407    554.23751  0.011437954  0.010460327            4 
 4039000   0.61030143   -8.8189036    555.11794  0.011453288  0.010456485            6 
 4040000   0.59849239    -8.818274    555.43439   0.01145698  0.010452646            4 
 4041000   0.60402576   -8.8155348    555.76089  0.011460878   0.01044881            2 
 4042000   0.59981922   -8.8244426    555.51971   0.01145307  0.010444971            3 
 4043000   0.59846023   -8.8081068    554.09429  0.011420857  0.010441138            6 
 4044000   0.60567992   -8.8253474    555.09855  0.011438727  0.010437308            4 
 4045000   0.59858554   -8.8161022    555.82193  0.011450802  0.010433477            4 
 4046000    0.6252784   -8.8265736    554.96624  0.011430348  0.010429649            4 
 4047000   0.61235872   -8.8221535    554.89691  0.011426096  0.010425819            3 
 4048000   0.60898941   -8.8213219    555.49174  0.011435518  0.010421992            4 
 4049000   0.59815368   -8.8279864     554.6448  0.011415263  0.010418162            3 
 4050000   0.60824879   -8.8149242    554.95573  0.011418842  0.010414333            4 
 4051000   0.60346098   -8.8217185    553.48812  0.011385833  0.010410506            6 
 4052000   0.61265218   -8.8211654    554.65098  0.011406939  0.010406681            6 
 4053000   0.60029649   -8.8262269     554.3549  0.011398037  0.010402862            2 
 4054000   0.60110864   -8.8254138    554.77151  0.011403789  0.010399042            2 
 4055000   0.58470051   -8.8338795    555.78695  0.011421844  0.010395224            7 
 4056000   0.60572431   -8.8170338    555.86831    0.0114207  0.010391412            5 
 4057000   0.59842872    -8.826431    553.82941  0.011376005  0.010387592            5 
 4058000   0.58723958   -8.8555279    554.71451  0.011391377  0.010383775            5 
 4059000   0.59235487   -8.8364512     555.3132  0.011400862  0.010379964            6 
 4060000   0.61758653   -8.8306052    555.23887  0.011396529  0.010376154            4 
 4061000   0.59883809   -8.8128113    554.38736  0.011376249  0.010372346            6 
 4062000   0.60790659    -8.835003     555.5189  0.011396662  0.010368538            4 
 4063000   0.60811464   -8.8156072    554.51978  0.011373365   0.01036473            4 
 4064000   0.60562166   -8.8424417    554.39293  0.011367965  0.010360924            4 
 4065000   0.60296728   -8.8318033    554.09978  0.011359159  0.010357123            3 
 4066000   0.60023538   -8.8549731    554.71688  0.011369013  0.010353321            4 
 4067000   0.58654155   -8.8417824    554.14721  0.011354545  0.010349526            4 
 4068000   0.59701133   -8.8193775      555.357  0.011376536  0.010345728            3 
 4069000   0.60915133   -8.8237868    554.27614  0.011351604  0.010341933            6 
 4070000   0.61201573   -8.8471899    554.40737  0.011351502  0.010338135            3 
 4071000   0.59380659   -8.8498071     553.8039  0.011336361  0.010334341            5 
 4072000    0.6181393   -8.8262502    554.61814   0.01135024   0.01033055            6 
 4073000   0.61477132   -8.7943116    555.71201  0.011369834   0.01032676            3 
 4074000   0.58612754   -8.8255229    554.25898  0.011337322  0.010322974            4 
 4075000   0.59916423   -8.8262492    554.92365  0.011348132  0.010319192           10 
 4076000   0.59976111   -8.8307112    553.98167  0.011326089  0.010315409            5 
 4077000   0.61301321   -8.8577074    554.22604  0.011328306  0.010311627            7 
 4078000   0.59277323   -8.8251949    554.72187   0.01133566  0.010307846            5 
 4079000   0.59487961   -8.8528277    555.41959  0.011347136  0.010304066            4 
 4080000   0.59689373   -8.8462264    554.35759  0.011322663  0.010300289            4 
 4081000   0.60433428   -8.8543363    555.04201  0.011333864  0.010296515            3 
 4082000   0.61379428   -8.8453083    555.25105  0.011335355  0.010292743            6 
 4083000   0.60474461   -8.8412756     554.2255  0.011311648   0.01028897            3 
 4084000   0.59508017   -8.8655949    554.99047  0.011324487  0.010285194            7 
 4085000   0.59121536    -8.834139    554.36404  0.011308936  0.010281423            5 
 4086000   0.59055792   -8.8514992    554.55287  0.011310019  0.010277653            6 
 4087000    0.6014241   -8.8439259    554.24641  0.011301003  0.010273886            7 
 4088000   0.61056733   -8.8541353    553.80632  0.011289268  0.010270119            3 
 4089000   0.60638609   -8.8313776    554.51351  0.011300919  0.010266354            3 
 4090000   0.59328588   -8.8585493    554.94434  0.011306934  0.010262591            7 
 4091000   0.58740292   -8.8453431    554.22324  0.011289482  0.010258826            4 
 4092000   0.59762188   -8.8438185    555.05755  0.011303714  0.010255065           11 
 4093000    0.6051204    -8.848868    555.18879  0.011303624  0.010251304            6 
 4094000   0.60840944   -8.8444236    555.03609  0.011297755  0.010247551            5 
 4095000   0.59783308   -8.8350352    554.65594   0.01128726  0.010243795            3 
 4096000   0.59552459   -8.8551077    553.59628  0.011262945   0.01024004            9 
 4097000   0.59240394   -8.8429188    554.23273  0.011273141  0.010236284            5 
 4098000   0.59072168   -8.8458882     553.8581  0.011262773  0.010232535            4 
 4099000   0.59592257   -8.8471112    555.38406  0.011291048  0.010228789            3 
 4100000   0.61151082   -8.8326645    554.90532  0.011278563  0.010225039            6 
 4101000    0.5934936    -8.857757      555.046  0.011278672  0.010221291            7 
 4102000    0.5909123   -8.8447474    554.45879  0.011263993  0.010217546            9 
 4103000    0.5992929   -8.8497051    554.62392  0.011264601  0.010213805            4 
 4104000   0.60211535   -8.8361552    554.19974  0.011253244  0.010210064            7 
 4105000    0.5993026   -8.8468065    555.27881  0.011272408  0.010206326            5 
 4106000   0.58664247    -8.854745    554.54701   0.01125481  0.010202586            4 
 4107000   0.58488134    -8.857962    553.17392  0.011224209  0.010198846            8 
 4108000   0.59860988   -8.8546558    553.80707  0.011234321  0.010195111            3 
 4109000   0.57784308    -8.855739    555.03103  0.011256409  0.010191376            4 
 4110000   0.58381128   -8.8557209    553.97942  0.011232348  0.010187647            5 
 4111000   0.57659146   -8.8444163    554.44952  0.011239145  0.010183915            3 
 4112000   0.60139824   -8.8599261    555.09702  0.011249534  0.010180186            3 
 4113000   0.58351476   -8.8617982    553.94471  0.011223452  0.010176455            6 
 4114000   0.58714291   -8.8411031    554.05908  0.011223041  0.010172731            3 
 4115000    0.6008723   -8.8269241    555.08742  0.011241138  0.010169009            2 
 4116000   0.60558015   -8.8395675    555.23661  0.011241428  0.010165292            4 
 4117000   0.58352118   -8.8525992    555.17597   0.01123747  0.010161575            4 
 4118000   0.59426148   -8.8479803    554.74797   0.01122608  0.010157858            5 
 4119000   0.59378013   -8.8421365    554.22865  0.011212848  0.010154139            7 
 4120000   0.59931289   -8.8722871    554.14467  0.011208428  0.010150427            5 
 4121000   0.60256349   -8.8255331     554.9467  0.011221926  0.010146715            4 
 4122000   0.58530208   -8.8436268    554.07504  0.011201582  0.010143005            4 
 4123000   0.61172026   -8.8498542    554.68972  0.011211289  0.010139291            5 
 4124000   0.58766921    -8.865736    554.30327  0.011200761  0.010135583            3 
 4125000   0.59188266   -8.8556537    554.32224  0.011198429  0.010131872            5 
 4126000   0.58547331    -8.851344    554.62336  0.011201797  0.010128164            5 
 4127000   0.59611652   -8.8462892    552.80175    0.0111623  0.010124462            4 
 4128000   0.60360212   -8.8527075    554.14082  0.011186628  0.010120757            4 
 4129000   0.58283914    -8.848763    553.69166  0.011174854  0.010117054            5 
 4130000   0.59301596   -8.8476492    554.51242  0.011188709  0.010113354            4 
 4131000   0.57871204   -8.8423893    554.10689   0.01117782  0.010109654            3 
 4132000    0.5977542   -8.8640778    554.02794  0.011173523  0.010105956            2 
 4133000    0.5811296   -8.8346249    553.96817  0.011169614  0.010102262            2 
 4134000    0.5810219   -8.8466871    555.50024  0.011197796  0.010098564            3 
 4135000   0.58713368    -8.848436    554.38547  0.011172621  0.010094869            5 
 4136000   0.59355425   -8.8536434     554.0698   0.01116356  0.010091179            4 
 4137000    0.5817486   -8.8566083    553.78173  0.011155059   0.01008749           10 
 4138000   0.58077534    -8.849804    553.96034   0.01115596  0.010083802            5 
 4139000   0.58374456   -8.8501653    553.69351  0.011147892  0.010080118            4 
 4140000   0.58903481   -8.8367666     555.2189  0.011175904  0.010076438            3 
 4141000   0.57750741   -8.8495458    553.97581  0.011148189  0.010072758            4 
 4142000   0.59980871   -8.8620571    553.85283  0.011143023  0.010069077            3 
 4143000   0.59130484    -8.855475    554.08003  0.011144904  0.010065401            4 
 4144000   0.58599544   -8.8533483    553.86803  0.011137951  0.010061726            4 
 4145000   0.58402497   -8.8530599    554.25839  0.011143112  0.010058056            2 
 4146000   0.57658082   -8.8555599     553.8796  0.011132811  0.010054382            2 
 4147000   0.58997569   -8.8561474     553.9522  0.011131585  0.010050714            2 
 4148000   0.59013254   -8.8761414    553.98543  0.011129569  0.010047044            3 
 4149000   0.59081459   -8.8697142     554.6384  0.011140002  0.010043375            5 
 4150000   0.57889843   -8.8627185    553.84291  0.011121344  0.010039711            5 
 4151000   0.59900061    -8.856805    554.22911  0.011126418  0.010036044            6 
 4152000   0.57792548   -8.8492981    554.45816  0.011128335  0.010032383            6 
 4153000   0.59044964   -8.8736494    554.16971  0.011119867  0.010028725            7 
 4154000   0.57931231   -8.8312273    554.08185  0.011115428  0.010025068            3 
 4155000   0.59437454   -8.8624398     553.2086  0.011095239  0.010021408            4 
 4156000   0.59007119   -8.8724713    555.01651   0.01112882   0.01001775            4 
 4157000   0.58558327   -8.8632819    554.35387  0.011112859  0.010014097            8 
 4158000   0.57875434   -8.8659334    554.27809  0.011108668  0.010010444            6 
 4159000   0.58946679   -8.8642638    553.90057  0.011098432  0.010006789            2 
 4160000   0.58607018   -8.8472659    554.63789  0.011110535  0.010003132            6 
 4161000   0.59134543   -8.8669459    554.20277   0.01109915 0.0099994806            5 
 4162000    0.5745711   -8.8716153    554.13118   0.01109505 0.0099958319            7 
 4163000   0.58822526   -8.8569751    554.23442  0.011094451 0.0099921852            6 
 4164000   0.57520252   -8.8570646    553.87239  0.011084542  0.009988539            5 
 4165000   0.59150838   -8.8487462    554.28823  0.011090201 0.0099848915            3 
 4166000   0.59397168    -8.864897    554.30147  0.011087803 0.0099812473            5 
 4167000   0.57977129   -8.8685453    553.76045  0.011074323 0.0099776061            4 
 4168000   0.56555197   -8.8781853    553.45012  0.011065461 0.0099739637            5 
 4169000   0.58319726   -8.8796229    554.51713  0.011084135 0.0099703255            6 
 4170000   0.58696865   -8.8540252    554.37154  0.011078568 0.0099666906            5 
 4171000   0.58681251   -8.8522183    554.28786   0.01107424 0.0099630556            4 
 4172000   0.56665044     -8.84424    555.16874  0.011089181 0.0099594248            4 
 4173000   0.57559864   -8.8691059    554.75833  0.011078327 0.0099557937            4 
 4174000   0.58381985   -8.8652811    553.79333  0.011056407 0.0099521656            5 
 4175000   0.58025939   -8.8263077      554.217  0.011062216 0.0099485414            5 
 4176000   0.58438639   -8.8861014    553.66277  0.011048507 0.0099449175            4 
 4177000   0.58187543   -8.8694151    554.12541  0.011055092  0.009941294            4 
 4178000   0.57819987   -8.8765486    553.60715  0.011042108 0.0099376743            2 
 4179000   0.58146254   -8.8619374    553.15009  0.011030352 0.0099340553            4 
 4180000   0.57525978   -8.8728216    554.12273  0.011047104 0.0099304389            2 
 4181000   0.58811496   -8.8695239    554.01405  0.011042296 0.0099268266            3 
 4182000   0.57388446   -8.8554898    553.23165  0.011024065 0.0099232128            8 
 4183000   0.57655987    -8.853069    554.43568  0.011045416 0.0099196025            7 
 4184000   0.58245085   -8.8662286    555.35589  0.011061104 0.0099159919            4 
 4185000    0.5751022   -8.8680624    553.62089  0.011023913 0.0099123821            3 
 4186000    0.5730534   -8.8700972    554.49084  0.011038598 0.0099087763            4 
 4187000   0.57682567   -8.8723915    554.94469  0.011044994 0.0099051689            3 
 4188000   0.59481814   -8.8670112    554.28341  0.011029199 0.0099015662            4 
 4189000   0.57182163   -8.8823144    553.61862  0.011013341  0.009897964            6 
 4190000   0.57530718   -8.8665729    553.91352  0.011016578 0.0098943607            3 
 4191000   0.58676568    -8.870855    554.19216  0.011019489  0.009890764            6 
 4192000    0.5963013   -8.8678721    554.13038  0.011015633 0.0098871676            7 
 4193000   0.57874331   -8.8746119    554.53714   0.01102109 0.0098835704            6 
 4194000   0.57293464   -8.8457376    553.65949  0.011001023 0.0098799723            5 
 4195000   0.57590459   -8.8663628    553.86014  0.011002387 0.0098763796            4 
 4196000   0.57396261   -8.8528559    554.12668  0.011005058 0.0098727888            5 
 4197000   0.59881518   -8.8561797    554.27681  0.011005417 0.0098692053            5 
 4198000   0.57589347   -8.8833647    553.40411  0.010985471 0.0098656116            5 
 4199000   0.59501046   -8.8483638    553.43469  0.010983462 0.0098620222            3 
 4200000   0.58491658   -8.8495041    554.10221  0.010994091 0.0098584351            8 
 4201000   0.56544126   -8.8844754    553.62106   0.01098193  0.009854848            8 
 4202000    0.5882001   -8.8704817    554.79391  0.011002576 0.0098512628            5 
 4203000    0.5738182   -8.8760535    554.36602  0.010991475  0.009847684            6 
 4204000    0.5736012   -8.8669717    553.54841  0.010972653 0.0098441014            7 
 4205000   0.56151948   -8.8682749    554.03275  0.010979642 0.0098405229            7 
 4206000   0.57924971     -8.87255    553.34009  0.010963308 0.0098369409            9 
 4207000   0.57270725   -8.8476462    553.93107  0.010972409 0.0098333682            7 
 4208000   0.58307979   -8.8760544    554.62601  0.010983563 0.0098297936            4 
 4209000   0.58270589   -8.8685136    554.71359  0.010982688 0.0098262212            7 
 4210000   0.57051066   -8.8576412    554.72947  0.010980393 0.0098226476            4 
 4211000   0.57017552   -8.8784527    553.20002  0.010947519 0.0098190746            6 
 4212000   0.57851359   -8.8688599    554.26606  0.010966011 0.0098155048            7 
 4213000   0.57294741   -8.8765972    553.54294  0.010949105 0.0098119369            5 
 4214000   0.57710387   -8.8739455    553.45351  0.010944738 0.0098083696            4 
 4215000   0.59341569   -8.8684904    553.98221  0.010952594 0.0098048062           10 
 4216000   0.55802739   -8.8879863    554.01618  0.010950668 0.0098012402            8 
 4217000   0.59364767   -8.8703983    553.62458  0.010940332 0.0097976815            7 
 4218000   0.57578223   -8.8739058    553.11715  0.010927714 0.0097941223            7 
 4219000   0.56587338   -8.8895107    552.80869  0.010919031 0.0097905632            7 
 4220000   0.57997224   -8.8634499    553.49716  0.010930039 0.0097870061            7 
 4221000   0.56933767    -8.881587    553.83067  0.010934034 0.0097834503           10 
 4222000   0.57214788    -8.892068    554.84149  0.010951395 0.0097798996            5 
 4223000   0.57638474   -8.8647717    553.99975  0.010932192 0.0097763451            9 
 4224000   0.57421676   -8.8719838    553.04696  0.010910806 0.0097727952            5 
 4225000   0.56997163   -8.8781687    553.93527  0.010925745 0.0097692503            6 
 4226000   0.57938293   -8.8735556    552.75075  0.010899802 0.0097656997            7 
 4227000   0.57692087   -8.8758752    553.44197   0.01091085  0.009762156            6 
 4228000   0.56686436   -8.8640771    554.20218  0.010923253 0.0097586161            5 
 4229000   0.58307192   -8.8674951    554.30241  0.010922645 0.0097550728            6 
 4230000   0.57947929   -8.8698751     553.9147  0.010912425 0.0097515307            3 
 4231000   0.58280795   -8.8751779    553.92634  0.010910075 0.0097479939            7 
 4232000    0.5727928   -8.8712832    554.69848  0.010922702 0.0097444592            8 
 4233000   0.57114336   -8.8952738    553.95925  0.010905568 0.0097409213            9 
 4234000   0.56853372   -8.8739072    553.44008  0.010892774 0.0097373864            2 
 4235000   0.57747803   -8.8609423    554.21811  0.010905512 0.0097338557            5 
 4236000   0.57462763   -8.8756903    554.02505  0.010899139 0.0097303237            5 
 4237000   0.57526586   -8.8707856    552.77105  0.010871903 0.0097267901            7 
 4238000   0.55835602    -8.876522    553.23417  0.010878444 0.0097232548            7 
 4239000   0.57536462   -8.8959061    554.08421  0.010892589 0.0097197307            5 
 4240000   0.57592685   -8.8760593    553.68532   0.01088218 0.0097162061            5 
 4241000   0.57165263   -8.8901714    553.22163  0.010870503 0.0097126851            5 
 4242000   0.58404903   -8.8915632    552.64054  0.010856525 0.0097091623            9 
 4243000    0.5641822    -8.887887    553.99602  0.010880588 0.0097056377            4 
 4244000   0.55046048   -8.9024324    553.18488  0.010862097 0.0097021198            9 
 4245000   0.56709344   -8.8785702    554.82012   0.01089164 0.0096985994            4 
 4246000   0.58810447    -8.893958    553.87719  0.010870568 0.0096950816            7 
 4247000   0.56851704   -8.8960569    553.72225  0.010864968 0.0096915643            8 
 4248000   0.58425078   -8.8826805     553.7128  0.010862225 0.0096880513            5 
 4249000   0.56533073   -8.8892521    552.94006  0.010844514 0.0096845386            5 
 4250000    0.5711409   -8.8818983    552.91668  0.010841504 0.0096810289            7 
 4251000   0.56428727   -8.8972512    552.96409  0.010839883 0.0096775172            8 
 4252000   0.57924791   -8.8787571    552.87071  0.010835503 0.0096740048            6 
 4253000   0.58069481   -8.8940899    553.98391  0.010854767 0.0096704941            3 
 4254000    0.5554828   -8.8805165    553.35542  0.010839904 0.0096669912            3 
 4255000   0.56316245   -8.8736913    553.87897   0.01084761 0.0096634854            4 
 4256000    0.5662959   -8.8880674    553.56587  0.010838931 0.0096599766            7 
 4257000   0.57618952    -8.888528    553.10676  0.010827397 0.0096564742            6 
 4258000    0.5778423   -8.8904375    553.27474  0.010828142  0.009652973            6 
 4259000   0.57214106      -8.8876    553.53035  0.010830601 0.0096494721            6 
 4260000   0.55842739   -8.8864785    552.57782  0.010809425 0.0096459744            5 
 4261000   0.57677297   -8.8853357    553.80641  0.010830916  0.009642478            6 
 4262000   0.56127224   -8.9051642    553.21259  0.010816764 0.0096389837            3 
 4263000   0.55914379   -8.8816345    552.70574  0.010804319 0.0096354915            8 
 4264000   0.55868885   -8.8850934    552.84433  0.010804494 0.0096320026            8 
 4265000   0.58221841   -8.8927954    553.49974  0.010814766 0.0096285166            6 
 4266000   0.56936023   -8.8784078    552.96298  0.010801746 0.0096250286            9 
 4267000   0.56111936   -8.8935666    554.00375   0.01081954 0.0096215416            6 
 4268000   0.57619897   -8.8833616    554.16855  0.010820223 0.0096180608            4 
 4269000   0.58405997   -8.8780019    553.95558  0.010813531 0.0096145785            3 
 4270000   0.57099554   -8.9098831    552.49159  0.010782428 0.0096110972            5 
 4271000   0.55907652   -8.8814541    552.93069  0.010788471 0.0096076186            6 
 4272000   0.56175645   -8.8871653    553.31596  0.010793461 0.0096041416            5 
 4273000   0.56383821   -8.8983675    553.98753  0.010804032 0.0096006644            5 
 4274000   0.56843406   -8.8950658    553.16494  0.010785465 0.0095971935            6 
 4275000   0.57330708   -8.8772036    553.00114  0.010779749 0.0095937203            6 
 4276000    0.5646665   -8.8875006     553.2104  0.010781307 0.0095902456            5 
 4277000    0.5692056   -8.8797693    553.84508  0.010791152 0.0095867753            4 
 4278000   0.56798022   -8.8892802    553.56438  0.010783162 0.0095833094            4 
 4279000   0.55777895   -8.8891007    553.06441  0.010770905 0.0095798421            7 
 4280000   0.55767104   -8.8809948    553.09842   0.01076905 0.0095763789            4 
 4281000   0.57597673   -8.8846625    553.90494  0.010782234 0.0095729186            3 
 4282000   0.57084658   -8.8950267    552.65155  0.010755324 0.0095694592            3 
 4283000   0.56539312   -8.8984212    552.45274  0.010748944  0.009565995            5 
 4284000    0.5631287   -8.9015848    552.80357   0.01075326  0.009562538            5 
 4285000    0.5736237   -8.8979156    553.53205  0.010764917 0.0095590801            1 
 4286000   0.56467695   -8.8876752     552.8972  0.010750062 0.0095556208            4 
 4287000   0.55902826   -8.8902738    552.49598  0.010739755 0.0095521664            7 
 4288000   0.56655667   -8.9097038    553.83352  0.010763245 0.0095487128            3 
 4289000   0.55153132   -8.8919755    552.78786  0.010740418 0.0095452633            6 
 4290000   0.56657509   -8.8883055    553.36633  0.010749152 0.0095418102            4 
 4291000   0.56542705   -8.8902764    553.74659  0.010754032 0.0095383633            7 
 4292000   0.56323001   -8.8852588    553.51347     0.010747  0.009534917            5 
 4293000   0.57877311   -8.8744621    552.41125    0.0107231 0.0095314696            3 
 4294000   0.55702546   -8.8981558    553.36697  0.010739151 0.0095280272            6 
 4295000    0.5631327   -8.9017384    553.45348  0.010738329 0.0095245864            3 
 4296000   0.56956692    -8.880103    553.44283  0.010735623 0.0095211475            2 
 4297000   0.56768551   -8.9148135    552.54959  0.010715802 0.0095177068            2 
 4298000   0.55965859   -8.9122728     553.4615  0.010730989 0.0095142688            6 
 4299000   0.56634271   -8.8924006    553.64993  0.010732146 0.0095108313            4 
 4300000   0.55840063   -8.8913046    552.27259  0.010702957 0.0095073964            5 
 4301000   0.56322969   -8.8888378    552.60761   0.01070696 0.0095039644            3 
 4302000   0.57121671   -8.8971346    553.20186  0.010715982 0.0095005279            6 
 4303000   0.56612743   -8.9091799     552.9522  0.010708657 0.0094970921            5 
 4304000   0.56838173   -8.9084593    553.51627   0.01071709 0.0094936627            5 
 4305000   0.56041662   -8.9005141    552.61392  0.010697134 0.0094902315            4 
 4306000   0.56193332    -8.898579    552.75569  0.010697393 0.0094868054            2 
 4307000   0.55973666   -8.8949811    553.38733   0.01070713 0.0094833765            7 
 4308000   0.56262472   -8.9007276    553.75742  0.010711804 0.0094799488            8 
 4309000   0.56378781    -8.909108    552.63436  0.010687599 0.0094765272            3 
 4310000   0.55228982   -8.9072924    552.87604  0.010689792 0.0094731052            4 
 4311000   0.55800232   -8.8941452    552.94744  0.010688692 0.0094696867            4 
 4312000   0.55320492   -8.9112409    553.06301  0.010688447 0.0094662672            9 
 4313000   0.54799215   -8.8993353    553.99914  0.010704056 0.0094628501            2 
 4314000   0.54475297   -8.9176209    552.10213  0.010664931 0.0094594377            6 
 4315000   0.56278746   -8.9357125    552.86893  0.010677268 0.0094560227            3 
 4316000   0.55828434   -8.8959927     553.3502  0.010684086 0.0094526157            5 
 4317000   0.56094752   -8.8943414    552.93024  0.010673505 0.0094492077            4 
 4318000   0.57117026    -8.898738    552.92507  0.010670933 0.0094458008            9 
 4319000   0.55659356    -8.895975    553.36265  0.010676905 0.0094423934            4 
 4320000   0.55893662   -8.9134466    552.67753  0.010661218 0.0094389884            4 
 4321000   0.55876174   -8.9000035    552.06494  0.010646936 0.0094355845            3 
 4322000   0.56963613   -8.9138961    552.04925   0.01064417 0.0094321819            7 
 4323000   0.55058838   -8.9205876    552.42026   0.01064886 0.0094287786            5 
 4324000   0.56213248   -8.9312963    552.40838  0.010646168 0.0094253766            5 
 4325000   0.55504376   -8.9145857    552.35791  0.010642734 0.0094219732            4 
 4326000   0.55972083   -8.9180685    552.31185  0.010639387 0.0094185766            6 
 4327000   0.57497094   -8.8941797    553.04877   0.01065112 0.0094151769            4 
 4328000   0.55868516   -8.9066186    553.27263   0.01065297 0.0094117792            9 
 4329000   0.54909836    -8.916188    552.68886  0.010639271  0.009408384            7 
 4330000   0.56555203   -8.8958523    553.55509  0.010653485 0.0094049929            6 
 4331000   0.56796081   -8.8991007    553.05022  0.010641311 0.0094016019            5 
 4332000   0.55761812   -8.9177072    553.37431  0.010645089 0.0093982137            4 
 4333000    0.5614402   -8.9143219    552.33523  0.010622649 0.0093948277            9 
 4334000   0.56835222   -8.8850714    552.73387  0.010627862 0.0093914431            6 
 4335000   0.56277322   -8.9089843    551.64752  0.010604528 0.0093880596            3 
 4336000   0.55533907   -8.9243223     552.8208  0.010624631 0.0093846781            4 
 4337000   0.56418532   -8.9036963    552.44197  0.010614902 0.0093812975            6 
 4338000   0.57528057   -8.9025103    552.43099  0.010612244 0.0093779171            4 
 4339000   0.55795881    -8.931232    552.31674  0.010607604 0.0093745351            6 
 4340000   0.56154054    -8.925093    551.75894   0.01059445 0.0093711555            5 
 4341000   0.55814654   -8.9109599     552.5217  0.010606652 0.0093677768            4 
 4342000   0.55571078   -8.8944527    553.68739  0.010626581  0.009364406            3 
 4343000   0.55410589   -8.9147173    553.70927  0.010624554  0.009361037            6 
 4344000   0.55342457   -8.9262518    552.83711  0.010605377 0.0093576656            4 
 4345000   0.56848458   -8.9170284    553.45538  0.010614794 0.0093542975            4 
 4346000   0.55254588   -8.9121365    552.17156  0.010587735 0.0093509251            3 
 4347000    0.5500419   -8.9116815    552.05346  0.010583035 0.0093475579            9 
 4348000   0.55549189    -8.910861    552.56825  0.010590468 0.0093441914            6 
 4349000   0.56241047   -8.9024992     552.6557  0.010589708 0.0093408251            6 
 4350000   0.53612417   -8.9205784    553.18273   0.01059737 0.0093374611            2 
 4351000   0.55499499   -8.9040405    553.96244  0.010609868 0.0093341036            7 
 4352000   0.54554165   -8.9195915      552.492  0.010579274 0.0093307466            2 
 4353000   0.56500291   -8.9084592    552.77578  0.010582276 0.0093273882            6 
 4354000   0.55543686   -8.9132798    552.06861  0.010566311 0.0093240321            8 
 4355000   0.54378879   -8.9102266    552.97884  0.010581302 0.0093206785            5 
 4356000   0.54637945   -8.9106983    552.82538  0.010575937  0.009317325            3 
 4357000   0.55642055   -8.9014084    552.66383   0.01057042 0.0093139748            8 
 4358000    0.5513417   -8.9088577    552.56614  0.010566126 0.0093106195            6 
 4359000   0.56140375   -8.9095517    553.02413  0.010572458 0.0093072722            6 
 4360000   0.56519563   -8.9209861    552.17997  0.010553899   0.00930392            3 
 4361000   0.55727855   -8.8889971    552.33105  0.010554365 0.0093005731            3 
 4362000   0.55150193   -8.9256394    553.38519  0.010572084 0.0092972313            3 
 4363000   0.55206882   -8.9235377    552.38756  0.010550607  0.009293887            9 
 4364000   0.55459956   -8.9031679    552.98826   0.01055966 0.0092905446            7 
 4365000   0.54658687   -8.9271708    551.61152  0.010530957 0.0092872043            3 
 4366000   0.54432975   -8.9084446    551.27876  0.010522194  0.009283864            4 
 4367000   0.56762526   -8.9099297     552.6722  0.010546374 0.0092805246            3 
 4368000   0.55267293   -8.9231507    552.62243   0.01054301 0.0092771909            5 
 4369000   0.54779422   -8.9178999    552.70267  0.010542128 0.0092738569            5 
 4370000   0.55937782   -8.9264532    552.18502  0.010529844 0.0092705226            5 
 4371000   0.55148339    -8.924289    552.31454  0.010529904 0.0092671888            3 
 4372000   0.54376624    -8.923238    553.40488  0.010548278 0.0092638567            6 
 4373000   0.54710611   -8.9249893    552.46407  0.010527938 0.0092605324            5 
 4374000   0.55872575   -8.9274393    552.42548  0.010524796 0.0092572067            6 
 4375000   0.54442872   -8.9080438    552.45269  0.010522908   0.00925388            5 
 4376000   0.55231564   -8.9294908    552.76592  0.010526469 0.0092505557            5 
 4377000   0.54369847   -8.9219367    552.79006  0.010524523 0.0092472309            2 
 4378000   0.56597864   -8.9270708    552.39289  0.010514559 0.0092439089            5 
 4379000   0.55513583   -8.9195176    553.14134  0.010526401 0.0092405876            5 
 4380000   0.55663277   -8.9194833    552.28912  0.010507784 0.0092372711            3 
 4381000   0.55133851   -8.9108784    552.53642  0.010510089 0.0092339541            3 
 4382000   0.54661484   -8.9015288    553.01009  0.010516699 0.0092306423            4 
 4383000   0.54980199   -8.9179008     552.9132  0.010512457 0.0092273282            4 
 4384000   0.54569792   -8.9331562    552.29322  0.010498274 0.0092240148            3 
 4385000   0.55463567   -8.9282368    551.56227  0.010481989  0.009220706            4 
 4386000   0.54732904   -8.9257313    552.73703  0.010501919  0.009217398            3 
 4387000   0.55039942   -8.9121217    552.41158  0.010493344  0.009214091            3 
 4388000    0.5573554    -8.912561    552.52353  0.010493078 0.0092107835            8 
 4389000   0.55088981   -8.9288448    551.31126   0.01046767 0.0092074795            4 
 4390000   0.55353339    -8.915318    553.10837    0.0104994 0.0092041769            5 
 4391000   0.53894132   -8.9238267    551.24144  0.010461577 0.0092008714            6 
 4392000   0.53087088   -8.9104322    551.10071  0.010456525 0.0091975673            4 
 4393000   0.55012783   -8.9282335    552.86905   0.01048769 0.0091942698            6 
 4394000   0.55024763   -8.9229786    552.61144  0.010480417 0.0091909679            4 
 4395000   0.54772554   -8.9306896    553.61648  0.010497089  0.009187667            4 
 4396000   0.55275178   -8.9238398    552.67843  0.010476919 0.0091843708            6 
 4397000   0.54614435    -8.930616    551.58794  0.010453869 0.0091810732            8 
 4398000   0.55559719   -8.9202051     552.5532  0.010469782 0.0091777785            6 
 4399000   0.53876032   -8.9303594    551.91677  0.010455345 0.0091744826            4 
 4400000   0.54898417    -8.923125    552.01655  0.010454859 0.0091711919           12 
 4401000   0.53461788   -8.9286563    552.47959  0.010461251 0.0091679058            6 
 4402000    0.5408237     -8.93003    552.15819   0.01045279 0.0091646186            5 
 4403000   0.55350042   -8.9307206    552.14689  0.010450202 0.0091613336            5 
 4404000   0.56409968   -8.9416616    552.07331  0.010446437 0.0091580501            5 
 4405000   0.52457443    -8.945829    552.58461  0.010453738 0.0091547675            6 
 4406000   0.53734489   -8.9178719    552.53034  0.010450339 0.0091514895            4 
 4407000    0.5460404   -8.9295119    551.65613  0.010431437 0.0091482101            5 
 4408000   0.55772167   -8.9143657    552.52876  0.010445568 0.0091449289            4 
 4409000   0.55304927   -8.9426548    551.24876  0.010419006 0.0091416535            5 
 4410000   0.54495353   -8.9351458    551.65673  0.010424352 0.0091383785            7 
 4411000   0.54983791   -8.9092217    551.18361  0.010413051 0.0091351048            8 
 4412000   0.52765461    -8.935469    552.74521  0.010440186 0.0091318329            5 
 4413000   0.54958415   -8.9212901    553.09289  0.010444386 0.0091285632            5 
 4414000   0.54207077   -8.9154674    552.20604  0.010425276 0.0091252918            7 
 4415000   0.54016221   -8.9264118    551.67581  0.010412907 0.0091220234            3 
 4416000   0.53924164   -8.9355025    552.25804  0.010421536 0.0091187554            3 
 4417000   0.54076713    -8.937515       551.94  0.010413176   0.00911549            5 
 4418000   0.54465024   -8.9264488    551.62343  0.010404848 0.0091122283            6 
 4419000   0.54605294   -8.9118738    551.90271   0.01040776 0.0091089642            5 
 4420000   0.54263357   -8.9300354    551.75802  0.010402678 0.0091057019            6 
 4421000    0.5381987   -8.9542296    552.12276    0.0104072 0.0091024438            7 
 4422000   0.54002621   -8.9455781    552.11519  0.010404704 0.0090991846            5 
 4423000   0.54717006   -8.9229215    552.25473   0.01040498 0.0090959262            8 
 4424000   0.53585284    -8.921752    551.12892  0.010381422 0.0090926742            3 
 4425000   0.54507597   -8.9230238    552.29614  0.010401057 0.0090894192            5 
 4426000     0.544238   -8.9565849    551.48472   0.01038343 0.0090861672            6 
 4427000   0.53639975   -8.9457065    551.57299  0.010382746 0.0090829165            6 
 4428000   0.52763796   -8.9305609    552.01527  0.010388725 0.0090796643            4 
 4429000   0.53194441   -8.9257206    552.35009  0.010392679 0.0090764153            6 
 4430000   0.54766635   -8.9209644    551.78993  0.010379795 0.0090731679            5 
 4431000   0.54196871   -8.9262543    552.96678  0.010399586 0.0090699224           11 
 4432000   0.53966965   -8.9352516    552.81722  0.010394427 0.0090666823            8 
 4433000   0.53477241   -8.9197821    551.37493   0.01036497 0.0090634384            8 
 4434000   0.53867256   -8.9390686    550.89521  0.010353616 0.0090601987            7 
 4435000   0.53870942   -8.9160164    551.45349  0.010361772 0.0090569616            7 
 4436000   0.54096077   -8.9377916    551.34198  0.010357341 0.0090537255            2 
 4437000   0.55032825   -8.9254421    551.77186   0.01036308 0.0090504881            7 
 4438000     0.554673   -8.9471246    551.71067  0.010359596 0.0090472525            6 
 4439000   0.53680054   -8.9264121    552.90215   0.01037963 0.0090440233            6 
 4440000   0.52689901   -8.9436078     551.6254   0.01035333 0.0090407889            5 
 4441000   0.53582196    -8.948787    552.30455  0.010363742 0.0090375563            7 
 4442000   0.54563949   -8.9242785    552.00975  0.010355879 0.0090343297            6 
 4443000   0.54291374   -8.9462086    551.29765  0.010340191 0.0090311018            4 
 4444000   0.54880718   -8.9245099    551.34531  0.010338758 0.0090278799            6 
 4445000   0.53730599   -8.9504553    552.32962  0.010354886 0.0090246537            4 
 4446000   0.52983553   -8.9542931    552.16632  0.010349496 0.0090214303            7 
 4447000   0.53255572   -8.9480338    551.51524  0.010334968 0.0090182049            8 
 4448000   0.54615024   -8.9608503    551.99003   0.01034154 0.0090149813            5 
 4449000   0.54078173   -8.9468002    552.28158  0.010344676  0.009011763            7 
 4450000    0.5350515   -8.9558225    552.70771  0.010350332 0.0090085469            4 
 4451000   0.53358886   -8.9299324    551.31947  0.010322015 0.0090053297            6 
 4452000   0.54859321   -8.9313429    551.96378  0.010331757  0.009002113            4 
 4453000     0.541537   -8.9517142    551.83022  0.010326937 0.0089989003            5 
 4454000   0.54391858   -8.9328501    551.93969  0.010326667 0.0089956871            6 
 4455000    0.5295123    -8.934191    552.13763  0.010328051 0.0089924742            2 
 4456000   0.52929852   -8.9572204    552.55314  0.010333504 0.0089892636            6 
 4457000    0.5435187   -8.9299607    551.97767  0.010320426 0.0089860544            8 
 4458000   0.53798551   -8.9482961    550.70706   0.01029436 0.0089828454            4 
 4459000   0.53018361    -8.954323    552.24956  0.010320878 0.0089796394            3 
 4460000   0.54007047   -8.9380384    551.55251   0.01030554 0.0089764332            7 
 4461000   0.54530571   -8.9382182      552.046  0.010312449 0.0089732328            4 
 4462000   0.53421502   -8.9495241    551.59235  0.010301665 0.0089700281            2 
 4463000    0.5415495   -8.9274746    552.07052  0.010308285 0.0089668301            3 
 4464000   0.53533231   -8.9611058    552.72844  0.010318258 0.0089636333            3 
 4465000   0.53204858   -8.9420531    552.71416   0.01031568 0.0089604371            3 
 4466000   0.53314036   -8.9555973    551.92168  0.010298583 0.0089572415            8 
 4467000    0.5342087   -8.9525072    552.04622  0.010298601 0.0089540477            3 
 4468000   0.53084739   -8.9372548    551.54627  0.010286972 0.0089508572            5 
 4469000   0.53111929   -8.9473134    551.05461  0.010275502 0.0089476614            6 
 4470000   0.52716018    -8.924305    551.77169  0.010286571 0.0089444736            3 
 4471000   0.54042027   -8.9469539    551.32707  0.010275984 0.0089412869            8 
 4472000   0.55333367   -8.9301096    552.31936  0.010292176 0.0089380992            2 
 4473000   0.54246249   -8.9581143    551.47872  0.010274214 0.0089349155           14 
 4474000   0.53873091    -8.948611    551.76481  0.010277246 0.0089317343            7 
 4475000   0.53145191   -8.9473254    551.73409  0.010274378  0.008928553            4 
 4476000   0.55193786   -8.9306792    551.25259  0.010263118 0.0089253728           12 
 4477000   0.54648803   -8.9317493    552.30072  0.010280335  0.008922194            5 
 4478000   0.54545518   -8.9424995     551.9952  0.010272354 0.0089190135            5 
 4479000   0.53421766   -8.9397926    551.77914   0.01026604 0.0089158361            3 
 4480000   0.54477919   -8.9498274    551.51304  0.010258799 0.0089126606            6 
 4481000   0.52818711   -8.9521273    552.40905  0.010273173 0.0089094846            4 
 4482000   0.53096477   -8.9414948    552.00948  0.010263452 0.0089063077            3 
 4483000   0.53512668   -8.9482615    551.25619   0.01024716 0.0089031356            3 
 4484000   0.53173272   -8.9498334    552.14523  0.010261397 0.0088999657            3 
 4485000   0.53522603   -8.9460435    550.81987  0.010234483 0.0088967945            5 
 4486000   0.53977677   -8.9522093     551.2756  0.010240667 0.0088936253            3 
 4487000   0.52487768   -8.9733853    551.05245  0.010234241 0.0088904563            3 
 4488000   0.51901488   -8.9392966    551.98734  0.010249319 0.0088872888            5 
 4489000   0.53958395   -8.9603749    551.49487  0.010237894 0.0088841238            2 
 4490000   0.53728203   -8.9543826    551.21941  0.010230501 0.0088809604            9 
 4491000   0.54300706   -8.9475752    551.46952  0.010232864 0.0088777976            6 
 4492000   0.53962555   -8.9274871    551.70947  0.010235038 0.0088746381            3 
 4493000   0.52578422   -8.9550299    551.17337  0.010222816 0.0088714804            3 
 4494000   0.52347677   -8.9439362     551.5431  0.010227398  0.008868324            5 
 4495000   0.53742742   -8.9553448    552.21897  0.010237652 0.0088651682            2 
 4496000   0.53268444   -8.9495665    551.36617  0.010219569 0.0088620144            4 
 4497000   0.54160307   -8.9519337    551.78548  0.010225066 0.0088588593            3 
 4498000   0.54330135   -8.9550166    551.57128  0.010218825 0.0088557087            9 
 4499000   0.52615367   -8.9623056    551.11274   0.01020806 0.0088525558            2 
 4500000   0.52638836   -8.9630842     551.4048    0.0102112 0.0088494058            4 
 4501000   0.53374876   -8.9597821    552.02361  0.010220388 0.0088462564            3 
 4502000   0.51918536   -8.9635235    551.48807  0.010208205 0.0088431119            3 
 4503000   0.54149873   -8.9387675    551.40968  0.010204487 0.0088399667            3 
 4504000   0.52902814   -8.9447901    550.94523  0.010193628 0.0088368213            1 
 4505000   0.53336511   -8.9629838    552.10296  0.010212781 0.0088336764            2 
 4506000   0.53112996   -8.9612105    551.27586  0.010195219 0.0088305343            3 
 4507000   0.53732528   -8.9491288    550.87162  0.010185482 0.0088273911            3 
 4508000   0.53825644   -8.9415711    552.54727  0.010214198 0.0088242565            3 
 4509000   0.52366015   -8.9546463    551.56387  0.010193758 0.0088211236            6 
 4510000   0.53073294   -8.9378294    550.43755  0.010170686 0.0088179863            3 
 4511000   0.52644416   -8.9360367    551.83816  0.010194306 0.0088148519            5 
 4512000   0.52903827   -8.9562871    551.80007  0.010191343 0.0088117211            5 
 4513000   0.54440047   -8.9517027    550.96031  0.010173578 0.0088085911            2 
 4514000   0.53195943   -8.9510424    551.33943  0.010178324 0.0088054624            4 
 4515000   0.52695909   -8.9475328    551.52604  0.010179513  0.008802334            3 
 4516000   0.52878485   -8.9502437    551.90444  0.010184242 0.0087992087            4 
 4517000   0.53453689   -8.9554824     551.5239  0.010174967 0.0087960823            3 
 4518000   0.53501059   -8.9454072    550.66751  0.010156919 0.0087929551            5 
 4519000   0.54497798   -8.9504831    550.22413  0.010146495 0.0087898321            4 
 4520000   0.52703712   -8.9689003    551.09098  0.010160232 0.0087867104            3 
 4521000   0.53075712   -8.9680509    550.62359  0.010149369 0.0087835894            3 
 4522000   0.53049908   -8.9602213    550.96534  0.010153423 0.0087804713            5 
 4523000   0.52738318   -8.9606355    550.99408  0.010151708 0.0087773551            2 
 4524000   0.52722798   -8.9498408    551.47325   0.01015829 0.0087742376            2 
 4525000   0.52312496   -8.9617354    551.12269  0.010149589 0.0087711238            2 
 4526000   0.52996569   -8.9611418    552.04218  0.010164276  0.008768011            3 
 4527000    0.5361615   -8.9787956    550.27276   0.01012946 0.0087648965            6 
 4528000   0.52760745   -8.9703618    551.94129   0.01015793  0.008761785            2 
 4529000   0.52510861   -8.9711736    551.20665   0.01014217 0.0087586788            2 
 4530000   0.52350847   -8.9552915    550.43946  0.010125818 0.0087555709            4 
 4531000   0.52803248   -8.9656366    551.37832   0.01014085 0.0087524632            5 
 4532000   0.53060439   -8.9479062     551.2259   0.01013581 0.0087493592            2 
 4533000    0.5291805    -8.971272    551.01515    0.0101297 0.0087462544            3 
 4534000   0.51737863     -8.96735    550.67643   0.01012124 0.0087431519            5 
 4535000    0.5241041   -8.9729845    551.44232  0.010133082 0.0087400491            3 
 4536000   0.52340893   -8.9730034    551.09481  0.010124464 0.0087369487            5 
 4537000   0.53407953   -8.9684937    551.01454  0.010120758  0.008733851            5 
 4538000   0.51946712   -8.9521717    550.74254  0.010113533 0.0087307521            5 
 4539000   0.52040687   -8.9597565    552.38604  0.010141478 0.0087276561            5 
 4540000   0.53480958   -8.9646027    552.21932  0.010136184 0.0087245634            3 
 4541000   0.52794172   -8.9586024    551.07874  0.010113021 0.0087214715            6 
 4542000   0.53095888   -8.9577155    551.12846  0.010111707 0.0087183807            2 
 4543000   0.52596138   -8.9394315     551.2737  0.010112145 0.0087152919            5 
 4544000   0.51658186   -8.9912944    551.03083  0.010105466 0.0087122038            2 
 4545000   0.53417906   -8.9663442    550.16735   0.01008741 0.0087091142            2 
 4546000   0.52586665   -8.9871257    551.11316  0.010102529 0.0087060278            6 
 4547000   0.51132499   -8.9628154    552.06529  0.010117757 0.0087029429            7 
 4548000   0.52755783   -8.9599946    551.02379  0.010096449 0.0086998616            4 
 4549000   0.52804814   -8.9674842    551.25404  0.010098447   0.00869678            7 
 4550000   0.51769281   -8.9814856    550.21105  0.010077126 0.0086937002            5 
 4551000   0.52922037   -8.9657127    550.46234  0.010079513 0.0086906207            6 
 4552000   0.52580145    -8.973745    551.14374  0.010089773 0.0086875427            4 
 4553000   0.51135748   -8.9785668    551.77276  0.010099069 0.0086844673            4 
 4554000   0.52674465   -8.9666866    550.46465  0.010072915  0.008681396            2 
 4555000   0.51847826   -8.9710231     551.5263  0.010090126 0.0086783224            3 
 4556000   0.53615291    -8.990304    550.39475  0.010067214 0.0086752472            3 
 4557000   0.52231292   -8.9762992    551.74259  0.010089653 0.0086721773            5 
 4558000   0.51271844   -8.9577681    551.08913  0.010075492 0.0086691085            7 
 4559000   0.53198393   -8.9617578    550.22296   0.01005745 0.0086660415            3 
 4560000   0.51371497   -8.9775637     551.1542  0.010072262 0.0086629754            4 
 4561000   0.52797316   -8.9654152     551.6416  0.010078959 0.0086599105            4 
 4562000   0.52370602   -8.9655597    551.07757  0.010066447 0.0086568488            3 
 4563000   0.52465698   -8.9709673     551.4403  0.010070865 0.0086537902            4 
 4564000   0.51378436   -8.9819099    550.65625  0.010054343 0.0086507287            2 
 4565000   0.51790761   -8.9783949    550.92277  0.010057006 0.0086476728            3 
 4566000   0.53918545   -8.9530221    551.56197  0.010066469 0.0086446149            3 
 4567000   0.52849733   -8.9555948    550.27938  0.010040862 0.0086415616            5 
 4568000   0.53044715   -8.9713666    551.66592  0.010063958 0.0086385068            6 
 4569000   0.52822761   -8.9563805    551.50757  0.010058867 0.0086354591            2 
 4570000   0.52141911   -8.9561592    551.09296  0.010049106 0.0086324107            5 
 4571000   0.52541474   -8.9879752    549.98233  0.010026659  0.008629364            6 
 4572000   0.51990518   -8.9727162    550.92993  0.010041738 0.0086263158            5 
 4573000   0.52742468   -8.9789042    550.76318  0.010036504  0.008623268            6 
 4574000   0.52472071   -8.9559565    550.55757  0.010030564 0.0086202255            4 
 4575000   0.52154439   -8.9568352     550.0607  0.010019321 0.0086171801            3 
 4576000   0.51684808   -8.9627727    551.47516   0.01004289 0.0086141383            6 
 4577000   0.52877428    -8.971067    550.28745  0.010019071 0.0086110974            6 
 4578000   0.52377536   -8.9567328    551.14344  0.010032464 0.0086080578            3 
 4579000   0.51653156   -8.9655946    551.57673  0.010038158  0.008605022            4 
 4580000   0.52306226   -8.9692052    551.96125  0.010042963 0.0086019834            4 
 4581000   0.52285719   -8.9600248    550.67527  0.010017377   0.00859895            3 
 4582000   0.51031422   -8.9693351    550.79603  0.010017387  0.008595919            3 
 4583000   0.51651282   -8.9846776    550.34408  0.010006984 0.0085928855            5 
 4584000   0.52279913   -8.9700364     550.0262  0.009999022 0.0085898517            4 
 4585000   0.51391023     -8.96428    550.66404  0.010008434 0.0085868247            3 
 4586000    0.5235374   -8.9808076    551.03683  0.010013026 0.0085837958            7 
 4587000   0.52128471   -8.9681357    551.22003  0.010014171   0.00858077            5 
 4588000   0.50724846   -8.9605048     551.1711    0.0100111 0.0085777467            7 
 4589000   0.51355552   -8.9847721    551.14303  0.010008408  0.008574723            3 
 4590000   0.51099786   -8.9639717     550.3163 0.0099912183 0.0085716971            6 
 4591000   0.53392908   -8.9977353    550.43741 0.0099912404  0.008568673            2 
 4592000   0.51833019   -8.9739514    550.55097 0.0099911253 0.0085656518            4 
 4593000   0.51869179    -8.976599    551.04334 0.0099978834 0.0085626336            3 
 4594000   0.50963961   -8.9817068    550.11469 0.0099788617 0.0085596172            5 
 4595000   0.52190957   -8.9875987    550.63181 0.0099860684 0.0085566012            5 
 4596000   0.51174374   -8.9798028    550.69953 0.0099851234 0.0085535832            5 
 4597000   0.51479338   -8.9694031    550.11604 0.0099723741  0.008550568            7 
 4598000   0.51406443   -8.9649483    550.41501 0.0099756236 0.0085475502            8 
 4599000   0.51515746   -8.9744619    549.99787  0.009965896 0.0085445363            5 
 4600000   0.51496248   -8.9758503    550.91398 0.0099803258 0.0085415248            4 
 4601000   0.51156127   -8.9893413    550.85976 0.0099771745 0.0085385162            8 
 4602000   0.51647606   -8.9734768    550.88587 0.0099754793 0.0085355087            4 
 4603000   0.51793316   -8.9716539    551.31834 0.0099811416 0.0085325038            4 
 4604000   0.50693837   -8.9820896    550.67859 0.0099673941 0.0085294998            7 
 4605000   0.51583383     -8.98699    550.66048  0.009964902 0.0085264954            6 
 4606000   0.49933728   -8.9936614     551.4708  0.009977399 0.0085234951            5 
 4607000   0.52721894   -8.9789601    551.23988 0.0099710563 0.0085204942            5 
 4608000   0.51232829   -8.9742102    550.54786 0.0099563776 0.0085174968            7 
 4609000   0.50580066   -8.9669869    549.94206 0.0099432643 0.0085145003            4 
 4610000   0.51174321   -8.9898799    551.41918 0.0099678088 0.0085115053           10 
 4611000   0.52656701   -8.9799779    551.15057 0.0099607925 0.0085085089            5 
 4612000   0.50850851   -8.9817096    551.76364 0.0099697102 0.0085055143            4 
 4613000   0.51445319   -8.9744304    550.65441 0.0099475109 0.0085025192            7 
 4614000   0.51929428   -8.9757502    551.31753 0.0099573315 0.0084995297            8 
 4615000   0.50455276   -8.9930246    549.76163 0.0099270788 0.0084965379            7 
 4616000   0.50903494   -8.9833959    550.10598  0.009931145 0.0084935503            4 
 4617000   0.50711905   -8.9671474    550.52354 0.0099365306 0.0084905624            7 
 4618000   0.51727778   -8.9852575    550.65031 0.0099366665 0.0084875729            5 
 4619000    0.5048032   -8.9765407    550.28839 0.0099279857 0.0084845877            5 
 4620000   0.50250701   -8.9642196    552.23672 0.0099609798 0.0084816047            4 
 4621000   0.50238437   -8.9991413    550.48272 0.0099271933  0.008478622            9 
 4622000    0.5278918   -8.9863107    549.83891 0.0099134377 0.0084756399            3 
 4623000   0.51541103   -8.9758789    551.21183 0.0099360414 0.0084726568            6 
 4624000   0.50530814   -8.9512227    551.81158 0.0099447013 0.0084696796            6 
 4625000   0.50961069   -9.0122927    549.73772 0.0099051841 0.0084667002            6 
 4626000   0.50715082    -8.981171    550.50491 0.0099168632 0.0084637224            6 
 4627000    0.5163265   -8.9836798    550.88473 0.0099215607 0.0084607482            3 
 4628000   0.51105818   -8.9958846    550.36786 0.0099101099 0.0084577745            4 
 4629000   0.50378888   -8.9737141    550.21027 0.0099051319 0.0084548022            8 
 4630000   0.50342697   -8.9700842    550.30941 0.0099047769 0.0084518328            4 
 4631000   0.50030093   -8.9972313    551.34505 0.0099212741 0.0084488637            5 
 4632000   0.50441477   -8.9859435    550.41176 0.0099023417 0.0084458954            4 
 4633000   0.51241231   -8.9805431     550.3379 0.0098988758 0.0084429287            3 
 4634000   0.50129779   -8.9782104    550.18185 0.0098939334 0.0084399639            4 
 4635000   0.50345117   -8.9869318    551.18796 0.0099098878 0.0084370012            5 
 4636000   0.51722586   -8.9917972     549.9706 0.0098858679 0.0084340381            5 
 4637000   0.49744745   -8.9912883    550.56414 0.0098944025 0.0084310788            3 
 4638000   0.50395667   -8.9872463    551.03305 0.0099006944  0.008428119            5 
 4639000    0.5184941   -8.9806627    550.54936 0.0098898713 0.0084251616            5 
 4640000   0.51010847   -8.9971653    549.85704 0.0098753061  0.008422204            5 
 4641000   0.50922339   -8.9600936    550.27387 0.0098806628 0.0084192485            4 
 4642000    0.5048191    -8.987114    550.30461 0.0098790861 0.0084162966            8 
 4643000   0.50877114   -8.9708847    551.08628 0.0098909878 0.0084133412            3 
 4644000   0.50897216   -8.9831775    550.36446 0.0098759054 0.0084103881            4 
 4645000   0.50772203   -8.9930122    551.08502 0.0098867065 0.0084074356            6 
 4646000   0.51351007   -8.9695378    550.85073 0.0098803761 0.0084044877            4 
 4647000   0.51705064   -8.9755867    550.79223 0.0098772008 0.0084015406            4 
 4648000   0.52251846   -8.9942732    550.15779 0.0098637011 0.0083985962            3 
 4649000   0.50866587   -8.9925283    549.69032 0.0098531999 0.0083956506            6 
 4650000   0.50808459   -8.9706216    549.90523 0.0098549325 0.0083927066            6 
 4651000   0.50544465    -8.987251      550.477 0.0098630581 0.0083897628            4 
 4652000   0.51029923   -8.9685766    549.82227 0.0098492094 0.0083868192            5 
 4653000   0.50936905   -8.9882251    550.49954 0.0098592224 0.0083838792            4 
 4654000   0.50101336   -8.9894612    549.95122 0.0098472858  0.008380942            3 
 4655000   0.51497721   -8.9710678    550.87527 0.0098617126 0.0083780048            4 
 4656000   0.50879937   -8.9962342    549.96181 0.0098432454 0.0083750688            5 
 4657000   0.50881767   -9.0050603    550.45129 0.0098498906 0.0083721344            6 
 4658000    0.4994574   -9.0139195     550.3899 0.0098466778 0.0083691944            6 
 4659000   0.50978482   -8.9882977    550.50967 0.0098467066 0.0083662594            6 
 4660000   0.50393871    -8.996122    550.25026 0.0098399545 0.0083633293            5 
 4661000   0.51411406    -8.994226    549.82424 0.0098302267 0.0083603997            7 
 4662000   0.50645329   -8.9801913    550.90769 0.0098474849 0.0083574708            7 
 4663000   0.51514325    -8.994431    551.12539 0.0098492635 0.0083545448            6 
 4664000   0.50524349   -8.9930052      550.734 0.0098401586  0.008351618            4 
 4665000    0.5084268   -8.9963946    550.14097 0.0098274558 0.0083486929            2 
 4666000   0.51160289   -8.9850908    549.99825 0.0098228005 0.0083457679            5 
 4667000   0.50023533   -8.9974335    550.20223 0.0098243381 0.0083428447            9 
 4668000    0.4976247   -8.9997332    550.51756 0.0098278628 0.0083399265            5 
 4669000   0.51542357   -8.9961096    551.16087 0.0098372398 0.0083370085            5 
 4670000   0.49708088   -8.9875568    550.82966 0.0098292231 0.0083340924            5 
 4671000   0.51039257   -9.0042994    550.71641 0.0098250983 0.0083311753            5 
 4672000   0.49345263   -8.9950151    549.85639 0.0098076554 0.0083282602            6 
 4673000   0.49816129   -8.9790151    550.19842 0.0098116559 0.0083253471            5 
 4674000   0.49577748    -9.003631    551.02742 0.0098243371 0.0083224346            2 
 4675000   0.47945534   -8.9968603    549.61257 0.0097970154 0.0083195187            4 
 4676000   0.49759864   -8.9812814    550.97272 0.0098191602 0.0083166063            2 
 4677000   0.51058997   -8.9960139     549.7965 0.0097961034 0.0083136954            5 
 4678000   0.50230433   -8.9938567    550.59966 0.0098083165  0.008310786            3 
 4679000    0.5017388   -9.0000644    550.33611 0.0098015266 0.0083078796            3 
 4680000   0.49538369   -8.9953813    550.11793 0.0097955471 0.0083049747            3 
 4681000   0.49566308   -8.9999653    549.59082 0.0097840706 0.0083020712            5 
 4682000   0.50823897   -9.0033399    550.45549 0.0097973709 0.0082991682            2 
 4683000   0.50626614   -8.9839019    550.70154 0.0097996573 0.0082962653            7 
 4684000   0.50401844   -9.0014283    549.88794 0.0097830903 0.0082933654            1 
 4685000   0.50274963   -8.9802071    550.24184  0.009787297 0.0082904686            4 
 4686000   0.48647944   -9.0042148    549.98858 0.0097807045 0.0082875723            5 
 4687000   0.48886036   -8.9957257    550.05337 0.0097797698 0.0082846757            5 
 4688000   0.51858148   -8.9808341    550.21592 0.0097805731 0.0082817817            4 
 4689000   0.49419953   -8.9862334    549.70718 0.0097694459 0.0082788888           10 
 4690000   0.50038176    -9.005144    550.50894 0.0097816088 0.0082759966            7 
 4691000   0.50414918   -9.0000756     549.1787 0.0097558925 0.0082731072            3 
 4692000   0.49959555   -9.0076694    550.29825 0.0097736973 0.0082702149            7 
 4693000   0.49761291   -9.0008174    550.42647 0.0097738914  0.008267327            8 
 4694000   0.50527044   -9.0112987    549.78815  0.009760477 0.0082644406            7 
 4695000   0.49434364   -8.9954272    550.69779 0.0097745437 0.0082615561            3 
 4696000   0.51383803   -8.9998075    550.81414 0.0097745269 0.0082586732            7 
 4697000   0.49727983   -9.0027391    550.77761 0.0097717978 0.0082557927            5 
 4698000   0.48785866   -8.9928228    550.82934 0.0097706354 0.0082529109            7 
 4699000   0.50544662   -8.9943011    550.08778 0.0097554051 0.0082500328            4 
 4700000   0.49913877   -9.0037023    549.95418 0.0097509606 0.0082471529            2 
 4701000   0.49878029   -8.9907797    550.96117 0.0097667371 0.0082442761            6 
 4702000   0.49426133   -8.9981141    550.50449 0.0097565662 0.0082413984            3 
 4703000   0.49749103   -9.0134837     549.7258 0.0097406939 0.0082385239           10 
 4704000   0.49231055   -9.0002376    549.97409 0.0097430217 0.0082356509            6 
 4705000   0.50665535   -8.9944563     549.5274 0.0097330393  0.008232777            5 
 4706000   0.50398107   -8.9992333    550.29217 0.0097445136 0.0082299064            6 
 4707000   0.50331019   -9.0052317     550.3775 0.0097439541 0.0082270376            3 
 4708000   0.49662787   -9.0036428    550.08352 0.0097366809 0.0082241687            5 
 4709000   0.50333732   -9.0070916    550.15002   0.00973579 0.0082213014            6 
 4710000   0.48811365   -9.0049715    549.66186 0.0097250861 0.0082184379            5 
 4711000   0.50234014   -9.0024358    550.99865 0.0097466682  0.008215575            6 
 4712000   0.50872143   -9.0209069    551.04982 0.0097455048 0.0082127135            2 
 4713000   0.49120285   -9.0074859      549.963 0.0097242203  0.008209852            6 
 4714000   0.49192026   -8.9995309    550.32124 0.0097284903 0.0082069941            5 
 4715000   0.49781124   -9.0176649    550.22974 0.0097248097 0.0082041345            5 
 4716000   0.49586019    -8.974946    550.77773 0.0097324309 0.0082012765            4 
 4717000   0.49547693   -9.0042116    550.17754 0.0097197643  0.008198424            4 
 4718000   0.48877237   -9.0082767    550.57948 0.0097248037 0.0081955675            5 
 4719000   0.50022605   -9.0057102    549.98548 0.0097122533 0.0081927133            4 
 4720000   0.48973413    -9.015397    550.83499  0.009725194 0.0081898624            5 
 4721000   0.49672277    -9.002627    550.44002 0.0097161621 0.0081870099            7 
 4722000   0.48895516   -8.9853475    550.04842 0.0097071936 0.0081841585            3 
 4723000   0.49336173   -9.0205973    550.13277 0.0097066266 0.0081813103           10 
 4724000   0.48686788    -9.001419     549.4264 0.0096921112 0.0081784627            6 
 4725000   0.48750283   -9.0283135    549.89287  0.009698287 0.0081756163            5 
 4726000   0.50146342   -8.9980353    549.26918 0.0096852374 0.0081727731            1 
 4727000   0.50196974   -9.0031024     550.3169 0.0097016588 0.0081699316            6 
 4728000   0.49188733   -9.0135431    550.83895 0.0097088083 0.0081670906            6 
 4729000   0.49754581   -9.0173158    549.71262 0.0096869074 0.0081642491            5 
 4730000   0.49405205   -9.0013511    550.00183 0.0096899547 0.0081614073            5 
 4731000   0.49505034   -8.9996304    549.58115 0.0096804966 0.0081585652            5 
 4732000   0.49418779   -9.0116724    549.67028 0.0096800205 0.0081557262            5 
 4733000   0.49432899   -9.0147573    550.63881 0.0096950279   0.00815289            5 
 4734000   0.49548678   -9.0032159    549.92959 0.0096804956 0.0081500523            4 
 4735000   0.49474675   -9.0148298    549.51934 0.0096712309 0.0081472163            4 
 4736000   0.48488015   -9.0109502    550.48447  0.009686171 0.0081443813            3 
 4737000   0.48588891   -9.0176799    549.41736 0.0096653536 0.0081415459            3 
 4738000   0.50627667   -8.9998409     550.0199 0.0096739113 0.0081387125            8 
 4739000   0.49920778   -9.0209171     549.5847 0.0096642172   0.00813588            4 
 4740000     0.502214    -9.016088    550.49415 0.0096781672 0.0081330508            2 
 4741000   0.47612613   -9.0103055    550.34096 0.0096734331 0.0081302208            6 
 4742000   0.49248889   -9.0245797    549.24467 0.0096521277 0.0081273936            7 
 4743000   0.50428041   -9.0016533    549.29305 0.0096509426 0.0081245684            8 
 4744000   0.49467575   -9.0102429    550.01802 0.0096616431 0.0081217432            3 
 4745000   0.49282418   -9.0209517    550.19636 0.0096627389 0.0081189175            6 
 4746000   0.48735123   -9.0004315    549.76366 0.0096531053 0.0081160933            6 
 4747000   0.48431792   -9.0044917    550.49257 0.0096638679 0.0081132727            2 
 4748000   0.49175875   -9.0351866     549.6037 0.0096462317  0.008110451            3 
 4749000   0.48373484   -9.0139678    549.91053 0.0096495847 0.0081076322            2 
 4750000   0.48451443   -9.0101179    549.26061  0.009636151 0.0081048155            6 
 4751000   0.48856337   -9.0111963    549.75819 0.0096428504 0.0081020018            4 
 4752000   0.48839842   -9.0072658    550.44903  0.009652936 0.0080991859            6 
 4753000   0.49670231   -9.0213789    550.46439 0.0096511745 0.0080963703            4 
 4754000   0.48687525   -9.0150211    550.32411 0.0096466855  0.008093558            6 
 4755000   0.49144002   -9.0291621    549.28961 0.0096265266 0.0080907461            3 
 4756000   0.49475491   -9.0141666    549.69076 0.0096315315  0.008087935            4 
 4757000   0.48904757   -8.9822212    549.50263 0.0096262111 0.0080851258            6 
 4758000   0.49887173     -8.99388    550.48208 0.0096413423 0.0080823201            3 
 4759000   0.48166272   -9.0168469    549.43258 0.0096209389  0.008079516            5 
 4760000   0.48583325    -9.020443    549.12891 0.0096136014 0.0080767104            9 
 4761000   0.49165843   -9.0327022     549.8016 0.0096233565 0.0080739054            6 
 4762000   0.49231629   -9.0084071    550.39985 0.0096318047  0.008071104            6 
 4763000   0.48914539   -9.0163151    549.80071    0.0096193 0.0080683011            6 
 4764000   0.48983904   -9.0141625    549.30799 0.0096086619 0.0080655004            3 
 4765000   0.49371107   -9.0169501    550.71173  0.009631195 0.0080627015            6 
 4766000   0.48849816   -9.0146809    549.05627 0.0096002285 0.0080599056            8 
 4767000   0.49130484   -9.0203454    549.37487 0.0096037841 0.0080571089            6 
 4768000   0.48949471   -9.0151823    548.94195 0.0095942035 0.0080543111            4 
 4769000   0.48947979   -9.0014176    548.83966 0.0095904043  0.008051518            6 
 4770000   0.48088251   -9.0193878    550.17782 0.0096117718  0.008048725            3 
 4771000   0.48806337   -9.0106749     549.4115 0.0095963722 0.0080459317            2 
 4772000   0.49139413   -9.0223284    549.33115  0.009592958 0.0080431394            2 
 4773000   0.49243667   -9.0177811    548.88834  0.009583217 0.0080403501            5 
 4774000   0.49134661   -9.0261328    548.25708 0.0095701906 0.0080375634            3 
 4775000   0.49117022   -9.0325098    549.83653 0.0095957509 0.0080347784            8 
 4776000   0.48596553   -9.0189186     550.0689 0.0095977963 0.0080319921            7 
 4777000   0.49192933     -9.02815    549.84872 0.0095919461 0.0080292088            4 
 4778000   0.48679758   -9.0173636    549.89643 0.0095907708 0.0080264244            4 
 4779000    0.4803481   -9.0239465    549.53917 0.0095825341 0.0080236436            9 
 4780000   0.49467597   -9.0077699    549.57513 0.0095811564 0.0080208632            6 
 4781000   0.47815638   -9.0267537    549.53143 0.0095783906 0.0080180829            5 
 4782000   0.47917429    -9.015922    550.17583 0.0095876174 0.0080153046            4 
 4783000   0.49961433    -9.026942    549.59411 0.0095754776 0.0080125291            5 
 4784000   0.48439633    -9.025136    549.89273 0.0095786777 0.0080097528            3 
 4785000   0.48945935   -9.0214602    549.52247 0.0095702277 0.0080069792            4 
 4786000   0.49248841   -9.0291832    549.91386 0.0095750429 0.0080042079            3 
 4787000   0.48118753   -9.0317272    548.80099 0.0095536695 0.0080014371            6 
 4788000   0.48234768   -9.0221455    549.39008  0.009561927 0.0079986676            6 
 4789000   0.48412773   -9.0315552    549.76119 0.0095663881 0.0079958973            6 
 4790000   0.48749256   -9.0267418    549.88406 0.0095665285 0.0079931311            5 
 4791000   0.48500672   -9.0196338    549.44193 0.0095568415 0.0079903632            8 
 4792000    0.4856374   -9.0250125    549.61182 0.0095578016  0.007987598            5 
 4793000   0.48188342   -9.0243278    549.06656 0.0095463273 0.0079848359            3 
 4794000   0.48798279   -9.0275568    549.19658  0.009546596 0.0079820762            6 
 4795000   0.49462213   -9.0311919    548.76866 0.0095371683 0.0079793142            4 
 4796000   0.48861989   -9.0241501     549.8491 0.0095539529 0.0079765566            6 
 4797000     0.481617   -9.0234256    549.72322 0.0095497745  0.007973799            4 
 4798000   0.47554672   -9.0130224     549.6007 0.0095456562 0.0079710401            4 
 4799000   0.48681773   -9.0280249    550.14276 0.0095530798 0.0079682854            5 
 4800000   0.49833237    -9.025941     549.5274 0.0095404063 0.0079655317            3 
 4801000   0.48030501   -9.0304409    549.63094 0.0095402162 0.0079627789            2 
 4802000   0.48564973   -9.0282056    549.22559 0.0095311952 0.0079600292            3 
 4803000   0.47406567   -9.0383205    549.13853 0.0095277002 0.0079572791            7 
 4804000   0.48508258   -9.0324897    549.46912 0.0095314516 0.0079545277            5 
 4805000   0.47331168   -9.0290398    549.52325 0.0095304067 0.0079517796            4 
 4806000   0.48420421   -9.0293415    549.26105 0.0095238773 0.0079490308            5 
 4807000   0.48960007   -9.0170371    548.58423 0.0095101627 0.0079462846            7 
 4808000   0.47421346   -9.0143762    549.23651 0.0095194903 0.0079435409            4 
 4809000   0.48551346   -9.0218044    549.38298 0.0095200489 0.0079407985            2 
 4810000   0.47105988   -9.0267164    549.82765 0.0095257736 0.0079380571            6 
 4811000   0.48160797   -9.0298968    549.21731 0.0095132215  0.007935316            2 
 4812000   0.48232306   -9.0259998    549.81438 0.0095215845 0.0079325737            5 
 4813000   0.48333603   -9.0338668    549.85406 0.0095202932 0.0079298335            4 
 4814000    0.4844611   -9.0426316    549.46073  0.009511507 0.0079270964            3 
 4815000   0.48333424   -9.0234776    549.68595 0.0095134293 0.0079243596            3 
 4816000    0.4754595   -9.0341688    549.93273 0.0095157241 0.0079216231            6 
 4817000   0.48056881   -9.0217929    549.81157 0.0095116526 0.0079188885            5 
 4818000   0.48445122   -9.0348617    549.15912 0.0094983936 0.0079161548            3 
 4819000    0.4755822   -9.0315896     549.0092   0.00949383 0.0079134229            6 
 4820000   0.48000586   -9.0330251    549.91725 0.0095075596 0.0079106909            5 
 4821000   0.48475103   -9.0274486    549.00636 0.0094898423  0.007907963            5 
 4822000   0.48516249   -9.0381653    548.72385  0.009482992 0.0079052342            6 
 4823000   0.47981933   -9.0300909    548.89151 0.0094839227 0.0079025051            7 
 4824000   0.47714891   -9.0252775    549.76294 0.0094970104 0.0078997787            5 
 4825000   0.47425657   -9.0280334    548.39036 0.0094713361 0.0078970544            4 
 4826000   0.47994961   -9.0277878    548.90119 0.0094781944 0.0078943301            5 
 4827000    0.4776445   -9.0408752    549.72368 0.0094904302 0.0078916079            5 
 4828000   0.48394112   -9.0257024    549.55134 0.0094854898 0.0078888882            6 
 4829000   0.47554477   -9.0317713    549.04178 0.0094747322 0.0078861663            8 
 4830000   0.47783058   -9.0191488    549.98229 0.0094889974 0.0078834478            6 
 4831000   0.48252504   -9.0272903    549.12333 0.0094722164 0.0078807307            2 
 4832000   0.48545198   -9.0339466    549.31993 0.0094736466 0.0078780155            5 
 4833000   0.46169843   -9.0391338    548.16316 0.0094517408 0.0078752983            4 
 4834000   0.47454018    -9.036793    549.28274 0.0094690861 0.0078725827            6 
 4835000   0.47947244   -9.0403235    549.04842  0.009463089 0.0078698696            8 
 4836000   0.48881343   -9.0392202    549.54106 0.0094696213 0.0078671586            3 
 4837000   0.47210173   -9.0320093    548.75449 0.0094541123 0.0078644484            7 
 4838000   0.47805237   -9.0341826     549.6336 0.0094673005 0.0078617384            4 
 4839000   0.48060021   -9.0287901    549.34267  0.009460334 0.0078590279            5 
 4840000   0.48515387   -9.0421463    549.96356 0.0094690696 0.0078563214            3 
 4841000   0.48269651   -9.0379131     549.2126 0.0094541865 0.0078536137            5 
 4842000   0.48921649   -9.0532826    549.15131 0.0094511792 0.0078509102            5 
 4843000   0.47869597   -9.0532642    548.92075 0.0094452604 0.0078482065            3 
 4844000   0.47354826   -9.0296698    547.94291 0.0094264883 0.0078455037            5 
 4845000   0.46294584   -9.0249209    549.73965 0.0094554463 0.0078428044            6 
 4846000   0.48466241   -9.0537684    548.84865 0.0094381732 0.0078401048            6 
 4847000   0.46739221   -9.0396453    549.52095 0.0094477846  0.007837404            4 
 4848000   0.47568739   -9.0462418    549.39706 0.0094437064 0.0078347067            6 
 4849000   0.48128325   -9.0444279    549.47307 0.0094430651 0.0078320103            5 
 4850000   0.46475264   -9.0466935    548.98043 0.0094326534 0.0078293155            7 
 4851000     0.486363   -9.0252569    549.63122 0.0094418887 0.0078266223            7 
 4852000   0.47579071     -9.03559    550.01972 0.0094466151 0.0078239296            6 
 4853000   0.47382573   -9.0396069    548.72023 0.0094223544 0.0078212378            3 
 4854000   0.48159333   -9.0318016    548.98469 0.0094249534 0.0078185459            5 
 4855000   0.46293206   -9.0452637    548.01507 0.0094063692 0.0078158557            8 
 4856000   0.47740892   -9.0498781      548.682 0.0094158773 0.0078131659            4 
 4857000   0.47231926   -9.0438064     548.0813 0.0094036323 0.0078104766            8 
 4858000    0.4752636   -9.0472193    548.64312 0.0094113338 0.0078077891            9 
 4859000   0.47611525   -9.0460986    548.61091 0.0094088446 0.0078051052            4 
 4860000   0.47582288   -9.0556279    548.81699 0.0094104423 0.0078024212            7 
 4861000   0.47146405    -9.023495    548.75893  0.009407511 0.0077997384            2 
 4862000   0.47903289   -9.0406755    548.82443 0.0094066987 0.0077970563            5 
 4863000   0.47211022   -9.0422275    549.14063 0.0094101828 0.0077943744            5 
 4864000   0.46740433   -9.0382119    548.62912 0.0093994847 0.0077916984            9 
 4865000   0.47971052   -9.0493118    548.88948 0.0094020123 0.0077890204            8 
 4866000   0.46969352    -9.051316    548.70879 0.0093969856 0.0077863432            5 
 4867000   0.47542025   -9.0414239    549.04322 0.0094007811 0.0077836662            6 
 4868000   0.48762289   -9.0326552    549.68389 0.0094098173 0.0077809949            3 
 4869000    0.4665636   -9.0462857    548.97158 0.0093956935 0.0077783226            7 
 4870000   0.48372815   -9.0443315    548.91071 0.0093927227 0.0077756526            4 
 4871000   0.47737227    -9.036288    549.76314 0.0094053777 0.0077729817            6 
 4872000   0.45745972   -9.0501351    548.87987 0.0093883393  0.007770313            8 
 4873000   0.47201376   -9.0411544    547.87536 0.0093692346 0.0077676451            5 
 4874000   0.46641445    -9.039183     549.1855 0.0093897124 0.0077649816            5 
 4875000   0.47337414   -9.0362474    548.80813 0.0093813356 0.0077623185            5 
 4876000   0.47618563   -9.0379254    548.10322 0.0093673644  0.007759656            6 
 4877000   0.46601235   -9.0440487      549.208 0.0093843209 0.0077569936            5 
 4878000   0.47469641   -9.0405389    548.44107 0.0093692953 0.0077543329            6 
 4879000   0.47671457   -9.0275148    549.29425 0.0093819474 0.0077516741            8 
 4880000   0.48114401    -9.045663    548.68897 0.0093696888 0.0077490174            5 
 4881000   0.47470154    -9.042564    549.09245 0.0093746576 0.0077463609            7 
 4882000   0.47196577   -9.0584134    549.45382 0.0093789059 0.0077437057            7 
 4883000   0.47276665   -9.0418782    549.16938 0.0093721308 0.0077410518            5 
 4884000   0.46451003   -9.0476628     549.2845 0.0093721762 0.0077383979           10 
 4885000   0.46402696   -9.0505549    548.76813 0.0093614489 0.0077357451            5 
 4886000    0.4715769   -9.0565438    549.12304  0.009365586 0.0077330948            7 
 4887000   0.46489271   -9.0440538    548.45081 0.0093522067  0.007730445            4 
 4888000   0.48002574   -9.0411462    549.34998  0.009365623 0.0077277974            3 
 4889000   0.47202398    -9.041601    548.84289 0.0093550639 0.0077251504            5 
 4890000   0.47057062   -9.0498365    548.57791 0.0093486351 0.0077225055            7 
 4891000   0.48092171    -9.046588    549.36416 0.0093601199 0.0077198594            7 
 4892000   0.46728983   -9.0361793    548.50147  0.009343511 0.0077172146            6 
 4893000   0.47110458   -9.0524671    548.96693 0.0093495288 0.0077145712            6 
 4894000   0.47258434   -9.0451537    549.02816  0.009348661 0.0077119281            5 
 4895000   0.47287245   -9.0473998    548.91545 0.0093448324  0.007709287           10 
 4896000   0.47093142   -9.0510399    548.36823 0.0093336096 0.0077066498            8 
 4897000   0.47359807   -9.0384491    548.72092 0.0093377055 0.0077040107            5 
 4898000   0.47379641   -9.0387319    549.04519  0.009341316 0.0077013727            6 
 4899000    0.4778872   -9.0340904    548.83449 0.0093358252 0.0076987353            8 
 4900000   0.46580201   -9.0618382    548.74769 0.0093324436 0.0076960993            6 
 4901000   0.47072478    -9.045539    548.78129 0.0093311108 0.0076934645            7 
 4902000   0.45864902   -9.0314031    548.76271 0.0093288915 0.0076908328            7 
 4903000   0.47199048   -9.0341185     549.6557 0.0093421664 0.0076882023            6 
 4904000   0.46246088   -9.0524847    548.86083 0.0093267542 0.0076855719            4 
 4905000   0.46769819   -9.0537475    548.32516  0.009315752 0.0076829429            5 
 4906000   0.47398556   -9.0620306    549.73523 0.0093378045 0.0076803133            8 
 4907000   0.45711014   -9.0627316    548.86109 0.0093210564 0.0076776851            9 
 4908000   0.46351544   -9.0417164    548.78064 0.0093177914 0.0076750586            4 
 4909000   0.46736201   -9.0710711    548.68886 0.0093143352 0.0076724362            3 
 4910000   0.47146587   -9.0401967    549.03208 0.0093182633 0.0076698116            5 
 4911000   0.47854056   -9.0391481    548.93282 0.0093146816 0.0076671905            4 
 4912000   0.45660521   -9.0522844    549.27295 0.0093185557 0.0076645685            7 
 4913000   0.46916932   -9.0403495    548.85022 0.0093094888 0.0076619487           10 
 4914000   0.46756845   -9.0519717    548.35185 0.0092991427 0.0076593281            4 
 4915000   0.46354711   -9.0443619     548.7005  0.009303162 0.0076567097            4 
 4916000   0.46217419   -9.0500039    548.60946 0.0092997264 0.0076540938           12 
 4917000   0.46428617   -9.0585603    548.22526 0.0092913237 0.0076514751            8 
 4918000   0.46563389   -9.0529507    549.00536 0.0093026529  0.007648862            7 
 4919000   0.45226314   -9.0421796    548.86784  0.009298432 0.0076462497           10 
 4920000    0.4680897   -9.0621334    549.29545 0.0093037847  0.007643637            5 
 4921000   0.46198823   -9.0652055    548.63455 0.0092907023 0.0076410267           10 
 4922000    0.4584759   -9.0474928    548.40578 0.0092849413 0.0076384166            4 
 4923000   0.47316558   -9.0573757    549.13411 0.0092953841 0.0076358077            7 
 4924000   0.47278238   -9.0622041    548.41412 0.0092813113 0.0076331998            5 
 4925000    0.4647574   -9.0443074    548.92383 0.0092880513 0.0076305932            5 
 4926000   0.46056887   -9.0680616      547.631  0.009264295 0.0076279858            7 
 4927000    0.4791098   -9.0650485    548.69817 0.0092804643 0.0076253823            4 
 4928000   0.45969676   -9.0473695     549.0664 0.0092848078 0.0076227782            6 
 4929000   0.45468237   -9.0595733    549.26395 0.0092862642  0.007620179            4 
 4930000   0.46118908   -9.0571227    548.29014 0.0092679199  0.007617577            5 
 4931000   0.46183543    -9.063284     549.0159 0.0092783056 0.0076149782            5 
 4932000   0.46288141   -9.0540983    548.02146 0.0092596219 0.0076123787            6 
 4933000   0.46195089   -9.0559578    549.24073 0.0092783419  0.007609784            6 
 4934000   0.46357581    -9.056217    548.07883 0.0092568374 0.0076071904            7 
 4935000   0.45941845   -9.0518776    549.33474 0.0092761693 0.0076045989            5 
 4936000   0.46884259   -9.0603165      548.303 0.0092568712 0.0076020046           11 
 4937000   0.45775277   -9.0546017    548.22419  0.009253666 0.0075994125            7 
 4938000   0.46899624   -9.0628674    548.52447 0.0092568596 0.0075968216            2 
 4939000   0.45810085   -9.0567835    548.58644 0.0092560309 0.0075942318            4 
 4940000   0.45356322   -9.0657848    548.19467 0.0092475483 0.0075916448            7 
 4941000   0.45898933   -9.0638733    548.11296 0.0092442988 0.0075890569            6 
 4942000   0.46504385   -9.0699898    548.08711 0.0092419923 0.0075864726            7 
 4943000   0.45124339   -9.0699222    548.47012 0.0092465796 0.0075838856            7 
 4944000   0.46796891   -9.0634932    548.00145 0.0092368098 0.0075813019            5 
 4945000   0.45885662   -9.0734437    548.26444 0.0092393738 0.0075787189            5 
 4946000   0.46883897   -9.0458375    548.98089  0.009249577 0.0075761374            8 
 4947000   0.46499415   -9.0595469    548.24919 0.0092353816 0.0075735566           10 
 4948000   0.44710584   -9.0683193    548.66838  0.009240575 0.0075709789            6 
 4949000   0.48095345   -9.0633902    548.34276 0.0092332249 0.0075683998            4 
 4950000   0.45854627    -9.057366    548.66896 0.0092368512 0.0075658229            5 
 4951000   0.45972964   -9.0450218    549.15643 0.0092431904 0.0075632491            5 
 4952000   0.45619654   -9.0575206    549.53282 0.0092476578 0.0075606752            5 
 4953000   0.45592044   -9.0714751    548.21564 0.0092236294    0.0075581            5 
 4954000   0.45100179   -9.0570467    549.53198 0.0092439103 0.0075555287            9 
 4955000   0.45815121   -9.0478789    548.02549 0.0092167085 0.0075529547            6 
 4956000   0.46811563   -9.0586811    549.06945 0.0092324027 0.0075503861            9 
 4957000   0.44928742   -9.0736014    548.22519 0.0092163471 0.0075478164           12 
 4958000   0.45449672     -9.04761    548.29748 0.0092157032 0.0075452469            7 
 4959000   0.44567801   -9.0601271    548.83661 0.0092229047 0.0075426784            8 
 4960000   0.45372406   -9.0612436    548.35513 0.0092129558 0.0075401125            7 
 4961000   0.45636575   -9.0707659    548.87101 0.0092197643 0.0075375482            6 
 4962000   0.46552468   -9.0619014    548.11493 0.0092052084 0.0075349854            3 
 4963000    0.4610513   -9.0562547    548.74844 0.0092139908 0.0075324234           10 
 4964000   0.45559136   -9.0600743     547.9998 0.0091995669 0.0075298623            3 
 4965000   0.46258298   -9.0732237    548.34086 0.0092034384  0.007527302            6 
 4966000   0.45357625   -9.0788705     547.7805 0.0091921818 0.0075247431            6 
 4967000   0.44596972    -9.071104    548.85076 0.0092082873  0.007522188            6 
 4968000   0.45672497   -9.0499423     549.1282 0.0092110876 0.0075196323            5 
 4969000   0.45843531   -9.0579853    548.67174 0.0092015787 0.0075170768            4 
 4970000   0.45353589   -9.0508264    548.09687 0.0091900884 0.0075145232           10 
 4971000   0.45522509   -9.0509366     548.2621 0.0091910095 0.0075119679            5 
 4972000   0.44900239   -9.0733635    548.69466  0.009196411 0.0075094166           10 
 4973000   0.45028283   -9.0691768    547.67654 0.0091775008 0.0075068646            6 
 4974000   0.45163925   -9.0710442    547.67238 0.0091755861 0.0075043135            5 
 4975000   0.44788052   -9.0406422    548.29881 0.0091842347 0.0075017645            6 
 4976000   0.45566456    -9.074123    548.19333 0.0091806225 0.0074992156            7 
 4977000   0.45723134   -9.0586876    547.73593 0.0091711193 0.0074966692            8 
 4978000    0.4590032   -9.0577873    547.42929 0.0091641437 0.0074941234            8 
 4979000   0.44472637   -9.0583268    547.87595 0.0091697788 0.0074915801            5 
 4980000   0.45484002   -9.0758816     548.5364 0.0091789893  0.007489036            8 
 4981000   0.46176228     -9.07407    548.88609 0.0091829969 0.0074864937            8 
 4982000   0.45928862    -9.067995    548.38729 0.0091728104 0.0074839524            9 
 4983000   0.44660745   -9.0641462    547.77382   0.00916071 0.0074814126            5 
 4984000   0.45856143    -9.073932    548.45782 0.0091703087 0.0074788734            9 
 4985000   0.45148123   -9.0595338    548.44533 0.0091682604 0.0074763388            8 
 4986000   0.45469042   -9.0506654    548.07916 0.0091603015 0.0074738038            6 
 4987000   0.44043113   -9.0650814    547.32988  0.009145944 0.0074712691            7 
 4988000    0.4542946   -9.0688687    548.49386 0.0091635568 0.0074687347            7 
 4989000   0.45627081   -9.0691226    548.82152 0.0091671932 0.0074662008            3 
 4990000   0.44926252   -9.0619764    548.71968 0.0091636553 0.0074636693            7 
 4991000   0.43798258   -9.0814594    548.39346 0.0091563724 0.0074611375            9 
 4992000    0.4511378    -9.061858    548.89624 0.0091629313 0.0074586083            7 
 4993000   0.45015169   -9.0785479    547.78117 0.0091424857 0.0074560813            7 
 4994000   0.45101184   -9.0725949    547.91944 0.0091429622  0.007453555            5 
 4995000   0.43968659   -9.0430555    548.83011 0.0091563249 0.0074510309            9 
 4996000   0.45305917   -9.0619767    548.23095  0.009144498  0.007448505            5 
 4997000   0.44706206   -9.0773188    548.56604 0.0091482563 0.0074459833            5 
 4998000   0.45681252   -9.0622621    548.26254 0.0091413656 0.0074434613            8 
 4999000   0.45370115   -9.0791327    548.09525 0.0091367481 0.0074409402            3 
 5000000   0.44535324   -9.0692239    548.06531 0.0091344218 0.0074384199            9 
 5001000   0.46017331   -9.0701827    548.17045 0.0091343472 0.0074359013            6 
 5002000   0.44838592   -9.0696874    548.25583 0.0091339435 0.0074333844            6 
 5003000   0.45277318   -9.0963324    548.25648 0.0091321287  0.007430869            6 
 5004000   0.44704729   -9.0648127    548.69647 0.0091376311  0.007428353            4 
 5005000   0.44907018   -9.0797152    548.68378  0.009135594 0.0074258386            7 
 5006000   0.45332698   -9.0780964    548.84113 0.0091363885 0.0074233261            4 
 5007000   0.45645056   -9.0687584    547.90012 0.0091189022 0.0074208146            6 
 5008000   0.44639673   -9.0687239    548.14138 0.0091210959 0.0074183017            5 
 5009000    0.4530843    -9.064628    548.69931 0.0091285571 0.0074157907            6 
 5010000   0.45221324   -9.0817163    548.86527 0.0091294956 0.0074132822            7 
 5011000   0.44934178   -9.0897266    547.61032 0.0091068038 0.0074107737           10 
 5012000   0.45239779   -9.0910907    547.48922 0.0091029732 0.0074082646            6 
Loop time of 12583.4 on 48 procs for 5000000 steps with 4000 atoms

Performance: 68661.630 tau/day, 397.347 timesteps/s
99.4% CPU use with 48 MPI tasks x no OpenMP threads

MPI task timing breakdown:
Section |  min time  |  avg time  |  max time  |%varavg| %total
---------------------------------------------------------------
Pair    | 878.45     | 929.09     | 1001.5     |  95.1 |  7.38
Neigh   | 83.249     | 86.128     | 89.535     |  16.2 |  0.68
Comm    | 785.58     | 858.67     | 919.13     | 114.6 |  6.82
Output  | 21.442     | 21.446     | 21.522     |   0.2 |  0.17
Modify  | 10546      | 10572      | 10605      |  15.8 | 84.01
Other   |            | 116.2      |            |       |  0.92

Nlocal:        83.3333 ave          91 max          76 min
Histogram: 2 1 7 5 10 7 6 4 3 3
Nghost:        2221.96 ave        2241 max        2203 min
Histogram: 2 1 7 9 6 8 6 5 0 4
Neighs:        14874.8 ave       16395 max       13394 min
Histogram: 3 3 7 8 7 3 4 6 2 5
FullNghs:      29750.9 ave       32401 max       27245 min
Histogram: 3 4 4 8 7 8 4 5 2 3

Total # of neighbors = 1428044
Ave neighs/atom = 357.01100
Neighbor list builds = 266792
Dangerous builds = 0

#clear
#
#next RN
#
#jump SELF
Total wall time: 3:29:46
