
units lj                  # Use reduced LJ style units
atom_style atomic         # Uncharged point particles
atom_modify map hash      # Needed for indexing of clusters etc
                          # Used to be able to find where atoms are in relation to each other.

lattice fcc 1.0 spacing 1 1 1
Lattice spacing in x,y,z = 1.5874011 1.5874011 1.5874011
region box block 0 10 0 10 0 10 units lattice
create_box 2 box
Created orthogonal box = (0.0000000 0.0000000 0.0000000) to (15.874011 15.874011 15.874011)
  3 by 4 by 4 MPI processor grid
create_atoms 1 box
Created 4000 atoms
  using lattice units in orthogonal box = (0.0000000 0.0000000 0.0000000) to (15.874011 15.874011 15.874011)
  create_atoms CPU = 0.008 seconds
set type 1 type/fraction 2 0.44 78393
Setting atom values ...
  1760 settings made for type/fraction
mass 1 1.0
mass 2 1.0
pair_style lj/cut  3.5
pair_modify tail  yes
pair_coeff 1  1  1.0  1.0   # Intearaction between 1 and 1 set with epsilon = 1 and sigma = 1
pair_coeff 1  2  1.5  0.8
pair_coeff 2  2  0.5  0.88

write_data data.0
System init for write_data ...
Neighbor list info ...
  update every 1 steps, delay 10 steps, check yes
  max neighbors/atom: 2000, page size: 100000
  master list distance cutoff = 3.8
  ghost atom cutoff = 3.8
  binsize = 1.9, bins = 9 9 9
  1 neighbor lists, perpetual/occasional/extra = 1 0 0
  (1) pair lj/cut, perpetual
      attributes: half, newton on
      pair build: half/bin/atomonly/newton
      stencil: half/bin/3d
      bin: standard
WARNING: Not all mixed pair coeffs generated from mixing. Use write_data with 'pair ij' option to store all pair coeffs. (../write_data.cpp:312)


#############################
#   M E L T   S Y S T E M   #
#############################

velocity all create 2.4 2750902 mom yes dist gaussian # Assign velocities
                                                    # Temperature 2.4, random number seed, zero linear momentum
                                                                                # Gaussian distribution

timestep 0.002   # simulation timestep
thermo 1000       # output thermodynamic data every 1000 steps bf 100

# Define a fix  in this case with index 1 applied to all
# particles in the simulation. This fix is for simulations
# in the anisotropic NPT ensemble. Note that we use the MTK
# correction.
fix 1 all npt temp 2.4 2.4 0.1 iso 5.68 5.68 0.5 mtk yes tchain 5 pchain 5 # Use NPT ensemble
                                                                         # Set temperature and pressure and damping
                                                                         # Numbers of thermostats in chain and in barostat
run 10000          # run for 10000 steps
Per MPI rank memory allocation (min/avg/max) = 3.642 | 3.644 | 3.648 Mbytes
Step Temp E_pair E_mol TotEng Press Volume 
       0          2.4   -5.6445478            0   -2.0454478   -4.2010474         4000 
    1000    2.3896294   -4.9567799            0    -1.373232    5.8220783     3825.066 
    2000    2.4363227   -5.0109225            0   -1.3573521    5.7841175     3793.852 
    3000     2.378991   -4.9460328            0   -1.3784385    5.4094337    3855.8348 
    4000    2.4103838   -5.0532151            0   -1.4385434    5.4635974    3799.0843 
    5000    2.4123127   -5.0675795            0   -1.4500151     5.536304    3790.6169 
    6000    2.4004049   -5.0312567            0   -1.4315495    5.5628094    3804.3064 
    7000    2.3672817   -4.9923199            0   -1.4422851    5.4364254    3824.3878 
    8000    2.3684457   -5.0116611            0   -1.4598807    5.6694589     3807.843 
    9000     2.418152   -5.0471494            0   -1.4208282    5.9253134    3777.7787 
   10000    2.4207667   -5.0158007            0   -1.3855584    5.7379845     3804.012 
Loop time of 2.62438 on 48 procs for 10000 steps with 4000 atoms

Performance: 658440.370 tau/day, 3810.419 timesteps/s
99.7% CPU use with 48 MPI tasks x no OpenMP threads

MPI task timing breakdown:
Section |  min time  |  avg time  |  max time  |%varavg| %total
---------------------------------------------------------------
Pair    | 1.128      | 1.2139     | 1.3652     |   4.0 | 46.26
Neigh   | 0.21103    | 0.2208     | 0.24497    |   1.3 |  8.41
Comm    | 0.75446    | 0.90015    | 1.0062     |   5.9 | 34.30
Output  | 0.00025052 | 0.00025555 | 0.00032558 |   0.0 |  0.01
Modify  | 0.24368    | 0.27381    | 0.33052    |   5.1 | 10.43
Other   |            | 0.01544    |            |       |  0.59

Nlocal:        83.3333 ave          93 max          73 min
Histogram: 4 1 4 3 7 6 12 3 4 4
Nghost:        1700.10 ave        1727 max        1658 min
Histogram: 1 1 2 3 5 7 12 10 6 1
Neighs:        10031.7 ave       11602 max        8459 min
Histogram: 3 3 3 5 8 10 9 1 4 2

Total # of neighbors = 481523
Ave neighs/atom = 120.38075
Neighbor list builds = 908
Dangerous builds = 216

# Equilibrate just above the melting temperature to avoid step fn in T

fix 1 all npt temp 1.25 1.25 0.1 iso 5.68 5.68 0.5 mtk yes tchain 5 pchain 5
run 2000
Per MPI rank memory allocation (min/avg/max) = 3.643 | 3.645 | 3.649 Mbytes
Step Temp E_pair E_mol TotEng Press Volume 
   10000    2.4207667   -5.0158007            0   -1.3855584    5.7379845     3804.012 
   11000    1.2286643    -7.051686            0   -5.2091502    5.4807393      3006.16 
   12000    1.2703423   -7.1318325            0   -5.2267954    5.8038333    2974.1175 
Loop time of 0.634954 on 48 procs for 2000 steps with 4000 atoms

Performance: 544291.531 tau/day, 3149.835 timesteps/s
99.6% CPU use with 48 MPI tasks x no OpenMP threads

MPI task timing breakdown:
Section |  min time  |  avg time  |  max time  |%varavg| %total
---------------------------------------------------------------
Pair    | 0.27446    | 0.30186    | 0.36363    |   2.6 | 47.54
Neigh   | 0.039579   | 0.042659   | 0.049708   |   0.8 |  6.72
Comm    | 0.17915    | 0.24152    | 0.26862    |   3.2 | 38.04
Output  | 5.2271e-05 | 5.3719e-05 | 6.9903e-05 |   0.0 |  0.01
Modify  | 0.037744   | 0.044125   | 0.050242   |   1.9 |  6.95
Other   |            | 0.00474    |            |       |  0.75

Nlocal:        83.3333 ave          91 max          77 min
Histogram: 3 4 9 5 5 9 4 5 3 1
Nghost:        2005.77 ave        2027 max        1979 min
Histogram: 1 2 5 3 5 11 9 3 7 2
Neighs:        12857.6 ave       14896 max       11404 min
Histogram: 4 5 7 6 9 9 3 4 0 1

Total # of neighbors = 617166
Ave neighs/atom = 154.29150
Neighbor list builds = 144
Dangerous builds = 10

#############################
# L I N E A R  Q U E N C H  #
#############################

# Define solid atoms. This closely follows ten Wolde  Ruiz-Montero and Frenkel  Faraday Discuss  1996  104  93-110
# Compute components of the per-atom q6 vector
compute q6 all orientorder/atom degrees 1 6 components 6 nnn NULL cutoff 1.3 # compute the Q6 parameter.
                                                                             # Use all neighbours within 1.3 unit cell.

# get number of connections
compute coord_number all coord/atom orientorder q6 0.5

# An atom is solid if it has 8 or more connections (of a possible 14)
variable is_solid atom c_coord_number>=8
group solid dynamic all var is_solid    # Must be dynamic to update
dynamic group solid defined

# do clustering
compute cluster solid cluster/atom 1.3 # Create a cluster where all atoms within are solid and max 1.3 units from another member

# define chunks one chunk per cluster
compute clus_chunks solid chunk/atom c_cluster nchunk every compress yes  # Says which atoms are in which chunk

# count the size of each chunk
compute size_chunks solid property/chunk clus_chunks count


# Find the maximum entry in the vector of chunk sizes
variable max_n equal max(c_size_chunks)


# Thermo style which includes this variable
# thermo_style custom step temp pe vol v_max_n

thermo ${N}  # Print the thermo information every 100 steps
thermo 1000  

# Reset the npt fix at a lower temperature (below freezing)
fix 1  all npt temp  ${temp} ${temp}  0.1  iso  5.68  5.68  0.5  mtk yes tchain  5  pchain  5
fix 1  all npt temp  0.45 ${temp}  0.1  iso  5.68  5.68  0.5  mtk yes tchain  5  pchain  5
fix 1  all npt temp  0.45 0.45  0.1  iso  5.68  5.68  0.5  mtk yes tchain  5  pchain  5

dump dmp2 all dcd ${N} traj.dcd
dump dmp2 all dcd 1000 traj.dcd


compute msd all msd com yes
variable twopoint equal c_msd[4]/6/(step*dt+1.0e-6)
fix 9 all vector 10 c_msd[4]
variable fit equal slope(f_9)/6/(10*dt)
thermo_style custom step temp pe c_msd[4] v_twopoint v_fit v_max_n

fix 1 all npt temp 1.25 ${temp} 0.1 iso 5.68 5.68 0.5 mtk yes tchain 5 pchain 5
fix 1 all npt temp 1.25 0.45 0.1 iso 5.68 5.68 0.5 mtk yes tchain 5 pchain 5
run 500000 # 5000000  # Run for this many steps
Neighbor list info ...
  update every 1 steps, delay 10 steps, check yes
  max neighbors/atom: 2000, page size: 100000
  master list distance cutoff = 3.8
  ghost atom cutoff = 3.8
  binsize = 1.9, bins = 8 8 8
  4 neighbor lists, perpetual/occasional/extra = 1 3 0
  (1) pair lj/cut, perpetual
      attributes: half, newton on
      pair build: half/bin/atomonly/newton
      stencil: half/bin/3d
      bin: standard
  (2) compute orientorder/atom, occasional
      attributes: full, newton on
      pair build: full/bin/atomonly
      stencil: full/bin/3d
      bin: standard
  (3) compute coord/atom, occasional
      attributes: full, newton on
      pair build: full/bin/atomonly
      stencil: full/bin/3d
      bin: standard
  (4) compute cluster/atom, occasional
      attributes: full, newton on
      pair build: full/bin/atomonly
      stencil: full/bin/3d
      bin: standard
Per MPI rank memory allocation (min/avg/max) = 9.830 | 9.837 | 9.842 Mbytes
Step Temp PotEng c_msd[4] v_twopoint v_fit v_max_n 
   12000    1.2703423   -7.1318325 9.8075132e-31 6.8107728e-33 8.3333333e+20            2 
   13000    1.2484285   -7.1463811   0.45650852 0.0029263365  0.037870038            1 
   14000    1.2165179   -7.1616273   0.88528724 0.0052695667  0.035293204            2 
   15000    1.2319696   -7.1378898    1.3128499 0.0072936105  0.035489235            1 
   16000    1.2478771   -7.1550774    1.7048256 0.0088792997  0.035316804            1 
   17000    1.2547292   -7.1182234     2.118634   0.01038546  0.035086759            4 
   18000    1.2696545   -7.1690742    2.5044878  0.011594851  0.034442824            1 
   19000    1.2665979   -7.1910858    2.9051666  0.012741958  0.034366419            1 
   20000    1.2224062   -7.1536146    3.2848663  0.013686943  0.034074644            3 
   21000     1.204008   -7.2409258    3.6739533  0.014579179   0.03377621            3 
   22000     1.214461   -7.1412448    4.0851851  0.015474186  0.033587104            3 
   23000    1.2645961   -7.1127326    4.4798531  0.016231351  0.033469385            2 
   24000    1.2479875   -7.1787021    4.8766603  0.016932848    0.0334503            1 
   25000    1.2014159   -7.1657214    5.2733366  0.017577788  0.033417863            3 
   26000    1.2245715   -7.1597649    5.6146552  0.017995689  0.033312884            1 
   27000    1.2271885   -7.1811536    6.0483955  0.018667887  0.033181584            2 
   28000    1.2234389    -7.182147    6.5256287  0.019421514   0.03320108            1 
   29000     1.212598   -7.2016747    6.7710659  0.019457086  0.033154461            2 
   30000    1.2233969   -7.1853397    7.0975063  0.019715295   0.03294626            3 
   31000    1.2246555   -7.2128027    7.4058235  0.019908127   0.03273946            1 
   32000    1.2297445    -7.165167    7.7876103  0.020280235  0.032518797            2 
   33000    1.1878475   -7.2068235    8.1637075  0.020615423   0.03231046            3 
   34000    1.2061721   -7.2205631    8.4230434  0.020644714  0.032094693            2 
   35000    1.2106164   -7.2525844    8.7291331   0.02078365  0.031830643            1 
   36000    1.2350393   -7.2229289      9.11009  0.021088171  0.031611634            2 
   37000    1.2179981   -7.2505234    9.4906702  0.021375383  0.031443704            1 
   38000    1.1994753   -7.2038393     9.817534   0.02152968  0.031302904            1 
   39000    1.2152079   -7.2371214    10.255882  0.021914278  0.031176018            1 
   40000    1.2307031   -7.2143746    10.612731  0.022109856  0.031112768            2 
   41000    1.2275137   -7.2479331    10.937667  0.022231029  0.031016038       -1e+20 
   42000    1.2085206   -7.2341357    11.323527  0.022467315  0.030951093            3 
   43000    1.1859505   -7.2484319    11.663259  0.022603216  0.030879586            2 
   44000    1.2101348   -7.2496774    12.072172  0.022863962  0.030816117            1 
   45000    1.1979407   -7.2538868     12.44784  0.023051556  0.030769552            1 
   46000    1.2019778   -7.3014025    12.751395  0.023100354  0.030726483            1 
   47000    1.1959975   -7.2617524     13.22597  0.023450302  0.030699207            1 
   48000    1.1993762   -7.2327548    13.612339  0.023632533   0.03070526            1 
   49000    1.1933698   -7.2775876    13.947774  0.023720704  0.030699233            2 
   50000    1.1925746   -7.3069385    14.173461  0.023622436  0.030674768            5 
   51000    1.1833604   -7.2884007    14.478521  0.023657713  0.030616995            2 
   52000    1.2010235   -7.3012954    14.772628  0.023674083  0.030547604            1 
   53000    1.1819975   -7.2981856    15.147993  0.023817599  0.030475427            1 
   54000    1.1791682   -7.3203796    15.422082  0.023799509  0.030401339            1 
   55000    1.1845055   -7.2919071    15.821203  0.023971519  0.030347852            4 
   56000     1.195147   -7.2536783    16.344341  0.024321936  0.030309783            1 
   57000    1.1524608   -7.3091341    16.603043  0.024273455  0.030286581            1 
   58000    1.1650171     -7.32573    16.883006  0.024257193  0.030241555            1 
   59000    1.1571022   -7.3467888    17.367704  0.024530655  0.030211861            3 
   60000    1.1497066   -7.3615085    17.612645  0.024462007  0.030169254            2 
   61000    1.1837255    -7.325519    18.088021   0.02471041  0.030141745            3 
   62000    1.1692773   -7.2748248    18.554671  0.024939074  0.030135682            1 
   63000    1.1669663   -7.2839588    18.795941  0.024862355  0.030129715            1 
   64000    1.1731018   -7.3615404    19.017214  0.024761997  0.030103421            3 
   65000    1.1704284   -7.3255814    19.424835  0.024903634  0.030076092            1 
   66000    1.1502194   -7.3367427    19.778117   0.02497237  0.030059009            3 
   67000    1.1854396   -7.3344009    20.057315   0.02494691  0.030034018            3 
   68000     1.188613   -7.3536237     20.38539  0.024982096  0.029999636            2 
   69000    1.1631205   -7.4047653     20.67706  0.024972295  0.029962466            1 
   70000    1.1872382   -7.3733654    20.943944  0.024933267  0.029922021            2 
   71000    1.1641287    -7.385696    21.190695  0.024871707  0.029866181            4 
   72000    1.1321087    -7.351374    21.577384  0.024973824  0.029802843            8 
   73000    1.1621568   -7.3812478    21.886139  0.024984176  0.029750344            2 
   74000    1.1668777     -7.30544    22.155915  0.024950354  0.029696084            3 
   75000    1.1377228   -7.3571391    22.635969  0.025151076  0.029637857            1 
   76000    1.1596209    -7.364038    22.769385  0.024966431  0.029584179            2 
   77000    1.1254218   -7.3775015    22.917001  0.024801949  0.029514031            2 
   78000    1.1548837   -7.4113709    23.118748  0.024699517  0.029433152            4 
   79000    1.1495273   -7.4211252    23.378845  0.024661229  0.029342353            3 
   80000    1.1411656   -7.4062458    23.716742   0.02470494  0.029253846            1 
   81000    1.1345871   -7.4110471    23.947587  0.024637435  0.029157848            2 
   82000    1.1440188   -7.4109225    24.320686  0.024716144  0.029070908            1 
   83000    1.1302025   -7.4118836    24.536383  0.024634922   0.02898229            1 
   84000    1.1438382   -7.4097116    24.950031  0.024752015  0.028903246            1 
   85000    1.1118027   -7.4511669    25.231583  0.024736846  0.028830565            1 
   86000    1.1271899   -7.3734939    25.552043  0.024759731  0.028760528            1 
   87000    1.1115259   -7.4066273    25.771296  0.024685149  0.028684261            3 
   88000    1.1233128   -7.4137049    26.069643  0.024687162  0.028611538            1 
   89000    1.1406264   -7.4169119    26.477122  0.024791313  0.028544238            3 
   90000    1.1215639   -7.4797512    26.744557  0.024763478  0.028481561            1 
   91000    1.1177371   -7.4152969    26.925788  0.024657315   0.02841562            2 
   92000    1.1338726   -7.4653762    27.164242  0.024605291  0.028345429            2 
   93000    1.1174108   -7.4715246    27.582766   0.02471574  0.028281254            2 
   94000    1.1049872   -7.4568605    27.915893  0.024748132  0.028219382            4 
   95000    1.1282491   -7.4472745    28.198493   0.02473552    0.0281595            1 
   96000    1.1328077   -7.4311942    28.590152   0.02481784  0.028103285            2 
   97000    1.1273315   -7.4571937    28.788649  0.024732516  0.028048064            3 
   98000    1.1292695   -7.4828233    29.122518  0.024764045  0.027991516            1 
   99000    1.0909053   -7.4887128    29.421521   0.02476559  0.027940875            4 
  100000    1.1034917   -7.5469675    29.606445  0.024672037  0.027887126            5 
  101000    1.1145449   -7.5096564    30.044793  0.024789433   0.02783921            7 
  102000    1.0912797   -7.4505968    30.408423  0.024843483  0.027796214            2 
  103000    1.0952488   -7.5079597    30.662057   0.02480749  0.027753408            1 
  104000    1.1133444    -7.474628    31.038847  0.024870871  0.027709711            2 
  105000    1.1058462   -7.5062262    31.097704  0.024680718  0.027661859            2 
  106000    1.0960989   -7.5257845    31.419428  0.024700808  0.027612248            2 
  107000    1.0858754   -7.4878714    31.829551   0.02478937  0.027568197            2 
  108000    1.0903572   -7.5070756    32.031051  0.024715317  0.027523054            1 
  109000    1.0737315    -7.522475     32.28179  0.024680267  0.027473366            2 
  110000    1.0736812    -7.540004    32.487877  0.024612028  0.027424045            1 
  111000    1.0772008   -7.5347555     32.66526  0.024523468  0.027367377            2 
  112000      1.09065   -7.5350164    32.699065  0.024329661   0.02730431            2 
  113000     1.088732    -7.531829    32.930295  0.024284878  0.027235264            2 
  114000    1.1012649   -7.5442564     33.03118  0.024145599  0.027161522            1 
  115000    1.1041435    -7.573296    33.193862  0.024053523  0.027084188            3 
  116000    1.0680552   -7.5303662    33.414662  0.024004786  0.027007056            2 
  117000    1.0683313   -7.5338597    33.694013  0.023998585  0.026934192            5 
  118000    1.0659121   -7.5513338    33.984391  0.024000276  0.026861554            4 
  119000    1.0829369   -7.5182637     34.25521  0.023988242  0.026788368            2 
  120000    1.0803047   -7.5836296    34.281082  0.023806307  0.026710213            2 
  121000    1.0857021   -7.5799072    34.560582  0.023802053  0.026635617            1 
  122000    1.0857219   -7.5263495    34.902037  0.023840189  0.026562677            3 
  123000    1.0744532   -7.5479221    35.112964  0.023789271  0.026491399            9 
  124000    1.0520241    -7.579247    35.305551  0.023726849  0.026417693            2 
  125000    1.0659889   -7.6439447    35.558697  0.023705798  0.026346118            3 
  126000    1.0775946   -7.5580322    35.866479  0.023721216  0.026274487            1 
  127000    1.0663525   -7.5953149     35.99078  0.023615997  0.026206035            3 
  128000     1.075308   -7.5757528    36.338736  0.023658031  0.026134773            1 
  129000    1.0665821   -7.6091285    36.333724  0.023471398  0.026062329            1 
  130000    1.0580638   -7.6332499    36.683521  0.023515078   0.02598856            2 
  131000    1.0859711   -7.6082132    36.898675  0.023472439  0.025918709            1 
  132000    1.0545292   -7.5966884    37.043417  0.023385995  0.025846322            3 
  133000    1.0787298   -7.6075489    37.080394  0.023233329  0.025769719            1 
  134000    1.0435797   -7.6246978    37.179349  0.023121485  0.025688937            2 
  135000    1.0634702    -7.625026    37.425208   0.02310198  0.025608368            3 
  136000    1.0509747   -7.6089531    37.583881  0.023029339  0.025527862            1 
  137000    1.0509797   -7.6300888    37.792061  0.022987871  0.025448612            3 
  138000    1.0577072   -7.6496785     37.87225  0.022869716  0.025366001            4 
  139000    1.0540948   -7.6242027    38.114192  0.022850235  0.025283749            1 
  140000    1.0423094   -7.6561752    38.268164  0.022778669  0.025200297            1 
  141000    1.0604222   -7.6275363    38.656366  0.022846552  0.025119522            3 
  142000    1.0194125   -7.6890737     38.80315  0.022771802  0.025041295            2 
  143000    1.0161901   -7.6182678    39.134131  0.022805437  0.024966143            2 
  144000    1.0216581   -7.6511239    39.234796  0.022705321  0.024891841            1 
  145000    1.0428456   -7.6334087    39.597473  0.022757169  0.024821322            2 
  146000    1.0349435      -7.6841    39.763935   0.02269631  0.024750819            4 
  147000    1.0464027   -7.6719943    39.886307  0.022611285  0.024682235            3 
  148000    1.0164029   -7.6589706    40.263588  0.022670939    0.0246153            2 
  149000    1.0330682   -7.6703643    40.510718  0.022657001  0.024548692            2 
  150000    1.0417496   -7.6847806    40.495582  0.022497545  0.024480896            4 
  151000     1.038796   -7.7095938    40.739863  0.022483368  0.024411667            2 
  152000    1.0129893   -7.7625419    40.604115  0.022261028   0.02434168            2 
  153000    1.0038442   -7.7362194    40.808609  0.022226911  0.024267761            3 
  154000    1.0381367   -7.7373173    41.088518  0.022234047  0.024195907            3 
  155000    1.0104129   -7.7303497    41.246661  0.022175624   0.02412274            5 
  156000     1.028218   -7.7255367    41.159735  0.021987038  0.024047092            1 
  157000    0.9961312   -7.7327167    41.385544  0.021966849  0.023969486            5 
  158000    1.0282787   -7.7572845    41.262551  0.021762949  0.023889679            3 
  159000    1.0044234   -7.7195627    41.562177  0.021783111  0.023810028            2 
  160000    1.0064306   -7.7254014    42.008787  0.021879576  0.023732822            4 
  161000    1.0224675   -7.7423068    42.063526  0.021772012  0.023656423            2 
  162000    1.0116983   -7.7632079    42.238704  0.021727728  0.023580316            1 
  163000   0.99620734   -7.7480574    42.307543  0.021629623  0.023504763            4 
  164000    1.0045032   -7.7525781    42.409788  0.021549689  0.023428449            3 
  165000    0.9943389   -7.7504769    42.609162  0.021519778  0.023352393            2 
  166000    1.0117135   -7.7239305    42.823614  0.021497798   0.02327589            2 
  167000   0.99492421   -7.7604858    42.919342  0.021416837  0.023202106            3 
  168000    1.0031542   -7.7561946    43.134402  0.021396032  0.023127776            2 
  169000   0.98747648   -7.7911533    43.143077  0.021273707  0.023053291            2 
  170000    0.9945967   -7.7693246    43.454905  0.021301424   0.02297944            3 
  171000    1.0012104   -7.7461575    43.634831  0.021264537  0.022905554            2 
  172000   0.98796379   -7.7484847    43.773862  0.021208267  0.022832077            1 
  173000   0.99009676   -7.7944105    43.811362  0.021103739  0.022758864            2 
  174000   0.98661116   -7.7891342    43.956751  0.021052084  0.022686142            1 
  175000   0.99029394   -7.7648285    44.216808  0.021055623  0.022612731            2 
  176000   0.99867134   -7.8159667    44.212463  0.020933931  0.022540066            5 
  177000   0.99117415   -7.7784945    44.356153  0.020883311   0.02246707            2 
  178000   0.98211555   -7.8269711    44.535986  0.020850181  0.022394099            6 
  179000   0.99409066   -7.7800243    44.616187  0.020771036  0.022322795            2 
  180000   0.99603152   -7.7927426    44.805922  0.020743482  0.022251016            2 
  181000   0.97455649   -7.8004541    44.884183  0.020664909  0.022179922            2 
  182000   0.97730511   -7.8374479    45.182547  0.020687979   0.02210931            4 
  183000   0.97761927   -7.8020901    45.300332  0.020628566  0.022038464            5 
  184000   0.98817827   -7.8319926    45.326416  0.020528268  0.021967087            1 
  185000   0.98872578   -7.8249379    45.417287  0.020458237  0.021896147            3 
  186000   0.97003958    -7.832442    45.516084  0.020392511  0.021824494            3 
  187000   0.98228031   -7.8085679     45.78587  0.020403685  0.021754495            4 
  188000   0.97388212   -7.8283646    45.671532  0.020244473  0.021683932            4 
  189000   0.97549499   -7.8249401    45.851715  0.020216806  0.021611911            4 
  190000   0.93400235   -7.8404773    46.055845  0.020199932  0.021541232            5 
  191000   0.95462346   -7.8370796    46.293927  0.020198048  0.021471646            2 
  192000   0.96091555   -7.8625056    46.534214  0.020197141  0.021403617            1 
  193000   0.95387467   -7.8694776      46.7345  0.020178972  0.021337375            5 
  194000   0.96852089   -7.8853299    46.959943  0.020171797  0.021273769            2 
  195000    0.9521394   -7.9128536    47.057138  0.020109888  0.021210678            3 
  196000   0.96004505   -7.8589075    47.119402  0.020033759  0.021148144            6 
  197000   0.94742102   -7.9065998    47.172162  0.019954383  0.021084501            3 
  198000   0.97305195   -7.9106921    47.332806  0.019921215  0.021020322            5 
  199000    0.9561452   -7.8933194    47.432568  0.019862885  0.020955345            1 
  200000   0.95396775   -7.9307779    47.530127   0.01980422  0.020891043            3 
  201000   0.93898037   -7.9019389     47.65492   0.01975743  0.020826449            3 
  202000   0.95282755   -7.9137786    47.614248  0.019642841  0.020762331            8 
  203000   0.94949072   -7.8956379    47.753274   0.01960315  0.020697166            5 
  204000    0.9372293   -7.9407833    48.053764  0.019629805  0.020631772            3 
  205000   0.94188347   -7.8932564    47.995559   0.01951039  0.020567011            6 
  206000   0.90708763   -7.9218919    48.261508  0.019523264  0.020503227            6 
  207000   0.92598135    -7.905703    48.335358  0.019458679   0.02044071            2 
  208000   0.91315111   -7.9376538    48.402245  0.019391925  0.020377375            1 
  209000   0.93364374    -7.891076    48.590448  0.019374182  0.020314421            2 
  210000   0.93947647   -7.9685535     48.59993  0.019285687  0.020251264            5 
  211000   0.93524042   -7.9363508    48.726378  0.019244225  0.020188285            4 
  212000   0.92404669   -7.9439583    48.844089   0.01919972  0.020125608            4 
  213000   0.92984875   -7.9508574    48.778464  0.019083906  0.020063124            4 
  214000   0.91673314   -8.0008914    48.883764  0.019035734  0.020000456            2 
  215000   0.92687521   -7.9091571    49.313582  0.019113792   0.01993917            3 
  216000   0.91997185   -7.9369602    49.373277  0.019048332  0.019878892            1 
  217000   0.90901585   -7.9608202    49.656268  0.019069227  0.019819709            3 
  218000    0.9187247   -8.0109635    49.625614  0.018970036  0.019760649            5 
  219000   0.92003277   -8.0027917    49.692523  0.018908875  0.019700739            2 
  220000   0.91491335   -8.0071886    49.816163  0.018869759   0.01964077            5 
  221000   0.92325847   -7.9890617    49.827282  0.018788568  0.019580446            3 
  222000   0.90174167   -8.0099386    49.949486  0.018749807  0.019519643            2 
  223000   0.92147462   -8.0152129    49.946382  0.018664567  0.019458771            3 
  224000   0.93100722   -8.0493591    49.853819  0.018546808  0.019397637            3 
  225000   0.90932499   -8.0043326    50.049176  0.018536732  0.019335133            4 
  226000   0.89789422   -7.9937054    50.076881  0.018464926  0.019273463            1 
  227000   0.88450699   -7.9792299    50.218554  0.018435592  0.019211868            7 
  228000   0.91679654   -8.0209614    50.062345  0.018297641  0.019150521            3 
  229000   0.90921822   -8.0200343     50.34005  0.018318796  0.019087909            3 
  230000   0.89806515   -8.0083888    50.312264  0.018229081  0.019025579            3 
  231000   0.88386412   -8.0405946    50.318533  0.018152429  0.018962617            3 
  232000   0.90267293   -8.0568999    50.567407   0.01816358  0.018900151            6 
  233000   0.88714294   -8.0668735    50.465755  0.018049269  0.018838139            1 
  234000   0.88563913    -8.044245    50.669715   0.01804477  0.018776234            3 
  235000   0.90059364   -8.0261482     50.64242  0.017958305  0.018714802            3 
  236000   0.89388193   -8.0681427    50.783679   0.01793209  0.018653825            3 
  237000   0.90356838   -8.0784652    50.780228  0.017855214  0.018592437            3 
  238000   0.90494531   -8.0590199     50.81294  0.017791646  0.018530296            2 
  239000   0.85936052   -8.0783979     50.86377  0.017734927  0.018467883            3 
  240000   0.86620095   -8.0546653    50.912855  0.017678075  0.018405745            2 
  241000   0.88428754   -8.0545803    51.010913  0.017638628   0.01834386            7 
  242000   0.86956459   -8.0850176    50.853876  0.017511665  0.018281381            5 
  243000   0.87029137   -8.0590888    51.056429  0.017509063  0.018219503            5 
  244000   0.89356447   -8.0965033    51.275215  0.017512027  0.018157685            2 
  245000     0.895394   -8.0483388    51.295786  0.017447546  0.018096505            3 
  246000   0.86828218   -8.0930551    51.408972  0.017414963  0.018035542            2 
  247000    0.8685401   -8.1082127    51.450471  0.017358458  0.017975046            2 
  248000   0.86529407   -8.0953054    51.468542  0.017294537   0.01791477            6 
  249000   0.88521155   -8.1384034    51.548642  0.017251888  0.017854774            2 
  250000   0.87326792   -8.1114626     51.71222  0.017237407  0.017795862            2 
  251000     0.871981   -8.1186775    51.781497  0.017191732  0.017737294            4 
  252000   0.85468617   -8.1113862    51.864828  0.017151068  0.017678344            2 
  253000   0.84991387   -8.1679183    51.675769  0.017021004  0.017619558            1 
  254000   0.85176628   -8.1559692    51.935125  0.017039083  0.017560929            3 
  255000    0.8626541   -8.1351711    52.054662  0.017011327   0.01750225            6 
  256000    0.8528301   -8.1458824    51.857396  0.016880663  0.017443222            3 
  257000   0.86758844   -8.1744706    51.928267  0.016837959  0.017384382            3 
  258000   0.86119208    -8.116957     52.22191  0.016867542  0.017325973            3 
  259000   0.86347483   -8.1353826     52.14431  0.016777448  0.017268161            2 
  260000   0.85097627   -8.1636364    52.308133  0.016765427  0.017210288            4 
  261000   0.86144984   -8.1789887    52.249952  0.016682616  0.017152812            4 
  262000   0.84613259   -8.1425375    52.391222  0.016663875  0.017094983            3 
  263000   0.83181284   -8.1733748    52.444337  0.016617344  0.017037819            7 
  264000   0.83361285   -8.1879436    52.566159  0.016592853  0.016980312            2 
  265000   0.83446503   -8.2090689    52.659103  0.016559466  0.016923168            4 
  266000   0.84346061   -8.1882913    52.581295  0.016472837  0.016866069            4 
  267000   0.85481856   -8.2159642     52.82419  0.016486951  0.016809415            2 
  268000   0.83597887   -8.2317745    52.629463  0.016364883  0.016752606            1 
  269000   0.86912968    -8.252471    52.723003  0.016333024  0.016696102            3 
  270000   0.82748823   -8.2065484    52.744188   0.01627907  0.016639416            2 
  271000   0.84947184   -8.2319285    52.973911   0.01628964  0.016583453            3 
  272000   0.84377514   -8.2340142    52.953519  0.016223504  0.016528379            3 
  273000   0.84366857   -8.2272335     53.07457  0.016201029  0.016473513            6 
  274000   0.84621315   -8.2403484    53.063953  0.016138672   0.01641865            5 
  275000   0.81896706   -8.2502277    53.192367  0.016118899  0.016364202            4 
  276000   0.82363035   -8.2508154    53.298994  0.016092692  0.016310657           10 
  277000   0.81281541   -8.2280063     53.27337  0.016026886  0.016256733            2 
  278000   0.81953478   -8.2507801    53.427114  0.016015322  0.016203606            2 
  279000   0.82571898   -8.2226601    53.543873  0.015992794  0.016151018            4 
  280000   0.84179127   -8.2177614     53.50267  0.015923414   0.01609849            4 
  281000   0.80426017   -8.2668238    53.407618  0.015838558  0.016045635            8 
  282000   0.82064113   -8.2754127    53.544931   0.01582297  0.015992546            4 
  283000   0.81799419   -8.2758024    53.525543  0.015761349  0.015939654           10 
  284000   0.78923573   -8.2459584    53.650374  0.015742481  0.015886664            7 
  285000   0.80900265   -8.2782996    53.723226  0.015708546  0.015834135            3 
  286000   0.80262073    -8.260617    53.628772  0.015626099  0.015782103            3 
  287000   0.78566429   -8.3000415    53.747213  0.015606043  0.015729451            2 
  288000   0.79682412   -8.2923187    53.686927  0.015534412  0.015676859            3 
  289000   0.80465699   -8.2847421    53.644089  0.015468307  0.015624509            4 
  290000    0.8100708   -8.2957356    53.840094  0.015471291  0.015572137            2 
  291000   0.80607891   -8.2930238    53.718368  0.015383267  0.015519936            2 
  292000   0.79822085   -8.3145229    53.717956  0.015330467  0.015467502            2 
  293000   0.78477736   -8.3046645     53.90894  0.015332463  0.015415477            6 
  294000    0.7913591   -8.3047545    53.838111  0.015260235  0.015363754            5 
  295000   0.81262009   -8.3190416    53.821809  0.015203901  0.015311679            3 
  296000   0.79407317   -8.3435038    53.789133  0.015143337  0.015259398            6 
  297000   0.79596539   -8.3619017    53.796582  0.015094439  0.015207458            2 
  298000   0.79600191   -8.3845962    53.939834  0.015083846  0.015155707            4 
  299000   0.80284251    -8.364028    54.011169   0.01505328  0.015104245            4 
  300000   0.79493523   -8.3375624    54.093819  0.015026061   0.01505331            4 
  301000   0.77640139   -8.3361298    53.995777  0.014948997   0.01500235            3 
  302000   0.78021166    -8.330739    54.061279  0.014917571  0.014951771            6 
  303000   0.78090953   -8.3502931    54.048644  0.014864864    0.0149013            6 
  304000   0.80155505   -8.3930954    54.141343  0.014841377  0.014850956            7 
  305000    0.7744804   -8.3457301     54.20403  0.014809844  0.014800689            5 
  306000    0.7850479   -8.3768452    54.258053  0.014776158  0.014750749            3 
  307000   0.78166403   -8.3619188    54.326434  0.014746589  0.014700993            4 
  308000   0.77238975   -8.3889023    54.151567  0.014651398  0.014651584            6 
  309000   0.78006402   -8.4001921    54.152873  0.014604335  0.014601559            3 
  310000   0.75505951   -8.3619145    54.258139  0.014585521  0.014551836            3 
  311000   0.75758213    -8.383026    54.410805   0.01457953  0.014502592            3 
  312000   0.77350183   -8.4031029    54.373524  0.014522843  0.014453975            3 
  313000   0.76963054   -8.3931895    54.432002  0.014492013  0.014405564            8 
  314000   0.76661053   -8.3770221     54.51605  0.014468166  0.014357146            3 
  315000   0.76605549   -8.3731028    54.594932  0.014443104  0.014308939            4 
  316000   0.76779072    -8.394212     54.61832  0.014403565  0.014260758            8 
  317000   0.74461425   -8.4560069    54.486449  0.014323462  0.014212861            5 
  318000   0.77830738   -8.3857948    54.609762  0.014310734  0.014164957            7 
  319000   0.75214795   -8.4234407    54.722454  0.014295312  0.014117476            4 
  320000   0.75080712    -8.430924    54.632791  0.014227289  0.014069922            3 
  321000   0.77081733   -8.4413403    54.543449  0.014159774  0.014022284            4 
  322000   0.76616409   -8.4706325    54.526664  0.014111456  0.013974797            3 
  323000   0.74296025   -8.4360012    54.675895  0.014106268  0.013927369            3 
  324000   0.75793017    -8.433555    54.621823  0.014048823    0.0138801            4 
  325000   0.74734746   -8.4662904    54.617979   0.01400461  0.013832666            1 
  326000   0.74916461   -8.4457859    54.649625  0.013969741  0.013785722            5 
  327000   0.76321137    -8.450877    54.615235  0.013918256  0.013738798            3 
  328000   0.75972898   -8.4771757    54.684022  0.013893298   0.01369209            5 
  329000   0.74384427   -8.4392792    54.793021  0.013878678   0.01364547            2 
  330000   0.74141123   -8.4828165     54.72551  0.013819573  0.013598759            3 
  331000   0.73827397   -8.4665194     54.71578  0.013775373  0.013552252            1 
  332000   0.73660961   -8.4771178    54.738055  0.013739472  0.013505764            3 
  333000   0.74932384    -8.516965    54.605153  0.013664953  0.013459319            2 
  334000    0.7554247   -8.4708547    54.669499  0.013640094  0.013412962            5 
  335000   0.73704828   -8.4908441     54.80675   0.01363352   0.01336697            2 
  336000   0.72920336   -8.5242966    54.646793  0.013553272  0.013320741            2 
  337000    0.7249223   -8.4966799    54.624787  0.013507613  0.013274581            3 
  338000   0.72858494   -8.5134252    54.671056  0.013479057  0.013228506            3 
  339000   0.72463304   -8.4980855    54.655139  0.013435383   0.01318225            2 
  340000   0.72290637   -8.4942912    54.714728  0.013410473  0.013136111            3 
  341000   0.72427942   -8.5143311    54.723887  0.013373384  0.013090496            3 
  342000     0.704186   -8.5273371    54.721666  0.013333739  0.013045106            4 
  343000   0.72970799   -8.5330895    54.734359  0.013297949  0.012999796            3 
  344000   0.71359128   -8.5115191    54.738918  0.013260397  0.012954601            6 
  345000   0.70633341   -8.5197172    54.645936  0.013199502  0.012909478            3 
  346000   0.72093126   -8.5531834    54.681924   0.01317002  0.012864528            4 
  347000   0.71537725   -8.5059898     54.74717  0.013147735  0.012820046            6 
  348000    0.7137434   -8.5452402     54.87288  0.013140057  0.012775713            4 
  349000   0.69922804   -8.5326948    54.751122  0.013073334  0.012731322            4 
  350000   0.70491055   -8.5496552     54.74819  0.013035283  0.012687022            5 
  351000   0.70054852    -8.556923    54.926731  0.013040534  0.012643077            4 
  352000   0.70230472   -8.5595884    54.730092  0.012956935   0.01259922            2 
  353000   0.70955682    -8.582045    54.781824  0.012932442  0.012555475            5 
  354000   0.70079612   -8.5774826    54.865514  0.012915611  0.012511798            3 
  355000   0.70140653   -8.5957409    54.734529  0.012848481   0.01246833            3 
  356000   0.70227268   -8.5948537    54.730564  0.012811462   0.01242501            4 
  357000   0.69010047   -8.5812032     54.84646  0.012802628   0.01238171            3 
  358000   0.68931523   -8.5904755    54.801789  0.012756469  0.012338602            4 
  359000   0.70123264   -8.5971653    54.845754  0.012731141  0.012295652            5 
  360000   0.70593647   -8.5780542    54.913528  0.012711465  0.012253023            3 
  361000   0.69793684   -8.5836824    54.806195  0.012651476    0.0122106            3 
  362000    0.6959615   -8.5994639     54.89332  0.012636584  0.012168038            6 
  363000   0.69369706   -8.6157672     54.77416  0.012574417  0.012125812            4 
  364000   0.67569849   -8.6081938    54.828146  0.012552231  0.012083416            3 
  365000   0.68699783    -8.610217    54.924321  0.012539799   0.01204138            6 
  366000   0.69231096   -8.6371052    54.844162  0.012487286  0.011999389            2 
  367000   0.69065847   -8.6309644    54.859095  0.012456652  0.011957613            6 
  368000   0.67013676   -8.6392285    54.929302  0.012438701  0.011915798            5 
  369000    0.6767684   -8.6170118    54.854141  0.012388017  0.011874116            5 
  370000   0.67542231   -8.6272451    54.839581  0.012351257  0.011832636            6 
  371000   0.67478673   -8.6276337    54.824139  0.012314497  0.011791284            9 
  372000   0.67439072   -8.6591512    54.767529  0.012268712  0.011750021            6 
  373000   0.66362876   -8.6502675    54.845914  0.012253332  0.011708919            3 
  374000     0.671878   -8.6519607    54.725374  0.012193711  0.011667831            7 
  375000   0.66720885   -8.6370467    54.743665  0.012165259  0.011626809            3 
  376000   0.67587925   -8.6601457    54.676762  0.012118077   0.01158597            2 
  377000   0.66379842   -8.6488462    54.818805  0.012117331  0.011545278            2 
  378000   0.67043787   -8.6397647    54.867974  0.012096114  0.011504606            3 
  379000   0.64460721   -8.6307101    54.923826  0.012076479  0.011464245            8 
  380000   0.66132671   -8.6782425    54.794557   0.01201635  0.011423943            3 
  381000   0.65361166   -8.6585138     54.83874  0.011994475  0.011383859            3 
  382000   0.65334933   -8.6663896    54.777876  0.011949798  0.011343889            4 
  383000   0.66561876   -8.6710354    54.857031   0.01193582  0.011304118            7 
  384000     0.653242   -8.6892072    54.692633  0.011869061  0.011264335            6 
  385000   0.65093333   -8.6879041    54.806807  0.011862945  0.011224754            6 
  386000   0.64650084   -8.6693777    54.883531  0.011848776  0.011185343            3 
  387000   0.65822515   -8.6833218    54.742063  0.011787697  0.011146122            4 
  388000   0.65498862   -8.6951405    54.895191  0.011790204   0.01110701            7 
  389000   0.65104014   -8.7106815    54.748572  0.011728486  0.011068063            7 
  390000   0.63103534   -8.6988862    54.784236  0.011706033  0.011029179            3 
  391000   0.63940467   -8.7162663    54.762783  0.011671522   0.01099036            5 
  392000   0.64369806    -8.710237    54.733342  0.011635489  0.010951689            6 
  393000   0.63221235   -8.7087132    54.742427  0.011607809  0.010913222           10 
  394000    0.6273882   -8.7165176    54.812717  0.011593214  0.010874894            5 
  395000   0.64062856   -8.7056736    54.702021  0.011540511  0.010836714           11 
  396000   0.61804929   -8.7344424    54.756748  0.011522885  0.010798675            7 
  397000   0.63613301   -8.7320868    54.759159  0.011494366  0.010760726           14 
  398000   0.64570409    -8.765554    54.635795  0.011439655  0.010722896            7 
  399000   0.61428846   -8.7371562    54.533633  0.011389648   0.01068531           15 
  400000   0.62709293   -8.7576727    54.700684  0.011395976    0.0106477            5 
  401000   0.62823349   -8.7607543    54.617584  0.011350288  0.010610219           14 
  402000    0.6265233   -8.7352345    54.636043   0.01132588  0.010572907            9 
  403000   0.62893184   -8.7613124    54.712596  0.011313605  0.010535836           14 
  404000   0.62316787   -8.7575787    54.699882  0.011282979  0.010498856            6 
  405000   0.61330309   -8.7658795    54.671596  0.011249299  0.010462039            8 
  406000   0.62424586   -8.7640397    54.698525  0.011227119  0.010425236            9 
  407000   0.60575761    -8.775021    54.652054  0.011190019  0.010388686            8 
  408000   0.61873797    -8.780224    54.569893  0.011145811  0.010352111            7 
  409000   0.61388222   -8.7781129    54.558738  0.011116287  0.010315719            9 
  410000   0.62689865   -8.8042046    54.570823  0.011091631  0.010279486            5 
  411000    0.6164561    -8.792146    54.529007  0.011056165  0.010243317            6 
  412000   0.60421545   -8.7903147    54.556613  0.011034914  0.010207298            9 
  413000   0.60714895   -8.7848362    54.504186  0.010997616  0.010171402            9 
  414000   0.60133476   -8.7828795    54.526936  0.010975631  0.010135621           12 
  415000   0.60568983   -8.7936892    54.501022   0.01094398  0.010100087           11 
  416000   0.60180219   -8.8217417    54.546195  0.010926722  0.010064675           12 
  417000   0.59960944   -8.8027095    54.581904  0.010907655  0.010029399            9 
  418000    0.6006889   -8.7873641    54.492915  0.010863819 0.0099942688            4 
  419000   0.60964609   -8.7882529    54.611163  0.010861409 0.0099593292            4 
  420000    0.6004158   -8.8006414    54.587801  0.010830913 0.0099244835           11 
  421000   0.59082937   -8.8179354    54.537558  0.010795241 0.0098897724           16 
  422000   0.60673231   -8.8257683    54.574674  0.010776989 0.0098552816            8 
  423000   0.58878245   -8.8306187      54.5425  0.010745173 0.0098208485           16 
  424000    0.5963637   -8.8278436    54.436862  0.010699069  0.009786561            8 
  425000   0.59738569   -8.8394443    54.502015   0.01068667 0.0097524832           10 
  426000   0.59220638   -8.8438585      54.4736  0.010656025 0.0097184184           12 
  427000   0.59295595   -8.8268339    54.469475  0.010630264 0.0096845073            6 
  428000    0.5908472   -8.8285559    54.468342  0.010605207 0.0096506743            8 
  429000   0.58310038   -8.8275437    54.494999  0.010585664 0.0096170357            3 
  430000   0.57295226   -8.8425963    54.463452  0.010554933 0.0095833514           12 
  431000   0.57214963   -8.8389972     54.51882  0.010541149 0.0095498426           12 
  432000   0.57536711   -8.8314548    54.472563  0.010507825 0.0095164682            7 
  433000   0.58035356   -8.8363351    54.508445  0.010490463 0.0094833845            8 
  434000    0.5805143   -8.8472345    54.428918  0.010451021  0.009450344            7 
  435000   0.57061548   -8.8535991    54.532967  0.010446929 0.0094174934           14 
  436000   0.57527886   -8.8552263    54.438465  0.010404905 0.0093847379           10 
  437000   0.58158943   -8.8717827    54.392469  0.010372324  0.009352159           11 
  438000    0.5743552   -8.8569529    54.419199  0.010353729 0.0093196153           13 
  439000   0.55206262   -8.8803369    54.281887  0.010304079 0.0092872527            8 
  440000   0.57118488   -8.8640585    54.303367  0.010284729  0.009254989            8 
  441000   0.55662184   -8.8662865    54.393083   0.01027836 0.0092228696            5 
  442000   0.55932414    -8.869703    54.472934  0.010270161 0.0091908678            7 
  443000   0.56269488   -8.8906161    54.391265  0.010231615 0.0091590365            9 
  444000   0.54936011    -8.894127    54.457453  0.010220993 0.0091273268           16 
  445000   0.55158361   -8.8715783    54.385219  0.010184498  0.009095745            6 
  446000   0.54570068   -8.9005145    54.341189  0.010153436 0.0090643003           15 
  447000   0.53832782   -8.8902189    54.438345  0.010148834  0.009033026            5 
  448000   0.56202299   -8.8873358    54.434232  0.010125415 0.0090018443           11 
  449000   0.55289788   -8.9106284    54.432016  0.010102453 0.0089708253            8 
  450000   0.54389637   -8.9057633     54.33601  0.010062224 0.0089398808           10 
  451000   0.55581237   -8.9154489    54.271948  0.010028076 0.0089090752           10 
  452000   0.55087099    -8.913338    54.288836  0.010009004 0.0088784377            8 
  453000   0.53823952   -8.9004608    54.251236 0.0099799919 0.0088477923           16 
  454000    0.5462046   -8.9158397    54.293019 0.0099656789 0.0088173296           18 
  455000   0.53763134    -8.926353    54.246116  0.009935186 0.0087869895            7 
  456000   0.54235199   -8.9193244    54.253036 0.0099146631 0.0087567975            7 
  457000   0.53581006    -8.905175    54.328108 0.0099066572 0.0087266564           12 
  458000   0.53896159   -8.9258813    54.284887 0.0098771629  0.008696727           13 
  459000   0.52541956   -8.9259497    54.341488 0.0098659201 0.0086669026            8 
  460000   0.55411598   -8.9318911     54.35873  0.009847596 0.0086371845            3 
  461000   0.52111467   -8.9380976    54.128473 0.0097846118 0.0086075199            7 
  462000   0.53354413   -8.9272366    54.159378 0.0097690076 0.0085780152            5 
  463000   0.52861821   -8.9322762    54.289152 0.0097712657 0.0085485982            8 
  464000   0.53203163   -8.9319551    54.154224 0.0097259742 0.0085193158            9 
  465000   0.52695113   -8.9398798     54.25417 0.0097229696 0.0084901706           19 
  466000   0.50683002   -8.9530062    54.066861 0.0096686089 0.0084611274            6 
  467000   0.52870405   -8.9476601    54.262818 0.0096828726 0.0084321805            8 
  468000   0.50752758   -8.9542813    54.156579 0.0096432654 0.0084034177           11 
  469000    0.5152834   -8.9411245    54.141612 0.0096200448  0.008374761           10 
  470000   0.52825712   -8.9573039    54.125976 0.0095968043 0.0083462037           13 
  471000   0.51559113   -8.9713724    54.134353  0.009577911 0.0083177608           15 
  472000   0.50750389   -8.9773847    54.192864 0.0095679492 0.0082894601            6 
  473000    0.5050042   -8.9732441    54.161034 0.0095421131  0.008261229            8 
  474000   0.49818116   -8.9751093     54.24431 0.0095366227 0.0082331177           10 
  475000   0.51262952   -8.9778591    54.163039 0.0095022876 0.0082051205            6 
  476000   0.50073304   -8.9764618    54.071391 0.0094662799 0.0081772712           14 
  477000    0.5081598   -8.9716532     54.16397 0.0094626083 0.0081494819           14 
  478000   0.50436756     -8.97082    54.020106 0.0094177312 0.0081218411           17 
  479000   0.51379527   -8.9851075    54.161712 0.0094227056 0.0080942818            8 
  480000   0.50375047   -8.9813131    54.054082 0.0093843893 0.0080668645            7 
  481000   0.49901891   -8.9947415    54.118128  0.009375975 0.0080395752            6 
  482000   0.47955755   -8.9815431    54.073689 0.0093488397  0.008012419            6 
  483000   0.49010824   -9.0025309    54.041448 0.0093239213 0.0079853577            7 
  484000    0.4926813   -8.9882739    54.031902 0.0093030134 0.0079583939            8 
  485000   0.49388534   -9.0061216    54.094303 0.0092945538 0.0079315075           11 
  486000    0.4957961   -9.0052375    54.109822 0.0092780901 0.0079048017           13 
  487000   0.48819293   -8.9970473    54.079072 0.0092537769 0.0078781956           12 
  488000   0.48864164   -9.0170652    54.021248 0.0092249398 0.0078516795           11 
  489000   0.49009294   -8.9996008    54.054156  0.009211683 0.0078252914            8 
  490000    0.4884528   -9.0071629    54.051743 0.0091924733 0.0077990385           12 
  491000   0.48622847   -9.0110776    54.044444 0.0091725126 0.0077728814           11 
  492000   0.48213255   -9.0101668     54.00526 0.0091472323 0.0077468524            6 
  493000   0.47543679   -9.0095584    53.891182 0.0091093952 0.0077208538           11 
  494000   0.47857431   -9.0129438    54.075751 0.0091220903 0.0076950321           13 
  495000   0.47528032   -9.0336863     53.94738 0.0090820504 0.0076692899           18 
  496000     0.473587   -9.0037379      53.9663 0.0090669187 0.0076436801            9 
  497000   0.47512613   -9.0279682    54.049356 0.0090626016 0.0076181591            7 
  498000   0.46688765    -9.042514    53.940696 0.0090262208 0.0075927484            7 
  499000    0.4668055    -9.029911    54.001287  0.009018251 0.0075673988            8 
  500000   0.46198715   -9.0311444     53.95009 0.0089916817 0.0075422049           13 
  501000    0.4763846   -9.0318773    54.008259 0.0089834097 0.0075171282            8 
  502000   0.45888244   -9.0394172     54.03376 0.0089697477 0.0074921091           19 
  503000   0.47985256   -9.0511096    53.958274 0.0089394093 0.0074672171           12 
  504000   0.45650446   -9.0424585    53.949145 0.0089201628 0.0074424372            9 
  505000   0.47560755   -9.0540522    53.895609 0.0088936648 0.0074177804           10 
  506000   0.45745693   -9.0409786    53.958623 0.0088864662 0.0073932174            8 
  507000   0.46304278   -9.0630545    53.970949 0.0088709647 0.0073687612           10 
  508000   0.45567942   -9.0598421    53.888218 0.0088399308 0.0073443612           15 
  509000   0.46066675   -9.0510197    53.923483 0.0088283371  0.007320106           16 
  510000    0.4496821   -9.0562655    53.892154 0.0088059074 0.0072959601            8 
  511000    0.4427035   -9.0661602    53.834408 0.0087792577 0.0072719112            6 
  512000     0.449177   -9.0622522    53.902419 0.0087731801  0.007247971           17 
Loop time of 1268.29 on 48 procs for 500000 steps with 4000 atoms

Performance: 68123.133 tau/day, 394.231 timesteps/s
99.4% CPU use with 48 MPI tasks x no OpenMP threads

MPI task timing breakdown:
Section |  min time  |  avg time  |  max time  |%varavg| %total
---------------------------------------------------------------
Pair    | 83.205     | 90.339     | 96.315     |  32.7 |  7.12
Neigh   | 8.35       | 8.762      | 9.2928     |   6.8 |  0.69
Comm    | 80.594     | 86.469     | 93.391     |  31.2 |  6.82
Output  | 0.86551    | 0.86619    | 0.88808    |   0.3 |  0.07
Modify  | 1064       | 1069       | 1073.1     |   7.5 | 84.29
Other   |            | 12.85      |            |       |  1.01

Nlocal:        83.3333 ave          88 max          77 min
Histogram: 1 3 2 5 5 7 11 6 2 6
Nghost:        2246.79 ave        2269 max        2227 min
Histogram: 4 3 7 4 7 8 6 5 2 2
Neighs:        15014.8 ave       16377 max       13924 min
Histogram: 3 3 14 3 7 5 2 7 2 2
FullNghs:      30030.0 ave       32005 max       27290 min
Histogram: 1 0 3 6 5 8 12 7 4 2

Total # of neighbors = 1441438
Ave neighs/atom = 360.35950
Neighbor list builds = 26651
Dangerous builds = 0

#clear
#
#next RN
#
#jump SELF
Total wall time: 0:21:11
