
units lj                  # Use reduced LJ style units
atom_style atomic         # Uncharged point particles
atom_modify map hash      # Needed for indexing of clusters etc
                          # Used to be able to find where atoms are in relation to each other.

lattice fcc 1.0 spacing 1 1 1
Lattice spacing in x,y,z = 1.5874011 1.5874011 1.5874011
region box block 0 10 0 10 0 10 units lattice
create_box 2 box
Created orthogonal box = (0.0000000 0.0000000 0.0000000) to (15.874011 15.874011 15.874011)
  3 by 4 by 4 MPI processor grid
create_atoms 1 box
Created 4000 atoms
  using lattice units in orthogonal box = (0.0000000 0.0000000 0.0000000) to (15.874011 15.874011 15.874011)
  create_atoms CPU = 0.003 seconds
set type 1 type/fraction 2 0.7 78393
Setting atom values ...
  2825 settings made for type/fraction
mass 1 1.0
mass 2 1.0
pair_style lj/cut  3.5
pair_modify tail  yes
pair_coeff 1  1  1.0  1.0   # Intearaction between 1 and 1 set with epsilon = 1 and sigma = 1
pair_coeff 1  2  1.5  0.8
pair_coeff 2  2  0.5  0.88

write_data data.0
System init for write_data ...
Neighbor list info ...
  update every 1 steps, delay 10 steps, check yes
  max neighbors/atom: 2000, page size: 100000
  master list distance cutoff = 3.8
  ghost atom cutoff = 3.8
  binsize = 1.9, bins = 9 9 9
  1 neighbor lists, perpetual/occasional/extra = 1 0 0
  (1) pair lj/cut, perpetual
      attributes: half, newton on
      pair build: half/bin/atomonly/newton
      stencil: half/bin/3d
      bin: standard
WARNING: Not all mixed pair coeffs generated from mixing. Use write_data with 'pair ij' option to store all pair coeffs. (../write_data.cpp:312)


#############################
#   M E L T   S Y S T E M   #
#############################

velocity all create 2.4 9622624 mom yes dist gaussian # Assign velocities
                                                    # Temperature 2.4, random number seed, zero linear momentum
                                                                                # Gaussian distribution

timestep 0.002   # simulation timestep
thermo 1000       # output thermodynamic data every 1000 steps bf 100

# Define a fix  in this case with index 1 applied to all
# particles in the simulation. This fix is for simulations
# in the anisotropic NPT ensemble. Note that we use the MTK
# correction.
fix 1 all npt temp 2.4 2.4 0.1 iso 5.68 5.68 0.5 mtk yes tchain 5 pchain 5 # Use NPT ensemble
                                                                         # Set temperature and pressure and damping
                                                                         # Numbers of thermostats in chain and in barostat
run 10000          # run for 10000 steps
Per MPI rank memory allocation (min/avg/max) = 3.642 | 3.644 | 3.648 Mbytes
Step Temp E_pair E_mol TotEng Press Volume 
       0          2.4   -4.1690742            0  -0.56997417    -3.744831         4000 
    1000    2.4204485   -3.8301959            0  -0.20043075    5.5228664    3648.6129 
    2000    2.4225994   -3.7750234            0  -0.14203269    5.3576144    3697.1208 
    3000    2.4224941   -3.8153734            0  -0.18254068     5.709879    3642.3968 
    4000    2.3677129   -3.7624949            0  -0.21181352    5.6309181    3671.2335 
    5000    2.4427859   -3.7648363            0  -0.10157351    5.5861952    3680.2529 
    6000    2.4125363   -3.7716655            0  -0.15376582    5.6403546    3673.2469 
    7000    2.4495984    -3.848077            0  -0.17459806    5.5706449    3640.7101 
    8000    2.3971227   -3.8007125            0   -0.2059273     5.593194    3646.7265 
    9000    2.4005382    -3.739488            0   -0.1395809    5.7741664    3678.1797 
   10000    2.3759286   -3.8345221            0  -0.27152011    5.3820878    3659.8547 
Loop time of 2.68351 on 48 procs for 10000 steps with 4000 atoms

Performance: 643933.149 tau/day, 3726.465 timesteps/s
99.6% CPU use with 48 MPI tasks x no OpenMP threads

MPI task timing breakdown:
Section |  min time  |  avg time  |  max time  |%varavg| %total
---------------------------------------------------------------
Pair    | 1.2149     | 1.261      | 1.3837     |   2.6 | 46.99
Neigh   | 0.21816    | 0.2235     | 0.23991    |   0.8 |  8.33
Comm    | 0.80529    | 0.90501    | 0.96431    |   3.4 | 33.73
Output  | 0.00024779 | 0.00025326 | 0.00031919 |   0.0 |  0.01
Modify  | 0.23845    | 0.27814    | 0.32697    |   4.0 | 10.36
Other   |            | 0.01564    |            |       |  0.58

Nlocal:        83.3333 ave          93 max          73 min
Histogram: 2 1 2 6 8 14 4 4 3 4
Nghost:        1739.77 ave        1766 max        1713 min
Histogram: 3 5 7 3 4 8 4 7 5 2
Neighs:        10417.7 ave       12084 max        8812 min
Histogram: 2 2 2 7 14 12 1 3 1 4

Total # of neighbors = 500051
Ave neighs/atom = 125.01275
Neighbor list builds = 905
Dangerous builds = 214

# Equilibrate just above the melting temperature to avoid step fn in T

fix 1 all npt temp 1.25 1.25 0.1 iso 5.68 5.68 0.5 mtk yes tchain 5 pchain 5
run 2000
Per MPI rank memory allocation (min/avg/max) = 3.644 | 3.646 | 3.650 Mbytes
Step Temp E_pair E_mol TotEng Press Volume 
   10000    2.3759286   -3.8345221            0  -0.27152011    5.3820878    3659.8547 
   11000    1.2489843   -5.6103508            0   -3.7373427    5.5231782    2790.2761 
   12000    1.2340831   -5.6135525            0   -3.7628906    5.6433879    2780.9271 
Loop time of 0.665293 on 48 procs for 2000 steps with 4000 atoms

Performance: 519469.994 tau/day, 3006.192 timesteps/s
99.7% CPU use with 48 MPI tasks x no OpenMP threads

MPI task timing breakdown:
Section |  min time  |  avg time  |  max time  |%varavg| %total
---------------------------------------------------------------
Pair    | 0.30306    | 0.32468    | 0.34931    |   1.9 | 48.80
Neigh   | 0.041105   | 0.04403    | 0.046466   |   0.6 |  6.62
Comm    | 0.21569    | 0.24434    | 0.2694     |   2.4 | 36.73
Output  | 5.1275e-05 | 5.264e-05  | 6.8673e-05 |   0.0 |  0.01
Modify  | 0.042722   | 0.047263   | 0.050892   |   1.1 |  7.10
Other   |            | 0.004926   |            |       |  0.74

Nlocal:        83.3333 ave          88 max          77 min
Histogram: 2 1 5 4 6 7 5 8 5 5
Nghost:        2104.65 ave        2124 max        2079 min
Histogram: 1 2 6 3 7 8 5 5 7 4
Neighs:        13725.1 ave       15245 max       12386 min
Histogram: 4 3 7 3 9 7 8 1 3 3

Total # of neighbors = 658805
Ave neighs/atom = 164.70125
Neighbor list builds = 144
Dangerous builds = 11

#############################
# L I N E A R  Q U E N C H  #
#############################

# Define solid atoms. This closely follows ten Wolde  Ruiz-Montero and Frenkel  Faraday Discuss  1996  104  93-110
# Compute components of the per-atom q6 vector
compute q6 all orientorder/atom degrees 1 6 components 6 nnn NULL cutoff 1.3 # compute the Q6 parameter.
                                                                             # Use all neighbours within 1.3 unit cell.

# get number of connections
compute coord_number all coord/atom orientorder q6 0.5

# An atom is solid if it has 8 or more connections (of a possible 14)
variable is_solid atom c_coord_number>=8
group solid dynamic all var is_solid    # Must be dynamic to update
dynamic group solid defined

# do clustering
compute cluster solid cluster/atom 1.3 # Create a cluster where all atoms within are solid and max 1.3 units from another member

# define chunks one chunk per cluster
compute clus_chunks solid chunk/atom c_cluster nchunk every compress yes  # Says which atoms are in which chunk

# count the size of each chunk
compute size_chunks solid property/chunk clus_chunks count


# Find the maximum entry in the vector of chunk sizes
variable max_n equal max(c_size_chunks)


# Thermo style which includes this variable
# thermo_style custom step temp pe vol v_max_n

thermo ${N}  # Print the thermo information every 100 steps
thermo 1000  

# Reset the npt fix at a lower temperature (below freezing)
fix 1  all npt temp  ${temp} ${temp}  0.1  iso  5.68  5.68  0.5  mtk yes tchain  5  pchain  5
fix 1  all npt temp  0.45 ${temp}  0.1  iso  5.68  5.68  0.5  mtk yes tchain  5  pchain  5
fix 1  all npt temp  0.45 0.45  0.1  iso  5.68  5.68  0.5  mtk yes tchain  5  pchain  5

dump dmp2 all dcd ${N} traj.dcd
dump dmp2 all dcd 1000 traj.dcd


compute msd all msd com yes
variable twopoint equal c_msd[4]/6/(step*dt+1.0e-6)
fix 9 all vector 10 c_msd[4]
variable fit equal slope(f_9)/6/(10*dt)
thermo_style custom step temp pe c_msd[4] v_twopoint v_fit v_max_n

fix 1 all npt temp 1.25 ${temp} 0.1 iso 5.68 5.68 0.5 mtk yes tchain 5 pchain 5
fix 1 all npt temp 1.25 0.45 0.1 iso 5.68 5.68 0.5 mtk yes tchain 5 pchain 5
run 2000000 # 5000000  # Run for this many steps
Neighbor list info ...
  update every 1 steps, delay 10 steps, check yes
  max neighbors/atom: 2000, page size: 100000
  master list distance cutoff = 3.8
  ghost atom cutoff = 3.8
  binsize = 1.9, bins = 8 8 8
  4 neighbor lists, perpetual/occasional/extra = 1 3 0
  (1) pair lj/cut, perpetual
      attributes: half, newton on
      pair build: half/bin/atomonly/newton
      stencil: half/bin/3d
      bin: standard
  (2) compute orientorder/atom, occasional
      attributes: full, newton on
      pair build: full/bin/atomonly
      stencil: full/bin/3d
      bin: standard
  (3) compute coord/atom, occasional
      attributes: full, newton on
      pair build: full/bin/atomonly
      stencil: full/bin/3d
      bin: standard
  (4) compute cluster/atom, occasional
      attributes: full, newton on
      pair build: full/bin/atomonly
      stencil: full/bin/3d
      bin: standard
Per MPI rank memory allocation (min/avg/max) = 9.845 | 9.850 | 9.853 Mbytes
Step Temp PotEng c_msd[4] v_twopoint v_fit v_max_n 
   12000    1.2340831   -5.6135525 7.0656299e-30 4.9066872e-32 8.3333333e+20            2 
   13000    1.2388735       -5.636   0.63313869 0.0040585812  0.052643369            1 
   14000    1.2399281   -5.6553496    1.2229087 0.0072792182   0.05160301            1 
   15000    1.2468182   -5.6178296    1.8819773  0.010455429  0.051250971            2 
   16000    1.2896103   -5.6032066    2.5093382   0.01306947  0.051799403            3 
   17000    1.2185738   -5.6494634    3.0382794  0.014893526  0.051452675            3 
   18000    1.2543744    -5.595508    3.7657795  0.017434164  0.051452379            1 
   19000    1.2195901   -5.6500053    4.3524802  0.019089825  0.051707765            2 
   20000    1.2359529    -5.603146     4.905129  0.020438037  0.051385667            2 
   21000    1.2100605   -5.6225736    5.4989998  0.021821427  0.051025377            2 
   22000    1.2314903   -5.6812933    5.9967179   0.02271484  0.050693829            4 
   23000    1.2511438   -5.6731033      6.64378  0.024071666   0.05045603            2 
   24000    1.2365692   -5.6593583    7.1941928  0.024979835  0.050273253            2 
   25000    1.2292641   -5.6505042    7.8154712   0.02605157  0.050028519            4 
   26000    1.2336732   -5.6104722    8.4223059   0.02699457  0.049861947            2 
   27000    1.2330436   -5.6006828    9.1353933  0.028195658  0.049831093            2 
   28000    1.2486112   -5.6383875    9.7381674   0.02898264  0.049951869            2 
   29000    1.2362215   -5.6589505    10.277598  0.029533326  0.050006836            2 
   30000    1.2516017   -5.6298721    10.848749  0.030135414  0.050005766            2 
   31000    1.2593232    -5.643988    11.368604  0.030560762  0.049993124            3 
   32000    1.2390537   -5.6771826    12.001969  0.031255127  0.049886446            2 
   33000    1.2756294   -5.6378426    12.511391  0.031594422  0.049815788            3 
   34000    1.2302467   -5.6512085    13.322395  0.032652928  0.049793721            1 
   35000    1.2627355   -5.6576368    13.899655  0.033094417  0.049870464            3 
   36000    1.2302755   -5.6781868    14.544761  0.033668428  0.049940508            1 
   37000    1.2293042   -5.6383297    15.140996  0.034101343  0.049997659            6 
   38000    1.2448921   -5.6190581    15.635936  0.034289332  0.050026514            3 
   39000    1.2543069   -5.6582591    16.286172  0.034799512  0.050028384            2 
   40000    1.2412306   -5.6687259    16.942986  0.035297887  0.050066401            2 
   41000    1.2492054   -5.6370309    17.568005  0.035707327   0.05009566            3 
   42000    1.2211805    -5.640488    18.178268  0.036067991  0.050149467            1 
   43000    1.2182403   -5.6609204    18.569724  0.035987838  0.050139288            2 
   44000    1.2365041   -5.6933817    19.174585  0.036315501  0.050074254            3 
   45000    1.2367225   -5.6708397    19.797687  0.036662384   0.05003377            6 
   46000    1.2473858    -5.667684    20.571933  0.037267995  0.050034086            3 
   47000    1.2336779   -5.6667879    21.159407  0.037516679  0.050054384            6 
   48000    1.2583342   -5.6503433    21.756325  0.037771397  0.050069896            5 
   49000    1.2377101   -5.6779109    22.188175  0.037734991  0.050049222            1 
   50000    1.2379456   -5.6427982     22.95779  0.038262983  0.050047872            4 
   51000     1.245038   -5.6441809    23.454512  0.038324366  0.050064804            5 
   52000    1.2475471   -5.6527187    23.961117  0.038399226  0.050007237            6 
   53000    1.2391852   -5.6419364    24.654322  0.038764657  0.049999839            2 
   54000    1.2285332   -5.6978825    25.151892  0.038814647   0.04998922            3 
   55000     1.245589    -5.656902    25.695328  0.038932315  0.049955744            1 
   56000    1.2298972   -5.6596504    26.219518   0.03901714  0.049913071            1 
   57000    1.2411259   -5.6821097    26.782373  0.039155516  0.049879062            3 
   58000    1.2286033   -5.6747909    27.466666    0.0394636  0.049835057            2 
   59000    1.2550788   -5.6673745    28.196214   0.03982516  0.049830073            4 
   60000    1.2150721   -5.6674234    28.843839  0.040060887  0.049837267            5 
   61000    1.2166362   -5.6894266    29.370008  0.040122962  0.049839686            1 
   62000    1.2270115   -5.6311689    30.044028  0.040381757  0.049830381            8 
   63000     1.270156   -5.6392682     30.33308  0.040123122  0.049815642            2 
   64000    1.2275559   -5.6902461    31.121715  0.040523066  0.049795406            2 
   65000    1.2266477    -5.653968    31.757139   0.04071428  0.049791596            5 
   66000    1.2464938   -5.7003804    32.166156  0.040613834  0.049782749            1 
   67000    1.2262198   -5.6868091    32.990233  0.041032627  0.049785545            1 
   68000    1.2290348   -5.6775811    33.422283   0.04095868  0.049768216            5 
   69000     1.236929   -5.6745639    34.031255  0.041100549  0.049740611            2 
   70000     1.231799   -5.6730908    34.572655  0.041157923   0.04971004            1 
   71000    1.2406613   -5.6856257    35.112949  0.041212381   0.04967731            3 
   72000    1.2465845   -5.6666327    35.638352  0.041248092  0.049647201            5 
   73000    1.2309674   -5.6826821    36.091036  0.041199813  0.049608016            5 
   74000    1.2200643   -5.6179781    36.735727  0.041369062  0.049553671            2 
   75000    1.2399298   -5.6591424    37.294497   0.04143833  0.049502067            2 
   76000    1.2088829   -5.7016298    37.850095  0.041502297  0.049453744            3 
   77000    1.2010633   -5.7227234    38.253352  0.041399731  0.049408133            3 
   78000    1.2506009   -5.6649519    38.521712  0.041155675  0.049357751            6 
   79000    1.2326105   -5.7094192    39.085784   0.04122973  0.049282523            1 
   80000    1.2308636   -5.6573547    39.794303  0.041452399  0.049201924            3 
   81000    1.2222367   -5.7278847    40.012869  0.041165503  0.049127328            1 
   82000    1.2122827   -5.7021444     40.82048  0.041484228  0.049055521            3 
   83000    1.2183393   -5.6981686      41.4991  0.041665762  0.048999049            2 
   84000    1.2069395    -5.674296    42.176504   0.04184177  0.048946038            3 
   85000    1.2323809     -5.66714    42.691546  0.041854457  0.048899062            2 
   86000    1.2130515   -5.7113987    43.304076  0.041961314  0.048862893            2 
   87000     1.233907    -5.699093     43.83482  0.041987375  0.048824312            4 
   88000    1.2487606   -5.6787822    44.588062  0.042223544  0.048796837            2 
   89000    1.2506386   -5.7137838    45.248389  0.042367405  0.048776132            1 
   90000    1.2371511    -5.693343     45.84819  0.042452028  0.048756753            4 
   91000    1.2135911   -5.7242616    46.400246  0.042491067  0.048741171            3 
   92000    1.2220191    -5.709741    46.871407  0.042455984  0.048725407            3 
   93000    1.2146811   -5.6831349    47.479792  0.042544617  0.048707848            2 
   94000    1.2258415   -5.6929372    48.058211  0.042604797  0.048690038            2 
   95000    1.2265783   -5.6850252    48.810623  0.042816336  0.048676426            3 
   96000    1.2363736   -5.6495105    49.386372  0.042870115  0.048667075            6 
   97000    1.2194506   -5.6873877    49.806444  0.042789041  0.048652676            4 
   98000    1.2216901   -5.7389812     50.24383  0.042724345  0.048630321            3 
   99000    1.2024858   -5.7003185    50.768908  0.042734771  0.048605122            1 
  100000    1.1995851   -5.7278949    51.068882  0.042557401  0.048567285            2 
  101000    1.2215095   -5.7203582    51.522594  0.042510391  0.048524387            3 
  102000    1.2104338   -5.6718385    52.023685  0.042503011  0.048477916            3 
  103000    1.2263159   -5.6486772    53.000755  0.042880869  0.048432975            2 
  104000    1.2000094   -5.6756317    52.913095  0.042398313   0.04838464            1 
  105000    1.2095398   -5.7057807    53.352254  0.042343059  0.048322978            2 
  106000    1.1866947   -5.6959631    53.975577  0.042433629  0.048263827            1 
  107000    1.2226766   -5.7249538    54.310181  0.042297649  0.048199351            7 
  108000    1.2164157   -5.7064566    54.817788  0.042297676  0.048135527            2 
  109000     1.223467   -5.7192667    54.902175   0.04197414  0.048071346            2 
  110000    1.2050134   -5.7216317     55.72431  0.042215386  0.048000535            2 
  111000    1.1989576     -5.77484    56.094924  0.042113306   0.04793033            2 
  112000    1.2079142   -5.7041668    57.463394  0.042755501  0.047874717            3 
  113000    1.2268232   -5.7048825    58.105422  0.042850606  0.047836046            8 
  114000    1.2069839   -5.7249398    58.528797  0.042784208  0.047796464            2 
  115000    1.2054019   -5.6597478    59.226835  0.042917996  0.047766266            2 
  116000    1.1992356   -5.7115534    59.128439  0.042477326  0.047725812            4 
  117000    1.2211117   -5.7110788    59.618308  0.042463182  0.047678421            3 
  118000    1.2251911   -5.7202691    60.127148  0.042462675  0.047627001            3 
  119000    1.2203212   -5.7093822    60.824723  0.042594343  0.047574308            2 
  120000    1.2072082   -5.7020134    61.378056   0.04262365  0.047521522            3 
  121000    1.2054162   -5.7480291    61.809103  0.042568253  0.047465714            3 
  122000     1.197508   -5.7564908    62.486532  0.042682057  0.047414682            4 
  123000     1.203382   -5.6770175    63.152386  0.042786169  0.047363634            3 
  124000     1.182317   -5.6978316    63.294281  0.042536479  0.047321428            4 
  125000    1.2285878    -5.746703    63.583192  0.042388795  0.047271297            5 
  126000    1.1867247   -5.7330241    64.346958  0.042557511   0.04721693            4 
  127000    1.2207821   -5.7576428    65.016354   0.04266165  0.047162833            3 
  128000    1.2019952   -5.7592473    65.523521  0.042658542  0.047123575            3 
  129000    1.1879149    -5.733013     65.92069  0.042584425  0.047087875            2 
  130000    1.2061232   -5.7031217    66.626561  0.042709334  0.047050763            2 
  131000    1.2142146   -5.6966586    67.160325  0.042722853   0.04700982            4 
  132000    1.1926026   -5.7526061    67.547761  0.042643788  0.046970418            3 
  133000    1.1846267   -5.7340546    68.358466  0.042831119  0.046931467            2 
  134000    1.1976632   -5.7263246    68.748155  0.042753827  0.046898991            5 
  135000    1.2325781   -5.7215596    69.069919  0.042635752  0.046859716            2 
  136000    1.2101952   -5.7471187    69.209291  0.042407653  0.046815602            2 
  137000    1.1739957   -5.7321467    70.321485  0.042774626  0.046774174            4 
  138000    1.1987017   -5.7159521    70.665846  0.042672612  0.046735099            2 
  139000    1.2167519   -5.6753718      71.3814  0.042794604  0.046699961            1 
  140000    1.2089861   -5.6818873    71.640027  0.042642873  0.046665905            2 
  141000    1.1889762   -5.7526993    72.220824  0.042683702  0.046628364            1 
  142000    1.2108394   -5.7613538    72.561674  0.042583142   0.04658276            2 
  143000     1.204866   -5.7146022    73.100315  0.042599251  0.046539454            2 
  144000     1.162703   -5.7046371     73.55058  0.042563993  0.046496932            2 
  145000    1.1943026   -5.7304808    73.769506  0.042396267  0.046449616            3 
  146000    1.1756563   -5.7329287    74.086107   0.04228659   0.04639658            3 
  147000    1.1749729   -5.7183581    74.403806  0.042179028  0.046338432            3 
  148000    1.1885177   -5.7937492    74.416524  0.041901196  0.046272736            3 
  149000    1.2032516   -5.7505508    75.267794  0.042096081  0.046210925            2 
  150000    1.2160596    -5.774019    75.465847   0.04192547  0.046150866            3 
  151000    1.2101737   -5.7151205     76.24393  0.042077224  0.046090474            1 
  152000    1.2197595   -5.6897868    76.982441  0.042205285  0.046028119            6 
  153000    1.1863739   -5.7490404    77.323967  0.042115451  0.045969979            2 
  154000    1.1998295   -5.7620347    77.556993  0.041968069  0.045912257            5 
  155000    1.1922848   -5.7270127    78.183728  0.042034262  0.045855299            2 
  156000    1.2035356   -5.7558829    78.543832  0.041957175   0.04580128            2 
  157000    1.2077308   -5.7404691    79.483303   0.04218859  0.045755324            2 
  158000    1.1958916   -5.7613152    79.708454  0.042040324  0.045710041            3 
  159000    1.1926618    -5.795838     80.51558  0.042198941  0.045661955            3 
  160000    1.1961782   -5.7366952    81.145689  0.042263379  0.045617427            3 
  161000    1.1810733   -5.7153476    81.612156  0.042242317  0.045570446            3 
  162000    1.1851611   -5.7700053    81.766114  0.042060758  0.045527565            3 
  163000    1.1949461   -5.7468431    82.054407  0.041950106  0.045480209            2 
  164000    1.1924682   -5.7430845    82.636203  0.041989941  0.045434378            1 
  165000    1.1722339   -5.7383356    83.125204  0.041982426  0.045387692            3 
  166000    1.1979325   -5.7572763    83.485891  0.041910588  0.045341274            3 
  167000     1.176766   -5.7430987    84.219048  0.042025473  0.045296702            2 
  168000    1.2033606   -5.7318189    84.500326  0.041914844  0.045247716            3 
  169000    1.1749019   -5.7440628    84.664571  0.041747816  0.045198309            8 
  170000    1.1735239   -5.7502637    85.186153  0.041757918  0.045147317            4 
  171000    1.2176202   -5.7206605    85.798018    0.0418119  0.045095824            4 
  172000    1.1707281   -5.7207648    86.719739  0.042015377  0.045052465            2 
  173000    1.2045135    -5.784342    87.028439  0.041921213  0.045011001            3 
  174000    1.1896618   -5.7592567    87.267954  0.041794997  0.044967771            3 
  175000    1.2162597   -5.7336969     88.35763  0.042075062  0.044926247            3 
  176000    1.1569366   -5.7625294    88.563305  0.041933383  0.044885847            3 
  177000    1.2030937   -5.7848843    88.637386  0.041731349  0.044847918            4 
  178000    1.1703915   -5.7489653    89.604167  0.041949516  0.044805927            2 
  179000    1.1760612   -5.7583841    89.713628  0.041766121  0.044766655            4 
  180000    1.1782834   -5.7775547    90.488834  0.041892979  0.044727283            7 
  181000    1.1753742   -5.7658906    91.154809  0.041968144  0.044687559            4 
  182000    1.1594547   -5.7954092     91.57692  0.041930824   0.04465394            4 
  183000    1.1903694   -5.7652141     92.40177  0.042077309  0.044620999            2 
  184000    1.1835832   -5.7507855    92.725594  0.041995287  0.044587441            2 
  185000    1.2081371   -5.7828666     93.31426   0.04203345  0.044558536            2 
  186000    1.1892763   -5.7652088    94.054119  0.042138942  0.044533227            4 
  187000    1.1715847   -5.7481522    94.690227  0.042197071  0.044510279            4 
  188000    1.1944014   -5.7798107    94.828798  0.042034041  0.044482494            2 
  189000    1.1583646   -5.7830219    95.255079  0.041999594     0.044454            3 
  190000    1.2207438   -5.7458189    95.970806  0.042092459  0.044426097            2 
  191000    1.1739981    -5.771076    96.700154  0.042190294  0.044402869            1 
  192000    1.1702563   -5.8081885    96.765996   0.04199913   0.04437764            2 
  193000    1.1757924   -5.8018365    97.079562  0.041916909  0.044350437            4 
  194000    1.1680837   -5.7819656    97.516065  0.041888344  0.044322456            4 
  195000     1.188233   -5.8099189    97.688245  0.041747113   0.04429356            4 
  196000    1.1862274   -5.8172376    98.779722  0.041998181  0.044269546            2 
  197000    1.1785923   -5.7983236    99.239857  0.041979635  0.044245562            2 
  198000    1.1928484   -5.8057862    99.926928  0.042056788  0.044221164            1 
  199000    1.2021303   -5.7789476    100.44779  0.042063564  0.044198363            2 
  200000    1.1708377   -5.7943332    100.73192  0.041971635  0.044176985            2 
  201000    1.1864799   -5.7541368    101.68273  0.042157021   0.04415431            2 
  202000    1.1490554   -5.8112479     101.7912  0.041993068  0.044135109            2 
  203000    1.1760687   -5.7671107    102.35416  0.042017307  0.044112085            3 
  204000    1.1754253    -5.808511    102.49071  0.041867119  0.044088475            7 
  205000    1.1822929   -5.7770493    103.21362  0.041956757   0.04406376            4 
  206000    1.1754372   -5.7827602    104.09982  0.042111579  0.044042967            1 
  207000    1.1532016   -5.8270452    104.13746  0.041923292  0.044021323            3 
  208000    1.2046675   -5.7968777    104.36423  0.041812592  0.043995591            1 
  209000    1.1670687    -5.789088    104.94548  0.041844289  0.043967712            2 
  210000    1.1592748   -5.8067726    105.13449  0.041720037   0.04393661            2 
  211000    1.1864039   -5.7781895    105.63699  0.041720772  0.043910118            5 
  212000    1.1675794   -5.8203641    106.40508  0.041825895  0.043883293            2 
  213000    1.1460677   -5.8093008    106.70751  0.041747853  0.043858392            3 
  214000    1.1604173    -5.784902     107.8028  0.041979283  0.043837319            2 
  215000    1.1485523   -5.8560638    108.10379  0.041900692  0.043815038            3 
  216000    1.1919575   -5.7706424    108.74683  0.041954796  0.043792982            2 
  217000    1.1732129   -5.7815827    109.27229  0.041963244  0.043772557            2 
  218000    1.1718691   -5.8028694    109.41036  0.041823533  0.043751439            2 
  219000    1.1584486   -5.8136823    109.47348  0.041656575  0.043726462            4 
  220000    1.1780217   -5.7790282     110.3269  0.041790494  0.043701378            3 
  221000    1.1706272   -5.8162938    110.26665  0.041578678  0.043674942            6 
  222000     1.166291   -5.7643012    111.53328  0.041866848  0.043651525            1 
  223000    1.1606949   -5.8003401    111.86316  0.041802377  0.043628421            3 
  224000    1.1576945   -5.7894919    111.94266  0.041645335  0.043605581            6 
  225000    1.1829158   -5.8478956    112.23082  0.041566969  0.043580984            3 
  226000    1.1546557   -5.8504491    112.58897  0.041515105  0.043555739            1 
  227000    1.1752552   -5.8229473    113.44682  0.041647144  0.043531703            2 
  228000    1.1525244    -5.826607    114.24089  0.041754712  0.043508877            4 
  229000    1.1481639   -5.7861489    114.46268  0.041653087  0.043487523            3 
  230000    1.1394394    -5.804761    114.75451   0.04157772  0.043465331            2 
  231000     1.166052   -5.8134719    115.12239  0.041530443  0.043441966            4 
  232000    1.1424529   -5.7956963    115.50616  0.041489281  0.043418142            1 
  233000    1.1745948   -5.8094533    116.03384  0.041499943  0.043394328            2 
  234000    1.1589671   -5.8228824    116.84944  0.041613047  0.043372881            3 
  235000    1.1887853   -5.7809401    118.09897  0.041879067  0.043351125            2 
  236000    1.1535208   -5.8438083    117.27949   0.04141225  0.043331009            2 
  237000    1.1463951   -5.7996434    118.67493  0.041728175  0.043309806            2 
  238000    1.1549339   -5.8188213    118.59579  0.041525136  0.043289769            1 
  239000    1.1275174   -5.8071599    118.99159  0.041489396  0.043268261            7 
  240000    1.1655435   -5.8124246    119.22638  0.041398049  0.043245908            2 
  241000    1.1599683   -5.7775128    120.02901  0.041503807  0.043225108            4 
  242000    1.1632641   -5.8178283    120.50204  0.041495192  0.043204637            6 
  243000    1.1628725   -5.8489166    121.07216  0.041519945  0.043183249            2 
  244000    1.1558052   -5.8169079    121.66635  0.041552716  0.043161958            4 
  245000     1.147143   -5.8195667    121.81182  0.041432592  0.043138181            2 
  246000    1.1786782   -5.8429358    122.05352  0.041346043   0.04311351            2 
  247000    1.1072735   -5.8364531     123.1192  0.041538193  0.043089254            6 
  248000    1.1611401   -5.7993865    123.45588  0.041483831  0.043066384            5 
  249000    1.1436078   -5.8427678    123.35959  0.041285003  0.043043774            2 
  250000     1.162515   -5.8694635    123.95327  0.041317757  0.043019738            2 
  251000    1.1510676   -5.8159951    124.73067  0.041411245  0.042993392            2 
  252000    1.1464943   -5.8334886     124.7268  0.041245635  0.042970595            7 
  253000    1.1414182   -5.8002244    124.80976  0.041109934  0.042946312            5 
  254000    1.1564205   -5.8820447    125.16218  0.041063706   0.04292139            3 
  255000     1.157701   -5.8478838    125.94776  0.041159397   0.04289438            3 
  256000    1.1570682   -5.8262321    126.32625  0.041121826  0.042865935            4 
  257000    1.1411454   -5.8549221     127.0915  0.041209956  0.042839107            3 
  258000    1.1498736   -5.8264778    127.60802   0.04121706  0.042815257            5 
  259000    1.1416235   -5.8553609    127.80439  0.041121103   0.04279108            6 
  260000    1.1564146   -5.8382437    128.16216  0.041077614  0.042766307            2 
  261000    1.1473508   -5.8465385    128.86032  0.041143143   0.04274239            4 
  262000    1.1613411   -5.8261202    129.28767  0.041122031  0.042718516            5 
  263000    1.1178836   -5.8110076    130.14309  0.041236721  0.042695552            3 
  264000    1.1639517   -5.8420547    130.34965  0.041145722  0.042672745            2 
  265000    1.1281707   -5.8448542    131.47778  0.041345213  0.042651182            2 
  266000    1.1385534   -5.8297864    131.29292  0.041131868   0.04262792            3 
  267000    1.1815645   -5.7739353    132.06059  0.041217411   0.04260755            2 
  268000    1.1425564   -5.8364747    132.59083  0.041228491  0.042589158            1 
  269000    1.1861926   -5.7824551    133.87247  0.041472266   0.04257209            3 
  270000    1.1595945   -5.8572953    133.28354  0.041136894   0.04255517            2 
  271000    1.1428264   -5.8586015    134.68336  0.041415546  0.042538809            2 
  272000    1.1450797   -5.8561823    134.55364  0.041223542  0.042522629            4 
  273000    1.1212766   -5.8644348    134.65997  0.041104997  0.042505781            3 
  274000    1.1642746   -5.8518104    135.92721  0.041340391  0.042487332            6 
  275000    1.1454881   -5.8452271     135.8166  0.041156546  0.042469813            1 
  276000    1.1232976   -5.8542407    136.05908  0.041080639  0.042454191            3 
  277000    1.1456273   -5.8882427    136.36732  0.041025067   0.04243633            2 
  278000    1.1733973    -5.900397    136.81377  0.041011323  0.042417639            4 
  279000    1.1324695   -5.8621031     137.6522  0.041114754  0.042398072            1 
  280000     1.151926   -5.8626283    138.05491  0.041087771  0.042379497            8 
  281000    1.1322356   -5.8676421    137.97175  0.040916889  0.042361665            2 
  282000    1.1527773   -5.8318246    139.58181   0.04124758   0.04234414            4 
  283000    1.1472696   -5.8406793      139.382  0.041042992  0.042325369            9 
  284000     1.141051   -5.8738764    139.62355   0.04096935  0.042305928            3 
  285000    1.1666182   -5.8767461      140.023  0.040942398  0.042286795            5 
  286000    1.1328024   -5.8640791    140.61178  0.040970798  0.042266825            2 
  287000    1.1157052   -5.8432748    141.82643  0.041180728  0.042247954            5 
  288000     1.129344   -5.8712571    141.92479  0.041066201  0.042229632            4 
  289000     1.130968   -5.8786159    141.31205  0.040747418  0.042208231            2 
  290000    1.1638757   -5.8750935    141.14166  0.040557948  0.042184102            4 
  291000    1.1066626   -5.8474961    142.08643  0.040689125  0.042158692            2 
  292000     1.150782   -5.8496421    142.30507  0.040612178  0.042131608            3 
  293000    1.1253192   -5.8987278    142.53014  0.040537583  0.042104947            6 
  294000    1.1557866   -5.8213992     142.8667  0.040495098  0.042078476            2 
  295000     1.118151   -5.8587498    143.36315  0.040498065  0.042052203            2 
  296000    1.1351712   -5.8506421    143.84211  0.040496091  0.042025121            2 
  297000    1.1258099   -5.8399999    144.23819  0.040470874  0.041999983            4 
  298000    1.1405843   -5.8747465    144.72688  0.040471722  0.041973253            5 
  299000    1.1468651   -5.8749888    145.52419   0.04055858  0.041948523            4 
  300000    1.1473086   -5.9055517    145.73529  0.040482026  0.041924125            6 
  301000    1.1743365   -5.9261042    145.06232  0.040161217  0.041899159            6 
  302000    1.1638753      -5.8596    146.24154  0.040353627  0.041871833            2 
  303000     1.154771   -5.8911109    146.36608  0.040254699  0.041844902            2 
  304000    1.1284049   -5.8811632    147.14059  0.040334592  0.041818696            4 
  305000    1.1235304   -5.8549498     147.6807  0.040349918   0.04179224            2 
  306000    1.1091314   -5.8575778    148.12001  0.040337693  0.041766474            3 
  307000    1.1314888   -5.9037927    147.94188  0.040157948  0.041741169            5 
  308000    1.1204501   -5.8450731    149.92023  0.040562833  0.041715701            3 
  309000    1.1474503   -5.8716967    149.89138  0.040423781  0.041692489            3 
  310000    1.1090564   -5.8563051    150.34911  0.040416428  0.041670782            5 
  311000    1.1313364   -5.8975722    150.50568  0.040328424   0.04164756            3 
  312000    1.1280308   -5.8610055    151.30389  0.040412363  0.041625135            2 
  313000    1.1234362    -5.860359    152.00061  0.040468747  0.041603947            3 
  314000    1.1135109   -5.8800274    152.72429  0.040531924   0.04158575            2 
  315000    1.1045619   -5.9201336    153.15485  0.040517156  0.041567803            4 
  316000    1.1307599   -5.8549349    153.11595   0.04037868  0.041548774            4 
  317000    1.1132617   -5.9262104     153.3302  0.040307622  0.041530896            4 
  318000    1.1339561   -5.8928082    154.78344  0.040561699  0.041512791            3 
  319000    1.1281597   -5.8833113     154.9904   0.04048861  0.041496805            2 
  320000     1.131681   -5.9329636    154.68583  0.040282769  0.041478257            6 
  321000    1.1432423   -5.9204551    155.33445  0.040325662  0.041458537            2 
  322000    1.1232482   -5.9450718    155.97158  0.040365315  0.041439958            2 
  323000    1.1396718   -5.8833529    156.71711  0.040432691  0.041421556            4 
  324000    1.1325602   -5.9470531    156.09339  0.040147476  0.041403216            4 
  325000    1.1359345   -5.9203434    157.29496  0.040332042  0.041384719            6 
  326000    1.1360662   -5.9021624    157.82162  0.040342951  0.041367162            2 
  327000    1.1123005   -5.8934906    158.01238   0.04026819  0.041347709            3 
  328000    1.1048939   -5.9228064    157.80673  0.040093173  0.041328668            2 
  329000    1.1376508    -5.913909    158.84414  0.040234077  0.041309661            8 
  330000    1.1313329   -5.9258531    158.74675  0.040087563  0.041290667            2 
  331000    1.1253634   -5.9029121    159.34735  0.040117661  0.041271422            3 
  332000    1.0964742   -5.8799044    160.52996  0.040293665  0.041251618            3 
  333000    1.1300228   -5.8938706    160.75908  0.040229999  0.041233725            4 
  334000     1.107688    -5.919514    160.83821  0.040129294  0.041215037            3 
  335000    1.1407906   -5.9279869    162.00618  0.040300045  0.041197991            2 
  336000    1.1236366   -5.9544395    162.12338  0.040209172  0.041180155            3 
  337000     1.140816   -5.8890452    163.06677  0.040323137  0.041163731            3 
  338000     1.098194   -5.8952156    163.61327  0.040338576  0.041147922            2 
  339000    1.1314032   -5.9265996    163.71811  0.040245356    0.0411302            4 
  340000    1.1204505   -5.9527156    164.02447  0.040202075  0.041112896            6 
  341000    1.1492386   -5.8734616    165.34003  0.040405677  0.041097306            2 
  342000    1.1274213   -5.8995766    165.29153  0.040275713  0.041082667            3 
  343000    1.1055065   -5.9276708    165.76691  0.040273787  0.041068666            2 
  344000    1.1010924   -5.9281453    166.16349  0.040252784  0.041054463            4 
  345000    1.1088288   -5.9506429    166.92763  0.040320683  0.041040361           10 
  346000    1.1046297   -5.9007315    167.60549  0.040367412  0.041026189            2 
  347000    1.1197375   -5.9545446    167.09827  0.040129267  0.041011423            2 
  348000    1.1122807   -5.8708051     168.9301  0.040452611  0.040996526            3 
  349000     1.115135   -5.9493436    168.32669   0.04019262  0.040981208            2 
  350000    1.1467569   -5.9243745    168.28208  0.040067161  0.040964237            2 
  351000     1.117122   -5.9451037    168.73268   0.04005999  0.040948259            3 
  352000    1.1067086   -5.8986879    169.66784  0.040167577  0.040931939            7 
  353000     1.103067   -5.9216324    171.03848  0.040377356  0.040918104            2 
  354000    1.1386037   -5.9465804    171.28132  0.040320462  0.040904047            4 
  355000    1.1213036   -5.9170485    171.35241  0.040223569  0.040891764            2 
  356000    1.1109418   -5.8714333    172.28088  0.040327921   0.04087909            3 
  357000    1.1081685   -5.9305252    171.87941  0.040121245  0.040866399            2 
  358000     1.107239   -5.9113999    172.93117  0.040253997  0.040852781            2 
  359000    1.1125916   -5.9316322    172.80523  0.040112634  0.040838361            2 
  360000    1.0978018   -5.9715904    173.20044  0.040092694  0.040824333            3 
  361000    1.1339131   -5.8798498    174.46935  0.040274549  0.040810181            2 
  362000    1.1097968   -5.9675147    174.35096  0.040136041  0.040797007            2 
  363000    1.1304772   -5.9465602    174.87918  0.040146735  0.040782943            4 
  364000    1.1065638   -6.0004516    174.12072  0.039862802  0.040768199            4 
  365000    1.1165598   -5.9041601    175.74294  0.040123959  0.040753414            3 
  366000    1.1091802   -5.9361297    176.05067  0.040084396   0.04073876            3 
  367000    1.1261367   -5.9083826    176.29012  0.040029545  0.040723935            4 
  368000    1.0957893   -5.9422941    176.33574    0.0399311   0.04070847            5 
  369000    1.1071816   -5.9375378    176.83249   0.03993507  0.040693852            3 
  370000    1.0986539   -5.9226644    177.51877  0.039981704  0.040680295            3 
  371000    1.1247007   -5.9183028    178.03823  0.039990618  0.040664984            4 
  372000    1.1014314   -5.9300084    177.67943  0.039802739  0.040648667            4 
  373000    1.0853249   -5.9725866    177.91716  0.039749142  0.040631529            3 
  374000    1.1195945   -5.9452076    178.53506  0.039780539  0.040613802            2 
  375000    1.1014581   -5.9254684    178.37085  0.039637966  0.040597338            2 
  376000    1.0925839   -5.9447517    179.35103  0.039749785  0.040578561            2 
  377000    1.0988481   -5.9363578    178.95837  0.039557552  0.040560316            4 
  378000    1.1101822   -5.9330867    180.33325  0.039756007  0.040541816            1 
  379000    1.0909427   -5.9593681    179.98645  0.039574857  0.040524765            4 
  380000    1.0887851   -5.9702415    181.03703  0.039701104  0.040507915            4 
  381000    1.1042271   -5.9728601    182.11747  0.039833217  0.040491828            2 
  382000    1.0977971   -5.9556136    181.48195  0.039590304  0.040475738            4 
  383000    1.0899883   -5.9609758    182.91244  0.039798181   0.04045977            1 
  384000    1.1122395   -5.9998593    182.61677  0.039630376  0.040444726            3 
  385000    1.1159351    -5.918242    183.54038  0.039727355  0.040429428            6 
  386000    1.0825715    -5.980022    183.24143  0.039559893  0.040413097            3 
  387000    1.0863949   -5.9381223    184.70419   0.03977265  0.040397715            3 
  388000    1.0864389   -6.0112614    184.65887   0.03966041  0.040382681           10 
  389000     1.087691   -5.9787667     185.5351  0.039746165  0.040367314            7 
  390000    1.1206225   -5.9361616    186.45277  0.039840335   0.04035332            3 
  391000    1.0907926   -5.9645031    186.14597  0.039673053  0.040338918            4 
  392000    1.0711286   -5.9171556    187.05223  0.039764505  0.040324809            1 
  393000     1.093612   -6.0071946    186.18487  0.039479403  0.040309552            2 
  394000    1.1147144   -5.9575257    187.34891  0.039625403  0.040293329            7 
  395000    1.0981914    -5.948525    187.97537  0.039657251  0.040278141            4 
  396000    1.0876048   -5.9448253    188.40931  0.039648424  0.040261708            5 
  397000    1.1194698   -5.9763128     188.8547  0.039642044  0.040245785            4 
  398000    1.0978986    -5.955431    188.72199  0.039514656  0.040229635            2 
  399000    1.0968943   -6.0000992    188.31443    0.0393305     0.040213            4 
  400000    1.0670924   -5.9366058    189.78006  0.039537512  0.040195494            2 
  401000     1.081612   -5.9676104    189.18697  0.039315662  0.040177864            2 
  402000    1.1198669   -6.0043213    189.62572  0.039308813  0.040159946            6 
  403000     1.100164   -5.9301129     190.8415  0.039462675  0.040142942            2 
  404000    1.0718349   -5.9689914    190.12868  0.039217963  0.040124564            3 
  405000    1.1288382   -5.9711824    190.60314  0.039218754  0.040105039            4 
  406000    1.1077483   -5.9591202     190.6341   0.03912851  0.040085167            2 
  407000    1.0766085    -5.976116    191.58946  0.039227981  0.040065035            2 
  408000    1.1078105   -5.9996587    191.46662  0.039106744  0.040045509            3 
  409000    1.1114214   -5.9579262    192.34292  0.039189675  0.040025319            2 
  410000    1.0741489   -5.9452006    192.94804  0.039217082  0.040006313            2 
  411000    1.0739976   -5.9416921    193.53188  0.039240041  0.039986834            3 
  412000    1.1193524   -5.9894973    192.62773   0.03896192  0.039966379            5 
  413000    1.0839613   -5.9929953    193.22242  0.038987574  0.039946364            3 
  414000     1.083013   -5.9702595    194.33835  0.039118026   0.03992624            6 
  415000     1.094605   -6.0158956    193.69352  0.038894281  0.039907079            5 
  416000    1.0517513     -5.95314    194.99505  0.039061509   0.03988717            4 
  417000    1.0693615    -6.006659    194.15591  0.038800142  0.039867899            3 
  418000    1.0856281   -5.9699341    195.68061  0.039011285  0.039848615            2 
  419000     1.095536   -5.9594851    196.70825  0.039122563  0.039829828            2 
  420000    1.0896906   -5.9925197    196.73788  0.039035293  0.039810081            4 
  421000    1.0979725   -5.9964408    196.75543  0.038946047   0.03978964            4 
  422000    1.0841247   -6.0250418    196.74689  0.038852072  0.039768894            4 
  423000    1.0915051   -6.0351268    196.38769  0.038689459  0.039748229            4 
  424000    1.0810156   -5.9776761    197.95083  0.038905431  0.039728807            4 
  425000    1.0747154   -5.9407409     198.6201  0.038945119  0.039710599            3 
  426000    1.0696048   -5.9501619    199.30687  0.038988042  0.039692278            5 
  427000    1.1002692   -5.9682477    200.07715  0.039047063   0.03967432            4 
  428000    1.0821228   -5.9744075    200.24755  0.038989009  0.039656771            3 
  429000     1.070208   -5.9808937    199.83225  0.038817453  0.039638463            7 
  430000    1.0804874    -5.977896    200.16884   0.03879241  0.039618585            7 
  431000    1.0638995   -6.0046436    200.47059  0.038760748  0.039598501            4 
  432000    1.0735947   -5.9865151    201.10388  0.038793186  0.039579382            3 
  433000    1.0964481   -5.9560437    201.48972  0.038777853  0.039560204            1 
  434000    1.0821602   -6.0036273    202.29661  0.038843436  0.039542271            4 
  435000      1.07281   -5.9614012    203.27744  0.038942037  0.039525037            4 
  436000    1.0952379   -5.9833933    202.65979   0.03873467  0.039506933            2 
  437000    1.0734625   -6.0023736    202.79012  0.038670884  0.039488055            3 
  438000    1.0951004   -5.9721825    203.53505  0.038724325  0.039469111            2 
  439000    1.0904692   -5.9963655    203.44211  0.038618473  0.039450124            3 
  440000    1.0861821   -6.0258817    203.70706  0.038580883  0.039430577            2 
  441000    1.0990583   -6.0256601    203.58518  0.038470366  0.039410664            3 
  442000    1.0774032   -6.0198106    204.67759  0.038589289  0.039390821            4 
  443000    1.0855636   -6.0427476    204.51907   0.03847236  0.039371309            5 
  444000    1.0698622   -6.0330211    204.81194   0.03844068  0.039351391            3 
  445000     1.075706   -6.0289554    205.42761  0.038469589  0.039331515            1 
  446000    1.0812935   -6.0262224    205.81215  0.038455185  0.039311534            5 
  447000     1.103799    -6.022481    205.95218   0.03839526  0.039290943            3 
  448000    1.0492022   -6.0161137    206.63329  0.038436252  0.039270915            3 
  449000    1.0919888   -6.0437433    206.20385  0.038270945  0.039250126            2 
  450000    1.0707283   -6.0131473    206.78191  0.038292946  0.039228587            3 
  451000    1.0671324   -5.9938813    207.38703  0.038319851  0.039207174            4 
  452000    1.0904137   -5.9986785    208.29242  0.038401994  0.039187067            2 
  453000    1.0589383   -6.0583354    208.39475  0.038336047  0.039167162            3 
  454000    1.0848267   -6.0067372    209.07737  0.038376904  0.039148091            5 
  455000    1.0483687   -6.0025137    209.43069  0.038357268  0.039129323            2 
  456000    1.0650742   -6.0149725    209.99545  0.038376362  0.039110435            2 
  457000    1.0829697   -5.9872004     211.0416  0.038483151  0.039092477            2 
  458000    1.0476965   -6.0004944    211.03859   0.03839858  0.039074838            2 
  459000     1.072953   -6.0230583    211.24599  0.038352575  0.039057015            2 
  460000    1.0670746   -6.0500557    211.66001  0.038344205  0.039039248            1 
  461000    1.0894538   -6.0277908     212.5318  0.038418619   0.03902214            4 
  462000    1.0430755   -6.0531468    212.78949  0.038381942  0.039004519            2 
  463000    1.0664185   -6.0600369    213.59959   0.03844485  0.038987155            5 
  464000    1.0729671   -6.0082634    213.89514  0.038415075  0.038970517            4 
  465000    1.0792296   -6.0952806    213.06288  0.038183311  0.038952863            7 
  466000    1.0603775   -6.0137462    213.47786  0.038175583  0.038934774            6 
  467000    1.0607801   -6.0221983    214.66251   0.03830523  0.038916362            1 
  468000     1.043643   -6.0535781    214.06347  0.038116715  0.038897486            4 
  469000    1.0718114   -6.0373453    214.98506  0.038199193  0.038878756            2 
  470000    1.0954779   -6.0518731    214.86177  0.038096058  0.038859799            3 
  471000    1.0544306   -6.0811629    215.19118  0.038073457  0.038839967            5 
  472000     1.066755   -6.0321687    215.53404  0.038053326  0.038821196            3 
  473000    1.0519521   -6.0227541    216.20257  0.038090658  0.038802859            2 
  474000    1.0555735   -6.0228696    216.33323  0.038033268  0.038784223            6 
  475000     1.088026   -6.0274295    216.88963  0.038050813   0.03876554            6 
  476000    1.0569945   -6.0327943    217.43047  0.038065558  0.038746927            2 
  477000    1.0797375   -6.0308573    217.51976  0.038001355  0.038728236            2 
  478000     1.071291   -6.0639751    216.90158  0.037814083  0.038708759            3 
  479000    1.0613209   -6.0683474    217.97155  0.037921285  0.038689117            4 
  480000    1.0540954    -6.019226     219.2384  0.038062222  0.038669601            4 
  481000    1.0872185   -6.0807207    218.42149  0.037841561  0.038650444            5 
  482000    1.0579447    -6.058683    218.54599  0.037784576  0.038630966            2 
  483000    1.0678115   -6.0488226    220.29004  0.038007253  0.038611485            2 
  484000    1.0821578   -6.0167975    220.40896  0.037949201  0.038592921            3 
  485000    1.0912199    -6.037868    220.24735  0.037843188  0.038574259            2 
  486000    1.0532724   -6.0617101    220.89564  0.037876482   0.03855514            3 
  487000    1.0369605   -6.0398905    221.49168  0.037900697  0.038536363            2 
  488000    1.0619733   -6.0567468    222.29387  0.037960018  0.038517527            2 
  489000    1.0619798   -6.0789131    221.50276  0.037747572  0.038498729            3 
  490000    1.0731859   -6.0548137    222.05014   0.03776363  0.038478846            2 
  491000      1.03964   -6.0653405    222.83153  0.037819336  0.038459102            3 
  492000    1.0582299   -6.0920322    222.49609  0.037685652  0.038439943            3 
  493000    1.0549552    -6.052254     223.8898  0.037844794  0.038422084            2 
  494000    1.0606269   -5.9834752     224.7823  0.037918741  0.038404729            9 
  495000    1.0441254   -6.0744246    225.26349  0.037923147  0.038387449            5 
  496000    1.0318571   -6.0677712    224.92262  0.037789418  0.038369641            2 
  497000    1.0675884   -6.0390125    225.82438  0.037864584  0.038351632            2 
  498000    1.0856256   -6.0852558    225.93074  0.037806349  0.038334399            3 
  499000    1.0481102   -6.0201941    225.88725  0.037723321   0.03831705            3 
  500000    1.0781832   -6.0819239    225.88633  0.037647722  0.038298458            4 
  501000    1.0418857   -6.0893753    226.83416  0.037730233  0.038280269            2 
  502000     1.066311   -6.0914058    226.47738  0.037595847  0.038261382            3 
  503000    1.0544098    -6.083864    226.46396   0.03751888  0.038242573            3 
  504000    1.0451776   -6.0677123    226.44947  0.037442041  0.038223236            5 
  505000    1.0646135   -6.0647944    227.08997  0.037473592  0.038203105            5 
  506000    1.0783729   -6.0264652    227.19353  0.037416589   0.03818244            3 
  507000     1.057336   -6.0584077    226.77742  0.037274395  0.038161735            3 
  508000    1.0473852   -6.0861088    227.48838  0.037317647  0.038140731            4 
  509000    1.0658501   -6.0549168    228.02182  0.037331666  0.038119547            4 
  510000    1.0537509   -6.0787342    228.14952  0.037279333  0.038097814            4 
  511000    1.0710823   -6.0992079    227.97647  0.037178159  0.038076366            2 
  512000     1.046714   -6.0665364    228.30033  0.037158257  0.038054556            3 
  513000    1.0389705   -6.0683181    229.26656  0.037242781  0.038033002            2 
  514000    1.0573883   -6.0627906    229.48967  0.037206496  0.038011403            4 
  515000    1.0347099    -6.081089    229.36308  0.037113767  0.037990057            2 
  516000    1.0217236   -6.0917001    230.43806  0.037215449  0.037968418            6 
  517000    1.0543389   -6.0508439    230.95862  0.037227373  0.037947029            4 
  518000    1.0486605   -6.0907464    231.27292  0.037206068  0.037926109            4 
  519000     1.082033   -6.0899338    231.00445  0.037091273  0.037904841            3 
  520000    1.0251195    -6.084335    231.71525  0.037133854  0.037883813           10 
  521000    1.0586259   -6.0754459       231.01  0.036949776  0.037862532            6 
  522000    1.0486635    -6.069801    231.04659  0.036884833  0.037840912            2 
  523000    1.0458887   -6.0828787    231.76108  0.036928152   0.03781874            2 
  524000    1.0588363   -6.0748205    232.24097  0.036933997  0.037796538            5 
  525000    1.0501058   -6.0821976    232.95949  0.036977698  0.037773686            4 
  526000    1.0349534    -6.054865    233.13253  0.036934811   0.03775146            4 
  527000    1.0570292   -6.0692852    232.94796  0.036835541  0.037728627            3 
  528000    1.0475744   -6.1165116    233.28834  0.036819498  0.037705553            3 
  529000    1.0312548    -6.110367    232.70738  0.036658377  0.037682642            4 
  530000    1.0424294   -6.0690429    233.70599  0.036746225  0.037660084            2 
  531000    1.0478975    -6.098394     234.7448   0.03684005  0.037637471            4 
  532000    1.0418322   -6.0986195    233.45153  0.036568222  0.037614629            2 
  533000     1.055461   -6.1355521    233.60637  0.036523822  0.037591035            3 
  534000     1.039092   -6.1182303    234.09224  0.036531249  0.037567079            5 
  535000    1.0236796   -6.0670148    234.56722  0.036536951   0.03754315            5 
  536000    1.0589272   -6.0636718    235.65176  0.036637401  0.037519512            3 
  537000    1.0396543   -6.0860525    234.76699  0.036431873  0.037495965            5 
  538000    1.0388803   -6.0665925    236.41862  0.036619985  0.037472326            2 
  539000    1.0483981    -6.058509    236.65732  0.036588949  0.037449271            3 
  540000    1.0276479   -6.1332635    235.73324  0.036378587  0.037425177            2 
  541000    1.0629633   -6.1074432    236.89404  0.036490147  0.037401902            4 
  542000    1.0138025   -6.0853805    237.24105  0.036476177  0.037378659            5 
  543000    1.0211089   -6.0615494    237.39004  0.036431865  0.037355844            3 
  544000    1.0343255   -6.1210202    237.79936  0.036427598  0.037333108            2 
  545000     1.016281   -6.1060512    238.55326  0.036476033  0.037310483            2 
  546000    1.0523556   -6.0941901    238.50732  0.036402216   0.03728829            3 
  547000    1.0365164   -6.1087733    239.05397  0.036418947  0.037265927            2 
  548000    1.0554459   -6.1148732    239.20853  0.036375994  0.037243879            5 
  549000    1.0196354   -6.0697272    240.29661  0.036474895  0.037221953            5 
  550000     1.030696   -6.0532185    241.34504   0.03656743  0.037200924            2 
  551000    1.0513826    -6.119303    240.85463  0.036426895   0.03717932            7 
  552000    1.0194214   -6.1042158    241.19402  0.036412141  0.037157598            7 
  553000    1.0364177   -6.0734405    241.34506  0.036369056  0.037136204            3 
  554000    1.0321686   -6.1039823    241.52202  0.036330027  0.037114886            5 
  555000    1.0344227   -6.1002383    241.89925  0.036321209  0.037093673            6 
  556000    1.0261808   -6.1525244    241.16293  0.036145523   0.03707244           12 
  557000    1.0322139   -6.1125749    243.30041  0.036400421  0.037051044            4 
  558000    1.0282602   -6.1164979    243.36001  0.036344087  0.037029815            9 
  559000    1.0291613    -6.145001    243.88339  0.036357095  0.037008232            3 
  560000    1.0246272   -6.0977628     243.8124  0.036281608  0.036986993            3 
  561000    1.0401821   -6.1397915    244.42376  0.036307748  0.036965722            4 
  562000    1.0561599   -6.1121546    244.17387   0.03620609  0.036944156            4 
  563000    1.0266221   -6.0714274    244.37593  0.036171689  0.036922143            4 
  564000    1.0449995   -6.1187884    244.14593  0.036073572  0.036899979            7 
  565000    1.0212337   -6.1208144    244.24351  0.036024116  0.036877689            3 
  566000    1.0129287   -6.1059138     244.8519  0.036050044  0.036855017            4 
  567000    1.0201903   -6.1045903    244.20156  0.035890882  0.036831976            4 
  568000     1.035721   -6.1037475    245.52755  0.036022235  0.036809235            4 
  569000    1.0138482     -6.10638     245.9867  0.036026172  0.036786299            5 
  570000    1.0249683   -6.1029801    246.80255  0.036082243  0.036764017            5 
  571000    1.0194317   -6.1231906    246.24527  0.035937722  0.036741609            9 
  572000    1.0108926    -6.149282     246.1778  0.035865063  0.036718348            2 
  573000     1.018713   -6.1267475    247.05058  0.035929403  0.036696158            3 
  574000    1.0446852   -6.1263557    247.62935  0.035950834  0.036673353            4 
  575000    1.0279148   -6.1504014    246.26742  0.035690931  0.036650969            4 
  576000    1.0176419   -6.1638431    247.30512  0.035779097  0.036628339            7 
  577000     1.004414   -6.1191658    248.18014  0.035843464  0.036605912            3 
  578000    1.0198823   -6.1448052    247.93239  0.035745731   0.03658363            4 
  579000    1.0086707   -6.1402733    248.41581  0.035753571  0.036561281            4 
  580000    1.0353373   -6.1088252    248.94854  0.035768468  0.036539072            3 
  581000    1.0064291   -6.1768629    248.46906  0.035638132  0.036516578            3 
  582000    1.0161056   -6.1204938    249.96863  0.035791613  0.036493943            5 
  583000    1.0290528   -6.1513535    249.36381   0.03564377   0.03647193            2 
  584000    1.0271627   -6.1388943    250.13456  0.035692717  0.036449459            2 
  585000    1.0270359   -6.1357481    250.19548  0.035640382  0.036428159            3 
  586000    1.0439986   -6.1395928    250.44299   0.03561476  0.036406369            3 
  587000     1.008144   -6.1551797    251.10278  0.035647755  0.036384202            3 
  588000    1.0173836   -6.1235157    251.09225  0.035585637  0.036362089            2 
  589000    1.0353799   -6.1178067     252.2923  0.035695006  0.036339916            3 
  590000    1.0358748   -6.0981047    252.77828  0.035703147  0.036318217            2 
  591000     1.002575   -6.1653935    251.79784  0.035504489  0.036296035            2 
  592000    1.0118908   -6.1513169    251.51895  0.035405257  0.036273503            4 
  593000    1.0215737   -6.0988288    253.38573  0.035607888  0.036250986            5 
  594000    1.0074634    -6.133983    253.16427  0.035516873   0.03622893            6 
  595000   0.99969625   -6.1526918    252.92525  0.035423705  0.036206712            5 
  596000    1.0088928   -6.1614701    252.99003  0.035373326  0.036184325            2 
  597000    1.0100315   -6.1458999    253.25059  0.035350445  0.036161318            5 
  598000    1.0035359   -6.1605877    253.10569  0.035271138  0.036138353            3 
  599000    1.0138117   -6.1207906    254.69814  0.035433798  0.036115659            3 
  600000   0.99448555   -6.1504468    253.90871  0.035265099  0.036093224            4 
  601000     1.034548   -6.1317055    254.84075  0.035335656  0.036070433            5 
  602000     1.016827   -6.1626107    255.39667  0.035353913  0.036047782            3 
  603000    1.0119131   -6.1581873    255.08508  0.035252222  0.036024938            8 
  604000    1.0004919   -6.1511049    255.54081  0.035256734  0.036002422            5 
  605000    1.0304894   -6.1707227    255.34024  0.035170832  0.035980186            4 
  606000    1.0437031   -6.1866466    255.23842  0.035098792  0.035957169            9 
  607000    1.0344174   -6.1581192    255.76163  0.035112799  0.035933998            7 
  608000    1.0318879   -6.1298719    256.74067  0.035189237  0.035911629            2 
  609000    1.0107261   -6.1836688    256.12222  0.035046829  0.035888976            9 
  610000   0.99889612   -6.1820479    257.48045  0.035174924  0.035865607            4 
  611000    1.0239409    -6.188186    256.94842  0.035044792  0.035842494            6 
  612000   0.99517524   -6.1717883    257.43178  0.035053347  0.035819307            7 
  613000   0.99621224   -6.1895107    257.16137  0.034959403    0.0357961            4 
  614000   0.99641172   -6.1874841    258.50069  0.035084241  0.035773413            5 
  615000    1.0251645   -6.1657844    258.30998  0.035001353  0.035750775            9 
  616000   0.99768039   -6.1751769    258.56896  0.034979567   0.03572758            2 
  617000    1.0244153   -6.2073892    258.41882  0.034902596  0.035704419            4 
  618000   0.99271458   -6.1551639    259.63791  0.035010505  0.035681329            4 
  619000    1.0097185   -6.1917063      259.995  0.035002019  0.035658874            6 
  620000    1.0199344   -6.1595032    259.65692  0.034900123  0.035636565            3 
  621000    1.0036689    -6.191541    260.21703  0.034919086  0.035614435            2 
  622000    1.0078261   -6.1995827    260.42198  0.034890404  0.035592137            5 
  623000    0.9972371   -6.1704588    260.77957  0.034882232  0.035570133            6 
  624000   0.99333819   -6.1664893    261.10313  0.034869541  0.035548507            3 
  625000   0.99509905   -6.1983383    260.43927  0.034725236  0.035526153            7 
  626000    1.0032131   -6.1841833    261.01232  0.034746049  0.035504081            4 
  627000    1.0007836   -6.1715244    262.17904  0.034845699  0.035481635            6 
  628000    1.0138568   -6.2070242    261.75871  0.034734436  0.035459335            5 
  629000   0.98235845   -6.1912075    262.37928   0.03476143  0.035437256            5 
  630000    1.0190609   -6.1555007    262.79015  0.034760602  0.035415192            2 
  631000    1.0089289   -6.1806462    262.86554   0.03471547  0.035392846            1 
  632000    1.0079223   -6.1912027    263.03931  0.034683453  0.035369947            5 
  633000   0.99994719   -6.1526137    263.75397  0.034722745  0.035347384            4 
  634000     1.007157   -6.1522834    263.52357  0.034637693  0.035325256            3 
  635000    1.0023249   -6.1490367    264.40964  0.034699428  0.035303039            4 
  636000    1.0074268   -6.1853958    263.86891  0.034574018  0.035280547            6 
  637000    1.0044987   -6.1940298    264.49633  0.034601822  0.035257879            6 
  638000   0.99585068   -6.1813936    264.05362  0.034489763  0.035235002            4 
  639000   0.99635393   -6.2050701    264.23402  0.034459314  0.035211919            2 
  640000    1.0041414   -6.2183065    263.93799  0.034366926  0.035189373            3 
  641000    1.0267486   -6.2115164    265.50448  0.034516963  0.035167237            4 
  642000    1.0024255   -6.1785919    265.91138  0.034516015  0.035144624            2 
  643000    1.0226919   -6.1991223    266.42026  0.034528286  0.035122008            4 
  644000    1.0160386    -6.180783    267.02618  0.034553078  0.035100293            5 
  645000    1.0239082   -6.2289577    267.02971  0.034499963  0.035078689            4 
  646000   0.97622901    -6.231524    267.00224  0.034443013  0.035057021            5 
  647000   0.99134732   -6.1862946    267.75723  0.034487021  0.035035467            4 
  648000   0.99842088   -6.2022425    268.16792  0.034486615  0.035013986            4 
  649000   0.98739092   -6.2074141    268.72871  0.034505484  0.034992914            3 
  650000    1.0006757   -6.2133238    268.52951   0.03442686    0.0349721            4 
  651000    1.0017932   -6.2063818    268.95422  0.034428343  0.034950958            9 
  652000   0.97999247   -6.1914389    267.95014  0.034247206  0.034929688            6 
  653000    1.0025917   -6.1952888    269.42933  0.034383528  0.034908168            8 
  654000    0.9943567   -6.2234721    269.16787  0.034297639  0.034886263            2 
  655000   0.97697893   -6.2406703    269.08111  0.034234237  0.034864328            3 
  656000    0.9809804   -6.2015371    268.91501  0.034160951  0.034841986            4 
  657000   0.97244484   -6.2110379    269.39287  0.034169568  0.034820082            3 
  658000   0.99318669   -6.2235685     270.1347  0.034211589  0.034798105            2 
  659000   0.99436052   -6.2186461    270.98798  0.034267574  0.034776399            5 
  660000   0.98302656   -6.2389201    269.66763  0.034048943  0.034754821            4 
  661000   0.99678272   -6.1985821    270.57295  0.034111567   0.03473314            6 
  662000   0.98816838   -6.2033644    271.85878  0.034221901  0.034712021            4 
  663000     0.988989   -6.2494433    271.00648  0.034063157  0.034690039            6 
  664000   0.99655406   -6.2220549    271.52795  0.034077303  0.034668213            6 
  665000   0.96970356   -6.2296462    271.90002  0.034072684  0.034646534            6 
  666000   0.97375478   -6.2650931    271.25508  0.033940825  0.034624465            5 
  667000   0.97751634   -6.1935574    272.67613  0.034067483  0.034602716            5 
  668000   0.99528247   -6.2127089     272.7218  0.034022181  0.034581067            5 
  669000    1.0146738   -6.2131036     273.6621  0.034088453  0.034559799            3 
  670000   0.98247853   -6.2167899    273.80567  0.034055431  0.034538803            3 
  671000   0.98896176   -6.2264027    274.33497  0.034070414  0.034517841            3 
  672000    1.0039801   -6.2182994    274.17927  0.034000405  0.034497206            5 
  673000   0.97582375   -6.2565656    274.54673  0.033995385  0.034476678            4 
  674000   0.98586311   -6.2407787    274.65126  0.033957871  0.034456035            4 
  675000   0.97099753   -6.2197065    275.38699  0.033998393  0.034435465            3 
  676000   0.98707575   -6.2456627    275.82169  0.034001688  0.034414649            3 
  677000   0.99816137   -6.2229727    276.26723  0.034006306  0.034394212            4 
  678000   0.97936332   -6.2310791    275.73389  0.033890597  0.034374013            9 
  679000   0.98870697   -6.2398376    275.98866  0.033871952  0.034353484            4 
  680000   0.99972818   -6.2611923    276.44845  0.033878487  0.034332858            2 
  681000   0.95730826   -6.2321731    276.24341  0.033803648  0.034311989            5 
  682000   0.96457561   -6.2379693    277.62445  0.033922832  0.034291554            2 
  683000   0.97773275   -6.2122571    278.58302   0.03399012  0.034271729            5 
  684000   0.97471795   -6.2398985    277.95994  0.033864515  0.034251475            4 
  685000    0.9609205   -6.2537216    277.53257  0.033763086  0.034231246            5 
  686000   0.98978682   -6.2534329    277.92173  0.033761143  0.034210733            6 
  687000   0.96412812   -6.2646005    278.47269  0.033778831  0.034190781            3 
  688000   0.97749343   -6.2320475    278.49663  0.033732634    0.0341708            9 
  689000   0.97246893   -6.2523972    278.86013  0.033727641  0.034150812            4 
  690000   0.97359968   -6.2306702    280.45843  0.033871792  0.034130562            4 
  691000    1.0052726   -6.2345347    280.01935   0.03376982  0.034111082            6 
  692000   0.96466854   -6.2487376    279.26523  0.033630206  0.034091266            4 
  693000   0.96638687   -6.2806468    279.40289  0.033598231  0.034071279            7 
  694000   0.97378348   -6.2464439    280.50073  0.033681644   0.03405107            2 
  695000    0.9752798   -6.2418824    281.00843  0.033694057  0.034031251            4 
  696000   0.97468378   -6.2236712    281.00324  0.033645024  0.034011381           10 
  697000   0.97343302   -6.2551233    281.21911  0.033622562  0.033991227            9 
  698000   0.97054729   -6.2216133    282.29764  0.033703157  0.033971669            3 
  699000   0.99079844   -6.2451211    282.13388  0.033635418  0.033952104            3 
  700000   0.99034292   -6.2704306    281.77943   0.03354517  0.033932239            6 
  701000   0.98322704   -6.2486611    283.39533  0.033689412  0.033912342            5 
  702000    0.9578841   -6.2406969     282.9274  0.033585873  0.033892655            5 
  703000   0.96308283    -6.286049    282.43004  0.033479141  0.033873055            5 
  704000   0.94886465   -6.2428444    283.93625  0.033609878  0.033853373            4 
  705000   0.96057696   -6.2243393    284.45563  0.033623596  0.033834275            4 
  706000   0.96278616    -6.251374    284.42571  0.033572439  0.033815348            2 
  707000   0.98155295   -6.2711404    284.92519  0.033583827  0.033796126            4 
  708000   0.97634336   -6.2826088    284.06184  0.033434773  0.033776986            3 
  709000    0.9778702   -6.2767113    285.51717   0.03355867  0.033757097            6 
  710000   0.97349387    -6.247572    285.30612  0.033486634  0.033737508            3 
  711000    0.9870449   -6.2648981     284.7781  0.033377649  0.033718212            4 
  712000   0.98661587    -6.300106    284.19557   0.03326259  0.033698865            8 
  713000   0.98786663   -6.2835353     285.0577  0.033316701   0.03367893            2 
  714000   0.97598429   -6.2420503    285.66652  0.033341097  0.033659415            2 
  715000   0.96970481   -6.2344497    286.42352  0.033382694  0.033639346            7 
  716000    0.9827226   -6.2334022    286.51193  0.033346361  0.033619519            3 
  717000   0.96444663   -6.2266134    286.12088  0.033254403  0.033599728            5 
  718000   0.96032051   -6.2751405    286.52097  0.033254523  0.033579866            5 
  719000   0.96078427   -6.3273763    284.83769  0.033013177  0.033559753            7 
  720000   0.96345729   -6.2574067    287.18748  0.033239292  0.033539734            3 
  721000    0.9685604    -6.263973    287.25651  0.033201169  0.033519685           10 
  722000   0.97260276   -6.2958113    287.04697  0.033130998   0.03349934            4 
  723000   0.96124661   -6.2801026    287.42234  0.033128439   0.03347933            5 
  724000   0.98115933   -6.2964029    287.60912   0.03310418  0.033459244            5 
  725000   0.98705328   -6.2531113     288.5049  0.033161483  0.033439029            3 
  726000    0.9560437   -6.2638185    288.70478  0.033138748  0.033419012            7 
  727000   0.98632523   -6.3210238     286.9767  0.032895082  0.033398866            3 
  728000   0.95468786   -6.2943843    288.29745  0.033001082   0.03337828            6 
  729000   0.97734498   -6.3260338    288.87293  0.033021597  0.033357696            2 
  730000   0.97038104   -6.3002189    288.20377  0.032899974  0.033337077            8 
  731000   0.96459802   -6.2885261     288.8788   0.03293192  0.033316916            3 
  732000   0.98225088   -6.2928307      288.608  0.032856102  0.033296234            5 
  733000   0.95942624   -6.2324139    289.97756   0.03296698  0.033275841            7 
  734000   0.95992122   -6.2849047    289.31689  0.032847059  0.033255651            2 
  735000   0.96304868    -6.278864    289.69041  0.032844718  0.033235512            8 
  736000   0.93189804   -6.3297474    289.50562  0.032779169  0.033215123            5 
  737000   0.97261679   -6.2848509    290.27999  0.032822251  0.033194649            7 
  738000   0.94722149   -6.2961482    290.10203  0.032757682   0.03317416            5 
  739000   0.95850415   -6.2822605    290.54457  0.032763257  0.033153826           11 
  740000   0.98822531   -6.2575315     291.2426   0.03279759  0.033134037            3 
  741000   0.98190719   -6.2994178    290.28514  0.032645652   0.03311411            4 
  742000   0.95791679    -6.308136    291.86272  0.032778832  0.033093872            7 
  743000   0.94297421   -6.3551235    290.93959  0.032631179  0.033073509            6 
  744000   0.94125118   -6.2643122    291.97269  0.032703034  0.033053198            7 
  745000   0.97777113   -6.2359451    292.82051  0.032753972  0.033032881            2 
  746000   0.96319704    -6.299923    291.76165  0.032591784  0.033012433            4 
  747000   0.94737599   -6.2817077    292.80589  0.032664647  0.032992081            3 
  748000   0.95382076   -6.3193025    293.06398   0.03264973  0.032971857            2 
  749000   0.95806912   -6.2901554    293.08961   0.03260899  0.032951879            5 
  750000   0.95377786   -6.3266784    292.71318  0.032523686  0.032931606            3 
  751000   0.96771571   -6.2996434    293.33864  0.032549782  0.032911316            9 
  752000   0.94686949   -6.2932283    294.21913   0.03260407  0.032891165            5 
  753000   0.96028606   -6.3081778    293.99138  0.032535566  0.032871762            4 
  754000   0.94951294   -6.3135789    293.60543   0.03244976  0.032852238            7 
  755000   0.96196245   -6.2964355    294.63687  0.032520626  0.032832687           13 
  756000   0.93972381   -6.2749119    294.80317  0.032495941  0.032812877            6 
  757000   0.96091022   -6.2949565    295.40453  0.032519213  0.032793062            3 
  758000   0.94141195   -6.2801831    296.21395  0.032565298  0.032773701            3 
  759000   0.94880598   -6.2835951    296.54601  0.032558851  0.032754481            4 
  760000   0.94799658   -6.3418152    296.05026  0.032461651  0.032735271            5 
  761000   0.95280359   -6.3594051    295.81243  0.032392951   0.03271575            3 
  762000   0.95707814   -6.2933931    296.62885  0.032439725    0.0326962            8 
  763000   0.93015718   -6.3032715    297.71574  0.032515918  0.032676644            6 
  764000   0.95293019   -6.3417595    296.95512  0.032390392  0.032657332            8 
  765000   0.94762402     -6.30878    298.12961  0.032475992  0.032637994            4 
  766000   0.95433269   -6.3431816    298.20818  0.032442143  0.032619152            3 
  767000    0.9595729   -6.3085888     299.3009  0.032518568  0.032600053            2 
  768000   0.95025535   -6.3178856    298.30434  0.032368093  0.032581218            4 
  769000    0.9277108   -6.3141121    299.25943    0.0324295  0.032562409            4 
  770000   0.95416001   -6.3241236    299.43466  0.032406349  0.032543356            4 
  771000   0.94148819    -6.331203    299.67303  0.032390081  0.032524325            5 
  772000   0.94076319   -6.3471934    298.70089  0.032243187  0.032505515           15 
  773000   0.95011957   -6.2776353    300.21943  0.032365182  0.032486407            9 
  774000   0.94085281   -6.3437293     299.0277  0.032195058  0.032467269            5 
  775000   0.94691924   -6.3449358     298.8567  0.032135129  0.032448302            7 
  776000   0.93226154   -6.3592886    300.04424  0.032221245  0.032428828            5 
  777000   0.96175391   -6.3484568    300.64285  0.032243977  0.032409545            8 
  778000     0.962905   -6.3344519    301.41873   0.03228564  0.032390692            3 
  779000   0.94421012   -6.2995791    301.03379  0.032203016  0.032372164           11 
  780000   0.91945583   -6.3505059    301.58598  0.032220724  0.032353276            9 
  781000   0.93578003    -6.335676    300.91832  0.032108228  0.032334417            4 
  782000   0.95161519   -6.3172423    301.95596  0.032177745  0.032315737            4 
  783000   0.91466774    -6.322121    302.67275  0.032212937  0.032296918            8 
  784000   0.94413916   -6.3524165    301.45469  0.032042378  0.032278077            5 
  785000   0.93802495   -6.3288984    301.98544  0.032057902  0.032258972            7 
  786000   0.93830208   -6.3677574    302.21094  0.032041024  0.032239654            4 
  787000    0.9348101   -6.3544823    303.10097  0.032094555  0.032220515            6 
  788000   0.91635667   -6.3502793    303.56423  0.032102816   0.03220183            6 
  789000   0.95397928   -6.3314035    303.74982   0.03208173  0.032183141            6 
  790000   0.94502295   -6.3580195    303.82562  0.032049115  0.032164541            5 
  791000   0.92289074   -6.3307334     304.2976  0.032058323   0.03214615            5 
  792000    0.9189938   -6.3522114    304.22199   0.03200989   0.03212761            4 
  793000   0.93331223   -6.3565269    303.98459  0.031944577  0.032108841            2 
  794000   0.94699439   -6.3425855    305.10554  0.032021993  0.032090683            2 
  795000      0.91884   -6.3812128    304.73608  0.031942986  0.032072228            3 
  796000    0.9288749   -6.3260574    305.03777   0.03193444  0.032053578            5 
  797000   0.92658504    -6.346969    304.26558  0.031813633  0.032035179            6 
  798000   0.92506892   -6.3529731    305.56051  0.031908992  0.032016679            5 
  799000    0.9304151   -6.3952451    305.98537  0.031913368  0.031998209            3 
  800000    0.9306237   -6.3789124    305.64725  0.031838256  0.031979501            2 
  801000   0.93070394   -6.3602665    306.05757  0.031841195  0.031960559            3 
  802000   0.92990725   -6.3523905    306.48135  0.031845527  0.031941592            6 
  803000   0.92944648   -6.3581005    306.36092   0.03179337  0.031922915            6 
  804000   0.92621193   -6.3367152    307.12727  0.031833257  0.031904475            5 
  805000   0.94829074   -6.3298522    306.89236  0.031769396  0.031886013            3 
  806000   0.92352676   -6.3391504     307.1491  0.031756524  0.031867449            5 
  807000   0.93744563   -6.3369253    307.29919  0.031732672  0.031849207            4 
  808000   0.94830129   -6.3362516    307.32118  0.031695666  0.031830667            9 
  809000   0.90703169   -6.3522109    307.86403  0.031712406  0.031812206            6 
  810000    0.9319109   -6.3739006     307.4259  0.031628179  0.031793331            4 
  811000   0.95347299    -6.347716    308.82791  0.031733241   0.03177453            3 
  812000   0.94062113   -6.3657523    307.95541  0.031604619   0.03175596            5 
  813000   0.93154837   -6.3882439    306.79707  0.031447014  0.031736966            5 
  814000   0.91852064   -6.3842407    308.30354  0.031562606   0.03171807            6 
  815000   0.93969297   -6.3727193    307.19643  0.031410678  0.031698637            7 
  816000    0.9255314    -6.373771    307.35656  0.031388538  0.031679346            8 
  817000   0.91517234    -6.375897    308.61389  0.031478365  0.031660203            6 
  818000   0.91389991   -6.3737012    308.20733  0.031398465  0.031640791            7 
  819000   0.93699047   -6.3594802    308.64338  0.031404496    0.0316218            6 
  820000   0.91100981   -6.3774511     309.4089  0.031443994  0.031602758           10 
  821000   0.91722894   -6.3602175    309.93497  0.031459091  0.031583725            3 
  822000   0.94531882    -6.357425    309.44729   0.03137138   0.03156473            5 
  823000   0.93707507   -6.3981359    310.27138  0.031416705   0.03154597            3 
  824000   0.91414765   -6.3894733    309.68042  0.031318813  0.031526806            8 
  825000   0.92695435   -6.3343512     310.3643  0.031349929  0.031507822            4 
  826000   0.91975917   -6.3862607    310.67252  0.031343071  0.031488737            8 
  827000   0.91718553   -6.3755574    310.96204  0.031334345  0.031469462            7 
  828000   0.89473987   -6.3667631    311.45485    0.0313461  0.031450555            3 
  829000   0.92783892   -6.4111113    311.25015  0.031287712  0.031431434            8 
  830000     0.910167   -6.3889518    311.28549  0.031253563  0.031412688            4 
  831000   0.90948228   -6.3952315    311.38842  0.031226276  0.031393662            6 
  832000    0.9258243   -6.4009203     311.3057  0.031180458  0.031374384            9 
  833000   0.93233627   -6.3860294    311.35417  0.031147876  0.031355284            7 
  834000   0.92527668   -6.4023101    311.13272  0.031088402  0.031335886            3 
  835000   0.91353044   -6.4092932    311.33457  0.031071314  0.031316547            5 
  836000   0.88416075    -6.363601    312.42198  0.031142542  0.031297184            4 
  837000   0.90004846   -6.4027383    312.48282  0.031111391  0.031277982            7 
  838000    0.9120658   -6.4247802    311.27402  0.030954059  0.031258258           10 
  839000   0.92007454   -6.4077198    312.38734  0.031027745  0.031238595            4 
  840000   0.92417055   -6.3998418    311.81388  0.030933917  0.031218779            7 
  841000   0.90747444   -6.3742936    312.47362  0.030962507  0.031198925            3 
  842000   0.90231907   -6.3863367    313.40018  0.031017437  0.031179181            4 
  843000    0.9135953   -6.4008668    312.80582  0.030921889  0.031159346            5 
  844000   0.93164066   -6.4197578     312.8467  0.030889287   0.03113979           11 
  845000   0.90916784   -6.3854367    313.22609  0.030890147   0.03112037            5 
  846000   0.90955839   -6.3846225    312.61697  0.030793634  0.031100747            7 
  847000    0.9151193   -6.4237056    312.86473  0.030781654  0.031081126            5 
  848000   0.91526142   -6.4001645     313.8889     0.030846  0.031061001            7 
  849000   0.91236821   -6.4270997    312.90496  0.030713089  0.031040834            4 
  850000    0.9250345   -6.4073138    313.48206  0.030733535   0.03102083            5 
  851000   0.92779884   -6.4315416    313.56318  0.030705364  0.031001141            5 
  852000   0.90910831   -6.4248155    313.53598  0.030666665  0.030981037            5 
  853000   0.93440125    -6.399655    313.25299  0.030603067  0.030960739           10 
  854000   0.89910048   -6.4265558    313.41443  0.030582985   0.03094026            5 
  855000   0.91873719   -6.4252737     313.5797  0.030563324  0.030920075            3 
  856000    0.9175942   -6.4183392    313.82276  0.030551281  0.030899783            9 
  857000   0.91287244   -6.4000299    314.57314  0.030588598  0.030879594            4 
  858000   0.91096514   -6.4092247    314.56592  0.030552246  0.030859051            4 
  859000   0.91444489    -6.435643    313.02913  0.030367592  0.030838109            3 
  860000   0.90718948   -6.3896314     314.9224  0.030515736  0.030817653           16 
  861000   0.89677133   -6.3963622    315.37123  0.030523735  0.030797202            4 
  862000   0.90158668   -6.4029979    315.27287  0.030478816  0.030777054            5 
  863000   0.90954142   -6.4412076    314.71125  0.030389267  0.030756807            3 
  864000   0.91324817   -6.4148764    316.29623  0.030506966  0.030736548            6 
  865000   0.92015627   -6.4353387     315.0813  0.030354653  0.030715971            3 
  866000   0.89334407   -6.3935133    315.78402  0.030387223  0.030695432           14 
  867000   0.91336064   -6.4150751    316.08776  0.030381369  0.030674978            3 
  868000   0.91783297   -6.4112196    315.82023  0.030320683  0.030654389            8 
  869000   0.89696667   -6.4182514    316.04124  0.030306985  0.030633629            8 
  870000   0.90100754   -6.4275472    316.29094  0.030296067  0.030612795            2 
  871000   0.90135334   -6.4260696    316.02255  0.030235605  0.030592078            9 
  872000   0.91928782   -6.4277847    316.53359   0.03024977  0.030570953            9 
  873000   0.90065821   -6.4283997    315.38906  0.030105867  0.030549865            7 
  874000   0.89630875   -6.3973142     316.0785  0.030137157  0.030529041            7 
  875000    0.9035595   -6.4228419    316.30287  0.030124083  0.030508255            2 
  876000   0.91695053   -6.4208813    316.08098  0.030068587  0.030487477            2 
  877000   0.90632199   -6.4074592    316.03467    0.0300299  0.030466698            6 
  878000   0.91606005   -6.4379861    316.41857  0.030032135  0.030445817            6 
  879000   0.89918804   -6.4355712    317.17783   0.03006995  0.030424785            5 
  880000   0.89863478   -6.4315879     317.1487  0.030033021   0.03040387            4 
  881000   0.90316924   -6.4150708    316.35729  0.029924072  0.030382916            9 
  882000   0.90264639   -6.4489463    316.55908   0.02990921  0.030361847            5 
  883000   0.92175162   -6.4121566    317.26041  0.029941526  0.030340415            7 
  884000   0.90602641   -6.4217708    317.57255  0.029937081  0.030319303            8 
  885000   0.90348957    -6.403365    317.47968  0.029894508   0.03029824            7 
  886000   0.90357681   -6.4343419    316.37485  0.029756852  0.030277241            5 
  887000   0.90166641   -6.4425709    317.19132  0.029800011  0.030255848            4 
  888000   0.90087777   -6.4517358     317.4712  0.029792717  0.030234472            5 
  889000   0.90473734   -6.4297368    318.13232  0.029821177  0.030213177            3 
  890000   0.88506812   -6.4216799    317.76032  0.029752839  0.030191989           15 
  891000   0.90388068     -6.44822     319.7048  0.029901309  0.030170821            5 
  892000   0.88869764   -6.4423369    318.42035  0.029747791  0.030149808            5 
  893000   0.90223482   -6.4316213     318.3088  0.029704069  0.030128782            6 
  894000    0.8951141   -6.4754391    318.05281  0.029646981  0.030107358            6 
  895000   0.90106759    -6.456916    318.72205  0.029676168  0.030086088            2 
  896000    0.8949662   -6.4557092    318.66408  0.029637656  0.030064655            5 
  897000   0.91570206   -6.4890546    318.59624  0.029598313  0.030043064            6 
  898000    0.8926616   -6.4475516    318.69915  0.029574903  0.030021745           12 
  899000   0.88278897   -6.4671133     319.3356  0.029601001  0.030000542            8 
  900000   0.88029943   -6.4569097    319.55408  0.029588341  0.029979352           12 
  901000   0.89154125   -6.4171792    319.72699  0.029571494  0.029958333            5 
  902000   0.87827415   -6.4287948    320.35622  0.029596842  0.029937498            6 
  903000   0.90874922   -6.4814714    319.45272  0.029480687  0.029916189            7 
  904000    0.9061618    -6.432159    320.25137  0.029521697  0.029895095            5 
  905000   0.90836227     -6.47625    320.25318  0.029489243  0.029873881            6 
  906000   0.88375054   -6.4584313    320.34976  0.029465577  0.029852926            8 
  907000   0.89540273   -6.4841865    319.90544  0.029392267  0.029831774            4 
  908000   0.88474052   -6.4733233    319.66666  0.029337982  0.029810459            4 
  909000   0.88764161   -6.4468879    320.27477  0.029361456   0.02978934            9 
  910000   0.88888776   -6.4432569    320.95326  0.029391324  0.029768161           10 
  911000   0.88321843   -6.4478402    321.21066  0.029382607  0.029746937            4 
  912000    0.8837458   -6.4881593     319.7094  0.029213213  0.029725752           11 
  913000   0.87989046   -6.4508432    321.49298   0.02934401   0.02970451            3 
  914000   0.87809374   -6.4276913    322.43152  0.029397476  0.029683502            5 
  915000   0.89781457   -6.4490782    322.00202  0.029326231  0.029662608            5 
  916000   0.89583283   -6.5130933    320.31219  0.029140483  0.029641461            6 
  917000   0.87695237   -6.4915453    320.72761  0.029146457  0.029620157           10 
  918000   0.90664833   -6.4470443    321.94652  0.029225356  0.029599081            6 
  919000   0.90309072   -6.4342979    322.04753  0.029202714  0.029578263            6 
  920000   0.88330648   -6.4958335    322.82517   0.02924141  0.029557532            4 
  921000   0.88681387   -6.4368903    322.38195  0.029169558   0.02953683            9 
  922000     0.876676   -6.4466946    323.13571  0.029206047  0.029516077            5 
  923000    0.8844272   -6.4724863    323.37812  0.029196291  0.029495476            7 
  924000   0.88053683   -6.4509391    323.33823  0.029161096  0.029474726            4 
  925000   0.88588724   -6.4746233    323.78869  0.029170152  0.029453819            6 
  926000   0.88505779   -6.4632252      324.002  0.029157847  0.029433164            7 
  927000   0.87439981   -6.4690249    324.30889  0.029153981  0.029412475            5 
  928000   0.89626017   -6.5166434    323.71654  0.029069373  0.029391944            6 
  929000   0.88040027    -6.472412    323.80174  0.029045725  0.029371457            4 
  930000   0.89721464   -6.4919459    324.75969  0.029100331  0.029350953            3 
  931000   0.89488121   -6.4747179    324.19194  0.029018255  0.029330468            7 
  932000   0.90429607   -6.4929863    324.17576  0.028985673  0.029310165            3 
  933000   0.90773688   -6.5037725    324.22426  0.028958937  0.029289583            7 
  934000   0.88269215   -6.4954586    325.55849  0.029046975  0.029269113            4 
  935000   0.88011627   -6.4991594    324.53037  0.028924275  0.029248742            5 
  936000   0.88828741   -6.5267171    324.83717  0.028920688   0.02922811            3 
  937000    0.8794931   -6.5042221    324.46182  0.028856441  0.029207868            6 
  938000   0.88054819    -6.489386     326.6726  0.029022086   0.02918765            5 
  939000    0.8807179   -6.4840955    326.06432  0.028937196  0.029167353            5 
  940000   0.88163797   -6.5056643    325.82356  0.028885067  0.029147206            6 
  941000   0.88240704   -6.4850444    327.28944  0.028984187  0.029127277            4 
  942000   0.88430892   -6.5291652    325.92855  0.028833029  0.029106969            5 
  943000   0.87363683   -6.5140222    326.35982  0.028840563  0.029086583           11 
  944000   0.88938876   -6.4856988    325.48239  0.028732555  0.029066363           14 
  945000   0.87895266   -6.5137139    326.12712  0.028759005  0.029046118            8 
  946000     0.876919   -6.5228779    326.35754  0.028748902  0.029026117           13 
  947000   0.88458854   -6.5085531    327.07251   0.02878146  0.029006086            4 
  948000   0.86109846   -6.5227228    327.49052  0.028787845  0.028986302            4 
  949000   0.84905907   -6.5090257    327.39908   0.02874948  0.028966674            8 
  950000   0.87872364   -6.4880587    328.50952  0.028816625  0.028947112            7 
  951000   0.85284153   -6.5226024    329.12991  0.028840686  0.028927635            7 
  952000   0.89496495   -6.4959787    329.68504  0.028858985  0.028908193            8 
  953000   0.86831442   -6.5446515    328.70934  0.028743384  0.028888732           10 
  954000   0.87320995    -6.539063    328.23191   0.02867155  0.028868805           11 
  955000   0.88832214    -6.530931    328.75235  0.028686942  0.028848908           10 
  956000   0.87122068   -6.5219233    329.08293  0.028685751  0.028828943            5 
  957000   0.85604285   -6.5663183    328.60281  0.028613968  0.028809203            6 
  958000   0.87300434   -6.5270875     329.2605   0.02864131  0.028789345            6 
  959000   0.87359217   -6.5287561    329.76292  0.028655103  0.028769752            6 
  960000   0.86000893    -6.549323     329.2478  0.028580538  0.028750134            5 
  961000   0.86476844   -6.5203065    329.13869  0.028541336  0.028730452           10 
  962000   0.87524681   -6.5178039    330.12319   0.02859695  0.028710781            6 
  963000   0.86061258   -6.4820361    330.44558  0.028595152  0.028691232            6 
  964000   0.88037951   -6.5459539    329.23307  0.028460674  0.028671514            5 
  965000   0.87293721   -6.5345177    329.46442  0.028451158  0.028651709            7 
  966000   0.88516482   -6.5236999    330.03866  0.028471244  0.028631988            5 
  967000   0.87388359   -6.5163566    330.78574  0.028506182  0.028612266            7 
  968000   0.86450576    -6.544942    331.06558  0.028500825  0.028592462            7 
  969000   0.87079186   -6.5270229    330.08037  0.028386685  0.028572731            8 
  970000   0.87485571   -6.5318589    331.45282  0.028475328  0.028553159            7 
  971000   0.86025256   -6.5487253     331.0856  0.028414487  0.028533473           13 
  972000    0.8679576   -6.5063914    330.59826  0.028343473  0.028513809            4 
  973000   0.86060618   -6.5421606    330.92094  0.028341979  0.028494041            4 
  974000   0.87274938   -6.5479617    330.58852  0.028284439  0.028474241            7 
  975000   0.87827742   -6.5300969    330.59433  0.028255926  0.028454435           13 
  976000   0.87872657   -6.5323599    330.24415  0.028197076  0.028434319            5 
  977000   0.87771736   -6.5307083    330.73232  0.028209854  0.028414068            7 
  978000    0.8510043   -6.5604867    331.19376  0.028220327  0.028393902            8 
  979000   0.85949452   -6.5159995    332.34597  0.028289578  0.028374035            4 
  980000   0.85838746    -6.539919    332.22937  0.028250797  0.028354279            4 
  981000   0.86155841   -6.5300484    331.42506  0.028153675  0.028334515           12 
  982000   0.86014741   -6.5455291    329.72393  0.027980646  0.028314552            6 
  983000   0.85936494   -6.5442975    331.38543  0.028093034  0.028294483            4 
  984000   0.85795117   -6.5484137    331.61118  0.028083603  0.028274533            5 
  985000   0.86776537   -6.5765209    330.96211  0.028000178  0.028254364           12 
  986000   0.84695827   -6.5277315      330.817  0.027959517  0.028234041            5 
  987000   0.84556441   -6.5269232    331.40333  0.027980693  0.028213836            6 
  988000   0.86313693   -6.5292653    331.62848  0.027971363  0.028193602            7 
  989000   0.85499751   -6.5392945    330.77027  0.027870767  0.028173207            8 
  990000   0.86131609   -6.5603437    330.71099  0.027837625  0.028152606           10 
  991000   0.84471096   -6.5787111    330.88602  0.027824253  0.028131972            8 
  992000   0.88242385   -6.5907511    330.82447  0.027791034  0.028111004            5 
  993000   0.86874373   -6.5661627    331.23421  0.027797433  0.028090122            4 
  994000    0.8664788   -6.5742042    331.32974  0.027777477  0.028069515           10 
  995000    0.8654368   -6.5750554    331.31213  0.027748084  0.028048849            4 
  996000   0.84831134   -6.5839586    331.30218  0.027719393  0.028028268            8 
  997000   0.86553425   -6.5845416    330.89105  0.027657226  0.028007449            8 
  998000   0.85079118   -6.6255371    331.95277  0.027718167  0.027986685           10 
  999000   0.85313281   -6.5729341     331.6792  0.027667601  0.027965836           11 
 1000000    0.8574103   -6.5554814    332.82878  0.027735732  0.027945174            9 
 1001000   0.85866087   -6.5537493    331.62666  0.027607947   0.02792454            7 
 1002000   0.85947111   -6.5754144    331.65723  0.027582937  0.027904082            6 
 1003000   0.85455138   -6.5645743    332.51674  0.027626848  0.027883484           10 
 1004000   0.84612286   -6.5543137    333.34781  0.027668311  0.027863178            5 
 1005000   0.86581247   -6.5660652    332.99167  0.027611249  0.027842587           13 
 1006000   0.83753014   -6.5102143    332.91861  0.027577751  0.027822007            4 
 1007000   0.85448552   -6.5758105    332.50024  0.027515743  0.027801373           12 
 1008000   0.87188353   -6.5794174    332.34145  0.027475318  0.027780551            9 
 1009000    0.8718483   -6.6131896    331.90951  0.027412414  0.027759741            7 
 1010000   0.84944704   -6.5492682    333.41599   0.02750957   0.02773904            4 
 1011000   0.87106511   -6.5887766    332.76477  0.027428682  0.027718491            2 
 1012000   0.85794953   -6.5696238    333.12046  0.027430868  0.027697865            8 
 1013000   0.83375556   -6.5891608    333.43703  0.027429831  0.027677413            4 
 1014000   0.84300567   -6.5439549    334.93231  0.027525666  0.027657104            8 
 1015000   0.84617834   -6.5918719    333.38808  0.027371763  0.027636754            4 
 1016000    0.8465314   -6.5578846    333.53624  0.027356975  0.027616387            8 
 1017000   0.87064416   -6.5562369    333.04768  0.027290043  0.027595855            8 
 1018000   0.85127439   -6.5689984    333.46019  0.027297003  0.027575109            6 
 1019000    0.8601621   -6.5774143    334.03808  0.027317475  0.027554495            5 
 1020000   0.83467819   -6.5874545    333.30963  0.027231179  0.027533789            5 
 1021000   0.82951194   -6.5934021    333.27753  0.027201888  0.027513102            8 
 1022000   0.85133068   -6.6070036    333.14851  0.027164751  0.027492332            9 
 1023000   0.85274556   -6.6478896    333.07976  0.027132597  0.027471516            5 
 1024000   0.85865343   -6.6099289    333.76751   0.02716207  0.027450606            3 
 1025000   0.85142258    -6.597963    334.39759  0.027186796  0.027429864            8 
 1026000   0.83832169   -6.6165324    333.17108  0.027060679  0.027408977            7 
 1027000   0.83792405   -6.5848216    333.77149  0.027083048  0.027388318            9 
 1028000   0.84135636   -6.6033446    334.14981  0.027087371  0.027367653            6 
 1029000   0.83766148   -6.6050492    334.00413   0.02704925  0.027347043           11 
 1030000   0.84947405   -6.6284043    334.39812  0.027054864  0.027326494            6 
 1031000   0.83687982   -6.5995774    334.84735  0.027064933  0.027306045            5 
 1032000   0.83881462   -6.5959786    334.88919  0.027042085  0.027285611            7 
 1033000   0.86596462   -6.5957042    335.39035  0.027056336  0.027265065           13 
 1034000   0.85385593   -6.5924237    335.69238  0.027054512  0.027244575            6 
 1035000   0.82159388   -6.6260944    334.37991  0.026922698  0.027223974            7 
 1036000   0.83850318     -6.59144    334.18962  0.026881405    0.0272033            6 
 1037000   0.84224153    -6.607138    335.42723  0.026954937  0.027182653            5 
 1038000   0.86039873   -6.6006651    335.01759  0.026896081  0.027162155            7 
 1039000   0.85316747   -6.6121078    335.33173  0.026895391  0.027141814           14 
 1040000   0.83481134    -6.617782     336.0726  0.026928894  0.027121449           12 
 1041000   0.83747898   -6.6091139    335.82499  0.026883205  0.027101005            7 
 1042000   0.83318816   -6.5952453    336.84455  0.026938944  0.027080705            6 
 1043000   0.85021547   -6.5667815    337.09839  0.026933396  0.027060515            5 
 1044000   0.82841493   -6.6045867     335.9148  0.026813122  0.027040318            4 
 1045000   0.83021897   -6.5892666    336.91851  0.026867505  0.027020092            9 
 1046000   0.85565209    -6.637506    335.81528  0.026753926  0.026999935            4 
 1047000   0.82615477   -6.5904598    336.36569  0.026772181  0.026979669           11 
 1048000   0.83739732   -6.6114877    336.66312  0.026770287   0.02695941            7 
 1049000   0.83311901   -6.6176194    336.13904  0.026703133   0.02693903            5 
 1050000   0.82483859   -6.6211285     335.8617   0.02665569  0.026918473            6 
 1051000   0.85577084   -6.6285374    336.08119  0.026647731  0.026898075            4 
 1052000   0.83560759   -6.5894677    336.73443  0.026674147  0.026877691            5 
 1053000   0.84050226   -6.6060947    336.38446  0.026621119  0.026857275           13 
 1054000   0.81956572   -6.6337358    336.75226  0.026624941  0.026836929            6 
 1055000   0.81913991   -6.6650673    337.48586  0.026657651  0.026816596            7 
 1056000   0.82173422    -6.651196    336.32008   0.02654041  0.026796171           11 
 1057000   0.82181995   -6.6885544     335.9495  0.026486085  0.026775668           10 
 1058000   0.82076948   -6.6399231    336.54138   0.02650767  0.026755365            6 
 1059000   0.83625943   -6.6620041    336.50451  0.026479738  0.026735062           16 
 1060000   0.84442027   -6.6594757    336.86376     0.026483  0.026714765            9 
 1061000   0.82437309   -6.6238496    337.98999  0.026546496  0.026694682            7 
 1062000   0.82721522   -6.6532065    337.33458  0.026470071  0.026674474           11 
 1063000   0.79395801   -6.6194629    338.36499  0.026525947  0.026654179            6 
 1064000    0.8265652   -6.6740037    337.79482  0.026456361  0.026634031            6 
 1065000   0.81979574   -6.6431771    338.25853  0.026467803  0.026613873            5 
 1066000   0.84772432   -6.6078784    338.26408  0.026443408  0.026593751           16 
 1067000   0.81016219   -6.6538497    338.10773  0.026406414  0.026573644            7 
 1068000   0.83861963   -6.6212124    338.34317   0.02640006  0.026553401            3 
 1069000   0.82511048   -6.6723433    337.52825  0.026311837  0.026533218            5 
 1070000   0.82813068   -6.6747995    337.62264  0.026294598  0.026512819            4 
 1071000   0.82096705    -6.649827    338.45186  0.026334568  0.026492335            4 
 1072000     0.827255   -6.6375316    339.07012  0.026358063  0.026472143            5 
 1073000   0.82125976   -6.6078888    339.28586  0.026350253  0.026451995            8 
 1074000   0.81339238   -6.6231321    338.81296  0.026289026  0.026432027           14 
 1075000   0.83740278   -6.6417194    338.57415  0.026246058  0.026412028            7 
 1076000   0.82635182   -6.6306488    338.24534    0.0261962  0.026392134           10 
 1077000   0.82605685   -6.6373373      338.125  0.026162566  0.026372114            8 
 1078000   0.83244154   -6.6493887    338.44414  0.026162967  0.026352046            7 
 1079000   0.81160076   -6.6291631    338.92684     0.026176   0.02633212           13 
 1080000   0.81984987   -6.6514489    339.86582  0.026224214  0.026312277            8 
 1081000   0.83818604   -6.6150945     339.6814  0.026185739  0.026292424            6 
 1082000   0.80834704   -6.5932759    339.89854  0.026178261  0.026272697            6 
 1083000   0.79193719   -6.6410353    340.67285   0.02621367  0.026252883            6 
 1084000   0.80899857   -6.6584717    339.06276   0.02606571  0.026232854            7 
 1085000   0.82422948   -6.6369973    339.09074  0.026043836  0.026212651            4 
 1086000   0.80428558   -6.6442933    339.01311  0.026013897  0.026192613            6 
 1087000   0.82649217   -6.6252333    339.48459  0.026026111  0.026172584            3 
 1088000   0.81735202   -6.6508072    339.57641  0.026009222  0.026152611           12 
 1089000    0.8184591   -6.6749035    338.92289   0.02593533  0.026132482            9 
 1090000   0.81140664   -6.6904027    339.30142  0.025940476  0.026112312           13 
 1091000   0.81560649   -6.6659186    339.30984  0.025917342  0.026092122           16 
 1092000   0.81297413   -6.6484441    339.05098  0.025873854   0.02607196            8 
 1093000   0.80401592   -6.7014718    339.51625  0.025885655  0.026051914           12 
 1094000   0.81869481   -6.6760186    340.24538  0.025917533  0.026031887           10 
 1095000   0.80116434   -6.6526739    340.41218  0.025906558  0.026012033            4 
 1096000   0.83514509   -6.6623007    339.94888  0.025847694   0.02599211            9 
 1097000    0.8125848   -6.6647773    340.92973  0.025898643  0.025972228            6 
 1098000   0.83661994   -6.6436954    339.78955   0.02578852  0.025952264            5 
 1099000   0.81855996   -6.6799978     340.7167  0.025835358  0.025932538            8 
 1100000   0.83776682    -6.665348    340.47228  0.025793354  0.025912722           12 
 1101000    0.7889803   -6.6717359    340.50165  0.025772151  0.025892942           19 
 1102000    0.8285519   -6.6573029    341.23572  0.025804274  0.025873004            5 
 1103000   0.81664579    -6.650101    341.33705  0.025788535  0.025853278            4 
 1104000   0.80390478   -6.6865811    341.22307  0.025756572  0.025833452            3 
 1105000   0.82926295    -6.637554    341.72193  0.025770884  0.025813659            5 
 1106000   0.80505361    -6.674724    340.52662  0.025657521  0.025793828            7 
 1107000   0.82446018   -6.6534943    342.01406  0.025746316  0.025774074           10 
 1108000    0.8246521   -6.6615183    342.71794  0.025776018  0.025754442            7 
 1109000   0.82950155   -6.6568538    341.56654  0.025666257  0.025734808           15 
 1110000   0.81731489   -6.6868638    341.25804  0.025619973  0.025715128           15 
 1111000   0.81855511   -6.6763058    340.59519  0.025547194  0.025695423           11 
 1112000   0.82766913   -6.6771765    342.04973  0.025633223  0.025675781           10 
 1113000    0.8012791   -6.6690372     342.3754  0.025634576  0.025656236            9 
 1114000   0.81199639   -6.6707831    342.35026  0.025609684  0.025636731            8 
 1115000   0.80148071   -6.6756613    342.15399  0.025572047  0.025617307           10 
 1116000   0.83063697   -6.7026926    342.94081  0.025607886  0.025597805            6 
 1117000   0.81542068   -6.7055968    341.09361  0.025447151  0.025578174            7 
 1118000   0.80126646   -6.6774986    341.78656  0.025476041  0.025558598            6 
 1119000    0.7999273   -6.6921618    341.80371  0.025454551  0.025539032            6 
 1120000   0.81324365   -6.7029814     342.7279  0.025500588  0.025519496           11 
 1121000   0.80227056   -6.7079226    342.04129  0.025426798  0.025500054            8 
 1122000   0.80937268   -6.6839372    342.62611  0.025447572  0.025480514           14 
 1123000    0.7890987   -6.6950961    342.11214  0.025386772  0.025460901            6 
 1124000   0.79292829   -6.6866347    342.63743  0.025403131  0.025441135            4 
 1125000   0.81015455   -6.6874357    343.20376  0.025422501  0.025421432            7 
 1126000   0.80093763   -6.6944953    343.13093  0.025394533  0.025401796           12 
 1127000   0.80802822    -6.686277    343.20911  0.025377781  0.025382176           21 
 1128000   0.78256717   -6.7233689    342.02234  0.025267608   0.02536258           13 
 1129000   0.81248367   -6.6962707    344.00693  0.025391713  0.025343135            8 
 1130000   0.80581969   -6.6891426    343.35185  0.025320933  0.025323668           10 
 1131000   0.81670366   -6.7188522    341.88977  0.025190817    0.0253042            7 
 1132000   0.79816782   -6.7177485    342.14961  0.025187692   0.02528472            9 
 1133000   0.79982962   -6.7054708    342.90563  0.025221067  0.025265176            8 
 1134000   0.78258877   -6.7168902    342.59082  0.025175693  0.025245546            4 
 1135000   0.79125037   -6.7294163    342.34722  0.025135626  0.025225915            8 
 1136000      0.78781     -6.71922    342.40615  0.025117822  0.025206402           11 
 1137000   0.79527835   -6.7071129    343.86898  0.025202945  0.025186921           11 
 1138000   0.81295084   -6.7213352    342.91581     0.025111   0.02516733           15 
 1139000   0.80902911   -6.7199865    343.69797  0.025146179  0.025147924           16 
 1140000   0.77688315   -6.7454805    343.09607  0.025080122  0.025128573           16 
 1141000   0.77763928   -6.7052484    344.85367  0.025186508  0.025109219           13 
 1142000   0.78063872   -6.6988164    343.83286  0.025089963  0.025089962            5 
 1143000   0.78855599   -6.7265078    344.17467  0.025092933  0.025070589           15 
 1144000    0.7955857   -6.7173415    343.72061  0.025037923  0.025051217            8 
 1145000   0.80962099   -6.6948983    344.03219  0.025038733   0.02503179           16 
 1146000   0.81126265   -6.7176564    344.29404  0.025035925  0.025012419           11 
 1147000   0.79804843   -6.7501801    342.96967  0.024917878  0.024993014           11 
 1148000   0.78947668   -6.7353847    343.10409   0.02490593  0.024973426            8 
 1149000   0.81528316   -6.7416472     343.6643  0.024924884  0.024953852            7 
 1150000   0.79426701   -6.6879379      344.891  0.024992102  0.024934475           10 
 1151000   0.77971226    -6.731395    343.83625  0.024894023  0.024915181           15 
 1152000   0.81636313   -6.7048737     344.8839  0.024948199  0.024895811            7 
 1153000   0.79176969   -6.7334365    344.67639  0.024911564  0.024876534            8 
 1154000   0.79040818    -6.737011    344.80188  0.024899038  0.024857322            8 
 1155000   0.80171694   -6.7167946    344.51258  0.024856607  0.024838122            5 
 1156000   0.78045258   -6.7258831    344.50478  0.024834543  0.024818775            4 
 1157000   0.78836822   -6.7167595     344.5643  0.024817366  0.024799536            5 
 1158000   0.78135096   -6.7286309    344.72463  0.024807472  0.024780292            7 
 1159000   0.79170494   -6.7314492    344.66304  0.024781639  0.024761011           21 
 1160000   0.77469129   -6.7438154    344.09992  0.024719822   0.02474159           13 
 1161000   0.78061655    -6.737861    344.14678  0.024701894  0.024722111            8 
 1162000   0.80656247   -6.7305464    344.55804  0.024710129  0.024702758            8 
 1163000   0.78846274   -6.7785213    344.05704  0.024652983  0.024683462            7 
 1164000   0.78455843   -6.7254626    345.72796  0.024751429  0.024664298            9 
 1165000   0.78624302   -6.7671064    343.86175  0.024596692  0.024645041           11 
 1166000   0.77842012   -6.7589808    344.36286  0.024611411  0.024625647            9 
 1167000   0.79201207   -6.7514026    344.11989  0.024572971  0.024606246            4 
 1168000    0.7744249   -6.7489058     345.0917  0.024621269  0.024586929           18 
 1169000     0.793685   -6.7494877    344.99537   0.02459334  0.024567677            9 
 1170000   0.79120287   -6.7465478     344.5995  0.024544124  0.024548436            7 
 1171000   0.79679791   -6.7517784    344.54706  0.024519432  0.024529206            8 
 1172000    0.7792084   -6.7389746    344.57845  0.024500743  0.024509905            9 
 1173000   0.78867202   -6.7360122    345.23909   0.02452679  0.024490515            9 
 1174000   0.77731515   -6.7244901    345.61359   0.02453248  0.024471221            9 
 1175000   0.79728727    -6.733569    345.26306  0.024486742  0.024451987            6 
 1176000   0.76835863   -6.7467279    345.73443  0.024499322  0.024432771            7 
 1177000   0.77922533    -6.766165    344.68266   0.02440404  0.024413497            9 
 1178000   0.78275538    -6.745529    345.56767   0.02444593  0.024394375            9 
 1179000   0.78244027   -6.7148552    345.42255  0.024414938   0.02437526            9 
 1180000   0.78352059   -6.7776637    344.63705  0.024338775  0.024356046            7 
 1181000   0.76411288   -6.7650112    345.15904  0.024354999  0.024336899           11 
 1182000   0.78399452   -6.7312218    346.25941  0.024411972  0.024317877            8 
 1183000   0.77842402   -6.7223041    346.95103  0.024440056  0.024298944           17 
 1184000   0.80077865   -6.7638006    346.58323  0.024393527  0.024280026            7 
 1185000   0.77711934   -6.7639353    346.56517  0.024371672  0.024261209           11 
 1186000   0.79298118   -6.7437633     346.7638  0.024365079  0.024242322           20 
 1187000   0.78714885   -6.7707246     345.9805   0.02428956   0.02422347           10 
 1188000   0.77519477   -6.7847684    346.48104  0.024304226    0.0242047           13 
 1189000   0.76451889   -6.7528862    347.85876  0.024380345  0.024186066            9 
 1190000   0.77016512   -6.7620404    346.85701  0.024289707  0.024167331            9 
 1191000   0.78150671   -6.7790474    347.38365  0.024306161  0.024148595            8 
 1192000   0.79278734   -6.7570185    347.16593  0.024270549      0.02413           11 
 1193000   0.77380785    -6.763491    346.97644  0.024236969  0.024111304           17 
 1194000   0.77582022   -6.7659924    347.58752  0.024259319  0.024092817           17 
 1195000   0.77465779   -6.7832073    347.08619  0.024204058  0.024074171           13 
 1196000   0.78651247   -6.7707494    347.14198  0.024187708  0.024055694           14 
 1197000   0.76932507   -6.7679586    347.47405  0.024190619  0.024037173            8 
 1198000   0.77632514   -6.7492883    347.74662  0.024189387  0.024018606           18 
 1199000   0.77215072   -6.7596015    347.07525   0.02412255  0.024000115            5 
 1200000   0.78598771   -6.7718305     347.5067  0.024132409  0.023981558           11 
 1201000   0.78107868   -6.7613777    347.12992  0.024086173  0.023962957           26 
 1202000    0.7758235   -6.7658506    347.45835  0.024088904  0.023944244           16 
 1203000   0.76962283   -6.7470178    347.56535  0.024076292  0.023925514           17 
 1204000   0.76186092    -6.801933    347.27418  0.024036142  0.023906685            4 
 1205000   0.77280129   -6.7964396    347.18372  0.024009939  0.023887891            9 
 1206000   0.77607481   -6.7790898    347.08444  0.023983171  0.023869139           14 
 1207000   0.76017763   -6.7904567    347.23591  0.023973758   0.02385044            6 
 1208000   0.75726542   -6.7638501     347.7958  0.023992536  0.023831738           11 
 1209000   0.78284461     -6.80427    347.15726  0.023928678   0.02381295            9 
 1210000   0.78440633   -6.7887006     345.9659  0.023826853  0.023794135           14 
 1211000   0.76885698   -6.8013957    346.13086  0.023818528  0.023775201           19 
 1212000   0.77146057   -6.7852751    346.79098  0.023844264  0.023756417            6 
 1213000   0.74922052   -6.7870908    346.79524    0.0238249   0.02373755            6 
 1214000   0.76344048    -6.798247    346.99316   0.02381886  0.023718595            9 
 1215000   0.78437551   -6.8047064    347.60724  0.023841374  0.023699802           11 
 1216000   0.77834225   -6.7981781    347.81104  0.023835735  0.023681042           15 
 1217000   0.76604039   -6.7861922    347.26219  0.023778567   0.02366224           17 
 1218000   0.76732063   -6.8345592    346.76765  0.023725209  0.023643412            9 
 1219000   0.75592915    -6.779092    347.41512  0.023750008  0.023624533           17 
 1220000   0.76913303    -6.776785    347.29789  0.023722534  0.023605759           17 
 1221000   0.76697166   -6.8247059    346.86456   0.02367353  0.023587011           20 
 1222000   0.76286399   -6.8279776     347.1786  0.023675573   0.02356817           13 
 1223000   0.77193683   -6.8263062    346.95992  0.023641314  0.023549444           17 
 1224000    0.7714016   -6.8064713    346.77931  0.023609703  0.023530655            8 
 1225000   0.76068889   -6.8292792    347.39928  0.023632604  0.023511845           16 
 1226000   0.75497027   -6.8024918    347.87507  0.023645668  0.023493176           16 
 1227000   0.75637329   -6.7724432    348.48541  0.023667849  0.023474537           19 
 1228000   0.76255592   -6.8050137     348.4034   0.02364301  0.023455891            9 
 1229000   0.75602786   -6.7862559    348.46061  0.023627652  0.023437272            6 
 1230000   0.75755602   -6.7852095    347.87499  0.023568766  0.023418603            8 
 1231000   0.76176577   -6.7797065    348.22924  0.023573601  0.023400061           12 
 1232000   0.78779453   -6.8100801    348.10548  0.023546096  0.023381543           10 
 1233000   0.75750898   -6.8079088    347.97089  0.023517902  0.023362903            9 
 1234000   0.76338031   -6.8093591    348.12312  0.023509125  0.023344195           22 
 1235000   0.77077103   -6.8128782    347.04996  0.023417676  0.023325493           39 
 1236000   0.75476597   -6.8553756    347.65862  0.023439767  0.023306673           35 
 1237000   0.76544589   -6.8467561     347.9741  0.023442071  0.023287793           35 
 1238000   0.75747734   -6.8425542    348.38484  0.023450784  0.023269027           27 
 1239000   0.74463062   -6.8237431    348.00869  0.023406557  0.023250381           15 
 1240000   0.76981659   -6.8355104    348.71596  0.023435212  0.023231842           24 
 1241000   0.77555555   -6.8475656    347.46612  0.023332402  0.023213129           11 
 1242000   0.74704722   -6.8300262    347.73174  0.023331437  0.023194469           22 
 1243000   0.75988952   -6.8272038    348.24034  0.023346764  0.023175888           10 
 1244000   0.74031027   -6.8573131    348.27427   0.02333027  0.023157378           10 
 1245000   0.74377102   -6.8630404    347.31408  0.023247261  0.023138695           19 
 1246000   0.75145468   -6.8649422     347.5132  0.023241921  0.023120005           28 
 1247000   0.73837756   -6.8188812     349.0433  0.023325535  0.023101524           19 
 1248000   0.77254696   -6.8716512    348.25949  0.023254506  0.023083021           17 
 1249000   0.74113653    -6.875943    347.95791  0.023215767  0.023064517           23 
 1250000   0.77801979   -6.8462674    348.12215  0.023208144  0.023046023           12 
 1251000   0.75235028   -6.8537802    347.81592  0.023169193  0.023027484           18 
 1252000   0.77085329   -6.8808395    347.76176  0.023147082  0.023008856           13 
 1253000   0.75797018   -6.8714934    347.24665   0.02309435  0.022990281           17 
 1254000   0.75052731    -6.848228    347.94714  0.023122484  0.022971701           25 
 1255000   0.75152842    -6.835354    347.95853  0.023104816  0.022953291           10 
 1256000    0.7633278   -6.8482044    348.34564  0.023112104  0.022934908            5 
 1257000   0.74981757   -6.8378379    348.03336  0.023073015  0.022916444           10 
 1258000   0.75296817   -6.8227577    349.10093  0.023125393  0.022897999           32 
 1259000   0.77144128   -6.8563202    348.76007  0.023084463  0.022879644           13 
 1260000   0.74755904   -6.8300911    349.19507  0.023094912   0.02286131           10 
 1261000   0.73609231   -6.8754657    349.01997  0.023065026  0.022842908           14 
 1262000    0.7496005   -6.8619988    349.26474  0.023062912  0.022824547           12 
 1263000   0.73095381   -6.8575324    349.40225  0.023053724  0.022806336           10 
 1264000   0.74180603   -6.8667269    349.51179  0.023042708  0.022788135            9 
 1265000   0.76056252   -6.8411092    349.03546  0.022993114   0.02276996           12 
 1266000   0.74733973   -6.8786486     348.6076  0.022946788  0.022751731           15 
 1267000   0.74444822   -6.8659414    348.47697  0.022920085   0.02273341           22 
 1268000    0.7701528   -6.8514275    348.90686  0.022930262  0.022715095           37 
 1269000   0.74030366   -6.8557715    350.02622  0.022985698  0.022696843           16 
 1270000   0.73597662   -6.8505871    349.20312   0.02291359  0.022678561           12 
 1271000   0.75164377   -6.8714649    348.11505  0.022824223  0.022660323            8 
 1272000   0.73288861   -6.8942903    347.82077     0.022787  0.022641995           24 
 1273000   0.76659143   -6.8728543    348.74689  0.022829725  0.022623604           35 
 1274000   0.73811691   -6.8810993    348.29557  0.022782285   0.02260519           30 
 1275000   0.75555493   -6.8684455    349.20341  0.022823752  0.022586958           15 
 1276000   0.72996299   -6.8475268    350.10186  0.022864541  0.022568833           30 
 1277000   0.74057307    -6.874272    349.23783  0.022790253  0.022550618           18 
 1278000   0.73371482   -6.8655704    349.58258  0.022794899  0.022532519           22 
 1279000   0.75087698   -6.8602777    350.17809  0.022815878  0.022514392           13 
 1280000   0.72190526   -6.8556538    350.00871  0.022787025  0.022496324           25 
 1281000   0.74129756   -6.8637017    349.63942  0.022745213  0.022478257           13 
 1282000   0.73444193   -6.8768097    349.89645  0.022744179  0.022460169           14 
 1283000   0.73507978   -6.8604267    349.82599  0.022721875  0.022442245            6 
 1284000   0.73875668   -6.8826649    349.83417   0.02270471  0.022424221           10 
 1285000   0.74252769   -6.8938554    349.77829  0.022683417  0.022406264           15 
 1286000   0.73235092   -6.8850596    349.74217  0.022663438  0.022388219           41 
 1287000   0.73864729   -6.9001809    348.90929  0.022591899   0.02237012           26 
 1288000   0.74192025   -6.8917001    349.14738  0.022589763  0.022352056           23 
 1289000   0.74157996   -6.8717578    350.66064   0.02267007  0.022334039           12 
 1290000   0.72698369   -6.8735918    350.28648  0.022628326  0.022316104           10 
 1291000   0.73708253   -6.9031229    350.39956  0.022618097  0.022298204           24 
 1292000   0.73358453   -6.8773698    350.10907  0.022581854  0.022280296           15 
 1293000   0.75591774   -6.8503504    349.86257  0.022548503  0.022262423            9 
 1294000   0.73623418   -6.9003443    349.89202  0.022532974  0.022244578           11 
 1295000    0.7477054   -6.8891317    349.94712   0.02251912   0.02222676           10 
 1296000   0.74129357   -6.8881668    349.52731   0.02247475    0.0222089            7 
 1297000   0.73625927   -6.8860648    350.50294  0.022520107  0.022191128           10 
 1298000   0.73093207    -6.867869    350.61775  0.022510128  0.022173408           10 
 1299000   0.72785572   -6.8736923    351.22042  0.022531461  0.022155715           11 
 1300000   0.74322752   -6.8880201    350.88983  0.022492938  0.022138047           37 
 1301000    0.7214033   -6.8795623    350.68889  0.022462778  0.022120411           10 
 1302000   0.74488993   -6.8899331    351.16852  0.022476224  0.022102729           11 
 1303000   0.74042881   -6.9116292    350.33573  0.022405713  0.022085062           29 
 1304000   0.72755612   -6.9309854    350.57869  0.022404057   0.02206741           13 
 1305000   0.73054426   -6.8853824     351.0197  0.022415051  0.022049764           19 
 1306000   0.72455874   -6.9094604    351.12877  0.022404848  0.022032207           18 
 1307000    0.7137266   -6.9193931      350.902  0.022373246  0.022014715           25 
 1308000   0.72397325   -6.8989986    351.61573  0.022401614  0.021997156           19 
 1309000    0.7233063    -6.882285    351.10342  0.022351886  0.021979637            7 
 1310000   0.72666918   -6.9035474    351.47931  0.022358734   0.02196214            7 
 1311000   0.74365909   -6.8875993    351.24718  0.022326925  0.021944728           20 
 1312000    0.7256401   -6.9141595    350.19596  0.022243138  0.021927216           14 
 1313000   0.72344759   -6.8915927    351.86925  0.022332397  0.021909727           18 
 1314000   0.72206474   -6.8872782    351.28683  0.022278465  0.021892327           10 
 1315000   0.71246426   -6.9162913    351.99339  0.022306299  0.021874927           13 
 1316000   0.72175304   -6.9222827    351.20439  0.022239387  0.021857576           18 
 1317000   0.73054762   -6.9039169    352.56747  0.022308749  0.021840248           16 
 1318000   0.73537816   -6.9237896    352.41999  0.022282498  0.021822844            9 
 1319000   0.73602565   -6.9167978    351.70064  0.022220156  0.021805436           19 
 1320000   0.73658756   -6.9035797    352.20865  0.022235395  0.021788092           23 
 1321000   0.73560537    -6.915663    352.04382  0.022208165   0.02177084           41 
 1322000    0.7314378   -6.9194077    351.98424   0.02218761  0.021753526           36 
 1323000   0.72214191   -6.9535175    350.52753  0.022079083  0.021736211           37 
 1324000   0.72235851   -6.9361931    351.73651  0.022138501  0.021718935           26 
 1325000   0.72275225   -6.9399361    352.66438   0.02218015  0.021701696           17 
 1326000   0.70942705    -6.935688    350.91164   0.02205327  0.021684301           15 
 1327000   0.71885167   -6.9210803    351.64471  0.022082687  0.021666893           28 
 1328000   0.72040748   -6.9222857    352.56148  0.022123587  0.021649564           18 
 1329000   0.72271025   -6.9198375    352.20158  0.022084373  0.021632225            7 
 1330000   0.71614137   -6.9020109    351.67731  0.022034919  0.021614928           23 
 1331000   0.71875956   -6.9107594    351.84168  0.022028655   0.02159763           17 
 1332000   0.72746062   -6.9288296    351.37505  0.021982924  0.021580313            6 
 1333000   0.71713625   -6.9243079    351.32832  0.021963511  0.021563002           16 
 1334000   0.73239924   -6.9406768    351.38501  0.021950588  0.021545667           13 
 1335000   0.72203122   -6.9370815    351.32185  0.021930203  0.021528367           19 
 1336000   0.71999652   -6.9359685    351.63357  0.021933231  0.021511041           13 
 1337000   0.71900216   -6.9329343    352.61822  0.021978199  0.021493805           21 
 1338000   0.71212714   -6.9177436    351.94039  0.021919556  0.021476651           23 
 1339000   0.70647739   -6.9464853    351.75164  0.021891439  0.021459527           19 
 1340000   0.71604526   -6.9773452    351.11847  0.021835726   0.02144232           17 
 1341000   0.71630662   -6.9219689    351.26433  0.021828507  0.021425064           19 
 1342000   0.72129953    -6.926662    352.07485  0.021862571  0.021407874            7 
 1343000   0.72220624   -6.9063678    351.98252  0.021840564  0.021390683           23 
 1344000   0.72327612   -6.9173221    352.27288  0.021842316  0.021373539           15 
 1345000   0.73273229     -6.95447    351.88843  0.021802257  0.021356467           12 
 1346000   0.71371895   -6.9441915    352.30077  0.021811588  0.021339237           12 
 1347000   0.70697684   -6.9441316    351.32206  0.021734847  0.021322078           18 
 1348000   0.71289188   -6.9463471    351.48259  0.021728647  0.021304931           13 
 1349000   0.70172313   -6.9423636    352.03406  0.021746606  0.021287674           32 
 1350000   0.70989573   -6.9266345    352.25445  0.021744102   0.02127061            9 
 1351000   0.70978946   -6.9345343    351.40695  0.021675731  0.021253514           12 
 1352000   0.72881896   -6.8964063    353.16591  0.021768116  0.021236457            8 
 1353000   0.71032091   -6.9063234    352.84881  0.021732496  0.021219494           37 
 1354000    0.6981196   -6.9671678    351.99494  0.021663894  0.021202461           19 
 1355000   0.70507203   -6.9548017    351.87486   0.02164052  0.021185287            8 
 1356000   0.71348299   -6.9672389    351.46027  0.021599083   0.02116811           14 
 1357000   0.70024275   -6.9574313    351.42875   0.02158123  0.021150902           27 
 1358000   0.70633684   -6.9629433    351.57475  0.021574298    0.0211336           13 
 1359000   0.71424778   -6.9715804    351.24244  0.021538045  0.021116333           22 
 1360000   0.70951519   -6.9544931    351.81528  0.021557309  0.021099199           15 
 1361000   0.69300163   -6.9311377    352.86696  0.021605863  0.021082116           27 
 1362000   0.70792799   -6.9583527    351.75698  0.021522086  0.021065108           17 
 1363000   0.70885923    -6.960089    350.88644  0.021453072   0.02104806           16 
 1364000   0.70224012   -6.9418454     352.6883  0.021547428  0.021031093           25 
 1365000   0.71075879   -6.9578284    352.34097  0.021510438  0.021014105           20 
 1366000   0.70979499   -6.9612014    351.99305  0.021473466  0.020997074           13 
 1367000   0.69757959   -6.9742966    351.43537  0.021423761  0.020980049           19 
 1368000   0.70713471   -6.9312782    353.41839  0.021528898  0.020963151           13 
 1369000   0.68620834   -6.9386079    352.46392  0.021455072   0.02094629           13 
 1370000   0.69534622   -6.9253069    352.54694  0.021444461  0.020929505           16 
 1371000   0.71043513   -6.9370368     352.5108  0.021426623  0.020912685           22 
 1372000   0.71403525   -6.9307893    352.43335  0.021406301  0.020895865           21 
 1373000   0.69772435   -6.9671547    352.28031  0.021381422  0.020878964           13 
 1374000   0.69740188   -6.9184799    353.66169  0.021449641  0.020862054           11 
 1375000   0.70322541   -6.9681092    352.10775  0.021339864  0.020845162           19 
 1376000   0.70085238   -6.9815479    352.07511  0.021322378  0.020828248           37 
 1377000   0.70253245   -6.9685368    351.75565  0.021287561  0.020811312           12 
 1378000   0.70761847   -6.9496826    353.01806  0.021348456  0.020794502           10 
 1379000   0.69275095   -6.9700772    352.99607  0.021331646  0.020777731           30 
 1380000   0.68908237   -6.9791764    352.24623  0.021270907  0.020760982           15 
 1381000   0.70287418    -6.969534    352.96127  0.021298653   0.02074416           13 
 1382000   0.68720975   -6.9787659    352.90289  0.021279721  0.020727401           14 
 1383000    0.7117854   -6.9887147    352.82037  0.021259362  0.020710626           22 
 1384000   0.70326585   -6.9905357    353.18734  0.021266097  0.020693855            7 
 1385000   0.69933631   -6.9880526    352.99842  0.021239376  0.020677051           13 
 1386000   0.71469731   -6.9707036    352.82414  0.021213573  0.020660274           23 
 1387000   0.68411682   -7.0073986    351.91477  0.021143641  0.020643529           31 
 1388000   0.71316912   -6.9845674    352.76128  0.021179232  0.020626766           18 
 1389000   0.70420859   -7.0080524    352.41511  0.021143215  0.020609992           34 
 1390000     0.696122   -6.9975003    353.10041  0.021169089  0.020593285           22 
 1391000   0.69870768   -7.0325394     351.2251  0.021041523  0.020576526           10 
 1392000   0.69626305   -7.0050306    352.25426  0.021088018   0.02055974           24 
 1393000   0.70971679     -7.01401    352.36645  0.021079592  0.020542981           30 
 1394000   0.70352118   -6.9834072    353.12093  0.021109573  0.020526215           20 
 1395000   0.69943437   -7.0054883    352.37069  0.021049623  0.020509522           12 
 1396000    0.6990376   -7.0266734    352.58115  0.021047108  0.020492871           13 
 1397000   0.69523983   -7.0001612    352.67335  0.021037542  0.020476255           23 
 1398000   0.70357353   -7.0097659    352.62232  0.021019451  0.020459608           14 
 1399000   0.70144008   -7.0155094      353.347  0.021047594  0.020443045           11 
 1400000   0.70665906   -7.0192552    353.67451  0.021052054  0.020426458           10 
 1401000   0.71004864   -6.9964302    353.53321  0.021028623  0.020409948            8 
 1402000   0.70660846    -6.995531    353.30053  0.020999794  0.020393408           20 
 1403000   0.70339359   -6.9638077    353.76806  0.021012596  0.020376907           16 
 1404000   0.68787985   -7.0006852    353.31594  0.020970794  0.020360411           22 
 1405000   0.69320111   -6.9914941    352.94127  0.020933646  0.020343968           45 
 1406000   0.71312998   -7.0033373    352.72976  0.020906221  0.020327549           39 
 1407000   0.69216727   -7.0073318    352.67534  0.020888139  0.020311034           31 
 1408000   0.69698942   -7.0224029    352.10644  0.020839633  0.020294525           24 
 1409000   0.70538976   -7.0438142      352.183  0.020829371  0.020277947           31 
 1410000   0.69079174    -7.030101      352.561  0.020836938  0.020261442           22 
 1411000   0.68027485   -7.0324636    352.89509  0.020841902  0.020244975           23 
 1412000   0.67663936   -7.0221821    352.96648  0.020831355  0.020228518           12 
 1413000   0.69704077   -7.0499351    352.94405   0.02081529  0.020212044           15 
 1414000   0.68773292   -7.0433308    352.15307  0.020753953  0.020195529           15 
 1415000   0.67537578   -7.0326436    351.98299  0.020729269  0.020178966           17 
 1416000   0.68325885   -7.0258779    352.58682  0.020750166  0.020162481           26 
 1417000   0.69170344   -7.0204062    352.57484  0.020734818  0.020146015           31 
 1418000   0.67804172   -7.0431262    351.89192  0.020680061  0.020129544           44 
 1419000   0.67037826   -7.0020877    353.96885  0.020787459  0.020113057           18 
 1420000   0.69090235   -7.0215818    352.98321  0.020714977  0.020096656           13 
 1421000   0.69390575   -6.9955285    352.92258  0.020696844  0.020080339           19 
 1422000   0.68225918   -7.0175564     353.2992   0.02070436  0.020064001           20 
 1423000   0.69506115   -7.0122011    352.87078  0.020664721  0.020047709           20 
 1424000   0.68261735   -7.0297777    352.48529   0.02062765  0.020031394           34 
 1425000   0.68414352    -7.015002    352.80866  0.020632085  0.020015067           28 
 1426000   0.69066191   -6.9966538    353.16725  0.020638573  0.019998845           24 
 1427000   0.68572305   -7.0241817    353.47201  0.020641907  0.019982649           35 
 1428000   0.67554627   -6.9936476    353.65798  0.020638304  0.019966448           22 
 1429000   0.68591724   -7.0195513    353.52121  0.020615886  0.019950295           51 
 1430000   0.68057894   -7.0375647    352.64981  0.020550688  0.019934044           19 
 1431000   0.67829331   -7.0405844    353.44005  0.020582346   0.01991782           30 
 1432000   0.68130309    -7.063251    352.46044  0.020510966  0.019901593           22 
 1433000   0.67901515   -7.0624765    353.10339  0.020534042  0.019885411           56 
 1434000    0.6681049   -7.0665391    352.25423  0.020470376  0.019869164           36 
 1435000   0.67384342   -7.0456139    353.04995   0.02050232  0.019852939           28 
 1436000   0.68646868   -7.0286395    352.69915  0.020467685  0.019836693           37 
 1437000   0.68121319   -7.0277694    353.69635   0.02051127  0.019820545           65 
 1438000   0.67531368   -7.0663548    353.59059  0.020490878   0.01980434           16 
 1439000   0.68490359   -7.0672835     352.4267  0.020409237  0.019788112           30 
 1440000   0.68035441    -7.065415    352.59117  0.020404582  0.019771857           48 
 1441000   0.67209629   -7.0753956    352.89048  0.020407731  0.019755609           53 
 1442000   0.68324298   -7.0591203    353.73748  0.020442527  0.019739457           86 
 1443000   0.67131247   -7.0927876    352.63205  0.020364521  0.019723264           30 
 1444000   0.67303735   -7.0821611    352.79583   0.02035987   0.01970711           19 
 1445000   0.67225726   -7.0598495    353.48234  0.020385371  0.019691017          119 
 1446000   0.66976762   -7.0510246    353.01732  0.020344475  0.019674936           76 
 1447000   0.67537473   -7.0556719    353.99467  0.020386701  0.019658874           85 
 1448000   0.66047369   -7.1098241    352.12576  0.020265065  0.019642708           63 
 1449000   0.67205476   -7.0737886    353.48045  0.020328988  0.019626582           78 
 1450000   0.66477509   -7.0880883    352.88189  0.020280568  0.019610473           42 
 1451000   0.68760865   -7.0679479    352.92397  0.020269008  0.019594379           70 
 1452000   0.67409521   -7.0870709    352.43901  0.020227216  0.019578285           62 
 1453000   0.66991847   -7.0866531    353.04219  0.020247889   0.01956223           46 
 1454000   0.66695521   -7.0770936    352.92403  0.020227191  0.019546203           65 
 1455000   0.67542362   -7.0788703    352.44999  0.020186139  0.019530127           42 
 1456000   0.66793872   -7.0625265    353.31934  0.020222032  0.019514105           36 
 1457000    0.6668466   -7.0877523    352.74491  0.020175298  0.019498133           34 
 1458000   0.66333766   -7.0659119    352.88504   0.02016947  0.019482098           40 
 1459000   0.66775289   -7.0741687    352.96707  0.020160331  0.019466128          119 
 1460000   0.68431676   -7.0752799     352.9632  0.020146302  0.019450169           34 
 1461000   0.65892217    -7.112654    352.60771  0.020112236  0.019434185           42 
 1462000   0.68527545   -7.0910133    353.17116  0.020130595  0.019418213           65 
 1463000   0.66229691   -7.1054602    352.63512  0.020086302  0.019402247           26 
 1464000   0.66364327   -7.0807534    353.39879  0.020116051  0.019386231           43 
 1465000   0.67131725   -7.0772959    353.06658  0.020083423  0.019370269           28 
 1466000   0.65737863   -7.0908317     352.7193  0.020049983   0.01935428           35 
 1467000   0.67769082   -7.0815378    352.29034  0.020011948   0.01933831           38 
 1468000   0.67485291   -7.0937518    352.39407  0.020004205  0.019322334           43 
 1469000   0.66558835   -7.0962556    352.06279  0.019971794  0.019306347           19 
 1470000   0.67329877   -7.1220578    352.45761   0.01998059  0.019290337           35 
 1471000   0.65885147   -7.0727474    353.16551   0.02000711  0.019274362           27 
 1472000   0.67230585   -7.0883468    352.94383  0.019980969  0.019258452           36 
 1473000   0.66462963   -7.1025763    352.45332  0.019939654  0.019242528           14 
 1474000   0.66589995   -7.1026438    351.97476   0.01989907  0.019226634           17 
 1475000   0.67520334   -7.0896405    353.22807  0.019956388  0.019210734           26 
 1476000   0.67188661   -7.1105653    352.11834  0.019880213  0.019194865           29 
 1477000   0.66406163   -7.1095733     353.0783  0.019920915  0.019178996           29 
 1478000   0.66669435   -7.1168698    352.28237   0.01986256  0.019163142           32 
 1479000   0.65280162   -7.0912606     352.6784  0.019871445  0.019147339           32 
 1480000   0.67356974   -7.1079333    352.64064  0.019855892  0.019131523           25 
 1481000   0.66019515   -7.1107662    352.43571  0.019830954  0.019115694           15 
 1482000   0.65698806   -7.1047702    352.27972  0.019808801  0.019099927           44 
 1483000   0.65861384   -7.0935261    351.99719  0.019779568  0.019084126           19 
 1484000   0.66768241   -7.0925395    352.84897  0.019814071  0.019068342           28 
 1485000   0.65554554   -7.1151012    352.52948  0.019782799  0.019052564           36 
 1486000   0.65379499   -7.1124397    352.11809  0.019746416  0.019036784           62 
 1487000   0.65963334   -7.1202869    352.39414  0.019748607  0.019021015           83 
 1488000   0.64903676   -7.1105639    351.85623   0.01970521  0.019005184           31 
 1489000   0.67126646   -7.1158662    352.09294  0.019705224  0.018989338           43 
 1490000   0.66111348   -7.1157384    352.17902  0.019696813  0.018973531          123 
 1491000   0.65765603   -7.1346933    351.94187  0.019670348  0.018957742           89 
 1492000   0.66957784   -7.1128102    351.88544  0.019654013  0.018941955           76 
 1493000   0.66131362   -7.1119965    352.85839  0.019695154  0.018926222           52 
 1494000    0.6504845   -7.1143797    352.18649  0.019644494  0.018910501           64 
 1495000   0.64417597   -7.1371612    351.96318  0.019618906  0.018894792           41 
 1496000   0.67251946   -7.1353738    352.53721  0.019637768  0.018879036           90 
 1497000   0.67023779   -7.1386955    351.79005  0.019583058  0.018863298           63 
 1498000   0.63064942    -7.125027    351.75102  0.019567813  0.018847524           35 
 1499000   0.65650475   -7.1397217    352.36686  0.019588996  0.018831783           80 
 1500000    0.6520984   -7.1254833    351.53145  0.019529525  0.018816047           66 
 1501000   0.65126648   -7.1400157    351.60455  0.019520572  0.018800294          102 
 1502000    0.6489647   -7.1572645     351.5283  0.019503345  0.018784586           79 
 1503000   0.66388114   -7.1435492    351.82997  0.019507095  0.018768872           88 
 1504000   0.66154558   -7.1569915     351.6759  0.019485588  0.018753177          122 
 1505000    0.6570185   -7.1570999    352.17171  0.019500094  0.018737521          117 
 1506000    0.6531466   -7.1379243    352.16837  0.019486961  0.018721847          110 
 1507000     0.649676   -7.1677972     351.8855  0.019458388  0.018706184          117 
 1508000   0.63896476   -7.1382483    351.61826  0.019430717  0.018690568          119 
 1509000   0.65742995   -7.1326192    352.00777  0.019439351  0.018674964           44 
 1510000   0.67585233   -7.1297309    352.13552  0.019433527  0.018659378           83 
 1511000    0.6550069   -7.1342205    352.03684  0.019415224  0.018643818           37 
 1512000   0.66591192   -7.1358825    351.53735  0.019374854  0.018628255           87 
 1513000   0.64264273   -7.1152611    352.09019  0.019392498  0.018612739           41 
 1514000   0.65144914   -7.1239919    352.41754  0.019397707  0.018597213           54 
 1515000   0.64595818   -7.1535006    351.99674  0.019361757  0.018581711           42 
 1516000   0.65996551   -7.1331663    352.37147  0.019369584  0.018566183           47 
 1517000   0.64770835   -7.1296645    352.59989  0.019369363  0.018550664           50 
 1518000   0.63970901   -7.1291822    352.78494  0.019366762  0.018535203           47 
 1519000   0.64185443   -7.1289669    351.86183   0.01930337   0.01851969           30 
 1520000   0.64163207   -7.1366683    350.73499  0.019228892   0.01850417           41 
 1521000   0.64432093   -7.1531752    351.53276  0.019259958  0.018488692           28 
 1522000   0.64292059   -7.1384951    351.89496  0.019267136  0.018473169           16 
 1523000   0.62970389   -7.1458768    352.06007  0.019263519  0.018457747           46 
 1524000   0.63697956   -7.1611476    351.97025  0.019245967  0.018442361           19 
 1525000   0.64580814   -7.1390387    352.20397  0.019246119  0.018426974           36 
 1526000   0.63480106   -7.1182575    352.11982  0.019228911  0.018411622           37 
 1527000   0.63537425    -7.145411    352.74396   0.01925038  0.018396261           23 
 1528000   0.64280112   -7.1230585    352.88737  0.019245603  0.018380983           30 
 1529000   0.64561399   -7.1467954    351.77559  0.019172421  0.018365658           40 
 1530000   0.63889204   -7.1346416    353.19503  0.019237202  0.018350408           29 
 1531000   0.64934687   -7.1333331    352.75931   0.01920092  0.018335154           92 
 1532000   0.65264512   -7.1314179     352.9459  0.019198537  0.018319921           40 
 1533000   0.63052909   -7.1346728    352.12773  0.019141538  0.018304654           37 
 1534000   0.63887653    -7.156081    351.79833  0.019111165  0.018289397           94 
 1535000   0.62060511   -7.1585055    352.21833  0.019121516  0.018274136           25 
 1536000   0.63552104   -7.1219728      353.175   0.01916097  0.018258885           38 
 1537000    0.6442565    -7.148671    352.05182  0.019087607  0.018243658           44 
 1538000   0.62381237   -7.1778013    351.99692  0.019072222  0.018228356           40 
 1539000   0.62968599   -7.1767976    351.29378  0.019021755  0.018213048           64 
 1540000   0.65056997   -7.1450069    352.04311  0.019049952  0.018197831           53 
 1541000   0.64701262   -7.1451517    352.49798  0.019062188  0.018182619           32 
 1542000   0.63964703   -7.1679564    351.61145  0.019001916  0.018167401           43 
 1543000   0.62133956   -7.1826852    351.25346  0.018970267  0.018152205           56 
 1544000   0.63073453   -7.1642095    352.03474  0.019000148  0.018137005           65 
 1545000    0.6431689   -7.1885871    351.29932  0.018948183  0.018121843           46 
 1546000   0.62882029   -7.1845118    352.10256  0.018979224   0.01810666           36 
 1547000   0.64719129   -7.1857489    351.51035  0.018935055  0.018091479           41 
 1548000   0.63773773   -7.2052122    350.87727  0.018888742  0.018076281           55 
 1549000   0.62477487    -7.194003    352.41068  0.018959043  0.018061141           47 
 1550000   0.62965114   -7.1723559    351.39516  0.018892213  0.018046038           46 
 1551000   0.63126414   -7.1765518    351.57268   0.01888957  0.018030901           50 
 1552000   0.63989143   -7.1913269    351.91234  0.018895637  0.018015823           33 
 1553000   0.63578037   -7.1958612    351.57616  0.018865431  0.018000712           32 
 1554000   0.63675401   -7.1844961    351.64739   0.01885711  0.017985631           31 
 1555000   0.62564564   -7.1894616    351.45277  0.018834554  0.017970521           44 
 1556000   0.62611593   -7.2062715    351.91747  0.018847336  0.017955414           34 
 1557000    0.6279013   -7.1892993    352.02261  0.018840859  0.017940333           19 
 1558000   0.61822227   -7.1974321    351.97066  0.018825987  0.017925278           29 
 1559000   0.63408641   -7.2116302      351.489  0.018788166  0.017910245           41 
 1560000   0.62930147   -7.2041808     352.5379  0.018832153  0.017895221           85 
 1561000   0.63318366   -7.1996814    351.37784  0.018758159  0.017880167           58 
 1562000   0.63452124   -7.1935782    351.90424  0.018774234  0.017865159          152 
 1563000    0.6269516   -7.1908096    352.22897  0.018779536  0.017850181           64 
 1564000   0.63408022   -7.2079585    351.52993  0.018730282  0.017835245           58 
 1565000   0.64320639   -7.2078999    351.62237  0.018723236  0.017820309           35 
 1566000   0.63640149   -7.1967836    351.38985  0.018698907  0.017805314           30 
 1567000   0.62772023   -7.2288234    351.29143   0.01868174  0.017790313          133 
 1568000   0.63233686   -7.2096945    351.70764  0.018691945  0.017775287           57 
 1569000   0.63306012    -7.216482    351.76312  0.018682979  0.017760287           71 
 1570000   0.63034084   -7.2064054    351.66186  0.018665704   0.01774534           49 
 1571000   0.62142689   -7.2274753    351.80526  0.018661429  0.017730452           82 
 1572000   0.63042389   -7.2087032    351.50268  0.018633518  0.017715518           68 
 1573000   0.64557603   -7.2165624    351.03814  0.018597062  0.017700596           78 
 1574000   0.62143268   -7.2005978    351.02812  0.018584716  0.017685669           57 
 1575000   0.62829794   -7.2175271    351.52613  0.018599266  0.017670786           46 
 1576000   0.64489456   -7.2210824    351.12732  0.018566377  0.017655911           96 
 1577000   0.61763281   -7.1932416    351.16219  0.018556446  0.017641084           69 
 1578000   0.61855824   -7.2140367    351.60705   0.01856818   0.01762623           94 
 1579000   0.63657127   -7.1898024    352.19381  0.018587387  0.017611403           44 
 1580000   0.61272022   -7.2071989    351.58706  0.018543621   0.01759661           69 
 1581000   0.61043608   -7.2005511    351.54567   0.01852971  0.017581837           47 
 1582000   0.62338299   -7.2022686    350.51628  0.018463774  0.017567058           89 
 1583000   0.61181729   -7.2168493    352.07083  0.018533946  0.017552293           50 
 1584000   0.61711778   -7.2071244    351.90806  0.018513682  0.017537544           69 
 1585000   0.62958134   -7.2131158    352.02592  0.018508197  0.017522798           50 
 1586000   0.61181901   -7.2108764    350.74574  0.018429263  0.017508093           66 
 1587000   0.62315764   -7.2219222    351.72484  0.018469063  0.017493375           57 
 1588000   0.62504067   -7.2034313    351.76923  0.018459762  0.017478704           57 
 1589000   0.63472939   -7.2069697    351.48113  0.018433036  0.017464028           33 
 1590000   0.63469433   -7.2102845    350.99566  0.018395999  0.017449402           41 
 1591000   0.63268486   -7.2051566    351.87122  0.018430297  0.017434802           42 
 1592000   0.62496253   -7.2235723    351.22808  0.018385054  0.017420173           55 
 1593000   0.61776911   -7.2196423     352.1994  0.018424325  0.017405569           73 
 1594000   0.62436752   -7.2096661    351.72198  0.018387808  0.017390957           57 
 1595000   0.63231675   -7.2123613    352.02948  0.018392345  0.017376374           60 
 1596000   0.61456465   -7.2068398    351.70885   0.01836408  0.017361799           77 
 1597000   0.59964886   -7.2487634    351.02019  0.018316645  0.017347192           69 
 1598000   0.59433492   -7.2348973    352.16989  0.018365138  0.017332626           63 
 1599000    0.6176646   -7.2529924    351.27547  0.018307039  0.017318054           79 
 1600000    0.6273655   -7.2363182    351.79279  0.018322541  0.017303504          122 
 1601000   0.61154044   -7.2380379    351.06502  0.018273216  0.017288948           73 
 1602000   0.62849328   -7.2537094     351.2938   0.01827371   0.01727443           63 
 1603000    0.6035736   -7.2299936     351.8535  0.018291407  0.017259912           81 
 1604000   0.61143454   -7.2323259    351.50058  0.018261668  0.017245405          179 
 1605000    0.6121244   -7.2458636    351.65635  0.018258378  0.017230908           53 
 1606000   0.61319436   -7.2548522    351.58532  0.018243323  0.017216419           69 
 1607000    0.6021037   -7.2517327    351.30478  0.018217423  0.017201933           41 
 1608000   0.61628734   -7.2460897    351.91639   0.01823779  0.017187434          139 
 1609000     0.609405   -7.2616187    351.47553  0.018203622  0.017172943           62 
 1610000   0.60429853    -7.266135    350.28198  0.018130537  0.017158448           54 
 1611000   0.59961208     -7.26028     350.9613  0.018154423  0.017144003           49 
 1612000   0.61267005   -7.2507362    351.22876  0.018156987  0.017129591           51 
 1613000   0.61897253    -7.228044    351.32048  0.018150469  0.017115158           57 
 1614000    0.6148182   -7.2451531    351.94176  0.018171301  0.017100742          163 
 1615000   0.61311541   -7.2653051    351.22082  0.018122849  0.017086333           66 
 1616000   0.59368789   -7.2414421    351.46492  0.018124222  0.017071944           95 
 1617000   0.60736177    -7.251009    350.80252  0.018078877  0.017057583           48 
 1618000   0.60847375   -7.2598969    351.11836   0.01808397   0.01704323           56 
 1619000   0.61348732    -7.258674    350.58811  0.018045507  0.017028863           42 
 1620000   0.60835323   -7.2388688    350.59973  0.018034965  0.017014552           58 
 1621000   0.61314734   -7.2627348    351.46401  0.018068271    0.0170002          133 
 1622000   0.61152117    -7.242016    351.05315  0.018036023  0.016985884           66 
 1623000    0.5975472   -7.2927716     350.6977  0.018006659  0.016971593          110 
 1624000    0.5995202   -7.2588456    351.08462  0.018015426  0.016957297          121 
 1625000   0.60763314   -7.2610255    351.02322  0.018001191  0.016943013          132 
 1626000   0.60507611   -7.2548358    350.89212  0.017983401  0.016928727           87 
 1627000    0.5942565    -7.254933    351.11991  0.017984015  0.016914492          212 
 1628000   0.60803198   -7.2750884    350.32349  0.017932202   0.01690024          110 
 1629000   0.60648991   -7.2626316    350.85287  0.017948275   0.01688604          235 
 1630000   0.60176265   -7.2605866     351.0072  0.017945153  0.016871824          197 
 1631000    0.5915519   -7.2765148    350.87472  0.017927382  0.016857615          257 
 1632000   0.59594635   -7.2550935    350.55406  0.017900024  0.016843435          256 
 1633000   0.59081803   -7.2674978    351.33891  0.017929113  0.016829275          159 
 1634000   0.60162434   -7.2582264    351.01017  0.017901376  0.016815135          324 
 1635000   0.59670124   -7.2425585    351.58048  0.017919494  0.016801017          147 
 1636000   0.60607229   -7.2474971     351.1659  0.017887424  0.016786895          262 
 1637000   0.59559662   -7.2645745    350.68747  0.017852142  0.016772794          214 
 1638000   0.59315256   -7.2640302    351.39284  0.017877129  0.016758684          184 
 1639000   0.60092544   -7.2620216     350.9871  0.017845592  0.016744575          247 
 1640000   0.60591887   -7.2943058    350.15164  0.017792258  0.016730409          276 
 1641000   0.58387143   -7.2827067    350.25034  0.017786428  0.016716278          317 
 1642000   0.60007933   -7.2778853    350.73138  0.017800009  0.016702137          182 
 1643000    0.5971102    -7.307023    350.68326  0.017786735  0.016688031          197 
 1644000   0.59064565    -7.271179     349.8413  0.017733237  0.016673929          354 
 1645000   0.59998407   -7.2997325    350.73524  0.017767743  0.016659872          113 
 1646000   0.58636146   -7.3030511    350.46684   0.01774336  0.016645782          152 
 1647000   0.60500525   -7.2928279    349.82431  0.017700076  0.016631706           85 
 1648000   0.59160394   -7.2976927    349.88032  0.017692168  0.016617648          127 
 1649000   0.59607734    -7.295898     350.6558  0.017720629  0.016603599          168 
 1650000   0.59275805   -7.2859061    350.15678  0.017684686  0.016589536          205 
 1651000   0.60341225   -7.2931152    349.86096  0.017659043  0.016575481          171 
 1652000   0.58582202     -7.28158    350.94159  0.017702865  0.016561474          186 
 1653000   0.58996087   -7.3098949    349.64155  0.017626616  0.016547502          251 
 1654000   0.59337824   -7.2945979    350.26028  0.017647132  0.016533493          100 
 1655000   0.58683074   -7.3040207    350.48969  0.017648021  0.016519492          150 
 1656000   0.58879263   -7.3085738    350.14837  0.017620188  0.016505476          224 
 1657000   0.60118096    -7.299395     350.4029  0.017622355  0.016491454           78 
 1658000   0.58753708   -7.2897833    350.38425  0.017610789  0.016477432          171 
 1659000   0.58969423    -7.323963    350.25187  0.017593524   0.01646347          207 
 1660000   0.58900595   -7.3117664    350.21914  0.017581282   0.01644949          206 
 1661000   0.59871738    -7.309039    350.13987   0.01756672  0.016435544          287 
 1662000   0.58228403   -7.3078364    350.46165  0.017572285  0.016421624          100 
 1663000   0.58719282   -7.2988737    349.74851  0.017525982  0.016407686          242 
 1664000   0.59757116   -7.3094422    350.45684  0.017550924   0.01639376          170 
 1665000   0.59049921   -7.2997873    350.52271  0.017543679  0.016379858          187 
 1666000   0.58662354   -7.3210696    349.47325  0.017480655  0.016365987          215 
 1667000    0.5983955   -7.3123559    350.05695  0.017499347  0.016352121          462 
 1668000   0.59517443   -7.3140982    350.43761  0.017507874  0.016338281          376 
 1669000   0.59937319    -7.304543    350.42666  0.017496837  0.016324462          413 
 1670000   0.58869917   -7.3220574    349.73824  0.017452008  0.016310633          478 
 1671000    0.5786147   -7.3435587    350.12636   0.01746092  0.016296841          203 
 1672000   0.59171722   -7.3241931    350.47132   0.01746767  0.016283054          232 
 1673000   0.57848679   -7.3152332    350.40123  0.017453737  0.016269266          383 
 1674000   0.59153577   -7.3127988    349.93402  0.017420053  0.016255487          172 
 1675000   0.57978642   -7.3385715    349.14159  0.017370228  0.016241701          227 
 1676000   0.56860365   -7.3406022    349.96581  0.017400846  0.016227901          227 
 1677000   0.58958675   -7.3154464    349.81992   0.01738322  0.016214109          402 
 1678000   0.58520252   -7.3226394    349.95041  0.017379341  0.016200343          178 
 1679000   0.58823572   -7.3234883    349.94031  0.017368489  0.016186612          342 
 1680000   0.58484451   -7.3070178    350.53832  0.017387814  0.016172929          421 
 1681000   0.57908938   -7.3313162    349.75983  0.017338877   0.01615922          117 
 1682000   0.58184176   -7.3150768    349.31115  0.017306339  0.016145552          184 
 1683000    0.5837936   -7.3167195    349.91923  0.017326165  0.016131888          216 
 1684000   0.58810756   -7.3144521    349.80216  0.017310083  0.016118263          363 
 1685000   0.56906806    -7.333583    349.59185  0.017289409  0.016104642          329 
 1686000   0.58451686   -7.3127616    350.50706   0.01732439  0.016091001          173 
 1687000   0.59072431   -7.3204655    350.18997  0.017298458  0.016077395          228 
 1688000   0.58285977   -7.3441854    349.76693  0.017267325  0.016063788          368 
 1689000      0.57246   -7.3379391    350.11694   0.01727437  0.016050154          274 
 1690000   0.59118013   -7.3360429    349.51402  0.017234419  0.016036553          457 
 1691000   0.57988746   -7.3545798       349.24  0.017210724  0.016022967          456 
 1692000   0.58810704   -7.3559846    349.77998  0.017227147  0.016009358          463 
 1693000   0.57389147   -7.3258579     349.7221  0.017214122  0.015995763          551 
 1694000   0.57292688   -7.3543281    349.40753  0.017188485   0.01598218          463 
 1695000   0.57561368   -7.3585237    349.65212   0.01719037  0.015968603          382 
 1696000   0.58663065   -7.3405734    349.29262   0.01716257  0.015955069          264 
 1697000   0.58294316   -7.3498094     349.2563  0.017150673  0.015941518          365 
 1698000    0.5837047   -7.3528373    349.09012  0.017132416  0.015927977          310 
 1699000   0.58761295   -7.3607469    349.64182  0.017149393  0.015914445          505 
 1700000   0.57429006   -7.3532643    348.61631  0.017089035  0.015900915          429 
 1701000   0.57975869   -7.3514898    349.27422   0.01711122    0.0158874          359 
 1702000   0.56609817   -7.3631225    348.86033  0.017080901  0.015873892          469 
 1703000    0.5653906   -7.3507001    350.02248  0.017127739  0.015860387          320 
 1704000   0.56897438   -7.3654721    348.71309  0.017053653  0.015846888          455 
 1705000    0.5629444   -7.3349716    349.49115  0.017081679  0.015833411          417 
 1706000    0.5570566   -7.3600549    349.21916   0.01705838  0.015819937          319 
 1707000   0.57856347   -7.3485785    348.77548  0.017026727  0.015806484          382 
 1708000   0.58432153   -7.3592354     348.7574  0.017015876  0.015793022          250 
 1709000   0.57495383   -7.3733153    348.62373  0.016999402  0.015779593          277 
 1710000   0.57182015   -7.3705729    347.97577  0.016957884  0.015766183          302 
 1711000   0.56732065   -7.3804856    349.10026   0.01700274  0.015752789          512 
 1712000   0.56184807    -7.365384    348.16057  0.016947068  0.015739383          441 
 1713000    0.5487928    -7.379587    349.03706  0.016979814  0.015725969          229 
 1714000   0.57238072   -7.3686545    348.22131  0.016930247  0.015712566          434 
 1715000   0.56827781    -7.372582      348.584  0.016937998  0.015699197          300 
 1716000   0.56582211    -7.345902    348.77952  0.016937622  0.015685856          359 
 1717000   0.57489802   -7.3811355    348.63451   0.01692072  0.015672522          497 
 1718000   0.55414337   -7.3744168    349.11147  0.016934006  0.015659171          583 
 1719000   0.56061324   -7.3550818    348.38043  0.016888716  0.015645836          320 
 1720000   0.56761328   -7.3603094    349.26188  0.016921603  0.015632521          312 
 1721000   0.56754327   -7.3920428    348.76854  0.016887882  0.015619226          675 
 1722000   0.55887161   -7.3764173     348.1447  0.016847885  0.015605938          627 
 1723000   0.56574811    -7.363329    348.72527  0.016866187   0.01559265          301 
 1724000   0.57650407   -7.3760833    348.90367  0.016865026  0.015579395          583 
 1725000   0.56403839   -7.3678181    348.46835   0.01683422  0.015566144          616 
 1726000   0.55504232   -7.3749433    348.87939  0.016844312  0.015552909          302 
 1727000   0.56309816   -7.3454215     349.3437  0.016856963  0.015539714          266 
 1728000   0.56246689   -7.3653639    348.27525  0.016795681  0.015526536          555 
 1729000   0.56147213   -7.3651213    349.24337  0.016832628  0.015513365          425 
 1730000   0.55168025    -7.365918    349.03697  0.016812956  0.015500194          310 
 1731000   0.56209526   -7.3666676    348.54733  0.016779671  0.015487028          449 
 1732000   0.56728644   -7.3731873    348.91107  0.016787484   0.01547389          414 
 1733000   0.56708621   -7.3899558    348.05513  0.016736638  0.015460756          588 
 1734000    0.5622373   -7.3729134    348.41281  0.016744176   0.01544764          472 
 1735000    0.5558658   -7.3610725     349.5588  0.016789568  0.015434519          653 
 1736000   0.55012021   -7.3808883    348.64426  0.016735995  0.015421427          299 
 1737000   0.55621293   -7.4032016     348.2127  0.016705656  0.015408327          519 
 1738000   0.55223136   -7.3857095    348.92956  0.016730416   0.01539524          339 
 1739000   0.56313951    -7.386954    348.49607  0.016700023  0.015382125          514 
 1740000   0.55654263   -7.3934047    348.86541  0.016708114  0.015369042          478 
 1741000   0.55347731   -7.4025179    348.44204  0.016678252  0.015355965          466 
 1742000   0.55510082   -7.4048596    347.47932  0.016622623  0.015342903          626 
 1743000   0.54653627   -7.3834545    348.19503  0.016647305  0.015329859          589 
 1744000   0.55409995   -7.3828125       348.52  0.016653288  0.015316823          361 
 1745000   0.56451885   -7.3868252    348.30173   0.01663332  0.015303802          399 
 1746000   0.56507498   -7.3936441     348.2325  0.016620489  0.015290785          561 
 1747000   0.56317683   -7.3916538      348.361  0.016617105  0.015277773          519 
 1748000   0.55565725   -7.4018516    348.83847  0.016630362  0.015264755          191 
 1749000    0.5537639   -7.3742026    348.40655  0.016600274  0.015251754          570 
 1750000   0.55779263   -7.3998462    348.06579  0.016574561   0.01523878          377 
 1751000   0.56236444   -7.4012407    348.37667  0.016579891  0.015225816          590 
 1752000   0.55109978   -7.4051802    348.16783  0.016560494  0.015212837          490 
 1753000   0.54757876   -7.3935978    347.72723  0.016530102  0.015199867          372 
 1754000    0.5442931   -7.4111685    348.50761  0.016557754  0.015186932          589 
 1755000   0.54590274   -7.4158317    347.75055  0.016512372  0.015173997          606 
 1756000   0.55514119    -7.400791    348.54502  0.016540671  0.015161076          300 
 1757000   0.54975265    -7.424791    347.58426  0.016485689   0.01514817          598 
 1758000   0.55485581   -7.3977301    347.44015   0.01646948  0.015135289          586 
 1759000   0.55739504   -7.4112245    348.31604  0.016501613    0.0151224          612 
 1760000   0.54792427   -7.4147261     347.4414  0.016450824   0.01510952          614 
 1761000   0.53739354   -7.4149315    348.01783   0.01646876   0.01509667          585 
 1762000   0.55361195    -7.412443    348.29119  0.016472341  0.015083841          558 
 1763000   0.54541315   -7.4243685    347.86448  0.016442829   0.01507101          686 
 1764000   0.55229751    -7.398493    348.72853  0.016474326  0.015058211          314 
 1765000   0.54374688   -7.3994953    347.77686  0.016420059  0.015045405          612 
 1766000   0.55101104   -7.4024224    348.39901  0.016440119  0.015032618          654 
 1767000   0.54584274   -7.4138888    347.60933  0.016393573  0.015019819          689 
 1768000   0.53736439   -7.3996233    348.12334  0.016408528  0.015007051          623 
 1769000   0.54780603   -7.4080578    347.30629  0.016360764   0.01499429          543 
 1770000   0.54465958   -7.4111673    347.93733   0.01638123  0.014981541          724 
 1771000   0.53492142   -7.3910436    348.39241  0.016393394  0.014968785          622 
 1772000   0.54807387   -7.4159107    347.79326  0.016355966   0.01495607          659 
 1773000   0.54402794   -7.4181052    347.35069   0.01632594  0.014943346          525 
 1774000   0.54824603   -7.4192464    347.96024   0.01634537  0.014930636          673 
 1775000    0.5343711    -7.418697    347.40687  0.016310182  0.014917941          599 
 1776000   0.54689787   -7.4106416     347.9813  0.016327952  0.014905253          595 
 1777000   0.54300304   -7.4119413    348.05998  0.016322453   0.01489258          502 
 1778000   0.54932019   -7.4235308    347.61564  0.016292447  0.014879913          683 
 1779000   0.55038645   -7.4442304    347.42188  0.016274212  0.014867266          429 
 1780000   0.52861045   -7.4365931    347.06676  0.016248444  0.014854607          723 
 1781000   0.54348344    -7.417214    347.77755  0.016272579  0.014841966          389 
 1782000   0.54151447   -7.4246102    347.51182   0.01625102  0.014829349          669 
 1783000   0.54545125   -7.4254289    347.68446  0.016249975  0.014816722          617 
 1784000   0.55843254   -7.4369018    347.69304  0.016241267  0.014804108          686 
 1785000   0.53909763   -7.4259297    347.06854  0.016203013  0.014791539          598 
 1786000   0.54023786   -7.4198959    347.53011  0.016215477  0.014778986          604 
 1787000   0.54338528   -7.4404259    347.37667  0.016199248  0.014766424          660 
 1788000   0.53515603    -7.421346    347.69513   0.01620503  0.014753889          691 
 1789000   0.53978522   -7.4325623    347.44588  0.016184362  0.014741376          580 
 1790000   0.53200124   -7.4434314    347.80775  0.016192167  0.014728872          678 
 1791000   0.53718634   -7.4348916    346.92262  0.016141942  0.014716367          593 
 1792000   0.52507096     -7.45422    347.82146  0.016174733  0.014703892          662 
 1793000   0.54779969   -7.4376342     347.6059  0.016155694  0.014691406          752 
 1794000    0.5342413   -7.4362233    347.48355  0.016141005  0.014678968          788 
 1795000   0.53194302   -7.4374317     347.6167  0.016138194  0.014666488          597 
 1796000   0.53790507   -7.4314157     347.3508  0.016116871  0.014654046          600 
 1797000   0.53398628   -7.4558146    347.97406  0.016136805  0.014641615          696 
 1798000   0.53396994   -7.4527671    347.09017  0.016086863  0.014629194          710 
 1799000    0.5369125    -7.449877    347.73469  0.016107777  0.014616802          696 
 1800000   0.54081219   -7.4426425    347.47886  0.016086984  0.014604419          637 
 1801000   0.53430274   -7.4472719    347.42557  0.016075586  0.014592032          641 
 1802000   0.53404495   -7.4471564    347.39697  0.016065343  0.014579653          756 
 1803000   0.53988342   -7.4401926    347.38182  0.016055732  0.014567285          786 
 1804000   0.54584302   -7.4619181    346.93964  0.016026406  0.014554931          736 
 1805000   0.53833392   -7.4577987    347.26408  0.016032506  0.014542581          701 
 1806000    0.5398981   -7.4520276    347.36883  0.016028462  0.014530266          660 
 1807000   0.53122426   -7.4357265    347.60396  0.016030436  0.014517958          706 
 1808000   0.52585989   -7.4654941    347.13759  0.016000073  0.014505651          650 
 1809000   0.52970157    -7.430954    347.74584  0.016019248  0.014493353          703 
 1810000   0.53470648   -7.4498982     347.1454  0.015982753  0.014481084          729 
 1811000   0.53160311   -7.4520623     347.4198  0.015986554  0.014468838          622 
 1812000   0.53020374   -7.4519814    346.48957  0.015934951   0.01445658          769 
 1813000   0.53136405   -7.4489375    347.14376  0.015956231  0.014444328          660 
 1814000   0.51796474   -7.4511984    347.05384  0.015943304  0.014432097          724 
 1815000   0.50932951   -7.4531828    347.39629  0.015950243  0.014419866          597 
 1816000   0.52084373   -7.4467968    347.20018   0.01593246  0.014407663          655 
 1817000   0.51743378   -7.4696891    346.80114  0.015905391  0.014395483          691 
 1818000   0.52780877    -7.458544    346.55243  0.015885241  0.014383295          636 
 1819000   0.52899742   -7.4727566    347.13959  0.015903408  0.014371119          440 
 1820000   0.53803293   -7.4660321    347.35848  0.015904692  0.014358947          680 
 1821000   0.53159761   -7.4734849    346.47927  0.015855723  0.014346801          715 
 1822000   0.54280587   -7.4518497    346.31114  0.015839331   0.01433464          744 
 1823000   0.53119204   -7.4799279     346.6485  0.015846064  0.014322506          744 
 1824000   0.52639048   -7.4532912    347.01212   0.01585399  0.014310372          692 
 1825000   0.51375261   -7.4519521    347.89574   0.01588565  0.014298269          782 
 1826000   0.51632011   -7.4583034    346.49307  0.015812937  0.014286159          560 
 1827000   0.52715808   -7.4569509    346.86556  0.015821272  0.014274072          684 
 1828000   0.52387956   -7.4571116    346.83454  0.015811203   0.01426199          735 
 1829000   0.51583639   -7.4522197    346.60096  0.015791915  0.014249921          684 
 1830000   0.50814702   -7.4806306    347.22058  0.015811502  0.014237866          748 
 1831000   0.52753351   -7.4646041    347.29219  0.015806125  0.014225818          747 
 1832000    0.5193923   -7.4629871    347.09672  0.015788606  0.014213794          764 
 1833000   0.51436295   -7.4495056    346.83441  0.015768068  0.014201784          697 
 1834000   0.52020966   -7.4604473    347.01381  0.015767622  0.014189776          710 
 1835000   0.51641055   -7.4788527    346.69746  0.015744662  0.014177774          675 
 1836000   0.52037344   -7.4739906    346.87376  0.015744088  0.014165792          698 
 1837000   0.51980544   -7.4850736    346.82231  0.015733184  0.014153824          728 
 1838000   0.51040451    -7.469438     346.3524  0.015703319  0.014141871          783 
 1839000   0.52038281   -7.4977227    346.54857  0.015703669    0.0141299          736 
 1840000   0.52697018    -7.467092    346.59424  0.015697203  0.014117958          754 
 1841000   0.51602361   -7.4770074    346.82231     0.015699  0.014106022          743 
 1842000   0.51331599   -7.4614655    346.30461  0.015667056  0.014094112          771 
 1843000   0.50388866   -7.4724961    346.82369  0.015682026  0.014082223          835 
 1844000   0.51940158   -7.4808025    346.58819  0.015662879  0.014070329          729 
 1845000   0.52942431   -7.4735234    346.97009  0.015671639  0.014058473          755 
 1846000   0.51308063   -7.4767814    346.91788  0.015660793  0.014046623          734 
 1847000    0.5215958   -7.4670059    347.25785  0.015667653  0.014034781          631 
 1848000   0.51545884   -7.4837735    346.38268  0.015619709  0.014022955          830 
 1849000   0.52045079   -7.4877192    346.56698  0.015619568  0.014011124          813 
 1850000   0.51792065   -7.5020639    346.07702  0.015589055  0.013999316          827 
 1851000   0.52319952   -7.4808318     346.9533  0.015620084  0.013987508          756 
 1852000   0.50455003   -7.4833879    347.15468  0.015620711  0.013975732          805 
 1853000   0.51201668   -7.4777004    345.85507  0.015553835  0.013963954          800 
 1854000   0.51438146   -7.4827054    346.65385  0.015581349    0.0139522          640 
 1855000   0.50754086   -7.4632911    346.31902  0.015557907  0.013940472          670 
 1856000   0.51620598   -7.4838115    346.90071  0.015575643  0.013928741          777 
 1857000   0.51502941   -7.4792164    346.36798  0.015543349  0.013917023          761 
 1858000   0.50887205   -7.4840837    346.41164  0.015536941  0.013905311          801 
 1859000   0.50293694    -7.480362    346.47218  0.015531297  0.013893595          820 
 1860000   0.51559952    -7.479366    345.72474   0.01548946  0.013881887          806 
 1861000   0.51295066   -7.4844514    346.75754  0.015527384  0.013870187          844 
 1862000   0.51040039    -7.496909       345.93  0.015482009  0.013858509          795 
 1863000   0.50632082   -7.4847768    346.23965  0.015487549   0.01384683          749 
 1864000   0.51528108   -7.5038028    345.99097  0.015468123  0.013835154          876 
 1865000   0.52173896   -7.4991236    345.98705  0.015459653  0.013823507          882 
 1866000     0.511178   -7.4815138    346.35531  0.015467815  0.013811854          725 
 1867000    0.5157984   -7.4995155    346.34346  0.015459001  0.013800217          847 
 1868000   0.50346337    -7.490182    346.54661  0.015459788  0.013788606          765 
 1869000   0.49751509   -7.5165031    345.76087  0.015416483   0.01377699          891 
 1870000   0.50839284   -7.5095414    346.84899  0.015456729  0.013765388          882 
 1871000   0.50385398   -7.5110818    346.20001  0.015419562  0.013753804          869 
 1872000   0.51226889   -7.5228966    346.08939  0.015406401   0.01374223          816 
 1873000   0.51272015   -7.4917019    345.43747   0.01536917  0.013730659          861 
 1874000   0.50106561   -7.4977947    345.59575  0.015368007  0.013719109          762 
 1875000   0.49313189   -7.4939712    345.81063  0.015369361  0.013707568          827 
 1876000   0.50256912   -7.5041064    346.16861   0.01537707  0.013696032          840 
 1877000    0.4948044   -7.5088818    345.86485  0.015355392  0.013684508          805 
 1878000   0.50638026   -7.5096054     346.5313  0.015376788  0.013673002          860 
 1879000   0.50247895   -7.4893511    346.45498   0.01536522  0.013661511          806 
 1880000   0.50012766   -7.5001125    345.83546  0.015329586  0.013650025          646 
 1881000   0.49978332   -7.4963454    345.92956  0.015325605   0.01363856          749 
 1882000   0.50170632   -7.5094196    345.64211  0.015304734   0.01362711          845 
 1883000   0.51223911   -7.5216808    345.79014  0.015303157  0.013615656          823 
 1884000   0.49963931   -7.5183686    345.81601  0.015296179  0.013604208          781 
 1885000   0.49578572   -7.5035796      346.408  0.015314235  0.013592794          605 
 1886000   0.49110895   -7.5188611    345.86836  0.015282271  0.013581374          838 
 1887000   0.50406594   -7.5233347    346.09364  0.015284121  0.013569984          811 
 1888000   0.49625426   -7.4970986     346.1172  0.015277066  0.013558601          819 
 1889000   0.49691327   -7.5128344    346.26639   0.01527556  0.013547216          815 
 1890000   0.50571564   -7.5120896    346.26594  0.015267458  0.013535851          857 
 1891000   0.50241234   -7.5156465    346.12328  0.015253097  0.013524512          829 
 1892000   0.48415126   -7.5031347    345.37891   0.01521225  0.013513177          824 
 1893000   0.50001903   -7.5158546     345.8157  0.015223442   0.01350184          795 
 1894000    0.4985051   -7.5150456    346.23119  0.015233685  0.013490534          831 
 1895000   0.50225079   -7.5285798     346.0884  0.015219367   0.01347922          771 
 1896000   0.49416289   -7.5060432    345.30755   0.01517702  0.013467915          796 
 1897000   0.49682796   -7.5222259    346.21077  0.015208697  0.013456636          822 
 1898000   0.49831955   -7.5240482    345.74303  0.015180147  0.013445363          791 
 1899000   0.49531031   -7.5059699    346.13422   0.01518932  0.013434108          824 
 1900000   0.49031623   -7.5042285    345.96943  0.015174098  0.013422845          887 
 1901000   0.49227687   -7.5176678    345.34046  0.015138544  0.013411595          823 
 1902000    0.4978431   -7.5038295    345.67912  0.015145422  0.013400364          772 
 1903000   0.49405482   -7.5141881    345.91019  0.015147582  0.013389135          870 
 1904000   0.48607072   -7.5202197    345.53693   0.01512329  0.013377922          932 
 1905000   0.48518218   -7.5173589     345.7139  0.015123093  0.013366729          747 
 1906000   0.49030662   -7.5211426    345.81505  0.015119581  0.013355545          803 
 1907000   0.49075824   -7.5189618    345.38753   0.01509297  0.013344367          856 
 1908000   0.48971165   -7.5124147    345.70176  0.015098784  0.013333204          815 
 1909000   0.49124913   -7.5186183    345.36337  0.015076103  0.013322047          923 
 1910000    0.4910043   -7.5206028    345.32925  0.015066721  0.013310906          870 
 1911000    0.4992916   -7.5176589    345.93645  0.015085315  0.013299779          832 
 1912000   0.48122972   -7.5278936    345.09424  0.015040718  0.013288656          904 
 1913000   0.48678573   -7.5386713    346.03188  0.015073701   0.01327756          892 
 1914000   0.48421763   -7.5394176    345.36385   0.01503674  0.013266456          780 
 1915000   0.48331855   -7.5252873    345.39139  0.015030087  0.013255373          928 
 1916000   0.49667472   -7.5450269    345.28382  0.015017564  0.013244296          782 
 1917000   0.48552643   -7.5326524    345.66426  0.015026268  0.013233229          866 
 1918000   0.48964048   -7.5266842    346.00466  0.015033223  0.013222181          885 
 1919000    0.4925039   -7.5431016    345.24799  0.014992531  0.013211144          815 
 1920000   0.49407386   -7.5191461     346.0797   0.01502082  0.013200124          803 
 1921000   0.48226029    -7.534963    345.44398  0.014985424  0.013189107          812 
 1922000   0.49167369     -7.55173    345.36494    0.0149742  0.013178099          897 
 1923000   0.48673454   -7.5142184    345.26444  0.014962058  0.013167108          862 
 1924000   0.48605939   -7.5352685    345.48686  0.014963914  0.013156135          903 
 1925000   0.47932323   -7.5475487    345.41905  0.014953206  0.013145161          872 
 1926000    0.4818779   -7.5362572    345.65139  0.014955495  0.013134199          887 
 1927000   0.48062811   -7.5256478    345.10028  0.014923901  0.013123251          807 
 1928000   0.49034036   -7.5361935    345.60682  0.014938054  0.013112323          847 
 1929000   0.48600617   -7.5505709    345.45334   0.01492368  0.013101406          921 
 1930000   0.48634165   -7.5412051     346.0678  0.014942478  0.013090485          832 
 1931000   0.47970986   -7.5453465    345.28231  0.014900842  0.013079586          879 
 1932000   0.47899955   -7.5489935    345.24561  0.014891546  0.013068714          874 
 1933000   0.47781923   -7.5260195    345.41414  0.014891108  0.013057833          811 
 1934000   0.48244105   -7.5433827    345.52091  0.014888009  0.013046957          835 
 1935000   0.47646393   -7.5306061    345.22914  0.014867749  0.013036098          821 
 1936000   0.48830517   -7.5341173    345.39835  0.014867353  0.013025253          929 
 1937000   0.47364672   -7.5707509    345.36405  0.014858202  0.013014414          896 
 1938000   0.48787555   -7.5551769    345.16844  0.014842124  0.013003588          897 
 1939000   0.48490119   -7.5425587    345.70672  0.014857603  0.012992787          862 
 1940000    0.4719993   -7.5416292      344.735  0.014808204  0.012981983          835 
 1941000   0.47704905    -7.524569    345.26806  0.014823461  0.012971182          852 
 1942000   0.48315443   -7.5447261    345.41623  0.014822186  0.012960402          846 
 1943000   0.47129437   -7.5598937    344.79667  0.014787986  0.012949631          864 
 1944000   0.48116368   -7.5392842    345.95389  0.014829985  0.012938878          775 
 1945000   0.48308729   -7.5435894    344.93372  0.014778651  0.012928134          820 
 1946000   0.47997754   -7.5551705    345.49752    0.0147952  0.012917403          885 
 1947000   0.48560004   -7.5456687    345.36082  0.014781751  0.012906677          847 
 1948000   0.48106564   -7.5539678    345.64885  0.014786484  0.012895966          806 
 1949000   0.46276365    -7.564174    345.06213  0.014753811  0.012885257          881 
 1950000   0.48841092    -7.557096    344.96997  0.014742306  0.012874558          867 
 1951000   0.47503835   -7.5517909    344.94938   0.01473387  0.012863881          848 
 1952000   0.48036025   -7.5461328    344.72172  0.014716603  0.012853209          870 
 1953000   0.47362726   -7.5615191    345.54721  0.014744291  0.012842549          895 
 1954000   0.46495756   -7.5448504    345.17938  0.014721059  0.012831908          779 
 1955000   0.47373526   -7.5493495    344.76454  0.014695846  0.012821265          843 
 1956000   0.47672816   -7.5534216    344.83123  0.014691174  0.012810632          864 
 1957000   0.47115424   -7.5515579     344.7996   0.01468232  0.012800018          944 
 1958000   0.46978857   -7.5574429     345.0106  0.014683802   0.01278941          766 
 1959000   0.47874604   -7.5546121    344.99093  0.014675469  0.012778817          841 
 1960000   0.46675007   -7.5474702    345.27564  0.014680087  0.012768236          895 
 1961000   0.47741243   -7.5595356    344.85189  0.014654593  0.012757652          884 
 1962000   0.47270433   -7.5600205    344.97662  0.014652422  0.012747105          911 
 1963000   0.46012221   -7.5761532    345.25936   0.01465696  0.012736546          857 
 1964000   0.47253829   -7.5651448    345.14379  0.014644594  0.012725985          866 
 1965000   0.47076936   -7.5680371    344.71506  0.014618959  0.012715456          915 
 1966000   0.47662947   -7.5578522    344.37561  0.014597135  0.012704931          912 
 1967000   0.47023192   -7.5515984    345.41979  0.014633951  0.012694418          855 
 1968000   0.47288554    -7.557743    344.62404   0.01459282  0.012683917          864 
 1969000   0.46524428   -7.5614231    345.23009  0.014611059  0.012673425          861 
 1970000   0.46954117    -7.560899    345.49355  0.014614786  0.012662946          972 
 1971000   0.45873675   -7.5701166    344.79709  0.014577925  0.012652476          896 
 1972000   0.47175175   -7.5700582    344.57606  0.014561192   0.01264203          811 
 1973000   0.46124913    -7.555436    344.67353  0.014557929  0.012631578          837 
 1974000   0.45543386   -7.5582752    344.64633  0.014549406  0.012621143          701 
 1975000    0.4589607    -7.562039    344.57555  0.014539053   0.01261071          849 
 1976000   0.46491472   -7.5720467    344.31916  0.014520882  0.012600283          889 
 1977000   0.45434547   -7.5610396    344.80073  0.014533836  0.012589887          934 
 1978000   0.46702539    -7.570937    344.69072  0.014521854    0.0125795          883 
 1979000   0.46148874    -7.568921     344.9726  0.014526385  0.012569117          828 
 1980000   0.45800947   -7.5767727    344.50516  0.014499375  0.012558733          863 
 1981000    0.4706199   -7.5562235    344.85946   0.01450696  0.012548365          907 
 1982000   0.45656634   -7.5673048    344.53402  0.014485958  0.012538008          852 
 1983000   0.47532571   -7.5694043    344.95783  0.014496463  0.012527669          883 
 1984000   0.45770405   -7.5790505    344.71682  0.014479033   0.01251733          838 
 1985000   0.45616965   -7.5671797    344.31424  0.014454838  0.012507013          839 
 1986000     0.462745   -7.5708993    344.62801  0.014460726  0.012496699          806 
 1987000   0.45654382   -7.5613733      344.325   0.01444074  0.012486389          852 
 1988000   0.45092919   -7.5903384     344.4429  0.014438418  0.012476088          879 
 1989000   0.47038289   -7.5894867    344.52933   0.01443478  0.012465811          919 
 1990000   0.45969448   -7.5887275    344.39382  0.014421852  0.012455538          914 
 1991000   0.47526625     -7.56644    344.52882  0.014420258  0.012445272          850 
 1992000   0.46384199   -7.5817545    344.26449  0.014401962  0.012435029          862 
 1993000    0.4580778   -7.5802877    344.88441  0.014420656  0.012424786          842 
 1994000   0.45728796   -7.5867592    344.73283  0.014407089  0.012414551          883 
 1995000   0.46715764   -7.5829706    344.96357  0.014409506  0.012404331          673 
 1996000   0.45464355   -7.5761291    344.95658  0.014401995  0.012394125          858 
 1997000   0.45267713   -7.5728777    344.42465  0.014372586  0.012383916          895 
 1998000     0.458388   -7.5829149    345.01969   0.01439021   0.01237373          907 
 1999000   0.45568427   -7.5839874    344.76018  0.014372194  0.012363554          875 
 2000000   0.45861302    -7.593871    344.70069  0.014362529  0.012353381          923 
 2001000   0.46022206   -7.5705796    344.02846  0.014327355   0.01234323          823 
 2002000   0.46492499   -7.5756214    344.37314  0.014334546  0.012333076          881 
 2003000   0.43084704   -7.5817669    344.51542  0.014333309  0.012322946          897 
 2004000   0.45415498   -7.5803628    344.30683  0.014317483  0.012312825          884 
 2005000    0.4613205   -7.5879153    344.31312  0.014310603   0.01230272          900 
 2006000   0.45291745    -7.580101    344.66484  0.014318081  0.012292619          953 
 2007000   0.44969527   -7.5775522    344.74656   0.01431434  0.012282529          836 
 2008000   0.44773315   -7.5841095    344.48278  0.014296264  0.012272452          905 
 2009000   0.45227586   -7.5888234     344.4817  0.014289103  0.012262392          886 
 2010000   0.45607234   -7.5872206    343.88484  0.014257249   0.01225234          856 
 2011000   0.45184491   -7.5922297    344.12765  0.014260221  0.012242294          863 
 2012000    0.4505974   -7.5739182    343.83014  0.014240811  0.012232258          896 
Loop time of 5177.97 on 48 procs for 2000000 steps with 4000 atoms

Performance: 66744.317 tau/day, 386.252 timesteps/s
99.4% CPU use with 48 MPI tasks x no OpenMP threads

MPI task timing breakdown:
Section |  min time  |  avg time  |  max time  |%varavg| %total
---------------------------------------------------------------
Pair    | 370.77     | 397.29     | 427.39     |  65.4 |  7.67
Neigh   | 36.297     | 37.718     | 39.628     |  12.4 |  0.73
Comm    | 330.82     | 360.29     | 385.75     |  68.6 |  6.96
Output  | 4.853      | 4.8552     | 4.9033     |   0.3 |  0.09
Modify  | 4313.1     | 4328.8     | 4342       |  10.8 | 83.60
Other   |            | 49         |            |       |  0.95

Nlocal:        83.3333 ave          88 max          78 min
Histogram: 2 1 4 5 9 4 8 4 2 9
Nghost:        2426.44 ave        2442 max        2412 min
Histogram: 4 1 7 3 7 10 8 3 2 3
Neighs:        16829.7 ave       19391 max       14442 min
Histogram: 3 6 4 5 7 9 6 3 1 4
FullNghs:      33659.6 ave       35711 max       31330 min
Histogram: 2 2 6 6 8 5 8 1 4 6

Total # of neighbors = 1615660
Ave neighs/atom = 403.91500
Neighbor list builds = 106908
Dangerous builds = 0

#clear
#
#next RN
#
#jump SELF
Total wall time: 1:26:21
