
units lj                  # Use reduced LJ style units
atom_style atomic         # Uncharged point particles
atom_modify map hash      # Needed for indexing of clusters etc
                          # Used to be able to find where atoms are in relation to each other.

lattice fcc 1.0 spacing 1 1 1
Lattice spacing in x,y,z = 1.5874011 1.5874011 1.5874011
region box block 0 10 0 10 0 10 units lattice
create_box 2 box
Created orthogonal box = (0.0000000 0.0000000 0.0000000) to (15.874011 15.874011 15.874011)
  3 by 4 by 4 MPI processor grid
create_atoms 1 box
Created 4000 atoms
  using lattice units in orthogonal box = (0.0000000 0.0000000 0.0000000) to (15.874011 15.874011 15.874011)
  create_atoms CPU = 0.003 seconds
set type 1 type/fraction 2 0.0 78393
Setting atom values ...
  0 settings made for type/fraction
mass 1 1.0
mass 2 1.0
pair_style lj/cut  3.5
pair_modify tail  yes
pair_coeff 1  1  1.0  1.0   # Intearaction between 1 and 1 set with epsilon = 1 and sigma = 1
pair_coeff 1  2  1.5  0.8
pair_coeff 2  2  0.5  0.88

write_data data.0
System init for write_data ...
Neighbor list info ...
  update every 1 steps, delay 10 steps, check yes
  max neighbors/atom: 2000, page size: 100000
  master list distance cutoff = 3.8
  ghost atom cutoff = 3.8
  binsize = 1.9, bins = 9 9 9
  1 neighbor lists, perpetual/occasional/extra = 1 0 0
  (1) pair lj/cut, perpetual
      attributes: half, newton on
      pair build: half/bin/atomonly/newton
      stencil: half/bin/3d
      bin: standard
WARNING: Not all mixed pair coeffs generated from mixing. Use write_data with 'pair ij' option to store all pair coeffs. (../write_data.cpp:312)


#############################
#   M E L T   S Y S T E M   #
#############################

velocity all create 2.4 5300450 mom yes dist gaussian # Assign velocities
                                                    # Temperature 2.4, random number seed, zero linear momentum
                                                                                # Gaussian distribution

timestep 0.002   # simulation timestep
thermo 1000       # output thermodynamic data every 1000 steps bf 100

# Define a fix  in this case with index 1 applied to all
# particles in the simulation. This fix is for simulations
# in the anisotropic NPT ensemble. Note that we use the MTK
# correction.
fix 1 all npt temp 2.4 2.4 0.1 iso 5.68 5.68 0.5 mtk yes tchain 5 pchain 5 # Use NPT ensemble
                                                                         # Set temperature and pressure and damping
                                                                         # Numbers of thermostats in chain and in barostat
run 10000          # run for 10000 steps
Per MPI rank memory allocation (min/avg/max) = 3.642 | 3.644 | 3.648 Mbytes
Step Temp E_pair E_mol TotEng Press Volume 
       0          2.4   -8.3859253            0   -4.7868253   -2.2405722         4000 
    1000    2.3640359   -4.4632256            0  -0.91805834    5.6198419    5168.0104 
    2000    2.4176323   -4.3117567            0  -0.68621485    6.1285884    5204.4759 
    3000    2.3663064    -4.366624            0   -0.8180518    5.5261497    5249.4741 
    4000    2.4082215   -4.3840476            0  -0.77261847    5.8575791    5181.8304 
    5000    2.4219695   -4.2957212            0  -0.66367522    5.7394436    5260.0909 
    6000    2.3759589   -4.3486438            0   -0.7855964    5.6522854    5237.1412 
    7000    2.3501868   -4.3887309            0    -0.864332     5.419808     5250.188 
    8000    2.3836431    -4.343793            0  -0.76922223     5.542596    5257.0111 
    9000    2.4399064   -4.3443842            0  -0.68543954    5.9070112    5209.9505 
   10000    2.3561476   -4.3291026            0  -0.79576465    5.6776906    5253.7305 
Loop time of 2.63392 on 48 procs for 10000 steps with 4000 atoms

Performance: 656056.553 tau/day, 3796.624 timesteps/s
99.1% CPU use with 48 MPI tasks x no OpenMP threads

MPI task timing breakdown:
Section |  min time  |  avg time  |  max time  |%varavg| %total
---------------------------------------------------------------
Pair    | 0.8422     | 0.90357    | 0.99615    |   3.1 | 34.31
Neigh   | 0.16705    | 0.17167    | 0.18989    |   0.8 |  6.52
Comm    | 0.67846    | 0.78403    | 0.92512    |   6.4 | 29.77
Output  | 0.00024759 | 0.00025296 | 0.00032553 |   0.0 |  0.01
Modify  | 0.65823    | 0.76023    | 0.84543    |   5.4 | 28.86
Other   |            | 0.01416    |            |       |  0.54

Nlocal:        83.3333 ave          91 max          77 min
Histogram: 3 2 10 3 6 12 4 6 0 2
Nghost:        1370.17 ave        1399 max        1345 min
Histogram: 4 1 5 10 5 9 6 6 1 1
Neighs:        7252.29 ave        8328 max        6422 min
Histogram: 3 2 9 2 15 7 8 1 0 1

Total # of neighbors = 348110
Ave neighs/atom = 87.027500
Neighbor list builds = 904
Dangerous builds = 194

# Equilibrate just above the melting temperature to avoid step fn in T

fix 1 all npt temp 1.25 1.25 0.1 iso 5.68 5.68 0.5 mtk yes tchain 5 pchain 5
run 2000
Per MPI rank memory allocation (min/avg/max) = 3.642 | 3.644 | 3.648 Mbytes
Step Temp E_pair E_mol TotEng Press Volume 
   10000    2.3561476   -4.3291026            0  -0.79576465    5.6776906    5253.7305 
   11000    1.2663292   -5.8445306            0   -3.9455116    5.6692022    4345.3864 
   12000    1.2641354   -5.8202647            0   -3.9245356    5.6551706    4353.8703 
Loop time of 0.448358 on 48 procs for 2000 steps with 4000 atoms

Performance: 770811.756 tau/day, 4460.716 timesteps/s
99.6% CPU use with 48 MPI tasks x no OpenMP threads

MPI task timing breakdown:
Section |  min time  |  avg time  |  max time  |%varavg| %total
---------------------------------------------------------------
Pair    | 0.19073    | 0.20559    | 0.2175     |   1.3 | 45.85
Neigh   | 0.030616   | 0.031611   | 0.034004   |   0.3 |  7.05
Comm    | 0.14349    | 0.157      | 0.17725    |   1.8 | 35.02
Output  | 5.1393e-05 | 5.4833e-05 | 0.00015369 |   0.0 |  0.01
Modify  | 0.040462   | 0.04975    | 0.059208   |   2.3 | 11.10
Other   |            | 0.00436    |            |       |  0.97

Nlocal:        83.3333 ave          88 max          75 min
Histogram: 1 2 3 1 4 5 13 6 6 7
Nghost:        1550.04 ave        1575 max        1520 min
Histogram: 1 2 0 3 13 10 11 5 1 2
Neighs:        8734.69 ave        9388 max        7849 min
Histogram: 1 4 1 5 5 8 10 4 6 4

Total # of neighbors = 419265
Ave neighs/atom = 104.81625
Neighbor list builds = 143
Dangerous builds = 10

#############################
# L I N E A R  Q U E N C H  #
#############################

# Define solid atoms. This closely follows ten Wolde  Ruiz-Montero and Frenkel  Faraday Discuss  1996  104  93-110
# Compute components of the per-atom q6 vector
compute q6 all orientorder/atom degrees 1 6 components 6 nnn NULL cutoff 1.3 # compute the Q6 parameter.
                                                                             # Use all neighbours within 1.3 unit cell.

# get number of connections
compute coord_number all coord/atom orientorder q6 0.5

# An atom is solid if it has 8 or more connections (of a possible 14)
variable is_solid atom c_coord_number>=8
group solid dynamic all var is_solid    # Must be dynamic to update
dynamic group solid defined

# do clustering
compute cluster solid cluster/atom 1.3 # Create a cluster where all atoms within are solid and max 1.3 units from another member

# define chunks one chunk per cluster
compute clus_chunks solid chunk/atom c_cluster nchunk every compress yes  # Says which atoms are in which chunk

# count the size of each chunk
compute size_chunks solid property/chunk clus_chunks count


# Find the maximum entry in the vector of chunk sizes
variable max_n equal max(c_size_chunks)


# Thermo style which includes this variable
# thermo_style custom step temp pe vol v_max_n

thermo ${N}  # Print the thermo information every 100 steps
thermo 1000  

# Reset the npt fix at a lower temperature (below freezing)
fix 1  all npt temp  ${temp} ${temp}  0.1  iso  5.68  5.68  0.5  mtk yes tchain  5  pchain  5
fix 1  all npt temp  0.45 ${temp}  0.1  iso  5.68  5.68  0.5  mtk yes tchain  5  pchain  5
fix 1  all npt temp  0.45 0.45  0.1  iso  5.68  5.68  0.5  mtk yes tchain  5  pchain  5

dump dmp2 all dcd ${N} traj.dcd
dump dmp2 all dcd 1000 traj.dcd


compute msd all msd com yes
variable twopoint equal c_msd[4]/6/(step*dt+1.0e-6)
fix 9 all vector 10 c_msd[4]
variable fit equal slope(f_9)/6/(10*dt)
thermo_style custom step temp pe c_msd[4] v_twopoint v_fit v_max_n

fix 1 all npt temp 1.25 ${temp} 0.1 iso 5.68 5.68 0.5 mtk yes tchain 5 pchain 5
fix 1 all npt temp 1.25 0.45 0.1 iso 5.68 5.68 0.5 mtk yes tchain 5 pchain 5
run 5000000 # 5000000  # Run for this many steps
Neighbor list info ...
  update every 1 steps, delay 10 steps, check yes
  max neighbors/atom: 2000, page size: 100000
  master list distance cutoff = 3.8
  ghost atom cutoff = 3.8
  binsize = 1.9, bins = 9 9 9
  4 neighbor lists, perpetual/occasional/extra = 1 3 0
  (1) pair lj/cut, perpetual
      attributes: half, newton on
      pair build: half/bin/atomonly/newton
      stencil: half/bin/3d
      bin: standard
  (2) compute orientorder/atom, occasional
      attributes: full, newton on
      pair build: full/bin/atomonly
      stencil: full/bin/3d
      bin: standard
  (3) compute coord/atom, occasional
      attributes: full, newton on
      pair build: full/bin/atomonly
      stencil: full/bin/3d
      bin: standard
  (4) compute cluster/atom, occasional
      attributes: full, newton on
      pair build: full/bin/atomonly
      stencil: full/bin/3d
      bin: standard
Per MPI rank memory allocation (min/avg/max) = 9.725 | 9.731 | 9.735 Mbytes
Step Temp PotEng c_msd[4] v_twopoint v_fit v_max_n 
   12000    1.2641354   -5.8202647 2.1512237e-30 1.4939053e-32 8.3333333e+20            2 
   13000     1.245303   -5.8349027   0.53765998 0.0034465382  0.044847856            2 
   14000    1.2507944    -5.827453    1.0889664 0.0064819424  0.044556209            2 
   15000    1.2621121     -5.82062    1.6195362 0.0089974229  0.044969142            3 
   16000    1.2390252     -5.87965    2.1583774  0.011241549  0.044928084            2 
   17000    1.2602462   -5.8354192    2.6364842  0.012923942  0.044468292            3 
   18000    1.2734855   -5.8411658     3.142713  0.014549597  0.043969817            2 
   19000    1.2357088   -5.8458396     3.693009  0.016197408  0.043662736            3 
   20000    1.2576009   -5.8449969    4.2120222  0.017550092  0.043562993            5 
   21000    1.2392357   -5.8535496    4.7983043  0.019040889  0.043634329            2 
   22000    1.2405763   -5.8066463    5.3381454  0.020220247     0.043848            2 
   23000    1.2574358   -5.8525488    5.7325635  0.020770157  0.043791811            4 
   24000    1.2597396   -5.8403478     6.309187  0.021906899  0.043657438            4 
   25000    1.2614944   -5.8498474     6.862788  0.022875959  0.043728424            4 
   26000    1.2663619   -5.8141056    7.4035093  0.023729196  0.043819971            1 
   27000    1.2910469   -5.8519245    7.8919188  0.024357774  0.043795062            2 
   28000    1.2403757   -5.8629338    8.4036456  0.025010849  0.043719765            3 
   29000    1.2668652   -5.8719058    8.9920535  0.025839234  0.043704228            4 
   30000    1.2476497   -5.8671289     9.571677  0.026587991   0.04382473            3 
   31000    1.2800433   -5.8727875    10.015645  0.026923777  0.043899335            3 
   32000    1.2452185   -5.8414103     10.53743  0.027441224  0.043858193            1 
   33000    1.2753596   -5.8591151    11.102201  0.028035861  0.043842632            6 
   34000    1.2880323   -5.8704258    11.672531  0.028609144  0.043895274            5 
   35000    1.2279817   -5.8815762    12.162577  0.028958515  0.043959302            4 
   36000    1.2739841   -5.8375538    12.678565  0.029348531  0.043943568            1 
   37000    1.2756126   -5.8363166    13.108195  0.029522961  0.043912585            3 
   38000    1.2580847   -5.8317176    13.665656  0.029968543  0.043886112            3 
   39000    1.2484612   -5.8548161    14.222276  0.030389478  0.043862999            4 
   40000    1.2488302   -5.8929508    14.696808   0.03061835  0.043828264            2 
   41000    1.2217025   -5.8608254    15.190209  0.030874408  0.043798654            4 
   42000    1.2586362   -5.8454575    15.724634   0.03119967  0.043761741            2 
   43000    1.2600044   -5.8567863    16.353986  0.031693771  0.043740234            4 
   44000    1.2427626   -5.8505882    17.041074  0.032274761  0.043794181            5 
   45000    1.2506834   -5.8516279     17.65972  0.032703185  0.043912605            4 
   46000    1.2587583   -5.8669216    18.213342  0.032995184  0.044021596           10 
   47000    1.2304757   -5.8073383    18.965055  0.033625984  0.044154794            2 
   48000    1.2476179   -5.8429386    19.656685  0.034126189  0.044353374            2 
   49000    1.2496574   -5.8181579    20.286055  0.034500094  0.044554447            3 
   50000    1.2508249   -5.8697516     20.72586    0.0345431   0.04471971            6 
   51000    1.2367255   -5.8273139    21.286277  0.034781498  0.044866237            2 
   52000     1.238549   -5.7910949    21.805637  0.034944931  0.044987917            7 
   53000    1.2426893   -5.8664099    22.271912  0.035018729  0.045071224            5 
   54000    1.2010852   -5.8566624    22.693202  0.035020372  0.045122768            3 
   55000    1.2590178   -5.8959736    23.200106  0.035151675  0.045155145            3 
   56000    1.2324286   -5.7951131    23.870209  0.035521143  0.045183796            7 
   57000    1.2481229   -5.8531473    24.294675   0.03551853  0.045194241            3 
   58000     1.253329   -5.8749504    24.972776  0.035880425  0.045213556            4 
   59000    1.2741331   -5.8237563    25.611281  0.036174126  0.045254817            3 
   60000     1.234822   -5.8486527    26.234267  0.036436481  0.045315224            1 
   61000     1.238974    -5.858743    26.860538  0.036694724  0.045365059            3 
   62000    1.2577288   -5.8416833     27.26598  0.036647822  0.045433577            4 
   63000    1.2482131   -5.8308215    27.821041  0.036800319  0.045469899            5 
   64000    1.2374799   -5.8211453    28.380227   0.03695342  0.045501128            6 
   65000     1.226713   -5.8513717    28.846019  0.036982076  0.045535635            2 
   66000    1.2548431   -5.8662661    29.186172  0.036851227  0.045546933            3 
   67000    1.2383944   -5.8018669    29.792885  0.037055827  0.045540547            3 
   68000     1.244262   -5.8841201    30.204044   0.03701476  0.045538845            2 
   69000    1.2415312   -5.8410948    30.514591  0.036853371  0.045505626            2 
   70000    1.2607282   -5.8405055    31.028332   0.03693849  0.045452123            4 
   71000     1.226837   -5.8853111    31.429946  0.036889608  0.045389134            5 
   72000    1.2503954   -5.8663782    31.942044  0.036969958  0.045326406            3 
   73000    1.2574391   -5.8416426    32.475205  0.037072151   0.04526312            3 
   74000    1.2114487    -5.854527    33.106332  0.037281905  0.045197082            3 
   75000    1.2312584   -5.8428751    33.608754   0.03734306  0.045143258            5 
   76000    1.2495217   -5.8503604     33.92796   0.03720171  0.045093725            5 
   77000    1.2032501   -5.8292513    34.460973  0.037295425  0.045038168            2 
   78000    1.2245824   -5.8820578    35.162377  0.037566642  0.044991078            2 
   79000    1.2409448   -5.8705418    35.725739  0.037685379  0.044949707            2 
   80000     1.227971    -5.863012    36.134445  0.037640047  0.044914594            3 
   81000    1.2219483   -5.8770998    36.873037  0.037935223  0.044886156            6 
   82000    1.2659988   -5.8619165     37.55698  0.038167663  0.044870665            3 
   83000    1.2227462   -5.8847746    38.153483   0.03830671  0.044862809            4 
   84000    1.2278263   -5.8736078    38.460311   0.03815507  0.044849006            3 
   85000    1.2437709   -5.8852789    38.936468  0.038173008  0.044821045            3 
   86000    1.2312216   -5.8386358    39.571035  0.038344026  0.044805399            5 
   87000    1.2341698   -5.8712821    40.376781  0.038675078  0.044806325            3 
   88000    1.2385532    -5.814958    41.068394  0.038890525  0.044821299            5 
   89000    1.1964382   -5.8718795    41.362657  0.038729079  0.044830919            4 
   90000    1.2466107   -5.8977642    41.905337  0.038801237  0.044825058            2 
   91000    1.2442647   -5.8466264     42.41911  0.038845338  0.044818186            2 
   92000    1.2618902   -5.8222967    43.052392  0.038996732  0.044817127            4 
   93000    1.2342957     -5.82288     43.63464  0.039099139  0.044824794            3 
   94000    1.2327996   -5.8810299    43.792265   0.03882293  0.044821105            2 
   95000    1.2303233   -5.8669135    44.380108  0.038929919   0.04481012            3 
   96000    1.2522468   -5.8662029    45.225108  0.039257906  0.044804106            3 
   97000    1.2331502   -5.8802684    45.671193   0.03923642  0.044806238            4 
   98000    1.2266711   -5.8468875    46.644127  0.039663373  0.044823302            3 
   99000    1.2004791   -5.8821997    47.154642  0.039692459  0.044850454            5 
  100000    1.2374258   -5.8489801    47.468919  0.039557432  0.044871491            4 
  101000      1.24985   -5.8801833    48.238526  0.039800764  0.044888326            7 
  102000    1.2152829   -5.8394225    48.720481  0.039804315  0.044914733            5 
  103000    1.2310446   -5.8586149     49.13642  0.039754385  0.044927575            3 
  104000    1.2431315   -5.8786814    49.542719  0.039697691  0.044931421            2 
  105000    1.2617739   -5.9139729    49.814058  0.039534966  0.044926998            3 
  106000    1.2294632   -5.9104754    50.415163  0.039634562  0.044923844            2 
  107000    1.2422984   -5.8838558     50.89348  0.039636666  0.044910964            4 
  108000    1.2310629   -5.8468123    51.496824  0.039735204  0.044900727            3 
  109000    1.2327092   -5.8658154    51.680303  0.039510935  0.044881318            2 
  110000    1.2395849   -5.8807146    52.356827  0.039664263  0.044861862            3 
  111000    1.2549487    -5.817189    53.082436  0.039851679  0.044846118            2 
  112000     1.238163   -5.8743908    53.102544  0.039510821   0.04482634            3 
  113000    1.2590897   -5.8348879     54.08771  0.039887692  0.044806845            3 
  114000    1.2273648   -5.8915486    54.665756  0.039960348  0.044796255            3 
  115000    1.2347091   -5.8909591    55.444497  0.040177171   0.04479729            4 
  116000    1.2091926   -5.8781932    55.830907   0.04010841  0.044792879            4 
  117000    1.2387434   -5.8656983    56.487213  0.040233058  0.044793995            3 
  118000    1.2391382   -5.9110375    56.800437  0.040113303  0.044795968            3 
  119000    1.2514739   -5.8388549    57.663089  0.040380314   0.04479795            4 
  120000    1.2266071   -5.8700366    58.083848  0.040336005  0.044803807            6 
  121000    1.2335128   -5.8636259    58.429779  0.040240894  0.044804753            2 
  122000    1.2244791    -5.861278    59.086943  0.040359934  0.044807064            2 
  123000     1.219957    -5.877218    59.473747  0.040293866  0.044805505            3 
  124000    1.2567721   -5.8808144    60.065086  0.040366321  0.044801603            5 
  125000    1.2237368   -5.9322523    60.617996  0.040411997  0.044799399            5 
  126000    1.2368446   -5.8631066    61.097379   0.04040832  0.044801817            3 
  127000    1.2132036   -5.8808335    61.879757  0.040603515  0.044799297            4 
  128000    1.2249737   -5.9185546    62.312681  0.040568151  0.044801229            3 
  129000    1.2351158   -5.8942872    62.870585  0.040614073   0.04480173            2 
  130000    1.2567275    -5.883638    63.080412  0.040436162  0.044798052            2 
  131000    1.2317137   -5.8605019    63.879981   0.04063612   0.04479334            8 
  132000    1.2586222   -5.8561896    64.335699  0.040615972  0.044791612            3 
  133000     1.220653   -5.8615288    64.975125  0.040711231  0.044794646            2 
  134000    1.2482702   -5.8654819    65.590478  0.040790098  0.044799979            3 
  135000    1.2279755   -5.8601884    66.479724  0.041036867  0.044805157            3 
  136000    1.2173529   -5.8716731    66.737322  0.040892966  0.044814383            3 
  137000    1.2258391     -5.86697     67.45956  0.041033796  0.044826436            3 
  138000    1.2068288   -5.8925046    67.948913  0.041031952  0.044834356            2 
  139000    1.2200841   -5.8426791     68.49335  0.041063159   0.04484055            2 
  140000    1.2209543   -5.8508019    68.984178  0.041062011  0.044846455            4 
  141000    1.2434834   -5.8672251    69.378844  0.041004045  0.044848896            3 
  142000     1.250783   -5.8525042     69.84477  0.040988715   0.04484595            2 
  143000    1.2444355   -5.8994562     70.33563  0.040988129  0.044840803            2 
  144000    1.2196377   -5.8698595    70.497031  0.040796893  0.044832176            2 
  145000    1.2110158   -5.9035219    70.690671  0.040626822  0.044814347            3 
  146000     1.247092   -5.8554415     71.45252  0.040783401  0.044797816            5 
  147000    1.2219365   -5.8675325    72.035288  0.040836331   0.04478103            4 
  148000    1.2401545   -5.8912755    72.545899  0.040847916  0.044764805            5 
  149000    1.2127602   -5.9000072     72.98399  0.040818786  0.044752441            8 
  150000    1.2271646   -5.8885704    73.625819  0.040903233  0.044738712            2 
  151000    1.2003729   -5.8195052    74.337702  0.041025222  0.044725431            5 
  152000    1.2329362   -5.8866473    74.299711  0.040734491   0.04471401            1 
  153000    1.2603539   -5.8968742    75.569329  0.041159765  0.044706864            3 
  154000    1.2439809   -5.8695704    76.267364  0.041270219  0.044707676            6 
  155000    1.2383296   -5.9407167    76.980774  0.041387513  0.044712509            3 
  156000    1.2152098    -5.879064     77.38807  0.041339781  0.044716987            5 
  157000    1.2398989   -5.8874649    77.895256  0.041345677   0.04472059            3 
  158000    1.2063173   -5.9020087    78.416807  0.041359075  0.044721283            2 
  159000    1.2470935   -5.8958119    78.617118   0.04120394  0.044716922            3 
  160000    1.2230753   -5.8699386    79.183537  0.041241425  0.044710076            4 
  161000    1.2323027   -5.8870785    79.734324  0.041270354  0.044704045            2 
  162000    1.2287941   -5.8642459    80.221632  0.041266272  0.044697695            2 
  163000     1.233077   -5.8546469    81.118289  0.041471518  0.044696216            6 
  164000    1.2083143   -5.8709098    81.392936  0.041358199  0.044697174            5 
  165000    1.2310855   -5.8863571    81.734835   0.04128022  0.044690931            3 
  166000    1.2457095   -5.8620556    82.283877  0.041307167  0.044682908            2 
  167000    1.2207421   -5.9243816    82.344872  0.041090255  0.044673109            4 
  168000      1.25846   -5.8892548    82.962368  0.041151968  0.044655046            2 
  169000    1.2228643   -5.8825685    83.134459  0.040993323  0.044638521            3 
  170000    1.2253679    -5.861891    83.667969   0.04101371  0.044619266            6 
  171000    1.2186865   -5.9011351    84.177225  0.041022039  0.044602329            5 
  172000    1.1973448   -5.9212843    84.840155  0.041104726  0.044586307            4 
  173000    1.2214855   -5.9280606    85.345019  0.041110317  0.044569775            5 
  174000    1.2170194   -5.9077845    86.066593  0.041219633  0.044554917            4 
  175000    1.2140613   -5.9173303    86.214339  0.041054447  0.044539315            1 
  176000    1.2127814   -5.9153066    86.686959  0.041044961  0.044523908            2 
  177000    1.2444317   -5.8421561    87.389151  0.041143668  0.044507992            2 
  178000    1.2440101    -5.868974    87.807645  0.041108448  0.044488675            4 
  179000    1.2420309   -5.8775756    87.913613  0.040928125  0.044466387            2 
  180000    1.2040432   -5.8909654    88.267882   0.04086476  0.044442058            3 
  181000    1.2356608   -5.8801809    88.868714  0.040915614  0.044417822           10 
  182000    1.2196426   -5.9116077     89.29093  0.040884125  0.044392572            3 
  183000    1.2153028   -5.8956826    89.861048  0.040920331   0.04436777            7 
  184000    1.2283024   -5.9035178    90.719261  0.041086622  0.044344053            3 
  185000     1.268233   -5.8839716    90.909237  0.040950107  0.044322728            3 
  186000    1.2417866   -5.8827953    91.585117  0.041032758  0.044301583            6 
  187000    1.2093503   -5.8966859    91.851151  0.040931885   0.04428135            3 
  188000    1.2110898   -5.8781894     92.40538  0.040959832  0.044259057            3 
  189000    1.2387124   -5.8902656    93.109144  0.041053414  0.044237797            3 
  190000    1.1851627   -5.9025664    93.175778  0.040866569  0.044216008            3 
  191000    1.2362995   -5.9028121    93.915394  0.040975303  0.044195645            6 
  192000     1.217728   -5.8770763    94.735715  0.041117932  0.044178004            2 
  193000    1.2086061    -5.861816    95.580865  0.041269804  0.044164168            2 
  194000    1.2358867   -5.8893366    96.037423  0.041253189  0.044152625            2 
  195000    1.2171264   -5.9193835    96.545761  0.041258872  0.044142592            3 
  196000    1.2046959   -5.8550365    97.394708  0.041409314  0.044133046            3 
  197000    1.2211111   -5.8897429    97.729677  0.041340811  0.044122423            4 
  198000    1.2192394   -5.8819117    98.451737  0.041435916  0.044115234            4 
  199000    1.2057433   -5.8871064    99.374953  0.041614302  0.044111239            5 
  200000    1.2027261   -5.8688525    99.628151  0.041511729  0.044109446            4 
  201000    1.2095389   -5.8953374     100.0775  0.041491501  0.044107164           15 
  202000    1.2087216   -5.8846708    100.68287  0.041535839  0.044103273            3 
  203000    1.2637982   -5.9110211    101.06623  0.041488599  0.044100292           10 
  204000    1.2004005   -5.9285325    101.73202  0.041557196  0.044096579            2 
  205000    1.2003904   -5.8665751    102.34969  0.041605565  0.044094713            3 
  206000    1.2047931   -5.8780313    103.05553  0.041689131  0.044095119            3 
  207000     1.222865   -5.8411084    103.55157  0.041687426  0.044096445            4 
  208000    1.2281427   -5.9089964    104.40371   0.04182841  0.044097418            2 
  209000    1.2237103   -5.9152054    104.61423  0.041712212  0.044096686            2 
  210000      1.20794   -5.9276925    104.94363  0.041644298  0.044096017            4 
  211000    1.2211303   -5.8982069    105.56788  0.041693475  0.044094398            4 
  212000    1.2463262   -5.8897014    106.43174  0.041836376  0.044095992            5 
  213000    1.2176758   -5.8889004    107.34693  0.041998017  0.044100208            2 
  214000     1.202427   -5.8777305    107.48963  0.041857332  0.044103972            3 
  215000    1.2243777   -5.8937031    108.48348   0.04204786  0.044108543            3 
  216000    1.2244277   -5.9036645    108.71177  0.041941268  0.044113746            3 
  217000    1.2384493    -5.919564    108.90395  0.041821794  0.044117267            3 
  218000    1.2035987   -5.8530807    109.54334  0.041874367  0.044117321            3 
  219000    1.2132749   -5.8954504    110.04494  0.041874027  0.044114965            3 
  220000    1.2354848   -5.8425088    110.47736  0.041847484  0.044112558            3 
  221000     1.209405   -5.9221115    110.51736  0.041673213  0.044110637            3 
  222000      1.21675    -5.935878    110.87805   0.04162089  0.044105812            4 
  223000    1.2027307   -5.9142181    111.86297  0.041802307  0.044101832            3 
  224000    1.2032559    -5.918019    112.12211  0.041712096   0.04409862            6 
  225000    1.2335486   -5.8873816    113.05097   0.04187073  0.044096962            3 
  226000    1.2428436   -5.9098092    113.41978  0.041821453  0.044095947            3 
  227000    1.2195977   -5.9100466    114.57348   0.04206075  0.044098292            6 
  228000    1.2102262    -5.904604    114.78599  0.041953943  0.044100882            4 
  229000    1.1912239   -5.8849179    115.62726  0.042076877  0.044104246            4 
  230000    1.2116451   -5.9074981    116.25252  0.042120479  0.044108175            3 
  231000     1.203341   -5.8863701    116.65997  0.042085126  0.044112544            2 
  232000    1.2268592   -5.9147685    117.25296  0.042116724  0.044117971            7 
  233000    1.2165941   -5.8582851    118.12568  0.042248096  0.044121522            4 
  234000    1.2273764   -5.8908442    118.01957  0.042029763  0.044124068            3 
  235000    1.2118097   -5.9134502    118.91454  0.042168277  0.044126081            3 
  236000    1.2090782   -5.9186411    118.83186  0.041960401  0.044126851            5 
  237000    1.2268624   -5.8961767    120.04973  0.042211578   0.04412869            1 
  238000     1.189439   -5.8544528     120.7394  0.042275701  0.044131845            4 
  239000    1.2390653   -5.9143799    120.74444  0.042100573  0.044135087            3 
  240000    1.1996562   -5.8532229    121.85693  0.042311435   0.04413963            2 
  241000    1.2151397   -5.9064875    122.02575  0.042194242  0.044143886            3 
  242000    1.1950422   -5.8837032    122.87566  0.042312554  0.044147484            3 
  243000    1.1875444   -5.8999542    123.23523  0.042261739  0.044150671            4 
  244000    1.1953515   -5.8853724    123.67279  0.042237975  0.044153665            5 
  245000    1.2099965   -5.9204023    123.46915  0.041996311  0.044154598            4 
  246000      1.21316   -5.9303893    124.39876  0.042140501  0.044154987            3 
  247000    1.1936633   -5.8958959    125.01447  0.042177622   0.04415461            2 
  248000    1.2228967   -5.9490345    124.69084  0.041898803  0.044153858            5 
  249000    1.2138339   -5.9324895     125.9498  0.042151875  0.044153218            6 
  250000    1.2037524   -5.8973539    126.14649  0.042048829  0.044151579            3 
  251000    1.2014627   -5.9067272    126.62527  0.042040261  0.044149218            4 
  252000    1.1943225   -5.9062283     127.0724  0.042021295   0.04414603            3 
  253000    1.2059034   -5.8833529    127.48363  0.041990655  0.044141624            5 
  254000    1.2089765   -5.8982312    128.35979  0.042112792  0.044136144            4 
  255000    1.2461575    -5.911155    128.02205   0.04183727   0.04413065            4 
  256000    1.2140174   -5.9078032    128.42687  0.041805623  0.044121761            3 
  257000    1.1847098   -5.8605665     129.4427  0.041972341  0.044113329            4 
  258000    1.2007356   -5.9190499     129.5131  0.041832395  0.044106328            3 
  259000    1.1882371   -5.9340969    130.60969   0.04202371   0.04410067            3 
  260000    1.2178844   -5.8702285    131.15742  0.042037635  0.044096591            2 
  261000    1.2162336   -5.9096478    131.94913  0.042129351  0.044093397            2 
  262000    1.2093231   -5.9180445    131.98918  0.041981292  0.044089049            3 
  263000    1.1924316   -5.9068767    132.63279  0.042025599  0.044085568            3 
  264000    1.2144751   -5.9094211    133.31391  0.042081411  0.044082011            4 
  265000    1.1932805   -5.9160335    133.84723  0.042090322  0.044078228            2 
  266000    1.2229062   -5.8785326    134.54052  0.042149287  0.044074141            1 
  267000    1.2070223   -5.9083072    134.95251   0.04212001  0.044070962            3 
  268000    1.2112441   -5.9239882    135.03394  0.041988166  0.044064372            6 
  269000    1.2172089   -5.9173786    135.94252  0.042113543  0.044059997            5 
  270000    1.2310979   -5.8890346    136.86651  0.042242749  0.044056624            2 
  271000     1.196732   -5.9428159    136.76634  0.042056071  0.044053656            2 
  272000    1.2218129   -5.9138168    137.06682  0.041993512  0.044049529            3 
  273000    1.1975401   -5.8923095    137.87795  0.042087287  0.044045784            3 
  274000      1.22991   -5.9016278     138.1998   0.04203157   0.04404142            3 
  275000    1.1940353   -5.9342894    139.11304  0.042155467  0.044037645            3 
  276000    1.2340773    -5.922515    140.22314  0.042337904  0.044037141            3 
  277000    1.2058448   -5.8816182    140.58215  0.042293066  0.044037964            1 
  278000    1.1948966   -5.9245891    140.84731  0.042220416   0.04403941            3 
  279000    1.1929211   -5.9015528      141.479  0.042257765  0.044038687            3 
  280000    1.1849547   -5.9025872    141.85969  0.042220145  0.044036737            3 
  281000    1.2166702   -5.9144996    142.28923  0.042197279  0.044033398            3 
  282000    1.2078511   -5.8655952    143.36084  0.042364313  0.044033429            1 
  283000    1.2241058   -5.9012869    143.43612  0.042236786  0.044031719            2 
  284000    1.2156651   -5.8986282    143.50062  0.042106988  0.044028133            2 
  285000    1.2000444   -5.9312392     143.9566  0.042092573  0.044024543            3 
  286000    1.2168156   -5.9090998    145.28033  0.042331097  0.044023653            2 
  287000    1.2401043   -5.9051991    145.93322  0.042373178  0.044024066            4 
  288000    1.2270947   -5.9189812     145.8906  0.042213715   0.04402532            4 
  289000    1.2072617   -5.9013062      146.199  0.042156574   0.04402371            2 
  290000    1.2264936   -5.9137721    146.75694  0.042171533   0.04402082            3 
  291000    1.2127334   -5.9152549    147.34117  0.042193919    0.0440167            2 
  292000    1.2017672   -5.8589085    148.05347  0.042252703  0.044012964            8 
  293000    1.2008992   -5.9038185    147.56043  0.041968267  0.044008506            3 
  294000    1.2109074   -5.9033869     148.3666  0.042054026  0.044001568            3 
  295000    1.1998153   -5.9337631    148.67813  0.041999472   0.04399542            6 
  296000    1.2192832   -5.9448055    149.35386  0.042047821  0.043989224            4 
  297000    1.2143536   -5.8906065    149.78904  0.042028351  0.043983951            3 
  298000    1.2080967   -5.9034329    150.67472   0.04213499  0.043977143            2 
  299000    1.2081345   -5.9198219    150.33567  0.041899575  0.043968937            6 
  300000    1.2080135   -5.9200345    150.66749  0.041852079   0.04395933           10 
  301000    1.1973091   -5.8723506    150.99242  0.041802995  0.043949454            3 
  302000    1.1600532   -5.9093421    151.66351  0.041849753  0.043939326            3 
  303000    1.2000618    -5.944304    152.07247  0.041824112  0.043928816            2 
  304000    1.2009255   -5.8787142    152.82809  0.041893665  0.043919346            2 
  305000    1.1904851   -5.8885357    152.96832  0.041794622  0.043908716            3 
  306000     1.196119   -5.9290208    153.58023  0.041824683  0.043897828            3 
  307000    1.2069646   -5.8867829    154.53296  0.041947058  0.043888026            3 
  308000    1.2275127   -5.8999073    154.55943  0.041818029  0.043877292            6 
  309000    1.2141166   -5.8760646    155.71546   0.04199446  0.043867029            3 
  310000    1.1974548   -5.9262102    155.56268  0.041817924  0.043856153            4 
  311000    1.1795266   -5.9373742    155.62339  0.041699729  0.043845312            3 
  312000    1.2063794   -5.9601383    155.83514  0.041622632  0.043833051            4 
  313000      1.20599   -5.9296039    156.64915  0.041706377  0.043819585            3 
  314000    1.1971607   -5.8747314    156.99453  0.041665216  0.043805974            3 
  315000    1.1858628   -5.8947632    157.91367  0.041776102   0.04379275            3 
  316000    1.2033632   -5.9216365    158.08236  0.041688386  0.043780031            5 
  317000    1.2178807   -5.9305071    158.73592  0.041728687  0.043767514            2 
  318000    1.1989819   -5.9577453    159.23698  0.041728769   0.04375536            2 
  319000    1.2010317   -5.9028249     159.5945  0.041691353  0.043743805            2 
  320000    1.2193548   -5.8682493    159.97834  0.041661027  0.043731301            3 
  321000    1.2182965   -5.9459247    160.45352  0.041654599  0.043718553            3 
  322000    1.1886381   -5.9043236    160.73262   0.04159747   0.04370583            4 
  323000    1.1895936   -5.8715704    161.73293  0.041726763  0.043693697            5 
  324000    1.1969477   -5.9629528    161.83576  0.041624423  0.043680787            6 
  325000    1.1950522   -5.9768736    162.19426   0.04158827  0.043666225            5 
  326000    1.2051522   -5.8889024    162.85861  0.041630525   0.04365251            3 
  327000    1.2112975   -5.8842672    162.93616  0.041522976  0.043639202            4 
  328000    1.1772539   -5.8999869    163.71718  0.041594812  0.043625365            3 
  329000    1.1902012   -5.8902562    164.43951  0.041651344  0.043612054            4 
  330000    1.1979527   -5.9577438    164.37852  0.041509727  0.043598973            4 
  331000    1.1964854   -5.9521713    164.48159   0.04141027    0.0435844            3 
  332000    1.1770398   -5.9381984     165.1828  0.041461547  0.043569897            3 
  333000    1.1935437    -5.933246     166.3674  0.041633484  0.043556031            4 
  334000     1.219636   -5.9599605    165.84802  0.041379247  0.043541917            9 
  335000      1.22486   -5.9194695    166.99102  0.041540055  0.043526933            4 
  336000    1.1966325   -5.8915842    167.28561  0.041489487  0.043511503            4 
  337000    1.1671169   -5.8996099    168.35591  0.041631037  0.043497507            7 
  338000    1.2138757   -5.9068451     168.7052  0.041593985  0.043484403            5 
  339000    1.2041825   -5.9324996    169.07427  0.041562013   0.04347089            3 
  340000    1.2184025   -5.9561727       169.66  0.041583334  0.043457553            3 
  341000    1.2263141   -5.9561095    169.94645  0.041531391  0.043445314            4 
  342000    1.2044163   -5.9355733    170.43174  0.041528201  0.043432344            4 
  343000     1.171523   -5.9426931    170.32466  0.041381112  0.043419781            3 
  344000    1.2194672   -5.9160419    170.55473  0.041316552  0.043406327            2 
  345000     1.199324   -5.9275044    171.53644  0.041433924  0.043391689            4 
  346000    1.2247239   -5.9555989     171.6802  0.041348795  0.043377616            4 
  347000    1.1989278   -5.9232042    172.64605  0.041461587  0.043363831            2 
  348000    1.1969652   -5.8998513    172.76359  0.041370591  0.043349907            2 
  349000    1.1995186   -5.9405291     173.3378  0.041389159  0.043335775            3 
  350000    1.1968117   -5.9200969    173.42894  0.041292605  0.043321493            5 
  351000    1.2041415   -5.9418581    174.10085  0.041334484   0.04330768            2 
  352000    1.2173374   -5.9217569    175.09193  0.041451688  0.043292784            4 
  353000    1.2159724   -5.9275752    175.20796  0.041361652  0.043278886            5 
  354000    1.1870687   -5.9127684    175.63405  0.041345116  0.043264922            3 
  355000    1.1915779   -5.9300099    175.94436  0.041301494  0.043249997            4 
  356000    1.2139951   -5.9675286    176.27901  0.041263814  0.043235214            3 
  357000    1.1866587   -5.9003809    176.98209  0.041312345  0.043220964            3 
  358000     1.199746     -5.91114    177.53772  0.041326285  0.043207417            3 
  359000    1.1702401   -5.9555576    178.30231  0.041388651   0.04319311            5 
  360000    1.1917738   -5.9205091    178.64058  0.041351987  0.043179237            2 
  361000    1.2160647   -5.9327133    178.14069  0.041122043  0.043165164            2 
  362000    1.1696775   -5.9276303     179.4934  0.041319844  0.043150686            4 
  363000    1.2180831   -5.9316936    179.82897   0.04128305  0.043136506            4 
  364000    1.1818214   -5.9325911    180.47516  0.041317573  0.043123164            4 
  365000    1.1851362   -5.9477533    181.18636  0.041366749  0.043110077            2 
  366000    1.1915404   -5.9092961    181.90479  0.041417302  0.043098021            5 
  367000    1.1909106    -5.948506    181.83298  0.041288143  0.043084518            2 
  368000    1.1926057   -5.9239508    182.39377  0.041302937  0.043071834            4 
  369000    1.1792076   -5.9290629    183.37681  0.041413011  0.043059241            2 
  370000    1.2132827   -5.9091665    183.31307  0.041286728  0.043046716            6 
  371000    1.1925507   -5.9411811    184.54005  0.041451045  0.043034322            3 
  372000    1.1967664   -5.9177968    184.97178  0.041436332  0.043022794            3 
  373000    1.2054074   -5.9267281    184.76474  0.041278986  0.043010363            3 
  374000    1.2088814   -5.9458761    185.38166  0.041306074  0.042996712            5 
  375000    1.1840224   -5.9200038    185.68727  0.041263838  0.042983218            6 
  376000    1.1733065   -5.9591421    185.40359  0.041091222   0.04296925            4 
  377000    1.2003092   -5.9332758    186.27283  0.041174365  0.042955652            5 
  378000    1.2036319   -5.8945917    186.67099  0.041153217  0.042941296            4 
  379000    1.1897694   -5.8817558    187.18229  0.041157056   0.04292709            2 
  380000    1.1657012   -5.9913052    187.07116  0.041024378   0.04291099            5 
  381000    1.1849033   -5.9313676    187.83002  0.041082681  0.042895275            2 
  382000    1.2129228   -5.9509726    188.16886  0.041049053  0.042879432            4 
  383000    1.2058816   -5.9573639    187.34561  0.040762753  0.042862659            5 
  384000    1.1866346    -5.945147    188.40903  0.040887376  0.042844826            2 
  385000    1.1831602   -5.9612791     189.2034  0.040953116  0.042828199            4 
  386000    1.1719757   -5.9966674     189.1791  0.040841775  0.042810993            5 
  387000    1.1903186   -5.9454061    190.20166  0.040956429  0.042793877            4 
  388000     1.163041    -5.945449    191.37122  0.041102066   0.04277797            3 
  389000    1.2125851   -5.9562233    191.64617  0.041055306  0.042763289            3 
  390000    1.1696722   -5.9149047    192.63407  0.041161126  0.042749077            9 
  391000    1.1838003   -5.9624549    192.25026  0.040974054  0.042734292            3 
  392000    1.1779461   -5.9384772    192.90718   0.04100918   0.04271994            2 
  393000    1.1708888   -5.9438895    194.29843  0.041199837  0.042707029            3 
  394000    1.1705126   -5.9392979    194.55095  0.041148679  0.042695679            3 
  395000     1.174434    -5.948896    195.50177  0.041245099  0.042684421            3 
  396000    1.2070033   -5.9033297    196.06506  0.041259483  0.042674178            4 
  397000    1.1946562    -5.966311    196.53256  0.041253685  0.042664247            3 
  398000    1.1708833   -5.9318413    197.24389  0.041298973  0.042653484            5 
  399000    1.1964939   -5.9388943    197.75589  0.041302401   0.04264335           10 
  400000    1.2016631   -5.9448734    198.00907  0.041251889  0.042634046            3 
  401000    1.1712384   -5.9554994    198.33184  0.041216092  0.042624883            6 
  402000    1.1758287   -5.9665735     198.8015  0.041210924  0.042615112            4 
  403000    1.1793099   -5.9371794     199.6304  0.041280067  0.042604905            4 
  404000    1.1753701   -5.8847471    199.55298  0.041161918   0.04259457            2 
  405000    1.1941176   -5.9318402    200.56506  0.041268531  0.042584118            2 
  406000    1.1750181   -5.9543138    200.80833  0.041216816   0.04257389            3 
  407000    1.1767008   -5.9558893    201.51066  0.041259348  0.042563971            3 
  408000    1.1932703   -5.9544246     200.8816  0.041029738  0.042553843            5 
  409000    1.1694561   -5.9308411    202.20921   0.04119992  0.042543208            2 
  410000    1.1786658   -5.9409211    202.65989  0.041191035  0.042532776            2 
  411000    1.1736039   -5.9095256    203.48219  0.041257541  0.042522792            1 
  412000    1.1865329   -5.9424997     203.4251  0.041145854  0.042513146            3 
  413000    1.1856751   -5.9668022    203.31071  0.041023145  0.042503278            5 
  414000    1.1988141   -5.9543441    203.91447  0.041045586  0.042492693            3 
  415000    1.1742017   -5.9373552    204.77537  0.041119553  0.042483149            1 
  416000    1.1865228   -5.9379575    204.22285  0.040910026  0.042472539            3 
  417000    1.1762322   -5.9311274     205.9362  0.041154316  0.042461648            2 
  418000    1.1672214   -5.9297508    206.16296  0.041101068  0.042451464            3 
  419000    1.1648656   -5.9161143    206.89877  0.041149319  0.042441775            9 
  420000    1.2078155   -5.9444445      207.656  0.041201587  0.042432538            3 
  421000    1.2074368   -5.9406011    208.11683  0.041194938   0.04242324            3 
  422000    1.1851208   -5.9461373    208.74138  0.041220652   0.04241418            3 
  423000    1.1743912   -5.9596648    207.78574  0.040934937  0.042403363            4 
  424000    1.1747146   -5.9494387    208.73009  0.041023996  0.042392882            3 
  425000    1.1878665   -5.9349811     208.9764  0.040975764  0.042381928            3 
  426000    1.1761718   -5.9355301    210.02736  0.041085165  0.042371543            4 
  427000    1.1917322   -5.9665099    209.86103  0.040956485  0.042360292            7 
  428000    1.1758955   -5.9566172    210.30177  0.040946606  0.042349302            2 
  429000    1.1706204   -5.9603842    211.05956   0.04099836  0.042338945            6 
  430000    1.1797924   -5.9478365    211.59206  0.041006212  0.042328834            4 
  431000    1.1661264   -5.9447973    211.84745   0.04096045  0.042319512            4 
  432000    1.2018472   -5.9516897    212.92032  0.041072592  0.042309239            4 
  433000     1.196307   -5.9402938    213.14653  0.041021273  0.042299852            3 
  434000    1.1864924   -5.9510804    213.90421  0.041072236  0.042290542            8 
  435000    1.1969261   -5.9579552    214.76136  0.041142023  0.042282244            3 
  436000    1.1718136   -5.9594094    214.31057  0.040961501  0.042272275            3 
  437000    1.1936296   -5.9578297    215.11703  0.041021554  0.042262988            7 
  438000    1.1690693   -5.9353982    215.22538  0.040948512  0.042253446            3 
  439000    1.1614899   -5.9576144    216.51004  0.041099096  0.042245186            4 
  440000    1.1813181   -5.9564192    217.01121  0.041100608  0.042237402            3 
  441000    1.2017122    -5.945116    218.09424  0.041212064  0.042229827            7 
  442000    1.1711044    -5.975465    216.84289  0.040882898   0.04222222            3 
  443000    1.1919749   -5.9744014    218.71411  0.041142609  0.042214197            5 
  444000    1.1737803   -5.9571862    219.80895  0.041255433  0.042207728            2 
  445000    1.1644622   -5.9755014    219.20146  0.041048962  0.042202017            3 
  446000    1.1764829   -5.9253204    219.97688  0.041101809  0.042195738            4 
  447000    1.1495538   -5.9555195    221.14866   0.04122831  0.042189248            2 
  448000     1.191969   -5.9388308    220.87705  0.041085761  0.042182798            4 
  449000    1.1665866   -5.9758061     221.8888  0.041182034  0.042176953            3 
  450000    1.1600614   -5.9725773    222.24791   0.04115702  0.042170385            7 
  451000    1.2011314   -5.9471837    223.54727  0.041305851  0.042163681            3 
  452000    1.1944686   -5.9469249    223.66318  0.041235837  0.042158048            2 
  453000    1.1609706   -5.9486991    224.00516  0.041207718  0.042152701            2 
  454000    1.1977762   -5.9644538    225.75662  0.041438439  0.042147235            6 
  455000    1.1830129   -5.9486307    225.10549  0.041228112  0.042141315            4 
  456000    1.1725431   -5.9623142    225.35433  0.041183174  0.042135516            2 
  457000    1.1662265   -5.9586068    225.89303  0.041191288  0.042129151           11 
  458000    1.1916626   -5.9515431    226.00097  0.041120991    0.0421233            3 
  459000    1.1685597   -5.9945683    226.29539  0.041084857  0.042117356            3 
  460000    1.1798931   -5.9372205    226.40913  0.041016147  0.042110955            4 
  461000    1.1784041   -5.9499427    227.31871  0.041091596   0.04210453            4 
  462000    1.1972719    -5.908868    228.71758  0.041254975  0.042098192            3 
  463000    1.1826927   -5.9807531    228.11196  0.041056868  0.042091354            7 
  464000     1.172146   -5.9768039    228.52301  0.041042206  0.042084998            2 
  465000    1.1638579   -5.9230061    230.52691  0.041313067  0.042079675            4 
  466000    1.1698451   -5.9302165    229.88886   0.04111031  0.042073636            4 
  467000    1.1834182   -5.9281218    230.13325   0.04106589  0.042067183            5 
  468000    1.1845184   -5.9671323    230.76202  0.041090104  0.042060536            8 
  469000    1.1953966   -5.9748365    230.89926  0.041026875  0.042053352            4 
  470000    1.1969724   -5.9906827    230.88766  0.040937529  0.042046386            4 
  471000    1.1745179   -5.9511573    232.16357  0.041076357  0.042039471            3 
  472000    1.1917327   -5.9696974    232.18798  0.040993641  0.042032639            3 
  473000    1.1759503   -6.0116901    231.41396  0.040770606  0.042025109            7 
  474000    1.1701074   -5.9592453    233.52523  0.041055773  0.042017981            3 
  475000    1.1859939   -5.9419143    234.24599  0.041095788  0.042011011            3 
  476000    1.1701055   -5.9417477    235.07683  0.041154907  0.042004527            3 
  477000    1.1733139   -5.9327698    235.09063   0.04107104  0.041998054            3 
  478000    1.1562852   -5.9760975    235.17014  0.040998978  0.041990611            2 
  479000    1.1908955   -5.9402412    236.24997  0.041101248   0.04198408            4 
  480000    1.1868337   -5.9251492    236.36222  0.041035108  0.041978025            3 
  481000    1.1532977   -5.9781957    237.51103  0.041148827  0.041971594            3 
  482000    1.1629115   -5.9804004    237.60472  0.041079654  0.041964977            7 
  483000    1.1814081    -5.923069    238.55874  0.041159203  0.041959416            4 
  484000    1.1642545   -5.9754483    238.58597  0.041078852  0.041953179            2 
  485000    1.1764379    -5.987993    239.16908  0.041094343  0.041947433            3 
  486000    1.1519828   -5.9295049    239.24767  0.041023263  0.041941004            4 
  487000    1.1546052   -5.9839738    239.95881  0.041060714  0.041934632            3 
  488000    1.1598429   -5.9645689    240.49125  0.041067495   0.04192819            7 
  489000    1.1806809   -5.9787505     241.4916  0.041153988  0.041923361            3 
  490000     1.166601   -5.9379183    241.58078  0.041085166  0.041918299            3 
  491000    1.1771809   -5.9756182    241.16305  0.040930593  0.041912789            3 
  492000    1.1741986   -5.9934471    242.00992   0.04099084  0.041907406            3 
  493000    1.1617769   -5.9300975    243.31506  0.041128307  0.041901979            2 
  494000    1.1875446    -5.944864    242.34367  0.040881185  0.041896229            3 
  495000    1.1490552   -5.9642408    243.40361  0.040977038  0.041889828            2 
  496000    1.1761995   -5.9926677    242.74823  0.040784313  0.041882849            4 
  497000    1.1684089   -6.0146317    243.80469  0.040879391  0.041876051            5 
  498000    1.1629346   -5.9923698    243.90369   0.04081387  0.041868665            4 
  499000    1.1719308   -5.9839123    244.64422  0.040855747  0.041861417            4 
  500000    1.1640459   -6.0011041     245.2254    0.0408709  0.041853607            2 
  501000    1.1810439   -5.9170091    246.43451  0.040990437  0.041846233            2 
  502000    1.1799043   -5.9775633    246.34266  0.040893537  0.041839347            4 
  503000    1.1635589   -5.9809635    247.27602  0.040966869  0.041832933            2 
  504000    1.1713858   -5.9484309     247.9575  0.040998264  0.041826497           14 
  505000    1.1741987   -5.9800746    247.90822  0.040908948  0.041820052            2 
  506000    1.1675761   -5.9361163    248.83133  0.040980127  0.041813779            2 
  507000    1.1712749   -5.9693116    248.85925  0.040903888  0.041807239            4 
  508000    1.1541794   -5.9653523    250.18314  0.041040541   0.04179999            2 
  509000    1.1772006   -5.9822615    249.79712  0.040896712  0.041793504            3 
  510000    1.1471118   -5.9802385    250.07438  0.040861827  0.041787161            4 
  511000    1.1599845   -5.9918056    251.22275  0.040969138  0.041780724            4 
  512000    1.1620278    -5.967045    251.31805   0.04090463  0.041774617            4 
  513000    1.1603899   -5.9780047     252.2186  0.040971183   0.04176841            3 
  514000    1.1670561   -5.9861801    251.44536  0.040766108  0.041761658            2 
  515000    1.1477269   -5.9848207    252.84827   0.04091396  0.041755019            3 
  516000    1.1687445   -5.9252485    253.72356  0.040976027  0.041749315           10 
  517000     1.174452   -5.9831617    254.52342  0.041025697  0.041743428            2 
  518000    1.1781648    -6.003075    253.76218  0.040824031  0.041736834            5 
  519000    1.1317302   -5.9601171    255.26256  0.040986281   0.04173113            8 
  520000    1.1525343   -5.9940613    255.54541   0.04095279  0.041725486            3 
  521000    1.1955496   -5.9727733    255.70247  0.040899308  0.041720074            5 
  522000    1.1635247   -5.9519737     256.7859  0.040993918  0.041715437            8 
  523000    1.1845822   -5.9797085    257.12057  0.040968861  0.041710338            7 
  524000    1.1762554    -6.030172    257.50283  0.040951468  0.041704538            6 
  525000    1.1398183   -5.9617688    259.38189  0.041171729  0.041700262            3 
  526000    1.1623603    -6.025663    258.94192  0.041023751  0.041696296            5 
  527000    1.1462738   -5.9933027    259.28112  0.040999545  0.041692359            6 
  528000    1.1613576   -5.9752606    260.01658   0.04103797  0.041688378            4 
  529000    1.1760438   -5.9470623    260.84421   0.04109077  0.041684027            3 
  530000    1.1686067   -5.9744225    260.56472  0.040969296  0.041679873            3 
  531000    1.1817431   -6.0249464    260.09016  0.040817664  0.041675078            6 
  532000    1.1763949   -5.9890751    261.94793  0.041031944   0.04166987            2 
  533000    1.1815726   -5.9713598    261.81004  0.040933402  0.041664025            4 
  534000    1.1816571     -5.97079    261.47191  0.040803981  0.041657888            5 
  535000    1.1744116   -5.9353691    262.61294  0.040905442  0.041651376            3 
  536000    1.1654344   -5.9512411    262.65455  0.040835596  0.041645659            2 
  537000    1.1795772   -6.0012034    262.98178  0.040810333   0.04163901            2 
  538000    1.1503183   -6.0090853    263.14838  0.040760282  0.041632318            4 
  539000    1.1748729   -5.9917641    263.45897  0.040732679  0.041625752            5 
  540000    1.1710502   -5.9805726    263.37369  0.040644087  0.041619045            4 
  541000    1.1851973   -5.9512982    265.15062  0.040842671  0.041612768            2 
  542000    1.1820052   -5.9564363     265.5846  0.040834041  0.041606664            3 
  543000    1.1669853   -5.9452373    266.90294  0.040961163  0.041601667            4 
  544000    1.1733042   -5.9894479    266.25951  0.040787303  0.041596261            3 
  545000    1.1337992   -5.9696614    266.85024  0.040802789  0.041590071            3 
  546000    1.1612605   -5.9983226    267.97964  0.040900433  0.041584394            3 
  547000    1.1707628   -5.9790741     267.7311  0.040787798  0.041579152            7 
  548000    1.1516657   -6.0337519    268.57423   0.04084158  0.041573722            4 
  549000    1.1650942   -5.9671681    270.25414  0.041022182  0.041568642            3 
  550000      1.18011   -5.9548757    270.32392   0.04095817  0.041563885            2 
  551000    1.1528182   -5.9879031     270.0116    0.0408366  0.041558864            5 
  552000    1.1560363   -5.9586764    270.35682  0.040814737  0.041554367            5 
  553000    1.1605691   -5.9662269    271.83799  0.040964134  0.041550334            4 
  554000    1.1859555   -6.0032226    271.68032  0.040866474  0.041546508            3 
  555000    1.1482667   -5.9698941    272.36349  0.040895419  0.041542956            3 
  556000     1.178282   -5.9844104    273.82654  0.041041148  0.041539421            3 
  557000    1.1864935   -5.9924849    274.54482  0.041074928  0.041535455            4 
  558000    1.1335714    -6.002562    273.60604  0.040861118  0.041530698            3 
  559000    1.1873345   -5.9989962    274.05131  0.040854399  0.041525616            3 
  560000    1.1574153   -6.0033958    274.61315  0.040865051  0.041521135            3 
  561000    1.1335802   -5.9875808    274.65391  0.040798264  0.041516039            5 
  562000    1.1567301   -5.9831032    275.97039  0.040920876   0.04151066            5 
  563000    1.1862172     -5.99007    275.82922  0.040827297  0.041505325            5 
  564000    1.1382743    -5.946983    276.28704  0.040822553  0.041500125            4 
  565000    1.1518263    -5.956064    276.30858  0.040753477  0.041494412            6 
  566000    1.1949843   -6.0080505    277.44141  0.040848264  0.041489039            4 
  567000    1.1668949   -5.9552404    277.02531  0.040715066  0.041483174            4 
  568000    1.1577027   -6.0188148    276.83154  0.040614956  0.041476215            5 
  569000    1.1471442    -5.996718     277.5163  0.040643864  0.041469706            4 
  570000    1.1597598   -6.0112138    278.27228  0.040683082  0.041463359            9 
  571000    1.1728203   -5.9521495     279.4581  0.040784896  0.041456621            7 
  572000    1.1524474   -5.9739581    278.99796  0.040646556  0.041450552            2 
  573000    1.1895919   -5.9966624    279.51751  0.040651179  0.041443605            9 
  574000    1.1609752   -5.9908053    281.05493  0.040803562  0.041437344            4 
  575000    1.1478457   -5.9832226     280.7424  0.040687304  0.041431167            3 
  576000    1.1634833   -6.0235732    281.17439  0.040679166  0.041425124            4 
  577000    1.1462875   -6.0087999    282.02107  0.040730946  0.041419194            2 
  578000    1.1601433    -5.972848    281.21711  0.040544566  0.041413055            4 
  579000     1.142815   -5.9833234    282.87744  0.040713505  0.041407454            3 
  580000    1.1601935   -5.9957533    282.33977  0.040566059  0.041401314            4 
  581000    1.1205242   -6.0308542    282.31382  0.040492516  0.041394742            5 
  582000     1.149803   -5.9933386    283.66038  0.040615748  0.041387699            2 
  583000    1.1681324   -5.9847214    284.17046   0.04061899  0.041380988            5 
  584000    1.1712518   -5.9615289    284.16169  0.040548186  0.041374809            3 
  585000    1.1579253   -6.0148699    284.48745  0.040525278  0.041368008            7 
  586000    1.1755831    -6.024945    285.65237  0.040621781  0.041360961            3 
  587000    1.1677415   -6.0110493    285.99527   0.04060126  0.041354606            4 
  588000    1.1399188   -6.0121101    286.63746  0.040623222  0.041348084            4 
  589000     1.163691   -5.9881734    286.81494  0.040579364  0.041342249            6 
  590000    1.1384786   -6.0265747    287.52489   0.04061086  0.041336142            4 
  591000    1.1375511   -6.0086421    287.51441  0.040540667  0.041329907            9 
  592000    1.1512154   -6.0126444    288.06353  0.040549484  0.041324169            3 
  593000    1.1655718   -5.9929131    289.11425  0.040628759  0.041318383            5 
  594000    1.1711663   -5.9937992    289.33786  0.040591731  0.041312206            8 
  595000    1.1569017   -5.9445913    290.84033   0.04073394  0.041306801            3 
  596000    1.1490634   -5.9937137    290.53752  0.040623255  0.041301303            9 
  597000    1.1502385   -5.9947263    291.05452  0.040627376  0.041296239            4 
  598000    1.1618093   -6.0147025    292.50071  0.040760969  0.041291512            5 
  599000    1.1225146    -6.006041    291.90495  0.040610038  0.041286376            9 
  600000    1.1338164   -5.9931529    292.06798  0.040564997  0.041281053            4 
  601000    1.1569278   -6.0225523    293.60824   0.04071107   0.04127556            7 
  602000    1.1565047   -6.0118743    291.54973   0.04035849  0.041269745            3 
  603000     1.146241   -6.0021245    292.57684  0.040433505   0.04126345            5 
  604000     1.138968    -6.011435    292.68532  0.040381529   0.04125682            2 
  605000    1.1530894   -6.0505746    293.06386  0.040366923  0.041249458            4 
  606000    1.1559889    -6.009416    294.75407  0.040532738  0.041241927            3 
  607000    1.1482025   -6.0014534    294.91694  0.040488322  0.041235367            2 
  608000    1.1103192   -5.9532185    294.78307  0.040403382  0.041228305            4 
  609000    1.1813585   -5.9933585    294.54867  0.040304963  0.041221127            3 
  610000    1.1670583   -6.0070198    296.21657  0.040466744  0.041214695            1 
  611000    1.1587181   -5.9668779    296.12748  0.040388363  0.041207897            9 
  612000    1.1842919   -5.9916126    297.26196  0.040476846  0.041201383            7 
  613000    1.1423061   -6.0202726     297.4144  0.040431539  0.041194336            3 
  614000     1.166572   -5.9966575    296.90941  0.040297151  0.041187008            2 
  615000    1.1494586   -6.0080811    298.09411  0.040392155  0.041179409            5 
  616000     1.149456   -5.9887161    298.44447  0.040373982  0.041171984            3 
  617000    1.1563527   -6.0382634    298.63056  0.040333679   0.04116464            2 
  618000    1.1585713   -5.9834064    300.08547    0.0404646  0.041157536            4 
  619000    1.1428026   -5.9967811    299.57117  0.040329991  0.041150193            4 
  620000    1.1879956   -6.0515912    299.91886  0.040311675  0.041142611            4 
  621000    1.1688396   -6.0182341    300.41246  0.040312998  0.041134996            5 
  622000     1.127783    -6.036187    299.95427  0.040186799  0.041126827            4 
  623000    1.1405959   -6.0183614    301.32675  0.040305879  0.041118879            4 
  624000    1.1355248   -5.9762454    300.77329  0.040167372  0.041111068            6 
  625000    1.1667459   -5.9860223    301.87721  0.040250294  0.041103188            4 
  626000    1.1535878   -6.0027009    302.13839  0.040220765  0.041095389            7 
  627000    1.1655888   -6.0019444    303.44319  0.040330035  0.041087617            3 
  628000    1.1635728   -6.0277888    302.16695  0.040096464  0.041079713            7 
  629000    1.1344778   -6.0034671    304.88322  0.040392583  0.041071948            1 
  630000    1.1669016   -5.9739527    304.58591  0.040289142  0.041064513            2 
  631000    1.1482732   -6.0142803    304.80508  0.040254237  0.041056559            3 
  632000    1.1564005   -5.9974581    303.73658  0.040049655  0.041047899            4 
  633000     1.148095   -6.0264097    304.59409  0.040099274  0.041039397            6 
  634000    1.1366401   -5.9857386    304.82052  0.040065788  0.041030444            5 
  635000    1.1590157   -6.0240326    304.57828  0.039970903  0.041020927            6 
  636000    1.1331849   -5.9999951    305.97862  0.040091539  0.041011822            2 
  637000    1.1466483   -6.0014555    305.13017  0.039917605  0.041002282            2 
  638000     1.131219   -6.0150937    306.50819   0.04003503  0.040992769            6 
  639000    1.1562693   -6.0297797    305.53507  0.039845471   0.04098319            7 
  640000    1.1583614   -6.0191435    307.50293  0.040039444  0.040973992            6 
  641000    1.1503897   -6.0003405     307.1578  0.039932111  0.040964816            2 
  642000    1.1438188   -6.0522156    308.59494  0.040056456  0.040955824            5 
  643000    1.1207636   -6.0131118    308.54481  0.039987663   0.04094668            3 
  644000    1.1449418   -6.0315147    308.60123  0.039932872  0.040937419            5 
  645000    1.1291587   -6.0144649    308.87832   0.03990676  0.040927909            2 
  646000    1.1758747   -5.9830745    309.19215  0.039885468  0.040918685            4 
  647000    1.1651685   -5.9681524    310.76189  0.040026003  0.040909359            4 
  648000    1.1503965   -5.9766623    311.08136  0.040005319  0.040900218            4 
  649000    1.1269389    -5.991811     310.4904  0.039867796  0.040891044            4 
  650000    1.1034693   -6.0324128    311.34824  0.039916441  0.040881377            4 
  651000    1.1585783   -5.9862254     311.6168  0.039889503  0.040872075            2 
  652000    1.1354081   -5.9991684    312.22494  0.039906051  0.040862981            3 
  653000    1.1496551    -6.025062    311.30987  0.039728161  0.040853311            6 
  654000    1.1553815   -6.0089175    312.81601  0.039859328  0.040843525           11 
  655000    1.1643292    -6.046776    312.42744  0.039749039  0.040833357            4 
  656000    1.1456215   -5.9962705    313.84127  0.039868048  0.040823286            4 
  657000    1.1453864   -6.0397729     312.6636  0.039657991  0.040813192            2 
  658000    1.1303009   -6.0390151    313.87688  0.039751377  0.040803224            4 
  659000    1.1317243   -6.0080374    312.86427  0.039563009  0.040793483            4 
  660000    1.1335779   -5.9966779    315.65707  0.039855691  0.040783731            7 
  661000    1.1532181   -6.0302191    315.27314  0.039746992  0.040773397            3 
  662000    1.1332822    -5.988888    315.90374  0.039766331  0.040762955            5 
  663000    1.1519328   -5.9883963    315.72437  0.039683807  0.040752476            5 
  664000    1.1533513   -5.9871897    316.25338  0.039690435  0.040742332            4 
  665000    1.1691173   -6.0314806    317.05755  0.039731523   0.04073242            4 
  666000    1.1402032   -6.0318773    317.11601   0.03967918  0.040722888            2 
  667000    1.1672422   -6.0663514    317.24898  0.039636305  0.040713334            4 
  668000    1.1455978   -6.0114035    319.01413  0.039797172  0.040703923            5 
  669000      1.12015   -6.0429679    318.65426  0.039692858  0.040694096            7 
  670000     1.151236   -5.9972137    320.32348  0.039841229  0.040685086            3 
  671000    1.1574178   -6.0037455    319.27049  0.039651079  0.040676145            5 
  672000    1.1397677   -6.0281381    319.72746  0.039648743  0.040666377            6 
  673000    1.1691746   -6.0629261     320.5949  0.039697239  0.040656861            4 
  674000    1.1440548   -6.0313727    320.96297  0.039683849  0.040647008            3 
  675000    1.1629006   -6.0464324    321.10243  0.039642275  0.040637211            8 
  676000    1.1489344   -6.0266871    322.24711  0.039724742   0.04062778            5 
  677000    1.1682669   -6.0104619    322.43475  0.039689161  0.040618291            4 
  678000    1.1167911    -6.006334    323.33371  0.039741115  0.040609075            3 
  679000    1.1398823   -6.0365254    323.03317  0.039645701  0.040599304            5 
  680000    1.1410713   -5.9865839    325.00415   0.03982894  0.040589764            3 
  681000    1.1678083   -6.0366647    323.59123  0.039597556  0.040579893            4 
  682000    1.1490348   -6.0012574    325.10788  0.039724814  0.040570641            3 
  683000    1.1436463   -6.0109282    324.10467  0.039544249  0.040561205            2 
  684000    1.1378599   -6.0234242    326.59703  0.039790087  0.040551877            6 
  685000    1.1389924   -5.9874564    325.85895  0.039642208   0.04054306            3 
  686000    1.1489313   -6.0087038    326.64926  0.039680425  0.040534504            4 
  687000    1.1463264   -6.0352179    327.20018  0.039689493  0.040526152            4 
  688000    1.1403124   -5.9957364    326.94266  0.039600613    0.0405175            5 
  689000    1.1462372   -6.0751926    325.85209  0.039411234  0.040508102            4 
  690000    1.1412683   -6.0234602    327.48428  0.039551242  0.040498175            7 
  691000    1.1639862   -6.0134235    328.99163  0.039675788   0.04048869            3 
  692000    1.1627468   -6.0168948    328.37699  0.039544435  0.040479692            4 
  693000    1.1583201   -6.0371162    330.17375  0.039703433  0.040470949            4 
  694000    1.1406204   -6.0354575    329.80214  0.039601602  0.040462233            2 
  695000     1.141648   -6.0359339    330.68176  0.039650091  0.040454008            3 
  696000    1.1539737   -5.9941499    331.45395  0.039685578  0.040445862            3 
  697000    1.1587075    -6.009317     332.0036  0.039694356  0.040438284            4 
  698000    1.1247612   -6.0183966    332.78286  0.039730523  0.040430333            5 
  699000    1.1465101   -6.0062643    331.73378  0.039548615  0.040421956            5 
  700000    1.1369601    -6.000427    333.45789  0.039697367  0.040413712            3 
  701000    1.1167236   -6.0222216    333.26151  0.039617393  0.040405744            3 
  702000    1.1426362   -6.0789051    333.41195  0.039578817  0.040397646            2 
  703000    1.1536276   -5.9801552    336.99401  0.039947133  0.040390262            2 
  704000    1.1263929     -6.01724    335.86046   0.03975621  0.040383214            7 
  705000    1.1428429   -5.9976366    335.77191  0.039689351  0.040375942            9 
  706000    1.1160132   -6.0415279    335.76809  0.039632683  0.040368313            5 
  707000    1.1439596   -6.0424468    336.42803  0.039654412  0.040360315            8 
  708000    1.1303906   -6.0359859    335.84061  0.039529263  0.040352158            4 
  709000    1.1483065   -6.0161444    336.79539   0.03958573  0.040344248            3 
  710000    1.1140069   -6.0274682    338.65714  0.039748491  0.040336794            4 
  711000    1.1321565   -6.0564234    338.63587  0.039690093  0.040329044            6 
  712000    1.1541772   -5.9939862    338.79198  0.039652619  0.040321257            1 
  713000    1.1084443   -6.0134106    338.86343  0.039605357  0.040313376            4 
  714000    1.1232841   -6.0309241    339.21565  0.039590995    0.0403057            4 
  715000    1.1141348    -6.050136    339.72003  0.039594409  0.040297784            6 
  716000    1.1216119   -6.0241313    340.71713  0.039655159   0.04029006            5 
  717000    1.1158874   -6.0341271    341.09983  0.039644331  0.040282974            3 
  718000    1.1334801   -6.0596941    341.09249  0.039588265  0.040275404            8 
  719000    1.1284096   -6.0266883    341.81764   0.03961725  0.040267732            6 
  720000    1.1393417   -6.0635574     341.9548  0.039578102  0.040260012            3 
  721000    1.1181117   -6.0707014    342.09574  0.039539498  0.040251946            5 
  722000    1.1375812   -6.0208319    343.19373  0.039611465  0.040244278            5 
  723000    1.1414043   -6.0413446    343.45169   0.03958641  0.040236221            3 
  724000    1.1357595   -5.9981472    343.67113   0.03955699  0.040228959            3 
  725000    1.1221174   -6.0195152    343.90001  0.039528737  0.040221233            6 
  726000    1.1598988   -6.0475858    343.99622  0.039485333  0.040213065            4 
  727000    1.1562634   -6.0142613    343.98955  0.039430255  0.040204797            3 
  728000    1.1238068   -6.0305699    345.03642  0.039495927   0.04019641            3 
  729000    1.1212078   -6.0372983    343.63964   0.03928208  0.040188375            3 
  730000    1.1407292   -6.0439275    345.46933  0.039437138   0.04018067            4 
  731000     1.129575   -6.0665024    347.59034  0.039624981  0.040173039            4 
  732000    1.1129722   -6.0375142    347.26229  0.039533502  0.040165295            6 
  733000    1.1434334   -6.0335981    346.78459  0.039425261  0.040157608            3 
  734000    1.1498769   -6.0220345    347.40959  0.039442505  0.040149602            4 
  735000    1.1393184   -6.0167189     347.1367  0.039357902  0.040141648            4 
  736000    1.1190108   -6.0430914    347.98906  0.039400936  0.040134013            5 
  737000    1.1445105   -6.0375481    349.26692  0.039491963  0.040126347            8 
  738000    1.1458745   -6.0172069    350.63724  0.039593184   0.04011904            2 
  739000    1.1355676   -6.0472222    349.64869  0.039428134  0.040111513            5 
  740000    1.1330622   -6.0431966    351.00972  0.039528122  0.040103948            3 
  741000    1.1290201   -6.0644317    351.04947  0.039479247  0.040096399            3 
  742000    1.0864752   -6.0258522    351.73951  0.039503539  0.040088844            3 
  743000    1.1027034   -6.0767066    350.08779  0.039265117  0.040080928            4 
  744000    1.1178873   -6.0413954    350.95399  0.039309363  0.040073119            3 
  745000     1.153446   -6.0405886    352.79374  0.039462387  0.040065324            4 
  746000    1.1303739   -6.0280054    352.07558  0.039329265  0.040057671            4 
  747000    1.1167267   -6.0247263    353.41841  0.039426418   0.04004957            5 
  748000    1.1269709   -6.0558146    352.96729   0.03932345  0.040041515            5 
  749000    1.1260143   -6.0231686    353.69475  0.039351886   0.04003393            4 
  750000    1.1403756   -6.0222396    355.12889  0.039458765  0.040026392            4 
  751000    1.1377246   -6.0527209    353.77788  0.039256311  0.040018321            5 
  752000    1.1269457   -6.0697268    354.13595  0.039243788   0.04000974            4 
  753000    1.1098777   -6.0528136    354.89887  0.039276104  0.040001705            3 
  754000    1.1477745   -6.0512155    355.01678  0.039237044  0.039993279            4 
  755000    1.1322232   -6.0185954    355.47708  0.039235881   0.03998471            4 
  756000    1.1353348   -6.0677471    353.70811  0.038988989  0.039975669            6 
  757000    1.1253619   -6.0484004    355.02894  0.039082886  0.039966302            3 
  758000     1.141283   -6.0109635    355.29797  0.039060903  0.039957044            3 
  759000    1.1292982   -6.0381707     356.7382  0.039167567  0.039948018            4 
  760000    1.1141112   -6.0425644    356.95898  0.039140239  0.039938798            3 
  761000     1.140963   -6.0676565    356.00365  0.038984193  0.039929554            6 
  762000    1.1445439   -6.0709976    357.26418  0.039070886  0.039920273            4 
  763000    1.1439997   -6.0303827    358.11563  0.039112673  0.039911363            3 
  764000    1.1408768   -6.0366489    359.74012  0.039238669    0.0399024            5 
  765000    1.1171935    -6.055314    359.81637  0.039195683  0.039893702            6 
  766000    1.1263757   -6.0569764    359.59038  0.039119928  0.039884448            2 
  767000    1.1291461   -6.0577004    360.17526  0.039132471  0.039875735            5 
  768000    1.1232775   -6.0406307    360.78817  0.039148022  0.039867106            5 
  769000    1.1449819   -6.0358589     361.3553  0.039158572  0.039858826            6 
  770000    1.1318235   -6.0281691    362.19115  0.039198176  0.039851037            3 
  771000    1.1385401   -6.0684646    361.28732  0.039049645  0.039842857            6 
  772000    1.1308883   -6.0410685    361.66181  0.039039487  0.039834558            3 
  773000    1.1329805   -6.0611188    363.00983  0.039134307  0.039826421            3 
  774000    1.1196514   -6.0378365    363.02612    0.0390855  0.039818355            5 
  775000    1.1434528   -6.0271359    365.62905  0.039314951  0.039810532            4 
  776000     1.130146    -6.029903    364.95315  0.039191704  0.039802745            7 
  777000    1.1099219   -6.0269477    364.73559  0.039117931  0.039794732            4 
  778000    1.1132211    -6.062836     366.2405  0.039228845  0.039786779            6 
  779000    1.1427176   -6.0351643    365.81861  0.039133356  0.039778952            6 
  780000    1.0923511   -6.0251581    366.20757  0.039124741  0.039770896            4 
  781000      1.14511   -6.0543025    366.20697  0.039074581  0.039762629            3 
  782000    1.1336644   -6.0392936     368.0343  0.039219341  0.039754783            9 
  783000    1.0971851   -6.0476093     368.7096  0.039241124  0.039747356            3 
  784000    1.1167581   -6.0537176    369.14054  0.039236877  0.039739951            4 
  785000    1.1117939   -6.0480948    368.53717  0.039122842  0.039732257            3 
  786000    1.0953506   -6.0315113    368.89504  0.039111009  0.039724578            5 
  787000    1.1240625    -6.063789    369.01105  0.039073597  0.039717073            2 
  788000    1.1140741   -6.0761988    368.63041  0.038983758  0.039709221            5 
  789000    1.1168654   -6.0126961    370.95789  0.039180174  0.039701526            4 
  790000    1.1235316   -6.0577075    370.28111  0.039059189  0.039693729            4 
  791000    1.1515698   -6.0570822    370.91358  0.039076442    0.0396854            6 
  792000    1.1480468   -6.0535676    371.71718  0.039111656  0.039677091            4 
  793000    1.1150109   -6.0402261    371.13942   0.03900162   0.03966861            7 
  794000    1.1156851   -6.0533174    370.96485  0.038934178  0.039660358            9 
  795000    1.0923622   -6.0331424     371.9858  0.038992222  0.039652169            7 
  796000    1.1235682   -6.0764998    372.83828  0.039032483  0.039643921            7 
  797000    1.1277997   -6.0246699    372.86725  0.038986538  0.039635999            3 
  798000     1.118908   -6.0685832    373.71511  0.039026222   0.03962794            5 
  799000     1.110449   -6.0684603    372.68988  0.038870451  0.039619773            5 
  800000    1.1150843     -6.04991    373.60055  0.038916724  0.039611449            7 
  801000    1.1237217   -6.0699753    375.30197  0.039045149  0.039603381            8 
  802000    1.1101529   -6.0353539    375.10764  0.038976272  0.039595187            3 
  803000    1.1330976   -6.0320828    375.90284  0.039010257  0.039587114            4 
  804000    1.1289204   -6.0245255    375.25648  0.038894743  0.039579153            5 
  805000    1.1086298   -6.0712864     376.5019  0.038975352  0.039570748            3 
  806000    1.1260577   -6.0428386    376.56721  0.038933748  0.039562577            3 
  807000     1.141596   -6.0246287    377.11941  0.038942525   0.03955441            6 
  808000    1.1091359   -6.0404693    378.37653  0.039023982  0.039546343            5 
  809000    1.1086932   -6.0183105    377.81277  0.038917673  0.039538246            3 
  810000    1.1082029    -6.040355    378.89917  0.038981396  0.039530256            8 
  811000    1.1188325   -6.0576804     377.7131  0.038811457  0.039522441            7 
  812000    1.1493808   -6.0618063    379.50093  0.038947139  0.039514534            6 
  813000    1.1407056   -6.0347338    381.01257  0.039054179  0.039507552            3 
  814000    1.1229285   -6.0796185     380.4807   0.03895175  0.039500336            8 
  815000    1.1270833   -6.0659172    380.66696  0.038923002  0.039493022            3 
  816000    1.0932997   -6.0805344    380.80602  0.038889504  0.039485526            9 
  817000    1.1066791   -6.0685829     381.3608   0.03889849    0.0394783            2 
  818000    1.1114869   -6.0512667    382.06252  0.038922425  0.039470913            8 
  819000    1.1371989   -6.0587352    383.10833  0.038981312  0.039463909            2 
  820000    1.1071668   -6.0468305     383.9537  0.039019684   0.03945692            6 
  821000    1.1365951   -6.0396532    384.10154  0.038987164  0.039449991            7 
  822000    1.1078387   -6.0306337     384.2899   0.03895883  0.039442685            5 
  823000    1.1300843   -6.0808351    384.02619   0.03888479  0.039435844            5 
  824000    1.1231405   -6.0719234    384.77407  0.038913235  0.039428747            4 
  825000    1.0996812   -6.0685531    384.28512  0.038816678  0.039421575            3 
  826000    1.1048446   -6.0488672    386.22589  0.038965485  0.039414208            3 
  827000    1.1243048   -6.0941367    385.39248  0.038834389  0.039407246            4 
  828000     1.138984   -6.0291105    386.77032   0.03892616  0.039399942            4 
  829000    1.1131316   -6.0987791    387.22418  0.038924827  0.039392893            4 
  830000    1.1160181   -6.0466036    386.54381   0.03880962  0.039385821            7 
  831000    1.1307148   -6.0555377    387.13683  0.038822386  0.039378407            5 
  832000     1.126672   -6.0572332    388.50733  0.038912994  0.039371168            8 
  833000    1.1536461   -6.0617158    387.30164  0.038745662  0.039364395            5 
  834000    1.1141971   -6.0492107    391.04366  0.039073107  0.039357714            7 
  835000    1.1374539   -6.0670034    389.88555  0.038910733  0.039351185            2 
  836000    1.0991955   -6.0630128    390.00088  0.038875686  0.039344772            7 
  837000    1.1199554   -6.0760616    389.82508  0.038811736  0.039337964            2 
  838000    1.1215678   -6.0772389    391.13342  0.038895527  0.039331281            6 
  839000    1.1197106   -6.0789918    391.67956  0.038903413  0.039324125            4 
  840000    1.1154429   -6.0547989    391.91993  0.038880945  0.039317216            5 
  841000    1.1218075   -6.0760444    391.77602  0.038820454  0.039310312            8 
  842000    1.0839125   -6.0392227    392.92709  0.038888271  0.039303559            7 
  843000    1.1204468   -6.0560652    392.23097  0.038773327  0.039296702            5 
  844000    1.1007639   -6.0670696    393.08433  0.038811644  0.039289319            4 
  845000    1.1160138   -6.0315152    393.38195  0.038795064  0.039282363            3 
  846000    1.1254709   -6.0752875    392.39465  0.038651956  0.039275159            8 
  847000    1.1340449    -6.063775    394.05765  0.038769938  0.039267755            2 
  848000    1.0943437   -6.0803694    393.81226  0.038700104  0.039260783            8 
  849000      1.11564   -6.0358486    394.20683   0.03869325  0.039253588            3 
  850000     1.121204   -6.0590785    394.64894  0.038691073  0.039246258            6 
  851000    1.1187529   -6.0755238     394.6437  0.038645094   0.03923877            5 
  852000     1.108646   -6.0336084    397.25819  0.038855457  0.039231418            8 
  853000    1.1284589   -6.0418117    396.62693  0.038748234  0.039224045            5 
  854000    1.1236897   -6.0825483    395.85013  0.038627062  0.039216513            9 
  855000    1.1096944   -6.0817211    395.96963  0.038593531   0.03920874            3 
  856000    1.1287981   -6.0705317    396.42962  0.038593226  0.039200879            7 
  857000    1.1142995   -6.0391451    396.74698  0.038579053  0.039193198            6 
  858000    1.1171013    -6.110526    396.83965   0.03854309  0.039185411            4 
  859000    1.1136214   -6.0557446    398.71486  0.038680138  0.039178011            7 
  860000      1.11384   -6.0917517    398.22727  0.038587913  0.039170391            4 
  861000    1.0995446   -6.0749632     398.7412  0.038592837  0.039162435            6 
  862000      1.09772   -6.0338741    399.61518  0.038632558  0.039154922            4 
  863000    1.1185735   -6.0650862    400.49553  0.038672802  0.039147615            3 
  864000    1.0907413   -6.0660644    400.80631  0.038658016  0.039139995            5 
  865000    1.1366862   -6.0726882     401.0047  0.038632437  0.039132503           11 
  866000    1.0950586   -6.0666956    401.96968  0.038680685   0.03912524            4 
  867000    1.0782792   -6.0925068    401.42145  0.038583376  0.039117902           16 
  868000    1.1489033   -6.0929046    402.20688  0.038614332   0.03911101            4 
  869000    1.1325393   -6.0354353     404.7624   0.03881496  0.039104039            4 
  870000    1.0942286   -6.0814518    404.21155  0.038717581  0.039097478            4 
  871000    1.1293573   -6.0587531    404.26692  0.038678427  0.039090484            8 
  872000     1.085052   -6.0537215    403.49328  0.038560138  0.039083401            3 
  873000    1.1036627   -6.1093565    404.60194  0.038621797  0.039076469            9 
  874000    1.0936127   -6.0736126    406.01556  0.038712391  0.039069835            2 
  875000    1.0970289   -6.0835027    405.88636  0.038655844  0.039063379            2 
  876000    1.1207944   -6.0870538    406.76093  0.038694913  0.039056744            8 
  877000    1.1108448   -6.0712921    406.47749  0.038623859   0.03905012            4 
  878000    1.1097901   -6.0724778    407.93143  0.038717866  0.039043266            8 
  879000     1.132874   -6.0766418    407.07914  0.038593017  0.039036555            4 
  880000    1.1126318    -6.035606    408.36417  0.038670849  0.039029727            5 
  881000    1.0939815   -6.0321202    407.77066  0.038570816   0.03902296            2 
  882000    1.1217766   -6.0786138    408.98332  0.038641659   0.03901605            3 
  883000    1.1236924   -6.1096044    408.80669  0.038581228  0.039009063            3 
  884000    1.0848242   -6.1196994    409.19077   0.03857379  0.039002157            6 
  885000    1.1176616    -6.095615    410.02598  0.038608849  0.038995534            6 
  886000    1.1176156   -6.0974118    409.62129   0.03852721  0.038988664            8 
  887000    1.1153704   -6.0775935    409.52441  0.038474672  0.038981752            3 
  888000    1.1213269   -6.0949794    409.16027  0.038397173   0.03897496            4 
  889000    1.0987396   -6.1035292      411.872  0.038608174  0.038968357            4 
  890000    1.1151587   -6.0892878    411.90605  0.038567982  0.038961635            3 
  891000    1.1158711   -6.0870993    412.27818    0.0385595  0.038955061            2 
  892000    1.0990999   -6.0808171    412.38665  0.038526406  0.038948574            6 
  893000    1.1052789   -6.0840043    412.38179   0.03848281  0.038941423            2 
  894000    1.1087552   -6.0446915    414.29079   0.03861771  0.038934318            8 
  895000    1.1080304   -6.0995717    413.50844  0.038501717  0.038927175            6 
  896000     1.115909   -6.0859278    413.20779  0.038430784  0.038920212            2 
  897000    1.1059518   -6.0639023     413.5361  0.038418441  0.038913037            7 
  898000    1.0952892   -6.0487759    414.04917  0.038423271  0.038906024            5 
  899000    1.1033815   -6.0921124      414.892  0.038458657  0.038898358            3 
  900000    1.1068761   -6.0428538    415.48954  0.038471254  0.038891129            2 
  901000    1.0983737   -6.0590398    415.78092  0.038455505  0.038884205            4 
  902000    1.1383027   -6.0974924    414.27887  0.038274101  0.038876756            3 
  903000    1.0906873   -6.0720805    416.69127  0.038454344  0.038869415            6 
  904000    1.1100016   -6.0800294    415.90115   0.03833897  0.038862218            6 
  905000    1.1001041   -6.0796396    416.41657  0.038344068  0.038854728            7 
  906000    1.0925455   -6.0759991    416.72602  0.038330208  0.038846799            3 
  907000    1.1192033   -6.0733318    416.58282  0.038274791   0.03883879            5 
  908000    1.1171504   -6.0808731    417.65841  0.038331352  0.038830837            4 
  909000    1.1051524   -6.0795684    417.48071  0.038272892  0.038823034            4 
  910000    1.0926245   -6.0839594    416.59189  0.038149441  0.038814792            3 
  911000    1.1132082   -6.0920958    416.71243  0.038118591  0.038806609            4 
  912000    1.1003388   -6.0928379    417.12237  0.038114252  0.038798171            3 
  913000    1.1175367   -6.0403987    418.87566  0.038232535  0.038789505            3 
  914000    1.0944249   -6.0849623    417.53917  0.038068852  0.038780759            6 
  915000    1.0943873   -6.0640955    418.72422  0.038135175  0.038771728            4 
  916000    1.1264937   -6.0594106    417.88603  0.038017288  0.038762498            3 
  917000    1.1077257   -6.0866254    419.01434  0.038078366  0.038753078            2 
  918000    1.1062873   -6.0551657    418.27344  0.037969629  0.038743908            3 
  919000    1.1154626   -6.1168603    419.65783  0.038053848  0.038734579            3 
  920000    1.1015105   -6.0840633    418.65562  0.037921705  0.038725678            6 
  921000    1.1172761   -6.0586515    420.20874  0.038021059  0.038716571            9 
  922000    1.1183776   -6.0983347    420.58578  0.038013899  0.038707702            2 
  923000    1.0850215   -6.1074203    420.52118  0.037966882  0.038698718            3 
  924000    1.1009891   -6.1328417    422.19956   0.03807716  0.038690212            4 
  925000    1.0938505   -6.0989187    420.71835  0.037902554  0.038681795            5 
  926000    1.0783574   -6.0797361    423.29214  0.038093246  0.038673262            8 
  927000    1.1178182   -6.0764179    423.55784  0.038076038  0.038664824            5 
  928000     1.090736    -6.084192    424.38938  0.038109678  0.038656539            6 
  929000    1.1132419     -6.09101     423.6956  0.038006422  0.038648097            4 
  930000    1.1248263   -6.0597933    424.86376  0.038070229   0.03863963            3 
  931000    1.0928618   -6.0587436    424.65859  0.038010973  0.038631266            3 
  932000    1.1099665   -6.0694982    425.01553  0.038002104   0.03862305            5 
  933000    1.0952806   -6.0582538    425.14927  0.037973318   0.03861458            7 
  934000     1.100738   -6.0681236    425.57204  0.037970381  0.038606415            6 
  935000    1.1068264   -6.0919867    427.27064  0.038081163  0.038598083            2 
  936000    1.1104545   -6.0912202    425.68367  0.037899187  0.038589858            4 
  937000    1.0964539   -6.0979896    426.14435  0.037899711   0.03858107           10 
  938000    1.1046407   -6.0818982    425.74313  0.037823661  0.038572066            6 
  939000    1.0853571   -6.1111386    427.84204  0.037969652  0.038563239            5 
  940000    1.1011128   -6.0901128    428.55896  0.037992816  0.038554766            3 
  941000    1.1066183   -6.0866116     428.1984   0.03792051  0.038546481            5 
  942000    1.1181033   -6.1193439    428.60339  0.037916082  0.038537744            6 
  943000     1.107723   -6.0894145     428.3188  0.037850725  0.038528927           10 
  944000    1.0994879   -6.0868105    429.75407  0.037937329  0.038520499            7 
  945000    1.0896053   -6.1068186    430.17326   0.03793415  0.038512116            2 
  946000    1.0830589   -6.0597664    430.55219   0.03792743  0.038503721            4 
  947000    1.1074868   -6.0760789    431.37721   0.03795998  0.038495372            8 
  948000    1.1001921   -6.1030035    431.91533  0.037967241  0.038486946            3 
  949000    1.1286746   -6.1019939    431.84036   0.03792065  0.038478525            3 
  950000    1.0757687   -6.1166467     432.7294   0.03795872   0.03846979            5 
  951000    1.0803948    -6.096111    430.07539  0.037686242  0.038461298            6 
  952000    1.1011552    -6.058969    432.70528  0.037876863  0.038452607            4 
  953000    1.0941573    -6.086924    433.50007  0.037906616  0.038444332            5 
  954000      1.08387   -6.0825315    435.08934  0.038005707  0.038436281            2 
  955000    1.1068641   -6.1193487    434.44506  0.037909691  0.038428202            6 
  956000    1.1063273   -6.1150578    434.19533  0.037848268  0.038420011            6 
  957000    1.0911928   -6.1012581    432.57009  0.037667197   0.03841186            4 
  958000    1.0983464   -6.0804443    435.87728   0.03791556  0.038403708            4 
  959000    1.1008887    -6.056755    435.80724  0.037869937  0.038396043            5 
  960000    1.0941932   -6.0669178    435.43314  0.037798016     0.038388            3 
  961000    1.0994071   -6.0929287    435.49183  0.037763773  0.038379763            5 
  962000    1.0847149   -6.0963344    436.30965  0.037795362  0.038371153            4 
  963000    1.0867424   -6.0959523    436.19222  0.037745952   0.03836243            4 
  964000    1.1043161   -6.0821839    436.72011   0.03775243  0.038354002            7 
  965000    1.0920249   -6.0720524     436.5895  0.037702029  0.038345407            5 
  966000     1.089734   -6.1040495    436.83162  0.037683887  0.038336692            6 
  967000    1.1041321   -6.0775053     436.6676  0.037630783  0.038328003            2 
  968000     1.093496   -6.0929071    437.66521   0.03767779  0.038319285            7 
  969000    1.0867209   -6.1212483    438.32401  0.037695564   0.03831059            3 
  970000    1.1159812   -6.1104366    438.64777  0.037684516  0.038301946            5 
  971000    1.0687078     -6.08778    438.79892  0.037658678  0.038293445            3 
  972000    1.0668516   -6.1022154    440.50247  0.037765987  0.038285356            5 
  973000    1.0843848   -6.1282575    439.81274  0.037668101   0.03827707            7 
  974000     1.083825   -6.1222797    440.94895  0.037726639  0.038268961            4 
  975000    1.0887378   -6.1083983    441.43623  0.037729592  0.038260727            3 
  976000    1.1112856   -6.0612773    442.16936  0.037753532  0.038252502            5 
  977000    1.0701209    -6.121238    440.67901  0.037587769  0.038244091            9 
  978000    1.0863792   -6.0903853    442.45264  0.037700463  0.038235657            4 
  979000    1.1009512   -6.1254192    442.37244  0.037655128  0.038227152            3 
  980000    1.0999743   -6.1129201    441.36543  0.037531074  0.038218627            3 
  981000    1.0936899   -6.1008421    443.12777  0.037642522  0.038210058            7 
  982000    1.0969442   -6.1100819    442.59834  0.037559262  0.038201464            3 
  983000     1.083186   -6.0995752    443.10112  0.037563676  0.038192932            6 
  984000    1.1058636   -6.1160212    443.03226   0.03751967  0.038184431            5 
  985000     1.096215   -6.0843528     444.7323  0.037625406  0.038175866            5 
  986000    1.0814735   -6.0886556     445.8252  0.037679615  0.038167246            5 
  987000    1.0941978   -6.0936903    444.80141  0.037554999  0.038158854            5 
  988000    1.0951276   -6.1032057     445.0499  0.037537947  0.038150319            7 
  989000    1.0894072   -6.0888894    446.65025  0.037634837   0.03814201            5 
  990000    1.0985811   -6.1217642    445.72235  0.037518717  0.038133673           14 
  991000    1.0890639   -6.0931179    446.58337   0.03755326  0.038125165            8 
  992000    1.0795525   -6.0390315    447.63377  0.037603643  0.038116807            6 
  993000    1.0793728   -6.0845982    448.84269  0.037667228  0.038108446            5 
  994000    1.1140085   -6.1149002    448.54193  0.037604119  0.038100056           14 
  995000    1.1064058   -6.1066281    447.40805  0.037471361  0.038091633            5 
  996000    1.0912446   -6.0760103    450.02854   0.03765299  0.038083327            2 
  997000     1.103228   -6.0547925    449.57626   0.03757742   0.03807528            4 
  998000    1.0883372   -6.0891853    449.98931  0.037574258  0.038067086            4 
  999000     1.114203   -6.1164909     450.2565  0.037558934  0.038059053            5 
 1000000     1.060704   -6.1314376    450.48969  0.037540808  0.038051102            3 
 1001000    1.1036684   -6.0722434    451.62369   0.03759771  0.038042914            5 
 1002000    1.0900449   -6.0901856     451.8561  0.037579516  0.038034989            3 
 1003000    1.0712998    -6.137664    451.12426  0.037481244  0.038026845            5 
 1004000    1.1280972    -6.078905    451.82234  0.037501854  0.038018894            3 
 1005000    1.0665584   -6.1203765    452.25876  0.037500727  0.038010898            2 
 1006000    1.0703125   -6.0934764    451.60688   0.03740945  0.038002917            4 
 1007000    1.0994034   -6.1100987     453.4777  0.037527118  0.037994879            8 
 1008000    1.0821241   -6.1015535    453.21359  0.037468055  0.037986683            8 
 1009000    1.0911684   -6.1320181    452.70745  0.037389119  0.037978467            5 
 1010000    1.0644043   -6.1013972    455.02375  0.037543214  0.037970438            4 
 1011000     1.086876   -6.1236483    454.69458  0.037478947  0.037962342            5 
 1012000    1.0906691   -6.1108434     454.0621   0.03738983  0.037953904            4 
 1013000     1.092837   -6.1081275    456.31141  0.037537958  0.037945905            5 
 1014000    1.0915182   -6.0803268    455.85547  0.037463467  0.037938007            4 
 1015000    1.0734788   -6.1349416    453.88048  0.037264407  0.037929712            2 
 1016000    1.0722268   -6.1187147    454.52432  0.037280538  0.037921282            4 
 1017000    1.0850677   -6.0903964    454.61654  0.037251437  0.037912901            6 
 1018000    1.0408165   -6.1135931    456.43378  0.037363604  0.037904625            5 
 1019000    1.1045683   -6.1228123    457.44786  0.037409868  0.037896152            3 
 1020000    1.0794772   -6.1307439     456.2321  0.037273864  0.037887642            5 
 1021000    1.1052621   -6.0690894    457.62007  0.037350642  0.037879156            4 
 1022000    1.0638628   -6.1145642    456.66944  0.037236581  0.037870632            4 
 1023000     1.079704    -6.130643    458.04004  0.037311831  0.037861999            4 
 1024000    1.0970932   -6.1336004    458.62038  0.037322622  0.037853437            5 
 1025000    1.0948546   -6.1147164    457.90493  0.037228043  0.037844874            4 
 1026000     1.100716   -6.1576604    457.92072  0.037193041  0.037836245            7 
 1027000    1.0746031   -6.1266709    457.74099  0.037142242  0.037827845            8 
 1028000     1.086434   -6.0959589    458.47119  0.037165304  0.037819258            9 
 1029000    1.0922436   -6.1108876     459.4909  0.037211767  0.037810651            6 
 1030000    1.0787082   -6.1166116     459.6636  0.037189612  0.037801801            4 
 1031000    1.1066864   -6.0885417    459.66267  0.037153465  0.037792823            4 
 1032000    1.0858845   -6.0998774     460.1524  0.037157009  0.037784167            3 
 1033000    1.0940285   -6.1489122    459.30944  0.037053036  0.037775276            8 
 1034000    1.0726526   -6.1033731    461.65025  0.037205855  0.037766532            6 
 1035000    1.0755686   -6.1096117    461.98729  0.037197044  0.037757925            5 
 1036000    1.0959024   -6.1042031    461.44445  0.037117475  0.037749182            6 
 1037000    1.1030627   -6.1085148    462.77771  0.037188823  0.037740262            4 
 1038000    1.0838634   -6.1272573    462.39048  0.037121907   0.03773155            5 
 1039000    1.0763272   -6.1124496    462.50597  0.037095442  0.037722582            8 
 1040000    1.1010252   -6.0944034    463.42054  0.037133056  0.037714128            4 
 1041000    1.0920353   -6.1382033     464.0763   0.03714988  0.037705562            5 
 1042000    1.0721503    -6.114585    463.60647  0.037076653  0.037697014            6 
 1043000     1.084591   -6.1080803    465.03787  0.037155471  0.037688663            4 
 1044000    1.0735206   -6.0924187    465.96599  0.037193964   0.03768046            6 
 1045000    1.0982021   -6.1476912    466.94965  0.037236814  0.037672406            6 
 1046000    1.0823961   -6.1159097    467.36406  0.037234231  0.037664232            5 
 1047000    1.0781507   -6.0934091    468.73342  0.037307658  0.037656288            4 
 1048000    1.0865387   -6.1226255    466.88446  0.037125037  0.037648291            6 
 1049000    1.0529835   -6.1327796     466.3609  0.037048054  0.037639887            7 
 1050000    1.0954868   -6.1085438    467.55027  0.037107164  0.037631539            5 
 1051000    1.0926487   -6.1330608    467.28055  0.037050472  0.037623126            4 
 1052000    1.0988187    -6.107138    468.10216  0.037080336  0.037614617            3 
 1053000    1.0672934    -6.139744    467.55776  0.037002038   0.03760611            3 
 1054000    1.0816317   -6.1252421    468.48725  0.037040421  0.037597632            9 
 1055000     1.093395   -6.1066458    470.23161  0.037143097  0.037589147            4 
 1056000    1.0918674   -6.1085602     469.2121   0.03702747  0.037580728            5 
 1057000    1.0878562   -6.1143898    468.89256  0.036967247  0.037571943            6 
 1058000    1.0703767   -6.1567848    470.97779  0.037096549   0.03756343           10 
 1059000    1.0681023   -6.0969877     470.5221  0.037025661  0.037555041           10 
 1060000    1.0672133   -6.1087329    471.52424  0.037069516  0.037546867            7 
 1061000    1.0836589   -6.1183287    470.17651  0.036928724  0.037538278            6 
 1062000    1.0766141   -6.1269183    471.35455   0.03698639  0.037529461            8 
 1063000    1.0887546   -6.0969191     471.2478  0.036943227   0.03752092            2 
 1064000    1.0655921   -6.1408403     472.4034  0.036999013   0.03751227           11 
 1065000    1.0872838   -6.1405093    471.40033  0.036885785  0.037503863            5 
 1066000    1.0682011   -6.1412072    474.18584  0.037068937  0.037495292            5 
 1067000    1.0769164   -6.1404372    473.22234  0.036958945  0.037486876           11 
 1068000    1.0896022   -6.1171186    473.92773   0.03697938  0.037478526            8 
 1069000    1.0729602   -6.1128602     475.7513  0.037086942  0.037470367            9 
 1070000    1.0713653   -6.1364866    473.80333  0.036900571  0.037462097            4 
 1071000    1.0925487   -6.1461565    474.76304  0.036940791  0.037454028            5 
 1072000    1.0876339   -6.1347259     476.3426   0.03702912  0.037445988            5 
 1073000    1.0759609   -6.1531951    477.02924  0.037047937   0.03743788            7 
 1074000    1.0741017   -6.1266153    477.48568  0.037048858  0.037429677            5 
 1075000    1.1026103   -6.1306063    475.98229  0.036897852  0.037421511            3 
 1076000    1.0657621    -6.100729    476.48898  0.036902802  0.037413507            2 
 1077000    1.1002384   -6.1580076    476.05017  0.036834585  0.037405166            6 
 1078000    1.0860623   -6.0575434    477.75917  0.036932527  0.037396895            9 
 1079000    1.0764417   -6.1064668    476.14804  0.036773868   0.03738845            5 
 1080000    1.0862689   -6.1404075    477.61273  0.036852834  0.037379871            7 
 1081000    1.0841897   -6.1290006    476.52001  0.036734506  0.037371408            4 
 1082000    1.0503916   -6.1085846    477.40819  0.036768961  0.037363007            6 
 1083000    1.0811561   -6.1461507     478.4266  0.036813373  0.037354465            3 
 1084000    1.0809162   -6.1132957    479.49285  0.036861381  0.037346155           10 
 1085000    1.0645304   -6.1246584    480.30145  0.036889513  0.037338113            6 
 1086000    1.0674809     -6.10717    479.78321  0.036815777  0.037329871            2 
 1087000    1.0523683   -6.1310253    479.12218  0.036731231   0.03732126            4 
 1088000    1.0601638   -6.1238552    480.92622  0.036835648  0.037312565            6 
 1089000    1.0826305   -6.1298441    481.94716  0.036879948  0.037304103            4 
 1090000      1.05123   -6.1675288    480.51454  0.036736586  0.037295622            3 
 1091000    1.0984957   -6.0962538    481.89917  0.036808675  0.037287272            3 
 1092000    1.0726034   -6.1538266    482.06587  0.036787689  0.037278949            8 
 1093000    1.0912605   -6.1601958    482.24874  0.036767974  0.037270637            3 
 1094000    1.0556456   -6.1387332    482.01613  0.036716646  0.037262202            4 
 1095000    1.0734088   -6.1493761     483.0473   0.03676159  0.037254019            4 
 1096000    1.0742591    -6.141147    483.20851  0.036740307  0.037245725            3 
 1097000    1.0816752   -6.1672955    483.17435   0.03670422  0.037237328            3 
 1098000     1.070468   -6.1559018    484.28766  0.036755287  0.037228936           12 
 1099000    1.0776837   -6.1355834    483.01587  0.036625407  0.037220644            9 
 1100000    1.0759377   -6.1461263     484.2458  0.036685288   0.03721223            5 
 1101000     1.064157   -6.1103062    484.98474  0.036707897  0.037203985           10 
 1102000    1.1011057   -6.1347665    484.95501  0.036672339  0.037195676            9 
 1103000    1.0763633   -6.1133725    486.01493  0.036719169  0.037187309            3 
 1104000     1.064004     -6.10523    485.67891  0.036660546  0.037178907            3 
 1105000    1.0890699   -6.1223297    486.87185  0.036717334  0.037170621            2 
 1106000    1.0664808   -6.1397136    486.40869  0.036649238  0.037162183            5 
 1107000    1.0698048   -6.1376911     487.7498  0.036717088  0.037153947            3 
 1108000    1.0912268   -6.1169443    488.22597  0.036719763  0.037145722            3 
 1109000    1.0790307   -6.1206358     487.9202  0.036663676  0.037137392            6 
 1110000    1.0582296   -6.1224397     488.3726  0.036664609  0.037129093            3 
 1111000    1.0759204   -6.1098734    489.54618  0.036719635  0.037120968            8 
 1112000    1.0928473   -6.1441168    488.75957  0.036627666  0.037112665            4 
 1113000     1.082005   -6.1506901    489.63341  0.036660183  0.037104546            9 
 1114000    1.0703478   -6.1525779    489.44422  0.036613123   0.03709629            4 
 1115000    1.0752354   -6.1506692    491.14939  0.036707727  0.037088056            2 
 1116000    1.0605154   -6.1302012    491.00429     0.036664  0.037079947            4 
 1117000    1.0677731   -6.1411045    490.15187  0.036567582  0.037071878            5 
 1118000    1.0698827    -6.133259    490.75087  0.036579522  0.037063758            5 
 1119000    1.0911208   -6.1390977    492.90794  0.036707472  0.037055575            3 
 1120000    1.0380191   -6.1203753     491.4193  0.036563936  0.037047362            5 
 1121000    1.0735454   -6.1491839    492.01451  0.036575566  0.037039089            8 
 1122000    1.0662152   -6.1632834    491.76514  0.036524446  0.037031125            3 
 1123000    1.0885482    -6.103078    492.01936  0.036510787  0.037023073            7 
 1124000    1.0489716   -6.1463193    492.93802  0.036546413  0.037014923            4 
 1125000    1.0755511   -6.1440034    493.25789  0.036537621  0.037006929            3 
 1126000    1.0754368   -6.1474208    493.11509  0.036494604  0.036998591            2 
 1127000    1.0720775   -6.1716828    492.76881  0.036436617  0.036990375           10 
 1128000    1.0521941   -6.1242003    494.31295  0.036518392  0.036982209            5 
 1129000    1.0754891   -6.1765973    495.92881  0.036605315  0.036974045            5 
 1130000     1.084873   -6.1365259    497.08639  0.036658288  0.036966087            8 
 1131000    1.0805201    -6.125608    496.93167  0.036614476  0.036958087            4 
 1132000    1.0593874   -6.1357697    495.68511  0.036490364  0.036950017            8 
 1133000    1.0649486   -6.1407863    497.06707  0.036559802  0.036941975           13 
 1134000    1.0629657   -6.1598363    497.31761  0.036545973  0.036933907            5 
 1135000    1.1068113   -6.1863259    497.50801  0.036527754  0.036925677            6 
 1136000    1.0722552   -6.1904676    497.06258  0.036462924  0.036917655           17 
 1137000    1.0795225   -6.1274505    497.27566  0.036446472  0.036909529           10 
 1138000     1.071674   -6.1688974    498.22525  0.036483982  0.036901405            4 
 1139000    1.0915188   -6.1446086    497.64579  0.036409555  0.036893311            6 
 1140000     1.067427   -6.1841839    498.15616  0.036414924  0.036885097            9 
 1141000    1.0573639   -6.1438015    499.50635   0.03648162  0.036876857            4 
 1142000    1.0588258   -6.1521521    498.97217  0.036410696  0.036868862            4 
 1143000    1.0701823   -6.1557337    500.96579   0.03652419  0.036860696            5 
 1144000    1.0788725   -6.1415168    500.82231  0.036481812  0.036852792            5 
 1145000    1.0834711   -6.1367129    500.65755  0.036437958  0.036844982            4 
 1146000    1.0657923    -6.090022    501.72656  0.036483898  0.036837077            6 
 1147000    1.0720769   -6.1527551    501.60086  0.036442957  0.036829326            8 
 1148000    1.0689767   -6.1525628    500.41873  0.036325401  0.036821281            3 
 1149000    1.0808439   -6.1359381    502.40947  0.036438169  0.036813368            3 
 1150000    1.0831415   -6.1486451    503.11446  0.036457569  0.036805634            5 
 1151000    1.0734896   -6.1561794    501.95392  0.036341871   0.03679788            9 
 1152000    1.0781904   -6.1374538    504.99928  0.036530619  0.036790312            4 
 1153000     1.067891   -6.1508073    504.21863  0.036442514  0.036782584            4 
 1154000    1.0982479    -6.162743    504.60537  0.036438863   0.03677494            9 
 1155000    1.0742082   -6.1737103    504.29298  0.036384775  0.036767233            3 
 1156000    1.0854275   -6.1484594    504.50624  0.036368673  0.036759594            3 
 1157000    1.0835989   -6.1037547    505.38925  0.036400839  0.036751749            3 
 1158000     1.075213   -6.1556701     503.4731  0.036231513  0.036743649           10 
 1159000    1.0754764   -6.1576649    504.63764  0.036283983  0.036735506            9 
 1160000    1.0720543   -6.1655029    504.44084  0.036238566  0.036727224            8 
 1161000    1.0525321    -6.181151    505.68355  0.036296551  0.036719144            4 
 1162000    1.0868042   -6.1516043    505.29425  0.036237396   0.03671101            6 
 1163000      1.06816   -6.1565715    505.03808  0.036187882  0.036702863            4 
 1164000    1.0952836   -6.1509581    505.77139  0.036209292  0.036694672            5 
 1165000    1.0871308   -6.1906602    506.22217  0.036210456  0.036686621            7 
 1166000    1.0735819   -6.1578237    507.44469  0.036266773  0.036678407            6 
 1167000    1.0746089   -6.1630112    505.86864  0.036123153  0.036670183            8 
 1168000    1.0490044   -6.1881055    506.86038  0.036162983  0.036661788            4 
 1169000    1.0720979   -6.1697951    507.67463  0.036190093    0.0366535            3 
 1170000     1.084412   -6.1946897    506.79652  0.036096618  0.036645203            5 
 1171000    1.0865932   -6.1563141    509.11574  0.036230838  0.036636801            3 
 1172000    1.0654846   -6.1589805    508.36084  0.036146249  0.036628488            9 
 1173000    1.0688001    -6.140457    508.86888  0.036151526  0.036620249            5 
 1174000    1.0462475    -6.140299    510.58249  0.036242369  0.036612333            5 
 1175000    1.0654714   -6.1414766    508.74667  0.036081324  0.036604203            5 
 1176000    1.0508781   -6.1515785    510.25967  0.036157857   0.03659622            7 
 1177000    1.0666034   -6.1644219    511.76358  0.036233615  0.036588395            6 
 1178000    1.0449076    -6.159202     512.0303  0.036221724  0.036580639            4 
 1179000    1.0431733   -6.1579451    512.22219  0.036204565  0.036572984            6 
 1180000    1.0741477   -6.1746828    511.27702  0.036107134  0.036565081            4 
 1181000      1.07621   -6.1291209    513.59742  0.036240292  0.036556988           10 
 1182000    1.0627423   -6.1587435    513.32387  0.036190346  0.036549098           10 
 1183000    1.0514991   -6.1572143    512.91453   0.03613092   0.03654106            4 
 1184000     1.041278    -6.148757    513.09191  0.036112888  0.036533096            2 
 1185000    1.0439228   -6.1815621    512.38738  0.036032868  0.036524992            6 
 1186000    1.0566888    -6.172981    514.50724  0.036151436  0.036517015            3 
 1187000     1.069934   -6.1487235    515.47881  0.036189189  0.036509064            7 
 1188000    1.0851567   -6.1935475    515.04484  0.036128286  0.036501161            5 
 1189000    1.0644419   -6.1635906    514.87761   0.03608618   0.03649345            4 
 1190000    1.0553293   -6.1857992    515.97774  0.036132895  0.036485486            8 
 1191000    1.0559127   -6.1785529    515.55634  0.036073071  0.036477551            6 
 1192000    1.0538103   -6.1678598    515.47953  0.036037439  0.036469567            3 
 1193000    1.0641454   -6.2037406    515.67831  0.036021117  0.036461638            8 
 1194000    1.0702657   -6.1619643    518.46309  0.036185308   0.03645384            6 
 1195000    1.0888535   -6.1536645    517.75024  0.036105316  0.036446068            8 
 1196000    1.0551442   -6.1414654      517.446   0.03605393   0.03643821            7 
 1197000    1.0639455   -6.1354195    519.62494  0.036175504  0.036430477            3 
 1198000    1.0487426   -6.1544516    518.50764  0.036067587  0.036422756            4 
 1199000      1.05592   -6.1938421     517.2795  0.035952148  0.036414848            5 
 1200000    1.0673161   -6.1670225    520.14653  0.036121287   0.03640701            4 
 1201000    1.0636432   -6.1789295    520.53044  0.036117849  0.036399169            6 
 1202000    1.0813741   -6.1645052    520.65546  0.036096468  0.036391417            5 
 1203000    1.0537131   -6.1574344    520.12672  0.036029837  0.036383513            5 
 1204000    1.0535297   -6.1864777    519.69253  0.035969859  0.036375625            4 
 1205000    1.0547276   -6.2121344    520.53431  0.035998223  0.036367671            6 
 1206000    1.0670111   -6.2089695    520.65937  0.035977016   0.03635961            6 
 1207000    1.0627959   -6.1502936    523.32745  0.036131417    0.0363518           13 
 1208000    1.0657825   -6.1277094    522.10381  0.036017095  0.036344116            4 
 1209000    1.0839266   -6.1531173     522.9199  0.036043555  0.036336305            4 
 1210000    1.0612266   -6.1602157    521.84594  0.035939803  0.036328526            3 
 1211000    1.0582009   -6.1852365    522.97427   0.03598777   0.03632073            8 
 1212000    1.0538687   -6.1511171    522.76145  0.035943444  0.036312921            3 
 1213000    1.0541207   -6.1653868    524.90898  0.036061348  0.036305094            6 
 1214000    1.0574657   -6.1418294    523.32346  0.035922808  0.036297297            5 
 1215000    1.0588721   -6.1470141    525.66535  0.036053865  0.036289488            5 
 1216000    1.0521732   -6.1743046    522.99685  0.035841341   0.03628165           10 
 1217000     1.082331   -6.1762496    526.14574  0.036027509   0.03627384            5 
 1218000    1.0575656   -6.1486806    525.45023  0.035950344  0.036266059            3 
 1219000    1.0332467   -6.2010181    525.83756  0.035947331  0.036258246            9 
 1220000    1.0513247   -6.1920192    525.85163  0.035918827  0.036250313            9 
 1221000    1.0651803    -6.194711    525.48839  0.035864618  0.036242496            4 
 1222000     1.051859   -6.1545936    526.49847  0.035904151  0.036234821            3 
 1223000    1.0693752   -6.1527014    528.57266  0.036016126  0.036227343            4 
 1224000    1.0464611   -6.1653682    528.84838  0.036005473  0.036220077            5 
 1225000    1.0619419    -6.177077    527.66273  0.035895424  0.036212727            5 
 1226000     1.057263   -6.1895223    529.66849   0.03600248  0.036205207            9 
 1227000    1.0489661   -6.1901946    527.58536   0.03583166   0.03619783            9 
 1228000    1.0466365   -6.1663091    529.31542  0.035919885  0.036190334            6 
 1229000    1.0655348   -6.1756519    529.58448  0.035908901  0.036182892            4 
 1230000    1.0555629   -6.1510116    530.38764  0.035934122  0.036175685           13 
 1231000    1.0673548   -6.1859197    530.63372   0.03592159  0.036168576           17 
 1232000    1.0523499   -6.1857501    530.99161   0.03591664  0.036161373            6 
 1233000    1.0366068   -6.1983663    531.90656  0.035949348  0.036154293            5 
 1234000    1.0244449   -6.1674206    532.47881  0.035958861  0.036147122            4 
 1235000    1.0519866   -6.1430272    531.38312  0.035855811  0.036139989            2 
 1236000    1.0434376   -6.1523141    532.05287  0.035871957  0.036132735            4 
 1237000    1.0881348   -6.1704693     534.2922  0.035993815  0.036125632            6 
 1238000    1.0334522   -6.2060575    533.01733  0.035878927  0.036118311            4 
 1239000     1.050994   -6.1542395    534.33553  0.035938629  0.036111076            2 
 1240000    1.0601647   -6.1557674    535.41855   0.03598243  0.036103941            5 
 1241000    1.0768137   -6.1920982    533.85587    0.0358485    0.0360967            5 
 1242000    1.0334953   -6.1401831     536.1547   0.03597388    0.0360897            4 
 1243000    1.0250939   -6.1553071    534.43045  0.035829341   0.03608257           13 
 1244000    1.0388757   -6.1718299    533.94538  0.035768045  0.036075449            5 
 1245000    1.0579259   -6.2012161    535.55048  0.035846752  0.036068209            3 
 1246000    1.0530295   -6.2115986     535.0668  0.035785634  0.036060822           12 
 1247000     1.054955   -6.2138731    535.17705  0.035764304  0.036053713            8 
 1248000    1.0844327   -6.1880731    537.12896  0.035865983  0.036046674            6 
 1249000    1.0735134   -6.2011211    537.66166  0.035872809  0.036039745           16 
 1250000    1.0267036   -6.1373335    539.96578  0.035997719  0.036032867            4 
 1251000    1.0441531    -6.212232    537.06307  0.035775584  0.036025769           10 
 1252000     1.044656   -6.1768923    539.37712  0.035901033  0.036018673            7 
 1253000    1.0766599   -6.2001851    538.18958  0.035793401  0.036011559            4 
 1254000    1.0634446   -6.1808965    540.13076  0.035893857  0.036004709            4 
 1255000    1.0412594   -6.1828589    539.11888  0.035798066  0.035997596            5 
 1256000    1.0664002   -6.1873191    538.98942  0.035760975  0.035990322            6 
 1257000    1.0618055   -6.1746651    540.34332  0.035822283  0.035983214            5 
 1258000    1.0731169   -6.1734226    538.55277  0.035675197  0.035976223            7 
 1259000    1.0314691   -6.1787134    541.58522  0.035847579   0.03596919            4 
 1260000    1.0644059   -6.1494762    541.34617  0.035803318  0.035962148            6 
 1261000    1.0613853   -6.1692155    539.11953  0.035627778   0.03595516            6 
 1262000      1.05104   -6.1829194    541.08351  0.035729233  0.035948147            6 
 1263000    1.0568494   -6.2111481    540.86525  0.035686543  0.035941044           11 
 1264000    1.0608482     -6.15377    545.51912  0.035965132  0.035933945            5 
 1265000    1.0602634   -6.1880727    542.59378  0.035743991  0.035926771            7 
 1266000    1.0509731   -6.2371795    541.58565  0.035649398  0.035919428            5 
 1267000    1.0580544   -6.1882665    542.67735  0.035693065  0.035911853            4 
 1268000    1.0398571   -6.2012402    541.53077  0.035589562  0.035904399            5 
 1269000    1.0253828   -6.1837537    544.36556  0.035747673  0.035897042            4 
 1270000    1.0550464   -6.1800442    543.47636  0.035661179  0.035889681            5 
 1271000      1.05966    -6.184556    543.27727  0.035620068   0.03588233            9 
 1272000    1.0507036   -6.1680494    543.19812  0.035586879  0.035875009            8 
 1273000    1.0375611   -6.1766441     544.4379  0.035640082  0.035867583            5 
 1274000     1.047579   -6.1557418    544.12002  0.035591315  0.035860066            5 
 1275000    1.0374932   -6.1957431    542.85809  0.035480921  0.035852394            6 
 1276000    1.0337108   -6.1780853    543.89471  0.035520815  0.035844678            9 
 1277000    1.0647635   -6.1607575    544.71427  0.035546481  0.035836968           10 
 1278000    1.0496544   -6.1883444    544.48712  0.035503855  0.035829337           13 
 1279000    1.0620464   -6.2154796     543.8116  0.035432082  0.035821671            4 
 1280000    1.0454011   -6.2496413    543.36658  0.035375428  0.035813889            4 
 1281000    1.0340396   -6.1924897    545.64957  0.035496329  0.035805948            5 
 1282000    1.0643963   -6.2109581    546.40758  0.035517914  0.035798197           13 
 1283000    1.0815016   -6.1656399    545.02352  0.035400333  0.035790626           13 
 1284000    1.0223589   -6.2081359     545.6113   0.03541091  0.035783054            2 
 1285000    1.0490563   -6.1866054    549.34734  0.035625638  0.035775482            5 
 1286000    1.0521602   -6.2193405    548.05094  0.035513928  0.035767953            7 
 1287000     1.046437   -6.1735683     549.2436  0.035563559  0.035760447            5 
 1288000    1.0488417   -6.1400869    549.70544  0.035565828  0.035753017            4 
 1289000    1.0438578   -6.2107774    549.34389  0.035514862  0.035745661            8 
 1290000    1.0480575   -6.2031204    549.92634  0.035524958  0.035738221            4 
 1291000    1.0414888   -6.2124814    551.15387  0.035576677  0.035730917            5 
 1292000    1.0701357   -6.1995039    551.46396  0.035569141  0.035723637            8 
 1293000    1.0508447   -6.2099377    549.54566  0.035417998  0.035716142            3 
 1294000    1.0474296   -6.1976595     550.5498  0.035455294  0.035708681            4 
 1295000    1.0315771   -6.2248475    550.13752  0.035401385  0.035701177            8 
 1296000     1.036535   -6.1662986    551.40094  0.035455307  0.035693629            7 
 1297000    1.0700989   -6.2172042    551.09028  0.035408011  0.035686186            3 
 1298000    1.0641014   -6.1860431     550.7079  0.035356183   0.03567854            7 
 1299000    1.0558452   -6.2112878     551.1868  0.035359687  0.035670954           13 
 1300000    1.0429495   -6.1837245    552.12996  0.035392946  0.035663383            9 
 1301000    1.0213207   -6.1867081    550.53653  0.035263677  0.035655848           10 
 1302000    1.0602075   -6.1541155    553.57173  0.035430858  0.035648171            6 
 1303000    1.0422641   -6.2000789    553.50013  0.035399088   0.03564055            9 
 1304000    1.0484747   -6.2084938     553.1708  0.035350895  0.035632938            3 
 1305000    1.0419395   -6.1489661    553.05758  0.035316576  0.035625383           10 
 1306000    1.0836056   -6.2277164    552.36557  0.035245378   0.03561779            5 
 1307000    1.0517639   -6.2129607    553.26444  0.035275723  0.035610046           12 
 1308000    1.0117478   -6.1989268    556.48448  0.035453904  0.035602493            5 
 1309000    1.0431734   -6.1832176    555.62139  0.035371874  0.035595106            3 
 1310000    1.0398934    -6.184654    556.29336  0.035387618  0.035587873            5 
 1311000    1.0208839   -6.2083878     555.2565  0.035294718  0.035580504            6 
 1312000    1.0330676   -6.2078658    556.36544  0.035338252  0.035573011            7 
 1313000    1.0463506   -6.2076923    557.09876   0.03535788  0.035565827            4 
 1314000     1.040789   -6.1976524    557.38396  0.035349059  0.035558492            4 
 1315000    1.0242628   -6.1564698    558.30299  0.035380418  0.035551222            2 
 1316000    1.0313749   -6.2045203    557.76848  0.035319686  0.035544041            7 
 1317000    1.0539273     -6.21577    556.75172  0.035228532  0.035536688            4 
 1318000      1.05599   -6.2038479    557.92123  0.035275748  0.035529439            8 
 1319000    1.0484847   -6.2055357    558.07879  0.035258958  0.035522116           11 
 1320000    1.0363431    -6.221601    559.58075  0.035327067  0.035514822            5 
 1321000    1.0491381    -6.186746    559.13986  0.035272512    0.0355075            6 
 1322000    1.0261744   -6.1776503    560.78853  0.035349756  0.035500284            4 
 1323000    1.0195533   -6.2227714    558.35735  0.035169901  0.035493062            9 
 1324000    1.0220737   -6.2029665    562.06449  0.035376667  0.035485832            8 
 1325000    1.0388253   -6.2101545     560.4689  0.035249616  0.035478516            3 
 1326000    1.0173047   -6.1986507     561.9606   0.03531678  0.035471156            9 
 1327000    1.0387312   -6.2208847    560.82519  0.035218864  0.035463928            9 
 1328000    1.0539123   -6.2310463    559.90203  0.035134414  0.035456582            6 
 1329000    1.0459658   -6.2037604    562.03237  0.035241558  0.035449353            3 
 1330000    1.0337296   -6.2059435    563.74918  0.035322631  0.035442013            7 
 1331000    1.0148106    -6.225339    561.99445  0.035186229  0.035434695            9 
 1332000     1.021452   -6.2162954    563.27412  0.035239872  0.035427461           10 
 1333000     1.055272   -6.1848355    564.16639  0.035269217   0.03542041            7 
 1334000    1.0375315   -6.1919519    563.71067   0.03521431  0.035413269            3 
 1335000    1.0310807   -6.2199169    562.63238  0.035120623  0.035406198            4 
 1336000    1.0595195   -6.1726351     565.1872  0.035253693  0.035399114            7 
 1337000    1.0278236   -6.1722215    566.08403  0.035283223  0.035392148            4 
 1338000    1.0550554    -6.211389    565.44339  0.035216953  0.035385124            5 
 1339000    1.0207378   -6.2127412    565.65947  0.035204099   0.03537815            6 
 1340000    1.0393675   -6.2261949    564.98739  0.035136031  0.035370988            4 
 1341000    1.0464938   -6.2274328    565.38059  0.035134265  0.035363711           10 
 1342000    0.9993853    -6.202507    565.05369  0.035087785  0.035356441            5 
 1343000    1.0580915   -6.1682833    567.22551  0.035196421   0.03534918            6 
 1344000    1.0506274   -6.1783471    566.74748  0.035140593  0.035341985            5 
 1345000    1.0521251   -6.1682136    566.43544  0.035095132  0.035334673            5 
 1346000    1.0714405   -6.1934992    569.14167  0.035236607  0.035327134            7 
 1347000    1.0437587   -6.2040708    567.05371  0.035081274  0.035319525            6 
 1348000    1.0591892   -6.2111638    567.01961  0.035053141  0.035311947            8 
 1349000    1.0337212   -6.2225008    567.39465  0.035050324  0.035304397            4 
 1350000    1.0509885   -6.2345934    566.36709  0.034960931  0.035296685            3 
 1351000    1.0197976   -6.2032754    567.25937  0.034990092  0.035289144            4 
 1352000    1.0312289   -6.1771903    568.00686  0.035010284  0.035281628            6 
 1353000    1.0620126   -6.1855246    569.03224  0.035047563  0.035274086            5 
 1354000    1.0341188   -6.2028292    568.20135  0.034970541  0.035266454            6 
 1355000     1.043516   -6.1860713    569.43387  0.035020533  0.035258886            8 
 1356000    1.0234281   -6.2092533    569.46847  0.034996833  0.035251299            9 
 1357000     1.027252   -6.1824493    570.35952  0.035025763  0.035243809            6 
 1358000      1.03273   -6.2313816    570.91376  0.035033981  0.035236255           10 
 1359000    1.0303707     -6.20591    569.49062  0.034920936  0.035228763            6 
 1360000    1.0066321   -6.1898317    571.01456  0.034988637  0.035221104            3 
 1361000    1.0278331   -6.2115187    569.74129  0.034884968  0.035213464           13 
 1362000    1.0087096     -6.22776    571.08755  0.034941725  0.035205889            8 
 1363000    1.0372946   -6.2138599    571.73013  0.034955376  0.035198271            9 
 1364000    1.0416698   -6.2327648    569.98142  0.034822912  0.035190624            6 
 1365000     1.023512   -6.2474856    570.12748  0.034806317  0.035182852            6 
 1366000    1.0321248   -6.2109894    571.23672  0.034848506  0.035175175           13 
 1367000    1.0429902   -6.2240198    572.86265  0.034922132  0.035167653            5 
 1368000    1.0354154   -6.2542259    572.69263  0.034886247  0.035159981           13 
 1369000    1.0239345    -6.182887    575.87462  0.035054457  0.035152438            7 
 1370000     1.039081   -6.1858657    574.26075  0.034930702  0.035144937            4 
 1371000    1.0337389    -6.202733    572.78619  0.034815596    0.0351374            9 
 1372000    1.0416009   -6.2309634    573.46735  0.034831593  0.035129784            9 
 1373000    1.0276541    -6.188775    574.53826  0.034871223  0.035122379            4 
 1374000    1.0266938   -6.2281093    575.48961  0.034903543  0.035115013            3 
 1375000    1.0466431   -6.1972285    576.36268  0.034931072  0.035107616            6 
 1376000    1.0154799   -6.2297647    575.32761     0.034843  0.035100185            5 
 1377000    1.0542881   -6.2304942     575.9422   0.03485489  0.035092793            5 
 1378000    1.0363293    -6.233784    576.27049  0.034849449  0.035085486            7 
 1379000    1.0351169    -6.231144    579.02192  0.034990447   0.03507821            4 
 1380000    1.0523457   -6.2181446    580.16411  0.035034065  0.035071029            8 
 1381000    1.0465071   -6.2612304    576.98045  0.034816585  0.035063762            6 
 1382000    1.0358445   -6.2084753    578.78639  0.034900289  0.035056316            6 
 1383000    1.0290291   -6.2017625    579.47494  0.034916543  0.035049039            5 
 1384000    1.0243536   -6.2080023    579.46052  0.034890446  0.035041725            5 
 1385000    1.0489671   -6.1889339     579.9176  0.034892755   0.03503465            5 
 1386000    1.0159585   -6.2237443    582.07137  0.034997076  0.035027578            4 
 1387000    1.0477741   -6.2500613    579.18103  0.034798187  0.035020515            4 
 1388000    1.0417688   -6.2707859    581.60668  0.034918749  0.035013269            9 
 1389000    1.0349453   -6.1759334    580.77897  0.034843951  0.035005962            4 
 1390000    1.0449016   -6.2191334    582.32174  0.034911375   0.03499887            6 
 1391000    1.0302884   -6.2135997    581.85206  0.034858139  0.034991677            7 
 1392000    1.0242638   -6.2536096    580.40565  0.034746507  0.034984483            7 
 1393000    1.0487948   -6.2234024    581.28807  0.034774352  0.034977295           12 
 1394000    1.0316983   -6.1916389    582.29743  0.034809746      0.03497            7 
 1395000    1.0392311   -6.2292914    581.99298  0.034766606  0.034962661            5 
 1396000    1.0135024   -6.2259612    583.20172  0.034813856   0.03495544            9 
 1397000    1.0290722   -6.2122838    582.19567  0.034728923  0.034948239           19 
 1398000    1.0283696   -6.2314978     583.4186  0.034776979  0.034940775            4 
 1399000    1.0126686   -6.2174024    583.15064  0.034736159  0.034933266            3 
 1400000    1.0229871   -6.2360497    581.93445  0.034638955  0.034925839           11 
 1401000    1.0339891   -6.1945894    583.48741  0.034706603  0.034918324           11 
 1402000     1.008221   -6.1993856    584.64957  0.034750925    0.0349109            4 
 1403000    1.0134465   -6.2413534    582.19428  0.034580321  0.034903257            4 
 1404000    1.0368333   -6.2325774    582.83672  0.034593823  0.034895459            5 
 1405000     1.026321   -6.2310519    584.62397  0.034675206  0.034887754            5 
 1406000    1.0055198   -6.1998763    584.22714  0.034627023  0.034880017           11 
 1407000     1.029136   -6.2029402    583.66117  0.034568892  0.034872382            6 
 1408000    1.0340393   -6.2307429    585.63761  0.034661317  0.034864745            8 
 1409000   0.99489549   -6.2214625    585.22653  0.034612404  0.034857015            5 
 1410000    1.0053149   -6.2106832    586.86247  0.034684543  0.034849477            3 
 1411000    1.0089599   -6.2168904    586.07457  0.034613429  0.034841918            5 
 1412000     1.045204    -6.213742     584.8284  0.034515368  0.034834469           10 
 1413000    0.9946364   -6.1860856    585.49129  0.034530036   0.03482698            5 
 1414000    1.0152517   -6.2341403    586.75441  0.034580057  0.034819291            5 
 1415000    1.0172326   -6.2299351    585.46591  0.034479736  0.034811745            2 
 1416000    1.0500699   -6.2399965    587.76857    0.0345909  0.034804147            9 
 1417000    1.0116881   -6.2433442    586.79536  0.034509254  0.034796654            6 
 1418000    1.0150809   -6.2270708    587.50384  0.034526554  0.034789298           12 
 1419000    1.0301745   -6.2318558    589.85401   0.03464024  0.034781857            8 
 1420000    1.0103464   -6.2068344    589.72612   0.03460834  0.034774387            5 
 1421000    1.0272016   -6.2168761    589.62088  0.034577814   0.03476707            4 
 1422000    1.0195703   -6.2198972    589.63752  0.034554472  0.034759759            6 
 1423000    1.0388448   -6.2308203    589.17525  0.034503118  0.034752237            6 
 1424000    1.0389056   -6.2227983    590.81927  0.034575098  0.034744885            4 
 1425000    1.0576109   -6.2567853    590.63588   0.03454011  0.034737409            6 
 1426000    1.0143613   -6.2847043    589.85393  0.034470192  0.034730087            9 
 1427000    1.0256974   -6.1943368    590.77504  0.034499827  0.034722606            7 
 1428000    1.0083954   -6.2308243    590.75577  0.034474543  0.034715223           15 
 1429000      1.01919   -6.2188444    590.79346  0.034452616  0.034707882            5 
 1430000    1.0263118   -6.2259386    590.17072  0.034392233  0.034700419            5 
 1431000    1.0018245   -6.2426818    590.97618  0.034415105  0.034692846            8 
 1432000    1.0312837   -6.2391023     592.1819  0.034461237  0.034685321            5 
 1433000    1.0132686    -6.217434    592.68214  0.034466279  0.034677677            4 
 1434000    1.0209704   -6.2634242    592.45104  0.034428815  0.034670024           10 
 1435000    1.0293855   -6.2035252    591.71807  0.034362257  0.034662366            5 
 1436000    1.0436379   -6.2432803    590.56396  0.034271353  0.034654625            7 
 1437000    1.0300734   -6.2161123    592.42328  0.034355328  0.034646913            7 
 1438000    1.0273923   -6.2157447    591.88044  0.034299979  0.034639258            5 
 1439000    1.0211552   -6.2254932    592.71224  0.034324313  0.034631515            6 
 1440000    1.0234908   -6.2358161    593.70632  0.034358005  0.034623896            7 
 1441000    1.0124423   -6.1882756    595.45761  0.034435439  0.034616507            6 
 1442000    1.0021956   -6.2444905    594.90654  0.034379712  0.034609103            4 
 1443000    1.0193844   -6.2389242    595.33317  0.034380525  0.034601569           11 
 1444000    1.0092002   -6.2060824    596.84498  0.034443962  0.034594139            4 
 1445000    1.0113802   -6.2431942    595.28056  0.034329906  0.034586843            6 
 1446000    1.0025161   -6.2495034    597.15497  0.034414187  0.034579423           10 
 1447000    1.0336566   -6.2252492    595.77704  0.034311048  0.034571972           12 
 1448000     1.005688   -6.2108178    596.29139  0.034316954  0.034564412            7 
 1449000    1.0303107    -6.249047    596.62049  0.034312198  0.034556924            6 
 1450000    1.0411063    -6.247286    598.21341  0.034380081   0.03454945            5 
 1451000    1.0194805   -6.2498956    598.20652  0.034355991  0.034542083            7 
 1452000    1.0052865   -6.2523099    599.13961  0.034385882  0.034534693            5 
 1453000    1.0361347   -6.2303276    597.71112  0.034280289  0.034527363            8 
 1454000    1.0056041   -6.2531724     600.9714   0.03444357  0.034520179            3 
 1455000    1.0184931   -6.2657909    599.39248  0.034329466  0.034512892            4 
 1456000    1.0276768   -6.2455629    599.56973  0.034316033  0.034505542            6 
 1457000     1.017628    -6.223718    600.72539  0.034358579   0.03449829            7 
 1458000    1.0405876   -6.2212714    601.31405  0.034368658  0.034491272            8 
 1459000    1.0198679   -6.2730373    603.09774  0.034446981  0.034484253            3 
 1460000    1.0349288    -6.206544    601.84287  0.034351762  0.034477071            6 
 1461000    1.0098706   -6.2204481    602.69785  0.034377016  0.034470038           10 
 1462000    1.0124217   -6.2065901    603.58442  0.034404037  0.034463025            4 
 1463000    1.0266678   -6.2472292    603.71289  0.034387838  0.034456064            5 
 1464000    1.0211559   -6.2362723    603.85363   0.03437236  0.034449251            6 
 1465000     1.030092   -6.2765244    601.97406  0.034241983  0.034442439            9 
 1466000   0.99129266   -6.2404967    605.29394  0.034407341  0.034435491            7 
 1467000    1.0093858   -6.2268931    604.46941  0.034337049   0.03442865            5 
 1468000    1.0328839   -6.2145402     605.3838  0.034365565  0.034421771            7 
 1469000   0.99301756   -6.2409667     605.0947  0.034325772  0.034414766            4 
 1470000    1.0307117   -6.2387025    606.10574  0.034359736  0.034407687            6 
 1471000    1.0194628   -6.2549201     605.5761  0.034306373  0.034400732            9 
 1472000    1.0219161    -6.254954    606.68278  0.034345719  0.034393725            5 
 1473000    1.0115389   -6.2599331    604.49366  0.034198555  0.034386663            4 
 1474000    1.0324269   -6.2272333    604.62217  0.034182619   0.03437944           10 
 1475000    1.0181305     -6.23545    606.03134  0.034239059  0.034372287            4 
 1476000     1.020453   -6.2547328    605.08093  0.034162203  0.034365028            7 
 1477000    1.0394426   -6.2172465    606.22579  0.034203667  0.034357732            8 
 1478000    1.0160065   -6.2559965      604.052  0.034057961  0.034350378            7 
 1479000    1.0184269   -6.2765936     604.0223   0.03403326  0.034342909            4 
 1480000    1.0122065   -6.2433078    606.71565  0.034161917   0.03433547           12 
 1481000    1.0280957   -6.2424026    607.50402  0.034183211  0.034327846            4 
 1482000    1.0281893   -6.2560768    606.57836  0.034108095  0.034320142            7 
 1483000    1.0125523   -6.2573153    606.09672  0.034058031  0.034312562           10 
 1484000    1.0304075   -6.2285124    609.52827  0.034227778  0.034305178            5 
 1485000    1.0259651   -6.2360334    606.56447   0.03403841  0.034297801            9 
 1486000   0.99953038   -6.2324148    607.48967  0.034067388  0.034290284            4 
 1487000   0.99986039   -6.2482339    608.65363  0.034109708  0.034282827            8 
 1488000    1.0224626   -6.2420583    606.91799  0.033989583   0.03427529            5 
 1489000   0.99860612   -6.2667991    609.14492  0.034091388  0.034267887            8 
 1490000    1.0304729   -6.2526426    608.82749  0.034050754  0.034260415            6 
 1491000    1.0167363   -6.2646393    608.48615  0.034008839  0.034252806            5 
 1492000    1.0092397   -6.2238862    609.32475  0.034032884  0.034245206           16 
 1493000      1.02011   -6.2446266     611.1867  0.034114016  0.034237674            6 
 1494000   0.99962926   -6.2482388    610.89304  0.034074801  0.034230242            5 
 1495000   0.99819569   -6.2559935    609.01647  0.033947406  0.034222698            6 
 1496000     1.023919   -6.2428939    609.77779  0.033967123  0.034215053            4 
 1497000    1.0383877   -6.2190597     609.8795  0.033950095  0.034207502            5 
 1498000     1.024922   -6.2375919    610.11337  0.033940441  0.034199827            9 
 1499000    1.0207945   -6.2549589    610.96873  0.033965351   0.03419216            3 
 1500000    1.0260859   -6.2570793    611.68226  0.033982348  0.034184455            5 
 1501000    1.0222973   -6.2462132    610.69122  0.033904687  0.034176759            3 
 1502000     1.006926   -6.2465631    610.97183  0.033897683  0.034168989            3 
 1503000    1.0063605   -6.2401537    612.05494  0.033935182  0.034161332            4 
 1504000    1.0326575   -6.2088994    610.81026  0.033843654  0.034153742            5 
 1505000    1.0115131   -6.2684766      610.982  0.033830676  0.034146011            6 
 1506000    1.0005175   -6.2393001    611.58883   0.03384179  0.034138172           10 
 1507000    1.0167532   -6.2838735    611.19582  0.033797601  0.034130433           10 
 1508000    1.0268448   -6.3069488    611.19809  0.033775314  0.034122517            8 
 1509000    1.0157578   -6.2810051    613.09591  0.033857737  0.034114597            6 
 1510000   0.99490516   -6.2419592    613.59978  0.033863123  0.034106679            8 
 1511000    1.0041578   -6.2644158    614.42108  0.033886007  0.034098794            7 
 1512000    1.0156907   -6.2722278    614.66577  0.033877082  0.034090931            5 
 1513000   0.99531191   -6.2309879    615.63618  0.033908139  0.034083387            5 
 1514000    1.0097118   -6.2478133    613.72619  0.033780614  0.034075757            9 
 1515000   0.99534299   -6.2486458    613.83469  0.033764284  0.034068351            6 
 1516000   0.99730845   -6.2493386    614.99538  0.033805815   0.03406084            6 
 1517000    1.0249837   -6.2733908    615.51887  0.033812287  0.034053312            3 
 1518000   0.99875815   -6.2193886    617.36046   0.03389111  0.034045622           12 
 1519000    1.0114552   -6.2812037    616.44704  0.033818688   0.03403791            5 
 1520000    0.9997984   -6.2435273    616.23948  0.033785059  0.034030056            6 
 1521000   0.99816238   -6.2664755    616.74224  0.033790392  0.034022277            7 
 1522000    1.0080253   -6.2534558    616.08877  0.033732412  0.034014551            2 
 1523000    1.0027383   -6.2762942    616.65968  0.033741501  0.034006722           14 
 1524000   0.99980803   -6.2497165    617.70425  0.033776479  0.033998903           18 
 1525000   0.98589627   -6.2807447    616.52815  0.033690063  0.033991149           19 
 1526000    1.0093929   -6.2902646    616.09978  0.033644593  0.033983423            7 
 1527000     1.017782   -6.2683965    616.97504  0.033670325  0.033975677            4 
 1528000    1.0131829   -6.2416888     617.3469   0.03366857  0.033967981            3 
 1529000   0.99780267   -6.2710094     618.2968  0.033698321  0.033960239           14 
 1530000    1.0133987   -6.2360688    619.60827  0.033747727  0.033952742            4 
 1531000   0.99426547   -6.2388079     619.3005  0.033708932  0.033945155            4 
 1532000    1.0144169   -6.2263256    620.35413  0.033744241  0.033937602            6 
 1533000    1.0027666   -6.2182655     621.3342  0.033775505  0.033930178            8 
 1534000    1.0045342   -6.2560939    620.13418  0.033688298  0.033922961            5 
 1535000    1.0265612   -6.2602005     621.7676  0.033755027  0.033915504            6 
 1536000   0.99669488    -6.258303    621.16578    0.0337004   0.03390801            6 
 1537000    1.0163678   -6.2732795    621.53201  0.033698331  0.033900425            5 
 1538000    1.0101787   -6.2469248    621.44353  0.033671626   0.03389299            4 
 1539000    1.0291344   -6.2787738    620.94828  0.033622931   0.03388561            5 
 1540000    1.0314893   -6.2523879    620.68413  0.033586804  0.033878301            6 
 1541000    1.0216011   -6.2565005    626.52754  0.033881005  0.033870974            5 
 1542000   0.99709368   -6.2789426    622.25645  0.033628213  0.033863642            4 
 1543000     1.016669   -6.2737038    623.80841  0.033690236  0.033856106            4 
 1544000    1.0081684   -6.2537133    624.32692  0.033696401  0.033848847            9 
 1545000   0.99747056   -6.2608864    625.42077   0.03373359  0.033841607            5 
 1546000    1.0076346   -6.2590654    625.32227  0.033706461  0.033834118           13 
 1547000    1.0055792   -6.3326127    624.07243  0.033617347  0.033826711            3 
 1548000    1.0385646   -6.2601524    624.56068  0.033621914  0.033819244            3 
 1549000    1.0160296   -6.2459077    625.68415  0.033660649  0.033811762            3 
 1550000   0.99854249    -6.267444    625.15284  0.033610368   0.03380429            5 
 1551000   0.99862511   -6.2571594     626.3985  0.033655625  0.033797008            6 
 1552000    1.0092123   -6.2731321    625.16418  0.033567664    0.0337895            8 
 1553000   0.99465812   -6.2712843    624.88874   0.03353127  0.033781953           10 
 1554000    1.0118651   -6.3009512    624.68563    0.0334988  0.033774371            6 
 1555000   0.98834262   -6.2591661    624.30463   0.03345684  0.033766679            4 
 1556000    1.0094575   -6.2762543    626.23558  0.033538752  0.033758963            9 
 1557000   0.99502498   -6.2874119    627.54465  0.033587275  0.033751409            8 
 1558000   0.99212996   -6.2596523     625.9996  0.033483076  0.033743903           12 
 1559000    1.0198321   -6.2730309     625.5553   0.03343785  0.033736274            4 
 1560000    1.0118406   -6.2666255    628.06717  0.033550597  0.033728806            4 
 1561000    1.0040435   -6.2687228    628.53773  0.033554225  0.033721303           11 
 1562000    1.0093696   -6.2797279    629.61178  0.033590044  0.033713931            4 
 1563000   0.99854489   -6.2657954    628.62843  0.033516124   0.03370652            6 
 1564000   0.99687956   -6.2799024    629.19289   0.03352477  0.033699028           17 
 1565000   0.98707204   -6.2371562    629.56484  0.033523154  0.033691601            6 
 1566000   0.98557007   -6.2375474    629.90141  0.033519658  0.033684248            5 
 1567000   0.98463129   -6.2796334     627.8787  0.033390699  0.033676806            5 
 1568000    1.0217637   -6.2817548    631.45452  0.033559445  0.033669331            6 
 1569000    1.0253602   -6.2353528    631.05508  0.033516841  0.033661957            5 
 1570000   0.99101637   -6.2473882    631.81586  0.033535874  0.033654734           16 
 1571000    1.0160026   -6.2554304    629.58143  0.033396002  0.033647419            3 
 1572000   0.99735367   -6.2638079    631.29275  0.033465477  0.033639874            4 
 1573000    1.0180223   -6.2921635      631.075  0.033432666  0.033632469            9 
 1574000    1.0174106   -6.2646229    630.37666  0.033374453  0.033625038            8 
 1575000    1.0306018   -6.2616108    631.46637  0.033410919  0.033617583            8 
 1576000     1.009971    -6.266647     631.9812  0.033416942  0.033610142            5 
 1577000    1.0229037   -6.2750353    632.12329   0.03340326  0.033602567            7 
 1578000   0.98989373   -6.2539059    633.29162  0.033443791  0.033595144           16 
 1579000   0.99229836   -6.3117628    631.69063  0.033338116   0.03358776            7 
 1580000    1.0020761    -6.264417    632.70984  0.033370772  0.033580251            4 
 1581000    1.0162666   -6.2181598    635.00403   0.03347059  0.033572818            7 
 1582000   0.99444619   -6.2559974    636.21806  0.033513383  0.033565509            5 
 1583000     1.011784   -6.2825611    636.52313  0.033508272  0.033558158            4 
 1584000    0.9908933    -6.251534     634.6109  0.033386516  0.033550949            4 
 1585000   0.98373787   -6.2488709     636.1183  0.033444706  0.033543622            7 
 1586000    1.0028441   -6.2836751    634.68077  0.033348086  0.033536254            6 
 1587000    1.0027229   -6.2506962    636.38406  0.033416512  0.033528777            4 
 1588000   0.99929613   -6.2716422    635.01841  0.033323804  0.033521345           10 
 1589000    1.0089904   -6.2794542    634.94003  0.033298722  0.033513812            5 
 1590000   0.97531062   -6.2586417    636.42699  0.033355712  0.033506337           11 
 1591000    1.0260102   -6.2799742    636.25216   0.03332559  0.033498955            6 
 1592000   0.98000351   -6.2843601    637.69238  0.033380045  0.033491639            5 
 1593000   0.99561597   -6.2582722     637.7676  0.033363025  0.033484466            3 
 1594000   0.99570787    -6.271743    636.86538  0.033294928  0.033477172            8 
 1595000    1.0011424   -6.2815492    637.60123  0.033312499  0.033469906            7 
 1596000   0.99293631   -6.2957195    636.57308  0.033237943  0.033462474            5 
 1597000    1.0009287   -6.2517139    638.76837  0.033331683  0.033455195           13 
 1598000   0.99083667   -6.3114779    637.60369  0.033250088  0.033447842           11 
 1599000    1.0175216   -6.2714054    639.04698  0.033304512  0.033440449            9 
 1600000   0.98554974   -6.2662526    639.97203  0.033331876  0.033433184            4 
 1601000    1.0029782     -6.26358    637.95415  0.033206025  0.033425848            3 
 1602000   0.98428234   -6.3221507    638.26306  0.033201366  0.033418457            7 
 1603000   0.98212865   -6.2431615    639.14372  0.033226436  0.033411159            5 
 1604000    1.0028536   -6.2899751    640.80279  0.033291915  0.033403803            5 
 1605000   0.99935295   -6.2715797    640.37997   0.03324922  0.033396417            5 
 1606000    1.0005409   -6.3173655    639.38333  0.033176802  0.033388948           11 
 1607000   0.98577734   -6.2940226    640.12572  0.033194655  0.033381434            9 
 1608000   0.98241276    -6.298077    639.26343  0.033129323  0.033374094            3 
 1609000   0.98767735   -6.2968432     639.9116  0.033142304  0.033366864            8 
 1610000   0.97374448   -6.2936436    642.87736  0.033275226  0.033359496            4 
 1611000   0.97954703   -6.2763426    642.62123  0.033241322  0.033352189            3 
 1612000    1.0065389    -6.276346    642.23763   0.03320087   0.03334476            7 
 1613000   0.99273033   -6.2819026    641.89338  0.033162502  0.033337391            6 
 1614000   0.98642093   -6.2694765     642.3695  0.033166537  0.033329949            4 
 1615000    0.9820577   -6.2548691    644.34149  0.033247755  0.033322557            4 
 1616000   0.96703304   -6.2781001    642.24377  0.033119006  0.033315201            5 
 1617000     1.009743   -6.2578836    643.88737  0.033183229  0.033307868            3 
 1618000   0.99052842   -6.2992593    641.42064  0.033035673  0.033300595            9 
 1619000   0.98608023   -6.2489423    643.37957  0.033116099  0.033293288            9 
 1620000   0.97971365   -6.2736489    644.99536  0.033178774  0.033285976            7 
 1621000   0.99731346   -6.2750013    646.94347  0.033258455  0.033278583            5 
 1622000   0.98661857   -6.2747633    645.51011  0.033164309  0.033271295           12 
 1623000   0.99293553   -6.2839619    645.80077  0.033158799  0.033263861            6 
 1624000   0.98514709   -6.3052538    645.27234  0.033111265  0.033256447            5 
 1625000     1.006014   -6.2961148    645.67628  0.033111604  0.033248956            8 
 1626000   0.99462521   -6.3002177    644.03558  0.033007153  0.033241539           14 
 1627000   0.99427467   -6.2940803    645.30476  0.033051873  0.033234227            9 
 1628000   0.94865473   -6.2835116    644.98845  0.033015379  0.033226641           12 
 1629000   0.97728186   -6.2686568    645.85825  0.033039608  0.033219034            8 
 1630000   0.97021046   -6.2932818    645.78991  0.033015844  0.033211307            7 
 1631000   0.97678902   -6.2804691     646.4447  0.033029057  0.033203689           11 
 1632000   0.99485419   -6.3065461    643.66004  0.032866628  0.033196059            6 
 1633000   0.97120017   -6.2764183    645.82992  0.032957232  0.033188367            7 
 1634000   0.99274625   -6.2915637    646.43686  0.032968016  0.033180859            5 
 1635000   0.97983153   -6.2767522      644.338  0.032840877  0.033173287           10 
 1636000   0.97943797   -6.2646611    646.30196  0.032920841  0.033165843            5 
 1637000    1.0103539   -6.2697485    647.08727  0.032940708  0.033158365            4 
 1638000    1.0014855   -6.2822221    646.53628  0.032892566  0.033150939            6 
 1639000   0.99859569   -6.2732638    646.62511  0.032877014  0.033143442            7 
 1640000    1.0076539   -6.2893142    647.75903  0.032914585  0.033135938            9 
 1641000    1.0135749   -6.2723429    648.46025  0.032930137  0.033128498            3 
 1642000   0.98606167   -6.3046529    647.98306  0.032885864  0.033121058            5 
 1643000   0.97033643   -6.2741836     649.5415  0.032944892  0.033113506           18 
 1644000   0.98220386   -6.2515464    652.42268  0.033070898  0.033106088            7 
 1645000   0.99671614   -6.3286284    649.03842  0.032879353  0.033098622            7 
 1646000   0.97258612   -6.2682221    651.16045  0.032966811  0.033091272            9 
 1647000   0.98459494   -6.2936003    651.62114  0.032970104  0.033083881            7 
 1648000    1.0019571   -6.3092126    651.78106  0.032958185  0.033076701           14 
 1649000   0.97489269   -6.2825916    651.43114  0.032920515  0.033069335            5 
 1650000   0.99866242   -6.2705838    651.81541   0.03291997  0.033061928            3 
 1651000   0.98181965   -6.3189202    652.35996  0.032927517  0.033054745            9 
 1652000   0.99575543   -6.2946943    649.88861   0.03278292  0.033047348           11 
 1653000   0.96448808   -6.2961064    650.68923   0.03280345  0.033039793            5 
 1654000   0.96394538   -6.2654145    651.81345  0.032840259  0.033032294            8 
 1655000   0.99898388   -6.2802246    652.29578  0.032844702  0.033024823            2 
 1656000   0.96905067   -6.3113943    653.22928  0.032871844  0.033017422            7 
 1657000   0.98851581   -6.2785136    653.18072  0.032849563  0.033009962            5 
 1658000   0.97688377   -6.3054977    654.94365  0.032918358  0.033002669            3 
 1659000   0.99161698   -6.2809603    653.76472  0.032839297   0.03299529            9 
 1660000   0.98541404   -6.2560253    654.13236   0.03283797  0.032987933           11 
 1661000   0.98312413     -6.31382    654.43661  0.032833464  0.032980594            4 
 1662000    1.0076076   -6.2598081    654.61547  0.032822677  0.032973403            5 
 1663000   0.96863786   -6.2832241     653.2266  0.032733344  0.032966053            7 
 1664000    0.9861594    -6.307628    656.20467  0.032862814  0.032958631            9 
 1665000   0.99682591    -6.291201     653.6492  0.032715175  0.032951065            8 
 1666000   0.97863768   -6.2824898    654.15989  0.032721083  0.032943524            5 
 1667000   0.99063017   -6.2899086    656.50326  0.032818599  0.032936022            4 
 1668000   0.99601802   -6.2711395    655.42119  0.032744864  0.032928565            5 
 1669000   0.99850462   -6.2889703    655.74452  0.032741388  0.032921039            4 
 1670000   0.98009969   -6.3119734    655.03684  0.032686469  0.032913627            3 
 1671000    0.9909135   -6.2974493     654.9483  0.032662493  0.032906048            5 
 1672000    1.0058325   -6.3292814    655.70191  0.032680518  0.032898469            7 
 1673000   0.95837418    -6.297478    657.62147  0.032756598  0.032890868           12 
 1674000   0.97721459   -6.3035298     657.0518  0.032708672  0.032883405            6 
 1675000   0.98461353   -6.3050465    656.74034  0.032673649  0.032875911            4 
 1676000   0.98145505   -6.2936009    656.84959  0.032659586  0.032868464            5 
 1677000   0.97354249   -6.3261849    657.35897  0.032665423   0.03286113           14 
 1678000   0.99442552    -6.304392    657.82333  0.032669017   0.03285361           15 
 1679000   0.97932753   -6.2899251    658.05771  0.032661193  0.032846212            7 
 1680000   0.97395025   -6.3474687    658.52667  0.032665014  0.032838746            6 
 1681000   0.98178795   -6.3079691     658.6558  0.032651983  0.032831339            7 
 1682000    1.0060238   -6.3043477    660.39121   0.03271855  0.032824024            9 
 1683000     0.972437   -6.3164477    660.53656  0.032706306  0.032816746            7 
 1684000   0.99307342   -6.2988794    661.70957  0.032744931  0.032809583            7 
 1685000   0.99080267   -6.2979509    660.96533  0.032688691  0.032802402            4 
 1686000   0.97836833   -6.3148088    660.76496  0.032659399  0.032795096            4 
 1687000   0.99469474   -6.3464328    659.38354  0.032571801  0.032787687            4 
 1688000   0.97901042   -6.3067312    662.00678  0.032682009  0.032780296            4 
 1689000   0.97150314   -6.3136126    661.62015  0.032643584   0.03277298            9 
 1690000   0.97558054    -6.270251    662.01999  0.032643984  0.032765623            6 
 1691000   0.97184617   -6.3148273    659.49784  0.032500386  0.032758367            4 
 1692000   0.96862301   -6.3099974    662.77504  0.032642585  0.032750938            4 
 1693000   0.97349632   -6.2936692    663.19561  0.032644005  0.032743512            5 
 1694000   0.97192007   -6.3338833    663.20422  0.032625158  0.032736083            7 
 1695000    1.0117939   -6.2906977    663.29859   0.03261055  0.032728715            7 
 1696000   0.98662166   -6.3088237    664.46547  0.032648657  0.032721508            7 
 1697000   0.98606762   -6.3347144    662.95833  0.032555408  0.032714234            4 
 1698000   0.97474246   -6.2893882     663.3506  0.032555487  0.032706909            7 
 1699000   0.98470317   -6.2860353     663.1614  0.032527045  0.032699741            5 
 1700000   0.99420929   -6.3246878    664.98554   0.03259733  0.032692518            5 
 1701000   0.97496642   -6.3154258    664.31424  0.032545279  0.032685258            5 
 1702000    0.9883008   -6.2797719    664.26239  0.032523619   0.03267814           13 
 1703000   0.99426643   -6.3078715    664.66438  0.032524192  0.032671054            9 
 1704000   0.97393793   -6.3107458    667.61714  0.032649508  0.032663929            7 
 1705000   0.99830939   -6.2939817    666.21632  0.032561893  0.032656771            7 
 1706000   0.99598935   -6.2889419    666.99241  0.032580716  0.032649647            8 
 1707000   0.96737536   -6.3136546      665.893  0.032507957  0.032642483            8 
 1708000   0.98292008   -6.3151104      666.281  0.032507855  0.032635208            7 
 1709000   0.98748871   -6.3533903    666.80868  0.032514564  0.032627968            3 
 1710000   0.97581768   -6.2892545     667.9862  0.032552934  0.032620738            6 
 1711000   0.96769003   -6.3156005    666.80894   0.03247657  0.032613534            5 
 1712000   0.97649239    -6.279518    667.89081  0.032510261  0.032606286           18 
 1713000   0.98151138   -6.2971492    667.88632  0.032491064  0.032599106           14 
 1714000   0.97232573   -6.3175989    669.76686  0.032563538  0.032591797            4 
 1715000   0.96997715   -6.2963585     668.2253  0.032469645  0.032584602            3 
 1716000   0.99425811   -6.3042963    668.97779  0.032487266  0.032577485            7 
 1717000   0.95340644   -6.3117857    668.82007  0.032460691  0.032570291            7 
 1718000   0.97636908   -6.3363768    668.52676  0.032427569  0.032563058            6 
 1719000   0.96412095   -6.3286111    669.88483  0.032474541  0.032555795           10 
 1720000     0.971121    -6.321864    669.02285  0.032413898  0.032548507            5 
 1721000   0.99155154   -6.2790247    669.38355  0.032412529  0.032541166           12 
 1722000   0.96627198   -6.2899274    670.68648   0.03245676  0.032533963            6 
 1723000   0.95244366   -6.3301708    669.49162  0.032380133  0.032526657            9 
 1724000   0.98581334   -6.3248574    669.26117  0.032350211  0.032519325            5 
 1725000   0.99560721   -6.2918671    672.51489  0.032488642  0.032512004            5 
 1726000   0.96470696    -6.313684    669.85071  0.032341189  0.032504728            8 
 1727000   0.98076341    -6.344448    671.39554  0.032397005  0.032497492           16 
 1728000   0.95117619   -6.3033024    672.22323  0.032418173  0.032490189            7 
 1729000   0.97675268    -6.292806    671.71153  0.032374761  0.032482922            9 
 1730000   0.97910667   -6.2863238    672.49077  0.032393582  0.032475725            4 
 1731000   0.97545153   -6.3319401    671.49774  0.032327062  0.032468437            5 
 1732000   0.98224598   -6.3340834    670.34885   0.03225312  0.032461103            6 
 1733000   0.99204653   -6.2946851    673.41056  0.032381735  0.032453806            8 
 1734000   0.97199109   -6.3055785     674.4234  0.032411736  0.032446498            7 
 1735000    0.9489332    -6.329173    672.58642  0.032304823  0.032439243           18 
 1736000   0.98150736   -6.3022073    671.78213  0.032247606   0.03243193            8 
 1737000   0.97257321   -6.3376779    673.64037  0.032318191  0.032424623           12 
 1738000   0.96391551   -6.3253668     672.2569  0.032233261  0.032417197           12 
 1739000   0.98475293   -6.2780741    674.02372  0.032299392  0.032409793            4 
 1740000   0.97609674   -6.3258572     673.7067  0.032265646  0.032402479            4 
 1741000   0.99719742   -6.2983985    675.45624  0.032330856  0.032395005            5 
 1742000   0.94746489   -6.2905665    673.97998  0.032241675  0.032387591            7 
 1743000   0.98360254   -6.3488442    672.00796  0.032128895  0.032380071            9 
 1744000   0.97306839   -6.3214439    672.96739  0.032156316  0.032372514           28 
 1745000   0.97314502   -6.3439271    672.66604  0.032123497  0.032364896            6 
 1746000   0.96947503    -6.326619    673.52596  0.032146142  0.032357324           15 
 1747000   0.96719683   -6.3209213    672.03512  0.032056627  0.032349798            6 
 1748000   0.98327366   -6.3173692    672.69333  0.032069667  0.032342253            9 
 1749000    0.9601142   -6.3169654    675.88351  0.032203331  0.032334652            8 
 1750000   0.96066139    -6.315325    675.68277   0.03217537   0.03232715            4 
 1751000   0.96493233   -6.3287662     674.3584  0.032093965  0.032319508            9 
 1752000   0.96525793   -6.3234382    674.53965  0.032084268  0.032311929            7 
 1753000   0.97227177   -6.3184332    675.03063  0.032089305   0.03230433            6 
 1754000   0.97202322   -6.2962511     675.8519  0.032110029  0.032296756           21 
 1755000   0.96401158   -6.3553503    676.02489  0.032099947  0.032289201            7 
 1756000   0.96195286   -6.3598307    674.62312  0.032015144  0.032281641            5 
 1757000   0.96879821    -6.316613    675.37938  0.032032792  0.032274109            6 
 1758000    1.0038118   -6.3437599    674.87428  0.031990627  0.032266426            5 
 1759000    0.9521414   -6.3547078    677.64465  0.032103688  0.032258831            7 
 1760000   0.97622573   -6.3403026    676.36961  0.032025076   0.03225122           13 
 1761000   0.97550597   -6.3029558    678.69194  0.032116787  0.032243697           15 
 1762000   0.98028569   -6.3698834     677.2301  0.032029422  0.032236112            8 
 1763000   0.98015578   -6.3368655    676.72553  0.031987404  0.032228451            5 
 1764000   0.97228282   -6.2987166     678.8081  0.032067654  0.032221041            4 
 1765000   0.97143334   -6.3388669    677.22741  0.031974854  0.032213588            9 
 1766000   0.96545543    -6.337747    678.64169  0.032023485   0.03220598           11 
 1767000   0.97305937   -6.3228008    678.06977  0.031978389   0.03219846            9 
 1768000   0.96610141   -6.3447749    678.69164  0.031989614  0.032190945           17 
 1769000   0.96821325   -6.3445498    680.62591  0.032062649  0.032183541           11 
 1770000   0.97379323   -6.3179448    683.80957  0.032194424  0.032176211           12 
 1771000     0.973217   -6.3170591    683.85806  0.032178527   0.03216891            8 
 1772000   0.99795055   -6.3301462    680.84998  0.032018904  0.032161615            8 
 1773000    0.9717181   -6.2951063    683.31182  0.032116555   0.03215427            8 
 1774000   0.95946226   -6.3476748    681.82137  0.032028437  0.032146906            4 
 1775000   0.93149348   -6.3526311    681.14849  0.031978802  0.032139619           15 
 1776000   0.95041763   -6.3480463    680.40388  0.031925858  0.032132193            5 
 1777000   0.95977157   -6.3359072    682.44695  0.032003703  0.032124904            4 
 1778000   0.98706365   -6.3348634    682.40602  0.031983784  0.032117671            7 
 1779000   0.96763877   -6.3202192    682.20373   0.03195633  0.032110347            5 
 1780000   0.96191616   -6.3319482    683.51937  0.031999971  0.032103016            5 
 1781000   0.97862284   -6.3321214       682.39   0.03192916  0.032095662            8 
 1782000     0.969704   -6.3438907     684.4092  0.032005668  0.032088334            6 
 1783000   0.97409675   -6.3305992    683.93275  0.031965449  0.032080938           11 
 1784000   0.94867363   -6.3517134    683.52847  0.031928647  0.032073462           11 
 1785000    0.9585371   -6.3266983    683.91428  0.031928771   0.03206605            6 
 1786000    0.9604779   -6.3320329    684.82574  0.031953422   0.03205874            5 
 1787000   0.99300903   -6.3495586    682.79863   0.03184101  0.032051437            5 
 1788000   0.96969922   -6.3560006    685.93629  0.031969439  0.032044074            6 
 1789000   0.97572642   -6.3542171    685.35389   0.03192444  0.032036692            7 
 1790000    0.9421572   -6.3246845    685.38226  0.031907927  0.032029403            4 
 1791000   0.97041884   -6.3509362    684.00725  0.031826133  0.032021995            6 
 1792000   0.98350978   -6.3377335    684.88448  0.031849167  0.032014565            7 
 1793000   0.98138694   -6.3223006    685.60951  0.031865101   0.03200717           10 
 1794000   0.97085778   -6.3347662    685.80117  0.031856242  0.031999747            8 
 1795000   0.97026315    -6.327043    685.77493  0.031837276  0.031992349            8 
 1796000    0.9477208   -6.3800151    686.26988  0.031842515  0.031984904            4 
 1797000    0.9798592   -6.3508748    684.72559  0.031753181  0.031977336           22 
 1798000   0.95631496   -6.3167648    687.30009  0.031854843  0.031969915           12 
 1799000   0.99217252   -6.3543174    687.02286  0.031824294   0.03196243            7 
 1800000   0.94661195   -6.3680408    686.62597  0.031788239  0.031954877            3 
 1801000   0.96945978   -6.3303561    685.28741  0.031708653  0.031947294            6 
 1802000   0.97623545   -6.3112473    686.63495  0.031753373  0.031939745            6 
 1803000   0.95624513   -6.3643574    685.89876  0.031701736  0.031932171            9 
 1804000   0.95190507   -6.3564017     685.5061  0.031666025  0.031924616            8 
 1805000   0.96426183   -6.3134746    687.39144  0.031735524  0.031917074            8 
 1806000   0.96171621   -6.3337665    688.38628  0.031763856  0.031909657            4 
 1807000   0.97335042   -6.3370027     689.4543  0.031795531  0.031902188           14 
 1808000   0.94026094    -6.359174    685.89839  0.031614048  0.031894622           10 
 1809000   0.94668834   -6.3243463    686.50419  0.031624479  0.031887081            4 
 1810000   0.96923959    -6.360121    690.99962  0.031813979  0.031879688            9 
 1811000   0.99216938   -6.3613469    689.48248    0.0317266  0.031872338           11 
 1812000   0.99472052   -6.3433875    688.97517   0.03168576  0.031865001            7 
 1813000   0.97440798    -6.336849     689.5929  0.031696677  0.031857491            3 
 1814000   0.94823645   -6.3322248    691.24708  0.031755195  0.031850056            5 
 1815000   0.94434918   -6.3614408    690.68214   0.03171176  0.031842668            6 
 1816000   0.96344105   -6.3478184    690.73882  0.031696899  0.031835363            3 
 1817000   0.95763305   -6.3622645     689.5844  0.031626509  0.031827998           10 
 1818000   0.96305085    -6.344953    691.05913  0.031676711  0.031820637           11 
 1819000   0.96572709   -6.3568493    691.16201   0.03166401  0.031813265            4 
 1820000   0.97359351   -6.3268554    691.63502   0.03166827  0.031805919            5 
 1821000   0.95231155   -6.3142874    692.68833  0.031699082  0.031798542           16 
 1822000   0.97272686   -6.3579145    692.44636  0.031670617  0.031791201            7 
 1823000   0.94254035   -6.3439276    692.78884  0.031668899  0.031783865           17 
 1824000   0.95373304   -6.3415344     694.0131   0.03170747  0.031776546            4 
 1825000   0.95148444   -6.3469543    695.07977  0.031738802  0.031769327            5 
 1826000   0.96277613   -6.3182868    692.75726  0.031615428  0.031762047           20 
 1827000   0.94425035   -6.3455836    692.18969  0.031572235  0.031754911            8 
 1828000   0.96794083   -6.3705304     693.3683  0.031608694  0.031747689            6 
 1829000   0.98120031   -6.3602296     693.1406  0.031581037  0.031740398            5 
 1830000   0.93978819   -6.3482595    694.81514  0.031640034  0.031733133           14 
 1831000   0.94165698   -6.3278709    694.27369  0.031598111  0.031725849            5 
 1832000    0.9581842   -6.3098455    695.35935  0.031630247  0.031718585           10 
 1833000   0.93489234   -6.3383507      693.608   0.03153337  0.031711366            6 
 1834000   0.95890739   -6.3277123    696.35134  0.031640828  0.031704131           11 
 1835000   0.95974183    -6.323194    696.04127  0.031609504  0.031696811            6 
 1836000   0.97435181   -6.3234762    695.80417  0.031581525  0.031689671            6 
 1837000   0.95380112   -6.3348393    695.43679  0.031547668  0.031682388            6 
 1838000   0.95651341   -6.3825897    696.51375  0.031579332  0.031675086            5 
 1839000   0.94014725   -6.3377121    697.63734  0.031613075  0.031667819            7 
 1840000   0.96574037   -6.3235384    696.98543  0.031566369  0.031660614            8 
 1841000    0.9524492   -6.3247125    699.08384  0.031644208  0.031653483           20 
 1842000   0.96854658   -6.3665555    697.09277  0.031536951  0.031646286            8 
 1843000   0.96813653   -6.3143012    699.46452  0.031627081  0.031639118            6 
 1844000   0.94047753   -6.3296378    698.82957  0.031581235  0.031632068            6 
 1845000   0.94008698   -6.3563227    699.67935    0.0316025  0.031624905            9 
 1846000   0.96750421   -6.3295531    698.52537  0.031533287  0.031617775            9 
 1847000   0.95299365   -6.3293454    698.60972   0.03152002  0.031610613            8 
 1848000   0.95857567   -6.3510532    697.59572  0.031457238  0.031603348            5 
 1849000   0.97698975   -6.3495261     701.2964  0.031607013  0.031596086            6 
 1850000   0.94243334    -6.360778    699.59898  0.031513468  0.031588843            4 
 1851000   0.96185592   -6.3748408    698.86339  0.031463326  0.031581681           10 
 1852000   0.95333536   -6.3771268    700.47534  0.031518869  0.031574415            6 
 1853000   0.96494837   -6.3666369    700.69053  0.031511537  0.031567197           13 
 1854000   0.95871066   -6.3695071    701.70715  0.031540235  0.031560045            9 
 1855000   0.94822096   -6.3386803    700.78393  0.031481758   0.03155293            5 
 1856000   0.94710328   -6.2976414    704.00938  0.031609617   0.03154588            7 
 1857000   0.94732941   -6.3623097    701.61594  0.031485188  0.031538908           20 
 1858000   0.94455315   -6.3399122    702.42116  0.031504358   0.03153184           10 
 1859000   0.94484747   -6.3712291    701.06327  0.031426541  0.031524813           10 
 1860000   0.96452888   -6.3677653    702.59931  0.031478464  0.031517678            9 
 1861000   0.98347823   -6.3780543    700.37999   0.03136217   0.03151058            7 
 1862000   0.97945438    -6.358403     702.2654  0.031429708  0.031503479            4 
 1863000   0.95475143    -6.333361    704.68913  0.031521253  0.031496468            4 
 1864000   0.96226966   -6.3565185    702.72315   0.03141645  0.031489498           13 
 1865000    0.9453864   -6.3638934    703.85647  0.031450244  0.031482495            8 
 1866000   0.95584835   -6.3355762    704.10783  0.031444616   0.03147559            6 
 1867000   0.93369199   -6.3712388    704.73733  0.031455871  0.031468592           11 
 1868000   0.95099066   -6.3631335    703.27722  0.031373894  0.031461541           15 
 1869000   0.97099287   -6.3496914    705.41076  0.031452237  0.031454544            6 
 1870000   0.93849363   -6.3669141    704.02126  0.031373496  0.031447579           14 
 1871000   0.93309342   -6.3833867    704.86223  0.031394185  0.031440491            6 
 1872000   0.95031839   -6.3453997     704.3577  0.031354955  0.031433385            9 
 1873000    0.9471404   -6.3574121    703.99212  0.031321949  0.031426241            9 
 1874000   0.95385248   -6.3348248    705.29702  0.031363261  0.031419098            4 
 1875000    0.9560025   -6.3336579    705.93095  0.031374709  0.031411999           17 
 1876000   0.95398454   -6.3598116    705.44002  0.031336177  0.031404934           16 
 1877000     0.950326   -6.3672384    705.12055  0.031305299  0.031397719           11 
 1878000   0.94713328   -6.3692153    705.38085   0.03130018  0.031390549           15 
 1879000   0.96276548   -6.3604759    705.12518  0.031272183   0.03138338           12 
 1880000   0.92993185   -6.3709605    703.91739  0.031202012  0.031376295           16 
 1881000   0.93971301   -6.3623957    706.34681  0.031293054   0.03136915            8 
 1882000   0.92539638   -6.3449947    706.04612  0.031263112  0.031361964           15 
 1883000   0.95226925   -6.3974213    707.72903  0.031320987  0.031354843            7 
 1884000   0.94137613   -6.3500228    708.59163  0.031342517  0.031347677            7 
 1885000   0.94513125   -6.3916687      707.703  0.031286605  0.031340499            6 
 1886000   0.94964426   -6.3635574    708.34158  0.031298232  0.031333218           12 
 1887000   0.94576488   -6.3542276    707.41224  0.031240604  0.031325937           12 
 1888000   0.95074398   -6.3299546    706.94416  0.031203397  0.031318698            6 
 1889000   0.96653194   -6.3775487    706.86875  0.031183552  0.031311428            5 
 1890000   0.93941101   -6.3491524    708.05758   0.03121947  0.031304095            8 
 1891000   0.96008101   -6.3920011    707.81251  0.031192161  0.031296787            6 
 1892000   0.96910187   -6.3784705    707.34339  0.031155012  0.031289549            7 
 1893000   0.95184972   -6.3521316    709.03717  0.031213117  0.031282404            4 
 1894000   0.92685263   -6.3470176    706.59051  0.031088988   0.03127519           12 
 1895000   0.93942868   -6.3644243     709.1838  0.031186623  0.031268019            9 
 1896000   0.94435069    -6.349112    710.46579   0.03122652  0.031260847            9 
 1897000    0.9554352   -6.3806187    707.44439  0.031077332  0.031253541            8 
 1898000   0.95840666   -6.3910204    707.67633  0.031071142  0.031246276            8 
 1899000   0.94506644    -6.353251    708.85132  0.031106342  0.031238915           12 
 1900000   0.96635988   -6.3736614     711.6985  0.031214846  0.031231632            8 
 1901000   0.96016994   -6.3656486    711.76839   0.03120149  0.031224398            4 
 1902000    0.9367478   -6.3746549     710.4123   0.03112567  0.031217144            6 
 1903000   0.95471606   -6.3689299    709.61758  0.031074513   0.03120989           25 
 1904000   0.94507153   -6.3646495    710.54671  0.031098858  0.031202634            7 
 1905000   0.94780818   -6.3809891    710.28477  0.031071075   0.03119538           15 
 1906000   0.94584579   -6.3726813    712.27994  0.031142005   0.03118814            7 
 1907000   0.91937198   -6.3719323     709.8164  0.031018021  0.031180937            5 
 1908000   0.95302986   -6.3263804    712.96079  0.031139098    0.0311737            7 
 1909000   0.97092591   -6.3871533    713.02152  0.031125437  0.031166551           12 
 1910000   0.94115279   -6.3340733    712.49567  0.031086199  0.031159389            9 
 1911000   0.94663504   -6.3418543    712.26588  0.031059911  0.031152205            4 
 1912000   0.95159338   -6.3824439    711.20308  0.030997345  0.031144916            7 
 1913000    0.9379108   -6.3895225    711.41966  0.030990576  0.031137603           16 
 1914000   0.94042132    -6.362417    710.97839  0.030955172  0.031130299            8 
 1915000   0.95845396   -6.3730944    712.48177  0.031004429  0.031122963           10 
 1916000   0.96395344   -6.3855293    711.74697  0.030956288  0.031115646            7 
 1917000   0.91922371    -6.406485    713.72635  0.031026185   0.03110839           10 
 1918000    0.9557887   -6.3516635    714.84076  0.031058427  0.031101115            8 
 1919000   0.93278075   -6.3821284    712.82804  0.030954839  0.031093817            7 
 1920000   0.95968943   -6.3896639    713.66343  0.030974975  0.031086449            6 
 1921000   0.94266606   -6.3656992    713.64549  0.030958073  0.031079083           13 
 1922000   0.93421607   -6.3570577    713.83432  0.030950152  0.031071749            6 
 1923000   0.93350516   -6.3571241    712.60314  0.030880705   0.03106441           12 
 1924000   0.93052548   -6.3750395    714.72308  0.030956474  0.031057082            8 
 1925000   0.94551707   -6.3692785    713.96493  0.030907573  0.031049783           12 
 1926000   0.95273753   -6.3858783    716.18883  0.030987748  0.031042508            5 
 1927000    0.9534889   -6.3407546    717.65125   0.03103491  0.031035302            6 
 1928000   0.94498391   -6.3902964    714.76129  0.030893901  0.031028044            9 
 1929000   0.94935439   -6.3498881    716.78483  0.030965303  0.031020816            3 
 1930000   0.94938805   -6.3908788    715.74874  0.030904522  0.031013481            7 
 1931000   0.93800129   -6.4004402     713.6014  0.030795848  0.031006123            9 
 1932000   0.96431643   -6.3616986    717.78633  0.030960418  0.030998853            8 
 1933000   0.93960494   -6.3791184    717.45486  0.030930111  0.030991543            6 
 1934000   0.92565416   -6.3918411    715.08457  0.030811986  0.030984159           10 
 1935000   0.93742858    -6.396641    717.44824  0.030897857  0.030976877            3 
 1936000   0.95261954   -6.3852723    716.27325  0.030831321  0.030969571            7 
 1937000   0.93403994   -6.3685763    718.50281  0.030911324  0.030962385            8 
 1938000    0.9488133   -6.3504801    718.08262  0.030877306  0.030955188            8 
 1939000   0.94422198   -6.3870788    715.87786  0.030766626  0.030947943            8 
 1940000   0.93135174   -6.3673685    718.05928  0.030844471  0.030940624            5 
 1941000   0.92946826   -6.3745962    719.41749  0.030886892  0.030933338            5 
 1942000   0.96985256   -6.3616966    719.23706  0.030863245   0.03092606           17 
 1943000   0.95075961   -6.4145586    715.66323  0.030694082  0.030918657           24 
 1944000   0.93563822   -6.4002076    718.08382  0.030782057  0.030911335           14 
 1945000   0.95253248   -6.3850531    718.88429  0.030800527  0.030903995           11 
 1946000   0.94341355   -6.3845115    718.06255   0.03074951  0.030896677            8 
 1947000   0.94019732   -6.3703095    718.22719  0.030740763  0.030889283           12 
 1948000   0.93426031   -6.4048259    718.43062  0.030733685  0.030881749           12 
 1949000   0.95356001   -6.3932987    718.62519  0.030726235  0.030874283           21 
 1950000   0.94959423   -6.3751579    721.20371  0.030820671  0.030866852            7 
 1951000   0.92297514     -6.40569    717.11297  0.030630146  0.030859405            5 
 1952000   0.94574126   -6.4136035    720.38671  0.030754214  0.030852059            7 
 1953000   0.95762879   -6.3880312     721.6195  0.030791069  0.030844757            7 
 1954000   0.93869702   -6.4033571    720.39913  0.030723265  0.030837488           13 
 1955000   0.95547478   -6.3875963    718.98203  0.030647145  0.030830111           12 
 1956000   0.94107012   -6.3947639    721.68921  0.030746814  0.030822856           10 
 1957000   0.93831206   -6.3577898    721.90221  0.030740173  0.030815536           11 
 1958000    0.9250774    -6.387133    721.61221   0.03071213  0.030808311            8 
 1959000   0.93240247   -6.3868673    722.46076  0.030732549  0.030801121           14 
 1960000   0.93927011   -6.4103491    722.06482  0.030700035  0.030793862           12 
 1961000    0.9373838   -6.3669987    722.34157   0.03069614  0.030786575           14 
 1962000   0.94721027   -6.3565971    721.08962   0.03062732  0.030779392           10 
 1963000    0.9278758   -6.3730916    722.74171  0.030681852  0.030772081            9 
 1964000   0.95957756   -6.3782805    722.72348  0.030665456  0.030764788           14 
 1965000   0.94068479   -6.3923692     721.7117  0.030606942  0.030757515            6 
 1966000   0.94622646   -6.3646911      723.275  0.030657638  0.030750182            6 
 1967000   0.95239183   -6.3783156    724.93583  0.030712414  0.030742847            8 
 1968000   0.96490009   -6.3711052    723.59251  0.030639927  0.030735564           23 
 1969000   0.95098427   -6.3953413    724.74181  0.030673007  0.030728213            8 
 1970000   0.94379213   -6.4260959    723.07307  0.030586847  0.030720893           11 
 1971000   0.94069497   -6.3909486     724.5709  0.030634657  0.030713628            4 
 1972000   0.94100904   -6.3853271     723.7234  0.030583308  0.030706282           10 
 1973000   0.94658423   -6.4147297    724.37894  0.030595495  0.030698866            5 
 1974000   0.93460301   -6.3983611    723.65173  0.030549296  0.030691393           11 
 1975000   0.95664406   -6.4132445    723.56672  0.030530241  0.030683951            7 
 1976000   0.92653629   -6.4213607    726.20873  0.030626212  0.030676583            7 
 1977000   0.93378881   -6.3928986    724.67862  0.030546224  0.030669235            8 
 1978000   0.94728274   -6.4081971      722.736  0.030448938  0.030661859           15 
 1979000   0.93351231   -6.4097115    725.09859  0.030533038  0.030654467           11 
 1980000   0.94535596   -6.4034157    726.38033  0.030571563  0.030647128            8 
 1981000   0.94450857   -6.3759932     725.4583  0.030517344  0.030639828            9 
 1982000   0.92665875   -6.3853071    725.32486  0.030496336   0.03063246            5 
 1983000   0.94339414   -6.3860255    725.91821  0.030505892  0.030625074            6 
 1984000   0.95156679   -6.3705664    724.93743  0.030449321  0.030617654            9 
 1985000   0.93030569   -6.3983615    724.98777  0.030436094  0.030610249            6 
 1986000    0.9319524   -6.3828988    725.72344  0.030451638  0.030602881            8 
 1987000   0.93771598    -6.410332    727.51756  0.030511557  0.030595554           13 
 1988000   0.91471659    -6.402498    727.29836   0.03048702  0.030588248           10 
 1989000   0.92713817    -6.382531    726.56265  0.030440868  0.030580939           12 
 1990000   0.91308179   -6.3564001     726.9964  0.030443735  0.030573589            5 
 1991000   0.95878716   -6.4006591    729.08176  0.030515727  0.030566229            9 
 1992000   0.95366276   -6.3675558    727.22516  0.030422739  0.030558912            6 
 1993000   0.92267832   -6.3668622    728.28327  0.030451717  0.030551613            9 
 1994000   0.93459467   -6.3889834    729.65694  0.030493854  0.030544301           12 
 1995000   0.94850329   -6.4160183    727.98221  0.030408614  0.030536934           17 
 1996000   0.92785877   -6.3921176    729.53326  0.030458136  0.030529542           12 
 1997000   0.93792452    -6.404987    729.88631  0.030457616  0.030522216            8 
 1998000   0.91868251   -6.4116386    728.78888    0.0303966  0.030514799            9 
 1999000   0.92797518   -6.3651758    730.63644  0.030458414  0.030507403           11 
 2000000   0.94755866   -6.3696908    730.26467  0.030427695  0.030500037            3 
 2001000   0.91120602   -6.4184888    729.64799  0.030386806  0.030492621           12 
 2002000   0.93718277   -6.3766425    726.85738  0.030255469  0.030485174           15 
 2003000   0.93183248   -6.4045387    728.18274  0.030295504  0.030477729            6 
 2004000   0.94858121   -6.4039359    730.39436  0.030372353  0.030470415            7 
 2005000   0.93072612   -6.4178126     729.5934  0.030323915  0.030463042           10 
 2006000   0.92314592   -6.3949515    731.31712  0.030380405  0.030455715           11 
 2007000   0.93361288    -6.412348    730.43994  0.030328847  0.030448353           11 
 2008000   0.93718914   -6.4341778    731.39661  0.030353445  0.030441008           11 
 2009000   0.94251544   -6.3838798    731.47883  0.030341747  0.030433756            5 
 2010000   0.93351105   -6.3555422    732.82163  0.030382323  0.030426469           12 
 2011000   0.94242069   -6.4058774    733.29602  0.030386873  0.030419253           14 
 2012000    0.9474571   -6.4172424    730.62098  0.030260975  0.030411895            4 
 2013000   0.93644394   -6.3967302     732.0816  0.030306408  0.030404509            7 
 2014000     0.941893   -6.4221335    731.30869   0.03025938  0.030397126           11 
 2015000   0.92772352   -6.4221412    731.29299  0.030243713  0.030389787            6 
 2016000    0.9332611   -6.3824899    734.10076  0.030344774  0.030382399            8 
 2017000   0.91630052   -6.4161209    733.45785  0.030303167  0.030375173            7 
 2018000   0.90777897   -6.3904785     733.2667  0.030280257  0.030367922           10 
 2019000   0.93593529   -6.3980668    733.98867  0.030295058  0.030360751           12 
 2020000   0.93216929   -6.3809945    732.40315  0.030214652  0.030353495            9 
 2021000   0.95154727   -6.4033199    733.67482  0.030252137  0.030346165            5 
 2022000   0.92322385   -6.4027202    732.04658   0.03017007  0.030338783           22 
 2023000   0.93205432   -6.4066638    732.72966  0.030183295  0.030331445           16 
 2024000   0.93300145   -6.3872616    734.78675  0.030253078  0.030324178            5 
 2025000   0.93604196   -6.4290559    734.48499   0.03022572  0.030316851            8 
 2026000   0.92230329   -6.3905046    736.41179  0.030290054  0.030309625            5 
 2027000   0.93080862   -6.4027482     736.3247   0.03027153  0.030302438           13 
 2028000   0.93907367   -6.4142096    735.87651  0.030238187  0.030295101            8 
 2029000   0.93645706   -6.3790646    735.22674  0.030196597  0.030287922           16 
 2030000   0.91343204   -6.4198742    735.06992  0.030175284   0.03028068            6 
 2031000   0.93079839   -6.4450257    735.51813  0.030178817  0.030273364           10 
 2032000   0.92634363   -6.3980434    736.36408  0.030198658  0.030265976           15 
 2033000   0.90879454    -6.441519    733.19468  0.030053889  0.030258583           10 
 2034000   0.92885999   -6.3986737    734.56326  0.030095184  0.030251249            6 
 2035000   0.92106623   -6.4189416    736.11231  0.030143829  0.030243919            7 
 2036000    0.9278236   -6.4236901    735.16694   0.03009033  0.030236545           10 
 2037000   0.92749897   -6.3789096    735.36201  0.030083538  0.030229169           12 
 2038000   0.93458976   -6.4037489    738.09705  0.030180612  0.030221883            3 
 2039000   0.92826443   -6.4134064    735.95651  0.030078327  0.030214575           11 
 2040000   0.92152001   -6.3969532    735.54984   0.03004697  0.030207245            5 
 2041000   0.92840463   -6.3816583     738.0863  0.030135812  0.030199935            8 
 2042000   0.93861567   -6.3957045    736.62515  0.030061425    0.0301926           11 
 2043000   0.92773491   -6.4068174    737.87052  0.030097509  0.030185266            6 
 2044000   0.93612094   -6.3868203    736.03311  0.030007873  0.030177787           14 
 2045000    0.9248877   -6.4081831    735.31397  0.029963894  0.030170418           11 
 2046000   0.92906981   -6.4222373    736.20237  0.029985434  0.030163036           15 
 2047000   0.93126119   -6.3952895     737.1903  0.030011004  0.030155583           12 
 2048000   0.93078702   -6.3831457    737.02183  0.029989495  0.030148094           14 
 2049000   0.92288915   -6.4146989    736.83428  0.029967231  0.030140598           10 
 2050000   0.91787064   -6.4363931    735.43226   0.02989562  0.030133052            4 
 2051000    0.9385718   -6.4250054     737.0785  0.029947932  0.030125463            7 
 2052000   0.93901259   -6.4180621    735.83024  0.029882645  0.030117979           17 
 2053000   0.94373419   -6.4002446    738.37056  0.029971203  0.030110461           14 
 2054000   0.91789264   -6.3962541    737.62799  0.029926484   0.03010294            5 
 2055000   0.91786909    -6.391659    738.71485  0.029955996  0.030095395           12 
 2056000    0.9162517   -6.4164191    738.00415  0.029912619  0.030087891            9 
 2057000    0.9209387   -6.3902075    737.91542  0.029894483  0.030080364            5 
 2058000   0.93335492   -6.3964557    738.56514  0.029906266  0.030072834           10 
 2059000     0.929772   -6.4477893    737.81209  0.029861263  0.030065338            3 
 2060000     0.906526   -6.4043359    738.20333  0.029862594  0.030057764            9 
 2061000   0.92314762   -6.4095267    737.64085  0.029825362  0.030050146           14 
 2062000   0.91359106   -6.4107604    738.69223  0.029853388   0.03004266            6 
 2063000    0.9138125   -6.3863485    738.86867  0.029846044  0.030035247            8 
 2064000   0.92014995   -6.4192321    739.75675   0.02986744  0.030027776            8 
 2065000   0.89491858   -6.3753063    740.70114  0.029891087  0.030020314           15 
 2066000    0.9089811   -6.4029205    740.46769  0.029867203  0.030012869           19 
 2067000   0.93599892   -6.4335948    740.57521  0.029857088  0.030005369            6 
 2068000   0.93305758   -6.4514206     738.7183  0.029767823  0.029997815            4 
 2069000   0.91576228   -6.4173151    741.39661   0.02986131  0.029990319            6 
 2070000   0.92948683   -6.4083267    741.83769  0.029864641   0.02998281            6 
 2071000   0.91767788    -6.385377    742.73624  0.029886377  0.029975299            9 
 2072000   0.91509678   -6.4574739    740.53704  0.029783504  0.029967831            8 
 2073000   0.91341402   -6.4306224    741.28192   0.02979908  0.029960288            7 
 2074000   0.89500823   -6.4160061    741.18744  0.029780916  0.029952763            7 
 2075000   0.91681164   -6.4141982    741.77408  0.029790124  0.029945263           20 
 2076000   0.95325039   -6.4178119    741.73691  0.029774282  0.029937733            6 
 2077000    0.9144252   -6.3966143    741.35551  0.029744644  0.029930294            8 
 2078000   0.93180125   -6.3989947     743.6622  0.029822834  0.029922867           12 
 2079000   0.93674354   -6.4206065     743.4918  0.029801659  0.029915465            5 
 2080000   0.91909848   -6.4255851     744.4444  0.029825497  0.029908023           17 
 2081000   0.89603404   -6.4139422    745.58485  0.029856833  0.029900593            7 
 2082000   0.90294268   -6.4667193    742.43521  0.029716427  0.029893173           10 
 2083000    0.9133132   -6.4471764    744.19184  0.029772437  0.029885625            5 
 2084000   0.93601328   -6.4170405    742.94722  0.029708382  0.029878126           24 
 2085000   0.91382994   -6.4284907    745.85073  0.029810181  0.029870669            7 
 2086000   0.93030553   -6.4313275    744.44468   0.02973972  0.029863262           15 
 2087000   0.91134274   -6.4275416    745.40367  0.029763763  0.029855913            6 
 2088000   0.92732608   -6.4029114     745.5019  0.029753428  0.029848606            6 
 2089000   0.92080587   -6.4364743    744.52886  0.029700369  0.029841247            9 
 2090000   0.88611652   -6.4010349    746.88239      0.02978  0.029833954            9 
 2091000   0.91737507   -6.4254554    746.07614  0.029733626  0.029826591            7 
 2092000    0.9407222   -6.4085251    744.93764  0.029674062  0.029819242           10 
 2093000   0.88793982   -6.4441832    745.37231   0.02967719  0.029811889            6 
 2094000   0.92200302   -6.4132286    748.51325  0.029788015  0.029804593            5 
 2095000   0.90482549   -6.4692185      746.048  0.029675736  0.029797268            9 
 2096000   0.92441234   -6.4560194    747.04864  0.029701361  0.029789791           10 
 2097000   0.90591818    -6.466856    747.10204   0.02968932  0.029782445            8 
 2098000   0.92493088   -6.4464218    746.83855  0.029664702  0.029775115            5 
 2099000   0.90182627   -6.4679764    746.42018   0.02963396  0.029767822           17 
 2100000   0.91302258   -6.4350682    746.14344  0.029608867  0.029760495            8 
 2101000   0.91068962   -6.4428794    750.15101  0.029753729  0.029753226           19 
 2102000    0.9360361   -6.4049733       749.61  0.029718126  0.029745962            9 
 2103000   0.91401808   -6.3952365    749.86061  0.029713925  0.029738746           10 
 2104000   0.91876974   -6.4518294    748.72178  0.029654697  0.029731509           11 
 2105000   0.92234375   -6.4702924    748.44786  0.029629765  0.029724295           23 
 2106000   0.91729903   -6.4525402    750.47926  0.029696077  0.029717013            4 
 2107000   0.91049691    -6.441385    749.98267  0.029662342  0.029709773            4 
 2108000   0.89766433   -6.4068425    750.10725  0.029653196  0.029702552            7 
 2109000   0.90484641   -6.4126823    750.66298  0.029661095  0.029695411           10 
 2110000   0.91086231    -6.413805    751.02761  0.029661438  0.029688218           12 
 2111000   0.90668935   -6.4431366    750.75476  0.029636616  0.029681077            8 
 2112000   0.91433679   -6.4701631     748.8488   0.02954738  0.029673816            9 
 2113000   0.90823706     -6.44489    751.50178  0.029638026  0.029666551            6 
 2114000   0.91022735   -6.4238671    752.22528  0.029652526  0.029659351           13 
 2115000   0.91256386   -6.4212735      752.679  0.029656383  0.029652135           10 
 2116000   0.92214903   -6.4054786    751.75582   0.02960601  0.029644999           10 
 2117000   0.92088149   -6.4411203    750.17446  0.029529777  0.029637795            7 
 2118000   0.91462712   -6.4388563    751.53026  0.029569179  0.029630629           12 
 2119000   0.89097703   -6.4294028    752.46979  0.029592174  0.029623467           20 
 2120000    0.9383059   -6.4343307    752.00344  0.029559884  0.029616267            7 
 2121000   0.93914475   -6.4861909    751.35087  0.029520308  0.029609035           11 
 2122000   0.92073693   -6.4534203    753.80146  0.029602633  0.029601807            6 
 2123000   0.90402666   -6.4563939    753.26503  0.029567633  0.029594636           12 
 2124000    0.9040401   -6.4471814    754.20403  0.029590554  0.029587451           11 
 2125000   0.90168124   -6.4354165    754.38962  0.029583907  0.029580182           16 
 2126000   0.90420016   -6.4156449    752.34534  0.029489861  0.029572972           12 
 2127000   0.90875724   -6.4331116    752.09478   0.02946618  0.029565723           11 
 2128000   0.91581465   -6.4484929    752.99198  0.029487468  0.029558429           29 
 2129000   0.91899188   -6.4643881    751.48944  0.029414805  0.029551141           15 
 2130000   0.89796645   -6.4056459    753.91051  0.029495716  0.029543974            8 
 2131000   0.90418292   -6.4552936    753.82873  0.029478677  0.029536682           17 
 2132000   0.92117991   -6.4223923    754.08779  0.029474976  0.029529525           14 
 2133000   0.93447355   -6.4471465    752.88985  0.029414356  0.029522332           10 
 2134000   0.91558746   -6.4298836    753.77781  0.029435247  0.029515108            6 
 2135000   0.89442475   -6.4191487    753.92928  0.029427373  0.029507916            5 
 2136000   0.89975653   -6.4307797    756.19284  0.029501906  0.029500694            8 
 2137000   0.91496769   -6.4652229    754.97001  0.029440415  0.029493464           17 
 2138000   0.90382017   -6.4694678    754.37182   0.02940333  0.029486252            7 
 2139000   0.91861101   -6.4420149    756.74082  0.029481877  0.029479026            6 
 2140000   0.90136542   -6.4466781    753.81449  0.029354147  0.029471789            8 
 2141000   0.91388711   -6.4302561      756.855  0.029458781  0.029464545            6 
 2142000   0.93103961   -6.4050482    755.59704  0.029396088  0.029457398           16 
 2143000   0.90198575   -6.4335464    758.48333  0.029494608  0.029450248            8 
 2144000   0.91190721   -6.4841897    755.34163  0.029358739  0.029442944            8 
 2145000   0.92620325   -6.4596979    754.48976  0.029311956  0.029435614            8 
 2146000   0.90518548   -6.4740313    755.08701   0.02932149  0.029428283            6 
 2147000   0.93291453    -6.411458    755.86582  0.029338062  0.029421037           11 
 2148000   0.91187202   -6.4508372    755.02207  0.029291669  0.029413749            8 
 2149000   0.89909567   -6.4051153    756.62225   0.02934009  0.029406456           15 
 2150000   0.90619133   -6.4420196    756.77762  0.029332466  0.029399285            6 
 2151000   0.90738051   -6.4137515    758.13339  0.029371354  0.029392138            6 
 2152000   0.89419491   -6.4431662    759.86586  0.029424793  0.029385072           16 
 2153000   0.89811186    -6.441309    757.59743  0.029323325  0.029378038           13 
 2154000   0.90469274   -6.4339551     761.5137  0.029461223  0.029370953            7 
 2155000   0.92896266   -6.4492518    758.96862  0.029349135  0.029363884            9 
 2156000   0.90075728   -6.4532229      759.302  0.029348407  0.029356825           11 
 2157000   0.90021717    -6.426449    759.85665   0.02935623  0.029349763           24 
 2158000   0.90150405   -6.4677485    760.29113  0.029359404  0.029342689            8 
 2159000    0.9240025   -6.4486816    761.76475  0.029402684  0.029335675           16 
 2160000   0.90367522   -6.4021921    761.24383  0.029368975  0.029328665            7 
 2161000   0.90920404   -6.3952658    760.97329  0.029344952  0.029321646           11 
 2162000   0.88994026   -6.4112723    761.42475   0.02934878  0.029314673           10 
 2163000    0.8916084   -6.4450919    758.33849  0.029216308  0.029307649            9 
 2164000   0.89791313   -6.4331062    762.26041  0.029353836  0.029300601           10 
 2165000   0.89991208   -6.4853209    758.97229  0.029213714  0.029293542           16 
 2166000   0.91648743   -6.4290613    762.48939  0.029335541   0.02928641            8 
 2167000   0.89878509    -6.473112    759.56417  0.029209513  0.029279319           10 
 2168000   0.88388749   -6.4359473    761.59758    0.0292742  0.029272243            6 
 2169000   0.92952795   -6.4557893     760.6792  0.029225419  0.029265132            7 
 2170000   0.90658801   -6.4594022    761.50613  0.029243707  0.029258086            7 
 2171000   0.89855759   -6.4580517    763.56528  0.029309277  0.029251059            6 
 2172000   0.91382068   -6.4581655      761.957  0.029234077  0.029244021           18 
 2173000   0.90450605   -6.4603421    762.80513  0.029253149   0.02923696           13 
 2174000   0.89539625   -6.4282332    762.90778  0.029243628   0.02922997           12 
 2175000   0.92636859   -6.4526165    764.60153  0.029295078  0.029222939           10 
 2176000   0.89784888   -6.4352073    760.72285  0.029133075   0.02921584            7 
 2177000   0.91394725    -6.458158    762.25519  0.029178349  0.029208806           21 
 2178000   0.89267253   -6.4432509    762.88497  0.029189048  0.029201748            5 
 2179000   0.91688476     -6.45559    764.15925  0.029224386  0.029194679            9 
 2180000    0.8999438   -6.4619536    762.80731  0.029159301  0.029187626           12 
 2181000   0.89858324   -6.4510901    762.30222  0.029126632   0.02918055           15 
 2182000   0.90704804   -6.4749855    762.85035  0.029134217   0.02917338           20 
 2183000   0.90872284   -6.4410683    762.24179  0.029097641  0.029166259           11 
 2184000    0.8870138   -6.4869741    762.59285  0.029097712  0.029159142           13 
 2185000   0.90409015   -6.4706099    761.80823  0.029054471  0.029151953           11 
 2186000   0.89744431   -6.4573832     764.2968  0.029136047  0.029144817            6 
 2187000   0.90035441   -6.4349464    763.77898  0.029102994    0.0291377            7 
 2188000   0.89023613    -6.467326    762.22507   0.02903051  0.029130613            8 
 2189000    0.9242318   -6.4719974    763.29323  0.029057912  0.029123501           11 
 2190000   0.91556721   -6.4399417     764.0863  0.029074821  0.029116411           12 
 2191000      0.90218   -6.4678585    765.58955  0.029118726    0.0291093            7 
 2192000   0.91328115   -6.4590323    764.92841  0.029080307  0.029102201           13 
 2193000    0.9127671   -6.4444211    764.66219  0.029056931  0.029095106            8 
 2194000   0.90084991   -6.4678631    766.09292  0.029098029  0.029088054            7 
 2195000   0.90347712   -6.4660888    766.12511  0.029085995  0.029080942            7 
 2196000   0.91376612   -6.4487553    764.79557  0.029022297  0.029073848            5 
 2197000   0.91436401   -6.4504701    766.82518  0.029086071  0.029066786           12 
 2198000   0.87815892    -6.476281    765.88414   0.02903716  0.029059743            7 
 2199000   0.89092447   -6.4397241    766.12216  0.029032975  0.029052675           12 
 2200000   0.89883779   -6.4426506    767.19674  0.029060483  0.029045635            7 
 2201000   0.87722937   -6.4386808     766.7501  0.029030369  0.029038609            7 
 2202000   0.87892443   -6.4710373    766.85383  0.029021111  0.029031531           17 
 2203000   0.89973007   -6.4403471    767.32291  0.029025681  0.029024517            7 
 2204000   0.89895899   -6.4465832    767.18363  0.029007245  0.029017408            6 
 2205000   0.89293549   -6.4714877    766.77164   0.02897852  0.029010321           20 
 2206000   0.90281369   -6.4598775    766.05009  0.028938127  0.029003236            8 
 2207000    0.8851264    -6.424402    767.66443   0.02898597  0.028996164           12 
 2208000   0.90448155   -6.4649249    769.60861  0.029046219  0.028989115            7 
 2209000   0.89361004   -6.4564484    768.61575  0.028995614  0.028982106            9 
 2210000   0.89110324   -6.4298249     769.4898  0.029015453  0.028975081            9 
 2211000   0.89305479   -6.4711295     770.4281  0.029037694  0.028968067           13 
 2212000   0.89089299    -6.470522     770.9863  0.029045596     0.028961           14 
 2213000   0.89541464   -6.5029743    766.82856  0.028875906  0.028953896           29 
 2214000   0.88623877    -6.451212    769.31586  0.028956484  0.028946769           26 
 2215000   0.90455514   -6.4581062    771.14658  0.029012287  0.028939789           15 
 2216000   0.92332589   -6.4714384    769.73401  0.028946074  0.028932797            5 
 2217000   0.91534753   -6.4701387    771.13052   0.02898551  0.028925754            7 
 2218000   0.89322228   -6.4548152    769.33028  0.028904805    0.0289188           12 
 2219000   0.88997052   -6.4464916    769.17964  0.028886121  0.028911813            9 
 2220000   0.88923484    -6.478269     770.1463  0.028909396  0.028904798           17 
 2221000   0.92438812   -6.4778242    768.60752  0.028838643  0.028897718           10 
 2222000   0.89614765   -6.4828184    770.19781  0.028885306  0.028890694            4 
 2223000   0.89419899   -6.4555237    769.14066  0.028832683  0.028883684           19 
 2224000   0.88296855   -6.4575741    771.34362  0.028902264   0.02887671            8 
 2225000   0.88886652   -6.4751514     773.8523  0.028983232  0.028869799            8 
 2226000   0.88664518   -6.4641686    772.27411   0.02891113  0.028862858            7 
 2227000   0.90146806   -6.4635311    772.44173   0.02890442  0.028855875           17 
 2228000   0.87773583   -6.4845958    770.93373  0.028835044  0.028848865           10 
 2229000   0.89664018    -6.437011    772.37852  0.028876122  0.028841879            8 
 2230000   0.89388528   -6.4580539     772.0563  0.028851132  0.028834939           17 
 2231000   0.89876141   -6.4556031    769.78772  0.028753463  0.028827949            5 
 2232000    0.8880425    -6.488921    772.44772  0.028839894  0.028821031           13 
 2233000    0.8886453   -6.4807024     772.8448  0.028841797  0.028814038           14 
 2234000   0.89901378   -6.4641564    773.35101   0.02884777  0.028807124           16 
 2235000   0.89194887   -6.4519858    775.51792  0.028915657   0.02880023           25 
 2236000   0.87861551   -6.4881984    771.26074  0.028744064  0.028793358           19 
 2237000   0.87726129    -6.477737    774.70748  0.028859614   0.02878644            9 
 2238000   0.88266229   -6.4723387    773.64705  0.028807233   0.02877955            9 
 2239000    0.9165655   -6.4633544    773.37294  0.028784165  0.028772585            7 
 2240000    0.8997176   -6.4847307    774.79236  0.028824121  0.028765675           11 
 2241000   0.89307443   -6.4800726    776.77201  0.028884873  0.028758792           10 
 2242000   0.90550449   -6.4800206    776.54916  0.028863707  0.028751903            9 
 2243000   0.89911358   -6.4718718    774.82954   0.02878695   0.02874498           10 
 2244000    0.8963154   -6.4379975    777.37031  0.028868475   0.02873803           16 
 2245000    0.8893417   -6.4611601    777.03633  0.028843219  0.028731153            7 
 2246000   0.89455923   -6.4536548     776.4478  0.028808541  0.028724349            7 
 2247000   0.88188679   -6.4779574    776.44332  0.028795554  0.028717417            8 
 2248000   0.87973305   -6.4696699    776.55162  0.028786759  0.028710539           10 
 2249000   0.88982719   -6.4482838    777.26569  0.028800418  0.028703708           10 
 2250000   0.90289801   -6.4414897    779.72562  0.028878727   0.02869689            7 
 2251000   0.89717681   -6.4491805    779.41443  0.028854377  0.028690139            8 
 2252000   0.87197913   -6.4617872    781.12507  0.028904865  0.028683324           17 
 2253000   0.89338731   -6.4763647    779.43353  0.028829469   0.02867649           12 
 2254000    0.8764605   -6.4829808    777.71725  0.028753226  0.028669614            8 
 2255000   0.86931238   -6.4722906    778.80982  0.028780851  0.028662801           10 
 2256000   0.87437319    -6.457188    779.39383  0.028789666  0.028655967           18 
 2257000   0.89006461   -6.4562067    778.39785  0.028740136  0.028649192           12 
 2258000   0.88974836   -6.4501427    775.72591  0.028628798  0.028642365           10 
 2259000   0.87554261   -6.4778969     777.4669  0.028680349  0.028635479            9 
 2260000   0.89968211   -6.4697027    778.25942  0.028696881  0.028628586           11 
 2261000   0.88005789   -6.4550488     778.5334  0.028694287  0.028621687            8 
 2262000   0.88001257   -6.4849214    778.48019  0.028679642  0.028614773            8 
 2263000   0.90018355   -6.4449647    779.74204  0.028713435  0.028607916            8 
 2264000   0.89876578   -6.4616861    778.60765  0.028658998  0.028601105           10 
 2265000   0.88737832   -6.4573437    778.01321  0.028624474  0.028594199            5 
 2266000   0.87920649   -6.4721798    779.95363  0.028683202  0.028587305           11 
 2267000   0.88500126   -6.4533714      779.764  0.028663579  0.028580463            7 
 2268000   0.89196848   -6.4711395     780.6932  0.028685082  0.028573601            9 
 2269000   0.87477424   -6.4861486    780.20039  0.028654341  0.028566783            6 
 2270000   0.88027834    -6.446095    779.15911  0.028603492  0.028560044           11 
 2271000   0.89937834   -6.4768222    783.00933  0.028732179  0.028553351           20 
 2272000   0.92165067   -6.4675878    783.39295  0.028733603  0.028546657            6 
 2273000   0.89089936   -6.4986467    783.24986  0.028715715   0.02853993            7 
 2274000   0.87941387    -6.476567    780.63685  0.028607331  0.028533129            4 
 2275000   0.87965864   -6.4864664    781.42549  0.028623644  0.028526389           15 
 2276000   0.87029669   -6.4911781    782.20698  0.028639682  0.028519656           13 
 2277000   0.88620936   -6.4842399    783.51198  0.028674864  0.028512905           13 
 2278000   0.87917564   -6.4732159    784.14543  0.028685449  0.028506188           12 
 2279000   0.88986037   -6.4910828    783.41881  0.028646293  0.028499439           12 
 2280000   0.85848885   -6.4843833    783.68787  0.028643562   0.02849266           23 
 2281000   0.89292344   -6.5095118    783.31213  0.028617278  0.028485846           26 
 2282000   0.88765008   -6.4592291    783.02937  0.028594412  0.028479063           18 
 2283000   0.89515007   -6.4864523    781.50748  0.028526335  0.028472263           14 
 2284000    0.8908155    -6.487178    783.90863  0.028601453  0.028465512           12 
 2285000   0.88207341   -6.4954773    782.40762  0.028534195  0.028458779           15 
 2286000   0.89609554   -6.4751919    785.25567  0.028625535  0.028452001            5 
 2287000   0.90396815   -6.4953005    784.89381  0.028599833  0.028445278            5 
 2288000   0.87018145    -6.482393    785.06249  0.028593476  0.028438476           19 
 2289000   0.89527101   -6.4978803    782.86942  0.028501144  0.028431617            9 
 2290000    0.8997012   -6.4773009    784.18188  0.028536459  0.028424861            8 
 2291000   0.88156697   -6.4536028    786.37892  0.028603918  0.028418126           14 
 2292000   0.90222088   -6.4646183    783.13132  0.028473361  0.028411421            7 
 2293000   0.87357393   -6.4675479    784.48542  0.028510155  0.028404711           17 
 2294000   0.89603153   -6.5139334    783.65839  0.028467683  0.028397972            6 
 2295000   0.90171488   -6.4815963    784.86963   0.02849926  0.028391177            7 
 2296000   0.87948939   -6.4837146    786.31976   0.02853948  0.028384357            7 
 2297000   0.87802779    -6.471828     787.5622   0.02857213  0.028377599           15 
 2298000   0.88531246   -6.5147491    786.73015  0.028529524  0.028370883            7 
 2299000   0.87589635    -6.488618    785.17409  0.028460711  0.028364076           10 
 2300000   0.87992621   -6.5010345     786.1953  0.028485337  0.028357337            9 
 2301000   0.88363461    -6.498141    785.61208  0.028451836  0.028350529           12 
 2302000   0.89109902   -6.4763241     783.5069  0.028363267  0.028343668           15 
 2303000    0.9020463    -6.486655    786.70009  0.028466496  0.028336896           23 
 2304000   0.89795045    -6.505909    786.11509  0.028432982  0.028330133           13 
 2305000   0.88341013    -6.503296    785.12966   0.02838502  0.028323359           14 
 2306000   0.88672155   -6.4816674    788.06232   0.02847869   0.02831657           11 
 2307000   0.86742627   -6.4654792    786.19782  0.028398997  0.028309863            9 
 2308000   0.87286617   -6.5163904    786.00911  0.028379878  0.028303167           10 
 2309000   0.86664799   -6.4927803    786.41194  0.028382126  0.028296391           18 
 2310000    0.8916022     -6.51688    787.16115  0.028396867  0.028289632           13 
 2311000   0.86758128   -6.5009774    785.15926  0.028312392  0.028282828           19 
 2312000   0.89717779   -6.4915232    788.14896  0.028407906  0.028276041           11 
 2313000   0.87073776   -6.4580906    790.83614  0.028492439  0.028269379           24 
 2314000   0.88996282   -6.5279736     787.1528  0.028347479   0.02826262           15 
 2315000   0.88267634   -6.4847352    788.88441  0.028397567  0.028255827            9 
 2316000   0.88613215   -6.4771707    787.52306  0.028336322  0.028249057           19 
 2317000   0.90246289   -6.5007134    787.22915  0.028313522  0.028242164            9 
 2318000   0.88331549   -6.5140949    788.46436  0.028345713  0.028235239           50 
 2319000   0.88083425   -6.4888891     786.8674  0.028276103  0.028228365            9 
 2320000    0.8726532   -6.5158699    788.98407  0.028339945  0.028221511           14 
 2321000   0.87319041   -6.5278595    787.75105  0.028283464  0.028214671           15 
 2322000   0.88009326   -6.4809484    789.91384  0.028348903  0.028207888           11 
 2323000   0.86360792   -6.4786183    789.12754  0.028308492  0.028201204           15 
 2324000   0.86525676   -6.4987976    790.28127  0.028337682  0.028194536            7 
 2325000   0.88228022   -6.4684351    791.05204   0.02835312  0.028187867           11 
 2326000   0.86679467   -6.5035928    790.39774  0.028317488  0.028181148           21 
 2327000   0.88670705   -6.4855605    791.30344  0.028337754  0.028174383           12 
 2328000   0.90846437   -6.4755899    791.53454  0.028333854  0.028167701            9 
 2329000   0.86871887   -6.4726221    790.70324  0.028291944  0.028161011            8 
 2330000   0.88258913   -6.5025918    789.96519  0.028253405   0.02815432           13 
 2331000   0.86158218   -6.4711688    790.43068  0.028257925  0.028147633           10 
 2332000   0.87595313   -6.4997549    789.98706  0.028229955  0.028140963           17 
 2333000   0.88505455   -6.4897387    790.97524  0.028253152   0.02813428           33 
 2334000   0.86922203    -6.500309    791.57263  0.028262376  0.028127565            6 
 2335000   0.86234476   -6.5076523    791.15214  0.028235265  0.028120827            7 
 2336000   0.88965063   -6.4742429    791.72581  0.028243643  0.028114085           20 
 2337000   0.89086192   -6.5122434    790.75374  0.028196896  0.028107316           17 
 2338000    0.8810778   -6.4810213    792.91474   0.02826186  0.028100519            6 
 2339000   0.87877651   -6.5247284    791.60885  0.028203251  0.028093734            6 
 2340000   0.89398832   -6.5182994    792.53648  0.028224234  0.028086967            9 
 2341000   0.86712782   -6.4635455    791.28796  0.028167733  0.028080148            6 
 2342000    0.8635353   -6.4711837    790.73448  0.028136012  0.028073332            7 
 2343000   0.88855286   -6.5005477    792.63795  0.028191704  0.028066534            9 
 2344000   0.87833879   -6.4835366    792.69223  0.028181607  0.028059664           15 
 2345000   0.88037032   -6.4948224    792.11222  0.028148977  0.028052851           10 
 2346000   0.88093902    -6.496156    793.17178  0.028174616  0.028046042           16 
 2347000   0.87803781   -6.4889506    792.94723  0.028154638  0.028039238           10 
 2348000   0.87538632   -6.4852938    790.92233  0.028070781  0.028032439           21 
 2349000   0.86975779   -6.5155971    793.56891  0.028152721  0.028025525           17 
 2350000   0.86479558   -6.4915986    795.51245  0.028209661  0.028018611            9 
 2351000   0.86944835   -6.5547234    792.30309  0.028083904  0.028011716           16 
 2352000   0.88221735    -6.498255    791.89163  0.028057385  0.028004802           13 
 2353000    0.8594578   -6.5229926    793.26866  0.028094229  0.027997956            8 
 2354000   0.88078519   -6.5147569    793.46069  0.028089093  0.027991133           17 
 2355000    0.8726155   -6.4900045    793.66436  0.028084372  0.027984294           12 
 2356000   0.88395917   -6.4977355    793.34784  0.028061256  0.027977457           24 
 2357000   0.87767944   -6.5031612    795.90624  0.028139805  0.027970626            8 
 2358000   0.88697641    -6.494771    791.28427  0.027964527  0.027963777           28 
 2359000    0.8876362   -6.5160308    792.63009  0.028000215  0.027956926           10 
 2360000   0.86452854   -6.5341281    794.76303  0.028063666  0.027950033            9 
 2361000   0.87903483   -6.5101822    792.84898  0.027984222  0.027943129           10 
 2362000   0.86586331   -6.5039089    792.75908  0.027969203   0.02793631           12 
 2363000   0.87716041   -6.4729389    795.29174  0.028046683  0.027929464           13 
 2364000   0.87422133   -6.5362545    794.68768  0.028013525  0.027922639           12 
 2365000   0.86778102   -6.5035672    791.86675  0.027902281  0.027915835           18 
 2366000   0.87676516   -6.5360935    796.32262  0.028047429  0.027908977            9 
 2367000    0.8772066   -6.5067316    793.62884  0.027940742  0.027902069            9 
 2368000   0.86445848   -6.4947031    795.71786  0.028002458  0.027895252            9 
 2369000   0.87009841   -6.5051505    795.24465  0.027973992  0.027888403           22 
 2370000   0.88308862   -6.5423554    793.30756  0.027894077  0.027881542           24 
 2371000   0.86213953   -6.4823884    796.47679  0.027993701  0.027874629           12 
 2372000    0.8816918   -6.4994633    795.22718  0.027937998  0.027867723           11 
 2373000   0.87206212   -6.4933771    797.06921  0.027990912  0.027860827           11 
 2374000    0.8540683   -6.5194644    793.75746  0.027862871  0.027853895           16 
 2375000   0.89995367   -6.5124796    794.37025   0.02787264  0.027846952           29 
 2376000   0.88407479   -6.5123455    795.04224  0.027884478  0.027840044            9 
 2377000   0.88140295   -6.5196577    795.56242  0.027890984   0.02783307           22 
 2378000   0.86171123   -6.5233322    795.91758  0.027891701  0.027826135            8 
 2379000   0.86789143   -6.4808063    796.22967  0.027890909  0.027819266           25 
 2380000   0.86655271   -6.4906959    793.95961  0.027799706   0.02781236            5 
 2381000   0.86406227   -6.5043064    796.10796  0.027863221  0.027805458           10 
 2382000   0.86910468   -6.4860095    794.52044  0.027795985   0.02779853            7 
 2383000   0.86895459   -6.5141042    795.09069  0.027804262  0.027791562           20 
 2384000   0.86524313   -6.4922748    794.90054  0.027785953  0.027784579            7 
 2385000   0.85290576   -6.5180321    793.98728  0.027742393  0.027777585            9 
 2386000   0.85540089   -6.5057031    796.73599  0.027826767  0.027770596           12 
 2387000   0.86806793   -6.5055847    795.91506   0.02778645  0.027763641           11 
 2388000   0.89117471   -6.5070595    798.41132  0.027861925  0.027756722           10 
 2389000   0.88227211   -6.4962866    797.23836  0.027809347  0.027749782           14 
 2390000   0.86246748   -6.5159852    796.80069  0.027782451  0.027742843           19 
 2391000   0.86971318   -6.4904829    798.12064  0.027816835   0.02773587           13 
 2392000   0.86709051   -6.4986819    796.95304  0.027764529  0.027728963           10 
 2393000   0.86847442   -6.5290642    797.40327  0.027768605  0.027722018           14 
 2394000   0.86504939   -6.5258909     796.0608  0.027710276  0.027715073            8 
 2395000   0.87923204   -6.5324661    795.89442  0.027692917  0.027708097            6 
 2396000   0.88391119   -6.4951146     796.4871  0.027701972  0.027701089           14 
 2397000   0.86287395   -6.5157887    795.62968  0.027660606  0.027694102            9 
 2398000   0.84795793   -6.5434738    798.42352  0.027746161  0.027687143            8 
 2399000   0.87691042   -6.5076562    799.33673  0.027766317  0.027680171           15 
 2400000   0.86909694   -6.5170564    800.54753  0.027796789  0.027673269           12 
 2401000   0.85404595   -6.5119087    800.25477  0.027775051  0.027666411           11 
 2402000   0.88885532   -6.5223522    800.52826  0.027772976  0.027659545           15 
 2403000   0.86715961   -6.5078903    798.10293   0.02767731  0.027652657           11 
 2404000   0.86478653   -6.5128264    799.30169  0.027707352  0.027645758           13 
 2405000   0.85570165   -6.5131093    800.73974   0.02774566  0.027638893           10 
 2406000   0.85178108   -6.5273657    799.95103  0.027706811  0.027632007           15 
 2407000   0.86964183   -6.5082664    802.54316  0.027785042  0.027625164            8 
 2408000   0.86579522   -6.5212164    800.75166  0.027711505   0.02761837            5 
 2409000   0.86588878   -6.5464298    800.92159   0.02770588  0.027611494           14 
 2410000   0.86976942   -6.5581619    802.49279  0.027748713  0.027604632           10 
 2411000   0.88031798   -6.5496073    800.61545  0.027672316  0.027597773            7 
 2412000   0.88710309   -6.5484609    801.51436    0.0276919  0.027590914            6 
 2413000   0.87666459   -6.5060584    800.43765   0.02764324  0.027584031           16 
 2414000   0.88879148   -6.5103102    801.52124  0.027669195  0.027577204            8 
 2415000   0.87987471   -6.5152608    801.75438  0.027665783  0.027570346           26 
 2416000   0.84805186    -6.504046    800.45623  0.027609556  0.027563481           53 
 2417000     0.866832   -6.5240207    800.48901  0.027599262  0.027556587           34 
 2418000   0.87302217   -6.5215268    801.67617  0.027628763  0.027549709            9 
 2419000   0.86290164   -6.5314524    799.51432  0.027542866  0.027542834           14 
 2420000   0.85591084   -6.5228769    803.08251  0.027654357   0.02753595           28 
 2421000   0.85051066   -6.5436604    801.04664  0.027572857  0.027529079           17 
 2422000   0.86067914   -6.5336959    800.76542  0.027551797  0.027522163           15 
 2423000   0.85373639   -6.5312204    802.13885  0.027587662  0.027515269           27 
 2424000   0.88593411   -6.5634598    801.26022  0.027546075  0.027508352           16 
 2425000   0.86633987    -6.570235    801.36233  0.027538224  0.027501415           15 
 2426000   0.85088757    -6.569279    801.93362  0.027546497  0.027494467           13 
 2427000   0.87751265   -6.5163425    802.72035   0.02756216  0.027487528            4 
 2428000    0.8485198   -6.5124825    801.50292  0.027509024  0.027480636            9 
 2429000   0.86692493   -6.5393403    801.91333  0.027511779  0.027473683            8 
 2430000    0.8739435    -6.552025    800.30126  0.027445173  0.027466753           24 
 2431000   0.86662644   -6.5446865    801.11446   0.02746176  0.027459778           13 
 2432000   0.87888711   -6.5344309    800.37116  0.027424999  0.027452831           18 
 2433000   0.87363776   -6.5404517    803.69408  0.027527541  0.027445835           13 
 2434000   0.84505033   -6.5273694    802.07574  0.027460824  0.027438834           14 
 2435000   0.84979555   -6.5477772    802.36793  0.027459546    0.0274319            7 
 2436000   0.85356737   -6.5448815    803.12146  0.027474051  0.027424969           12 
 2437000   0.86360769   -6.5348284    802.84431    0.0274533  0.027418005           20 
 2438000   0.86595412   -6.5428365    805.60188  0.027536296  0.027411031           18 
 2439000   0.86728808   -6.5112774    802.31427  0.027412678  0.027404106           11 
 2440000   0.85702982   -6.5180178    802.71912   0.02741527  0.027397131           11 
 2441000   0.84935776   -6.5232853    803.54949  0.027432387  0.027390163           10 
 2442000   0.84969237   -6.5452618    802.51317  0.027385789  0.027383243            8 
 2443000   0.86732078   -6.4886819    804.04428  0.027426807  0.027376321            9 
 2444000   0.86779028   -6.5097899    806.19273  0.027488841  0.027369452            9 
 2445000   0.86079218   -6.5383938    805.65805  0.027459375  0.027362526           10 
 2446000   0.85404012   -6.5392772    804.15697  0.027397008  0.027355571           19 
 2447000   0.85664569   -6.5317563    805.78505  0.027441256  0.027348615           11 
 2448000   0.85590883   -6.5344808    803.89658   0.02736576  0.027341686           24 
 2449000   0.86203787   -6.5141423    805.53443  0.027410318   0.02733477           12 
 2450000   0.85222999   -6.5362836    805.42805  0.027395512  0.027327799           10 
 2451000   0.88645642   -6.5164277    807.50352    0.0274549  0.027320923            8 
 2452000   0.83626184   -6.5233597    805.74967  0.027384097  0.027313996           17 
 2453000    0.8400769   -6.5256492    806.50372   0.02739855  0.027307015           14 
 2454000   0.87487834   -6.5586558    804.04947  0.027304043  0.027300047           21 
 2455000   0.86338061   -6.5332075    804.27127   0.02730045  0.027293052            8 
 2456000   0.88313096   -6.5443876    804.31697  0.027290885  0.027286037           10 
 2457000    0.8644865   -6.5462573    803.09623  0.027238374  0.027278968           19 
 2458000   0.85941875    -6.558236    806.36471  0.027338104  0.027271922           18 
 2459000   0.85925942    -6.523471    806.44624  0.027329749  0.027264871           20 
 2460000    0.8566401   -6.5258131    804.18803  0.027242142  0.027257857           10 
 2461000   0.85640971   -6.5413793    805.19517  0.027265176  0.027250903            7 
 2462000   0.86920581   -6.5061389      806.206  0.027288316  0.027243938           15 
 2463000   0.86354354   -6.5298823    807.14021  0.027308845  0.027236947           16 
 2464000   0.85212871   -6.5326013    804.41789  0.027205692   0.02722991            7 
 2465000   0.86915744   -6.5409815    804.24432  0.027188787  0.027222857           13 
 2466000   0.86941347   -6.5477081    805.79612  0.027230201  0.027215857           13 
 2467000   0.85908204   -6.5213835    805.74671  0.027217495   0.02720883           14 
 2468000   0.85289565     -6.56095    806.81814  0.027242644  0.027201822           18 
 2469000   0.84728966   -6.5251613    805.40666   0.02718397  0.027194821           25 
 2470000   0.86163963   -6.5454606    807.99396  0.027260255  0.027187771            5 
 2471000   0.86723347   -6.5486973    805.67689  0.027171081  0.027180767            9 
 2472000   0.87085873   -6.5171963    806.47789  0.027187092  0.027173733           14 
 2473000   0.84969951   -6.5276936    806.94688  0.027191902  0.027166686           13 
 2474000    0.8383197   -6.5243987    806.35611  0.027161012  0.027159575           10 
 2475000   0.84856097   -6.5329286    805.14743  0.027109341  0.027152459           18 
 2476000   0.86305144    -6.544067    805.44101  0.027108273  0.027145357           10 
 2477000   0.83345173   -6.5429689    804.69274  0.027072155  0.027138202           11 
 2478000   0.83986679   -6.5359796    807.83423  0.027166876  0.027131044            7 
 2479000   0.85487733    -6.543048    805.19688  0.027067261  0.027123952            9 
 2480000    0.8753608   -6.5462797    805.92546  0.027080829  0.027116834           10 
 2481000   0.85573803   -6.5205908    807.60811  0.027126431  0.027109719           13 
 2482000   0.87591948   -6.5577792    805.71608  0.027051977  0.027102565           10 
 2483000   0.86285216    -6.525512    804.76032  0.027009005  0.027095391           12 
 2484000   0.87626047   -6.5579654    807.67634  0.027095959  0.027088266           19 
 2485000   0.86428576   -6.5642593    805.27918  0.027004667   0.02708107           12 
 2486000     0.854585    -6.550612    805.39769  0.026997777  0.027073898           11 
 2487000   0.86499614    -6.540821    806.78377  0.027033366  0.027066755           15 
 2488000   0.85560692   -6.5296254    806.58423  0.027015817  0.027059661           12 
 2489000    0.8508321   -6.5409426    806.74361  0.027010299  0.027052533           13 
 2490000   0.84665092   -6.5384691    808.68459  0.027064411  0.027045359           15 
 2491000   0.85524554   -6.5554871    806.15495   0.02696892  0.027038248           38 
 2492000   0.82272254   -6.5571422    807.88529  0.027015961  0.027031132           19 
 2493000    0.8675809   -6.5661434    808.54337  0.027027121  0.027023947           18 
 2494000   0.85508361   -6.5480192    806.84614  0.026959574  0.027016793           26 
 2495000   0.81660539   -6.5572733    807.07642   0.02695646  0.027009654            8 
 2496000   0.83530646   -6.5412042    807.92338  0.026973938  0.027002512            9 
 2497000   0.84104367   -6.5484015    808.22461  0.026973188   0.02699542            9 
 2498000   0.85115254    -6.550209    808.83193  0.026982651    0.0269883            5 
 2499000   0.85176539    -6.557905    806.76292  0.026902858  0.026981192           15 
 2500000    0.8505632   -6.5166128    811.44615  0.027048205  0.026974123           16 
 2501000   0.87982063   -6.5410553    807.94141  0.026920612  0.026966982           27 
 2502000   0.86421306    -6.559254    809.65812   0.02696703  0.026959819            8 
 2503000   0.86851049   -6.5827797    808.21024  0.026908052  0.026952669           11 
 2504000   0.87014809   -6.5379802    810.04488  0.026958363  0.026945509           11 
 2505000   0.85448694   -6.5274013     808.8414  0.026907565   0.02693839           10 
 2506000   0.83398803   -6.5379154     810.2344   0.02694315  0.026931311            9 
 2507000    0.8394569   -6.5606721    808.39439   0.02687124  0.026924224           24 
 2508000   0.86360053   -6.5720593    809.04668    0.0268822  0.026917104           29 
 2509000   0.84961294   -6.5444034     810.7607  0.026928414  0.026909977           14 
 2510000   0.84708556   -6.5319084    808.39822   0.02683925   0.02690283           13 
 2511000   0.87030768   -6.5560591    809.35451  0.026860298  0.026895711           15 
 2512000   0.84866777   -6.5352334     809.2951  0.026847635   0.02688859            7 
 2513000   0.83543384   -6.5550072    811.04948  0.026895128   0.02688146           11 
 2514000   0.86225246   -6.5767497    808.75157  0.026808259  0.026874314           24 
 2515000   0.81875092   -6.5310746    809.99383  0.026838762  0.026867165           15 
 2516000   0.85333241   -6.5599537    810.22741  0.026835831  0.026860003           17 
 2517000   0.84563195   -6.5477895    808.54616  0.026769506    0.0268528            7 
 2518000   0.85775219   -6.5428749    810.53036  0.026824542  0.026845655           20 
 2519000    0.8259794   -6.5500944     809.6095  0.026783429  0.026838592           11 
 2520000   0.85338221    -6.582143    813.22854  0.026892478  0.026831496           15 
 2521000   0.86160188   -6.5601029    809.97176  0.026774156   0.02682441           13 
 2522000   0.84559439   -6.5805265    810.73635  0.026788803   0.02681729           54 
 2523000   0.84202775   -6.5666524    811.43751  0.026801345  0.026810189            6 
 2524000   0.84015618   -6.5566475    810.95959  0.026774947  0.026803149            9 
 2525000    0.8565891   -6.5664302    812.05306  0.026800431   0.02679614           25 
 2526000   0.85890887   -6.5770198    812.18219  0.026794081  0.026789082           17 
 2527000   0.85364915   -6.5591196    812.13509  0.026781925   0.02678199           13 
 2528000   0.84428942   -6.5851569    812.85853  0.026795178  0.026774862           28 
 2529000   0.85515808    -6.587071    813.27706  0.026798374  0.026767807           15 
 2530000   0.84974973   -6.5569492    813.14977  0.026783589   0.02676072           22 
 2531000   0.85310353   -6.5608221    811.56871   0.02672095  0.026753691           16 
 2532000    0.8427534   -6.5821019    812.93148  0.026755249  0.026746658           21 
 2533000   0.84909989   -6.5608197    812.89797  0.026743584   0.02673959           23 
 2534000   0.85810997   -6.5623738    813.71328  0.026759842  0.026732518           17 
 2535000   0.85146853   -6.5578889    814.30373  0.026768696   0.02672553           18 
 2536000   0.83981723   -6.5482557    813.56314  0.026733804  0.026718476            6 
 2537000   0.85271907   -6.5963566    810.92897  0.026636742  0.026711392           42 
 2538000   0.84780742   -6.5789335    813.25596  0.026702652  0.026704321           12 
 2539000   0.83974645   -6.5522189    814.98784  0.026748977  0.026697253            6 
 2540000    0.8527135   -6.5492115    813.47032  0.026688659  0.026690191           10 
 2541000   0.85217214   -6.5675214    813.07135  0.026665071  0.026683139           16 
 2542000   0.85408124   -6.5487459    813.88959  0.026681405  0.026676152           10 
 2543000   0.83911026   -6.5452371    814.10224  0.026677882  0.026669153            9 
 2544000   0.84572147   -6.5912777     811.9995  0.026598516  0.026662124            8 
 2545000   0.83128164   -6.5725944    811.76274  0.026580312  0.026655081            9 
 2546000   0.86393817   -6.5489381     815.7379  0.026699984  0.026648052            7 
 2547000   0.85643038   -6.5543884    814.31137  0.026642827  0.026641042           10 
 2548000   0.82878694    -6.553978     814.7435  0.026646504   0.02663398           11 
 2549000   0.83088686   -6.5423371    815.44904  0.026659116  0.026626939           17 
 2550000   0.83790636   -6.5498027    813.63439  0.026589359  0.026619893           18 
 2551000   0.83115858   -6.5733761    815.73727  0.026647631  0.026612865           13 
 2552000   0.83864065   -6.5831808    815.90105  0.026642537  0.026605824           21 
 2553000   0.85215195   -6.5486216    815.40017  0.026615752  0.026598798           21 
 2554000   0.86428789   -6.5602298    814.33611  0.026570612  0.026591744           14 
 2555000   0.84501303   -6.5692117     815.8126  0.026608369  0.026584688           50 
 2556000   0.85053551   -6.5638479    815.10849  0.026575003  0.026577662           18 
 2557000   0.83440333   -6.5301891    817.88134  0.026654978  0.026570711           14 
 2558000   0.80926291   -6.5576434    816.40263  0.026596385  0.026563737           50 
 2559000   0.83922235   -6.5623139     815.6355   0.02656101  0.026556775           11 
 2560000   0.83616452   -6.5615395    815.98956   0.02656216   0.02654978           12 
 2561000   0.84104369   -6.5812504    816.31474  0.026562369  0.026542705            9 
 2562000   0.83586729   -6.6003286     815.0625  0.026511271  0.026535687           27 
 2563000    0.8426637   -6.6007746    817.71931   0.02658731  0.026528673           21 
 2564000   0.83115479   -6.5773914    817.27614  0.026562537  0.026521667           17 
 2565000   0.85052267   -6.5124306    818.65286  0.026596909   0.02651474            8 
 2566000   0.83266764   -6.5507419    815.70881  0.026490933  0.026507851           10 
 2567000   0.83855521   -6.5717035    818.05427  0.026556755  0.026500917           10 
 2568000    0.8443172   -6.5541221    818.45614  0.026559454  0.026494024           10 
 2569000   0.83970706   -6.5962154    818.11676  0.026538107  0.026487126           19 
 2570000   0.84023697   -6.5608986    816.54418  0.026476789  0.026480169           16 
 2571000   0.85279102    -6.543804     819.0674  0.026548276  0.026473271            6 
 2572000   0.84227101   -6.5542029    819.20389  0.026542376  0.026466363           13 
 2573000   0.84871797   -6.5775359     817.8006  0.026486611  0.026459464           14 
 2574000    0.8457474   -6.5640094     820.0564  0.026549352  0.026452514            7 
 2575000   0.83016858    -6.602387    817.54686  0.026457827  0.026445563           11 
 2576000   0.82433086   -6.5687431    817.02147   0.02643056  0.026438593            8 
 2577000    0.8374538    -6.561995    818.16968  0.026457434  0.026431643           10 
 2578000   0.84166777   -6.5362642    818.33842  0.026452625  0.026424689            5 
 2579000   0.84546238   -6.5644655    818.11954  0.026435296  0.026417707           20 
 2580000   0.83924764   -6.5756289     817.9933  0.026420972  0.026410727           14 
 2581000   0.83445079   -6.5809742    818.72823  0.026434464  0.026403737           45 
 2582000   0.83239935    -6.561859    819.37564  0.026445121  0.026396752           40 
 2583000   0.85372752   -6.5895387    818.75967  0.026415011  0.026389832           37 
 2584000   0.83115175   -6.5617427    819.70758  0.026435358  0.026382891           21 
 2585000   0.84807675   -6.6013073    818.89199  0.026398839   0.02637589           22 
 2586000   0.84168218   -6.5996979    817.25517  0.026335885  0.026368804           14 
 2587000    0.8498858   -6.5828785    817.55841  0.026335473  0.026361731           15 
 2588000   0.82348764   -6.5713331    819.57211  0.026390137  0.026354751            7 
 2589000   0.83746019   -6.5958901    820.35755  0.026405226  0.026347727           24 
 2590000   0.83463234    -6.585504    819.48793  0.026367051  0.026340699           28 
 2591000   0.83104821   -6.5681506     817.9595  0.026307716  0.026333695           13 
 2592000   0.82800269   -6.5848115    818.33469  0.026309629  0.026326667           17 
 2593000    0.8238244   -6.5810341    821.35499  0.026396548  0.026319667           24 
 2594000   0.82827724    -6.571399    821.36685  0.026386753  0.026312682           11 
 2595000   0.82990332   -6.5911377     820.3932  0.026345318  0.026305717           21 
 2596000    0.8289769   -6.6017892    821.07924  0.026357192  0.026298755           30 
 2597000   0.83581056   -6.5710525    820.58537  0.026331195  0.026291794           29 
 2598000   0.83615038   -6.5672183    821.30873  0.026344263  0.026284868           22 
 2599000    0.8301745   -6.5773113    822.78724  0.026381533  0.026277944           28 
 2600000   0.84309232   -6.5688826    822.04876  0.026347717  0.026271017           17 
 2601000   0.82845519   -6.6036704    820.48504  0.026287487  0.026264086           14 
 2602000   0.83646677   -6.6023031    821.37402  0.026305855   0.02625713            7 
 2603000   0.83980508   -6.5911546    822.48874  0.026331436   0.02625015           16 
 2604000   0.83935001   -6.5747084    822.97665  0.026336938  0.026243239           10 
 2605000   0.83136553   -6.5688084    821.91638   0.02629291  0.026236337            9 
 2606000    0.8268144   -6.5712427    821.91516  0.026282782  0.026229435            8 
 2607000   0.82640062   -6.5687618     824.2743  0.026348111  0.026222525           10 
 2608000   0.83367379   -6.6013843    822.71089  0.026288052  0.026215545           36 
 2609000   0.84052736   -6.5890391    821.80875  0.026249161  0.026208591           46 
 2610000   0.82020089    -6.597413    822.59027  0.026264057  0.026201661           13 
 2611000   0.82530773   -6.5866266    822.02434  0.026235936  0.026194705           20 
 2612000   0.82798689   -6.6085911    822.43293  0.026238927  0.026187763           11 
 2613000   0.83801535   -6.5807423    822.77551  0.026239811  0.026180799           16 
 2614000   0.84439109   -6.6047983    821.66968  0.026194519  0.026173845           23 
 2615000   0.81835814    -6.586308    822.15794  0.026200062  0.026166857           15 
 2616000   0.82212513   -6.5873488    824.29018  0.026257969  0.026159918           12 
 2617000   0.83898627   -6.5906298    822.95354  0.026205373   0.02615304           21 
 2618000   0.83231353   -6.5666772    824.22276  0.026235764  0.026146136           12 
 2619000   0.83019272   -6.5713616    824.34283  0.026229567  0.026139256           14 
 2620000   0.81652133   -6.5864184     825.6371  0.026260722  0.026132368           14 
 2621000   0.81836622   -6.5936388    827.29067  0.026303277  0.026125523           22 
 2622000   0.82175318   -6.6125827    822.98016  0.026156247  0.026118646           16 
 2623000   0.85534994   -6.6086486    824.49314  0.026194343  0.026111725           44 
 2624000   0.85162999   -6.5769299    826.25698  0.026240377  0.026104845           19 
 2625000   0.82901519   -6.6062723     824.2986  0.026168209  0.026098033           19 
 2626000   0.82071071   -6.5909817    825.58469  0.026199057  0.026091195           12 
 2627000   0.84398594   -6.5956173    825.62819  0.026190464  0.026084357           16 
 2628000   0.83352273   -6.5962174    825.83112  0.026186933  0.026077518           12 
 2629000   0.82909479    -6.564175    826.94236  0.026212196  0.026070676           11 
 2630000   0.81855611   -6.6055353    826.15135  0.026177166  0.026063847           10 
 2631000   0.81725121   -6.5875305    826.31959  0.026172545  0.026057015           12 
 2632000   0.83184454   -6.5774252    826.32375  0.026162733  0.026050233           18 
 2633000   0.83374813   -6.6057203    825.66093  0.026131818  0.026043435           15 
 2634000   0.81915649   -6.5546386    827.23374  0.026171657  0.026036697            5 
 2635000   0.82624518   -6.5451938    828.97679   0.02621685  0.026029987            9 
 2636000   0.82631541   -6.5644665    828.49534  0.026191684  0.026023266           10 
 2637000   0.81805209   -6.5893866    827.29734  0.026143893  0.026016539           25 
 2638000    0.8459142   -6.6007438    827.59712  0.026143452   0.02600977           17 
 2639000   0.82744397   -6.5920363    826.39791  0.026095677  0.026002951           30 
 2640000   0.83140293   -6.5657918    827.23297  0.026112152  0.025996136           14 
 2641000    0.8177816   -6.5611232    827.19052  0.026100925  0.025989338           23 
 2642000   0.82003088   -6.5854839    829.51964  0.026164511  0.025982584           35 
 2643000   0.85217593   -6.5760769    827.95234  0.026105194  0.025975784           26 
 2644000   0.84265919    -6.635222    826.50165  0.026049598  0.025968947           24 
 2645000   0.82395615   -6.6111069    827.99908  0.026086928  0.025962138           18 
 2646000   0.81222643   -6.6102131    828.84753   0.02610379  0.025955364           20 
 2647000   0.81769313   -6.6071676    828.74826  0.026090803  0.025948561           27 
 2648000    0.8430219   -6.5921487     828.6586  0.026078128  0.025941783           26 
 2649000   0.81872041   -6.6261913    830.30825  0.026120179  0.025935058           22 
 2650000   0.85488472   -6.5958166    829.98498  0.026100157  0.025928364           55 
 2651000   0.83151465   -6.6195148    825.58536   0.02595201  0.025921608           24 
 2652000   0.82246258   -6.6013868    827.34483  0.025997512  0.025914838           21 
 2653000   0.84036242   -6.6176513    828.74464  0.026031682  0.025908073           51 
 2654000   0.83616015   -6.6001427    828.00339  0.025998599  0.025901294           37 
 2655000   0.82472329   -6.6055601    829.37621  0.026031896  0.025894524           10 
 2656000   0.83933625   -6.6033907    828.68962  0.026000553    0.0258878           16 
 2657000   0.82591636   -6.5658243    830.72498  0.026054604   0.02588111           22 
 2658000   0.83308205   -6.5839583    832.03275  0.026085802  0.025874446           31 
 2659000   0.81297861   -6.5651521    831.02764  0.026044492  0.025867793           26 
 2660000   0.82253732   -6.6018623    830.27874  0.026011239  0.025861127           33 
 2661000   0.83579571   -6.6199769     830.6448  0.026012927  0.025854356           12 
 2662000   0.81883219   -6.5751785    828.61566  0.025939634  0.025847561           17 
 2663000   0.82899506   -6.6078872    829.97081    0.0259723  0.025840775           16 
 2664000   0.85079683   -6.6009645    831.66521  0.026015553  0.025834015           24 
 2665000   0.81785062    -6.606063    829.71998  0.025944965  0.025827227           16 
 2666000   0.80419296   -6.6100118    831.22887  0.025982398  0.025820437           22 
 2667000   0.82244821   -6.5813468    832.06393  0.025998748  0.025813675            8 
 2668000   0.81114509   -6.5733007    830.09857  0.025927617  0.025806906            6 
 2669000    0.8276369   -6.6162386    831.08964  0.025948846  0.025800162           22 
 2670000   0.83630443   -6.5774399    831.66879  0.025957203  0.025793377           18 
 2671000   0.82099004   -6.5705102    829.07244  0.025866481  0.025786572           16 
 2672000   0.82221364    -6.592084    829.47158  0.025869248  0.025779782           32 
 2673000   0.80800455    -6.600689    831.09411  0.025910154  0.025772989           27 
 2674000   0.82985697   -6.5935148    830.54443  0.025883334  0.025766149           17 
 2675000   0.81841499   -6.6137167    830.68256  0.025877961  0.025759362           28 
 2676000    0.8315549   -6.5797667    832.82135  0.025934895  0.025752578           30 
 2677000   0.81032136   -6.5945165    830.48751  0.025852556  0.025745809           49 
 2678000    0.8095601   -6.5912628    831.70773  0.025880873  0.025739037           23 
 2679000   0.84676807   -6.6140614    832.30885  0.025889911  0.025732253           12 
 2680000   0.82037677   -6.6133325    831.88248  0.025866993  0.025725485           12 
 2681000   0.80533149   -6.5959814    831.52537  0.025846244  0.025718713           11 
 2682000   0.82455663    -6.629539     832.6109  0.025870336  0.025711944           10 
 2683000    0.8268277   -6.5924331    831.19411  0.025816689  0.025705159           23 
 2684000   0.83605872   -6.6013065    830.90764  0.025798176  0.025698424           14 
 2685000   0.82360576   -6.6085396     831.5169  0.025807477  0.025691659           28 
 2686000   0.82256343    -6.623993     831.7556  0.025805274  0.025684918           32 
 2687000   0.83255928   -6.5888162    832.35081   0.02581413  0.025678144           19 
 2688000   0.81459491   -6.6018137    830.99779   0.02576258  0.025671365           22 
 2689000   0.82600038   -6.6067711    830.88167  0.025749401  0.025664595           23 
 2690000   0.82120822    -6.655216    832.87245  0.025801501  0.025657807           20 
 2691000   0.83004447   -6.5586471    834.39778  0.025839149  0.025651027           10 
 2692000   0.83968471   -6.6104656     832.6568  0.025775656  0.025644279           14 
 2693000   0.82855499   -6.6132468     833.1792   0.02578225  0.025637528           21 
 2694000    0.8293008   -6.5883008    829.81504  0.025668617  0.025630755           15 
 2695000   0.82613812   -6.5907576    832.89792  0.025754419  0.025624021           12 
 2696000   0.80926572   -6.5630214    834.09264  0.025781795  0.025617257           14 
 2697000    0.8094894   -6.5899458    832.29758  0.025716771  0.025610453           23 
 2698000   0.81009377   -6.6359313    833.74813  0.025752043  0.025603591           20 
 2699000   0.82098699   -6.5980808    833.45764  0.025733532  0.025596766           30 
 2700000   0.80594007   -6.6087237    832.73023   0.02570155  0.025589935           22 
 2701000   0.81932507   -6.6285836    832.74974  0.025692637  0.025583109           17 
 2702000   0.82320443   -6.6091497    832.25888  0.025667989    0.0255763           13 
 2703000   0.81443057   -6.6046083    834.42108  0.025725153  0.025569532           11 
 2704000   0.81433144   -6.6030822    834.98226  0.025732935  0.025562751           17 
 2705000   0.82963391   -6.5998179    832.06193  0.025633454  0.025555944           22 
 2706000   0.82867455   -6.6072482    834.61247  0.025702527  0.025549173           25 
 2707000   0.80698759   -6.6197778     831.8532   0.02560809  0.025542393           20 
 2708000   0.82502465   -6.5764028    833.17808  0.025639404   0.02553559           14 
 2709000    0.8210043   -6.6163945    832.92205  0.025622064  0.025528781           17 
 2710000   0.81814232   -6.6177576    834.06466  0.025647745  0.025521982           13 
 2711000   0.81907799   -6.6034616    833.83277  0.025631156  0.025515214           17 
 2712000   0.81892871     -6.59913     834.2875  0.025635678  0.025508414           16 
 2713000   0.80631373   -6.6083487    833.76158  0.025610074  0.025501601           12 
 2714000   0.81403152   -6.6054494    833.40068  0.025589557  0.025494764           18 
 2715000   0.82109227   -6.6113454    833.01369  0.025568253  0.025487888           13 
 2716000   0.80191559   -6.6321282    831.50719  0.025512616  0.025481009           17 
 2717000    0.8283991   -6.5942259    832.65464   0.02553842   0.02547417            8 
 2718000    0.8165609   -6.6196414    832.51742  0.025524817  0.025467325            9 
 2719000   0.80837744   -6.5739467    834.43324  0.025574146  0.025460471            9 
 2720000   0.83294412   -6.6270787    831.63444  0.025478996  0.025453614           13 
 2721000   0.82150223   -6.5881923    832.09312   0.02548368  0.025446736           14 
 2722000   0.81901805   -6.6419138    832.54535  0.025488163  0.025439859            8 
 2723000   0.82383212   -6.6037804    834.57139  0.025540806  0.025432979            6 
 2724000   0.80603869   -6.6126083    831.97681  0.025452056  0.025426106           10 
 2725000   0.81309125   -6.6048061    833.16963  0.025479193  0.025419169            9 
 2726000   0.81699093    -6.620765      833.119  0.025468299  0.025412299           16 
 2727000    0.8106185   -6.6233078    834.57391   0.02550342   0.02540543            9 
 2728000    0.8025626   -6.6067497    834.41016  0.025489069  0.025398547           38 
 2729000   0.81390839   -6.5961898    834.20793  0.025473553  0.025391651           13 
 2730000   0.81616682   -6.6269051    833.57463  0.025444891  0.025384755           12 
 2731000   0.81777477   -6.6266105    835.05539  0.025480758  0.025377864           25 
 2732000   0.80491215   -6.6445406    833.14023  0.025413013  0.025370972           21 
 2733000   0.81767962   -6.6048071    833.30216  0.025408652  0.025364098           14 
 2734000    0.8250676   -6.6268828    835.44377  0.025464636  0.025357264           11 
 2735000   0.82574645   -6.6110818    832.60968  0.025368973  0.025350377           11 
 2736000   0.81104608   -6.6157368    835.15373  0.025437187  0.025343463            7 
 2737000   0.80668926   -6.5841177    835.03929  0.025424409  0.025336583           23 
 2738000   0.81035916   -6.6068498    834.85026   0.02540937  0.025329715           17 
 2739000    0.8260098   -6.6254414    836.94485   0.02546382  0.025322855            9 
 2740000   0.80308144   -6.6099285    833.89579  0.025361794  0.025315967            8 
 2741000   0.81855706   -6.6337358    834.65151  0.025375517  0.025309069           17 
 2742000   0.80476339   -6.6340851    833.76107  0.025339201  0.025302143           45 
 2743000   0.80573386   -6.6207734    833.72565  0.025328887  0.025295218           10 
 2744000   0.81906125   -6.6141474    833.44762  0.025311213  0.025288308            9 
 2745000   0.81983588   -6.6600395    835.16606  0.025354161  0.025281379            7 
 2746000   0.81665027   -6.6212726    836.13868  0.025374444  0.025274505           14 
 2747000   0.80842652   -6.6000223     835.8943  0.025357793  0.025267586            9 
 2748000   0.81011991   -6.6137581    835.40229  0.025333645  0.025260696           19 
 2749000   0.80565289    -6.594825    835.58771  0.025330051  0.025253826           13 
 2750000   0.78873481   -6.6257506    837.28954   0.02537241  0.025246945            9 
 2751000   0.81221307   -6.6210511    837.23329  0.025361483  0.025240059            9 
 2752000    0.8173101   -6.6196051    835.25917  0.025292489  0.025233191           13 
 2753000   0.81898648   -6.6196458    834.43398  0.025258324  0.025226324           19 
 2754000     0.818057   -6.6211823    836.42717  0.025309464  0.025219411           23 
 2755000   0.82576844   -6.6290192    836.43081  0.025300387  0.025212459           23 
 2756000   0.81861002   -6.6203347     837.5614  0.025325393   0.02520556           17 
 2757000   0.81255972   -6.6108223    834.32382  0.025218348  0.025198688           14 
 2758000   0.81189497   -6.6089394    837.29567  0.025298999  0.025191812           13 
 2759000    0.8039353   -6.6252651     836.2797  0.025259143  0.025184903           28 
 2760000   0.79659756   -6.6210069    834.57545  0.025198534  0.025178019           25 
 2761000    0.8026232   -6.6351313    838.32062  0.025302445  0.025171145           13 
 2762000   0.81390913   -6.6336309    836.03543  0.025224337  0.025164304           11 
 2763000   0.78300259   -6.6362707    836.37832  0.025225549  0.025157402           12 
 2764000   0.79619351   -6.6215648    836.90726   0.02523237  0.025150552           24 
 2765000   0.82957863   -6.6132989    838.28894  0.025264887  0.025143702           16 
 2766000   0.79854006   -6.6349252    837.88915  0.025243708  0.025136824           10 
 2767000   0.78558976   -6.6194154    837.29843  0.025216794  0.025129928           10 
 2768000   0.81127013   -6.6431012    837.47752  0.025213076  0.025123008           45 
 2769000    0.8166579   -6.6314662    837.52936   0.02520553  0.025116121            8 
 2770000   0.79331955   -6.6312113    837.39714  0.025192453  0.025109253           16 
 2771000   0.81501887   -6.6363392    836.18449  0.025146893  0.025102371           21 
 2772000   0.80538334   -6.6449282    835.83922  0.025127442  0.025095506           37 
 2773000   0.80026763   -6.6041827    837.45295  0.025166875  0.025088645           22 
 2774000   0.81071671   -6.6200446     838.9686  0.025203335  0.025081744           24 
 2775000    0.8102254   -6.6263803    838.19547  0.025171035  0.025074852           44 
 2776000   0.79567066   -6.6386582    836.41819  0.025108615  0.025067959           26 
 2777000   0.81202033   -6.6499577    838.63461  0.025166085  0.025061084           39 
 2778000   0.80339395   -6.6279496    836.62148  0.025096637  0.025054215           33 
 2779000     0.811053   -6.6640025    839.10901  0.025162199  0.025047361           11 
 2780000   0.81330649   -6.6394706    838.41706  0.025132406  0.025040502           21 
 2781000   0.80689154   -6.6308098    839.45719  0.025154537  0.025033643           15 
 2782000   0.80872071    -6.654161    839.09842  0.025134748  0.025026762           19 
 2783000   0.81774736   -6.6572561    837.03965  0.025064069  0.025019917           29 
 2784000   0.81243965   -6.6427072    837.04038  0.025055088  0.025013029           21 
 2785000   0.80388717   -6.6317733    837.65414  0.025064457  0.025006162           20 
 2786000   0.80255804   -6.6215629     837.8283   0.02506067   0.02499932           19 
 2787000   0.82377165   -6.6366594    838.55674  0.025073458  0.024992504           35 
 2788000   0.80854232   -6.6347944    837.91642  0.025045326  0.024985641           15 
 2789000   0.79111738   -6.6179894    838.92943  0.025066614  0.024978786           33 
 2790000   0.79711871   -6.6525087    836.06204  0.024971985  0.024971924           13 
 2791000   0.79534636   -6.6649699    839.12562  0.025054509  0.024965032           15 
 2792000   0.82118231    -6.671237     837.7631  0.025004868  0.024958146           23 
 2793000   0.81692721   -6.6544884    837.62717   0.02499186  0.024951274           30 
 2794000   0.79784879   -6.6313262    839.38845  0.025035446   0.02494442            9 
 2795000   0.80538472   -6.6420125    838.35949  0.024995811  0.024937591            9 
 2796000   0.77378536   -6.6182859    840.23732  0.025042839  0.024930735           15 
 2797000   0.80459857   -6.6097701    839.25516  0.025004623  0.024923911           13 
 2798000   0.79216123   -6.6309893    839.24365  0.024995343  0.024917069           14 
 2799000   0.80792222   -6.6211854    840.52412  0.025024536  0.024910236           12 
 2800000   0.83003893   -6.6400374     841.1525  0.025034301  0.024903434           23 
 2801000   0.81090275   -6.6233841    841.00794  0.025021062  0.024896631           23 
 2802000   0.80499801   -6.6500351    839.61034  0.024970567  0.024889795           23 
 2803000   0.79971293   -6.6440257    840.27801  0.024981508   0.02488295           17 
 2804000   0.79000627   -6.6118962    838.67479  0.024924952  0.024876133           30 
 2805000    0.7892933   -6.6317586    841.13324  0.024989104  0.024869303           31 
 2806000   0.81746243    -6.628836    841.40035  0.024988131  0.024862474           24 
 2807000   0.79726386   -6.6337999     841.4392  0.024980382   0.02485565           21 
 2808000     0.820739   -6.6396609    840.24611  0.024936079  0.024848833           38 
 2809000   0.80060874   -6.6473708     840.7292  0.024941533  0.024842009           29 
 2810000   0.80451774   -6.6467024    840.03907  0.024912191  0.024835157           23 
 2811000   0.80555238   -6.6264111    841.36406  0.024942608  0.024828331           22 
 2812000   0.79495033   -6.6426242    839.70467  0.024884562  0.024821492           14 
 2813000   0.80555251   -6.6493398    842.23288  0.024950613  0.024814679           17 
 2814000   0.81543275   -6.6419185    839.76607  0.024868694  0.024807861           29 
 2815000   0.81644938   -6.6248143    840.65384  0.024886141  0.024801036           19 
 2816000   0.81816842   -6.6457415    840.35014  0.024868316  0.024794231           18 
 2817000   0.79057262   -6.6673156    839.97839  0.024848491    0.0247874            9 
 2818000   0.80638838   -6.6572156    840.48635  0.024854695  0.024780576           15 
 2819000   0.79978478    -6.655481    842.68872  0.024910983  0.024773763           25 
 2820000   0.79073867   -6.6369592    842.43172  0.024894554  0.024767016           22 
 2821000   0.80157015   -6.6338233    843.21336   0.02490882  0.024760243           33 
 2822000   0.78729993   -6.6623449    840.45096   0.02481842   0.02475347           25 
 2823000   0.80422103   -6.6573874     843.5199  0.024900221  0.024746686           22 
 2824000   0.79850352    -6.632828    845.49465  0.024949677  0.024739922           20 
 2825000   0.78475173   -6.6493106     843.2247  0.024873885  0.024733145           49 
 2826000   0.80057431   -6.6701257    843.67547  0.024878375  0.024726324           50 
 2827000   0.79291041   -6.6695014    841.10008  0.024793659  0.024719487           57 
 2828000   0.77958757    -6.626451    841.85939  0.024807266  0.024712694           29 
 2829000   0.79677769    -6.647252    841.89617  0.024799581  0.024705881           38 
 2830000   0.78569312   -6.6471624    842.89872  0.024820339  0.024699087           20 
 2831000   0.79523689   -6.6492621     843.2789  0.024822763  0.024692301           21 
 2832000   0.78510079   -6.6471284    842.43906  0.024789285   0.02468549           16 
 2833000   0.80301997   -6.6389456    840.58324  0.024725945  0.024678697           22 
 2834000   0.80290854   -6.6431751    840.80106  0.024723626  0.024671852           14 
 2835000   0.78905966    -6.666708    841.62867  0.024739232  0.024664974           17 
 2836000   0.78419484   -6.6613651    842.51847  0.024756654  0.024658126           21 
 2837000   0.80337778   -6.6352331    841.69255  0.024723668  0.024651272           54 
 2838000   0.81287532   -6.6277658    842.52073  0.024739274  0.024644429           22 
 2839000   0.80322228   -6.6514987    842.69011  0.024735532   0.02463758           19 
 2840000   0.80424678   -6.6352762    842.49549  0.024721112  0.024630679           19 
 2841000   0.78813802   -6.6569807    840.51814   0.02465441  0.024623811           49 
 2842000   0.80681718   -6.6421556    844.41401   0.02475997  0.024616987           36 
 2843000   0.79299862   -6.6282653    843.27285  0.024717811  0.024610147           20 
 2844000   0.80563865   -6.6474585    844.37545  0.024741428  0.024603318           14 
 2845000   0.79611301   -6.6484497    841.79246  0.024657073  0.024596452           17 
 2846000   0.77887054   -6.6674778     841.7906  0.024648354  0.024589585           11 
 2847000   0.78702596   -6.6552063    843.31709  0.024684378  0.024582714           18 
 2848000   0.80905177   -6.6394279    843.95393  0.024694345  0.024575835           37 
 2849000   0.81682296   -6.6513717    842.97693    0.0246571  0.024569004           17 
 2850000   0.80040923   -6.6412188    845.18097  0.024712894  0.024562226           14 
 2851000   0.80093031   -6.6638098    842.26561  0.024619011  0.024555392           13 
 2852000    0.7806995   -6.6151582    843.46403  0.024645396  0.024548527           20 
 2853000   0.80882088   -6.6547025    841.66153  0.024584108  0.024541695           13 
 2854000    0.8036925   -6.6563024    843.12001   0.02461808  0.024534829           24 
 2855000   0.78528875   -6.6675214    843.44286  0.024618881  0.024527965           22 
 2856000   0.81916672   -6.6628325    843.11345  0.024600649  0.024521102           27 
 2857000   0.79832728   -6.6646011    843.88217  0.024614461  0.024514257           39 
 2858000   0.80060426   -6.6397715    845.02504  0.024639172  0.024507443           18 
 2859000   0.79527511   -6.6433871    844.10148  0.024603634  0.024500622           12 
 2860000   0.79207191   -6.6552753    844.39314   0.02460353  0.024493822           17 
 2861000   0.78591702   -6.6513393    843.71583  0.024575202  0.024487019           19 
 2862000   0.79053039   -6.6552794    844.03051  0.024575778  0.024480231           14 
 2863000   0.77769782   -6.6588335    844.32354  0.024575723  0.024473414           23 
 2864000   0.77859981   -6.6549038    842.40865  0.024511425  0.024466591           27 
 2865000   0.77890824   -6.6545163    843.46275   0.02453353  0.024459745           14 
 2866000   0.79736229   -6.6524632    844.81395  0.024564258  0.024452915            9 
 2867000   0.79956036   -6.6203558    844.74018  0.024553545  0.024446122           14 
 2868000   0.80104986   -6.6329709    843.78597  0.024517258   0.02443929           17 
 2869000   0.79409156   -6.6662093    842.43332  0.024469424  0.024432466           19 
 2870000   0.79585458   -6.6500865    843.61511  0.024495212  0.024425609           44 
 2871000   0.79920859   -6.6716803    844.72268  0.024518828   0.02441875           76 
 2872000   0.78302563   -6.6574713    843.90953  0.024486697  0.024411887           26 
 2873000   0.78634516   -6.6707601    844.05531  0.024482403  0.024405028           10 
 2874000   0.79516244   -6.6611741    843.92435  0.024470087  0.024398149           12 
 2875000   0.79730472    -6.647671    842.56045  0.024422042   0.02439128           63 
 2876000   0.79362927   -6.6751377    845.91433   0.02451073  0.024384422           22 
 2877000   0.78037768   -6.6458475    845.97834  0.024504065  0.024377545           18 
 2878000   0.80165666   -6.6851715    844.53634  0.024453797  0.024370641           52 
 2879000   0.78992943   -6.6694642    846.30004  0.024496354  0.024363755           56 
 2880000   0.79970344   -6.6662738    844.36311  0.024431803  0.024356872           49 
 2881000   0.78524192   -6.6751739    844.14013  0.024416873      0.02435           30 
 2882000   0.80869821   -6.6748148    843.24678  0.024382569  0.024343132           18 
 2883000   0.77271621   -6.6527862    847.28562  0.024490855  0.024336285           26 
 2884000    0.7973253   -6.6604894     843.9853     0.024387  0.024329474           16 
 2885000   0.78911569   -6.6726559    845.22492  0.024414353   0.02432262           36 
 2886000   0.78887916   -6.6497705    844.74364  0.024391997  0.024315745           12 
 2887000   0.79785853   -6.6722832    844.24651  0.024369198  0.024308902           28 
 2888000   0.79415849   -6.6609169    846.00664  0.024411549  0.024302056           32 
 2889000   0.79218564   -6.6532442    845.47171  0.024387669  0.024295207           31 
 2890000   0.78813535    -6.679832    845.98434  0.024394012   0.02428837           24 
 2891000   0.78569215   -6.6473949    846.58112  0.024402776  0.024281577           14 
 2892000   0.77508826   -6.6609988    845.67438  0.024368211  0.024274726           16 
 2893000   0.78086242   -6.6632686     846.0978  0.024371984  0.024267895           11 
 2894000   0.79900051   -6.6808026    845.58331  0.024348748   0.02426106           13 
 2895000   0.77640073   -6.6698047    845.70087  0.024343721  0.024254226           38 
 2896000   0.79552204   -6.6801587    846.92938  0.024370666  0.024247362           24 
 2897000   0.77853184   -6.6974551    845.78491  0.024329332  0.024240503           28 
 2898000   0.81083015   -6.6670002    845.24861  0.024305516  0.024233677           19 
 2899000   0.79740507   -6.6608717    845.87267   0.02431507  0.024226831           14 
 2900000   0.79083042   -6.6304104    845.60901  0.024299109  0.024219988           21 
 2901000   0.81420899   -6.6746774    846.75626  0.024323689  0.024213129           19 
 2902000   0.77817257   -6.6702714    847.76338  0.024344227  0.024206282           17 
 2903000   0.80157184   -6.6667629    845.94196  0.024283556  0.024199386           32 
 2904000   0.77175787   -6.6697345    844.00381  0.024219577  0.024192511           19 
 2905000    0.7956483   -6.6883567    844.67464  0.024230483  0.024185596           39 
 2906000   0.78448311   -6.6614333    845.82074  0.024255011  0.024178694           15 
 2907000    0.7945671   -6.6916381    844.90898   0.02422053  0.024171787           18 
 2908000   0.77385603   -6.6786275    845.72752  0.024235658  0.024164891           28 
 2909000    0.7866855   -6.6539594    843.83095  0.024172996  0.024158022           22 
 2910000   0.79829909      -6.6939    845.85649  0.024222694  0.024151133           18 
 2911000   0.78288931   -6.6453039    847.58107  0.024263743  0.024144246           18 
 2912000   0.79999087   -6.6573787    845.34276  0.024191356  0.024137334           41 
 2913000   0.78451768   -6.6864624    846.99261   0.02423025  0.024130459           27 
 2914000   0.78797865   -6.6578982    847.67194  0.024241362   0.02412357           37 
 2915000   0.78792815   -6.6881279    845.15243  0.024161019  0.024116706          120 
 2916000   0.78180929   -6.6724681    846.44297  0.024189614  0.024109853           34 
 2917000   0.77785463   -6.6854407    845.74471  0.024161373  0.024102983           15 
 2918000   0.78635379   -6.6646594    846.11714  0.024163729  0.024096109           35 
 2919000   0.78459646   -6.6637231    846.63306   0.02417018  0.024089258           11 
 2920000    0.7962225   -6.6731606    846.49016  0.024157824  0.024082401           17 
 2921000   0.78214029   -6.6882991    846.26331  0.024143082  0.024075525           21 
 2922000   0.79204126   -6.6943793    845.91671  0.024124935  0.024068667           44 
 2923000   0.77998002   -6.6879167    845.24435  0.024097513  0.024061799           77 
 2924000   0.79451326   -6.6563163    846.72837  0.024131565   0.02405494           30 
 2925000   0.78083262   -6.6747677    847.74122  0.024152172  0.024048078           18 
 2926000   0.78388017   -6.6981537    848.39699  0.024162594   0.02404122           30 
 2927000    0.7890677   -6.7059837    848.37809    0.0241538  0.024034411           22 
 2928000    0.7847373   -6.6587196    848.48581  0.024148617  0.024027606           24 
 2929000   0.77719048   -6.6538369    849.67397  0.024174177  0.024020784           15 
 2930000   0.78402961   -6.6731095    849.29952  0.024155276  0.024013992           30 
 2931000   0.77908319   -6.6894917    847.71055  0.024101858  0.024007212           27 
 2932000   0.78196393   -6.6866939    849.79942  0.024153008   0.02400042           34 
 2933000      0.79698   -6.7034588    846.81305  0.024059923  0.023993596           43 
 2934000   0.78916871   -6.6930789    847.91252   0.02408295  0.023986773           31 
 2935000   0.78816032   -6.7086383    847.88682  0.024074015  0.023979946           41 
 2936000   0.78334342   -6.6698987    848.50778  0.024083441  0.023973145           25 
 2937000   0.79066791   -6.6919457    849.13035  0.024092905  0.023966335           44 
 2938000   0.79180021   -6.6881525    849.34095  0.024090678  0.023959525           36 
 2939000   0.78528895   -6.6612136    849.51477   0.02408741  0.023952731           23 
 2940000   0.78096092   -6.6812728    849.55456  0.024080345  0.023945942           22 
 2941000   0.76256562   -6.6817072    848.72421  0.024048629  0.023939176           49 
 2942000   0.77424539     -6.67281    848.52175   0.02403472  0.023932384           44 
 2943000   0.79705602   -6.6890827     850.0087  0.024068657  0.023925605           56 
 2944000   0.77862615   -6.6908151    849.28822  0.024040088  0.023918808           33 
 2945000   0.77800863   -6.7247404    850.27602  0.024059876  0.023912007           34 
 2946000   0.79236092   -6.7003256    848.17478  0.023992271  0.023905215           24 
 2947000   0.78897342   -6.6796447    850.67269  0.024054765  0.023898454           30 
 2948000   0.78444736   -6.6757393    850.31979  0.024036629  0.023891714           39 
 2949000   0.79728691   -6.6836138    849.91593  0.024017066  0.023885005           18 
 2950000   0.78946577   -6.7113074    847.92765  0.023952758  0.023878228           19 
 2951000   0.76174334   -6.6830283    850.85624  0.024027342  0.023871465           13 
 2952000   0.76585584   -6.7010701    851.12518  0.024026795  0.023864705           24 
 2953000   0.77693617   -6.6869668    851.57415  0.024031328  0.023857966           15 
 2954000   0.78409107    -6.704177    850.49554  0.023992765  0.023851197           60 
 2955000   0.75642163   -6.6777015    852.66431  0.024045807   0.02384446           38 
 2956000   0.78016419    -6.691517    849.33822  0.023943905  0.023837729           33 
 2957000   0.77956782   -6.6789717    849.52985  0.023941209   0.02383101           25 
 2958000   0.78144252    -6.703998     851.4591  0.023987466  0.023824298           30 
 2959000   0.77785536    -6.699613     850.7589   0.02395964  0.023817565           65 
 2960000   0.76101536   -6.6970787    852.80745  0.024009219  0.023810866           14 
 2961000   0.78889244    -6.716449    851.19694  0.023955785  0.023804153           61 
 2962000   0.78325022    -6.683275    850.55015    0.0239295  0.023797437           44 
 2963000   0.77035469   -6.7088566    852.30999  0.023970919  0.023790748           49 
 2964000   0.77003087   -6.6768538    851.82147  0.023949097  0.023784049           99 
 2965000    0.7926225   -6.6965975    850.61283   0.02390705  0.023777317           73 
 2966000   0.78178971   -6.7044865    851.51945  0.023924462  0.023770596           74 
 2967000   0.77471213   -6.7228005    851.34342  0.023911454   0.02376388           71 
 2968000   0.76981424   -6.6930047    851.64709  0.023911924  0.023757151           74 
 2969000   0.78326043   -6.7075857    853.85688  0.023965894  0.023750448           42 
 2970000   0.77808699   -6.7201731    851.20548  0.023883431  0.023743721           24 
 2971000    0.7739501   -6.6983706    851.04134  0.023870788  0.023736998           43 
 2972000    0.7728531   -6.6959882    852.01941  0.023890181  0.023730298           59 
 2973000   0.77792864    -6.683855    853.07251  0.023911664   0.02372359           34 
 2974000   0.78749841   -6.6603181    851.81247  0.023868316   0.02371687           30 
 2975000    0.7653475   -6.6655798    852.61084  0.023882656  0.023710177           18 
 2976000   0.76656923    -6.713413    850.88228  0.023826229  0.023703475           16 
 2977000   0.78988733   -6.6542547    851.11337  0.023824694  0.023696798           45 
 2978000   0.78237442   -6.6861765    853.90666  0.023894858  0.023690148           55 
 2979000   0.77002237   -6.7055835    853.79381   0.02388368  0.023683483           22 
 2980000   0.77898365   -6.6941141    854.66501  0.023900028  0.023676836           77 
 2981000   0.77666223   -6.7291424    851.49582  0.023803417  0.023670134           74 
 2982000   0.78297103   -6.7311422    851.70105  0.023801169  0.023663433           58 
 2983000   0.77217556    -6.736459    852.62312   0.02381895  0.023656738           32 
 2984000   0.77255481   -6.6935438    854.88502  0.023874135  0.023650043           33 
 2985000   0.78689579   -6.7150658    852.28928   0.02379367  0.023643377           11 
 2986000   0.79761553   -6.6651049     852.9379  0.023803804  0.023636708           14 
 2987000   0.77713116   -6.6918217    853.09525  0.023800225  0.023630032           19 
 2988000   0.78538664   -6.6702387    853.69484  0.023808982  0.023623374           39 
 2989000   0.78369263   -6.6985883    854.34272  0.023819079  0.023616693           25 
 2990000   0.76349431   -6.7040963    854.28706  0.023809561  0.023610036           34 
 2991000   0.76710044   -6.6991885    852.97061  0.023764923  0.023603375           10 
 2992000   0.75994769   -6.7043303    853.66784  0.023776399  0.023596692           21 
 2993000   0.78319434   -6.7102953    853.23863  0.023756505  0.023590011           22 
 2994000   0.79019138   -6.6875564    852.75851  0.023735207  0.023583332           12 
 2995000   0.76664271   -6.7018366    853.15824  0.023738404  0.023576612           21 
 2996000   0.77459387   -6.7403774    852.60632  0.023715129  0.023569879           62 
 2997000    0.7761883   -6.7111276    854.23224  0.023752426  0.023563166          130 
 2998000   0.78220947   -6.7283362    852.98566  0.023709853  0.023556433          119 
 2999000   0.77874073   -6.7261091    852.44778  0.023687001   0.02354973           70 
 3000000   0.75729615   -6.7155534    853.11274  0.023697576  0.023542991          124 
 3001000   0.76200683   -6.7280948    852.36002  0.023668778  0.023536245           81 
 3002000   0.77649801   -6.7527317    852.39424  0.023661843  0.023529506           25 
 3003000   0.76678469   -6.7565826    853.33064  0.023679949  0.023522784           56 
 3004000   0.75846993    -6.712142    854.38407  0.023701289  0.023516081           50 
 3005000   0.77459768   -6.7264718    854.12653   0.02368626  0.023509372           93 
 3006000   0.75470484   -6.7509165    855.04129  0.023703739  0.023502667           87 
 3007000   0.75378601   -6.7451351     855.0674   0.02369658  0.023495966          159 
 3008000   0.77692008   -6.7193949    852.94719  0.023629964  0.023489265           86 
 3009000   0.76432033   -6.7056768    854.03603  0.023652266  0.023482566           45 
 3010000   0.77551042   -6.7253912    853.31864  0.023624547  0.023475916           37 
 3011000   0.78832178   -6.7413927    855.44844  0.023675646  0.023469238           50 
 3012000   0.78395378   -6.7223747    854.95854  0.023654231  0.023462563           51 
 3013000   0.76916372   -6.6878441    855.23159  0.023653933  0.023455894           30 
 3014000   0.74232378   -6.6808545    853.66113  0.023602663  0.023449237           23 
 3015000   0.75280558   -6.6636155    856.22139    0.0236656  0.023442576           32 
 3016000   0.77713574   -6.7121363    855.38107  0.023634534  0.023435967           39 
 3017000   0.76051144   -6.7039736     854.8438  0.023611861  0.023429338           11 
 3018000   0.77847462   -6.6987316    856.75036  0.023656681  0.023422722           11 
 3019000   0.76980053   -6.7192691    855.72605  0.023620571  0.023416103           49 
 3020000   0.76697904    -6.698926     856.2423  0.023626995  0.023409479           47 
 3021000   0.76032027   -6.7312652    853.75472  0.023550555  0.023402825           27 
 3022000   0.77638651   -6.7054888    853.21407  0.023527853  0.023396156           37 
 3023000   0.77878276   -6.7126215    855.77987    0.0235908  0.023389483           22 
 3024000    0.7586029   -6.7308849     856.6791   0.02360778  0.023382848           16 
 3025000    0.7553006    -6.701701    856.63859  0.023598859  0.023376226            9 
 3026000    0.7681072   -6.7215175     855.0201  0.023546489  0.023369627           15 
 3027000   0.77672824   -6.7142791    855.90682  0.023563121  0.023363003           11 
 3028000   0.74640546   -6.7041822    856.17948  0.023562844  0.023356407            9 
 3029000   0.77902095   -6.7086666    856.66486  0.023568418  0.023349798           21 
 3030000    0.7701054   -6.7014869    854.84673  0.023510636  0.023343173           23 
 3031000   0.77016094   -6.7443628    857.11967  0.023565371  0.023336521           57 
 3032000   0.77729689   -6.7209001    859.12721  0.023612775  0.023329912           42 
 3033000   0.75629719   -6.7201502    855.51233  0.023505669   0.02332329           66 
 3034000   0.78138923   -6.6937818    857.73279   0.02355891  0.023316685           44 
 3035000   0.78526144    -6.717161    855.07321  0.023478122  0.023310079           52 
 3036000   0.75245129    -6.692905    856.57751   0.02351168   0.02330346           25 
 3037000   0.78316797   -6.7385943    855.80227  0.023482666  0.023296849           73 
 3038000   0.76366623   -6.7265617    856.82302  0.023502936  0.023290216           63 
 3039000   0.77653124   -6.7285902     857.8027  0.023522066  0.023283589           86 
 3040000   0.75213191   -6.6914008    855.64895  0.023455289  0.023276992          119 
 3041000   0.77057593   -6.7170798    856.86415  0.023480877  0.023270412           54 
 3042000   0.76491492   -6.7261449    856.90428  0.023474257  0.023263799           61 
 3043000   0.76688687    -6.737412    856.63245  0.023459099  0.023257223           46 
 3044000   0.77009843    -6.739058    856.03731  0.023435099  0.023250619           98 
 3045000   0.75822166   -6.7275168    857.37525  0.023464019  0.023244003          108 
 3046000   0.75530748   -6.7368728    857.06322  0.023447779  0.023237401           91 
 3047000   0.75949147   -6.7316207    857.38258  0.023448818  0.023230833          115 
 3048000   0.75892988   -6.7339376    856.69023  0.023422196  0.023224232          117 
 3049000    0.7618243   -6.7128684    857.20916  0.023428697  0.023217653           51 
 3050000   0.76286015   -6.7378922      856.512  0.023401967  0.023211046           39 
 3051000   0.75997288   -6.7321317    856.24966  0.023387131  0.023204426           23 
 3052000   0.77472706   -6.7284054    857.87241  0.023423777  0.023197822           23 
 3053000   0.75989005   -6.7171689     856.3269  0.023373919  0.023191198           20 
 3054000    0.7827847   -6.7505765    857.38388  0.023395107  0.023184568           28 
 3055000   0.74432801   -6.7140014    856.11248  0.023352768  0.023177951           18 
 3056000   0.75530508   -6.7114975    855.96309  0.023341053  0.023171358           34 
 3057000   0.76253135    -6.723489    857.11714  0.023364877  0.023164767           50 
 3058000   0.77354126   -6.7207371    856.72008  0.023346416  0.023158164           42 
 3059000   0.75837283    -6.726736    858.27584  0.023381166  0.023151559           27 
 3060000   0.78811016   -6.7265735    854.80517  0.023279008  0.023144948           36 
 3061000   0.75067967   -6.7063744    857.33676  0.023340323  0.023138367           49 
 3062000   0.76770292   -6.7359624    856.93791  0.023321846  0.023131789           27 
 3063000    0.7561991   -6.7480528    856.21517  0.023294569  0.023125197           22 
 3064000   0.76572745   -6.7409394     856.3511  0.023290663  0.023118582           81 
 3065000   0.76477075   -6.7492076    858.25794  0.023334909  0.023111979           29 
 3066000   0.73685366   -6.7282349    857.44185  0.023305117   0.02310538           42 
 3067000   0.76498232   -6.7346039    858.54652  0.023327533  0.023098765           28 
 3068000   0.76772007   -6.7264515     857.3141  0.023286454  0.023092169           13 
 3069000   0.75752374   -6.7051185    857.16148  0.023274722  0.023085597           34 
 3070000   0.76624915   -6.7179376    858.61296  0.023306541   0.02307901           47 
 3071000   0.77522726   -6.7422955    857.87916  0.023279039  0.023072425           28 
 3072000   0.75906896   -6.7238819    857.27887  0.023255178  0.023065797           35 
 3073000   0.76479291    -6.737412    857.32175  0.023248773    0.0230592           21 
 3074000   0.74611401   -6.7516548    857.70459  0.023251588  0.023052615           38 
 3075000   0.75118012   -6.7230529    859.11225  0.023282175   0.02304602          139 
 3076000   0.76385514   -6.7362606    857.24656  0.023224062  0.023039439           59 
 3077000   0.76504536   -6.7168683    857.75429  0.023230265  0.023032842           65 
 3078000   0.75054359   -6.7243521    857.43844  0.023214166  0.023026256           73 
 3079000   0.75747817    -6.741021    857.90616  0.023219285  0.023019675           48 
 3080000   0.76268204   -6.7529443    858.33318    0.0232233  0.023013047           39 
 3081000   0.75299859   -6.7417699    855.17399  0.023130315  0.023006397           54 
 3082000   0.73957223   -6.7438689    858.56137    0.0232144  0.022999778           69 
 3083000   0.76572587   -6.7540348    858.20231  0.023197165  0.022993186           85 
 3084000   0.74024822   -6.7221434     857.8209  0.023179337  0.022986591           62 
 3085000   0.73329708   -6.7505944    859.46203  0.023216154  0.022980007           48 
 3086000   0.76856746   -6.7353658    858.50009  0.023182655  0.022973423           31 
 3087000   0.76063959   -6.7209629    857.78897  0.023155949  0.022966851           60 
 3088000   0.76456577   -6.7592108    859.53439  0.023195552  0.022960223           74 
 3089000   0.75080785   -6.7564657    857.95339  0.023145392  0.022953583           43 
 3090000   0.75874317   -6.7376163     859.5684  0.023181456  0.022946978           26 
 3091000   0.75686113   -6.7673029    860.38716   0.02319603  0.022940388           65 
 3092000   0.74943663   -6.7485517     858.3703  0.023134172  0.022933799           39 
 3093000   0.75628749   -6.7700742    858.15983  0.023121021  0.022927199           45 
 3094000   0.76202757   -6.7414471    859.58245  0.023151865  0.022920616           20 
 3095000   0.78390685   -6.7305076    858.59036  0.023117673  0.022914037           26 
 3096000   0.75417038    -6.745569    860.32356  0.023156857  0.022907485           35 
 3097000   0.76188661   -6.7385008    858.83852  0.023109421  0.022900924           48 
 3098000   0.76574982   -6.7362244    859.33391  0.023115287  0.022894341           24 
 3099000   0.76235483   -6.7321023    859.12224  0.023102136  0.022887787           50 
 3100000    0.7604603   -6.6949917    858.88743  0.023088372  0.022881273           28 
 3101000   0.75106572   -6.7407783    859.96485   0.02310988   0.02287473          135 
 3102000   0.75814007   -6.7370207    859.77261  0.023097265  0.022868157          124 
 3103000    0.7473963   -6.7284518    859.81279  0.023090901   0.02286157           96 
 3104000   0.74512765   -6.7325773    859.30445  0.023069814  0.022855016           31 
 3105000   0.75724888   -6.7207844    860.25349  0.023087855   0.02284844           69 
 3106000   0.74469596   -6.7168314    859.51815  0.023060693  0.022841873           48 
 3107000   0.73766155   -6.7460804    859.21421  0.023045119  0.022835272           51 
 3108000    0.7554088   -6.7497829    858.51879  0.023019058  0.022828674           49 
 3109000   0.75501407   -6.7383491    859.83522   0.02304694  0.022822105           34 
 3110000   0.74662336   -6.7519558    859.75086  0.023037268  0.022815512           30 
 3111000    0.7503121   -6.7267543    859.47772  0.023022547  0.022808931           75 
 3112000   0.73979377   -6.7247336    861.82595   0.02307803  0.022802373           88 
 3113000   0.74493452   -6.7664236    858.32015  0.022976768  0.022795809           68 
 3114000   0.76624731   -6.7491498    859.90893  0.023011907  0.022789207           74 
 3115000   0.76903866   -6.7425305    861.12972  0.023037178  0.022782618           94 
 3116000   0.75144546    -6.757337    859.53403   0.02298711  0.022776049           55 
 3117000   0.75101157   -6.7739112    859.17093  0.022970028  0.022769473           66 
 3118000    0.7527116   -6.7498404    860.36313  0.022994525  0.022762887          102 
 3119000   0.74723579   -6.7446316    862.07823  0.023032976  0.022756332          100 
 3120000    0.7518996   -6.7667089    857.17954  0.022894753  0.022749738          111 
 3121000    0.7474108   -6.7437545    860.62702  0.022979467  0.022743151          102 
 3122000   0.75728164   -6.7589066    858.87651  0.022925382  0.022736568           64 
 3123000    0.7614013   -6.7442414    859.24374   0.02292784  0.022729957           51 
 3124000    0.7377096   -6.7500405    860.20746  0.022946208  0.022723361          171 
 3125000   0.75916531   -6.7628261    861.12434  0.022963316  0.022716783          143 
 3126000   0.74666556   -6.7590209    861.20571  0.022958139  0.022710204          110 
 3127000   0.74287053   -6.7437571    860.72503  0.022937987   0.02270364           85 
 3128000   0.76479626   -6.7488134    859.82849  0.022906769  0.022697037          154 
 3129000   0.75553457   -6.7586954    857.78653  0.022845066  0.022690398          209 
 3130000   0.73920523   -6.7711256    858.65597  0.022860915  0.022683748          264 
 3131000   0.75459556   -6.7659926    857.55027  0.022824185  0.022677116          318 
 3132000   0.76202225   -6.7655311    858.77301  0.022849431  0.022670484          230 
 3133000   0.74961159   -6.7761653     860.5387  0.022889103  0.022663856          326 
 3134000   0.75491141   -6.7746675    857.45231  0.022799732  0.022657232          313 
 3135000   0.74578158    -6.761158    858.44783  0.022818922  0.022650589          383 
 3136000   0.75668117   -6.7730443    858.80567  0.022821154  0.022643954          491 
 3137000   0.75309151   -6.7978256    857.38637  0.022776176  0.022637295          472 
 3138000   0.73218799   -6.7886081    859.16543  0.022816163  0.022630601          510 
 3139000   0.74826445   -6.8061292    860.23195  0.022837208  0.022623905          495 
 3140000   0.74859235   -6.7950737     858.4398  0.022782373  0.022617212          593 
 3141000   0.74367966   -6.8166008    858.89697  0.022787248  0.022610506          581 
 3142000   0.74731486   -6.7730567    859.95928  0.022808171  0.022603837          573 
 3143000   0.74165101    -6.801631    857.34886  0.022731702  0.022597158          655 
 3144000   0.74912139   -6.7854474    857.63713  0.022732112   0.02259048          667 
 3145000   0.75464242   -6.7855623    861.48394  0.022826813  0.022583822          736 
 3146000   0.74407761   -6.8243485     858.3157  0.022735635  0.022577137          807 
 3147000   0.76133515   -6.8293845    856.76016   0.02268722   0.02257041          947 
 3148000   0.74924158   -6.8494972    858.55643  0.022727563  0.022563674          972 
 3149000   0.75577708   -6.8784994    856.25705  0.022659497  0.022556922         1151 
 3150000   0.75443738   -6.8647449    856.65913   0.02266294  0.022550083         1247 
 3151000   0.74220451   -6.8848972    857.09067   0.02266716  0.022543211         1337 
 3152000   0.75968332   -6.9416304    854.44169  0.022589935  0.022536317         1572 
 3153000    0.7466064   -6.9599073    851.42741  0.022503103  0.022529314         1845 
 3154000   0.74731235   -6.9763519    849.27581   0.02243912  0.022522241         2082 
 3155000   0.73863549   -7.0283491    849.51367   0.02243829  0.022515089         2289 
 3156000   0.76369431   -7.0227151    849.43917  0.022429213  0.022507867         2455 
 3157000   0.74051732   -7.0986832    844.79981  0.022299647  0.022500591         2728 
 3158000   0.74482636   -7.1388607    842.85404   0.02224124  0.022493193         3120 
 3159000   0.74220443   -7.2054014    842.73185  0.022230976  0.022485681         3280 
 3160000   0.75308464   -7.2785162    837.56823   0.02208777  0.022478066         3597 
 3161000   0.74754673   -7.3160524    835.70727  0.022031722  0.022470308         3787 
 3162000   0.75912461   -7.3745881    834.68513  0.021997816  0.022462445         3856 
 3163000   0.74514055     -7.37357    832.23901  0.021926415   0.02245453         3890 
 3164000   0.73441471   -7.3553269    834.13811  0.021969504  0.022446588         3924 
 3165000   0.74868572   -7.3901376    834.73614  0.021978308  0.022438626         3929 
 3166000    0.7498835   -7.3855619    833.66361  0.021943136  0.022430668         3915 
 3167000   0.74225777   -7.4041576    832.28992  0.021900061    0.0224227         3942 
 3168000   0.73114723   -7.4253935    832.83055  0.021907369  0.022414722         3943 
 3169000    0.7641346   -7.3805485    830.62693  0.021842509   0.02240673         3953 
 3170000   0.73509382   -7.4309223    832.46669  0.021883982  0.022398739         3941 
 3171000   0.72248205    -7.410904    830.69374  0.021830488  0.022390747         3922 
 3172000   0.73535643   -7.3975111    833.73434  0.021903487  0.022382752         3938 
 3173000   0.72891738   -7.4261022    832.14786  0.021854918  0.022374749         3965 
 3174000   0.74209146   -7.4267928    831.75218  0.021837644  0.022366752         3960 
 3175000   0.73981788   -7.4038507    832.29339  0.021844971  0.022358738         3951 
 3176000   0.74416067   -7.4178987    832.52852  0.021844262  0.022350741         3964 
 3177000   0.74467424   -7.4195602    833.02454  0.021850397  0.022342732         3960 
 3178000   0.74742611   -7.4357593    830.56175  0.021778942  0.022334732         3953 
 3179000   0.74917245   -7.4022089    831.92655  0.021807868   0.02232672         3950 
 3180000   0.73986775   -7.4195825    831.72069  0.021795616  0.022318707         3954 
 3181000   0.74604893   -7.4426782     830.9418  0.021768359  0.022310693         3957 
 3182000   0.72241229   -7.4037933    832.36676  0.021798836  0.022302696         3944 
 3183000   0.72429424   -7.4170884    831.14937  0.021760115  0.022294703         3945 
 3184000   0.73691592   -7.4175886    830.26758  0.021730203  0.022286702         3955 
 3185000   0.74444053   -7.4202722    832.42947  0.021779944  0.022278694         3954 
 3186000   0.75005049   -7.4245417    832.04333  0.021763008  0.022270697         3940 
 3187000     0.748083   -7.4183257    830.54417   0.02171698  0.022262716         3955 
 3188000   0.73853812   -7.4140548    831.35865  0.021731458  0.022254717         3942 
 3189000   0.75222276   -7.3975269    829.84545  0.021685101  0.022246714         3921 
 3190000   0.74516646   -7.4326026     831.9272  0.021732686  0.022238717         3946 
 3191000   0.74145447   -7.4195726    832.27506  0.021734959  0.022230733         3941 
 3192000   0.72186421   -7.4321415    830.88786  0.021691934  0.022222736         3964 
 3193000   0.73999574   -7.4333215    831.97072  0.021713402  0.022214743         3941 
 3194000   0.75020477   -7.4038834    830.32338  0.021663624  0.022206747         3949 
 3195000   0.75206644   -7.4137876    830.47941  0.021660913  0.022198748         3954 
 3196000   0.73711387   -7.4019722    830.68236  0.021659427  0.022190753         3942 
 3197000   0.73537403   -7.4197572    830.59117  0.021650275  0.022182754         3956 
 3198000   0.74255899   -7.4268051    830.13756  0.021631685  0.022174775         3950 
 3199000   0.75109637   -7.4333424    830.80583  0.021642332   0.02216679         3933 
 3200000   0.74719218   -7.4205902    831.65236  0.021657613  0.022158808         3924 
 3201000   0.74461529   -7.4310592    831.15369  0.021637866  0.022150832         3954 
 3202000   0.73981117   -7.4391151     832.3434  0.021662071   0.02214284         3947 
 3203000   0.74156754   -7.4398968    831.56365  0.021635021  0.022134856         3955 
 3204000   0.74314312   -7.4243495    831.73709  0.021632779  0.022126879         3959 
 3205000   0.72597964   -7.4000634    829.41835   0.02156574  0.022118905         3947 
 3206000   0.73559486   -7.4012952     831.3505  0.021609235  0.022110924         3947 
 3207000   0.75820406   -7.4308959     831.8432    0.0216153  0.022102954         3932 
 3208000   0.72227626   -7.4290201    831.48689  0.021599306  0.022094992         3940 
 3209000   0.73060258   -7.4290966     831.3782  0.021589753  0.022087031         3952 
 3210000   0.73605127   -7.3916596    832.06218  0.021600783  0.022079068         3940 
 3211000   0.73989252   -7.4460087    831.10206  0.021569139  0.022071102         3938 
 3212000   0.74125529   -7.4481631     831.1687  0.021564153  0.022063135         3954 
 3213000   0.73342033   -7.4180902    832.98227  0.021604478  0.022055181         3940 
 3214000   0.74671453   -7.4230679     831.2955  0.021554022  0.022047224         3953 
 3215000   0.73714377   -7.4474108    832.62729  0.021581837  0.022039252         3954 
 3216000   0.73704211   -7.4329362    832.60372  0.021574516  0.022031297         3944 
 3217000   0.73358326   -7.4314648    831.69173  0.021544185  0.022023351         3949 
 3218000   0.72304067   -7.4391245    830.77271  0.021513692  0.022015404         3954 
 3219000   0.73571507   -7.4447874    831.05037  0.021514196  0.022007442         3949 
 3220000   0.71443013   -7.4208639    830.26854  0.021487281  0.021999481         3938 
 3221000   0.74162501   -7.4032808    830.80963  0.021494609  0.021991532         3938 
 3222000   0.74346945   -7.4487315    830.80938  0.021487932  0.021983576         3943 
 3223000   0.76008129    -7.414038    831.28341  0.021493521  0.021975624         3951 
 3224000   0.72319963   -7.4265523    831.45106  0.021491187  0.021967681         3945 
 3225000   0.73568919   -7.4322323    833.28162  0.021531825  0.021959738         3953 
 3226000   0.74555691   -7.4408295    830.86988  0.021462851  0.021951778         3953 
 3227000   0.73184199   -7.4419911    830.09722  0.021436247  0.021943828         3958 
 3228000   0.74253321   -7.4397115    831.07226  0.021454777  0.021935878         3934 
 3229000    0.7317586   -7.4177657    832.23033   0.02147802  0.021927937         3954 
 3230000   0.72430642   -7.4593871    829.89362  0.021411084  0.021919986         3959 
 3231000   0.71410425   -7.4457972    830.47144   0.02141936  0.021912034         3965 
 3232000   0.74446672    -7.445842    830.82616  0.021421879  0.021904101         3952 
 3233000   0.73796016   -7.4450338    830.79003  0.021414322  0.021896167         3964 
 3234000   0.74344325     -7.44611    830.65845   0.02140431  0.021888233         3951 
 3235000   0.73366667   -7.4245211     830.5983  0.021396144  0.021880305         3949 
 3236000   0.75185868   -7.4261165    830.21968  0.021379782  0.021872359         3956 
 3237000   0.73379533   -7.4208322    830.33831  0.021376231  0.021864423         3959 
 3238000   0.72717463   -7.4356606    830.74407  0.021380072  0.021856496         3962 
 3239000   0.73514738   -7.4528627    830.17985  0.021358955  0.021848558         3956 
 3240000   0.74050365   -7.4539968    831.29423  0.021381024  0.021840629         3960 
 3241000   0.71798943   -7.4375443    829.96205  0.021340174  0.021832692         3943 
 3242000   0.73297744   -7.4444329    830.49053  0.021347176  0.021824762         3950 
 3243000   0.74374362   -7.4416476    829.21455  0.021307805  0.021816839         3937 
 3244000   0.75217878   -7.4285588     828.8622  0.021292186  0.021808914         3946 
 3245000   0.74760118   -7.4357362    831.78123  0.021360586  0.021800988         3969 
 3246000   0.75527661   -7.4443036     831.9528   0.02135841  0.021793065         3965 
 3247000   0.73061797   -7.4496165    830.34437  0.021310553  0.021785148         3967 
 3248000   0.71841549   -7.4285572    829.64444  0.021286033  0.021777234         3953 
 3249000   0.73628436   -7.4390851    831.98805  0.021339593  0.021769324         3962 
 3250000   0.74430374   -7.4417296    830.54901  0.021296128  0.021761412         3955 
 3251000   0.73315376   -7.4424695    831.03029  0.021301915  0.021753501         3961 
 3252000   0.72443557   -7.4495031    829.76653   0.02126298  0.021745583         3947 
 3253000   0.73565482   -7.4627062    830.89177  0.021285269  0.021737675         3952 
 3254000   0.70883584   -7.4347638    831.33317  0.021290032  0.021729768         3957 
 3255000   0.73482231   -7.4457758    830.81443  0.021270211  0.021721862         3939 
 3256000   0.74527683   -7.4414373    831.96874  0.021293221  0.021713966         3957 
 3257000   0.73106675   -7.4273807    830.21612  0.021241841   0.02170606         3960 
 3258000    0.7258827   -7.4421571    829.29057  0.021211648  0.021698159         3977 
 3259000   0.73200998   -7.4296803    830.23072  0.021229179  0.021690241         3967 
 3260000   0.70818518   -7.4347498    829.20804  0.021196525  0.021682325         3969 
 3261000   0.72418804   -7.4568908    831.38063  0.021245544  0.021674424         3959 
 3262000   0.71816025   -7.4508571    830.36001  0.021212958  0.021666516         3969 
 3263000   0.72347615   -7.4388262    830.74924  0.021216397  0.021658612         3962 
 3264000    0.7415427   -7.4218832    829.56726   0.02117972  0.021650708         3971 
 3265000   0.73525397   -7.4646092    829.72847  0.021177347   0.02164282         3972 
 3266000   0.72361511   -7.4469293    829.32325  0.021160524  0.021634908         3957 
 3267000   0.72702408   -7.4549311    828.67395  0.021137485  0.021627006         3969 
 3268000   0.72887809   -7.4360162    829.36976   0.02114876  0.021619104         3970 
 3269000   0.72205879    -7.463129    830.21711  0.021163891  0.021611204         3975 
 3270000    0.7456176    -7.448394    829.52014  0.021139657  0.021603302         3979 
 3271000   0.71903352   -7.4479437      828.932  0.021118211  0.021595385         3971 
 3272000   0.72322448   -7.4637535    830.33898   0.02114759  0.021587478         3986 
 3273000   0.73375858   -7.4439988    827.97201  0.021080864  0.021579577         3978 
 3274000   0.72935275   -7.4427074    828.26258  0.021081821   0.02157167         3985 
 3275000    0.7100605      -7.4468    829.08821  0.021096392  0.021563748         3980 
 3276000   0.73065636   -7.4613785     829.9374  0.021111554  0.021555839         3984 
 3277000   0.72677929   -7.4681866    829.79251  0.021101427   0.02154792         3987 
 3278000   0.72792374   -7.4726883    829.39462  0.021084874   0.02154002         3991 
 3279000   0.73758317   -7.4743392    828.09714   0.02104547  0.021532104         3990 
 3280000    0.7172855   -7.4743507    829.49008  0.021074443   0.02152419         3985 
 3281000   0.73559693   -7.4631833    829.25843  0.021062136  0.021516279         3990 
 3282000   0.73320951   -7.4680018    828.77765  0.021043511  0.021508362         3992 
 3283000   0.73140525   -7.4824609    827.91563  0.021015221  0.021500452         3997 
 3284000   0.71544491   -7.4772764    828.52456  0.021024273  0.021492542         3996 
 3285000   0.70328993   -7.4818108    828.36335  0.021013784   0.02148463         3991 
 3286000   0.73449865   -7.4666836    827.86254  0.020994688  0.021476729         3995 
 3287000   0.72223203   -7.4648965    827.73488  0.020985064  0.021468825         3991 
 3288000   0.72405615    -7.482952    828.92659  0.021008885  0.021460927         3990 
 3289000   0.72766971   -7.4500729     830.0681   0.02103142   0.02145303         3988 
 3290000   0.73860919   -7.4524516    830.07663  0.021025244  0.021445134         3991 
 3291000    0.7290652   -7.5002618    827.95459  0.020965122  0.021437233         3990 
 3292000   0.73864349   -7.4785108     828.7372  0.020978564  0.021429332         3989 
 3293000   0.71555839   -7.4631561    828.30231  0.020961188  0.021421427         3996 
 3294000   0.72485197   -7.4769506    829.48635  0.020984779  0.021413536         3993 
 3295000    0.7211932   -7.4750335    829.73823  0.020984781  0.021405645         3991 
 3296000     0.717691   -7.4538562     829.6392   0.02097591  0.021397762         3989 
 3297000   0.71440674   -7.4812266    829.77724  0.020973037  0.021389862         3991 
 3298000   0.72597338   -7.4690724    829.88386  0.020969372  0.021381974         3990 
 3299000   0.73660887   -7.4717297    830.34404   0.02097464  0.021374085         3982 
 3300000   0.72398984   -7.4926879    828.92346  0.020932411   0.02136621         3991 
 3301000   0.72409151   -7.4763817    828.74684  0.020921611  0.021358336         3985 
 3302000   0.74193792   -7.4849074    829.66741  0.020938507  0.021350464         3995 
 3303000   0.71968643   -7.4832481    828.62037  0.020905752  0.021342599         3989 
 3304000   0.71739603   -7.4677686    828.54866  0.020897615  0.021334729         3985 
 3305000   0.71084104   -7.4593806    828.52412  0.020890674  0.021326865         3991 
 3306000   0.72194057   -7.4764023    828.88742  0.020893512  0.021319008         3987 
 3307000   0.73026486   -7.4815393    830.30281  0.020922861  0.021311138         3991 
 3308000    0.7277012   -7.4793007    829.08527  0.020885864  0.021303266         3990 
 3309000   0.72211651   -7.4771042    828.54226  0.020865877  0.021295401         3989 
 3310000   0.72041676   -7.4792224    828.89132  0.020868361  0.021287521         3996 
 3311000   0.71257743   -7.4739887    829.27847  0.020871803  0.021279656         3990 
 3312000   0.71653746   -7.4749107    828.50238  0.020845974  0.021271789         3994 
 3313000   0.72647692    -7.495663    828.34952  0.020835837  0.021263927         3994 
 3314000   0.71585537   -7.4775533    829.07401  0.020847767  0.021256062         3992 
 3315000   0.72072693   -7.4901058    828.49937  0.020827033  0.021248212         3992 
 3316000   0.72576471   -7.4849067    828.73172  0.020826591  0.021240356         3994 
 3317000   0.73211417   -7.4796131    827.76382  0.020795996  0.021232501         3998 
 3318000    0.7245426   -7.4794959    827.48002  0.020782601  0.021224647         3994 
 3319000   0.74182089   -7.5013461    828.87842   0.02081145  0.021216801         3990 
 3320000   0.71421428   -7.4628806    827.93158  0.020781415  0.021208957         3990 
 3321000    0.7325155   -7.4768482    828.74941  0.020795679  0.021201114         3992 
 3322000   0.71888559   -7.4804487     828.1119  0.020773427  0.021193277         3995 
 3323000   0.71306878   -7.4832876    828.45089  0.020775677  0.021185431         3994 
 3324000   0.73394079   -7.4744127    827.39206  0.020742882  0.021177596         3993 
 3325000   0.71018957   -7.4956256    827.79022  0.020746622  0.021169762         3996 
 3326000   0.72581665    -7.483577    830.19032  0.020800519  0.021161926         3994 
 3327000    0.7052382    -7.496361    829.31961  0.020772458  0.021154095         3994 
 3328000    0.7193233   -7.4743349    829.23559  0.020764112  0.021146259         3989 
 3329000   0.72633212   -7.5007574    827.21865  0.020707386  0.021138432         3991 
 3330000   0.70855817   -7.4661688    827.23309  0.020701529    0.0211306         3989 
 3331000   0.71992054   -7.4823776    827.68453  0.020706608  0.021122777         3990 
 3332000   0.70859223   -7.5040318    827.36377  0.020692371  0.021114952         3991 
 3333000   0.72296974   -7.5086836    828.81749  0.020722509  0.021107138         3992 
 3334000   0.72258469   -7.4942423    827.27953  0.020677853  0.021099306         3990 
 3335000   0.71069894    -7.480559     828.4902  0.020701904  0.021091492         3989 
 3336000     0.724205   -7.4881024    830.34597  0.020742056  0.021083678         3985 
 3337000   0.70394461   -7.4982279    827.88852  0.020674471  0.021075874         3993 
 3338000   0.71266599   -7.5040485    827.67269  0.020662889  0.021068062         3991 
 3339000   0.72449131   -7.4874503    829.77322  0.020709125  0.021060261         3995 
 3340000   0.71845511   -7.4847359    828.19908   0.02066365  0.021052448         3992 
 3341000   0.72278304   -7.5050551    829.08063  0.020679453  0.021044644         3996 
 3342000     0.721161   -7.4781677    828.50503  0.020658913  0.021036839         3994 
 3343000   0.71642383    -7.498854    826.80461  0.020610345  0.021029035         3995 
 3344000   0.71313433   -7.5141945    826.16444  0.020588229  0.021021231         3997 
 3345000   0.72050915   -7.4731974    829.38114  0.020662211  0.021013433         3992 
 3346000   0.71245813   -7.4843768    828.63659  0.020637492  0.021005639         3997 
 3347000   0.71072833   -7.4833595    828.05644  0.020616882  0.020997837         3995 
 3348000   0.71965346   -7.4850288    827.71586  0.020602247  0.020990049         3989 
 3349000   0.70860939   -7.4951968     828.7415  0.020621616  0.020982265         3987 
 3350000   0.71933448   -7.4934234    827.93291  0.020595346  0.020974475         3994 
 3351000   0.70155207   -7.5034164    827.49527  0.020578317  0.020966693         3997 
 3352000   0.72240576    -7.485137    829.35083  0.020618308  0.020958917         3996 
 3353000   0.71690586   -7.4709357    828.47563  0.020590407  0.020951139         3993 
 3354000   0.72775555   -7.4715395    828.96028   0.02059631  0.020943364         3990 
 3355000   0.72461946   -7.4735428    828.59318  0.020581053  0.020935601         3991 
 3356000   0.70650079   -7.4980529    828.15594  0.020564063  0.020927831         3994 
 3357000   0.72412069   -7.5106511     828.1463  0.020557698  0.020920062         3993 
 3358000    0.7129022   -7.4969045    828.66988  0.020564569  0.020912296         3985 
 3359000   0.70735441   -7.4959201    827.54295  0.020530489  0.020904525         3993 
 3360000    0.7176466   -7.4891032    827.90582  0.020533378  0.020896765         3994 
 3361000   0.73103823   -7.4939962    828.10237  0.020532142  0.020889004         3994 
 3362000   0.72159423   -7.4641058    826.83138  0.020494532  0.020881245         3995 
 3363000   0.71908479   -7.4840027    827.13849  0.020496047  0.020873491         3995 
 3364000   0.70366587   -7.4986551    827.55777  0.020500341  0.020865743         3991 
 3365000   0.71451723   -7.5188874    827.40449  0.020490453  0.020857991         3996 
 3366000    0.7070796   -7.4535495    827.78432  0.020493769  0.020850247         3994 
 3367000     0.700805   -7.5054273    829.44883  0.020528879  0.020842499         3994 
 3368000   0.70131349   -7.5114213    829.81492  0.020531842  0.020834756         3990 
 3369000   0.71192408   -7.4953612    827.59021  0.020470719  0.020827014         3997 
 3370000   0.70685049   -7.5113063    828.90483  0.020497152  0.020819273         3996 
 3371000   0.71108775   -7.5110956    827.68057  0.020460807   0.02081153         3993 
 3372000   0.69781878   -7.4764551    829.57108   0.02050146    0.0208038         3996 
 3373000   0.69342465    -7.501857    827.96785  0.020455772  0.020796065         3993 
 3374000   0.70770673   -7.4924972    828.93145  0.020473509  0.020788329         3991 
 3375000   0.71287372   -7.5125665    828.64511  0.020460373    0.0207806         3988 
 3376000   0.70954655   -7.4775212    828.40976  0.020448503  0.020772877         3994 
 3377000   0.72923013   -7.5005538    827.16601  0.020411756  0.020765152         3996 
 3378000   0.68991968   -7.4880625    828.62704  0.020441756  0.020757429         3996 
 3379000   0.71232353   -7.4986157    826.05802  0.020372349  0.020749701         3992 
 3380000    0.7177654   -7.5145295    827.75096  0.020408061  0.020741981         3995 
 3381000   0.72469304    -7.526846    828.11189  0.020410921  0.020734269         3995 
 3382000   0.73701046   -7.4865077    827.37592  0.020386752  0.020726552         3993 
 3383000   0.70303067   -7.5094965    828.04193  0.020397131  0.020718844         3997 
 3384000   0.71450768   -7.4921592    828.51315  0.020402708  0.020711139         3994 
 3385000   0.70072086   -7.4834851    827.87818  0.020381048  0.020703434         3998 
 3386000   0.70200412   -7.5017068    828.12874  0.020381196  0.020695731         3991 
 3387000   0.71171913   -7.4823083    828.73373  0.020390063  0.020688029         3992 
 3388000   0.70650851    -7.506832    827.87969  0.020363038  0.020680324         3984 
 3389000   0.71359671   -7.5081038    828.64397  0.020375823  0.020672617         3993 
 3390000   0.70796483   -7.4958496     828.1571  0.020357844  0.020664918         3991 
 3391000   0.70306428   -7.5034638    827.60566  0.020338289  0.020657218         3992 
 3392000   0.70322056    -7.503866    829.35541   0.02037528  0.020649529         3990 
 3393000   0.68897897   -7.5240904    828.36962  0.020345064  0.020641834         3995 
 3394000     0.708741   -7.5386759    827.56671  0.020319356  0.020634139         3996 
 3395000   0.71384264    -7.511421    826.92626   0.02029765  0.020626454         3998 
 3396000    0.7157555   -7.4866732     828.1848  0.020322556  0.020618766         4000 
 3397000   0.71507673   -7.5036019    829.51621  0.020349235  0.020611079         3996 
 3398000   0.71568398   -7.5092134    827.37518  0.020290739  0.020603403         3997 
 3399000   0.71466851   -7.4897875    827.59802  0.020290233   0.02059573         3993 
 3400000   0.71788687    -7.497672    827.46467  0.020280997  0.020588051         3992 
 3401000   0.71854417    -7.499128     826.8776  0.020260649  0.020580381         3985 
 3402000   0.70252488    -7.500365    828.63739    0.0202978  0.020572705         3993 
 3403000   0.70893593   -7.4904864    827.48896  0.020263712  0.020565038         3996 
 3404000   0.70304533   -7.4932928    828.11843   0.02027317  0.020557367         3992 
 3405000   0.70438768   -7.4963125    828.32759  0.020272335  0.020549695         3986 
 3406000   0.70346134   -7.5041192    827.38927  0.020243425  0.020542041         3990 
 3407000   0.69924707   -7.5068129    828.05446  0.020253754  0.020534391         3996 
 3408000    0.7037401    -7.502137    828.16818  0.020250591  0.020526744         3993 
 3409000   0.68814393    -7.519716    827.27159  0.020222734  0.020519086         3998 
 3410000   0.70229229   -7.5030382    827.73689  0.020228174  0.020511433         3996 
 3411000   0.70709569   -7.5082213    826.54295  0.020193075  0.020503783         3992 
 3412000   0.72301918   -7.5026427    828.01098  0.020223011  0.020496137         3989 
 3413000   0.69423293   -7.5239169    829.10634  0.020243831  0.020488497         3986 
 3414000   0.71162454   -7.4931641    827.82965  0.020206738  0.020480855         3983 
 3415000   0.69846295   -7.5029819    828.98329  0.020228972  0.020473216         3989 
 3416000   0.72193866   -7.4963397    826.34856  0.020158776  0.020465576         3992 
 3417000   0.69486986   -7.5290991    827.72472  0.020186438  0.020457948         3990 
 3418000   0.70929356   -7.5137608     827.1596  0.020166754  0.020450326         3995 
 3419000   0.68903366    -7.502474    824.86296  0.020104879  0.020442699         3995 
 3420000   0.69804517   -7.5103294    826.16667  0.020130767  0.020435063         3996 
 3421000   0.71449236   -7.4682218     828.7623   0.02018811  0.020427436         3997 
 3422000   0.71211357   -7.5115055    826.69552   0.02013188  0.020419815         3990 
 3423000   0.69829735   -7.5357375    827.60253   0.02014808   0.02041219         3991 
 3424000   0.68747877   -7.5170311    826.07502  0.020105019  0.020404563         3988 
 3425000   0.71396215    -7.506938    829.04351  0.020171375   0.02039695         3973 
 3426000   0.71305534   -7.5063043    825.86796  0.020088246  0.020389339         3993 
 3427000   0.68930228   -7.5103275    825.75717   0.02007969   0.02038172         3984 
 3428000    0.6935828   -7.4971519     826.1242  0.020082755  0.020374098         3992 
 3429000   0.70438495   -7.5111672    827.05659  0.020099558  0.020366488         3980 
 3430000   0.71976294   -7.5240408    827.76033  0.020110795  0.020358887         3983 
 3431000   0.69335968   -7.5286014    825.78015  0.020056839  0.020351284         3986 
 3432000   0.71043197   -7.5088189    826.21458  0.020061543  0.020343682         3984 
 3433000   0.70847386   -7.5285332    824.49826  0.020014037  0.020336081         3985 
 3434000   0.72149058   -7.5156219    826.73298  0.020062439  0.020328477         3986 
 3435000   0.69997192   -7.4887983    825.82703   0.02003462  0.020320878         3983 
 3436000   0.70317939   -7.5061609    827.54092  0.020070356  0.020313276         3986 
 3437000   0.70467929   -7.5092098    827.09375  0.020053675   0.02030568         3989 
 3438000   0.68856382   -7.5290142    828.25724  0.020076043  0.020298087         3991 
 3439000   0.72079874   -7.5035148     826.2415   0.02002136  0.020290492         3987 
 3440000   0.69911139    -7.517218     826.5094   0.02002203  0.020282902         3991 
 3441000   0.69568101   -7.5181987    827.52388   0.02004078  0.020275311         3997 
 3442000   0.68683075     -7.51739    825.97947  0.019997566  0.020267723         3989 
 3443000   0.69832503   -7.5109762    825.37277  0.019977074  0.020260139         3993 
 3444000   0.70257711   -7.5185609    825.66522  0.019978349  0.020252555         3990 
 3445000   0.68597401   -7.5096635    825.38085  0.019965671  0.020244973         3985 
 3446000   0.70884527   -7.4950992    825.42125  0.019960854  0.020237399         3985 
 3447000    0.7103269   -7.5373543    828.20385  0.020022335  0.020229831         3989 
 3448000   0.70735582   -7.5072049    826.01915  0.019963727   0.02022226         3990 
 3449000   0.71119669   -7.5226476    826.45456  0.019968459  0.020214695         3990 
 3450000   0.71695305   -7.5210524    826.53205  0.019964542  0.020207131         3992 
 3451000   0.70678079   -7.5256837    825.40652  0.019931578  0.020199572         3986 
 3452000   0.68413367   -7.5305772     827.0913  0.019966476  0.020192012         3997 
 3453000   0.69263769   -7.5406261    826.80727  0.019953839  0.020184456         3987 
 3454000   0.69514884   -7.5535015    827.45669   0.01996373  0.020176899         3995 
 3455000   0.70398016   -7.5048114    825.48606  0.019910421  0.020169346         3993 
 3456000   0.69522901   -7.5146472    826.49245  0.019928927  0.020161792         3988 
 3457000   0.70185983   -7.5479296    826.62192  0.019926283  0.020154249         3991 
 3458000   0.70512872   -7.5228373    825.56361  0.019895017  0.020146702         3988 
 3459000   0.69762287   -7.5103662    826.96619  0.019923055   0.02013916         3990 
 3460000   0.69120917   -7.5537999    827.42968  0.019928461  0.020131626         3990 
 3461000   0.68623433   -7.5180052    826.18421  0.019892714  0.020124086         3983 
 3462000    0.6942592   -7.5142596    827.15507  0.019910338  0.020116549         3992 
 3463000   0.70039652   -7.5386773    826.21469  0.019881959  0.020109018         3987 
 3464000   0.70173647   -7.5160071     825.2982  0.019854171   0.02010149         3994 
 3465000   0.70062914    -7.515799    827.75978  0.019907643  0.020093973         3992 
 3466000   0.70212235   -7.5126498    826.93282  0.019882016  0.020086448         3990 
 3467000   0.68721426   -7.5257793     827.8996  0.019899519  0.020078923         3974 
 3468000   0.70188973   -7.5280228    826.01248  0.019848435   0.02007141         3985 
 3469000   0.69283586   -7.5250902    826.26994  0.019848898  0.020063901         3988 
 3470000   0.70558789   -7.5254954    825.69127  0.019829281  0.020056384         3987 
 3471000   0.70705235   -7.5461739    827.34792  0.019863342  0.020048878         3988 
 3472000   0.67774096    -7.513243    826.34833  0.019833629  0.020041372         3986 
 3473000   0.68539392    -7.518417    826.09465  0.019821831  0.020033868         3992 
 3474000    0.7052019   -7.5236252    826.40465  0.019823562  0.020026374         3980 
 3475000   0.70190637   -7.5322607    826.10812  0.019810746  0.020018868         3995 
 3476000   0.67827726   -7.5190317    826.62137  0.019817352  0.020011375         3987 
 3477000   0.69096684   -7.5475546    827.14631  0.019824233  0.020003885         3994 
 3478000    0.6981708   -7.5103337     827.1108  0.019817683  0.019996396         3994 
 3479000   0.68787733   -7.5420642    827.10509  0.019811849  0.019988912         3998 
 3480000   0.69036722   -7.5048496    826.36872  0.019788523  0.019981421         3996 
 3481000   0.68234159   -7.5192687    826.11911  0.019776863  0.019973929         3989 
 3482000   0.69949584   -7.5273632    825.98925  0.019768075  0.019966453         3991 
 3483000   0.70062194   -7.5474068    826.12077  0.019765546   0.01995897         3986 
 3484000   0.68195034    -7.518477    825.61877  0.019747866  0.019951498         3987 
 3485000   0.68229542   -7.5200353    826.15081  0.019754921  0.019944033         3982 
 3486000   0.69372037   -7.5274284    825.86378  0.019742393  0.019936566         3993 
 3487000   0.69604122   -7.5434375    825.84083  0.019736183  0.019929095         3991 
 3488000    0.6852248    -7.521957    826.30612  0.019741641  0.019921633         3989 
 3489000   0.68939178   -7.5345333    826.80911  0.019747996  0.019914172         3986 
 3490000   0.68396107   -7.5330894    825.66212   0.01971495  0.019906711         3984 
 3491000    0.6957167   -7.5006206    825.59941  0.019707806  0.019899254         3985 
 3492000   0.70530179   -7.5160315    826.64483   0.01972711  0.019891802         3989 
 3493000    0.6862969   -7.5584234    826.57309  0.019719751  0.019884353         3993 
 3494000   0.69702368   -7.5156532    826.93992  0.019722856  0.019876916         3988 
 3495000   0.69299606   -7.5272487    826.14817  0.019698335  0.019869469         3986 
 3496000   0.68740163   -7.5292401    826.48885  0.019700821  0.019862019         3991 
 3497000   0.69707966    -7.531288    826.66247  0.019699325  0.019854564         3991 
 3498000   0.69835286   -7.5174924    826.01078  0.019678168  0.019847117         3989 
 3499000   0.70505599   -7.5242815     825.5535  0.019661653  0.019839676         3985 
 3500000   0.67649013   -7.5181481    826.01674  0.019667065  0.019832237         3993 
 3501000   0.70687101   -7.5423955    825.41115  0.019647033  0.019824798         3989 
 3502000   0.68935386    -7.549891    825.20479  0.019636512  0.019817366         3991 
 3503000   0.69865188   -7.5621783    824.81937  0.019621738  0.019809934         3987 
 3504000   0.68009253   -7.5522619    827.41145  0.019677784    0.0198025         3995 
 3505000   0.69445892   -7.5545563    825.18989  0.019619351  0.019795075         3994 
 3506000    0.6984613   -7.5534451    824.98771  0.019608949  0.019787653         3992 
 3507000   0.69092724   -7.5500428    825.19268  0.019608228  0.019780233         3990 
 3508000   0.70110363   -7.5379617    826.25554  0.019627887   0.01977282         3994 
 3509000   0.69248299   -7.5607811    826.40457  0.019625833   0.01976541         3991 
 3510000   0.67838084   -7.5479994    824.92429  0.019585097     0.019758         3992 
 3511000    0.6947999   -7.5468603     826.5468  0.019618029  0.019750585         3994 
 3512000   0.68477577   -7.5200767    826.30413  0.019606685  0.019743163         3989 
 3513000   0.70386474   -7.5336074    827.95004  0.019640147   0.01973576         3994 
 3514000   0.69986166   -7.5466329    825.40305  0.019574157   0.01972835         3995 
 3515000   0.69143816   -7.5286662    824.80038    0.0195543  0.019720952         3991 
 3516000   0.70092014   -7.5492535    824.50523  0.019541743  0.019713552         3995 
 3517000   0.69794074   -7.5287333    825.10329  0.019550358  0.019706162         3989 
 3518000   0.70136302   -7.5346195    825.49017  0.019553965  0.019698769         3990 
 3519000   0.68940087    -7.534307     825.8222  0.019556271   0.01969138         3991 
 3520000   0.69256091   -7.5406793    827.69584  0.019595072  0.019683997         3990 
 3521000   0.69470611   -7.5287921    824.75762  0.019519966  0.019676614         3991 
 3522000   0.69068875   -7.5484981    825.82245  0.019539619  0.019669225         3990 
 3523000   0.69390467   -7.5350192    824.76734  0.019509115  0.019661856         3988 
 3524000   0.70182966   -7.5474732     824.5112  0.019497522  0.019654479         3991 
 3525000   0.69413679    -7.537475    826.27235  0.019533625  0.019647109         3997 
 3526000   0.69499219    -7.541594    827.41949  0.019555197  0.019639734         3983 
 3527000   0.67567549    -7.543076    825.93141  0.019514493  0.019632369         3996 
 3528000   0.67701528   -7.5383242    824.59072  0.019477294  0.019625001         3987 
 3529000   0.68215669   -7.5254481    824.53279  0.019470407  0.019617636         3993 
 3530000   0.68346279   -7.5306928    825.45134  0.019486576  0.019610268         3991 
 3531000   0.68123812   -7.5267289    824.77126  0.019465007  0.019602913         3993 
 3532000   0.68617886   -7.5545405    825.11305   0.01946756  0.019595559         3987 
 3533000     0.699964    -7.522783     826.6394  0.019498052  0.019588211         3994 
 3534000   0.68201988   -7.5305195    826.36507  0.019486066  0.019580858         3994 
 3535000    0.6890152   -7.5537068    825.54614  0.019461248  0.019573515         3995 
 3536000   0.68558969   -7.5465563    826.83169  0.019486041  0.019566167         3994 
 3537000   0.68655738   -7.5264289     826.0532   0.01946219  0.019558819         3992 
 3538000   0.69210664   -7.5281219    825.27471  0.019438353  0.019551481         3991 
 3539000   0.67674848   -7.5404644    824.83153  0.019422425   0.01954415         3991 
 3540000    0.6929588   -7.5450006    825.84279  0.019440744  0.019536812         3990 
 3541000   0.69027156   -7.5489892    826.88826  0.019459857  0.019529474         3995 
 3542000   0.68786078    -7.539113     824.7534  0.019404136  0.019522141         3993 
 3543000   0.68121218   -7.5685311    825.91666   0.01942602  0.019514811         3990 
 3544000   0.68538291   -7.5367337    825.42607  0.019409003   0.01950748         3992 
 3545000   0.68891095   -7.5230709    826.22728  0.019422362  0.019500145         3991 
 3546000   0.68741997    -7.554412    824.82424  0.019383912  0.019492816         3992 
 3547000   0.68758852   -7.5323447    824.58644  0.019372861  0.019485494         3994 
 3548000   0.67932943   -7.5378662    826.28389  0.019407269  0.019478173         3996 
 3549000   0.68797634   -7.5440933    825.08571  0.019373667  0.019470857         3994 
 3550000   0.68213407   -7.5486716    826.59543  0.019403649  0.019463541         3993 
 3551000   0.68676258   -7.5558531    825.67456  0.019376574  0.019456232         3994 
 3552000   0.69015147    -7.556664    824.14669  0.019335273  0.019448924         3998 
 3553000   0.68269097   -7.5637065    822.92621  0.019301206  0.019441618         3996 
 3554000   0.66943249   -7.5350328    825.55748  0.019357472   0.01943431         3991 
 3555000   0.68593847   -7.5429203    824.98482  0.019338603  0.019427008         3996 
 3556000   0.67662363    -7.551208    825.48548  0.019344898  0.019419708         3997 
 3557000   0.68303652   -7.5225587    825.49639  0.019339715  0.019412419         3994 
 3558000   0.69515748   -7.5521873    824.34424  0.019307294  0.019405128         3995 
 3559000   0.68581275   -7.5397858    826.55227   0.01935357  0.019397843         3998 
 3560000   0.66408585   -7.5459352    825.21077  0.019316731  0.019390561         3996 
 3561000   0.69501103   -7.5313563    825.65179  0.019321628  0.019383281         3999 
 3562000   0.68493689   -7.5391368    825.53626    0.0193135  0.019376004         3998 
 3563000   0.68347284   -7.5498499    826.63184  0.019333704  0.019368724         3999 
 3564000   0.68105976   -7.5612773    826.19961  0.019318173  0.019361439         3993 
 3565000   0.69309048   -7.5821345    825.52956  0.019297091  0.019354165         3993 
 3566000    0.6825979   -7.5157223    824.77707  0.019274095  0.019346893         3993 
 3567000    0.6751629   -7.5631367    825.85145  0.019293791  0.019339631         3996 
 3568000   0.68944539   -7.5457236    824.67871  0.019260994  0.019332364         3996 
 3569000   0.69061657   -7.5759414     824.4948  0.019251303  0.019325094         3996 
 3570000    0.6684922   -7.5614303    825.77095  0.019275699   0.01931784         3995 
 3571000    0.6726572    -7.564271    826.66815  0.019291239  0.019310584         3997 
 3572000   0.68430669   -7.5656217    825.63142  0.019261651  0.019303326         3996 
 3573000   0.68191863   -7.5765259    824.01059  0.019218458  0.019296067         3993 
 3574000   0.67548227   -7.5479184    823.48382  0.019200798  0.019288811         3996 
 3575000   0.66957979    -7.545669    824.92738  0.019229076  0.019281557         3996 
 3576000   0.67950192   -7.5518357    825.30545   0.01923251  0.019274306         3994 
 3577000   0.69865363   -7.5660292    825.04799  0.019221135  0.019267063         3997 
 3578000   0.68771494   -7.5634632    826.33783  0.019245804  0.019259829         3997 
 3579000   0.68508237   -7.5469778    825.23172  0.019214672  0.019252592         3996 
 3580000   0.66136841   -7.5505345    825.70863  0.019220406  0.019245357         3995 
 3581000   0.67178252   -7.5416037    824.74226   0.01919255  0.019238124         3996 
 3582000   0.67629069   -7.5325871    823.88999  0.019167364  0.019230888         3996 
 3583000   0.68301506   -7.5500328    826.13651  0.019214264  0.019223657         3996 
 3584000   0.68217776    -7.565349    825.49202  0.019193918  0.019216425         3994 
 3585000   0.66854236   -7.5594547    823.49425  0.019142126  0.019209199         3998 
 3586000    0.6924733   -7.5509302    824.35043  0.019156684  0.019201971         3996 
 3587000   0.68638256   -7.5509486    825.69262  0.019182525  0.019194754         3998 
 3588000   0.67040223   -7.5607866    825.09033  0.019163191  0.019187542         3997 
 3589000    0.6837609   -7.5567427     824.7847  0.019150755  0.019180336         3994 
 3590000   0.68078119   -7.5489569    825.97122  0.019172962  0.019173125         3996 
 3591000   0.67527944   -7.5556628    825.55373  0.019157935  0.019165914         3994 
 3592000   0.67084108    -7.559827    823.56079  0.019106366  0.019158712         3999 
 3593000    0.6729936   -7.5499407    824.31771  0.019118604   0.01915151         3997 
 3594000   0.67522586   -7.5682412    823.79205  0.019101096  0.019144308         3998 
 3595000   0.67586084   -7.5620172    825.92464  0.019145216   0.01913711         3991 
 3596000   0.67282657   -7.5615667    825.55687   0.01913137  0.019129921         3996 
 3597000   0.66558518   -7.5719237    824.65229  0.019105094  0.019122724         3998 
 3598000   0.67939564   -7.5488169    825.20601  0.019112609  0.019115538         3995 
 3599000   0.67055317    -7.548626    824.97686  0.019101993  0.019108355         3999 
 3600000   0.66794941   -7.5503529    824.87291   0.01909428  0.019101173         3997 
 3601000   0.67883357   -7.5449227    824.84912  0.019088427  0.019093987         3997 
 3602000   0.67843417   -7.5608004    824.57895  0.019076877  0.019086815         3999 
 3603000   0.69580893   -7.5751773    825.56487  0.019094386  0.019079645         3999 
 3604000   0.68016998    -7.561233    824.04342  0.019053908  0.019072479         3997 
 3605000    0.6809647   -7.5533979    824.59421  0.019061355  0.019065313         3995 
 3606000   0.68871876   -7.5357521    826.07009  0.019090176   0.01905815         3998 
 3607000   0.66080991   -7.5729096    825.76127  0.019077749  0.019050991         3999 
 3608000   0.67039845   -7.5611918    825.52371  0.019066974  0.019043837         3997 
 3609000   0.67199677   -7.5685814     823.6878  0.019019299  0.019036672         3998 
 3610000   0.66296988   -7.5604183    823.66909  0.019013599  0.019029515         3996 
 3611000   0.67298927    -7.565111    823.96334  0.019015124  0.019022354         4000 
 3612000   0.66493867   -7.5663853    824.12145  0.019013507    0.0190152         3997 
 3613000   0.66961292   -7.5868423    823.64183  0.018997182  0.019008048         4000 
 3614000   0.67243443   -7.5647282    823.74964  0.018994411    0.0190009         4000 
 3615000   0.67287977   -7.5507522    824.91928   0.01901612  0.018993752         3995 
 3616000   0.66240538   -7.5611834    824.65142  0.019004688  0.018986608         3999 
 3617000   0.68215748   -7.5541985    825.75869  0.019024944  0.018979473         4000 
 3618000     0.669986   -7.5714808    824.89186   0.01899972  0.018972345         3999 
 3619000   0.67214939   -7.5646756     824.9476  0.018995754  0.018965202         3995 
 3620000   0.65644059   -7.5518367    823.98338   0.01896831  0.018958071         3999 
 3621000    0.6917818   -7.5552968    823.66155  0.018955665   0.01895094         3997 
 3622000   0.66763723   -7.5560646    825.48215  0.018992319  0.018943815         3999 
 3623000   0.67184973    -7.581138     824.8172  0.018971782  0.018936691         3999 
 3624000   0.66450221   -7.5760764    823.31147  0.018931923  0.018929567         3997 
 3625000   0.67741388   -7.5769631    825.09276   0.01896765   0.01892245         4000 
 3626000   0.67622002   -7.5843346     824.0661  0.018938824  0.018915339         3999 
 3627000   0.67914097   -7.5683441    824.07239  0.018933747  0.018908227         3998 
 3628000   0.67442271   -7.5879925    824.71808  0.018943359   0.01890112         3999 
 3629000    0.6725699   -7.5845228    824.36442  0.018930018  0.018894022         4000 
 3630000   0.66171716   -7.5755539    823.89826  0.018914101  0.018886913         3997 
 3631000   0.67752738   -7.5887679    824.26653  0.018917344  0.018879816         3999 
 3632000   0.67351879   -7.5895795    825.18611  0.018933235  0.018872715         3998 
 3633000   0.67591364   -7.5745736    824.72742  0.018917502  0.018865615         3999 
 3634000   0.66735474   -7.5704894     824.2365  0.018901039   0.01885852         3998 
 3635000   0.67129536   -7.5725944    824.78996  0.018908527  0.018851434         3998 
 3636000   0.68340432   -7.5812551    825.28419  0.018914654   0.01884434         3999 
 3637000   0.66290598   -7.5595841    824.80234  0.018898413   0.01883725         3999 
 3638000   0.67286657    -7.566202     826.3294  0.018928198  0.018830161         4000 
 3639000   0.65939364   -7.5717166     823.7658   0.01886429  0.018823078         3997 
 3640000   0.67821291    -7.574801    824.90977  0.018885297  0.018816007         4000 
 3641000   0.68238077   -7.5793847    823.43665  0.018846394  0.018808932         3995 
 3642000   0.68330789   -7.5933111    824.01956  0.018854557  0.018801856         3998 
 3643000   0.65920487   -7.5878399     823.7876  0.018844075  0.018794785         4000 
 3644000   0.68240586   -7.5841451     825.1542  0.018870156  0.018787719         3999 
 3645000   0.67423904    -7.577621    824.77706  0.018856357  0.018780652         3998 
 3646000   0.66617513   -7.5799832    824.33536   0.01884109  0.018773587         3999 
 3647000   0.67167769   -7.5780923    823.50501   0.01881695  0.018766538         3999 
 3648000   0.67330427   -7.5926681    823.85595  0.018819809  0.018759485         3999 
 3649000   0.67215248   -7.5700244    822.95024  0.018793967  0.018752436         3999 
 3650000   0.67284756    -7.577893    822.61794  0.018781231  0.018745382         3999 
 3651000   0.66949967   -7.5532509    824.44326   0.01881775  0.018738338         3997 
 3652000   0.67548352   -7.5728703    823.31805  0.018786922  0.018731295         3999 
 3653000   0.66830211   -7.5622996     823.8481   0.01879387  0.018724246         3999 
 3654000   0.66974394   -7.5819812    823.11211  0.018771942  0.018717204         4000 
 3655000   0.68357777   -7.5710061     824.5786  0.018800242  0.018710171         3999 
 3656000   0.67975761    -7.572884    824.53654  0.018794141   0.01870313         4000 
 3657000    0.6529153   -7.5703379    824.57211  0.018789812  0.018696102         3998 
 3658000   0.67226456   -7.5652365    824.39761    0.0187807  0.018689074         3998 
 3659000   0.67156008    -7.583139    823.13923  0.018746908  0.018682048         4000 
 3660000   0.66527837   -7.5763148    823.31142  0.018745706  0.018675023         4000 
 3661000   0.66241739   -7.5742795    824.86199  0.018775881  0.018667995         3997 
 3662000   0.65443058   -7.5723783    823.92494   0.01874943  0.018660973         3998 
 3663000    0.6707122   -7.5914837    823.53493  0.018735438  0.018653958         4000 
 3664000   0.67825186   -7.5860839    824.23933  0.018746346  0.018646947         3998 
 3665000   0.66184047   -7.5853614    823.64339  0.018727681  0.018639933         3998 
 3666000    0.6690015   -7.5758519    824.04547  0.018731712  0.018632926         4000 
 3667000   0.67163098   -7.5748664    824.19888   0.01873009  0.018625917         4000 
 3668000   0.67175196   -7.5746133    822.46811  0.018685662  0.018618912         4000 
 3669000   0.64404077   -7.5784929    823.46196  0.018703143  0.018611915         4000 
 3670000   0.67111126   -7.5927615    825.11601  0.018735604  0.018604918         3999 
 3671000   0.66454438   -7.6069992    823.17977  0.018686547  0.018597922         4000 
 3672000   0.65995748   -7.5957091     823.7732  0.018694926  0.018590929         4000 
 3673000   0.65292877   -7.5828706    824.45381  0.018705278  0.018583947         4000 
 3674000    0.6679509   -7.5782405    823.65725  0.018682119  0.018576961         3999 
 3675000   0.66659432   -7.5692424    824.42382  0.018694418  0.018569977         4000 
 3676000   0.65382199   -7.5859831    824.18802  0.018683987  0.018563001         3995 
 3677000   0.67096305   -7.5774893    822.45308  0.018639586  0.018556024         3999 
 3678000   0.65528153   -7.5806688    822.94304  0.018645619  0.018549044         3999 
 3679000   0.66685354   -7.5927627    824.88319  0.018684497  0.018542071         3997 
 3680000   0.65580043   -7.5706046    824.02452  0.018659975  0.018535106         3999 
 3681000   0.65885634   -7.5916873    823.45209  0.018641947   0.01852814         3997 
 3682000   0.65238733   -7.6004059    825.51051  0.018683472  0.018521175         3999 
 3683000    0.6630234   -7.5780514    823.76826  0.018638978  0.018514216         4000 
 3684000   0.66696994    -7.594566    824.27137  0.018645299  0.018507254         3996 
 3685000   0.67093194    -7.586402    824.68434  0.018649578  0.018500296         4000 
 3686000   0.66460691   -7.5883475    823.93506  0.018627579  0.018493343         3998 
 3687000   0.67028111    -7.577836    823.69713  0.018617149  0.018486392         3995 
 3688000   0.65648975   -7.5891917    822.95135  0.018595249  0.018479446         4000 
 3689000     0.669426   -7.5859021    824.28409  0.018620315  0.018472505         3995 
 3690000   0.67784984   -7.5677677    826.26772  0.018660066  0.018465567         3993 
 3691000   0.66145057   -7.5753967     824.4399  0.018613743  0.018458631         3999 
 3692000   0.66649523    -7.597174    824.49879  0.018610031  0.018451698         3998 
 3693000   0.66165524   -7.5806776    823.49031  0.018582235  0.018444768         3997 
 3694000   0.64937182   -7.5747012    824.13379  0.018591721  0.018437835         3996 
 3695000   0.66973133   -7.5951378    824.60987  0.018597426  0.018430904         3997 
 3696000   0.66256479   -7.6015804    823.29599   0.01856277  0.018423978         3997 
 3697000   0.65999783   -7.5849782      822.932  0.018549545   0.01841705         3997 
 3698000   0.67794289   -7.5794679      824.007  0.018568753  0.018410136         3999 
 3699000   0.64893263   -7.6033014    822.86916  0.018538099  0.018403218         3999 
 3700000   0.65740065   -7.5822751    824.32496  0.018565878  0.018396301         3997 
 3701000   0.66362282   -7.6141476    823.43554  0.018540834  0.018389387         3998 
 3702000   0.65371155   -7.5870912    823.97717  0.018548019  0.018382471         3999 
 3703000   0.68124894   -7.5993782    824.47702  0.018554258  0.018375564         4000 
 3704000   0.66243511   -7.5978544    823.22585    0.0185211  0.018368656         3998 
 3705000   0.65781978   -7.5927896     824.0635  0.018534942  0.018361754         3999 
 3706000   0.66339337   -7.5894756    823.96928  0.018527821  0.018354851         3997 
 3707000   0.65373335   -7.5892621     824.8442  0.018542492  0.018347956         4000 
 3708000   0.65048786   -7.5803147    822.38706  0.018482269  0.018341066         3999 
 3709000   0.65635438   -7.6019942    823.75807   0.01850809  0.018334175         3998 
 3710000   0.66620442   -7.5986189    823.43395  0.018495821   0.01832729         4000 
 3711000   0.65130207   -7.5967132    822.83114    0.0184773   0.01832041         3999 
 3712000   0.64882967   -7.5803327    823.49953  0.018487328  0.018313526         4000 
 3713000   0.64054442   -7.5773043    824.07706  0.018495311   0.01830665         3998 
 3714000   0.66019479   -7.6097608     823.0056   0.01846629  0.018299772         3999 
 3715000   0.67464856   -7.5875265    823.44313  0.018471133  0.018292898         4000 
 3716000   0.67370784   -7.5948245    824.68099  0.018493923  0.018286028         3999 
 3717000   0.66390649   -7.5996585    823.38162  0.018459816  0.018279162         3997 
 3718000    0.6679688   -7.5990576    823.00533  0.018446417  0.018272298         4000 
 3719000   0.65405976   -7.5926779     824.6019  0.018477232  0.018265435         3999 
 3720000   0.64566195   -7.5747118    824.25841   0.01846457  0.018258575         3998 
 3721000   0.65768444   -7.5930323    822.15816  0.018412572  0.018251718         4000 
 3722000   0.66584635    -7.610097    823.13652   0.01842953  0.018244858         4000 
 3723000   0.64352421   -7.6121401    823.53995   0.01843361  0.018238011         3999 
 3724000   0.65511422   -7.6088822    823.54079  0.018428679  0.018231166         3998 
 3725000   0.65967342    -7.600324    823.81162   0.01842979   0.01822432         3998 
 3726000   0.64844969   -7.6065466    823.38041    0.0184152  0.018217476         3998 
 3727000   0.66220533   -7.6004411     824.3724  0.018432439  0.018210638         3998 
 3728000    0.6493433   -7.5913834    823.56709  0.018409493  0.018203799         4000 
 3729000   0.65369563   -7.5914592    823.67516  0.018406972  0.018196969         3999 
 3730000   0.64729205    -7.601305    823.64213  0.018401299  0.018190137         3999 
 3731000   0.64535785   -7.6088228    822.97174  0.018381393  0.018183308         3999 
 3732000   0.65363963   -7.5779693    824.50444  0.018410692  0.018176484         3999 
 3733000   0.65237531   -7.5984322    823.81264  0.018390317  0.018169663         3999 
 3734000   0.65304832   -7.6051032    824.39208  0.018398324  0.018162842         3999 
 3735000   0.65517965   -7.6009555    822.93769  0.018360948  0.018156033         3997 
 3736000   0.64977372   -7.5876436    824.25737   0.01838547  0.018149224         3998 
 3737000   0.65273931   -7.5876491    823.69274  0.018367959  0.018142414         3998 
 3738000    0.6542794   -7.5968572    822.78292  0.018342762   0.01813561         3997 
 3739000   0.64782271   -7.6075528    823.11627  0.018345285  0.018128805         3998 
 3740000   0.64317286   -7.6043999    823.19108  0.018342047  0.018121999         4000 
 3741000   0.66184864   -7.6130638    822.98722  0.018332603  0.018115205         4000 
 3742000   0.65961799   -7.5821967    822.66159  0.018320452  0.018108406         3996 
 3743000   0.65168817   -7.5983512    823.73036  0.018339353  0.018101616         3999 
 3744000    0.6461894   -7.5960206    823.19907  0.018322629   0.01809483         4000 
 3745000   0.65334458   -7.5916709    823.54199  0.018325367  0.018088047         3999 
 3746000   0.65746393   -7.5804267    822.90097  0.018306215  0.018081261         3998 
 3747000   0.65169104   -7.5971069    822.53422  0.018293173  0.018074477         4000 
 3748000   0.66440175   -7.6056235    824.04818  0.018321954  0.018067691         3998 
 3749000   0.64349816   -7.5728214    823.87243   0.01831316  0.018060913         3997 
 3750000   0.64382976   -7.5970721    822.80936  0.018284652  0.018054143         4000 
 3751000   0.65208202    -7.611048    822.59054  0.018274916  0.018047373         4000 
 3752000   0.65831824   -7.6043178    823.67547  0.018294142  0.018040603         4000 
 3753000   0.64590199   -7.5838462    821.95676  0.018251105  0.018033839         3999 
 3754000   0.64523685   -7.5628709     823.1209  0.018272085  0.018027073         4000 
 3755000   0.66110998    -7.586913    824.23235  0.018291885  0.018020317         4000 
 3756000   0.67269845   -7.5849132    823.94999  0.018280751  0.018013555         4000 
 3757000   0.63716765   -7.6137397    823.61124  0.018268371  0.018006804         4000 
 3758000   0.65750134    -7.587927     822.8025  0.018245576  0.018000048         4000 
 3759000    0.6422461   -7.6215478    823.51976  0.018256623  0.017993295         3998 
 3760000    0.6542459   -7.6145372    822.10438  0.018220399  0.017986545         3999 
 3761000   0.63691764   -7.6089182    821.96696  0.018212509  0.017979794         3997 
 3762000   0.64632942   -7.6046769    823.77206  0.018247653  0.017973056         4000 
 3763000   0.65765505   -7.6128172    822.95054  0.018224611  0.017966316         4000 
 3764000   0.64860066   -7.5912458    823.87458  0.018240227  0.017959576         4000 
 3765000   0.64421343   -7.6036863    824.43134  0.018247706  0.017952836         4000 
 3766000   0.66155545   -7.6035415     823.3972  0.018219977  0.017946104         3997 
 3767000   0.65153737   -7.6190401    823.57519  0.018219078  0.017939378         3999 
 3768000   0.65286473   -7.6170607    823.50082  0.018212598  0.017932659         4000 
 3769000   0.65616613   -7.6111078     823.1503  0.018200015  0.017925935         3996 
 3770000   0.64741039   -7.5940138    822.69644  0.018185156  0.017919219         3997 
 3771000   0.63738245   -7.6052089    823.64909  0.018201385  0.017912501         4000 
 3772000   0.64109342   -7.6016625    822.12975  0.018162994  0.017905784         4000 
 3773000   0.65414765   -7.5925321    823.30693   0.01818418  0.017899071         3999 
 3774000   0.66265473   -7.5981045    823.23434  0.018177759   0.01789236         3999 
 3775000   0.64673369    -7.598565    823.21754  0.018172573  0.017885655         3999 
 3776000   0.63673986   -7.5984279    823.21868  0.018167785  0.017878955         4000 
 3777000   0.63946322   -7.6191744    822.74714  0.018152571  0.017872256         3997 
 3778000   0.65190844   -7.6140575    822.99065  0.018153138  0.017865561         3999 
 3779000   0.66108949   -7.6240722    822.78302  0.018143756  0.017858864         3998 
 3780000   0.64654393   -7.6050543    822.50233  0.018132767  0.017852175         3998 
 3781000   0.66099888   -7.6108234    823.36309  0.018146943  0.017845488         4000 
 3782000   0.64297837   -7.6003355    823.33588  0.018141545    0.0178388         4000 
 3783000   0.64022249   -7.6114425    822.88776  0.018126878  0.017832121         4000 
 3784000   0.65023555    -7.600431     822.2103  0.018107168   0.01782544         4000 
 3785000   0.64251011   -7.6177964    823.17816  0.018123693  0.017818761         3998 
 3786000     0.653973   -7.6081109    822.48213  0.018103586  0.017812088         3999 
 3787000   0.64118155   -7.6165883    822.89516  0.018107895  0.017805415         4000 
 3788000   0.64864515   -7.6194426    820.61855  0.018053031  0.017798745         4000 
 3789000   0.65541107   -7.6275986     822.4363  0.018088244  0.017792075         3999 
 3790000   0.66109261    -7.608136     822.6738  0.018088694   0.01778541         4000 
 3791000   0.62993125   -7.6181368    822.77871  0.018086229  0.017778752         3999 
 3792000   0.64552959   -7.6081254    823.28436  0.018092571  0.017772088         3999 
 3793000   0.64492817   -7.6277614    825.09334  0.018127545  0.017765431         3998 
 3794000   0.63601544   -7.6290042    822.87946   0.01807414  0.017758773         3999 
 3795000   0.65736255   -7.6068664    823.52683  0.018083593  0.017752129         3999 
 3796000    0.6578547   -7.6237246    822.22804  0.018050317  0.017745481         3998 
 3797000   0.64798942   -7.5863225    822.54755  0.018052576  0.017738838         3999 
 3798000   0.64403582   -7.6102998    822.39465  0.018044467    0.0177322         4000 
 3799000   0.64618256     -7.61784    822.82073  0.018049064  0.017725564         3999 
 3800000   0.63807794   -7.5906007    820.87604  0.018001668  0.017718923         4000 
 3801000   0.66707475   -7.6022117    821.72462  0.018015536  0.017712294         3999 
 3802000   0.62495976   -7.6115734    821.44484  0.018004665  0.017705667         3998 
 3803000     0.649884   -7.6106748    822.77146     0.018029  0.017699033         3996 
 3804000   0.63475702   -7.6393922    823.03598  0.018030056  0.017692403         3999 
 3805000   0.64225497   -7.6353928    822.63168  0.018016462   0.01768578         3998 
 3806000   0.63734771   -7.6134741    821.72213  0.017991814  0.017679156         3998 
 3807000   0.65048044   -7.6162052    822.85592  0.018011906  0.017672543         4000 
 3808000   0.65054166   -7.6209046     822.7924  0.018005786  0.017665926         3999 
 3809000   0.64498818    -7.641479    822.10641  0.017986051  0.017659312         3998 
 3810000   0.63696038      -7.6231    823.13522  0.018003832  0.017652709         3999 
 3811000   0.64368154   -7.6161512     822.8638  0.017993173  0.017646101         4000 
 3812000   0.64708849   -7.6205772    822.66343  0.017984073  0.017639488         3998 
 3813000   0.64554982   -7.6279966    823.82395   0.01800472   0.01763289         3998 
 3814000   0.65004897   -7.6166909    821.62959  0.017952054   0.01762629         3998 
 3815000   0.64144625   -7.6332668    821.93838  0.017954093  0.017619694         3997 
 3816000   0.64272689   -7.6128181    822.86547  0.017969634  0.017613102         4000 
 3817000   0.65362194   -7.6087421    822.91772  0.017966067  0.017606517         4000 
 3818000   0.64201843     -7.62749    822.21912  0.017946113  0.017599927         3999 
 3819000    0.6388797   -7.6339789    823.56612  0.017970807  0.017593343         3997 
 3820000     0.633448   -7.6112894    823.33123  0.017960978  0.017586759         3999 
 3821000   0.65503901    -7.628655    822.52748  0.017938748  0.017580181         4000 
 3822000   0.65357587   -7.6061459    822.08658  0.017924441  0.017573606         3999 
 3823000   0.63466976   -7.5952159    821.39725  0.017904727  0.017567037         3997 
 3824000   0.64088912   -7.5915134    822.45168  0.017923023  0.017560471         3999 
 3825000     0.636532   -7.6224207    822.64364  0.017922519  0.017553907         4000 
 3826000    0.6308532   -7.6219035    824.04531  0.017948364  0.017547335         4000 
 3827000   0.63052208   -7.6188254    822.20855  0.017903679  0.017540769         3998 
 3828000   0.63282408   -7.5981985    821.82344  0.017890618   0.01753421         3999 
 3829000   0.64369143   -7.6090282    821.48726  0.017878629  0.017527659         3998 
 3830000   0.63467855   -7.6171712    821.63222  0.017877115  0.017521102         3998 
 3831000   0.64263953   -7.6022471    822.97802  0.017901723  0.017514556         3999 
 3832000   0.62941759   -7.6280551    821.01658  0.017854397  0.017508004         3999 
 3833000     0.635733   -7.6131127    822.70377   0.01788642  0.017501458         3997 
 3834000   0.63936569   -7.6150443    823.30551  0.017894834  0.017494911         3999 
 3835000   0.63311073   -7.6006618    821.81965   0.01785788  0.017488372         3999 
 3836000   0.65045749   -7.6307915    821.19564  0.017839669  0.017481834         3998 
 3837000   0.64186302   -7.6273594     822.7004    0.0178677  0.017475304         4000 
 3838000   0.62578852   -7.6136755    820.79487  0.017821671  0.017468772         3999 
 3839000   0.63965318   -7.6392704    821.58039   0.01783408  0.017462239         4000 
 3840000   0.63051477   -7.6395526    821.93797  0.017837196  0.017455712         4000 
 3841000   0.64622635   -7.6072099     822.7777   0.01785077  0.017449188         4000 
 3842000   0.63813372   -7.6158088    822.73085  0.017845108  0.017442672         3994 
 3843000   0.65109339   -7.6250649    822.64141  0.017838525  0.017436152         3999 
 3844000   0.63987921   -7.6138806    822.34211  0.017827396  0.017429639         3997 
 3845000   0.63564253   -7.6260305    823.40995  0.017845903  0.017423131         3999 
 3846000    0.6326834   -7.6136837    822.40298  0.017819444  0.017416614         4000 
 3847000   0.63096616    -7.633737    821.54368  0.017796198  0.017410106         3999 
 3848000   0.63497666   -7.6293803    821.03441  0.017780544  0.017403599         4000 
 3849000   0.64376947   -7.6313531    822.74381  0.017812934  0.017397097         3998 
 3850000   0.63654026   -7.6100782    822.45966  0.017802157  0.017390595         4000 
 3851000   0.63159836   -7.6359323    822.98237  0.017808845  0.017384095         4000 
 3852000   0.62267646   -7.6158512    822.63304  0.017796665  0.017377599         3998 
 3853000   0.63107285     -7.60392    821.94866  0.017777244  0.017371108         3999 
 3854000   0.63162197   -7.6020318    822.08613  0.017775604  0.017364619         3996 
 3855000   0.63491712   -7.6093017    821.67372  0.017762078  0.017358133         4000 
 3856000   0.63332241   -7.6262145    822.90822  0.017784151  0.017351652         4000 
 3857000   0.61982344   -7.6367577    822.44593  0.017769552  0.017345165         4000 
 3858000   0.62410772   -7.6111433    822.89943  0.017774741  0.017338692         3998 
 3859000   0.64246533   -7.6104873    822.04721  0.017751732  0.017332215         3999 
 3860000   0.63456447   -7.6630971    822.97279  0.017767116  0.017325743         3999 
 3861000   0.64348967   -7.6171695    821.21402  0.017724554  0.017319269         3998 
 3862000   0.63618574   -7.6120077    822.16055  0.017740388  0.017312799         3995 
 3863000   0.63575472   -7.6124918    822.13717  0.017735291  0.017306336         3998 
 3864000   0.64361094   -7.6274588     821.3988  0.017714778  0.017299874         3999 
 3865000   0.63019655   -7.6324012    821.45775  0.017711465  0.017293411         3999 
 3866000   0.63746444   -7.6103268    822.88535  0.017737656  0.017286953         4000 
 3867000   0.63245283   -7.6295332    821.00727  0.017692597  0.017280502         3999 
 3868000   0.63933835   -7.6260117    822.45443  0.017719201  0.017274044         3999 
 3869000   0.63000449   -7.6279662    822.03391  0.017705564  0.017267592         3998 
 3870000   0.61593147   -7.6320948    822.39635  0.017708793  0.017261145         3998 
 3871000   0.62394669   -7.6071555    821.99943  0.017695674  0.017254698         3996 
 3872000   0.61961636   -7.6477576    821.83037  0.017687465  0.017248256         3998 
 3873000   0.62857453   -7.6345988    823.88011  0.017727001  0.017241814         3999 
 3874000   0.62811818   -7.6249467    821.84121  0.017678567  0.017235384         3998 
 3875000   0.63084248   -7.6173193    820.25013  0.017639788  0.017228953         3998 
 3876000   0.63857797   -7.6408455    821.32089  0.017658258  0.017222519         3999 
 3877000   0.63317679   -7.6385809    822.09477  0.017670337  0.017216089         3998 
 3878000   0.63177775   -7.6352378    820.89642   0.01764003  0.017209666         4000 
 3879000   0.62203737   -7.6213446    822.95451  0.017679697   0.01720324         3999 
 3880000   0.63489214   -7.6319533    821.53186  0.017644585  0.017196817         3998 
 3881000   0.63495953   -7.6480741    822.17841  0.017653921  0.017190402         3999 
 3882000   0.63650465   -7.6487506    821.77651  0.017640746  0.017183988         4000 
 3883000   0.63781537   -7.6394955    821.38254  0.017627748  0.017177576         3999 
 3884000   0.63065032   -7.6171149     821.6107  0.017628105  0.017171167         3997 
 3885000   0.63169198   -7.6189264    822.38829  0.017640246  0.017164767         3999 
 3886000   0.62052448   -7.6379938    821.96404  0.017626609   0.01715836         4000 
 3887000   0.63697407   -7.6156625    822.38447  0.017631088  0.017151963         3999 
 3888000   0.63278969   -7.6331667    821.84303  0.017614948  0.017145568         3998 
 3889000   0.63227309   -7.6379721    821.29595  0.017598696  0.017139173         3996 
 3890000   0.63034866   -7.6458725    821.40793  0.017596571  0.017132782         3999 
 3891000   0.64000358   -7.6355309    821.98948  0.017604504  0.017126393         4000 
 3892000     0.621267   -7.6193271    821.99402  0.017600078  0.017120013         3998 
 3893000   0.62767107   -7.6316247    821.42221  0.017583316  0.017113629         4000 
 3894000   0.64144276   -7.6473636    820.98066  0.017569351   0.01710725         3999 
 3895000   0.63929527   -7.6361209    821.07707  0.017566903  0.017100873         4000 
 3896000   0.63573106   -7.6279774    821.59447  0.017573461  0.017094499         3999 
 3897000   0.63892756   -7.6287496    822.48736  0.017588045  0.017088125         3999 
 3898000    0.6209114   -7.6049259    821.08491  0.017553551  0.017081759         4000 
 3899000   0.63547267   -7.6093777    823.24218  0.017595156  0.017075391         3999 
 3900000    0.6176356    -7.620893    822.24591  0.017569357  0.017069032         4000 
 3901000    0.6380227   -7.6167406    821.80983  0.017555538  0.017062668         4000 
 3902000   0.62882075   -7.6435072    822.58293  0.017567549  0.017056314         4000 
 3903000   0.63099986   -7.6262224    821.64424  0.017543006  0.017049953         3998 
 3904000   0.61340226   -7.6316336    821.93609  0.017544742    0.0170436         3998 
 3905000   0.61750021   -7.6114738    821.38218  0.017528429  0.017037249         3999 
 3906000   0.64413915   -7.6375164     820.6785  0.017508929  0.017030899         3999 
 3907000   0.62419486   -7.6461416    820.23451  0.017494977  0.017024557         4000 
 3908000   0.63026346   -7.6455964    821.97935  0.017527707  0.017018217         3997 
 3909000   0.61835615   -7.6191226    822.54612  0.017535306  0.017011876         3999 
 3910000   0.63716645   -7.6215716      822.284  0.017525235  0.017005541         3998 
 3911000   0.62014291   -7.6443117     821.5258  0.017504598  0.016999207         4000 
 3912000   0.62149662   -7.6493578    820.19691  0.017471816  0.016992872         4000 
 3913000    0.6337933   -7.6481553    823.09022  0.017528968  0.016986539         3999 
 3914000   0.62793601   -7.6320406    822.84814  0.017519335  0.016980216         3999 
 3915000   0.62617052   -7.6259735     821.7883  0.017492301  0.016973893         4000 
 3916000   0.63372553   -7.6431757    819.93497  0.017448395  0.016967578         3997 
 3917000   0.63077615   -7.6374251     819.5257  0.017435233  0.016961261         4000 
 3918000   0.62148896   -7.6505377    822.61746  0.017496543  0.016954948         4000 
 3919000   0.63641842   -7.6307476    821.81227  0.017474957  0.016948641         4000 
 3920000   0.62034261   -7.6341747    821.72529   0.01746865  0.016942334         3999 
 3921000   0.62450958   -7.6375203    821.24433  0.017453973  0.016936029         4000 
 3922000   0.62373092   -7.6335083    822.81553  0.017482907  0.016929731         4000 
 3923000   0.61595485   -7.6490342    821.46965  0.017449861  0.016923432         4000 
 3924000   0.61995866   -7.6394965    822.55252  0.017468411  0.016917127         3998 
 3925000   0.62842112   -7.6391981    821.81756  0.017448356  0.016910827         3999 
 3926000   0.62608306   -7.6310534    822.00306  0.017447849  0.016904537         4000 
 3927000   0.63492458   -7.6600047    822.94131  0.017463316   0.01689825         3999 
 3928000   0.61957324   -7.6300604    821.56776   0.01742973  0.016891966         4000 
 3929000   0.62731143   -7.6500842    820.66823  0.017406215  0.016885681         4000 
 3930000   0.63025924   -7.6410207    821.37023  0.017416672  0.016879393         3999 
 3931000   0.62620775   -7.6529693    821.81819  0.017421737  0.016873115         3999 
 3932000   0.61783836   -7.6370253    822.24819   0.01742642  0.016866838         4000 
 3933000   0.60709294   -7.6588631    821.27539  0.017401377  0.016860564         4000 
 3934000   0.61592905   -7.6475606    821.94934   0.01741123  0.016854295         3999 
 3935000   0.61095979   -7.6337203    820.98121  0.017386303  0.016848027         3998 
 3936000    0.6368251   -7.6313546    821.63262  0.017395677  0.016841764         3998 
 3937000   0.61681994    -7.638937     820.9422  0.017376645  0.016835501         3998 
 3938000   0.62059399    -7.638984    821.95593  0.017393684  0.016829244         3996 
 3939000   0.62391635   -7.6303434     820.9527  0.017368044  0.016822986         3999 
 3940000    0.6402068   -7.6309577    822.22767  0.017390602  0.016816729         4000 
 3941000   0.61648412   -7.6550548    823.01253  0.017402785  0.016810478         4000 
 3942000   0.62102872   -7.6169602    821.17899   0.01735961  0.016804223         3999 
 3943000   0.62799944    -7.628033    821.46224  0.017361194  0.016797976         3999 
 3944000    0.6202605   -7.6274351    822.27357  0.017373935  0.016791734         3999 
 3945000   0.60652748    -7.649963    821.35206  0.017350065  0.016785493         3998 
 3946000   0.61689653    -7.625521    819.11335   0.01729839  0.016779253         3999 
 3947000   0.62233868   -7.6351825     820.5615  0.017324582  0.016773016         3998 
 3948000   0.62128727   -7.6605733    821.36512  0.017337156  0.016766781         3997 
 3949000   0.63950436   -7.6290796    822.34303  0.017353402  0.016760549         3998 
 3950000   0.62935639   -7.6343268    820.47221   0.01730954  0.016754316         3998 
 3951000   0.62648259   -7.6488025     820.5893  0.017307629  0.016748088         4000 
 3952000   0.62102947   -7.6527111    820.25811  0.017296266  0.016741868         3999 
 3953000   0.63057768   -7.6679048    820.60916  0.017299291  0.016735645         4000 
 3954000   0.61861561   -7.6430095     821.7494  0.017318947  0.016729429         3999 
 3955000   0.61709593   -7.6328814    820.85795  0.017295785  0.016723214         3999 
 3956000   0.61387104   -7.6395808    820.76315  0.017289416  0.016717008         4000 
 3957000   0.62260677   -7.6382802    820.37492  0.017276871  0.016710797         3999 
 3958000    0.6317008   -7.6632238     819.6311  0.017256845   0.01670459         4000 
 3959000   0.60162277    -7.646121    821.00221  0.017281346  0.016698389         3999 
 3960000   0.61920973   -7.6406443    821.23568  0.017281896  0.016692186         3999 
 3961000   0.61274513    -7.661106    821.81758  0.017289775  0.016685988         3998 
 3962000   0.62219372   -7.6416187    821.02958  0.017268837  0.016679797         3999 
 3963000   0.61699762   -7.6535429    819.99227  0.017242667  0.016673598         4000 
 3964000   0.61279767   -7.6403151    821.15908  0.017262847  0.016667412         4000 
 3965000   0.60986907   -7.6315304    820.12164  0.017236689  0.016661223         4000 
 3966000   0.61407491   -7.6343427    820.78414  0.017246263  0.016655035         3998 
 3967000   0.63699884   -7.6529839    820.64191  0.017238928  0.016648849         3999 
 3968000   0.64001668   -7.6491272    822.40553  0.017271621  0.016642667         4000 
 3969000   0.64277476   -7.6783119    820.83896  0.017234378   0.01663649         3997 
 3970000   0.63076217   -7.6530937    819.82941  0.017208846  0.016630313         4000 
 3971000   0.61115241   -7.6457356    820.83851  0.017225689  0.016624142         4000 
 3972000   0.62065856   -7.6469158    821.21675  0.017229287  0.016617974         4000 
 3973000   0.60698006   -7.6352898    821.69955  0.017235077  0.016611808         4000 
 3974000   0.60308561   -7.6434692    819.21226  0.017178583  0.016605639         4000 
 3975000   0.62568192   -7.6344464    821.65652  0.017225504  0.016599479         3998 
 3976000   0.61030496   -7.6378831    820.47533  0.017196414  0.016593321         3997 
 3977000   0.61753713    -7.645149    819.78297  0.017177583  0.016587162         3998 
 3978000   0.62744962   -7.6528789    820.66869  0.017191819  0.016581015         3997 
 3979000   0.62665779   -7.6499894    822.04792  0.017216384  0.016574865         4000 
 3980000   0.62412605   -7.6605863    820.67496  0.017183312  0.016568722         3997 
 3981000   0.61318069   -7.6646941    821.34272  0.017192973  0.016562579         4000 
 3982000   0.60573569   -7.6562855    820.80963  0.017177499  0.016556433         3999 
 3983000   0.60525642   -7.6680471    821.84706  0.017194892  0.016550289         4000 
 3984000   0.61513672   -7.6418372    821.13918  0.017175769   0.01654415         4000 
 3985000   0.60875917   -7.6358814    820.70684  0.017162418  0.016538014         4000 
 3986000   0.61984478   -7.6554354    821.32524  0.017171041  0.016531879         3999 
 3987000   0.60365094    -7.645003    821.61963  0.017172888   0.01652575         3999 
 3988000   0.61722325   -7.6576287    821.02586  0.017156174  0.016519619         3999 
 3989000   0.61054662   -7.6405693    820.60666  0.017143116  0.016513496         3997 
 3990000   0.60728605   -7.6502276    821.45227   0.01715648  0.016507372         3999 
 3991000    0.6167067   -7.6689429    819.93156  0.017120428  0.016501257         3999 
 3992000   0.61609268   -7.6215279    822.08244   0.01716104  0.016495141         4000 
 3993000   0.61029804   -7.6467778    819.44554   0.01710171  0.016489031         3998 
 3994000    0.6050612   -7.6368833    822.04348  0.017151633  0.016482919         3998 
 3995000   0.63206384   -7.6452778    822.54382  0.017157777   0.01647681         3998 
 3996000   0.60847473    -7.656907    821.07155   0.01712278  0.016470709         3998 
 3997000   0.60253072   -7.6696698    820.15335  0.017099353  0.016464606         3999 
 3998000   0.61900276   -7.6732852    821.08698  0.017114536  0.016458503         4000 
 3999000    0.6023439   -7.6456172    820.91921   0.01710676  0.016452412         4000 
 4000000   0.61374165   -7.6392861    820.84169  0.017100869  0.016446318         3999 
 4001000    0.5987952   -7.6784577    821.27993  0.017105722  0.016440228         4000 
 4002000   0.62261381   -7.6534414    822.41182  0.017125017  0.016434136         4000 
 4003000   0.61285888   -7.6563146    821.55158  0.017102831  0.016428048         3999 
 4004000   0.60963091   -7.6486105    821.52256  0.017097955  0.016421963         3998 
 4005000   0.61712412   -7.6464969     820.5941  0.017074368  0.016415877         4000 
 4006000   0.60367119   -7.6426992    820.89423  0.017076349  0.016409794         4000 
 4007000   0.60984831   -7.6556724    820.78731  0.017069863  0.016403717         3999 
 4008000   0.61270133   -7.6492519    819.25237   0.01703369  0.016397645         4000 
 4009000   0.60312484   -7.6529537    819.84831  0.017041829  0.016391573         4000 
 4010000   0.61256597   -7.6389854    821.02785  0.017062092  0.016385502         3999 
 4011000   0.60371383   -7.6404747    819.41665  0.017024363  0.016379437         3998 
 4012000   0.60116349   -7.6614306    821.09809  0.017055045  0.016373375         4000 
 4013000   0.61301948   -7.6648011    820.48262  0.017038014  0.016367318         4000 
 4014000    0.6194197   -7.6651046    820.41648  0.017032397  0.016361263         3998 
 4015000    0.6089672   -7.6435363    820.38701  0.017027543  0.016355208         4000 
 4016000   0.61030863   -7.6693533    820.82739  0.017032441  0.016349157         3999 
 4017000    0.5971263   -7.6522935    821.28003  0.017037591  0.016343101         3999 
 4018000   0.62257647   -7.6426099    820.70646  0.017021455  0.016337058         3998 
 4019000    0.6184133   -7.6608399    820.97937  0.017022878  0.016331011         3999 
 4020000   0.62151629   -7.6455059    820.36808  0.017005972  0.016324969         4000 
 4021000   0.60403607   -7.6593116    820.59123  0.017006367  0.016318929         4000 
 4022000   0.59660933   -7.6474702    819.20813  0.016973482   0.01631289         4000 
 4023000   0.60716272   -7.6586933    820.00526  0.016985775  0.016306855         3997 
 4024000   0.59692253     -7.67361    820.50614  0.016991926  0.016300826         4000 
 4025000   0.61256608    -7.663341    821.12205  0.017000456  0.016294799         3999 
 4026000   0.60117307   -7.6639036    820.59586  0.016985342  0.016288775         3999 
 4027000   0.61598866    -7.665629    821.88401  0.017007781  0.016282756         3998 
 4028000   0.61092071   -7.6628818    821.11796   0.01698771  0.016276734         4000 
 4029000   0.60206257    -7.657516    819.69566  0.016954076  0.016270709         3998 
 4030000   0.60457634   -7.6422532    819.64561  0.016948834  0.016264694         4000 
 4031000   0.61143822   -7.6626811    819.89387  0.016949762  0.016258679         3999 
 4032000   0.61396446   -7.6667318    819.88299  0.016945333  0.016252667         4000 
 4033000   0.61637272   -7.6671675    821.39048   0.01697228  0.016246664         3998 
 4034000   0.61208749   -7.6539089    818.98201   0.01691832   0.01624066         4000 
 4035000   0.60852925   -7.6650459    819.97117  0.016934555   0.01623466         3999 
 4036000   0.60534158   -7.6504614     820.2844  0.016936827  0.016228661         3998 
 4037000   0.62279347   -7.6644631    818.89099  0.016903868  0.016222662         3999 
 4038000   0.61479408   -7.6497236    819.78054   0.01691804  0.016216664         4000 
 4039000   0.59769498    -7.650643    819.34543  0.016904874  0.016210672         4000 
 4040000   0.62287551   -7.6756479    819.68047  0.016907601  0.016204683         4000 
 4041000   0.60434387   -7.6715411    821.06206  0.016931908  0.016198697         3999 
 4042000   0.62361695   -7.6685665     820.7156  0.016920576  0.016192709         3999 
 4043000   0.59565818    -7.652883    821.43883  0.016931297  0.016186722         4000 
 4044000   0.59982163   -7.6693769    819.72968  0.016891891  0.016180741         3999 
 4045000   0.59796608   -7.6651012    820.80084  0.016909782  0.016174767         4000 
 4046000   0.60319212   -7.6624905    820.01124   0.01688934  0.016168793         4000 
 4047000   0.60185017   -7.6649743    821.52817  0.016916403  0.016162822         4000 
 4048000   0.60153159   -7.6636861    820.72203  0.016895628  0.016156854         4000 
 4049000   0.59631466   -7.6519694    820.73359  0.016891693  0.016150886         3998 
 4050000   0.61228378   -7.6734094    820.51776  0.016883082   0.01614493         3998 
 4051000   0.60890426   -7.6662259    820.67562  0.016882161  0.016138971         3999 
 4052000   0.60730319   -7.6733387    818.86248  0.016840706  0.016133019         3998 
 4053000   0.60979243   -7.6653691    820.29276  0.016865959  0.016127064         3998 
 4054000    0.5983218   -7.6570962    820.26121   0.01686115  0.016121112         4000 
 4055000   0.60750043   -7.6698639    819.85324  0.016848607  0.016115165         3999 
 4056000   0.58648033   -7.6746175    820.68627  0.016861569  0.016109219         4000 
 4057000   0.59712257    -7.684143    821.11409    0.0168662  0.016103276         3998 
 4058000   0.59194861   -7.6657265    818.72106  0.016812902  0.016097329         3999 
 4059000   0.60124415   -7.6653861    820.21705  0.016839473  0.016091383         3998 
 4060000   0.59105803   -7.6555489    819.23717  0.016815213  0.016085448         4000 
 4061000   0.59267557    -7.654305    819.08151  0.016807878  0.016079511         3997 
 4062000   0.61110536   -7.6608833    819.76099   0.01681768  0.016073578         3999 
 4063000   0.60841388   -7.6694159    819.96831  0.016817793  0.016067647         4000 
 4064000   0.60102389   -7.6821919    820.32572  0.016820983  0.016061721         3999 
 4065000    0.5986516   -7.6628969    819.95216  0.016809187  0.016055792         4000 
 4066000   0.57771342   -7.6596485    821.37786  0.016834273   0.01604987         4000 
 4067000   0.58759548   -7.6619252    819.00287   0.01678147   0.01604395         4000 
 4068000   0.59817527   -7.6789327    819.72761  0.016792191  0.016038032         4000 
 4069000   0.60503288   -7.6766144    818.31347  0.016759103  0.016032114         3999 
 4070000   0.59795206   -7.6758112    818.93792  0.016767771  0.016026199         4000 
 4071000   0.61014008   -7.6660037    820.87688  0.016803342   0.01602029         4000 
 4072000   0.59718963   -7.6577878     820.5462  0.016792448  0.016014383         3999 
 4073000   0.59938313   -7.6574915    819.93145  0.016775748  0.016008477         3999 
 4074000   0.60650258   -7.6743937    820.33458  0.016779876  0.016002576         3999 
 4075000    0.6107914   -7.6658183    820.32809  0.016775626  0.015996681         3996 
 4076000   0.60129971   -7.6640003    819.41581  0.016752858  0.015990789         4000 
 4077000   0.59322353   -7.6693388    819.21362  0.016744617  0.015984894         3999 
 4078000   0.60244474   -7.6680165    821.13831  0.016779841  0.015979002         3999 
 4079000    0.5963402   -7.6532451    820.77077  0.016768219  0.015973115         3998 
 4080000   0.59991712   -7.6740491     821.1416  0.016771683  0.015967233         3998 
 4081000   0.59104975    -7.690852    818.26159  0.016708764  0.015961349         4000 
 4082000   0.60382558   -7.6848923     819.2798  0.016725457  0.015955466         3999 
 4083000   0.59621818   -7.6773253    820.31656  0.016742521  0.015949593         3999 
 4084000   0.59984869   -7.6832637    820.17814  0.016735597  0.015943716         4000 
 4085000   0.60728621    -7.661421    819.56326  0.016718957  0.015937844         3998 
 4086000   0.60466113   -7.6613376    818.80553  0.016699411  0.015931975         3999 
 4087000   0.59495732    -7.667709     820.2728  0.016725243  0.015926107         4000 
 4088000   0.58882334   -7.6799079    819.20641  0.016699413  0.015920239         4000 
 4089000   0.58751068   -7.6638867    820.14884  0.016714536  0.015914378         3997 
 4090000   0.60762419   -7.6617588    819.77579  0.016702848  0.015908524         4000 
 4091000   0.58539111   -7.6784402    819.88457  0.016700981  0.015902667         4000 
 4092000   0.59479239   -7.6702233    819.74495  0.016694057  0.015896813         3996 
 4093000   0.59660001   -7.6675499    818.58873  0.016666437   0.01589096         3999 
 4094000   0.58795986   -7.6858815    818.89186  0.016668536  0.015885109         3999 
 4095000   0.59089431   -7.6774287    820.46253  0.016696429  0.015879262         4000 
 4096000   0.60078808   -7.6465214    820.91206  0.016701499  0.015873422         3997 
 4097000   0.59752607   -7.6598324     819.8779  0.016676387  0.015867583         3995 
 4098000    0.5816007   -7.6806524    820.15415  0.016677935  0.015861739         3999 
 4099000   0.60140095   -7.6827812    820.11916  0.016673155  0.015855902         3999 
 4100000   0.59682755   -7.6687346     819.6451  0.016659453  0.015850065         3999 
 4101000   0.60365806   -7.6754248    820.24274  0.016667535  0.015844232         3999 
 4102000    0.5906367   -7.6890602    819.08709  0.016639994  0.015838399         4000 
 4103000   0.60507104   -7.6897237    819.99465  0.016654372  0.015832575         4000 
 4104000   0.59506708   -7.6949141    820.13294  0.016653122  0.015826751         4000 
 4105000   0.59859648   -7.6714116    818.60406  0.016618028  0.015820933         4000 
 4106000   0.59612422   -7.6729789    819.93437   0.01664098  0.015815114         3999 
 4107000   0.58639738   -7.6876366     820.6203  0.016650846  0.015809291         3998 
 4108000   0.59933914   -7.6692296    818.88943  0.016611681  0.015803475         4000 
 4109000   0.58617194   -7.6695835    819.62986  0.016622655  0.015797665         3998 
 4110000   0.57627639   -7.6696137    819.71788  0.016620395  0.015791862         3999 
 4111000   0.58524121   -7.6679383    820.08988  0.016623893  0.015786052         4000 
 4112000   0.60179297   -7.6687805    819.34853  0.016604826   0.01578025         3999 
 4113000   0.59765529    -7.666067    821.12369  0.016636755  0.015774451         3999 
 4114000   0.59315903   -7.6637402    818.60997  0.016581793   0.01576865         4000 
 4115000   0.59653432   -7.6776356    819.35303  0.016592811  0.015762861         3999 
 4116000    0.6005015   -7.6767305    820.14791  0.016604874  0.015757067         3997 
 4117000    0.5766036   -7.6726351    820.00978  0.016598044  0.015751277         3997 
 4118000   0.58597357   -7.6732462    819.72608  0.016588273  0.015745492         4000 
 4119000    0.5852609   -7.6788848    819.55148  0.016580713   0.01573971         3999 
 4120000   0.58030133   -7.6780426    820.37917   0.01659343  0.015733931         3996 
 4121000   0.58675151   -7.6674697    818.94001  0.016560301  0.015728152         4000 
 4122000    0.5926944   -7.6724673    818.51975  0.016547787  0.015722379         3999 
 4123000   0.59266531   -7.6686064    818.96033  0.016552679  0.015716601         4000 
 4124000   0.59713112   -7.6710432    819.44683  0.016558496  0.015710829         3998 
 4125000   0.60338174   -7.6815037    819.31126  0.016551743  0.015705057         3998 
 4126000   0.57882336   -7.6822681    819.65719  0.016554718  0.015699291         4000 
 4127000   0.58964517   -7.6659783    818.78304  0.016533055  0.015693524         4000 
 4128000   0.58710821    -7.671332    820.38984  0.016561487  0.015687762         3998 
 4129000   0.59477949   -7.6732832    820.07617  0.016551146  0.015682001         3998 
 4130000   0.59488385   -7.6814771    820.14296  0.016548486  0.015676243         4000 
 4131000   0.58150759   -7.6825254    819.64011  0.016534336   0.01567049         4000 
 4132000   0.59056383     -7.68888    819.12931  0.016520033  0.015664741         3997 
 4133000   0.58674494   -7.6838025    819.05016   0.01651444  0.015658992         3999 
 4134000    0.5911946   -7.6790401    817.65608  0.016482343  0.015653241         4000 
 4135000   0.59163452   -7.6978966     819.0511  0.016506471  0.015647493         3999 
 4136000    0.5757441   -7.6776289    819.30806  0.016507657  0.015641749         4000 
 4137000   0.59221617    -7.663188    818.62795  0.016489968  0.015636012         4000 
 4138000   0.58961547   -7.6906337     820.0083  0.016513781   0.01563028         3995 
 4139000   0.58343542   -7.6934072    820.91839  0.016528114  0.015624551         3998 
 4140000     0.591759   -7.6692788    819.83013  0.016502217   0.01561882         4000 
 4141000   0.58175831   -7.6943056    818.67291  0.016474944  0.015613093         4000 
 4142000   0.58857518   -7.7022529    819.26449  0.016482868  0.015607367         4000 
 4143000   0.58003501   -7.6697434    819.27859  0.016479173  0.015601644         4000 
 4144000   0.58403532   -7.6968711    819.10092  0.016471624  0.015595922         4000 
 4145000   0.58624366   -7.6788085    819.12361  0.016468106  0.015590202         3999 
 4146000   0.58273724   -7.6880542    821.08249  0.016503507  0.015584485         4000 
 4147000   0.59428852   -7.6822219    820.19865  0.016481767  0.015578773         3997 
 4148000   0.56736826   -7.6871721    818.56906  0.016445055  0.015573056         4000 
 4149000   0.57655804   -7.7000657    820.68487  0.016483588  0.015567349         4000 
 4150000   0.58088933   -7.6946532    818.74494  0.016440661  0.015561638         4000 
 4151000   0.58686951   -7.6711701    818.50123  0.016431808  0.015555934         4000 
 4152000   0.58432689   -7.6818888    820.31736  0.016464301  0.015550233         3998 
 4153000   0.59138649   -7.6860039    818.50217  0.016423914  0.015544538         4000 
 4154000   0.58521344   -7.6878217    819.09988  0.016431951  0.015538844         3999 
 4155000   0.58446908   -7.7005891    818.84884  0.016422961  0.015533154         4000 
 4156000   0.58787697   -7.6683887    819.58018  0.016433674  0.015527464         3999 
 4157000   0.57987645   -7.6699807    820.05299  0.016439199  0.015521775         3999 
 4158000   0.59932419   -7.6858598    818.29617  0.016400036  0.015516093         4000 
 4159000   0.59519878   -7.6706626    818.36486  0.016397469  0.015510412         3999 
 4160000   0.59072524   -7.6829005    820.49659   0.01643623  0.015504735         3999 
 4161000   0.58325221   -7.6898302    818.94341  0.016401174  0.015499057         4000 
 4162000   0.58115306   -7.6923191    816.88625  0.016356044  0.015493383         4000 
 4163000   0.58308449   -7.6772987    818.12735  0.016376959  0.015487708         4000 
 4164000   0.59276877    -7.687722    818.41145  0.016378711  0.015482037         4000 
 4165000   0.58407634   -7.6958268    819.30181  0.016392593  0.015476373         3999 
 4166000   0.57774101   -7.6873058    817.35822   0.01634978  0.015470705         3999 
 4167000   0.58223781   -7.6810704    818.33529  0.016365397  0.015465041         4000 
 4168000    0.5760589   -7.6770947    819.55517   0.01638586  0.015459381         3999 
 4169000   0.57775173   -7.6952345    819.95002  0.016389822  0.015453721         4000 
 4170000   0.58279537   -7.6884298    818.62815  0.016359475  0.015448061         4000 
 4171000   0.58046737    -7.690305    819.80572   0.01637908  0.015442407         3999 
 4172000   0.57972227     -7.68602    819.58445  0.016370735  0.015436755         3999 
 4173000   0.59696337   -7.6820084    818.03813  0.016335932  0.015431112         3998 
 4174000   0.58625693   -7.6945561    819.49526   0.01636111   0.01542547         4000 
 4175000   0.57598134   -7.6798754    818.11769  0.016329694  0.015419832         4000 
 4176000   0.57105333   -7.6723773    818.74829  0.016338368  0.015414191         3999 
 4177000   0.58549999   -7.7007971    817.98358    0.0163192  0.015408553         4000 
 4178000   0.57366971   -7.6643807     819.0238  0.016336042  0.015402921         3997 
 4179000   0.58103867   -7.6829963    819.20807  0.016335807   0.01539729         4000 
 4180000   0.59032721      -7.6867    818.60669   0.01631991  0.015391664         3998 
 4181000   0.59604312   -7.6884281    818.98475  0.016323542   0.01538604         3998 
 4182000   0.57562248   -7.6971737    818.25401  0.016305078  0.015380414         3999 
 4183000   0.57420524    -7.689676    819.60745  0.016328143  0.015374796         3999 
 4184000   0.59180157   -7.6769559    818.77034  0.016307567  0.015369176         3999 
 4185000   0.59409265   -7.7095634    819.03803  0.016309001  0.015363557         4000 
 4186000   0.58240198   -7.6940987    819.73457  0.016318971  0.015357947         3998 
 4187000   0.57877308   -7.6912013    819.72424  0.016314868  0.015352338         3999 
 4188000   0.58269473   -7.6878154    819.64491  0.016309394  0.015346732         3999 
 4189000   0.57770882   -7.6843991    818.53183  0.016283358  0.015341128         3998 
 4190000   0.57559046    -7.689404      818.661  0.016282041  0.015335522         3999 
 4191000   0.57340686   -7.6997801     818.7213  0.016279355  0.015329919         4000 
 4192000    0.5749009   -7.6957329    819.73618  0.016295646   0.01532432         3998 
 4193000   0.59053724   -7.6808893    819.06887  0.016278497  0.015318724         3999 
 4194000    0.5941132   -7.6928346    818.66697   0.01626663  0.015313131         3999 
 4195000   0.57614127   -7.6963722    817.17455  0.016233106  0.015307539         4000 
 4196000   0.58702493   -7.6798126    818.10604  0.016247737  0.015301951         3998 
 4197000   0.58058465   -7.6910529    820.03285  0.016282123  0.015296364         3999 
 4198000   0.57968809   -7.6837165    818.05187  0.016238921  0.015290778         4000 
 4199000   0.58248273   -7.7013247    818.24585  0.016238903  0.015285197         3999 
 4200000   0.58284572    -7.688213    818.52874   0.01624065  0.015279622         4000 
 4201000   0.57603559   -7.7219345    819.29302  0.016251944  0.015274044         4000 
 4202000   0.58150702   -7.7049374    818.46213  0.016231599   0.01526847         3999 
 4203000   0.58393183   -7.6927164    818.01723  0.016218916  0.015262898         4000 
 4204000   0.57302765   -7.6749466    817.96165  0.016213956  0.015257326         3999 
 4205000   0.56792923   -7.7057818    818.85278   0.01622776  0.015251756         4000 
 4206000    0.5862152   -7.6943107    818.85122  0.016223871  0.015246191         3999 
 4207000   0.55929497   -7.7013059    817.28119  0.016188915  0.015240626         4000 
 4208000   0.58725328   -7.6949999    818.97454  0.016218602  0.015235065         3998 
 4209000   0.56849303   -7.6798302    817.54524  0.016186451  0.015229507         4000 
 4210000   0.58121732   -7.6949869    818.85934  0.016208617  0.015223952         4000 
 4211000   0.56666146   -7.6826289      816.919   0.01616637  0.015218401         3999 
 4212000   0.58653819   -7.7044935    818.04456  0.016184801  0.015212854         4000 
 4213000   0.58764618   -7.6800103    817.41575  0.016168521   0.01520731         4000 
 4214000   0.57236618   -7.6898813    818.14231  0.016179052  0.015201765         4000 
 4215000   0.58649676   -7.6834917    817.86577  0.016169746  0.015196222         3998 
 4216000   0.57765081    -7.701705    817.68457  0.016162329  0.015190685         4000 
 4217000    0.5849501   -7.6845078    818.22498  0.016169176  0.015185142         3999 
 4218000   0.57639405   -7.7068843    819.02631  0.016181174  0.015179604         4000 
 4219000   0.57814729   -7.6986066    818.20494  0.016161115  0.015174072         4000 
 4220000   0.56874948   -7.7230274    818.20248  0.016157237  0.015168539         3999 
 4221000    0.5717214   -7.6886024    817.80164  0.016145495  0.015163015         3999 
 4222000   0.57737297   -7.6893257    818.74964  0.016160383  0.015157485         3999 
 4223000   0.58020452   -7.6993829     818.4161  0.016149974  0.015151961         3997 
 4224000   0.57082762   -7.7024457    817.09405  0.016120069   0.01514644         4000 
 4225000   0.57956483   -7.7190254    818.18584  0.016137788  0.015140918         4000 
 4226000   0.57009702   -7.6774263    817.66963   0.01612379  0.015135404         3999 
 4227000   0.56150721   -7.7020115    820.27601  0.016171359  0.015129893         3999 
 4228000   0.57406733   -7.7149572    818.47761  0.016132088  0.015124386         3999 
 4229000   0.58183594   -7.7180261    818.61421  0.016130965  0.015118876         3999 
 4230000   0.57388497   -7.6982281      818.994  0.016134634  0.015113372         3998 
 4231000   0.57088867    -7.701364    817.70224  0.016105378  0.015107868         3997 
 4232000   0.57042263   -7.7027688    818.47129  0.016116716  0.015102366         4000 
 4233000   0.57884859   -7.6958718    819.20088  0.016127271  0.015096869         3999 
 4234000   0.58426948   -7.7000292    818.80602  0.016115691  0.015091374         4000 
 4235000    0.5790028   -7.6909142    818.22877  0.016100527  0.015085883         3999 
 4236000   0.58118839   -7.7093429    816.62225  0.016065121   0.01508039         3999 
 4237000   0.56978807   -7.6982539    817.96354   0.01608771  0.015074898         3999 
 4238000   0.58139425   -7.6926394    818.41234  0.016092739   0.01506941         3999 
 4239000   0.56542735   -7.7069121    819.28512  0.016106101  0.015063927         3999 
 4240000   0.56321502   -7.7102963    817.11555  0.016059661  0.015058448         4000 
 4241000   0.57425795   -7.7095912    817.78429  0.016069015  0.015052967         3999 
 4242000   0.57443738   -7.7098162    817.42697  0.016058207  0.015047494         3998 
 4243000   0.56581154   -7.7146843    817.60723  0.016057963  0.015042019         4000 
 4244000   0.58215925   -7.7008425    818.23806  0.016066566  0.015036547         3999 
 4245000   0.58468107   -7.7079157    816.97225  0.016037932  0.015031077         3999 
 4246000   0.57579812   -7.6967421     818.0046  0.016054416  0.015025605         4000 
 4247000   0.57101767   -7.6939542    817.95162  0.016049596  0.015020136         4000 
 4248000   0.59062451   -7.6909043    816.85397  0.016024285  0.015014676         4000 
 4249000   0.57573843   -7.7114283     817.0417  0.016024196  0.015009214         4000 
 4250000   0.58110515   -7.6925781    818.35828  0.016046241  0.015003759         4000 
 4251000   0.57195635   -7.7285487    817.57381  0.016027088  0.014998301         4000 
 4252000   0.57666583   -7.7104375    818.24259  0.016036426  0.014992848         3999 
 4253000   0.57531193   -7.6894331     818.6514  0.016040665  0.014987398         4000 
 4254000   0.57602662   -7.7208936    818.00158  0.016024165  0.014981952         3999 
 4255000   0.56881443   -7.7232956    818.00208  0.016020409  0.014976508         3998 
 4256000   0.56612752   -7.6902058    817.47212  0.016006268   0.01497107         3999 
 4257000   0.57164765   -7.7276481    819.65339  0.016045208  0.014965633         4000 
 4258000   0.56614963   -7.7052264    818.49467  0.016018762  0.014960197         3997 
 4259000   0.56233842   -7.7092953    818.62013  0.016017456  0.014954767         3999 
 4260000   0.56790953   -7.7247121    816.99191  0.015981845  0.014949336         4000 
 4261000   0.57558928   -7.7030746    818.43509  0.016006319  0.014943908         3999 
 4262000   0.58248692   -7.6908328    818.84211  0.016010521  0.014938485         4000 
 4263000   0.57200699   -7.7137342    818.55826  0.016001217  0.014933066         4000 
 4264000   0.57083981   -7.6931852    817.70199   0.01598073  0.014927647         4000 
 4265000   0.57363795   -7.7274068    817.80196  0.015978936  0.014922231         3998 
 4266000    0.5550184   -7.7169737    819.32426  0.016004928  0.014916816         4000 
 4267000   0.56794437   -7.7122957    818.52768   0.01598562  0.014911398         3999 
 4268000   0.56641366    -7.697567    817.88627  0.015969351   0.01490599         3999 
 4269000   0.56974125    -7.713148    817.99807  0.015967792  0.014900585         3998 
 4270000   0.57799114    -7.701189    817.53408  0.015954998   0.01489518         4000 
 4271000   0.55845793   -7.7262847      818.347  0.015967123  0.014889779         4000 
 4272000   0.57221974    -7.726002    819.32744  0.015982511   0.01488438         3999 
 4273000   0.56306385   -7.7177604    818.41364  0.015960949  0.014878985         3999 
 4274000    0.5562748   -7.7093924    818.55146  0.015959902  0.014873593         3999 
 4275000   0.57574311   -7.7153755    817.31369  0.015932041  0.014868203         4000 
 4276000   0.56770766   -7.7105782    818.18951  0.015945383  0.014862814         3998 
 4277000   0.56282363   -7.7163916    818.00398   0.01593804  0.014857428         3999 
 4278000   0.57151331   -7.7035365    817.81859  0.015930703  0.014852041         4000 
 4279000   0.56660042   -7.7289059    818.23577  0.015935105  0.014846658         3999 
 4280000    0.5641391   -7.7054311    817.94137   0.01592565  0.014841281         3998 
 4281000   0.57197142   -7.7111634    817.56289  0.015914562  0.014835906         3997 
 4282000    0.5721091   -7.7145174    818.47541  0.015928605  0.014830534         4000 
 4283000   0.57104671   -7.7194823    817.77662  0.015911289  0.014825161         3998 
 4284000   0.57235874   -7.6976288    816.79696  0.015888518   0.01481979         4000 
 4285000   0.57881344   -7.7224975    818.20309  0.015912157  0.014814421         3998 
 4286000   0.58141477   -7.7090267    817.65022  0.015897694  0.014809056         3998 
 4287000   0.55495971   -7.7173467    818.66803  0.015913771  0.014803691         3999 
 4288000   0.56530659   -7.7142468    818.35536  0.015903983  0.014798332         3998 
 4289000   0.56433291   -7.7020035    818.48523  0.015902799   0.01479297         4000 
 4290000   0.55564055   -7.7244945    818.08076  0.015891235  0.014787617         4000 
 4291000   0.56018001   -7.7237861    818.69646  0.015899489  0.014782266         3999 
 4292000   0.57862573   -7.6977599    818.03737  0.015882987  0.014776916         3999 
 4293000   0.56539882   -7.7052798     817.9084  0.015876784  0.014771572         3999 
 4294000   0.56524842   -7.7133317    815.80412  0.015832249  0.014766225         4000 
 4295000   0.56984182   -7.7116872    818.83765   0.01588742  0.014760882         3998 
 4296000   0.57014021   -7.7221556    819.37563  0.015894158  0.014755542         3997 
 4297000   0.57687404   -7.7079093    818.12061   0.01586612  0.014750207         3999 
 4298000   0.57030616    -7.723215    820.12151  0.015901224  0.014744877         3999 
 4299000   0.57285033   -7.7195009    817.26611  0.015842175  0.014739551         4000 
 4300000   0.56975013   -7.7218096    818.83793  0.015868952  0.014734222         3999 
 4301000   0.55345273   -7.7208932    818.38187  0.015856426  0.014728894         3999 
 4302000   0.56917624   -7.7041502    819.09855  0.015866623  0.014723573         3999 
 4303000   0.57066475   -7.7258211    819.56962  0.015872059  0.014718252         4000 
 4304000   0.56404977   -7.7109503    817.86982   0.01583546  0.014712928         3998 
 4305000   0.56492018   -7.7169015    816.10852  0.015797687  0.014707608         3999 
 4306000    0.5737873   -7.7138432     818.8071  0.015846244  0.014702288         4000 
 4307000    0.5646637   -7.7066335    817.84654  0.015823979  0.014696974         3998 
 4308000   0.56008299   -7.7229676    817.89296  0.015821204  0.014691664         4000 
 4309000   0.56625181   -7.7194408    816.79079  0.015796217  0.014686356         3999 
 4310000   0.56129493   -7.7177822    818.66964  0.015828879  0.014681047         3999 
 4311000   0.56868526   -7.7217212     817.3404  0.015799513  0.014675744         4000 
 4312000   0.55724838   -7.7068824    817.08999  0.015791009  0.014670441         3999 
 4313000   0.55432269   -7.7170067     817.1769  0.015789027  0.014665144         4000 
 4314000   0.56500636   -7.7253436    818.29733  0.015807011  0.014659849         4000 
 4315000   0.56417571   -7.7182859    818.55594  0.015808342  0.014654554         4000 
 4316000   0.55418378   -7.7298478    817.18001  0.015778113   0.01464926         4000 
 4317000   0.55825132   -7.7206631    818.84593  0.015806616  0.014643972         4000 
 4318000   0.57031737   -7.7109685    819.28892  0.015811505  0.014638688         4000 
 4319000   0.56498303   -7.7074979    818.63343  0.015795196  0.014633405         3996 
 4320000   0.56274972   -7.7018069    818.44368   0.01578788  0.014628122         3999 
 4321000   0.55541156   -7.7168734    818.24829  0.015780458  0.014622842         4000 
 4322000   0.55263123    -7.714346     817.5693  0.015763715  0.014617565         4000 
 4323000   0.56916191   -7.7370855    817.24895  0.015753893  0.014612288         3999 
 4324000   0.55499014   -7.7325977    818.63915  0.015777042  0.014607013         4000 
 4325000   0.56386196   -7.7193359    816.94972  0.015740842  0.014601745         4000 
 4326000   0.55609765   -7.7215659    818.13675   0.01576007  0.014596473         3997 
 4327000   0.54979615   -7.7102744    817.87814  0.015751447  0.014591213         4000 
 4328000   0.56783838   -7.7134879    816.41923  0.015719717  0.014585947         3999 
 4329000   0.56101342   -7.7208223    818.62273  0.015758503  0.014580684         4000 
 4330000   0.55727675    -7.724711    817.61011  0.015735375  0.014575423         4000 
 4331000   0.55296169   -7.7222075    819.49007  0.015767915  0.014570168         3997 
 4332000   0.56024306   -7.7301373     817.5955   0.01572783  0.014564916         3999 
 4333000   0.55966136   -7.7247915    817.85638  0.015729217  0.014559664         3997 
 4334000   0.55202346   -7.7183624    818.26112   0.01573337  0.014554413         4000 
 4335000   0.55551285   -7.7358913    817.91076  0.015723006  0.014549168         4000 
 4336000   0.55177045   -7.7184146     818.8026   0.01573652  0.014543923         4000 
 4337000   0.55018919    -7.711844    817.94019  0.015716321  0.014538677         4000 
 4338000   0.56444414    -7.724021    818.02388  0.015714305  0.014533437         4000 
 4339000   0.55958883   -7.7060284    816.65621  0.015684417  0.014528198         4000 
 4340000   0.57036187   -7.7240691     816.4749  0.015677322  0.014522964         4000 
 4341000   0.56217104   -7.7264734     817.3688   0.01569087  0.014517727         4000 
 4342000   0.56345851   -7.7314097    816.27751  0.015666312  0.014512489         4000 
 4343000   0.55402509   -7.7136523    817.57867  0.015687671  0.014507258         3999 
 4344000   0.55535877   -7.7368978    818.21363  0.015696241  0.014502029         3999 
 4345000   0.56541423   -7.7259173     816.3343  0.015656584  0.014496798         4000 
 4346000   0.54912241    -7.712079    818.78478  0.015699969  0.014491572         3999 
 4347000   0.55709246   -7.7205894    818.06545  0.015682568  0.014486348         4000 
 4348000   0.55893467   -7.7242088    816.94582  0.015657502   0.01448113         4000 
 4349000   0.55921988   -7.7292227    818.61859  0.015685954  0.014475907         3999 
 4350000   0.55127148   -7.7184573    817.02509  0.015651822  0.014470687         4000 
 4351000   0.55865312   -7.7343444     819.2185  0.015690234  0.014465474         4000 
 4352000   0.54613503    -7.714305    816.83666  0.015641021  0.014460262         4000 
 4353000   0.56032313   -7.7365303    817.74058  0.015654732  0.014455055         3998 
 4354000   0.55062559   -7.7348831    818.41144  0.015663976  0.014449849         3999 
 4355000   0.56436929   -7.7367633     817.4126  0.015641267  0.014444649         4000 
 4356000   0.54921819   -7.7212757     815.9016   0.01560877  0.014439446         4000 
 4357000   0.55754811   -7.7207142    818.23019  0.015649724  0.014434247         4000 
 4358000   0.55494481   -7.7222764    817.20635  0.015626556  0.014429052         4000 
 4359000   0.55525864   -7.7371767    817.07202  0.015620403  0.014423859         3999 
 4360000   0.54468683   -7.7214343    816.79423   0.01561151   0.01441867         4000 
 4361000   0.53727709   -7.7265713    818.04705   0.01563187  0.014413482         3999 
 4362000   0.54683948   -7.7381561    817.54988  0.015618789  0.014408301         4000 
 4363000   0.56298986   -7.7234815    817.77967  0.015619598  0.014403123         4000 
 4364000   0.55593435   -7.7269174    817.31491  0.015607144  0.014397944         4000 
 4365000    0.5361227   -7.7311077    817.94965  0.015615686  0.014392767         3999 
 4366000   0.55498709   -7.7321182    818.29264  0.015618656  0.014387589         4000 
 4367000   0.54614221   -7.7357516    817.14526  0.015593185  0.014382414         3998 
 4368000   0.56180588   -7.7428668    817.20717  0.015590796  0.014377245         4000 
 4369000    0.5491803   -7.7150733    815.23705   0.01554965  0.014372081         3997 
 4370000    0.5536797   -7.7299652    818.11027  0.015600882  0.014366918         3999 
 4371000   0.54368332    -7.726661    818.38077   0.01560247  0.014361755         4000 
 4372000   0.55455569    -7.739613    817.02831  0.015573123  0.014356593         3999 
 4373000   0.55279645   -7.7528059       817.14   0.01557169  0.014351435         4000 
 4374000   0.54997095   -7.7362046    817.94658  0.015583497  0.014346279         4000 
 4375000   0.56498469   -7.7198264    818.39508  0.015588478  0.014341131         3999 
 4376000   0.55438591   -7.7206632     815.7239  0.015534047  0.014335982         4000 
 4377000   0.55795331   -7.7409253    816.86431  0.015552211  0.014330836         3999 
 4378000   0.54893736   -7.7369545     818.3662  0.015577246  0.014325688         3999 
 4379000   0.54085098   -7.7287301    817.32359  0.015553848  0.014320549         3999 
 4380000   0.55261941   -7.7353876    818.51931  0.015573046  0.014315412         4000 
 4381000    0.5580024   -7.7214695    816.58088   0.01553262  0.014310275         3998 
 4382000   0.55785173    -7.740566    817.40103  0.015544672  0.014305138         4000 
 4383000   0.53863111   -7.7254598    818.09296  0.015554281  0.014300004         3998 
 4384000   0.55356664   -7.7128461    817.42598  0.015538055  0.014294872         3999 
 4385000   0.56620227    -7.738922    817.92687   0.01554403  0.014289742         4000 
 4386000   0.55788704   -7.7409989     816.7289  0.015517725  0.014284616         4000 
 4387000   0.54477113   -7.7267548    816.96245  0.015518624  0.014279491         4000 
 4388000    0.5536329    -7.726653    816.49445    0.0155062  0.014274371         4000 
 4389000   0.55080558   -7.7326821      818.912  0.015548568  0.014269251         3999 
 4390000   0.54233859   -7.7260411    817.14966  0.015511573  0.014264134         4000 
 4391000   0.53939626   -7.7355981    818.50534  0.015533769  0.014259022         4000 
 4392000   0.55992047   -7.7288894    816.26059   0.01548764  0.014253909         3999 
 4393000   0.56075557   -7.7410711    817.08496  0.015499753  0.014248799         4000 
 4394000   0.54632634   -7.7304334    817.19842  0.015498377  0.014243688         4000 
 4395000   0.54823749   -7.7383178    818.52785  0.015520058  0.014238584         3999 
 4396000   0.55445645   -7.7144379    817.60648  0.015499061  0.014233479         4000 
 4397000   0.54968908   -7.7610643    817.32102  0.015490126  0.014228381         4000 
 4398000   0.54399141   -7.7388482    817.13484  0.015483076  0.014223282         4000 
 4399000    0.5546845   -7.7395139    817.53673   0.01548717  0.014218186         4000 
 4400000   0.55205665   -7.7332151    817.08947  0.015475179  0.014213087         4000 
 4401000   0.55020762   -7.7461618    816.84776  0.015467086  0.014207994         4000 
 4402000   0.53964669   -7.7333112    816.52263  0.015457418  0.014202907         3998 
 4403000   0.53362027   -7.7445153    817.05116   0.01546391   0.01419782         3998 
 4404000   0.53953965   -7.7257146       816.34  0.015446942  0.014192734         3998 
 4405000   0.54476238   -7.7456947    816.28751  0.015442442  0.014187649         3999 
 4406000   0.55447187   -7.7397878    817.81578  0.015467843  0.014182573         4000 
 4407000   0.54951458   -7.7350151    816.97396  0.015448415  0.014177491         4000 
 4408000   0.54436589   -7.7411562    815.44687   0.01541604  0.014172417         4000 
 4409000   0.54508458   -7.7248593    817.44095  0.015450233  0.014167347         3999 
 4410000   0.54329678    -7.747225    817.62637  0.015450234  0.014162276         4000 
 4411000   0.54864707   -7.7341309    817.06767  0.015436176  0.014157207         3999 
 4412000   0.55220649   -7.7293988    815.91284  0.015410865  0.014152138         3998 
 4413000   0.54878759   -7.7500796    817.63128  0.015439823  0.014147073         3999 
 4414000   0.54249332    -7.729033    817.07593  0.015425841  0.014142006         4000 
 4415000   0.55488943   -7.7286225     816.0929  0.015403792  0.014136939         3998 
 4416000   0.55314074   -7.7549462    816.27344  0.015403711  0.014131877         4000 
 4417000   0.54505641   -7.7370523    816.51738  0.015404826   0.01412682         4000 
 4418000   0.54090623   -7.7350016    816.09489   0.01539337  0.014121767         4000 
 4419000    0.5539371   -7.7376592    817.03599  0.015407634  0.014116716         4000 
 4420000   0.55102543   -7.7402366       816.26  0.015389517  0.014111661         4000 
 4421000   0.54978047   -7.7431328    817.00582  0.015400095  0.014106608         4000 
 4422000   0.53656432   -7.7368369    816.02757  0.015378177  0.014101558         3999 
 4423000   0.54097996   -7.7300893    816.26685  0.015379208  0.014096511         4000 
 4424000   0.55111452   -7.7358127    816.60157  0.015382037  0.014091469         3999 
 4425000   0.53790691   -7.7498799    816.71109  0.015380623   0.01408643         3999 
 4426000   0.53919982   -7.7460428    816.75323  0.015377941  0.014081396         4000 
 4427000    0.5421602   -7.7359992     817.7114  0.015392504  0.014076364         4000 
 4428000   0.53017299   -7.7477854    817.62068  0.015387321  0.014071335         3998 
 4429000   0.55376756    -7.743905    817.39836  0.015379664    0.0140663         4000 
 4430000   0.54969145   -7.7230027    816.33663   0.01535622  0.014061273         3999 
 4431000   0.55289148   -7.7518842    816.46342  0.015355138  0.014056245         4000 
 4432000   0.54016782   -7.7554927    816.71574  0.015356418   0.01405122         3999 
 4433000   0.54174365   -7.7533967    817.67157  0.015370922  0.014046201         3999 
 4434000   0.54633607   -7.7375289    817.14678  0.015357592  0.014041187         4000 
 4435000   0.54141103   -7.7403669    816.96054   0.01535063  0.014036176         3999 
 4436000   0.53799285   -7.7327428    817.46038   0.01535656  0.014031165         3999 
 4437000   0.53245473   -7.7436931    817.23107  0.015348792   0.01402616         3999 
 4438000   0.54789833     -7.74444    816.96249   0.01534029  0.014021153         4000 
 4439000   0.54339833   -7.7462175    817.48265  0.015346599  0.014016154         3998 
 4440000   0.54189368   -7.7427496    815.91875   0.01531379   0.01401115         3998 
 4441000   0.53333929   -7.7579016    817.27923  0.015335871  0.014006152         4000 
 4442000   0.53691153   -7.7327862    816.28267  0.015313723  0.014001156         3999 
 4443000   0.54770304   -7.7609247    817.43518  0.015331892  0.013996162         4000 
 4444000   0.53949219   -7.7394873      816.029  0.015302074  0.013991172         3999 
 4445000   0.53168392   -7.7454534    816.31804   0.01530405  0.013986181         3999 
 4446000   0.54314706   -7.7446607    815.74282  0.015289826  0.013981191         3999 
 4447000   0.54445121   -7.7732233    817.48316  0.015319001  0.013976205         4000 
 4448000   0.54328596   -7.7510758    816.56487  0.015298353  0.013971222         3998 
 4449000   0.53667576   -7.7394323    816.35348  0.015290955   0.01396624         3999 
 4450000   0.54877862   -7.7333747     817.6996  0.015312727  0.013961264         3999 
 4451000   0.54663349   -7.7540125    816.24999  0.015282146  0.013956288         3997 
 4452000   0.53050118   -7.7442051    817.75698  0.015306922  0.013951313         3996 
 4453000   0.54298521   -7.7364245    817.14458  0.015292024  0.013946335         3999 
 4454000   0.54092927   -7.7421965    815.92818  0.015265832  0.013941362         3999 
 4455000   0.54441964    -7.758736    816.69175  0.015276688   0.01393639         3998 
 4456000   0.53344313   -7.7385757    817.19748  0.015282718  0.013931422         3997 
 4457000   0.53831218   -7.7385594    815.08344  0.015239762   0.01392646         3999 
 4458000     0.538414   -7.7389181    816.51097  0.015263028  0.013921495         3998 
 4459000    0.5382578      -7.7698    816.30169  0.015255694  0.013916534         3999 
 4460000   0.54633184   -7.7556685    816.99292  0.015265189  0.013911573         4000 
 4461000   0.54312334   -7.7553295    816.70697  0.015256426  0.013906621         3999 
 4462000   0.53420048   -7.7337653    815.14088  0.015223758  0.013901671         4000 
 4463000   0.53522925   -7.7669929    817.67939  0.015267746  0.013896724         3998 
 4464000   0.52706415   -7.7402144     815.7545  0.015228392  0.013891777         4000 
 4465000   0.53825075   -7.7426227     816.2183  0.015233638  0.013886831         3998 
 4466000   0.53440256   -7.7449594    816.10675  0.015228145  0.013881886         4000 
 4467000   0.53181381   -7.7360922    817.03645   0.01524208  0.013876948         4000 
 4468000   0.54078847   -7.7340057    815.35144  0.015207241   0.01387201         4000 
 4469000   0.53926636   -7.7472504    816.74578  0.015229838  0.013867077         3999 
 4470000   0.54428315   -7.7489111    816.40605  0.015220098  0.013862144         4000 
 4471000   0.53671151   -7.7436166    816.49144  0.015218285  0.013857214         3999 
 4472000   0.53497843   -7.7479907    816.83271  0.015221242  0.013852288         4000 
 4473000   0.53428246   -7.7570865    817.53563  0.015230934  0.013847358         4000 
 4474000   0.54532905   -7.7422279    816.48812  0.015208019  0.013842434         4000 
 4475000   0.53826553   -7.7430069    816.80209  0.015210467  0.013837514         3999 
 4476000   0.54596838   -7.7491586    815.42415  0.015181415  0.013832595         4000 
 4477000   0.53649616   -7.7599893    816.07498  0.015190138  0.013827678         4000 
 4478000   0.54187406   -7.7549945    815.91921  0.015183847  0.013822764         4000 
 4479000   0.52841734   -7.7572356    817.04173  0.015201342  0.013817854         4000 
 4480000   0.52429665   -7.7425287    816.73744  0.015192289  0.013812946         3997 
 4481000   0.53677446   -7.7557527    815.95864  0.015174415  0.013808039         4000 
 4482000    0.5302295    -7.749609    816.06509  0.015173009  0.013803132         3999 
 4483000   0.52672059   -7.7540068    816.82564  0.015183762  0.013798229         4000 
 4484000   0.53959826   -7.7238888    817.63402  0.015195399  0.013793329         4000 
 4485000   0.53835526   -7.7678071    816.11183  0.015163728   0.01378843         3999 
 4486000   0.53239446   -7.7503452    817.59186  0.015187841  0.013783533         3999 
 4487000   0.53478357   -7.7573631    817.61751  0.015184933  0.013778636         3999 
 4488000   0.52639285   -7.7620806    817.11423  0.015172204  0.013773742         4000 
 4489000   0.53561868   -7.7398296    815.64173  0.015141489  0.013768856         3997 
 4490000    0.5406074   -7.7620259    816.81913  0.015159969  0.013763965         3999 
 4491000   0.53645885   -7.7610628    815.01055  0.015123034  0.013759081         3999 
 4492000   0.53793307   -7.7543767    815.41512  0.015127173  0.013754198         4000 
 4493000   0.52390193   -7.7455667    815.77962  0.015130567  0.013749314         3999 
 4494000   0.53130784   -7.7496153    816.73086  0.015144839  0.013744434         3999 
 4495000   0.53861241   -7.7555468    816.24706    0.0151325  0.013739557         3999 
 4496000   0.53847824   -7.7492416    815.44441  0.015114257  0.013734685         4000 
 4497000   0.52680316   -7.7520918    815.58906  0.015113577  0.013729811         4000 
 4498000    0.5217986   -7.7640954    816.73988  0.015131538  0.013724942         3998 
 4499000   0.51561663    -7.741531    815.27568  0.015101054   0.01372007         3998 
 4500000   0.52637054   -7.7390422    817.56535  0.015140099  0.013715202         4000 
 4501000   0.53370607   -7.7526997    816.31069  0.015113506   0.01371034         4000 
 4502000    0.5340901   -7.7557486    814.74742  0.015081212  0.013705479         3999 
 4503000   0.53402677    -7.739251    815.74984  0.015096414  0.013700618         4000 
 4504000   0.54228459   -7.7825384    816.99928   0.01511618  0.013695759         4000 
 4505000   0.52949881   -7.7458653     817.6013   0.01512396    0.0136909         3999 
 4506000   0.52173076   -7.7574235    815.37165  0.015079369  0.013686048         4000 
 4507000   0.53175392   -7.7526959    816.15827  0.015090568  0.013681195         3998 
 4508000   0.52834993   -7.7618528      816.362  0.015090986  0.013676344         3999 
 4509000   0.53786851   -7.7523978    816.86806  0.015096992  0.013671497         3999 
 4510000   0.53446831   -7.7555619    815.89948  0.015075748  0.013666654         3999 
 4511000    0.5335016   -7.7645295    815.52064  0.015065407  0.013661814         3999 
 4512000   0.52578032   -7.7615093    816.88969  0.015087354  0.013656977         4000 
 4513000   0.52957563   -7.7628934    816.33059  0.015073687  0.013652141         3999 
 4514000    0.5302981   -7.7480312    816.18807  0.015067717  0.013647303         3999 
 4515000   0.52131941   -7.7344692    815.64972  0.015054443  0.013642468         3999 
 4516000   0.53321636   -7.7707444    816.33091  0.015063679  0.013637638         3998 
 4517000   0.52064459   -7.7483657    816.42432  0.015062068  0.013632806         3999 
 4518000   0.52739265    -7.753391    815.53025  0.015042243  0.013627978         3997 
 4519000   0.53427219   -7.7539538    816.43664  0.015055629  0.013623152         3999 
 4520000   0.53234796   -7.7516762    815.85309  0.015041539  0.013618329         3999 
 4521000   0.53993171    -7.768856    816.77002  0.015055114  0.013613507         4000 
 4522000   0.53364424   -7.7510662    816.47053  0.015046265  0.013608689         4000 
 4523000   0.53579703   -7.7587707    815.86465  0.015031776  0.013603873         3999 
 4524000   0.52852983   -7.7607928     816.2456   0.01503547   0.01359906         4000 
 4525000   0.53803384   -7.7563829    815.95662  0.015026825  0.013594248         3999 
 4526000   0.52693124    -7.772566    816.36778  0.015031076  0.013589435         3999 
 4527000   0.53350998   -7.7508041    816.71272  0.015034105  0.013584627         4000 
 4528000   0.52503794   -7.7704553    816.48201  0.015026539  0.013579819         3999 
 4529000   0.51180546   -7.7583261    815.97434   0.01501388  0.013575013         3999 
 4530000   0.52191957   -7.7464335    816.21634  0.015015017  0.013570215         4000 
 4531000    0.5221351   -7.7705342    815.86037  0.015005156  0.013565415         4000 
 4532000   0.51289732   -7.7658525    816.38535  0.015011499  0.013560617         4000 
 4533000   0.53164348   -7.7450902     815.4101  0.014990258  0.013555826         4000 
 4534000   0.52935429   -7.7529172    816.83858  0.015013207  0.013551036         4000 
 4535000   0.52151482   -7.7619196    815.79854  0.014990785  0.013546249         4000 
 4536000    0.5218608   -7.7784004    816.18584  0.014994596  0.013541461         4000 
 4537000   0.51617707    -7.753265    816.50395  0.014997134  0.013536677         4000 
 4538000   0.53442599   -7.7578801    817.02378  0.015003375  0.013531897         4000 
 4539000   0.52305016   -7.7540507    814.98129  0.014962571  0.013527115         4000 
 4540000   0.52434164   -7.7698283    815.65737  0.014971685  0.013522337         3999 
 4541000   0.53157024   -7.7484682    816.04898  0.014975574  0.013517562         4000 
 4542000   0.51770741    -7.769012    817.57041  0.015000191  0.013512785         4000 
 4543000   0.52771887    -7.761553    817.08189  0.014987928  0.013508013         3999 
 4544000   0.52499423    -7.768841    816.11978  0.014966985  0.013503242         4000 
 4545000    0.5381405   -7.7638006    815.33401  0.014949285  0.013498472         3999 
 4546000   0.52363177   -7.7679391    815.56423  0.014950217  0.013493707         3999 
 4547000   0.52293937   -7.7667397    815.94235  0.014953859  0.013488944         4000 
 4548000   0.51557219   -7.7644854     816.3762   0.01495852  0.013484181         3999 
 4549000    0.5213067   -7.7702718    816.80727  0.014963129  0.013479422         4000 
 4550000   0.52384601   -7.7579879     816.5194  0.014954568  0.013474663         4000 
 4551000   0.51195447   -7.7637854    815.16439   0.01492647  0.013469907         3999 
 4552000   0.52111815   -7.7791668    817.04993   0.01495771  0.013465151         3998 
 4553000   0.52492762   -7.7665691     815.6754  0.014929266    0.0134604         4000 
 4554000   0.52655783   -7.7694437    814.80318  0.014910027  0.013455649         4000 
 4555000    0.5309693   -7.7629405    815.70604  0.014923272  0.013450902         3999 
 4556000   0.52889177   -7.7705868    817.36817  0.014950398  0.013446156         4000 
 4557000   0.52468631   -7.7637472    816.07952  0.014923552  0.013441412         3999 
 4558000   0.52160793   -7.7553066    814.98105  0.014900195  0.013436669         3999 
 4559000   0.53256589   -7.7540049    814.79405  0.014893508   0.01343193         3999 
 4560000   0.51815287   -7.7688032    816.29447  0.014917662  0.013427192         4000 
 4561000    0.5284518   -7.7720387    815.63501  0.014902342  0.013422458         4000 
 4562000   0.52674957   -7.7736429    816.93226  0.014922773  0.013417723         4000 
 4563000   0.52195999   -7.7668924     816.1775  0.014905718  0.013412992         4000 
 4564000   0.51885512   -7.7753776    815.34665  0.014887282  0.013408263         4000 
 4565000   0.51813342    -7.758272    815.26197  0.014882475  0.013403536         4000 
 4566000   0.52779211   -7.7656518    817.18371  0.014914289  0.013398817         4000 
 4567000   0.52466505   -7.7596628    813.52822  0.014844322  0.013394094         4000 
 4568000   0.52684307   -7.7821676    815.58327  0.014878562  0.013389373         3999 
 4569000   0.51553573   -7.7671218    816.50065  0.014892038  0.013384659         3999 
 4570000   0.52665076   -7.7699594    815.40482  0.014868797  0.013379942         4000 
 4571000   0.51487586   -7.7626826    814.48215  0.014848723  0.013375227         4000 
 4572000   0.51935267   -7.7634728    815.80099  0.014869513  0.013370513         4000 
 4573000   0.53811115   -7.7525933    816.12722  0.014872207  0.013365804         4000 
 4574000   0.51837534   -7.7650989    816.47602   0.01487531  0.013361098         3999 
 4575000   0.52173621   -7.7684798    816.27898   0.01486847  0.013356391         4000 
 4576000   0.52761409    -7.770094    814.76369  0.014837625  0.013351688         4000 
 4577000   0.51485598   -7.7743995    815.39209  0.014845825  0.013346987         3999 
 4578000   0.51420703   -7.7853601    816.30219  0.014859149  0.013342288         4000 
 4579000   0.51031429   -7.7780942    814.78158   0.01482823  0.013337588         4000 
 4580000   0.50821615   -7.7690391     815.5823  0.014839561  0.013332894         4000 
 4581000   0.52002755    -7.769974    815.59215  0.014836501  0.013328203         4000 
 4582000   0.52499313   -7.7835966    815.17553  0.014825686  0.013323511         4000 
 4583000   0.52207206   -7.7753672    815.22687  0.014823385  0.013318826         4000 
 4584000   0.51393833   -7.7659061    815.08139  0.014817506  0.013314136         3999 
 4585000   0.49825154   -7.7590665     814.9556  0.014811988   0.01330945         4000 
 4586000   0.49914685    -7.777798     815.6549  0.014821466  0.013304769         4000 
 4587000   0.51869069   -7.7649779    814.53958  0.014797972  0.013300091         4000 
 4588000   0.52787312   -7.7893705    817.01838   0.01483977  0.013295416         4000 
 4589000   0.51502871   -7.7643092    815.52859  0.014809483  0.013290743         4000 
 4590000   0.52818077   -7.7636321    815.56379  0.014806895  0.013286072         4000 
 4591000   0.50843806   -7.7738431    816.09051  0.014813231  0.013281403         4000 
 4592000   0.52162808   -7.7652702    816.33765   0.01481449  0.013276734         4000 
 4593000   0.51880417     -7.76525    815.06709  0.014788212  0.013272067         4000 
 4594000    0.5063774   -7.7622672    815.14456  0.014786398  0.013267403         4000 
 4595000   0.52412052   -7.7638169    815.20086  0.014784201  0.013262743         3999 
 4596000   0.51748149   -7.7768854    816.12391  0.014797721  0.013258082         3999 
 4597000   0.50851558   -7.7729405    817.05776  0.014811431   0.01325342         3998 
 4598000   0.51637324   -7.7732012    815.46987  0.014779431  0.013248767         4000 
 4599000   0.51988484   -7.7848224    815.43608  0.014775605  0.013244113         4000 
 4600000   0.51474861   -7.7741504    816.32998  0.014788587  0.013239466         4000 
 4601000   0.51897206   -7.7805367    815.73077  0.014774519  0.013234814         4000 
 4602000   0.51937138   -7.7820952    814.76078  0.014753744  0.013230164         3999 
 4603000    0.5115071   -7.7852334    815.49421  0.014763817  0.013225518         4000 
 4604000   0.50833486   -7.7891952    816.54255  0.014779586  0.013220875         4000 
 4605000   0.52138089     -7.76755    815.09668  0.014750211  0.013216233         3999 
 4606000   0.52132421   -7.7788392    816.03978  0.014764072  0.013211592         4000 
 4607000   0.50386322   -7.7777767    815.98695  0.014759912  0.013206953         4000 
 4608000   0.51433953   -7.7796666    816.26852    0.0147618  0.013202319         4000 
 4609000   0.51378711   -7.7878205    815.51283  0.014744934  0.013197687         4000 
 4610000   0.51890195   -7.7753737    815.53191  0.014742081  0.013193058         4000 
 4611000   0.51757327   -7.7831918    814.99894  0.014729251   0.01318843         4000 
 4612000   0.52100347    -7.781764    815.33872  0.014732197  0.013183807         4000 
 4613000   0.52064105    -7.782554    817.28861  0.014764228  0.013179183         3999 
 4614000   0.50872597   -7.7714897    816.41943   0.01474533  0.013174563         4000 
 4615000   0.51860383   -7.7826786     815.2462   0.01472095  0.013169943         3999 
 4616000   0.51256261   -7.7887193    815.05314  0.014714275  0.013165325         4000 
 4617000   0.49533059   -7.7721656    815.55885  0.014720216  0.013160712         4000 
 4618000    0.5112235   -7.7839601    815.08688  0.014708512  0.013156101         4000 
 4619000   0.51093338   -7.7753235    814.56161  0.014695851  0.013151489         4000 
 4620000   0.50839076   -7.7781686    815.43263  0.014708381  0.013146881         4000 
 4621000   0.51304757   -7.7807018    815.37561   0.01470417  0.013142273         3998 
 4622000    0.5219059   -7.7904573    814.45648  0.014684417  0.013137672         3999 
 4623000   0.52417039   -7.7643978    815.03719  0.014691708   0.01313307         4000 
 4624000   0.50523886   -7.7781531    814.50872  0.014679007   0.01312847         4000 
 4625000   0.51089502   -7.7911443    816.13462  0.014705128  0.013123872         4000 
 4626000   0.51088576   -7.7852662    814.71945  0.014676456  0.013119274         4000 
 4627000   0.50110889   -7.7675083    814.62269  0.014671542  0.013114682         3999 
 4628000   0.50771989   -7.7879994    814.57772  0.014667562   0.01311009         3999 
 4629000    0.5134651   -7.7928225    815.56061  0.014682088  0.013105503         4000 
 4630000    0.5005092   -7.7893202    814.85306  0.014666182  0.013100914         4000 
 4631000   0.51501468   -7.7915164    813.80864  0.014644221  0.013096329         3999 
 4632000   0.50683412   -7.7905733    816.23572  0.014684724  0.013091748         4000 
 4633000   0.51023992    -7.783148    815.84654  0.014674555  0.013087165         4000 
 4634000   0.51079321   -7.7861085    815.34353  0.014662342  0.013082584         4000 
 4635000   0.49723485   -7.7882088    815.62914  0.014664314  0.013078009         3999 
 4636000   0.50649667   -7.7772857    813.98575   0.01463161  0.013073435         3999 
 4637000   0.51283655   -7.7842458    815.56112  0.014656767  0.013068865         4000 
 4638000   0.49746313    -7.783827    814.90933  0.014641895  0.013064294         3998 
 4639000   0.50104639   -7.7771723     814.4759  0.014630953  0.013059726         4000 
 4640000   0.50777039   -7.7724178    814.10171   0.01462108  0.013055163         4000 
 4641000   0.50547606    -7.781083      814.399  0.014623267  0.013050598         4000 
 4642000   0.49752112   -7.7826769    815.39794   0.01463805  0.013046038         4000 
 4643000   0.52208201   -7.7790936     816.1964  0.014649228  0.013041479         4000 
 4644000   0.51472801   -7.7755065    815.43282  0.014632372  0.013036923         4000 
 4645000   0.50656744   -7.7724136      814.508   0.01461263  0.013032368         4000 
 4646000   0.50963532   -7.7861575    815.20101  0.014621915  0.013027819         3999 
 4647000   0.49790174   -7.7761968    815.34905  0.014621423  0.013023267         3999 
 4648000   0.50863338   -7.7893777    814.86025  0.014609514  0.013018718         4000 
 4649000   0.51265637   -7.7831156    817.04734  0.014645575  0.013014173         4000 
 4650000   0.51463607   -7.7842175    814.06013  0.014588891  0.013009632         3998 
 4651000   0.50298306   -7.7901693     815.5818  0.014613019  0.013005087         3999 
 4652000   0.50658651   -7.7989136    815.04167  0.014600202  0.013000545         4000 
 4653000   0.50024045   -7.7966188    815.51711  0.014605579  0.012996007         4000 
 4654000   0.50148404    -7.790951      815.035  0.014593808  0.012991473         4000 
 4655000   0.51538158   -7.7960103    814.32235  0.014577915  0.012986939         3999 
 4656000   0.50439635   -7.7970826    815.14572  0.014589521   0.01298241         3999 
 4657000   0.51219516   -7.7836104    814.62689  0.014577104  0.012977882         4000 
 4658000   0.50059371   -7.7870271    814.84515  0.014577879  0.012973355         3999 
 4659000   0.51337379   -7.7782054    814.78293  0.014573638  0.012968831         4000 
 4660000   0.50938016   -7.7846639    815.67064  0.014586385  0.012964308         4000 
 4661000   0.50208134   -7.7927437     814.8409  0.014568421   0.01295979         3999 
 4662000   0.50109468   -7.7882454    815.28341  0.014573205  0.012955272         3999 
 4663000   0.49938382   -7.7676248    814.20556  0.014550818  0.012950752         3999 
 4664000   0.48938472   -7.7865229    816.18037  0.014582983  0.012946236         4000 
 4665000   0.49776235   -7.7898512    815.56943  0.014568943  0.012941724         4000 
 4666000    0.5121226   -7.7819216    814.73565   0.01455093  0.012937213         3998 
 4667000   0.51652919   -7.7837834    815.35079  0.014558796  0.012932706         4000 
 4668000   0.50867662   -7.8024547    815.81507  0.014563965  0.012928197         4000 
 4669000   0.49408084   -7.7918151    813.92389  0.014527092  0.012923691         4000 
 4670000   0.50750987   -7.7873823    815.52474  0.014552547  0.012919189         3999 
 4671000   0.49501232   -7.7841733    814.32038  0.014527945   0.01291469         4000 
 4672000   0.49105625   -7.7818202    816.15939  0.014557638  0.012910193         4000 
 4673000   0.50679487   -7.7869761    814.58821  0.014526503  0.012905699         4000 
 4674000   0.51088804   -7.8011177    815.22821  0.014534806  0.012901205         4000 
 4675000   0.50851013   -7.7714042    814.76531  0.014523446  0.012896716         3999 
 4676000   0.50519971    -7.800238    815.79958  0.014538772  0.012892228         4000 
 4677000   0.48681855   -7.8012447    815.06159  0.014522514  0.012887737         3999 
 4678000   0.51179463   -7.8086737    815.95642   0.01453535  0.012883252         4000 
 4679000   0.49957426   -7.7976332    815.83359  0.014530056   0.01287877         4000 
 4680000   0.50439207   -7.7943188    814.89529  0.014510244  0.012874287         4000 
 4681000   0.50796565   -7.7847352    814.89539  0.014507146  0.012869807         3999 
 4682000   0.51580572   -7.8033574    816.08732  0.014525262  0.012865331         4000 
 4683000   0.51907811   -7.8049073    814.63641  0.014496341  0.012860852         4000 
 4684000   0.51399346   -7.7830097    813.93406  0.014480751  0.012856377         4000 
 4685000   0.49773642   -7.7884411    815.35235  0.014502888  0.012851903         4000 
 4686000    0.5038542   -7.7904003    814.78635  0.014489727  0.012847435         3998 
 4687000   0.50070718   -7.7771502    814.70212  0.014485138  0.012842968         4000 
 4688000   0.50806742   -7.7950714    816.33207  0.014511022  0.012838502         4000 
 4689000   0.50106152   -7.7811172     815.5778  0.014494523  0.012834039         4000 
 4690000   0.49968447   -7.7844187    814.94739  0.014480231  0.012829577         4000 
 4691000   0.50462383   -7.7784733    814.13504  0.014462713  0.012825118         4000 
 4692000   0.49762431   -7.8120602    815.15264  0.014477704  0.012820658         3999 
 4693000   0.49785616    -7.799465    815.03214  0.014472479  0.012816202         4000 
 4694000   0.50355981    -7.789342    815.99821  0.014486547  0.012811748         4000 
 4695000   0.50798795   -7.7887488    815.47543  0.014474182  0.012807297         4000 
 4696000   0.50824873   -7.8042729    815.54992  0.014472422  0.012802847         3999 
 4697000   0.49244496   -7.7824291    814.45594  0.014449932  0.012798399         3999 
 4698000   0.48023372   -7.7882788    814.93936  0.014455431  0.012793953         3998 
 4699000   0.49288371   -7.7894887    815.22688  0.014457453  0.012789509         3998 
 4700000   0.48831558   -7.8020627    814.77593  0.014446382  0.012785067         4000 
 4701000   0.50986998   -7.8076438    816.24399  0.014469333  0.012780626         3999 
 4702000   0.50277951   -7.7940909    815.13614  0.014446621  0.012776186         4000 
 4703000   0.51282944   -7.7946434    814.55425  0.014433238  0.012771748         4000 
 4704000   0.51437481   -7.8038702    815.25021  0.014442499  0.012767312         4000 
 4705000   0.50279396   -7.8014034     813.9618   0.01441661  0.012762881         3999 
 4706000    0.4963503   -7.7994466    814.60749   0.01442498  0.012758451         3998 
 4707000   0.50443298   -7.7950524    814.41165  0.014418449  0.012754014         3999 
 4708000   0.50296703    -7.798698     814.4449  0.014415975  0.012749582         4000 
 4709000   0.50030873   -7.7918995    814.68644  0.014417188  0.012745151         4000 
 4710000   0.49634579   -7.7942993    814.24132  0.014406251  0.012740725         4000 
 4711000   0.49633368   -7.8085344    815.27737   0.01442152  0.012736299         4000 
 4712000   0.49547772   -7.8057683    814.19962  0.014399399  0.012731876         4000 
 4713000   0.50146011   -7.8097918    815.21755  0.014414342  0.012727455         4000 
 4714000   0.50118885   -7.7936438    815.01702   0.01440774  0.012723037         3999 
 4715000   0.49141851   -7.7924907    815.71595  0.014417037  0.012718622         4000 
 4716000   0.49353802    -7.804708    814.03093  0.014384205  0.012714209         4000 
 4717000   0.49361621   -7.8166207    814.74549  0.014393779  0.012709797         4000 
 4718000   0.49856147    -7.800642    815.11057  0.014397177  0.012705388         4000 
 4719000   0.49512509   -7.8082044    814.96821  0.014391612  0.012700978         4000 
 4720000   0.49836906   -7.7996178    812.86746  0.014351473  0.012696573         4000 
 4721000   0.49312567   -7.7981741    814.56952  0.014378478  0.012692165         4000 
 4722000   0.49305547   -7.7972537    814.20819  0.014369056   0.01268776         4000 
 4723000    0.4993893   -7.7990152    813.74565  0.014357852  0.012683356         4000 
 4724000   0.49225558   -7.8041475    814.74351  0.014372416  0.012678954         4000 
 4725000   0.50028302   -7.8149109    813.77771   0.01435234  0.012674556         4000 
 4726000   0.51519037   -7.7967138    812.89893  0.014333808  0.012670161         4000 
 4727000   0.49106417   -7.7964328     814.6251  0.014361207  0.012665767         4000 
 4728000   0.50147089   -7.8151579    813.82173   0.01434401  0.012661376         4000 
 4729000   0.48556536   -7.8200207    814.83905  0.014358903  0.012656985         4000 
 4730000   0.48788892   -7.8124072    814.52097  0.014350264  0.012652596         4000 
 4731000   0.50596332   -7.7941541     815.2905  0.014360785  0.012648211         4000 
 4732000   0.49562741   -7.8114717    814.51566  0.014344105   0.01264383         4000 
 4733000   0.48521163   -7.8092085    814.71999  0.014344672  0.012639448         4000 
 4734000   0.48241424   -7.8041441    813.95518  0.014328179   0.01263507         4000 
 4735000   0.49518886   -7.7990608    813.76509  0.014321807  0.012630692         4000 
 4736000   0.49652564   -7.8020649    813.57891  0.014315507  0.012626312         4000 
 4737000    0.5030355   -7.8111263    816.11276  0.014357061  0.012621939         4000 
 4738000   0.49407293   -7.8032277    814.48902  0.014325472  0.012617568         4000 
 4739000   0.50176327   -7.8143192    813.57653  0.014306403    0.0126132         4000 
 4740000   0.50058383    -7.833539    814.59027  0.014321207  0.012608834         4000 
 4741000    0.4917155   -7.8201211    814.63665  0.014319002  0.012604466         4000 
 4742000   0.47794975   -7.8092616    814.31506  0.014310331  0.012600101         4000 
 4743000   0.49424725   -7.8106277    815.51062  0.014328319  0.012595737         4000 
 4744000   0.49520806   -7.8144595    813.66754  0.014292923  0.012591377         4000 
 4745000    0.4985768   -7.8168362    813.63743  0.014289382  0.012587019         4000 
 4746000   0.48958122   -7.8132374    814.20181  0.014296281  0.012582662         4000 
 4747000   0.49059781    -7.807859    813.48981   0.01428077  0.012578305         4000 
 4748000   0.49814441   -7.8023794     813.9801  0.014286368  0.012573952         4000 
 4749000   0.49499405   -7.8039601     814.9708  0.014300744  0.012569603         4000 
 4750000   0.49282877   -7.8041381    813.53217  0.014272494  0.012565255         3999 
 4751000   0.48970568   -7.8127323    814.34999  0.014283835  0.012560908         3999 
 4752000   0.48744065   -7.8108863     814.4647   0.01428284  0.012556562         4000 
 4753000   0.49646193   -7.8141312    814.46049  0.014279762   0.01255222         3999 
 4754000    0.4994901   -7.8140415    813.56721    0.0142611   0.01254788         4000 
 4755000   0.47940079   -7.8021319    815.09239   0.01428483  0.012543542         4000 
 4756000   0.49843558   -7.7955761    813.62987    0.0142562  0.012539207         4000 
 4757000   0.49202196   -7.8248463    814.85991  0.014274751  0.012534871         4000 
 4758000   0.48435258   -7.8051212    813.61611  0.014249967  0.012530539         4000 
 4759000   0.49479075   -7.8121585    814.30921  0.014259109  0.012526209         4000 
 4760000   0.49979409   -7.8139842    813.48846  0.014241745  0.012521881         4000 
 4761000   0.49428594   -7.8133222    814.05348  0.014248643  0.012517552         4000 
 4762000   0.48287175   -7.8144976    812.62274  0.014220614  0.012513226         4000 
 4763000   0.48699793   -7.8023719    814.01385  0.014241967  0.012508901         4000 
 4764000    0.4914301   -7.8108214    813.72659  0.014233952   0.01250458         4000 
 4765000   0.48715572   -7.8157523    813.66133  0.014229824  0.012500259         4000 
 4766000    0.4811499      -7.8162    813.54773  0.014224852  0.012495943         4000 
 4767000   0.49615632   -7.8171389    815.20543  0.014250847  0.012491628         4000 
 4768000   0.48666487    -7.806862    814.29417  0.014231931  0.012487314         4000 
 4769000   0.48933209   -7.8026444     814.0098  0.014223978  0.012483001         4000 
 4770000   0.48419581   -7.8352466    814.03019  0.014221352  0.012478688         4000 
 4771000   0.47674093   -7.8218013    813.76864  0.014213803  0.012474378         4000 
 4772000   0.47797033   -7.8071874    814.26192  0.014219438  0.012470071         4000 
 4773000   0.48310006    -7.810391     813.4997  0.014203151  0.012465766         4000 
 4774000    0.4870779   -7.8081632    814.38532  0.014215635  0.012461466         4000 
 4775000   0.49438276   -7.8107423    814.66054  0.014217461  0.012457165         4000 
 4776000    0.4879764   -7.8150242    814.33649   0.01420883  0.012452869         4000 
 4777000   0.48022368   -7.8171724    815.29236  0.014222531  0.012448575         4000 
 4778000   0.49255823   -7.8389114    814.35999  0.014203293  0.012444282         4000 
 4779000   0.49272487   -7.8072493    814.90911  0.014209896   0.01243999         4000 
 4780000   0.49030349     -7.82177    814.48469  0.014199524  0.012435699         4000 
 4781000   0.49422244   -7.8141766    813.65677  0.014182123  0.012431409         4000 
 4782000   0.48070637   -7.8212654    814.07722  0.014186484  0.012427122         4000 
 4783000   0.48571697   -7.8138435    813.95563    0.0141814  0.012422836         4000 
 4784000   0.50820342   -7.8215217    814.48031  0.014187575  0.012418553         4000 
 4785000   0.48894633   -7.8141525    814.43178  0.014183765  0.012414274         4000 
 4786000   0.48154865   -7.8190629    813.79366   0.01416969  0.012409993         4000 
 4787000   0.48726432   -7.8234065    813.54678  0.014162433  0.012405715         4000 
 4788000   0.47918363   -7.8034835     814.7121  0.014179757   0.01240144         4000 
 4789000   0.47593664   -7.8197772    812.59912  0.014140028  0.012397167         4000 
 4790000   0.48065537    -7.825609    813.59402  0.014154385  0.012392894         4000 
 4791000   0.48913574   -7.8178429    813.81278  0.014155235  0.012388625         4000 
 4792000   0.49696946   -7.7942288    814.17538  0.014158587   0.01238436         4000 
 4793000    0.4834039   -7.8198325     812.5758  0.014127822  0.012380095         4000 
 4794000   0.48092136   -7.8251072    814.01519  0.014149896   0.01237583         4000 
 4795000   0.48240322   -7.8135393    813.82339  0.014143611  0.012371569         4000 
 4796000    0.4840223   -7.8139019    814.78914  0.014157443  0.012367311         4000 
 4797000   0.49781979   -7.8207152    813.71041  0.014135752  0.012363055         4000 
 4798000   0.48946569   -7.8259708    814.12332  0.014139977    0.0123588         4000 
 4799000   0.47803807   -7.8182948    812.47464  0.014108402  0.012354544         4000 
 4800000   0.47984257   -7.8257385    813.17296  0.014117586  0.012350293         4000 
 4801000   0.47935548   -7.8268498    813.62384  0.014122472  0.012346045         4000 
 4802000   0.49042498   -7.8203237    813.99625  0.014125993  0.012341794         4000 
 4803000   0.47787114   -7.8200351    814.07568  0.014124431  0.012337546         4000 
 4804000    0.4861533   -7.8276826    813.19957  0.014106293  0.012333304         4000 
 4805000    0.4881899   -7.8262087    813.21999  0.014103711  0.012329063         4000 
 4806000   0.49237116   -7.8177708    813.38768  0.014103684  0.012324822         4000 
 4807000   0.48000039   -7.8223335    813.94004  0.014110326  0.012320586         4000 
 4808000   0.47039035   -7.8259124    813.19317  0.014094446  0.012316347         4000 
 4809000   0.48461992   -7.8128721    813.08499  0.014089641  0.012312109         4000 
 4810000   0.47951843   -7.8165961    813.18963  0.014088524  0.012307878         4000 
 4811000   0.48736605   -7.8318341    813.93464  0.014098501  0.012303646         4000 
 4812000   0.48230842   -7.8066478     813.4421  0.014087041  0.012299417         4000 
 4813000   0.48173098   -7.8228063    812.37224   0.01406559  0.012295189         4000 
 4814000   0.48088344   -7.8327057    813.72949  0.014086163  0.012290963         4000 
 4815000   0.48499266   -7.8238241    813.54792  0.014080096  0.012286739         4000 
 4816000   0.48809583   -7.8101648     812.9927  0.014067565  0.012282519         4000 
 4817000    0.4783868    -7.831415    813.85123  0.014079497  0.012278299         4000 
 4818000   0.47476822   -7.8341809    812.59078  0.014054773  0.012274081         4000 
 4819000   0.47392262    -7.825369    814.00558  0.014076323  0.012269865         4000 
 4820000   0.49110307   -7.8441418    814.73079   0.01408594  0.012265652         4000 
 4821000   0.46497421   -7.8164997    813.24713  0.014057373  0.012261439         4000 
 4822000   0.47679175   -7.8267713    813.10437   0.01405199  0.012257226         4000 
 4823000   0.48113432   -7.8340464    812.06004  0.014031033  0.012253015         4000 
 4824000   0.47097048    -7.829365    813.47301  0.014052533  0.012248807         4000 
 4825000   0.47508749   -7.8154853    812.32535  0.014029799    0.0122446         4000 
 4826000   0.48540374   -7.8201757    813.61438   0.01404915  0.012240396         4000 
 4827000   0.49295159   -7.8370798    813.66864  0.014047176  0.012236192         4000 
 4828000   0.47965686   -7.8146913    812.35786  0.014021642  0.012231991         4000 
 4829000   0.48335324   -7.8100774    814.20917  0.014050686  0.012227792         4000 
 4830000   0.47986194   -7.8126949     813.3377  0.014032742  0.012223597         4000 
 4831000   0.48392428   -7.8320159    813.79976  0.014037807  0.012219401         4000 
 4832000   0.47551245    -7.826521    813.41654  0.014028293  0.012215205         4000 
 4833000   0.48580027   -7.8186628    813.09185  0.014019792  0.012211011         4000 
 4834000   0.47178045   -7.8298465    813.88235  0.014030519  0.012206821         4000 
 4835000    0.4839667   -7.8386397    813.15614  0.014015101  0.012202632         4000 
 4836000   0.47955913   -7.8333208    812.72721  0.014004811  0.012198445         4000 
 4837000   0.47500956   -7.8291096    813.92414  0.014022537  0.012194261         4000 
 4838000   0.48072026   -7.8183118    813.53075  0.014012863  0.012190075         4000 
 4839000   0.46996889   -7.8275615     813.3695   0.01400719  0.012185896         4000 
 4840000   0.47178457   -7.8469194    813.48873  0.014006349  0.012181715         4000 
 4841000   0.47171019   -7.8302254    811.82591  0.013974831  0.012177536         4000 
 4842000   0.49047723   -7.8341208    813.28155  0.013996998   0.01217336         4000 
 4843000   0.48252503   -7.8285394    812.89914  0.013987527  0.012169186         4000 
 4844000   0.48110186   -7.8244549    813.45212  0.013994153  0.012165014         4000 
 4845000   0.49096757   -7.8297513    812.22637  0.013970182  0.012160847         4000 
 4846000   0.47425514   -7.8229402    812.91934  0.013979215  0.012156681         4000 
 4847000    0.4885556   -7.8336445    813.60937  0.013988195  0.012152515         4000 
 4848000   0.48734877    -7.848661    814.29078  0.013997022   0.01214835         4000 
 4849000   0.46901384   -7.8180017    813.18781  0.013975181  0.012144187         4000 
 4850000   0.47697244   -7.8306061    812.11716  0.013953903  0.012140026         4000 
 4851000   0.47463332   -7.8387462    812.45023  0.013956748  0.012135866         4000 
 4852000   0.46621402   -7.8437767    813.73213  0.013975888  0.012131707         4000 
 4853000   0.47530172    -7.835603    812.41129  0.013950328  0.012127553         4000 
 4854000   0.48544647   -7.8374213    812.12871  0.013942603  0.012123398         4000 
 4855000   0.47656763   -7.8343249    812.80272    0.0139513   0.01211925         4000 
 4856000   0.46605086   -7.8370924     814.2306   0.01397293  0.012115098         4000 
 4857000   0.47424628   -7.8321836     813.7256  0.013961389  0.012110949         4000 
 4858000   0.46874649   -7.8292244    813.96821  0.013962677  0.012106803         4000 
 4859000   0.47096171   -7.8397041    812.23281  0.013930041  0.012102657         4000 
 4860000   0.47907501   -7.8288343    812.67496  0.013934756  0.012098517         4000 
 4861000   0.48300865   -7.8343442    813.82655  0.013951631  0.012094377         3999 
 4862000   0.47748804   -7.8329505    812.68338  0.013929168  0.012090238         4000 
 4863000   0.47934968   -7.8396763    813.28591  0.013936629  0.012086099         4000 
 4864000   0.48043194    -7.840097    814.35556  0.013952089  0.012081964         4000 
 4865000   0.47920683   -7.8258225    813.38841  0.013932655  0.012077835         4000 
 4866000   0.46790976   -7.8469969    812.91956  0.013921763  0.012073703         4000 
 4867000    0.4740303   -7.8313105    814.41436  0.013944496  0.012069574         4000 
 4868000   0.47109505   -7.8249763    813.79755  0.013931073  0.012065447         4000 
 4869000    0.4701857   -7.8339763    813.00784  0.013914696  0.012061323         4000 
 4870000   0.47960427   -7.8381441    814.06979   0.01393001  0.012057203         4000 
 4871000   0.46387006   -7.8578784    812.88317   0.01390685  0.012053083         4000 
 4872000   0.46550764   -7.8279019    812.89652  0.013904224  0.012048965         4000 
 4873000   0.47570443    -7.838079    812.42541  0.013893314  0.012044849         4000 
 4874000   0.46314131   -7.8184541    813.43354    0.0139077  0.012040736         4000 
 4875000   0.47574924   -7.8220091    811.41411  0.013870327  0.012036624         4000 
 4876000   0.47269626   -7.8460638    813.22267  0.013898391  0.012032517         4000 
 4877000   0.47405757   -7.8319667    813.49147  0.013900134  0.012028409         4000 
 4878000   0.47227643   -7.8389569    813.65416  0.013900064  0.012024303         4000 
 4879000   0.46716326   -7.8397655    813.76301  0.013899074  0.012020199         4000 
 4880000   0.46352672   -7.8316022    812.90031  0.013881494  0.012016097         4000 
 4881000   0.46454207   -7.8253693     812.3622  0.013869463  0.012011997         4000 
 4882000   0.47544235   -7.8333848    813.08161  0.013878902  0.012007899         4000 
 4883000    0.4630715   -7.8370079    812.70318  0.013869602  0.012003804         4000 
 4884000   0.46903296   -7.8396469    812.15851  0.013857468  0.011999708         4000 
 4885000    0.4771802   -7.8318779    814.50665  0.013894689  0.011995617         4000 
 4886000   0.47091106   -7.8340447     812.9446  0.013865203  0.011991524         4000 
 4887000   0.47105809   -7.8342089     813.1891  0.013866535  0.011987436         4000 
 4888000   0.46569742   -7.8339398    813.36823  0.013866752   0.01198335         4000 
 4889000   0.47584674   -7.8490128    812.81615  0.013854506  0.011979262         4000 
 4890000   0.46984708   -7.8421697     813.0595   0.01385582  0.011975178         4000 
 4891000   0.46722799   -7.8277446    811.95019  0.013834086  0.011971095         4000 
 4892000   0.47103295   -7.8413146    812.31239  0.013837428  0.011967013         4000 
 4893000   0.47003219    -7.846105    812.84718  0.013843708  0.011962935         4000 
 4894000   0.46073585   -7.8370915    812.70723  0.013838497  0.011958857         4000 
 4895000   0.46834884   -7.8385181      813.115  0.013842611  0.011954783         4000 
 4896000   0.46870858   -7.8326355    811.36412  0.013809983  0.011950711         4000 
 4897000   0.47465516   -7.8330333    812.58354  0.013827914  0.011946639         4000 
 4898000   0.46451379   -7.8387962     812.4728  0.013823207  0.011942568         4000 
 4899000   0.47937259    -7.848242    812.66466  0.013823649    0.0119385         4000 
 4900000   0.47016027   -7.8352235    812.97094  0.013826036  0.011934433         4000 
 4901000   0.46329344   -7.8359437    812.88758  0.013821798   0.01193037         4000 
 4902000    0.4637219   -7.8608618    812.84768    0.0138183  0.011926306         4000 
 4903000   0.46513017    -7.844452    813.68715   0.01382975  0.011922247         4000 
 4904000   0.47080423   -7.8523312    813.02162   0.01381562  0.011918188         4000 
 4905000   0.48070783   -7.8505368    813.16603  0.013815257  0.011914132         4000 
 4906000     0.470231   -7.8377457    812.16884  0.013795503  0.011910078         4000 
 4907000   0.47164208   -7.8376419    811.83271  0.013786983  0.011906025         4000 
 4908000   0.47466141   -7.8435494     813.2849  0.013808831  0.011901973         4000 
 4909000   0.46696132    -7.843815    811.44076  0.013774712   0.01189792         4000 
 4910000   0.45856343   -7.8376985    812.34403  0.013787238  0.011893872         4000 
 4911000   0.46486185   -7.8464213    812.76369  0.013791551  0.011889827         4000 
 4912000   0.47081531   -7.8221726    811.18422  0.013761947  0.011885783         4000 
 4913000    0.4620475   -7.8445653    812.95389  0.013789163   0.01188174         4000 
 4914000   0.47030507   -7.8505942    812.62671  0.013780808  0.011877699         4000 
 4915000    0.4692878    -7.834621    812.56145  0.013776898  0.011873657         4000 
 4916000    0.4618356   -7.8515184    812.32806  0.013770139  0.011869619         4000 
 4917000   0.46139549   -7.8493267    812.08337  0.013763192  0.011865582         4000 
 4918000   0.45739458   -7.8382515    812.95422  0.013775149  0.011861549         4000 
 4919000   0.46811919   -7.8496115    813.02864   0.01377361  0.011857517         4000 
 4920000   0.47116349   -7.8287741    813.41251  0.013777312   0.01185349         4000 
 4921000    0.4635343   -7.8547575    813.48413  0.013775725  0.011849462         4000 
 4922000   0.46912132   -7.8351513    813.10859  0.013766568  0.011845437         4000 
 4923000   0.46150595   -7.8345578    813.32836  0.013767492  0.011841413         4000 
 4924000   0.46787765   -7.8409862    812.49393  0.013750574  0.011837388         4000 
 4925000   0.46561726   -7.8463525     812.9547  0.013755579  0.011833367         4000 
 4926000   0.46471908   -7.8431656    812.57701  0.013746397  0.011829347         4000 
 4927000    0.4591862   -7.8677902    811.87272  0.013731695  0.011825332         4000 
 4928000   0.46481609   -7.8434716    811.95012  0.013730217  0.011821314         4000 
 4929000   0.45940053   -7.8566053    812.57767  0.013738041  0.011817299         4000 
 4930000   0.45081065   -7.8588603     812.3837  0.013731976  0.011813286         4000 
 4931000   0.46079905   -7.8538425    812.36943   0.01372895  0.011809276         4000 
 4932000   0.46579275   -7.8518045    812.01881  0.013720242  0.011805268         4000 
 4933000   0.46474554   -7.8411826    811.00985  0.013700416   0.01180126         4000 
 4934000   0.47008874   -7.8569011    813.38652  0.013737781  0.011797254         4000 
 4935000   0.46841207   -7.8563631    812.84488  0.013725851  0.011793249         4000 
 4936000   0.46379328   -7.8348844    812.88216  0.013723699  0.011789248         4000 
 4937000   0.45996937    -7.853327    812.27685  0.013710702   0.01178525         4000 
 4938000   0.46954536   -7.8590543    812.12435  0.013705352  0.011781256         3999 
 4939000   0.47328844   -7.8434517    812.22343  0.013704249  0.011777257         3999 
 4940000   0.45800647   -7.8545618    811.73937  0.013693309  0.011773265         4000 
 4941000   0.45642214   -7.8661099    812.22191  0.013698676  0.011769269         4000 
 4942000   0.46838935   -7.8512675    812.76126  0.013704999  0.011765277         4000 
 4943000   0.45938985   -7.8539296    812.21594  0.013693033  0.011761285         4000 
 4944000    0.4551184   -7.8517166    811.69727  0.013681521  0.011757301         4000 
 4945000   0.46667789   -7.8340413    812.15635  0.013686491  0.011753315         4000 
 4946000   0.46214979   -7.8569999    812.09909  0.013682759  0.011749332         4000 
 4947000   0.45452022   -7.8592682    812.68505  0.013689863  0.011745352         4000 
 4948000   0.46021203   -7.8600615     812.4259  0.013682732  0.011741372         4000 
 4949000   0.46491632   -7.8468281    812.78532  0.013686019  0.011737393         4000 
 4950000   0.46116342   -7.8530425    812.39868  0.013676745  0.011733417         4000 
 4951000   0.45949146   -7.8421265    811.67968  0.013661881  0.011729443         3999 
 4952000   0.47293204   -7.8560589    812.37537  0.013670829  0.011725468         4000 
 4953000   0.46418441   -7.8591073    813.32454  0.013684039  0.011721497         4000 
 4954000   0.46374707   -7.8426298    811.93575  0.013657915  0.011717527         4000 
 4955000   0.45653652   -7.8438647    811.52246  0.013648208  0.011713559         4000 
 4956000   0.45162118   -7.8385268    812.46203  0.013661253   0.01170959         4000 
 4957000   0.46214275   -7.8456135    811.54057  0.013643006  0.011705625         4000 
 4958000   0.45096162   -7.8457984    812.01794  0.013648278  0.011701659         4000 
 4959000   0.45473455    -7.847356    810.62048  0.013622042  0.011697698         4000 
 4960000   0.45711721    -7.845606    812.73827  0.013654877  0.011693738         4000 
 4961000   0.45987082   -7.8483883    812.95593  0.013655781  0.011689783         4000 
 4962000   0.46668956   -7.8484508    811.68124  0.013631621  0.011685826         4000 
 4963000   0.45862675   -7.8529288    812.28917  0.013639082  0.011681873         4000 
 4964000   0.45504236   -7.8578786    813.29975    0.0136533  0.011677919         4000 
 4965000   0.45377994   -7.8586579     812.2001  0.013632093  0.011673968         3999 
 4966000   0.45724705   -7.8459491    811.91489  0.013624562   0.01167002         4000 
 4967000    0.4588288   -7.8506817    813.32478  0.013645473   0.01166607         4000 
 4968000    0.4618206   -7.8482209    811.69792  0.013615437  0.011662124         4000 
 4969000   0.46538321   -7.8419205    812.31125  0.013622983  0.011658182         4000 
 4970000   0.45561789   -7.8556298    812.00523  0.013615111  0.011654239         4000 
 4971000   0.44903044   -7.8620561    811.85102  0.013609787  0.011650297         4000 
 4972000   0.46045829   -7.8665183    812.39885  0.013616232  0.011646359         4000 
 4973000   0.45690833   -7.8574767    813.00327  0.013623622  0.011642423         4000 
 4974000   0.46036539   -7.8459067    812.61066  0.013614305   0.01163849         4000 
 4975000   0.45922631   -7.8455021    811.38914  0.013591108  0.011634557         4000 
 4976000   0.45717514   -7.8465822    812.94474  0.013614428  0.011630627         4000 
 4977000    0.4592605   -7.8541597     811.5755  0.013588767  0.011626698         4000 
 4978000   0.46546945   -7.8542471    812.25569  0.013597424  0.011622769         4000 
 4979000   0.45163338   -7.8613731    812.72827  0.013602602  0.011618845         4000 
 4980000   0.45379706    -7.857619    812.63422  0.013598297  0.011614921         4000 
 4981000   0.45356363   -7.8414527    812.77505  0.013597923  0.011610998         4000 
 4982000   0.45668459   -7.8573055    811.93989  0.013581224  0.011607078         4000 
 4983000   0.46252773   -7.8578085    811.71703  0.013574771  0.011603156         4000 
 4984000   0.44624783   -7.8351379    811.44431  0.013567488  0.011599239         4000 
 4985000   0.44808863   -7.8395308    812.36994   0.01358024  0.011595322         4000 
 4986000   0.46491913   -7.8577599    811.56709  0.013564098  0.011591408         4000 
 4987000   0.45927039   -7.8571004    812.13021  0.013570788  0.011587497         4000 
 4988000   0.45153179    -7.861773    812.51808  0.013574547  0.011583586         4000 
 4989000   0.44455666   -7.8600674    812.30631  0.013568289  0.011579677         4000 
 4990000   0.45669382   -7.8527744    812.18794  0.013563593  0.011575774         4000 
 4991000   0.45221658   -7.8411439    811.82134  0.013554754  0.011571867         4000 
 4992000   0.44809613   -7.8503973    811.78905    0.0135515  0.011567964         4000 
 4993000   0.45028346   -7.8594218    812.65724  0.013563276  0.011564061         4000 
 4994000   0.45063806   -7.8637382    812.03472  0.013550172   0.01156016         4000 
 4995000   0.44344731   -7.8660474    812.66722  0.013558012  0.011556262         4000 
 4996000   0.44614602   -7.8572448    810.81875  0.013524465  0.011552364         4000 
 4997000   0.45829072   -7.8619485    811.78783   0.01353792   0.01154847         4000 
 4998000   0.44361892   -7.8607323    811.64683   0.01353286  0.011544575         4000 
 4999000   0.43756676   -7.8585028    811.18651   0.01352248  0.011540686         4000 
 5000000   0.44812863   -7.8728645    812.26752  0.013537792  0.011536793         4000 
 5001000   0.45237864   -7.8564762    812.00196   0.01353066  0.011532907         4000 
 5002000   0.44984041   -7.8472595    812.07155  0.013529114  0.011529022         4000 
 5003000    0.4559618   -7.8627835    811.22704  0.013512343  0.011525138         4000 
 5004000   0.46288892    -7.851904    811.89979  0.013520846  0.011521254         4000 
 5005000   0.45256154   -7.8775303    811.09643  0.013504769  0.011517372         4000 
 5006000   0.44131244   -7.8831318    811.10729  0.013502252  0.011513491         4000 
 5007000    0.4418193   -7.8581817    813.07545  0.013532312  0.011509615         4000 
 5008000   0.44522716   -7.8648396    811.61123  0.013505245  0.011505737         4000 
 5009000   0.44360704   -7.8629094    809.88124  0.013473768  0.011501861         4000 
 5010000   0.45754149   -7.8688108    811.98019  0.013505991  0.011497989         4000 
 5011000   0.45094406   -7.8602476    813.17693  0.013523198  0.011494116         4000 
 5012000   0.45737907   -7.8546016    811.57893   0.01349393  0.011490246         4000 
Loop time of 10585.9 on 48 procs for 5000000 steps with 4000 atoms

Performance: 81618.025 tau/day, 472.327 timesteps/s
99.4% CPU use with 48 MPI tasks x no OpenMP threads

MPI task timing breakdown:
Section |  min time  |  avg time  |  max time  |%varavg| %total
---------------------------------------------------------------
Pair    | 671.7      | 695.96     | 720.5      |  47.6 |  6.57
Neigh   | 66.677     | 67.71      | 70.328     |   7.1 |  0.64
Comm    | 546.42     | 659.07     | 693.7      |  86.3 |  6.23
Output  | 14.799     | 14.805     | 14.892     |   0.3 |  0.14
Modify  | 9015       | 9042.6     | 9154.9     |  26.0 | 85.42
Other   |            | 105.7      |            |       |  1.00

Nlocal:        83.3333 ave          88 max          79 min
Histogram: 2 1 5 6 13 9 6 3 2 1
Nghost:        1756.10 ave        1766 max        1743 min
Histogram: 4 2 0 4 9 5 11 2 6 5
Neighs:        10493.1 ave       11152 max        9989 min
Histogram: 4 2 5 10 12 4 4 4 1 2
FullNghs:      20986.4 ave       22077 max       19834 min
Histogram: 1 4 3 5 10 10 5 4 4 2

Total # of neighbors = 1007348
Ave neighs/atom = 251.83700
Neighbor list builds = 269876
Dangerous builds = 0

#clear
#
#next RN
#
#jump SELF
Total wall time: 2:56:29
