
units lj                  # Use reduced LJ style units
atom_style atomic         # Uncharged point particles
atom_modify map hash      # Needed for indexing of clusters etc
                          # Used to be able to find where atoms are in relation to each other.

lattice fcc 1.0 spacing 1 1 1
Lattice spacing in x,y,z = 1.5874011 1.5874011 1.5874011
region box block 0 10 0 10 0 10 units lattice
create_box 2 box
Created orthogonal box = (0.0000000 0.0000000 0.0000000) to (15.874011 15.874011 15.874011)
  3 by 4 by 4 MPI processor grid
create_atoms 1 box
Created 4000 atoms
  using lattice units in orthogonal box = (0.0000000 0.0000000 0.0000000) to (15.874011 15.874011 15.874011)
  create_atoms CPU = 0.007 seconds
set type 1 type/fraction 2 0.44 78393
Setting atom values ...
  1760 settings made for type/fraction
mass 1 1.0
mass 2 1.0
pair_style lj/cut  3.5
pair_modify tail  yes
pair_coeff 1  1  1.0  1.0   # Intearaction between 1 and 1 set with epsilon = 1 and sigma = 1
pair_coeff 1  2  1.5  0.8
pair_coeff 2  2  0.5  0.88

write_data data.0
System init for write_data ...
Neighbor list info ...
  update every 1 steps, delay 10 steps, check yes
  max neighbors/atom: 2000, page size: 100000
  master list distance cutoff = 3.8
  ghost atom cutoff = 3.8
  binsize = 1.9, bins = 9 9 9
  1 neighbor lists, perpetual/occasional/extra = 1 0 0
  (1) pair lj/cut, perpetual
      attributes: half, newton on
      pair build: half/bin/atomonly/newton
      stencil: half/bin/3d
      bin: standard
WARNING: Not all mixed pair coeffs generated from mixing. Use write_data with 'pair ij' option to store all pair coeffs. (../write_data.cpp:312)


#############################
#   M E L T   S Y S T E M   #
#############################

velocity all create 2.4 9622624 mom yes dist gaussian # Assign velocities
                                                    # Temperature 2.4, random number seed, zero linear momentum
                                                                                # Gaussian distribution

timestep 0.002   # simulation timestep
thermo 1000       # output thermodynamic data every 1000 steps bf 100

# Define a fix  in this case with index 1 applied to all
# particles in the simulation. This fix is for simulations
# in the anisotropic NPT ensemble. Note that we use the MTK
# correction.
fix 1 all npt temp 2.4 2.4 0.1 iso 5.68 5.68 0.5 mtk yes tchain 5 pchain 5 # Use NPT ensemble
                                                                         # Set temperature and pressure and damping
                                                                         # Numbers of thermostats in chain and in barostat
run 10000          # run for 10000 steps
Per MPI rank memory allocation (min/avg/max) = 3.642 | 3.644 | 3.648 Mbytes
Step Temp E_pair E_mol TotEng Press Volume 
       0          2.4   -5.6445478            0   -2.0454478   -4.2010474         4000 
    1000    2.3747506    -4.967578            0   -1.4063427    5.5338069    3839.1735 
    2000    2.4289223    -5.067162            0   -1.4246894    5.6274153    3784.4318 
    3000    2.3317528   -5.0123534            0   -1.5155987    5.7262149    3794.4193 
    4000    2.3898455   -5.0303212            0   -1.4464491    6.0221284    3762.2044 
    5000     2.397798   -5.0079569            0   -1.4121591    5.6034013    3811.7145 
    6000    2.3706356   -4.9925946            0   -1.4375302    5.6335239    3816.2899 
    7000     2.382197   -5.0397843            0   -1.4673822    5.3321471    3816.1247 
    8000    2.4081394   -5.0083614            0   -1.3970554    5.8429844    3795.3523 
    9000    2.4088322   -5.0227877            0   -1.4104427    5.5742729    3813.8436 
   10000    2.4039125   -4.9642632            0   -1.3592959    5.6782079     3831.388 
Loop time of 2.58777 on 48 procs for 10000 steps with 4000 atoms

Performance: 667757.046 tau/day, 3864.335 timesteps/s
99.6% CPU use with 48 MPI tasks x no OpenMP threads

MPI task timing breakdown:
Section |  min time  |  avg time  |  max time  |%varavg| %total
---------------------------------------------------------------
Pair    | 1.143      | 1.2082     | 1.3093     |   3.2 | 46.69
Neigh   | 0.21014    | 0.21892    | 0.23632    |   1.0 |  8.46
Comm    | 0.80262    | 0.88813    | 0.96939    |   4.2 | 34.32
Output  | 0.00024536 | 0.00024943 | 0.00032953 |   0.0 |  0.01
Modify  | 0.19818    | 0.25698    | 0.31229    |   6.4 |  9.93
Other   |            | 0.01533    |            |       |  0.59

Nlocal:        83.3333 ave          93 max          75 min
Histogram: 2 3 3 12 5 11 6 4 1 1
Nghost:        1691.73 ave        1715 max        1666 min
Histogram: 1 0 3 7 12 7 12 4 1 1
Neighs:        9969.25 ave       11473 max        8566 min
Histogram: 2 1 6 8 8 8 8 4 2 1

Total # of neighbors = 478524
Ave neighs/atom = 119.63100
Neighbor list builds = 905
Dangerous builds = 188

# Equilibrate just above the melting temperature to avoid step fn in T

fix 1 all npt temp 1.25 1.25 0.1 iso 5.68 5.68 0.5 mtk yes tchain 5 pchain 5
run 2000
Per MPI rank memory allocation (min/avg/max) = 3.643 | 3.645 | 3.649 Mbytes
Step Temp E_pair E_mol TotEng Press Volume 
   10000    2.4039125   -4.9642632            0   -1.3592959    5.6782079     3831.388 
   11000    1.2424668   -7.0480038            0   -5.1847695    5.5306493    3008.8302 
   12000     1.241866   -7.1064533            0     -5.24412    5.7092658    2985.8484 
Loop time of 0.614201 on 48 procs for 2000 steps with 4000 atoms

Performance: 562681.979 tau/day, 3256.261 timesteps/s
99.6% CPU use with 48 MPI tasks x no OpenMP threads

MPI task timing breakdown:
Section |  min time  |  avg time  |  max time  |%varavg| %total
---------------------------------------------------------------
Pair    | 0.27689    | 0.29923    | 0.32628    |   2.2 | 48.72
Neigh   | 0.039389   | 0.041854   | 0.044302   |   0.6 |  6.81
Comm    | 0.19456    | 0.22437    | 0.25181    |   2.9 | 36.53
Output  | 5.1554e-05 | 5.3004e-05 | 6.9823e-05 |   0.0 |  0.01
Modify  | 0.040409   | 0.04388    | 0.04731    |   1.0 |  7.14
Other   |            | 0.004815   |            |       |  0.78

Nlocal:        83.3333 ave          94 max          74 min
Histogram: 1 3 3 10 12 5 8 1 2 3
Nghost:        1998.42 ave        2028 max        1976 min
Histogram: 2 7 4 11 8 8 1 3 2 2
Neighs:        12801.7 ave       14981 max       11078 min
Histogram: 4 2 7 8 8 9 5 2 2 1

Total # of neighbors = 614482
Ave neighs/atom = 153.62050
Neighbor list builds = 143
Dangerous builds = 12

#############################
# L I N E A R  Q U E N C H  #
#############################

# Define solid atoms. This closely follows ten Wolde  Ruiz-Montero and Frenkel  Faraday Discuss  1996  104  93-110
# Compute components of the per-atom q6 vector
compute q6 all orientorder/atom degrees 1 6 components 6 nnn NULL cutoff 1.3 # compute the Q6 parameter.
                                                                             # Use all neighbours within 1.3 unit cell.

# get number of connections
compute coord_number all coord/atom orientorder q6 0.5

# An atom is solid if it has 8 or more connections (of a possible 14)
variable is_solid atom c_coord_number>=8
group solid dynamic all var is_solid    # Must be dynamic to update
dynamic group solid defined

# do clustering
compute cluster solid cluster/atom 1.3 # Create a cluster where all atoms within are solid and max 1.3 units from another member

# define chunks one chunk per cluster
compute clus_chunks solid chunk/atom c_cluster nchunk every compress yes  # Says which atoms are in which chunk

# count the size of each chunk
compute size_chunks solid property/chunk clus_chunks count


# Find the maximum entry in the vector of chunk sizes
variable max_n equal max(c_size_chunks)


# Thermo style which includes this variable
# thermo_style custom step temp pe vol v_max_n

thermo ${N}  # Print the thermo information every 100 steps
thermo 1000  

# Reset the npt fix at a lower temperature (below freezing)
fix 1  all npt temp  ${temp} ${temp}  0.1  iso  5.68  5.68  0.5  mtk yes tchain  5  pchain  5
fix 1  all npt temp  0.45 ${temp}  0.1  iso  5.68  5.68  0.5  mtk yes tchain  5  pchain  5
fix 1  all npt temp  0.45 0.45  0.1  iso  5.68  5.68  0.5  mtk yes tchain  5  pchain  5

dump dmp2 all dcd ${N} traj.dcd
dump dmp2 all dcd 1000 traj.dcd


compute msd all msd com yes
variable twopoint equal c_msd[4]/6/(step*dt+1.0e-6)
fix 9 all vector 10 c_msd[4]
variable fit equal slope(f_9)/6/(10*dt)
thermo_style custom step temp pe c_msd[4] v_twopoint v_fit v_max_n

fix 1 all npt temp 1.25 ${temp} 0.1 iso 5.68 5.68 0.5 mtk yes tchain 5 pchain 5
fix 1 all npt temp 1.25 0.45 0.1 iso 5.68 5.68 0.5 mtk yes tchain 5 pchain 5
run 500000 # 5000000  # Run for this many steps
Neighbor list info ...
  update every 1 steps, delay 10 steps, check yes
  max neighbors/atom: 2000, page size: 100000
  master list distance cutoff = 3.8
  ghost atom cutoff = 3.8
  binsize = 1.9, bins = 8 8 8
  4 neighbor lists, perpetual/occasional/extra = 1 3 0
  (1) pair lj/cut, perpetual
      attributes: half, newton on
      pair build: half/bin/atomonly/newton
      stencil: half/bin/3d
      bin: standard
  (2) compute orientorder/atom, occasional
      attributes: full, newton on
      pair build: full/bin/atomonly
      stencil: full/bin/3d
      bin: standard
  (3) compute coord/atom, occasional
      attributes: full, newton on
      pair build: full/bin/atomonly
      stencil: full/bin/3d
      bin: standard
  (4) compute cluster/atom, occasional
      attributes: full, newton on
      pair build: full/bin/atomonly
      stencil: full/bin/3d
      bin: standard
Per MPI rank memory allocation (min/avg/max) = 9.828 | 9.837 | 9.843 Mbytes
Step Temp PotEng c_msd[4] v_twopoint v_fit v_max_n 
   12000     1.241866   -7.1064533  7.64209e-31 5.3070067e-33 8.3333333e+20            1 
   13000     1.237672   -7.1101483   0.46645881 0.0029901205  0.037723481            2 
   14000    1.2633184   -7.1570212   0.88325387 0.0052574633  0.036240888            1 
   15000    1.2395349   -7.1572641    1.3329739 0.0074054102    0.0360265            3 
   16000    1.2458289   -7.1752708    1.7398074 0.0090614968  0.035711785            1 
   17000    1.2440656   -7.1437508    2.1548973  0.010563222  0.035519515            1 
   18000    1.2383987   -7.1293948    2.5503763  0.011807297  0.035166651            1 
   19000    1.2320166   -7.1389953     2.941908  0.012903105  0.034712448            1 
   20000    1.2498886   -7.1758863    3.3614072  0.014005863   0.03444839            2 
   21000     1.236094   -7.1814722    3.8070512  0.015107346  0.034442327            2 
   22000    1.2595561   -7.2261946    4.2153381   0.01596719   0.03449476            2 
   23000     1.245792   -7.1876618    4.6306668  0.016777778  0.034539619            1 
   24000    1.2227483      -7.1781    4.9906601  0.017328681  0.034501144            2 
   25000    1.2333525   -7.1529241    5.3528575  0.017842858  0.034281146            2 
   26000    1.2139525   -7.1930787    5.6942889  0.018250926   0.03403044            1 
   27000    1.2089789   -7.1575185    6.1046745  0.018841588  0.033828662            1 
   28000    1.2284087   -7.1813218    6.4717535  0.019261171  0.033642145            2 
   29000    1.2078288    -7.235057    6.7804614  0.019484084  0.033438312            5 
   30000    1.2267455   -7.2122503    7.0765761  0.019657155  0.033133473            2 
   31000    1.2394054   -7.2290277    7.4221113  0.019951912  0.032823922            3 
   32000    1.2201675    -7.184289    7.8459147  0.020432069  0.032544485            2 
   33000    1.1982334   -7.2082192    8.1678612  0.020625912  0.032344172            1 
   34000    1.1966495   -7.2146969    8.5532783  0.020963917  0.032186292            1 
   35000    1.2056107   -7.2481421    8.9319027  0.021266435  0.032030636            2 
   36000     1.210148   -7.1740466    9.3341432  0.021606813  0.031902112            2 
   37000    1.1999179   -7.2190757    9.7010836  0.021849287  0.031806145            1 
   38000     1.235832   -7.2357423    10.133706  0.022223039   0.03175669            2 
   39000    1.1942265    -7.243369    10.489032  0.022412462  0.031745183            2 
   40000    1.2050425   -7.2596551    10.920819  0.022751706  0.031724154            2 
   41000    1.2144056   -7.2676189    11.237897  0.022841254  0.031714252            4 
   42000    1.1924931   -7.2259551    11.647057   0.02310924  0.031688449            2 
   43000    1.2080506   -7.2470874    12.040164   0.02333365  0.031665597            1 
   44000    1.1977663   -7.2605446    12.372253  0.023432298  0.031645743            2 
   45000    1.2179626   -7.3052712    12.661315   0.02344688  0.031603532            1 
   46000    1.2354916   -7.2800846    12.932371  0.023428209  0.031528712            1 
   47000    1.2168904   -7.3353651    13.272908  0.023533524  0.031425724            3 
   48000    1.2133293   -7.2569171     13.59969  0.023610573  0.031315697            1 
   49000    1.1990941   -7.2439232    14.065844  0.023921503   0.03123766            2 
   50000    1.1827137    -7.282201    14.322666  0.023871109  0.031183446            1 
   51000    1.1885872   -7.3215651    14.619591   0.02388822   0.03109948            4 
   52000    1.2101996   -7.3042701    14.945312   0.02395082  0.031016878            2 
   53000    1.1690306   -7.2617787    15.260448  0.023994415  0.030919464            1 
   54000    1.1890812   -7.3103466    15.630185  0.024120656  0.030832494            2 
   55000    1.1869697   -7.2793131    16.015592  0.024266048   0.03073734            3 
   56000    1.1870462   -7.3185616    16.366532  0.024354959  0.030664957            1 
   57000    1.1888029   -7.3130717    16.705787  0.024423665   0.03059783            2 
   58000    1.1516887   -7.2926662    17.017419  0.024450314   0.03052702            1 
   59000    1.1617869   -7.3184671    17.266111  0.024387163  0.030444623            2 
   60000    1.1868827   -7.2904679    17.558583   0.02438692  0.030353704            5 
   61000    1.1625078   -7.3490437    17.890602  0.024440713  0.030270949            3 
   62000    1.1594406   -7.3552686    18.171824  0.024424494  0.030185695            1 
   63000    1.1806844   -7.3019598    18.650945  0.024670562  0.030118114            2 
   64000    1.1676563   -7.3779053     18.95789  0.024684753  0.030057642            5 
   65000    1.1638957   -7.3217475    19.314997  0.024762817  0.029997617            1 
   66000    1.1582982    -7.372381    19.438869  0.024544026  0.029921318            1 
   67000    1.1485242   -7.3472009    19.743917   0.02455711  0.029830873            2 
   68000    1.1835244   -7.3074703    19.980672  0.024486118  0.029734517            3 
   69000    1.1724769   -7.3502688    20.294773  0.024510596  0.029634729            2 
   70000    1.1344201    -7.385854    20.577322  0.024496812  0.029540334            2 
   71000    1.1715173   -7.3581617    20.916851  0.024550295  0.029452228            1 
   72000    1.1708046   -7.3657117    21.110587   0.02443355  0.029361705            1 
   73000    1.1740044   -7.3861981     21.42444  0.024457123  0.029264506            1 
   74000    1.1442853   -7.4182294    21.586533  0.024309159  0.029157069            4 
   75000    1.1706592   -7.3504268    22.201273  0.024668081   0.02906203            1 
   76000    1.1362041    -7.364911    22.342891  0.024498784  0.028984925            3 
   77000    1.1663618   -7.4364653    22.558364  0.024413813  0.028893952            2 
   78000    1.1315939   -7.3994793    22.951321  0.024520642  0.028804582            4 
   79000    1.1200064   -7.4038244    23.174409  0.024445578  0.028719283            1 
   80000    1.1452101   -7.4280654    23.401174  0.024376222  0.028632634            2 
   81000    1.1375567   -7.4263987    23.773714  0.024458553  0.028551024            2 
   82000    1.1228287   -7.4243075    24.124531  0.024516799  0.028481264            4 
   83000    1.1449589   -7.4309732    24.500156   0.02459855  0.028409936            2 
   84000     1.141924   -7.3799154    24.614272   0.02441892  0.028336745            2 
   85000    1.1409073   -7.3760522     24.91856  0.024429961  0.028260424            3 
   86000    1.1059156   -7.4356628     25.09164  0.024313604  0.028175919            3 
   87000    1.1100345   -7.4415211    25.270106  0.024205083  0.028089217            2 
   88000    1.0921939    -7.435878    25.449706    0.0241001  0.027993445            2 
   89000    1.1120015   -7.5015064    25.579821  0.023951143  0.027889568            2 
   90000    1.1425749   -7.4356469    25.886358   0.02396885  0.027786455            4 
   91000    1.1169264     -7.43168    26.188861  0.023982473  0.027683358            1 
   92000    1.1428855   -7.4390938    26.620058  0.024112371  0.027589565            2 
   93000    1.1250255   -7.4319066    26.689303  0.023915146  0.027496666            1 
   94000    1.1188359   -7.4369931    26.996528  0.023933092  0.027400707            2 
   95000    1.1226665   -7.4952949    27.251031  0.023904413  0.027311343            1 
   96000     1.118618   -7.4453987    27.695626  0.024041342  0.027229516            2 
   97000    1.1074725   -7.4856932    27.925135  0.023990666   0.02715523            2 
   98000    1.0892896   -7.4512623    28.316404  0.024078575  0.027083563            2 
   99000    1.1047616   -7.4287631    28.696626  0.024155409  0.027018417            2 
  100000    1.1181692   -7.4723816    28.864998  0.024054165  0.026956556            3 
  101000    1.0993333   -7.5069103    29.175765  0.024072413  0.026893518            2 
  102000    1.0914561    -7.496225    29.290488  0.023930137  0.026827136            4 
  103000    1.1166218   -7.4482926    29.680032  0.024012971  0.026759172            4 
  104000    1.1390314   -7.5082071    29.825671  0.023898775  0.026688699            1 
  105000    1.1071969    -7.485421     30.09945  0.023888452  0.026622018            3 
  106000    1.1049562   -7.4892233    30.361539  0.023869134  0.026559203            2 
  107000    1.1043593   -7.4885359    30.643555  0.023865697  0.026494837            1 
  108000    1.0358211   -7.5064366    30.886342  0.023832054  0.026429788            2 
  109000    1.0879312   -7.5178466    31.157099  0.023820412  0.026368429            2 
  110000    1.0949136   -7.5187675    31.317217  0.023725165  0.026307177            1 
  111000    1.0864054   -7.4981108    31.617143  0.023736594  0.026242325            2 
  112000    1.0720685   -7.5230218    31.859025  0.023704631  0.026177893            2 
  113000     1.112061   -7.5316359     32.09262  0.023667124  0.026113251            3 
  114000    1.0732036    -7.536304    32.213073  0.023547568  0.026045225            1 
  115000    1.0651972   -7.5271949    32.320712  0.023420805  0.025974682            3 
  116000    1.0753594   -7.5442476    32.502103  0.023349212  0.025902375            7 
  117000    1.0829636   -7.5433079    32.527386  0.023167654  0.025825514            2 
  118000    1.0726843   -7.5191818    32.920868  0.023249201  0.025746851            3 
  119000    1.0565995   -7.5395568    33.141373  0.023208245  0.025667443            1 
  120000    1.0695324   -7.5481773    33.247009  0.023088201  0.025587921            1 
  121000    1.0659081   -7.5594688    33.561176  0.023113758  0.025513403            1 
  122000     1.077434   -7.6068059    33.703791  0.023021715  0.025438171            4 
  123000    1.0664228   -7.6111144    33.982915  0.023023655  0.025361216            2 
  124000    1.0615862   -7.5692378    34.343354  0.023080211  0.025290979            2 
  125000    1.0902293   -7.5866415    34.550543  0.023033695  0.025222384            2 
  126000    1.0736608   -7.5450397    34.790168   0.02300937  0.025155419            3 
  127000    1.0833779   -7.5790133    34.973007  0.022948167  0.025088018            3 
  128000    1.0650672    -7.622324    35.151397  0.022885024  0.025020013            4 
  129000    1.0623611    -7.671281    35.265172  0.022781119  0.024950091            2 
  130000    1.0482751   -7.5984245    35.491395  0.022750894  0.024881157            2 
  131000    1.0933199    -7.607101     35.72632  0.022726667  0.024809209            2 
  132000    1.0551061   -7.6344885    35.729568  0.022556545  0.024735761            1 
  133000    1.0750248   -7.6052233    36.001528  0.022557348  0.024661239            2 
  134000    1.0618433   -7.6441882    35.939637   0.02235052  0.024581845            2 
  135000    1.0479672   -7.5859742    36.109138  0.022289591  0.024501443            2 
  136000    1.0602234   -7.6411057    36.392232  0.022299162  0.024419145            1 
  137000    1.0431502   -7.6020288    36.534948  0.022223204  0.024339783            2 
  138000      1.04787   -7.6741925    36.554046  0.022073699  0.024257262            2 
  139000     1.020359   -7.6280036    36.804223  0.022064882  0.024172611            2 
  140000    1.0449762   -7.6729927    36.928035  0.021980973  0.024088231            1 
  141000     1.045418   -7.6385648    37.100658  0.021927103  0.024005047            1 
  142000    1.0677036   -7.6542034    37.247232  0.021858704  0.023922176            1 
  143000    1.0529116   -7.6470086    37.505281  0.021856224  0.023839845            3 
  144000    1.0195438     -7.66596    37.693366   0.02181329  0.023758156            2 
  145000     1.046033   -7.6666699    37.988047  0.021832211  0.023678661            3 
  146000    1.0424429   -7.6684938    38.089217   0.02174042  0.023600497            1 
  147000     1.027986     -7.70201    38.182603  0.021645467  0.023523073            3 
  148000    1.0369693   -7.7067665    38.320561  0.021576892  0.023445357            3 
  149000    1.0422818   -7.6433933    38.589609  0.021582555  0.023367449            4 
  150000    1.0188434   -7.6808813    38.598217  0.021443454  0.023289287            1 
  151000    1.0240245   -7.6823135    38.870987   0.02145198  0.023211467            2 
  152000    1.0219808   -7.6926957    39.099911  0.021436354  0.023136163            2 
  153000    1.0389155   -7.7181162    39.234171  0.021369374  0.023064429            1 
  154000    1.0137356   -7.7414008     39.51612  0.021383182  0.022990632            3 
  155000    1.0356531   -7.7546618    39.568146  0.021273197  0.022918108            2 
  156000    1.0223072   -7.7315476    39.787662  0.021254093  0.022845631            2 
  157000    1.0095051   -7.6992476     39.88632  0.021171083  0.022773155            3 
  158000    1.0092269   -7.7540353    40.093084  0.021146141  0.022702258            2 
  159000    1.0222264   -7.7763739    40.096165  0.021014762  0.022629155            2 
  160000   0.98652448   -7.7320134     40.34295  0.021011953  0.022557158            7 
  161000    1.0087656   -7.7064099     40.61487  0.021022189  0.022483738            3 
  162000    1.0192013   -7.7386922    40.701555  0.020937014  0.022411904            4 
  163000    1.0082735   -7.7251941    40.928972  0.020924832  0.022342029            4 
  164000    1.0175953   -7.7338115    41.140525  0.020904738  0.022274904            3 
  165000   0.99685602   -7.7522484    41.254938  0.020835827   0.02220774            2 
  166000    1.0034886   -7.7586204     41.29878  0.020732319  0.022137169            3 
  167000   0.98355632   -7.7733221    41.454891  0.020686073   0.02206471            4 
  168000    0.9886584   -7.7665652    41.627966  0.020648792  0.021993949            5 
  169000   0.98824278   -7.8128243    41.609541  0.020517525  0.021923877            1 
  170000   0.98398805   -7.7424179    41.894129  0.020536338  0.021854633            3 
  171000   0.97889975   -7.7432326     42.07314  0.020503479  0.021785925            2 
  172000   0.98201139   -7.7831861     42.18618  0.020439041  0.021717491            2 
  173000    1.0131394   -7.7795771    42.371904  0.020410358  0.021650343            3 
  174000   0.99179589    -7.862368    42.448051  0.020329526  0.021582605            3 
  175000   0.97080586   -7.7806518    42.644435  0.020306874   0.02151416            3 
  176000   0.97775686   -7.7687575    42.891999  0.020308712  0.021446585            1 
  177000   0.98187677    -7.831665    42.942777   0.02021788  0.021379961            2 
  178000   0.98808528   -7.8263671    43.122421  0.020188399   0.02131502            3 
  179000   0.96848235    -7.767349      43.2924  0.020154748  0.021250736            2 
  180000   0.98968035   -7.8296213    43.383336  0.020084878  0.021186786            2 
  181000   0.95989693   -7.7834103    43.419495  0.019990559  0.021121174            3 
  182000   0.99124752   -7.8265286    43.651127   0.01998678  0.021056797            6 
  183000   0.99867031   -7.8337507    43.871241  0.019977796  0.020993313            3 
  184000    1.0062362   -7.8457564     44.08509  0.019966073  0.020930881            2 
  185000     0.958773   -7.8086155    44.310541  0.019959703  0.020869578            2 
  186000   0.96257423    -7.826286    44.378148  0.019882683  0.020809312            3 
  187000   0.96323835   -7.8559903     44.54647  0.019851368  0.020749607            2 
  188000   0.99170464   -7.8608019    44.632305  0.019783823  0.020689735            1 
  189000   0.97462279   -7.8444648    44.834749  0.019768408  0.020629132            3 
  190000   0.99771565   -7.8345869    44.753706  0.019628818  0.020568073            2 
  191000   0.97126176   -7.8588519    44.883164  0.019582532  0.020506703            2 
  192000   0.96930883     -7.87847     45.12296  0.019584618  0.020446191            3 
  193000   0.93784951   -7.8527773    45.264937  0.019544446   0.02038576            3 
  194000   0.96299419    -7.846159    45.296096  0.019457086  0.020323954            5 
  195000   0.95388178    -7.838978    45.553913  0.019467484  0.020263359            1 
  196000   0.93832738   -7.8585218     45.57458  0.019376947  0.020203111            3 
  197000   0.95766002   -7.8738736    45.766258  0.019359669  0.020142841            2 
  198000   0.96516101   -7.8904736    45.838243   0.01929219  0.020083467            6 
  199000   0.95529867   -7.8684997    46.070204   0.01929238  0.020023562            5 
  200000   0.96014119   -7.9460023      45.9114   0.01912975  0.019963606            3 
  201000   0.93048883   -7.8768767    46.292996  0.019192784  0.019904071            2 
  202000   0.92661653   -7.9087237     46.49507  0.019181134  0.019846349            2 
  203000   0.95202419   -7.9220548    46.588763  0.019125108   0.01978997            2 
  204000   0.92199344   -7.8923481    46.738898  0.019092687    0.0197331            1 
  205000   0.95852811    -7.920566    46.796901   0.01902313  0.019675976            2 
  206000   0.93371805   -7.8980576    46.851909  0.018953037  0.019619097            1 
  207000   0.92285086   -7.9149196    46.896567  0.018879455  0.019561258            3 
  208000   0.93926741   -7.9405664    46.984754   0.01882402  0.019502622            3 
  209000   0.92754818   -7.9343917    47.059925  0.018763926  0.019444208            2 
  210000   0.93350887   -7.9412572    47.245832  0.018748346  0.019386066            2 
  211000    0.9556412   -7.9497501    47.355953  0.018702983  0.019328436            2 
  212000   0.92944848   -7.9819441    47.358837  0.018615895  0.019270682            3 
  213000   0.92725328   -7.9467203    47.376682  0.018535478  0.019212049            2 
  214000   0.92758446   -7.9579998    47.445221  0.018475553  0.019153382            1 
  215000   0.91283888   -7.9436909    47.496283  0.018409412  0.019094101            2 
  216000   0.89304232   -8.0005968    47.529727  0.018337086  0.019034745            3 
  217000   0.91809861   -7.9680918    47.570107   0.01826809  0.018975822            6 
  218000   0.90336501   -7.9558875    47.838594  0.018286924  0.018916405            4 
  219000   0.90418432    -7.960676    47.973475  0.018254747  0.018857225            2 
  220000   0.89668653   -7.9737307     48.00745   0.01818464  0.018797864            4 
  221000   0.91860824   -8.0122884     48.16711   0.01816256  0.018739002            2 
  222000   0.91472411   -7.9892833    48.118547  0.018062517  0.018680474            3 
  223000   0.91661285   -7.9895015    48.203963  0.018013439  0.018621661            4 
  224000   0.89626501   -7.9866596     48.30387   0.01797019   0.01856193            4 
  225000   0.90875912   -7.9636608    48.423763  0.017934727  0.018502677            6 
  226000   0.93032357   -8.0096642    48.395923  0.017845104  0.018443277            2 
  227000   0.89650945   -8.0242311     48.36794  0.017756219  0.018383435            3 
  228000   0.91373075   -8.0376279     48.42726  0.017700022  0.018324225            2 
  229000   0.89937234   -8.0215336    48.714415  0.017727225  0.018264886            3 
  230000    0.9042563   -8.0420325    48.566616    0.0175966  0.018205527            5 
  231000   0.89782007   -8.0320394    48.623811  0.017541057  0.018146538            4 
  232000   0.88288438   -8.0560257    48.842047  0.017543839  0.018088021            3 
  233000   0.87302166    -8.030672    49.067825  0.017549294  0.018030218            3 
  234000    0.8946077   -8.0138834    49.147636  0.017502719  0.017972997            3 
  235000   0.89060598   -8.0414579    49.123421  0.017419653  0.017915827            4 
  236000   0.89292594   -8.0265871    49.069401  0.017326766  0.017858573            4 
  237000   0.88430582    -8.063985    49.207228   0.01730212  0.017801074            3 
  238000   0.89606789   -8.0741728    49.429031  0.017307084  0.017743991            6 
  239000   0.88198802   -8.0445724    49.557519   0.01727947  0.017687963            2 
  240000   0.87450885   -8.0599644    49.503481  0.017188709  0.017631526            2 
  241000   0.88486156    -8.091514    49.493576  0.017113961  0.017574744            2 
  242000   0.88789865   -8.0973584    49.843777  0.017163835  0.017518478            3 
  243000   0.87091273   -8.0946821    49.720777  0.017051021  0.017462791            1 
  244000   0.88626777    -8.094924    49.756209  0.016993241  0.017406418            2 
  245000   0.88088844   -8.1112523    49.770935  0.016928889  0.017350045            5 
  246000   0.87846489   -8.0873605    49.971482  0.016928009  0.017293465           10 
  247000   0.87727605   -8.1256318    50.039446  0.016882404  0.017237656            2 
  248000   0.87984693   -8.1162744    49.995171  0.016799453  0.017181835            2 
  249000   0.86294664    -8.131172    50.042623  0.016747866  0.017126038            8 
  250000   0.85623193   -8.1442167      50.0762  0.016692067  0.017069751            3 
  251000   0.85622779    -8.149533    50.007939  0.016602901  0.017012908            3 
  252000   0.87049682   -8.1303407    49.965112  0.016522855  0.016955627            2 
  253000   0.85785349   -8.1395959    50.101705  0.016502538  0.016898774            4 
  254000    0.8533163    -8.122564    50.194606  0.016468046  0.016842271            3 
  255000   0.85344984   -8.1540342    50.338028  0.016450336  0.016786033            4 
  256000   0.83728388   -8.1608445    50.329843  0.016383412  0.016730505            6 
  257000    0.8644046     -8.14416     50.62502  0.016415376  0.016675677            4 
  258000   0.85389327   -8.1575083    50.613577  0.016348055  0.016621214            2 
  259000   0.84393733   -8.1362313    50.660146  0.016299918  0.016566528            1 
  260000    0.8601285   -8.1616073    50.631352  0.016227997  0.016512173            2 
  261000   0.85507368   -8.1603093    50.662877  0.016175886  0.016457549            3 
  262000   0.86795891   -8.1572309    50.788623  0.016154142  0.016402989            3 
  263000    0.8609975   -8.1848761    50.817942  0.016102009   0.01634885            2 
  264000   0.86733027   -8.1785087    50.793818  0.016033402  0.016294729            3 
  265000   0.85309609   -8.1847454    50.903788   0.01600748  0.016240825           11 
  266000   0.85522112   -8.1726834    50.934216  0.015956834  0.016186631            2 
  267000   0.84770569    -8.170016    51.023692  0.015924997  0.016132821            3 
  268000    0.8682057   -8.1695857    51.027803  0.015866854  0.016078887            2 
  269000   0.84448735   -8.2025573    51.011676  0.015802874   0.01602526            4 
  270000    0.8222945   -8.2239807    50.948563  0.015724865  0.015971054            2 
  271000   0.81426076   -8.2250015    51.055037  0.015699581  0.015916395            2 
  272000     0.827027   -8.1893362    50.986328  0.015620811  0.015861463            3 
  273000   0.82301805   -8.2341295    51.004366  0.015569098  0.015807195            6 
  274000   0.82899758   -8.2699231    51.056267  0.015528062  0.015753107            5 
  275000   0.84144054   -8.2143858    51.186648  0.015511105  0.015699299            4 
  276000   0.82969908   -8.2031461    51.161151  0.015447207  0.015645336            1 
  277000   0.81318142   -8.2621875    51.132907  0.015382944  0.015591274            2 
  278000   0.82202299   -8.2700915    51.254278  0.015363992  0.015537025            2 
  279000    0.8283217   -8.2739427    51.238393   0.01530418  0.015482967            3 
  280000    0.8161287   -8.2708472    51.192231  0.015235783  0.015428893            2 
  281000   0.83467226   -8.2529496    51.225174  0.015191333  0.015375037            6 
  282000   0.83454829   -8.2454835    51.318649  0.015165085  0.015321336            2 
  283000   0.80340164   -8.2479198    51.357622  0.015122975  0.015267969            2 
  284000   0.81567752   -8.2520857    51.492229  0.015109222  0.015214982            2 
  285000     0.831138   -8.2539363    51.493501  0.015056579  0.015162559            2 
  286000   0.80308176   -8.3091574    51.357867  0.014964414  0.015109986            2 
  287000   0.80531011   -8.2681241    51.493869  0.014951762  0.015057358            4 
  288000   0.81300478     -8.29977    51.712724  0.014963172   0.01500526            5 
  289000   0.79781393   -8.2928036    51.740945  0.014919534  0.014953262            7 
  290000   0.81916293   -8.3004266    51.685563  0.014852173  0.014901214            2 
  291000   0.79611174    -8.318787    51.538324   0.01475897  0.014849249            2 
  292000   0.79421104   -8.2995161    51.773428  0.014775522  0.014796956            6 
  293000   0.79959552   -8.3248299    51.548272  0.014661056  0.014744971            3 
  294000   0.79751874   -8.3193286    51.504825  0.014598873  0.014692919            4 
  295000   0.78455201   -8.3312712    51.673682  0.014597085  0.014640856            3 
  296000   0.80233868   -8.3458063    51.645906  0.014539951  0.014589013            4 
  297000   0.78300962   -8.3634447    51.629861  0.014486493  0.014536966            3 
  298000   0.77482677   -8.3469645    51.519065  0.014406897  0.014485141            2 
  299000   0.79273816   -8.3416075    51.670957  0.014401047  0.014433393            7 
  300000   0.77942348   -8.3462267    51.664976  0.014351382  0.014381628            2 
  301000   0.80993392   -8.3606796    51.710127  0.014316204  0.014330367           10 
  302000   0.78869578   -8.3588143    51.724363  0.014272727   0.01427896            5 
  303000   0.78274171   -8.3721342    51.752867  0.014233462  0.014227787            7 
  304000   0.79481784   -8.3896854    51.798009  0.014199016  0.014176691            7 
  305000   0.77831287   -8.3902215    51.673086   0.01411833  0.014125859            3 
  306000   0.77493168   -8.3717181    51.889892  0.014131234  0.014075256            4 
  307000   0.77072583   -8.3472433     51.93769  0.014098179  0.014025193            4 
  308000   0.77839165   -8.3542456     52.05459  0.014084034  0.013975377            3 
  309000   0.77335422   -8.3703198    51.947337   0.01400953    0.0139262            4 
  310000   0.76301853   -8.3654133     52.08939  0.014002524  0.013876898           13 
  311000    0.7456134   -8.3785134    51.964978  0.013924163  0.013827888            5 
  312000   0.77133608   -8.3887768    51.996596   0.01388798  0.013779044            6 
  313000   0.76686113   -8.3969288    52.097565  0.013870491  0.013730407            3 
  314000   0.74959193   -8.3677803    52.096602  0.013826062  0.013681892            5 
  315000   0.74774445   -8.3799728    52.000696  0.013756798  0.013633366            4 
  316000   0.77632836   -8.3932841    52.065194  0.013730273  0.013584848            3 
  317000   0.75945809   -8.3781203    52.097444  0.013695437  0.013536826            2 
  318000   0.77208932    -8.417098    52.082288  0.013648398  0.013489046            4 
  319000   0.75091187   -8.4119743    52.157656  0.013625302  0.013441388            3 
  320000   0.75979824   -8.4127755     52.30184  0.013620271  0.013393876            3 
  321000   0.75460798     -8.43667    52.141548  0.013536227  0.013346331            3 
  322000   0.75307898   -8.4488256    52.221677  0.013514927  0.013299054            2 
  323000   0.74648815   -8.4431659     52.24516  0.013479143  0.013251753            5 
  324000   0.75217897   -8.4178515    52.247284  0.013438088  0.013204725            5 
  325000   0.75039178    -8.458123    52.233768  0.013393274  0.013157685            4 
  326000   0.75778534   -8.4715639    52.194866  0.013342246  0.013110706            8 
  327000   0.74723745   -8.4691056    52.284841  0.013324373  0.013063839            3 
  328000    0.7462738   -8.4740568    52.181373  0.013257463  0.013016975            5 
  329000   0.75492578   -8.4918245    52.146319  0.013208287  0.012970191            3 
  330000   0.73834613   -8.4882101    52.132168  0.013164689  0.012923566            4 
  331000   0.73751849   -8.4591501    52.264799  0.013158308  0.012877149            3 
  332000   0.73804863   -8.5108017    52.222065  0.013107948  0.012830684            2 
  333000   0.73309076   -8.4756574    52.200459  0.013063178  0.012784513            3 
  334000   0.75069094   -8.4867387    52.176648  0.013018126  0.012738305            5 
  335000   0.75130914   -8.5086621    52.149778  0.012972582  0.012692304            4 
  336000   0.72302092   -8.5029683     52.11018  0.012924152  0.012646348            6 
  337000   0.72264965   -8.5116003    52.189715  0.012905469  0.012600531            7 
  338000    0.7301524   -8.5183255    52.174131  0.012863444   0.01255458            3 
  339000   0.72189082   -8.5190692    52.132891  0.012815361  0.012508745            4 
  340000   0.72531514   -8.5299203    52.022364  0.012750579  0.012462975            2 
  341000   0.73427808   -8.5223798     52.14303  0.012742676  0.012417452            5 
  342000   0.72744925   -8.5543018    52.018969  0.012675187  0.012372009            6 
  343000   0.72313989   -8.5108691    52.115913  0.012661787  0.012326605            3 
  344000   0.70811444   -8.5086035     52.18923   0.01264274   0.01228168            3 
  345000   0.73664209   -8.5443539    52.144988  0.012595408  0.012236862            2 
  346000   0.70278857   -8.5224134    52.148174  0.012559772  0.012192111            4 
  347000   0.70926986   -8.5412253    52.184389  0.012532274  0.012147277            2 
  348000   0.70857726   -8.5518747    52.171092  0.012493078  0.012102811            5 
  349000   0.69019192   -8.5500564    52.179324  0.012459247  0.012058477            2 
  350000   0.70289717   -8.5526353    52.216111  0.012432407  0.012014404            2 
  351000   0.69946362   -8.5601291    52.261734  0.012407819  0.011970686            3 
  352000   0.70034733   -8.5600054    52.276584  0.012376085  0.011927059            6 
  353000   0.70679126   -8.5640564    52.156858  0.012312762  0.011883696            3 
  354000    0.7067612    -8.522023    52.288116  0.012308878   0.01184065            2 
  355000   0.68981395   -8.5636897    52.192925   0.01225186  0.011797654            4 
  356000   0.69505374    -8.548697    52.116951  0.012199661  0.011754621            3 
  357000   0.68949328   -8.5602336    52.198226   0.01218446  0.011711742            2 
  358000   0.68775529   -8.5519164    52.179525  0.012146072  0.011669042            4 
  359000   0.69897699   -8.5729995    52.249114  0.012128392  0.011626576            2 
  360000   0.69314847   -8.5674194      52.2547  0.012095995  0.011584332            5 
  361000   0.69103487   -8.5700275       52.212  0.012052632  0.011542067            3 
  362000   0.68659684   -8.5768044    52.151357  0.012005377    0.0115001            2 
  363000   0.70062156   -8.5696846    52.156714  0.011973534  0.011458085            5 
  364000   0.68287402   -8.5975805    52.191249  0.011948546  0.011416283            3 
  365000   0.69623602   -8.5809255    52.276104  0.011935184  0.011374658            4 
  366000   0.68727276   -8.6042274    52.160877  0.011876338  0.011333143            7 
  367000    0.6893577   -8.6021496    52.085637  0.011826893  0.011291474            2 
  368000   0.67006003   -8.6154683    52.202246  0.011821161  0.011250133            2 
  369000    0.6647305   -8.6060285    52.173145  0.011782553  0.011209077            5 
  370000   0.68846963   -8.6366985    52.145946  0.011744582   0.01116817            6 
  371000   0.68068792   -8.6193367    52.128023    0.0117089  0.011127473            5 
  372000   0.67069116   -8.6307343    52.164807  0.011685665  0.011086941            6 
  373000   0.67238175   -8.6469965    52.189039   0.01165975  0.011046579            4 
  374000   0.67774583   -8.6217421    52.015772  0.011589967  0.011006265            3 
  375000   0.67470403   -8.6370107    52.125875  0.011583528  0.010966142            5 
  376000   0.66154038   -8.6195173    52.245378  0.011579206  0.010926261            4 
  377000   0.67690787   -8.6544073    52.225467  0.011544091  0.010886351            6 
  378000   0.67157738   -8.6648044    51.965095   0.01145615  0.010846494            4 
  379000   0.67409951   -8.6497216    52.138919  0.011464142   0.01080676            9 
  380000   0.66837885   -8.6639498    52.017025  0.011407242  0.010767106            8 
  381000   0.67171144   -8.6915957    52.121726  0.011400203  0.010727586            6 
  382000   0.65880014   -8.6971262    52.053284  0.011355428  0.010688243            8 
  383000    0.6445029   -8.6656525    52.067446  0.011328861  0.010649078           10 
  384000   0.65785669   -8.6704827    52.075087  0.011301017  0.010610035           15 
  385000   0.64912826   -8.6992872    52.034102  0.011262793  0.010571112            9 
  386000   0.65859702   -8.6974437    51.992096  0.011224546  0.010532386            7 
  387000    0.6411031    -8.710147    51.989882  0.011195065  0.010493817            4 
  388000    0.6521678   -8.7012384    52.039744  0.011176921   0.01045538            6 
  389000   0.65210752   -8.6725132    52.108413  0.011162899  0.010417328            6 
  390000   0.64933219   -8.7081933    52.116274  0.011135956  0.010379449           12 
  391000   0.63407707   -8.6993274    52.142863  0.011113142  0.010341913            8 
  392000   0.64149218   -8.7175627    52.006956    0.0110559  0.010304337            5 
  393000   0.64227485   -8.7186443    52.044458  0.011035721  0.010266877            5 
  394000   0.63122522    -8.701759    52.144484  0.011028867  0.010229571            5 
  395000   0.63142498    -8.728117    52.067704  0.010984748  0.010192363            4 
  396000   0.64469531   -8.7296663    52.170018  0.010978539  0.010155298           10 
  397000   0.63373353   -8.7359916      52.1001  0.010936209  0.010118406           10 
  398000   0.63487534   -8.7483165    51.986351  0.010884914  0.010081641           10 
  399000    0.6361989    -8.747463    51.945419  0.010849085  0.010044967           15 
  400000   0.63873511   -8.7534342     52.06773  0.010847444  0.010008427            2 
  401000   0.62469828   -8.7314714    51.957542  0.010797494 0.0099719821            7 
  402000   0.61077604   -8.7428191    52.067427  0.010793413 0.0099357161            5 
  403000   0.62350367   -8.7453369    51.976292  0.010747786 0.0098996368            5 
  404000   0.61496182   -8.7412171    52.009202  0.010727971 0.0098636126            5 
  405000   0.61424131   -8.7483045    51.977863  0.010695034 0.0098276596            3 
  406000   0.62416737   -8.7391158    51.981729  0.010669485 0.0097919617            3 
  407000   0.60640587   -8.7677865    51.980154  0.010642947 0.0097564085            4 
  408000   0.62074308   -8.7589933    51.911449  0.010602829 0.0097209184            2 
  409000   0.62126972   -8.7637454    51.860349  0.010566493 0.0096855774            4 
  410000   0.61643666   -8.7611743    52.003364  0.010569789  0.009650406            9 
  411000   0.60078444   -8.7812862    51.915825  0.010526323 0.0096153018            6 
  412000   0.60046206   -8.7805581    51.856944  0.010488864 0.0095803138            5 
  413000   0.59219444   -8.7809288    51.820811  0.010456177 0.0095453848            4 
  414000   0.60072111   -8.7938686    51.841151  0.010435014 0.0095106596            7 
  415000   0.60238531    -8.780565    51.774252  0.010396436 0.0094761297            5 
  416000   0.61223408   -8.7968347    51.770762  0.010370746 0.0094418792            4 
  417000   0.58702509   -8.7907555     51.93343  0.010378383 0.0094076727            5 
  418000   0.59927121   -8.7882344    51.837257  0.010334381 0.0093735901            4 
  419000   0.59587435   -8.7982337    51.757763  0.010293907 0.0093396365            7 
  420000   0.59901805   -8.8219478    51.835915  0.010284904 0.0093059002            8 
  421000   0.58664606   -8.8149589    51.792647   0.01025191 0.0092723963            5 
  422000   0.58786481   -8.7970637    51.889538  0.010246749 0.0092389598            4 
  423000   0.60456725   -8.8114928    51.829624  0.010210722 0.0092057273            5 
  424000   0.59531884   -8.8051486    51.823314    0.0101854  0.009172556            4 
  425000   0.57993005   -8.8429453    51.825184  0.010161801 0.0091395351            3 
  426000    0.5884338   -8.8333903    51.889244  0.010150478 0.0091066132            4 
  427000   0.58389894   -8.8370942    51.694609  0.010088721 0.0090738625            7 
  428000   0.57609791   -8.8184083    51.752013  0.010076326 0.0090411566            6 
  429000   0.59395506   -8.8333917    51.785316  0.010059308 0.0090086051            3 
  430000   0.57699481   -8.8621546    51.758038  0.010030628 0.0089762025            5 
  431000   0.58228609   -8.8417422    51.801083  0.010015677 0.0089440285            3 
  432000   0.56344056   -8.8689244    51.776299 0.0099877119 0.0089119222            3 
  433000   0.57721476   -8.8472181    51.790295 0.0099673392 0.0088799526            4 
  434000   0.56746663   -8.8411259    51.822997 0.0099506522 0.0088481398            6 
  435000   0.58257342   -8.8419393     51.80664 0.0099246436 0.0088165048            3 
  436000    0.5733111   -8.8588257    51.802476 0.0099010849 0.0087850475            4 
  437000   0.57222503   -8.8662902    51.746289 0.0098677135 0.0087537029            5 
  438000   0.57156383   -8.8739668    51.743999 0.0098447486 0.0087225427            3 
  439000   0.56875004    -8.887977    51.673312 0.0098089051 0.0086914586            4 
  440000   0.57123291   -8.8748316    51.728338 0.0097970337 0.0086605172            4 
  441000   0.56855841   -8.8789654    51.873949 0.0098023335 0.0086298533            4 
  442000   0.56608498   -8.8960202    51.747176 0.0097562548 0.0085992366            2 
  443000   0.54463395   -8.8874481    51.764802 0.0097375475 0.0085687781            8 
  444000   0.54721605   -8.8704329    51.798297 0.0097219026 0.0085385752            4 
  445000   0.55687635   -8.9001552    51.737134 0.0096886019 0.0085084606            7 
  446000   0.55235877   -8.9073483    51.807859 0.0096800932  0.008478447            5 
  447000   0.55223041   -8.8863068    51.725398 0.0096430645 0.0084485256            6 
  448000   0.54323421   -8.9003559    51.745131 0.0096252104 0.0084187877            7 
  449000   0.54795713   -8.8975601    51.717494 0.0095986439  0.008389129            6 
  450000   0.55270932   -8.8917106    51.746079 0.0095826072 0.0083596211            2 
  451000   0.54473821     -8.90424    51.658962 0.0095452627  0.008330235            2 
  452000   0.55396792   -8.8958988    51.684276  0.009528812 0.0083009862            4 
  453000   0.53946761   -8.9117338    51.706777 0.0095119162 0.0082718709            5 
  454000   0.54828297   -8.9074203     51.74759 0.0094984562  0.008242882            3 
  455000   0.54414539   -8.9099691    51.658924 0.0094613413 0.0082140308            3 
  456000   0.53677096   -8.9292063    51.728063 0.0094532279 0.0081852712            3 
  457000   0.53904672   -8.9134669    51.720814 0.0094312207 0.0081566025            1 
  458000   0.55299666   -8.9247242     51.73454 0.0094131258 0.0081280854            3 
  459000   0.53217789   -8.8950946    51.697038 0.0093858093 0.0080997286            5 
  460000   0.52833916   -8.9243816    51.641904 0.0093554173 0.0080714338            2 
  461000   0.53240148   -8.9234477    51.712342 0.0093478565  0.008043287            2 
  462000   0.51946588   -8.9240429    51.527206  0.009294229 0.0080152278            9 
  463000   0.52601829   -8.9416474    51.671127 0.0093000589 0.0079873203            3 
  464000   0.52452338   -8.9354356    51.646171 0.0092755337 0.0079595079            4 
  465000   0.51852107   -8.9401546    51.641245 0.0092547034 0.0079317674            2 
  466000   0.51362949   -8.9513285    51.616121 0.0092303506 0.0079041845            3 
  467000   0.52143729   -8.9438092     51.55605 0.0091998662 0.0078767314            2 
  468000   0.53609702    -8.949611    51.549865 0.0091791069 0.0078494088            5 
  469000   0.50411789   -8.9391591    51.637375 0.0091750844 0.0078221352            2 
  470000   0.50981354   -8.9279544    51.591832 0.0091474879 0.0077950347            4 
  471000   0.51604722   -8.9492287    51.587305 0.0091272655 0.0077680211            3 
  472000   0.50947805   -8.9585794    51.583697 0.0091072911 0.0077411561            5 
  473000   0.51410947   -8.9520668    51.615909  0.009093712 0.0077143889            2 
  474000     0.515134   -8.9571171    51.594708 0.0090707995 0.0076877555            3 
  475000   0.51683612   -8.9733006    51.538438 0.0090418312 0.0076612061            4 
  476000   0.50399482   -8.9547401    51.561213  0.009026823 0.0076347604            2 
  477000   0.50419712   -8.9670287    51.497886 0.0089968355 0.0076084267            4 
  478000   0.50778538     -8.97702    51.506236 0.0089794692 0.0075822525            3 
  479000   0.50286864   -8.9630731     51.57983 0.0089735264 0.0075562042            2 
  480000   0.49814308   -8.9668535    51.514394 0.0089434711 0.0075302497            2 
  481000   0.49718682   -8.9843895    51.575813 0.0089355185 0.0075043359            3 
  482000   0.49267816   -8.9823752    51.486057 0.0089014622 0.0074786093            4 
  483000    0.4988432   -8.9752426    51.523034 0.0088894124 0.0074529243            5 
  484000   0.49000536   -8.9858981    51.474629 0.0088627115 0.0074273335            3 
  485000   0.48075051   -8.9986296    51.362504 0.0088251725 0.0074018769            5 
  486000   0.50285103   -8.9898605    51.478681 0.0088269342 0.0073764944            3 
  487000   0.48858004   -8.9931188    51.516461 0.0088152739 0.0073512561           15 
  488000   0.49224514   -8.9987376    51.472075 0.0087896303  0.007326111            4 
  489000   0.49581831   -9.0117502    51.473962 0.0087719771 0.0073011491            4 
  490000   0.48225863   -9.0056803    51.466699   0.00875284 0.0072762879            1 
  491000   0.47531722    -9.006388    51.460614 0.0087339807 0.0072515109            2 
  492000   0.48517073   -9.0296582    51.499846 0.0087228737 0.0072268062            4 
  493000   0.48649705    -9.013191     51.45277 0.0086972228 0.0072022325            7 
  494000   0.47085735   -9.0105878    51.524666 0.0086917453  0.007177816            2 
  495000   0.47369664   -9.0064781    51.444831  0.008660746  0.007153506            5 
  496000   0.47898203   -9.0326285    51.447353 0.0086437084 0.0071292957            5 
  497000   0.48115169   -9.0304538    51.333084 0.0086071569 0.0071051756            3 
  498000   0.46839503   -9.0286313    51.429786 0.0086060552  0.007081136            3 
  499000    0.4809294   -9.0131423    51.430595 0.0085889437 0.0070572049            4 
  500000   0.47469968   -9.0277447    51.396146 0.0085660243 0.0070333572            4 
  501000    0.4742772   -9.0376043    51.342841 0.0085400601 0.0070095862            5 
  502000   0.46436136   -9.0316595    51.363802 0.0085265276 0.0069859656            2 
  503000   0.46295549   -9.0413201    51.364381 0.0085096721  0.006962403            5 
  504000   0.46999368   -9.0465575    51.401319 0.0084988953 0.0069389645            4 
  505000   0.46494052   -9.0515358    51.412088  0.008483843 0.0069156192            6 
  506000   0.46871328   -9.0423497    51.394418 0.0084641663 0.0068923976            6 
  507000   0.45959859   -9.0454511    51.387632 0.0084463563 0.0068692607            5 
  508000    0.4663792   -9.0362566    51.419178 0.0084349046 0.0068462118            3 
  509000   0.45504212   -9.0351877    51.236449 0.0083884167 0.0068232665            5 
  510000   0.46413558   -9.0364668    51.375596 0.0083947052 0.0068004195            5 
  511000    0.4555122   -9.0491184    51.364389 0.0083764496 0.0067776733            2 
  512000     0.454191   -9.0538882    51.260192 0.0083431302 0.0067550045            5 
Loop time of 1252.82 on 48 procs for 500000 steps with 4000 atoms

Performance: 68964.402 tau/day, 399.100 timesteps/s
99.4% CPU use with 48 MPI tasks x no OpenMP threads

MPI task timing breakdown:
Section |  min time  |  avg time  |  max time  |%varavg| %total
---------------------------------------------------------------
Pair    | 85.067     | 89.743     | 95.251     |  26.7 |  7.16
Neigh   | 8.4461     | 8.7049     | 9.0993     |   5.5 |  0.69
Comm    | 77.85      | 84.836     | 91.656     |  33.4 |  6.77
Output  | 0.85623    | 0.85725    | 0.89       |   0.5 |  0.07
Modify  | 1052.7     | 1056.9     | 1059.6     |   5.3 | 84.36
Other   |            | 11.74      |            |       |  0.94

Nlocal:        83.3333 ave          89 max          76 min
Histogram: 2 1 1 9 4 3 16 6 3 3
Nghost:        2238.35 ave        2253 max        2224 min
Histogram: 4 2 7 9 4 6 4 4 4 4
Neighs:        15044.6 ave       17287 max       13704 min
Histogram: 5 6 8 8 8 5 4 3 0 1
FullNghs:      30089.1 ave       32409 max       27204 min
Histogram: 2 1 3 5 7 9 8 7 3 3

Total # of neighbors = 1444279
Ave neighs/atom = 361.06975
Neighbor list builds = 26640
Dangerous builds = 1

#clear
#
#next RN
#
#jump SELF
Total wall time: 0:20:56
