
units lj                  # Use reduced LJ style units
atom_style atomic         # Uncharged point particles
atom_modify map hash      # Needed for indexing of clusters etc
                          # Used to be able to find where atoms are in relation to each other.

lattice fcc 1.0 spacing 1 1 1
Lattice spacing in x,y,z = 1.5874011 1.5874011 1.5874011
region box block 0 10 0 10 0 10 units lattice
create_box 2 box
Created orthogonal box = (0.0000000 0.0000000 0.0000000) to (15.874011 15.874011 15.874011)
  3 by 4 by 4 MPI processor grid
create_atoms 1 box
Created 4000 atoms
  using lattice units in orthogonal box = (0.0000000 0.0000000 0.0000000) to (15.874011 15.874011 15.874011)
  create_atoms CPU = 0.002 seconds
set type 1 type/fraction 2 0.32 78393
Setting atom values ...
  1310 settings made for type/fraction
mass 1 1.0
mass 2 1.0
pair_style lj/cut  3.5
pair_modify tail  yes
pair_coeff 1  1  1.0  1.0   # Intearaction between 1 and 1 set with epsilon = 1 and sigma = 1
pair_coeff 1  2  1.5  0.8
pair_coeff 2  2  0.5  0.88

write_data data.0
System init for write_data ...
Neighbor list info ...
  update every 1 steps, delay 10 steps, check yes
  max neighbors/atom: 2000, page size: 100000
  master list distance cutoff = 3.8
  ghost atom cutoff = 3.8
  binsize = 1.9, bins = 9 9 9
  1 neighbor lists, perpetual/occasional/extra = 1 0 0
  (1) pair lj/cut, perpetual
      attributes: half, newton on
      pair build: half/bin/atomonly/newton
      stencil: half/bin/3d
      bin: standard
WARNING: Not all mixed pair coeffs generated from mixing. Use write_data with 'pair ij' option to store all pair coeffs. (../write_data.cpp:312)


#############################
#   M E L T   S Y S T E M   #
#############################

velocity all create 2.4 9580093 mom yes dist gaussian # Assign velocities
                                                    # Temperature 2.4, random number seed, zero linear momentum
                                                                                # Gaussian distribution

timestep 0.002   # simulation timestep
thermo 1000       # output thermodynamic data every 1000 steps bf 100

# Define a fix  in this case with index 1 applied to all
# particles in the simulation. This fix is for simulations
# in the anisotropic NPT ensemble. Note that we use the MTK
# correction.
fix 1 all npt temp 2.4 2.4 0.1 iso 5.68 5.68 0.5 mtk yes tchain 5 pchain 5 # Use NPT ensemble
                                                                         # Set temperature and pressure and damping
                                                                         # Numbers of thermostats in chain and in barostat
run 10000          # run for 10000 steps
Per MPI rank memory allocation (min/avg/max) = 3.642 | 3.644 | 3.648 Mbytes
Step Temp E_pair E_mol TotEng Press Volume 
       0          2.4   -6.3097323            0   -2.7106323   -4.0355096         4000 
    1000    2.3926906   -5.0077559            0   -1.4196172    5.7767497    4079.2578 
    2000    2.4095629   -4.9652361            0   -1.3517953    5.5660635    4123.8942 
    3000    2.3912976   -5.0161742            0   -1.4301246     5.530942     4097.571 
    4000    2.4463364   -4.9741615            0   -1.3055744    5.8545491    4097.8849 
    5000    2.3843569   -4.9395269            0   -1.3638858    5.6224127    4129.5596 
    6000    2.4440979    -4.967251            0   -1.3020207    5.8312189    4100.0644 
    7000    2.4170924   -4.9724672            0   -1.3477349    5.8932833    4099.9791 
    8000    2.3850362   -4.9854252            0   -1.4087653    5.8359228    4079.8884 
    9000    2.4148576   -4.9889034            0   -1.3675226     5.727171    4109.8957 
   10000    2.4270197   -5.0327552            0   -1.3931357    6.0083812    4049.5597 
Loop time of 2.4236 on 48 procs for 10000 steps with 4000 atoms

Performance: 712989.433 tau/day, 4126.096 timesteps/s
99.6% CPU use with 48 MPI tasks x no OpenMP threads

MPI task timing breakdown:
Section |  min time  |  avg time  |  max time  |%varavg| %total
---------------------------------------------------------------
Pair    | 1.0687     | 1.1236     | 1.1977     |   2.5 | 46.36
Neigh   | 0.20586    | 0.21262    | 0.22143    |   0.8 |  8.77
Comm    | 0.75736    | 0.82992    | 0.9078     |   3.8 | 34.24
Output  | 0.00024289 | 0.00024681 | 0.00031615 |   0.0 |  0.01
Modify  | 0.21521    | 0.24236    | 0.26298    |   2.7 | 10.00
Other   |            | 0.01482    |            |       |  0.61

Nlocal:        83.3333 ave          92 max          73 min
Histogram: 1 0 0 12 8 10 8 5 1 3
Nghost:        1625.62 ave        1661 max        1601 min
Histogram: 3 3 7 8 15 4 3 3 1 1
Neighs:        9417.33 ave       10654 max        7983 min
Histogram: 1 1 0 9 9 11 7 6 3 1

Total # of neighbors = 452032
Ave neighs/atom = 113.00800
Neighbor list builds = 910
Dangerous builds = 243

# Equilibrate just above the melting temperature to avoid step fn in T

fix 1 all npt temp 1.25 1.25 0.1 iso 5.68 5.68 0.5 mtk yes tchain 5 pchain 5
run 2000
Per MPI rank memory allocation (min/avg/max) = 3.643 | 3.645 | 3.649 Mbytes
Step Temp E_pair E_mol TotEng Press Volume 
   10000    2.4270197   -5.0327552            0   -1.3931357    6.0083812    4049.5597 
   11000    1.2505218   -6.8995637            0     -5.02425    5.6550852    3289.1952 
   12000    1.2467828   -6.9162811            0   -5.0465745    5.7227525    3279.3719 
Loop time of 0.571298 on 48 procs for 2000 steps with 4000 atoms

Performance: 604938.479 tau/day, 3500.801 timesteps/s
99.6% CPU use with 48 MPI tasks x no OpenMP threads

MPI task timing breakdown:
Section |  min time  |  avg time  |  max time  |%varavg| %total
---------------------------------------------------------------
Pair    | 0.24731    | 0.2743     | 0.29632    |   1.9 | 48.01
Neigh   | 0.03668    | 0.039537   | 0.042558   |   0.6 |  6.92
Comm    | 0.1834     | 0.2091     | 0.24147    |   2.4 | 36.60
Output  | 5.1443e-05 | 5.2634e-05 | 6.652e-05  |   0.0 |  0.01
Modify  | 0.039199   | 0.043637   | 0.04651    |   1.1 |  7.64
Other   |            | 0.004674   |            |       |  0.82

Nlocal:        83.3333 ave          92 max          73 min
Histogram: 2 1 4 5 7 7 13 6 0 3
Nghost:        1877.52 ave        1902 max        1854 min
Histogram: 3 4 4 7 5 7 6 6 5 1
Neighs:        11642.8 ave       13492 max        9608 min
Histogram: 1 0 3 5 12 12 9 3 2 1

Total # of neighbors = 558856
Ave neighs/atom = 139.71400
Neighbor list builds = 142
Dangerous builds = 11

#############################
# L I N E A R  Q U E N C H  #
#############################

# Define solid atoms. This closely follows ten Wolde  Ruiz-Montero and Frenkel  Faraday Discuss  1996  104  93-110
# Compute components of the per-atom q6 vector
compute q6 all orientorder/atom degrees 1 6 components 6 nnn NULL cutoff 1.3 # compute the Q6 parameter.
                                                                             # Use all neighbours within 1.3 unit cell.

# get number of connections
compute coord_number all coord/atom orientorder q6 0.5

# An atom is solid if it has 8 or more connections (of a possible 14)
variable is_solid atom c_coord_number>=8
group solid dynamic all var is_solid    # Must be dynamic to update
dynamic group solid defined

# do clustering
compute cluster solid cluster/atom 1.3 # Create a cluster where all atoms within are solid and max 1.3 units from another member

# define chunks one chunk per cluster
compute clus_chunks solid chunk/atom c_cluster nchunk every compress yes  # Says which atoms are in which chunk

# count the size of each chunk
compute size_chunks solid property/chunk clus_chunks count


# Find the maximum entry in the vector of chunk sizes
variable max_n equal max(c_size_chunks)


# Thermo style which includes this variable
# thermo_style custom step temp pe vol v_max_n

thermo ${N}  # Print the thermo information every 100 steps
thermo 1000  

# Reset the npt fix at a lower temperature (below freezing)
fix 1  all npt temp  ${temp} ${temp}  0.1  iso  5.68  5.68  0.5  mtk yes tchain  5  pchain  5
fix 1  all npt temp  0.45 ${temp}  0.1  iso  5.68  5.68  0.5  mtk yes tchain  5  pchain  5
fix 1  all npt temp  0.45 0.45  0.1  iso  5.68  5.68  0.5  mtk yes tchain  5  pchain  5

dump dmp2 all dcd ${N} traj.dcd
dump dmp2 all dcd 1000 traj.dcd


compute msd all msd com yes
variable twopoint equal c_msd[4]/6/(step*dt+1.0e-6)
fix 9 all vector 10 c_msd[4]
variable fit equal slope(f_9)/6/(10*dt)
thermo_style custom step temp pe c_msd[4] v_twopoint v_fit v_max_n

fix 1 all npt temp 1.25 ${temp} 0.1 iso 5.68 5.68 0.5 mtk yes tchain 5 pchain 5
fix 1 all npt temp 1.25 0.45 0.1 iso 5.68 5.68 0.5 mtk yes tchain 5 pchain 5
run 2000000 # 5000000  # Run for this many steps
Neighbor list info ...
  update every 1 steps, delay 10 steps, check yes
  max neighbors/atom: 2000, page size: 100000
  master list distance cutoff = 3.8
  ghost atom cutoff = 3.8
  binsize = 1.9, bins = 8 8 8
  4 neighbor lists, perpetual/occasional/extra = 1 3 0
  (1) pair lj/cut, perpetual
      attributes: half, newton on
      pair build: half/bin/atomonly/newton
      stencil: half/bin/3d
      bin: standard
  (2) compute orientorder/atom, occasional
      attributes: full, newton on
      pair build: full/bin/atomonly
      stencil: full/bin/3d
      bin: standard
  (3) compute coord/atom, occasional
      attributes: full, newton on
      pair build: full/bin/atomonly
      stencil: full/bin/3d
      bin: standard
  (4) compute cluster/atom, occasional
      attributes: full, newton on
      pair build: full/bin/atomonly
      stencil: full/bin/3d
      bin: standard
Per MPI rank memory allocation (min/avg/max) = 9.813 | 9.819 | 9.824 Mbytes
Step Temp PotEng c_msd[4] v_twopoint v_fit v_max_n 
   12000    1.2467828   -6.9162811 3.9443045e-34 2.7391003e-36 8.3333333e+20            1 
   13000    1.2498752   -6.9476914   0.50839803 0.0032589616  0.041603506            2 
   14000    1.2337433   -6.8940328   0.98924158 0.0058883425  0.040644727            2 
   15000    1.2639732   -6.9507823    1.4160376 0.0078668753  0.039328353            1 
   16000    1.2533703   -6.9350511     1.862641  0.009701255  0.037979052            1 
   17000    1.2642732   -6.9106317    2.3112261  0.011329539  0.037771339            1 
   18000     1.239347   -6.9297689    2.7245927  0.012613855  0.037443738            2 
   19000    1.2476039   -6.9475548    3.2143864  0.014098186  0.037232886            2 
   20000    1.2377633    -6.963091    3.7120623  0.015466926  0.037561706            1 
   21000    1.2590381   -6.9307105    4.1220033  0.016357155   0.03771059            2 
   22000    1.2468301   -6.8831478    4.5103621  0.017084705  0.037566703            2 
   23000    1.2289285   -6.9347879    4.9580228   0.01796385  0.037356376            3 
   24000    1.2293362   -6.9516311    5.4388738  0.018884978  0.037273245            1 
   25000    1.2537748   -6.9633973    5.8586784  0.019528928  0.037264999            2 
   26000    1.2248933   -6.9543379    6.2706074    0.0200981  0.037167794            3 
   27000    1.2426738   -6.9436784    6.7633777  0.020874622  0.037161615            1 
   28000    1.2563129   -6.9440753    7.2227595  0.021496308  0.037232588            1 
   29000    1.2745595   -6.9350823    7.7685771  0.022323497  0.037348716            2 
   30000    1.2747096   -6.9488529    8.3371408  0.023158724  0.037578114            1 
   31000    1.2626368   -6.9736638    8.7202799  0.023441612  0.037802864            1 
   32000     1.216353   -6.8913371    9.2432628  0.024070997  0.037932628            2 
   33000    1.2561568   -6.9488345    9.7083387  0.024516007  0.038071378            1 
   34000    1.2639025   -6.9792213    10.189413  0.024974051  0.038169939            2 
   35000    1.2247514   -6.9494354    10.611413  0.025265268  0.038264483            1 
   36000     1.223812   -6.9274609    11.041868  0.025559878  0.038291735            1 
   37000    1.2208847   -6.9465004     11.52925   0.02596678  0.038307434            1 
   38000    1.2301401   -6.9295754    11.999711  0.026315156  0.038325404            1 
   39000    1.2467718   -6.9614655    12.459005  0.026621805  0.038370618            1 
   40000    1.2365782   -6.9698864    13.007579  0.027099122  0.038434203            1 
   41000    1.2127922   -6.9454405    13.648776  0.027741414  0.038532485            2 
   42000    1.2438785   -6.9443382    14.069098  0.027914877  0.038645693            2 
   43000    1.2504403   -6.9286056    14.507394  0.028115104  0.038725981            1 
   44000    1.2114543   -6.9300171    14.946902  0.028308527  0.038793249            1 
   45000    1.2324951   -6.9883589    15.406067  0.028529753   0.03884099            1 
   46000    1.2453577   -6.9599084    15.947055  0.028889591  0.038888662            2 
   47000    1.2312343   -6.9293761    16.241824   0.02879756  0.038923683            2 
   48000    1.2240303   -6.9861121     16.79343   0.02915526   0.03893904            2 
   49000    1.2080829   -6.9253446    17.365779  0.029533638  0.038965618            1 
   50000    1.2455416   -6.9597573    17.833681  0.029722801  0.039010383            1 
   51000    1.2268772   -6.9943047    18.254556  0.029827706  0.039052596            1 
   52000    1.2192915   -6.9732206    18.665458  0.029912593  0.039069136            1 
   53000     1.225097   -6.9940797    19.199635  0.030188105  0.039089945            2 
   54000    1.2301551    -6.955454    19.738353  0.030460422  0.039115868            2 
   55000    1.2569622   -6.9420259    20.270404  0.030712734  0.039157749            1 
   56000    1.2374336   -7.0005911    20.621855  0.030687284  0.039201229            1 
   57000    1.2690401   -6.9749535    21.118017  0.030874294   0.03921552            1 
   58000    1.2343473   -6.9761358    21.480998  0.030863502  0.039213945            1 
   59000    1.2237623   -6.9735582    21.845098  0.030854659  0.039190872            2 
   60000    1.2112267   -6.9492782    22.462615  0.031198076  0.039175974            1 
   61000    1.2251139   -6.9275908    22.885053  0.031263733  0.039174487            1 
   62000    1.2260272   -6.9508679    23.315654  0.031338245  0.039160295            1 
   63000    1.2691389    -6.965277    23.740443  0.031402702  0.039137602            2 
   64000    1.2149285   -7.0000388    24.207796  0.031520568  0.039119901            2 
   65000    1.2335829    -7.024143    24.559339  0.031486332  0.039092073            3 
   66000    1.2204579   -7.0271572    24.841285  0.031365259  0.039057659            2 
   67000    1.2266731   -6.9806845    25.189186  0.031329834  0.038998148            1 
   68000    1.2293466   -6.9694068    25.563236  0.031327494   0.03892109            2 
   69000    1.2674659   -6.9471533    25.933826  0.031321046  0.038834238            1 
   70000    1.2226865   -6.9759697    26.276713  0.031281801  0.038740269            1 
   71000    1.2117092    -7.019731    26.570555  0.031186098   0.03864171            2 
   72000    1.2493525   -7.0110149    27.249557  0.031538839  0.038550699            1 
   73000    1.2241458   -6.9591414    27.800746  0.031736011  0.038484153            1 
   74000    1.1994182   -6.9842204      28.2281  0.031788401  0.038421297            1 
   75000    1.2217471   -6.9567582    28.784446  0.031982717  0.038361773            2 
   76000    1.2089726   -6.9852375    29.012558  0.031812015  0.038308804            3 
   77000    1.2255846   -6.9793798     29.34451  0.031758128  0.038239539            2 
   78000    1.2288494   -6.9768766    29.597924  0.031621713  0.038164942            1 
   79000    1.2081747    -7.032564    29.823641  0.031459537  0.038083261            2 
   80000    1.2231403   -7.0121713    30.362976    0.0316281  0.037995973            1 
   81000    1.2131205   -7.0119972    30.842025  0.031730479  0.037919211            2 
   82000    1.2289495     -7.04923    31.156582  0.031663193  0.037840926            1 
   83000    1.2495017   -7.0355093    31.696057   0.03182335  0.037766101            3 
   84000     1.229911   -7.0119154    31.960335  0.031706682  0.037690048            2 
   85000    1.2053758   -6.9673181    32.483474  0.031846543  0.037615187            1 
   86000    1.1924975   -6.9665824     32.69027  0.031676618  0.037538963            2 
   87000    1.2175227   -7.0161348     33.13966   0.03174297  0.037461131            1 
   88000    1.1822342   -7.0335264     33.62032  0.031837424  0.037385932            1 
   89000    1.2085418   -7.0009206    34.108749  0.031937031  0.037325713            4 
   90000    1.2279604   -6.9599153    34.801054  0.032223198  0.037278567            1 
   91000    1.2395849    -6.996676    35.260371  0.032289717  0.037235097            2 
   92000     1.237231    -6.980965    35.438607  0.032100187  0.037186985            1 
   93000    1.2236934   -7.0327945    35.769283  0.032051329  0.037140868            2 
   94000    1.2374559   -7.0252055    36.265058  0.032149874  0.037091966            1 
   95000    1.2015715   -7.0233015    36.807956  0.032287681  0.037052752            1 
   96000    1.2453895    -7.030496    37.411145  0.032474952  0.037026347            2 
   97000    1.1897003    -7.036255    37.843691  0.032511762  0.037003175            1 
   98000    1.1940163   -7.0325162    38.404057  0.032656511  0.036983082            1 
   99000    1.1895398   -7.0216693    39.013146  0.032839348  0.036978007            2 
  100000    1.1887336   -7.0290596    39.488099  0.032906749  0.036983124            2 
  101000     1.208895   -7.0494714    39.962539  0.032972391  0.036984256            1 
  102000    1.2105972   -7.0244232    40.433254  0.033033704  0.036988681            2 
  103000    1.2038292   -7.0204349    40.799094  0.033008976  0.036985714            2 
  104000    1.2196805   -7.0170948    41.174111  0.032992076  0.036983718            3 
  105000     1.213457   -6.9901195    41.443514  0.032891678  0.036974611            2 
  106000    1.2195856    -7.015325    42.087792  0.033087886  0.036962424            2 
  107000    1.2245517   -7.0460995     42.38476  0.033009937  0.036953285            1 
  108000    1.1850603   -7.0410756    42.854546  0.033066779  0.036942013            2 
  109000     1.194032   -7.0015543    43.284752  0.033092318  0.036931413            1 
  110000    1.2072587   -7.0161551    43.446249  0.032913825  0.036913197            1 
  111000    1.2193381   -7.0506447    43.830443  0.032905738   0.03689278            5 
  112000     1.236319   -6.9906505    44.273065  0.032941269  0.036867789            1 
  113000    1.1944601   -6.9836254    44.833475  0.033063034  0.036848833            1 
  114000     1.177056   -7.0206029    45.103634  0.032970493  0.036832189            3 
  115000    1.1960328   -7.0254451    45.728158  0.033136347   0.03681407            1 
  116000    1.2038608   -6.9952674    46.113237  0.033127325  0.036799861            1 
  117000    1.2086141   -7.0199784    46.486984  0.033110387  0.036783885            2 
  118000    1.2310936   -7.0371264    46.892162  0.033115934  0.036770564            1 
  119000    1.2094837   -7.0159121      47.4134  0.033202661  0.036753106            1 
  120000    1.2051589   -7.0239027    47.957982  0.033304154  0.036741991            1 
  121000    1.2086526   -7.0236975    48.296326  0.033261932   0.03672982            1 
  122000     1.189818   -6.9808318    48.851871  0.033368764  0.036715598            1 
  123000    1.2394863   -7.0046803    49.261667  0.033375113  0.036705418            1 
  124000     1.221698   -6.9898571    49.664478  0.033376665  0.036696081            1 
  125000    1.2274161   -7.0400144    49.825559  0.033217039  0.036682058            3 
  126000    1.1953717   -7.0390109    50.278162  0.033252753  0.036664796            1 
  127000    1.2052458   -6.9875691    50.414166  0.033080161  0.036640456            3 
  128000    1.2156732   -7.0434192    50.852265  0.033106943  0.036613415            1 
  129000    1.2314297   -6.9762477     51.36876  0.033183953  0.036585532            1 
  130000    1.1710646   -7.0107187    51.564915  0.033054432   0.03655613            1 
  131000    1.1984517   -7.0262842    51.851581  0.032984466  0.036521951            1 
  132000    1.1872779   -7.0341497    52.216646  0.032965054  0.036483764            1 
  133000    1.2091641   -7.0795809    52.411734  0.032839432  0.036449112            2 
  134000    1.2010902   -7.0515204    53.031675  0.032979897  0.036413596            2 
  135000    1.2006426   -7.0350049    53.577336   0.03307243  0.036380356            3 
  136000     1.216376   -7.0547964    53.589709  0.032836831   0.03634541            2 
  137000    1.1808299   -7.0368026    54.091168   0.03290217  0.036309533            1 
  138000    1.1806176   -7.0755902    54.702886  0.033033144  0.036274281            2 
  139000    1.1862601   -7.0381888    54.846252  0.032881446  0.036244177            3 
  140000    1.2092044   -7.0665203    55.323131  0.032930435  0.036211856            1 
  141000    1.2129731   -7.0234393    55.694333  0.032916272  0.036176875            1 
  142000    1.1864135   -7.0747222    56.094171  0.032919114  0.036142953            1 
  143000    1.2070344   -7.0839583    56.036584  0.032655352  0.036105551            2 
  144000    1.1957472   -7.0476999     56.91963  0.032939601  0.036067755            1 
  145000    1.1769357   -7.0201182    57.328848  0.032947614  0.036033965            1 
  146000     1.202597   -7.0647806    57.719127  0.032944707  0.036002464            1 
  147000    1.2062274   -7.1212158    58.036412   0.03290046  0.035972804            1 
  148000    1.2110634   -7.0554288    58.398743  0.032882175  0.035938182            2 
  149000    1.2084399   -7.0395416    59.001853  0.032998799  0.035908262            1 
  150000    1.1997391   -7.0405935    59.645529  0.033136405  0.035884482            1 
  151000    1.1929037   -7.0593032    60.051913  0.033141232  0.035862912            2 
  152000    1.2140257    -7.058096    60.453912  0.033143592  0.035841448            3 
  153000    1.2099851   -7.0795212    60.614835  0.033014616  0.035820357            2 
  154000    1.1957036    -7.062015    61.169694  0.033100484   0.03579955            1 
  155000    1.2319189    -7.069398     61.77336  0.033211484  0.035779452            3 
  156000    1.2157463   -7.0722731    61.997943  0.033118559  0.035757803            1 
  157000    1.1774521   -7.0934275    62.399613  0.033120814  0.035738035            1 
  158000    1.1911448   -7.0808768    63.031018  0.033244208  0.035721509            1 
  159000    1.1828283   -7.0761728     63.55119  0.033307752  0.035706742            1 
  160000    1.1880859   -7.0715871     64.05142  0.033360114  0.035692659            2 
  161000     1.211664   -7.0480316    64.219712  0.033240017   0.03567688            2 
  162000    1.1944002   -7.0537778    64.544072  0.033201683  0.035660106            2 
  163000    1.1880411   -7.0436825     65.11942  0.033292137  0.035644358            3 
  164000    1.1892496   -7.0707734    65.459422  0.033261901  0.035631682            2 
  165000      1.18279   -7.0599306    65.550452  0.033106289  0.035615006            2 
  166000    1.1912008   -7.0967117     65.99332  0.033129176   0.03559584            2 
  167000     1.180596   -7.0014807    66.448816  0.033158092  0.035576639            2 
  168000    1.2149623   -7.0734852    67.005665  0.033236937  0.035559349            2 
  169000    1.1738329   -7.0786941    67.709324  0.033387241  0.035544988            4 
  170000     1.213807   -7.0774948    67.757521  0.033214471  0.035529102            1 
  171000    1.1715764   -7.0322069    68.343847  0.033305968   0.03551424            1 
  172000    1.1684981   -7.1049672    68.402458  0.033140726  0.035497329            2 
  173000    1.1911085   -7.0530582     68.82745  0.033153878  0.035478024            2 
  174000    1.1708764   -7.0480984    69.010713  0.033051108  0.035455953            1 
  175000    1.1883759   -7.0836524    69.262487  0.032982137  0.035430087            1 
  176000    1.1849858   -7.0371056    69.641237   0.03297407   0.03540855            1 
  177000     1.197057   -7.0869643    69.768295  0.032847597  0.035384717            1 
  178000    1.2015439   -7.0783996    70.296421  0.032910309  0.035359096            1 
  179000    1.1897581   -7.0874412    70.780928  0.032952015  0.035334985            3 
  180000    1.2005104   -7.0749819    71.224539  0.032974323  0.035308936            2 
  181000    1.1856803   -7.0852863    71.546882  0.032940553  0.035287199            2 
  182000    1.1738403   -7.0907271    72.439366  0.033168208  0.035268363            1 
  183000    1.2036095   -7.0327068      72.8998   0.03319663  0.035251074            1 
  184000    1.1793119   -7.1036638    72.891888   0.03301263  0.035234104            1 
  185000     1.183313   -7.0925592    73.060369  0.032910076  0.035212189            1 
  186000    1.1908552   -7.0747679    73.498163  0.032929284  0.035190004            1 
  187000    1.1797332   -7.0651118    74.097015   0.03302006   0.03516801            2 
  188000    1.1743978   -7.0344512    74.399191  0.032978365  0.035146933            2 
  189000    1.1766201    -7.080629    74.766629  0.032965886  0.035124962            1 
  190000    1.1840883   -7.0601147    75.479225  0.033104923  0.035104756            2 
  191000    1.1646854    -7.104758    75.647388  0.033004968  0.035085677            1 
  192000    1.1719863   -7.0733972    76.293493  0.033113495  0.035067781            3 
  193000    1.1697213   -7.0704274    76.353289  0.032967741  0.035050745            2 
  194000    1.1808654   -7.0748336     76.78972  0.032985275  0.035031606            5 
  195000    1.2010132   -7.1178019    77.036548  0.032921602  0.035014464            2 
  196000    1.1782291   -7.1192893    77.765881  0.033063725  0.034998012            2 
  197000    1.1922517   -7.1109945    78.311885  0.033126855  0.034984509            2 
  198000    1.1611147   -7.0828874    78.710405  0.033127275  0.034971708            1 
  199000    1.1802511   -7.0676151    79.449306  0.033270229  0.034956662            1 
  200000    1.1573713   -7.0890057    79.357834  0.033065764  0.034945381            1 
  201000    1.1552384   -7.0850093    79.919062  0.033133939  0.034932013            1 
  202000    1.1815129   -7.1040441    80.121822  0.033053557  0.034919846            2 
  203000    1.1827701    -7.106686    80.544458  0.033064227  0.034907606            4 
  204000    1.1712335   -7.1107997    81.426118  0.033262303  0.034896705            1 
  205000    1.1991285   -7.1494482    81.804395  0.033253819  0.034886392            1 
  206000     1.169292   -7.0466997    82.304149  0.033294559  0.034877221            1 
  207000    1.1630147   -7.0770295    82.610419  0.033257012   0.03486824            2 
  208000    1.1892336   -7.1149097    82.793673  0.033170542  0.034857945            1 
  209000    1.1765768   -7.0789676     83.19051   0.03317006  0.034846056            1 
  210000    1.2033376   -7.0936821    83.497124  0.033133779  0.034834356            2 
  211000    1.1640942   -7.1047284    84.300284  0.033293951  0.034823377            3 
  212000    1.1846642   -7.0862744    84.389538  0.033171988  0.034812856            1 
  213000    1.1767663   -7.1131785    84.680828  0.033130214  0.034801099            1 
  214000    1.1575701   -7.1160202    84.812035  0.033026493  0.034787472            2 
  215000    1.1782202    -7.088752    85.105928  0.032986794  0.034772984            2 
  216000    1.1668882   -7.0842231    85.372817  0.032937044  0.034759287            1 
  217000    1.1699732   -7.1430608    85.947483  0.033005946  0.034744732            3 
  218000    1.1509166   -7.0766894    86.616849  0.033110416  0.034731086            3 
  219000    1.1476054   -7.0983997     86.68546  0.032985335  0.034715784            2 
  220000     1.172413   -7.1440242    86.983977  0.032948476   0.03469977            3 
  221000    1.1664252   -7.1371344    87.185645  0.032875432  0.034682804            1 
  222000    1.1825057   -7.1294505    87.523722   0.03285425  0.034665326            2 
  223000    1.1764383    -7.092748    88.184889  0.032953994  0.034647901            3 
  224000    1.1330988   -7.1509915    88.533373  0.032936523  0.034633202            1 
  225000     1.157392   -7.0939169    88.887347  0.032921239  0.034615477            1 
  226000    1.1783062   -7.1003308    89.169036  0.032879438  0.034595834            3 
  227000    1.1389763    -7.117761    89.510596  0.032859984  0.034578234            3 
  228000    1.1654383   -7.1099963    89.941718  0.032873435  0.034559835            1 
  229000    1.1422916   -7.1510674    89.636455  0.032618797  0.034538798            1 
  230000     1.149327   -7.1334222    90.378155  0.032745708  0.034516033            1 
  231000    1.1909779   -7.1208262    90.806099  0.032758333  0.034494989            3 
  232000    1.1520526   -7.1451712    90.683071  0.032572942  0.034474164            2 
  233000    1.1852491   -7.1646512    91.440804   0.03270415  0.034453554            1 
  234000    1.1643315   -7.1146509    92.093231  0.032796735  0.034434403            1 
  235000    1.1515611   -7.1166447    92.403075  0.032767048  0.034415761            1 
  236000    1.1829581   -7.1277047     92.68106  0.032726363   0.03439634            1 
  237000    1.1598354   -7.0952915    93.106626  0.032737914  0.034377384            3 
  238000    1.1689853   -7.1492719    93.451791  0.032721215  0.034359257            2 
  239000    1.1559667   -7.1700697    93.511219  0.032605028  0.034339812            1 
  240000    1.1804744   -7.1133515    93.940959  0.032618389  0.034319006            3 
  241000    1.1641659   -7.1284774    94.271806  0.032597443  0.034299643            4 
  242000    1.1553497   -7.1428509    94.909428   0.03268231  0.034279824            1 
  243000    1.1557359   -7.1318374    95.087697   0.03260895  0.034261161            2 
  244000    1.1480046   -7.1045749    95.791472  0.032715667  0.034242327            1 
  245000    1.1519172    -7.112423    95.825018  0.032593543  0.034224058            1 
  246000    1.1715509   -7.1369256    96.192873  0.032585662  0.034204736            1 
  247000    1.1381626   -7.1108744    96.903313  0.032693426   0.03418686            1 
  248000    1.1464931   -7.1094955    97.201793  0.032661893  0.034169209            2 
  249000    1.1420164   -7.1278556    97.499494  0.032630353  0.034151138            1 
  250000    1.1384372   -7.1817978     97.35906   0.03245302   0.03413134            3 
  251000    1.1532435   -7.1440985    97.972749  0.032527473  0.034111463            2 
  252000    1.1249791   -7.1328612    98.303365  0.032507726  0.034091825            1 
  253000    1.1331104   -7.1136237    99.133354   0.03265262  0.034074412            2 
  254000    1.2052037   -7.1479541    99.068048   0.03250264    0.0340562            2 
  255000    1.1555786   -7.1548936    99.407671  0.032486167  0.034037457            1 
  256000    1.1404545   -7.1757832    99.328226  0.032333407   0.03401698            3 
  257000    1.1381102   -7.1192977    100.11653  0.032463207  0.033994538            3 
  258000    1.1542488    -7.104779    100.05935  0.032318913  0.033971921            2 
  259000    1.1633345   -7.1377064    100.10936  0.032210218  0.033948966            2 
  260000    1.1529235   -7.1479616    100.44466    0.0321938   0.03392448            3 
  261000    1.1571896   -7.1684619    100.83619  0.032195462  0.033901736            1 
  262000    1.1497304   -7.1830426    100.94972  0.032108691  0.033877752            2 
  263000    1.1643126   -7.1089281    101.89389  0.032285771    0.0338543            1 
  264000    1.1754319   -7.1683702    102.20804  0.032262639  0.033832342            3 
  265000    1.1587413   -7.1855758    102.63344  0.032274667  0.033811373            2 
  266000    1.1605008   -7.1541921    103.05943  0.032286788  0.033791439            3 
  267000    1.1550692   -7.1804316    103.50737  0.032305672  0.033771844            1 
  268000    1.1427612   -7.1513381    103.99673  0.032337293  0.033752817            2 
  269000    1.1430468   -7.1625847    103.88952  0.032183865  0.033733201            3 
  270000    1.1479345   -7.1905027    104.63655   0.03229523  0.033712721            2 
  271000    1.1364527   -7.1363543    104.86606  0.032246636  0.033693391            2 
  272000    1.1545029   -7.1863186    105.24228  0.032243345  0.033673842            1 
  273000    1.1593817   -7.1760644    105.10331  0.032082816  0.033653858            3 
  274000    1.1391962   -7.1394704    105.76913  0.032168226  0.033632213            1 
  275000    1.1603549   -7.1192725    106.24512  0.032195492  0.033611534            2 
  276000    1.1739233   -7.1918486    106.08603  0.032030806  0.033589419            1 
  277000     1.138628   -7.1406928    106.78173  0.032124468  0.033567815            1 
  278000    1.1271221   -7.1740801    106.61173  0.031957954  0.033546468            1 
  279000    1.1601127   -7.1948813    107.52415  0.032115934  0.033526085            1 
  280000    1.1637069    -7.138488    107.64855  0.032038259  0.033505938       -1e+20 
  281000    1.1291145   -7.1293312    107.97868  0.032022146  0.033485335            1 
  282000    1.1475561   -7.1576436    108.48636  0.032058616   0.03346484            1 
  283000    1.1472558   -7.1412934    108.65182  0.031994059   0.03344434            1 
  284000    1.1379388   -7.1790761    108.60789  0.031868514  0.033422326            3 
  285000    1.1418229   -7.1551589    109.33851  0.031970325  0.033399636            1 
  286000    1.1497009   -7.1605469    109.76662   0.03198328  0.033377833            5 
  287000    1.1537094   -7.1417014     109.8019  0.031882084  0.033355701            2 
  288000    1.1781248   -7.1693001    110.09137  0.031855141  0.033333735            1 
  289000    1.1398773   -7.1563459    110.20855  0.031778704  0.033310968            1 
  290000    1.1599227   -7.2169297    110.82102   0.03184512  0.033287402            1 
  291000    1.1381024   -7.1601811    111.30879  0.031875369  0.033264821            1 
  292000    1.1480246   -7.1395477    111.66258  0.031867173  0.033243508            1 
  293000    1.1384344   -7.1908684    112.16438  0.031901132  0.033221624            1 
  294000    1.1438498   -7.1710147     112.2769  0.031824517  0.033199431            2 
  295000      1.15094    -7.171852    112.61335   0.03181168  0.033177443            3 
  296000    1.1281422   -7.1852483    112.62789  0.031708303  0.033156048            2 
  297000    1.1106538    -7.149453    113.00217  0.031706558  0.033134233            1 
  298000    1.1472088   -7.1679323    113.39799  0.031710846  0.033111754            1 
  299000    1.1321835   -7.1761981    113.49864  0.031632842  0.033088618            1 
  300000    1.1294082    -7.169826    114.14667  0.031707409  0.033064793            1 
  301000    1.1565075   -7.1648387    113.80115  0.031506409  0.033041926            1 
  302000    1.1269689   -7.2137765    114.95007  0.031719115  0.033019593            3 
  303000    1.1366501    -7.170212    114.99068  0.031625599  0.032997986            2 
  304000    1.1169593   -7.1606507    115.71023  0.031718813   0.03297732            2 
  305000    1.1388685   -7.1501819    116.40319   0.03180415  0.032958104            1 
  306000    1.1252002   -7.1770318    116.91102  0.031838513  0.032939628            3 
  307000    1.1492398   -7.2396984     116.4764   0.03161683  0.032920778            1 
  308000    1.1363204   -7.2049767    117.38317  0.031759517  0.032901785            1 
  309000    1.1142924   -7.1555098      117.742  0.031753506  0.032883384            2 
  310000    1.1111883   -7.2478295     117.7238  0.031646184  0.032864513            2 
  311000    1.1067404   -7.1503542    118.49982  0.031752362  0.032845674            2 
  312000    1.1602673   -7.1690601    118.69775  0.031703459  0.032826838            2 
  313000    1.1406134   -7.2096353    118.41742  0.031527535  0.032806634            2 
  314000    1.1014652   -7.2123114    119.05228  0.031595615  0.032786817            1 
  315000    1.1363414   -7.1853083    119.41939  0.031592431  0.032767402            4 
  316000    1.1388713    -7.207157    119.25348  0.031448704  0.032746326            5 
  317000    1.1595948   -7.1744839    119.35499   0.03137618  0.032724829            1 
  318000    1.1256535   -7.2217982    119.96026  0.031436126  0.032702288            2 
  319000    1.1181323   -7.2008114    120.12972  0.031381849  0.032680765            2 
  320000    1.1319705   -7.1765423    120.55226  0.031393817  0.032658331            3 
  321000    1.1412583   -7.1776316    120.86458  0.031377097  0.032636755            2 
  322000    1.1036744   -7.2006723    121.14712  0.031352776  0.032613997            1 
  323000    1.1471597   -7.2039142    121.26451  0.031285993  0.032590592            1 
  324000    1.1021662   -7.1777299    121.51709  0.031254394  0.032567589            3 
  325000    1.1258541   -7.1829043    121.70442   0.03120626   0.03254304            2 
  326000    1.1255847    -7.187034     121.9867  0.031182695  0.032519106            2 
  327000    1.0984856   -7.1933542    122.16576  0.031132966  0.032494912            2 
  328000    1.1131228   -7.2077128    122.36595  0.031088911   0.03246976            3 
  329000    1.1073551   -7.2539587    122.21653  0.030956569  0.032444057            3 
  330000    1.1298461   -7.1823959    122.98417  0.031056608  0.032418573            1 
  331000    1.1278783   -7.2174198    123.22099  0.031022404  0.032393234            3 
  332000    1.1069756   -7.2338823    123.10238  0.030899191   0.03236804            2 
  333000    1.1201963   -7.2365631    123.27233   0.03084893  0.032342205            3 
  334000    1.1090063   -7.1947964    123.61174  0.030841252  0.032315939            3 
  335000    1.1208315   -7.2123225    124.51274  0.030973318  0.032290359            2 
  336000    1.0990427   -7.2392419    123.87643   0.03072332  0.032264825            2 
  337000     1.108834   -7.2236036    124.71477  0.030839459  0.032238555            1 
  338000    1.1289511     -7.21657     125.0502  0.030830918  0.032212441            1 
  339000    1.1336347   -7.2013269    125.44077  0.030835981  0.032185251            1 
  340000    1.1159187   -7.2292071    125.10717  0.030663523  0.032158266            1 
  341000     1.094059   -7.2052894    125.93492  0.030775885  0.032131445            1 
  342000    1.0936701   -7.2127752    125.50063  0.030580076  0.032103882            1 
  343000    1.1383199   -7.1945338    126.34062  0.030694999  0.032076919            1 
  344000    1.1268959   -7.2217747    126.11061  0.030550052    0.0320502            1 
  345000    1.1255544   -7.1847768    126.39554  0.030530323  0.032022479            1 
  346000    1.1224866   -7.2347285    126.63434  0.030499601   0.03199484            2 
  347000    1.1207481   -7.2386035    127.39536  0.030594467  0.031967361            2 
  348000    1.1167308   -7.2363523    127.56924  0.030548189  0.031940434            1 
  349000    1.0918144   -7.2141711    128.20202  0.030611752  0.031914384            2 
  350000    1.1126539   -7.2369132    127.97347  0.030469875  0.031887566            3 
  351000    1.1436434   -7.2507942    128.12425  0.030418863  0.031861192            1 
  352000    1.1282304   -7.2219563    128.57738   0.03043972  0.031834853            2 
  353000    1.1292216   -7.2399984     128.6962  0.030381538  0.031808283            3 
  354000    1.0974521   -7.2594627    129.12202  0.030395956  0.031781605            1 
  355000    1.1049552   -7.2381933    129.55357  0.030411637  0.031754313            3 
  356000    1.1117221   -7.2259196    129.40206  0.030290745   0.03172645            3 
  357000    1.1079782   -7.2091881    129.68869  0.030272803  0.031698388            2 
  358000    1.1100963    -7.215443    130.32933  0.030337368  0.031671537            4 
  359000    1.0970798   -7.2510304    130.40798  0.030271118  0.031644588            2 
  360000    1.1240345   -7.2726131    130.94459  0.030311249  0.031618208            5 
  361000    1.1021068   -7.2257579    131.59256  0.030376862  0.031592197            1 
  362000    1.0867549   -7.2036431    131.62629   0.03030071  0.031566719            1 
  363000    1.0922649   -7.2107916    132.05969  0.030316733  0.031541014            2 
  364000    1.1093598   -7.2372082    132.34224  0.030298132  0.031515923            1 
  365000    1.0989978   -7.2880127    132.23219  0.030189997  0.031491624            2 
  366000    1.1119398    -7.259769    132.61828   0.03019542  0.031466643            3 
  367000    1.1191174   -7.2788847    132.82783  0.030160725  0.031441558            2 
  368000    1.1066648    -7.197279    133.53566  0.030239053  0.031416776            2 
  369000    1.0895232   -7.2209983    133.97846  0.030257105  0.031393068            2 
  370000    1.0927781   -7.2545773     134.2765  0.030242454  0.031369462            1 
  371000    1.0874715   -7.2374153    134.76294  0.030270203  0.031346544            1 
  372000    1.0802664   -7.2512841    135.15956   0.03027768  0.031324032            4 
  373000     1.096583   -7.2389533    135.88226  0.030357966  0.031301664            1 
  374000     1.109959   -7.2423396     135.9873    0.0303002  0.031280332            2 
  375000    1.0822801   -7.2455883    135.98147  0.030218104  0.031257885            1 
  376000    1.1227199   -7.2611811    136.28105  0.030204133   0.03123448            1 
  377000    1.0965046   -7.2753098    136.40016  0.030150344  0.031210986            2 
  378000    1.1129919   -7.2599732    136.62928  0.030121093  0.031187493            1 
  379000    1.1144065   -7.2402388    137.04561   0.03013316  0.031163806            1 
  380000     1.119812   -7.2669546    137.63525  0.030183168  0.031140747            2 
  381000    1.0776979   -7.2506055    137.67652  0.030112975  0.031118289            2 
  382000      1.10984   -7.2436937    138.13975  0.030135198  0.031095551            3 
  383000    1.1226287   -7.3053746    137.92526  0.030009848  0.031073008            2 
  384000    1.0856936   -7.2904327     138.5667  0.030070899   0.03105017            4 
  385000    1.0906734   -7.2735822    138.29409  0.029933787  0.031027382            1 
  386000    1.0980026   -7.2181769    139.06229  0.030022082  0.031004852            2 
  387000    1.0853573   -7.2719231    138.94584  0.029919432  0.030982616            1 
  388000    1.0871928   -7.2144477    140.02124  0.030073291  0.030960823            3 
  389000    1.1123662   -7.2475908    140.25824  0.030046752   0.03093909            3 
  390000    1.0844062   -7.2917423    140.19628  0.029956471  0.030917464            1 
  391000    1.0995917   -7.2622317    140.92706  0.030035604   0.03089587            1 
  392000     1.108131   -7.2196085     141.0231  0.029979401  0.030875343            3 
  393000    1.0898676   -7.2680968    141.29829  0.029961469  0.030854511            2 
  394000    1.1053913   -7.2577185    141.74578  0.029980072  0.030833348            1 
  395000     1.107434   -7.2902914    142.35541  0.030032788  0.030813439            1 
  396000    1.0949561   -7.3006452    142.38416  0.029962997   0.03079295            1 
  397000    1.0787738   -7.2481887     142.2769  0.029865009  0.030771851            4 
  398000    1.0998344   -7.3253052    142.43773  0.029823646  0.030750785            1 
  399000    1.1041981   -7.2808836    143.43467  0.029957115  0.030729913            1 
  400000    1.1138805   -7.2382498    143.72913   0.02994357  0.030710589            1 
  401000    1.1237244   -7.2641454    143.97906  0.029920836  0.030690725            1 
  402000    1.1175571   -7.2496197    144.48133  0.029950525   0.03067141            1 
  403000    1.0888469   -7.2755626    144.74966  0.029931692  0.030651391            1 
  404000    1.0850559   -7.2356265    145.09431  0.029928694  0.030631526            1 
  405000     1.098416   -7.2975096    145.11779  0.029859627  0.030611676            2 
  406000    1.0825973   -7.2656238    145.58579   0.02988214  0.030591771            2 
  407000    1.0995521   -7.2702883    145.79256  0.029851057  0.030572337            2 
  408000    1.1175455   -7.2636032    146.06579  0.029833699  0.030553096            1 
  409000    1.0927416   -7.2784126    146.42988   0.02983494  0.030533998            2 
  410000    1.1136805   -7.2455419     146.4812  0.029772602  0.030515388            1 
  411000    1.0904666   -7.2692959    147.02948   0.02981133  0.030496787            1 
  412000    1.1153847   -7.2637095    146.66343  0.029664932  0.030477128            2 
  413000    1.1108347    -7.289201    147.00909  0.029662851  0.030456869            2 
  414000    1.0661518   -7.3061866    147.09187  0.029607864  0.030436008            2 
  415000    1.0884709   -7.3138103    147.52481  0.029623456  0.030415339            1 
  416000    1.0751117   -7.2689627     148.3109  0.029709715  0.030395467            2 
  417000    1.1047124   -7.3283227    147.54309   0.02948503  0.030375472            1 
  418000    1.0921051   -7.2756767    149.05046  0.029715004  0.030355989            3 
  419000    1.0722608   -7.2607809    149.32439  0.029698567   0.03033753            4 
  420000    1.0829029   -7.2819286     149.6411  0.029690694  0.030318539            4 
  421000    1.0812229   -7.2691157    149.72106  0.029635997  0.030300265            1 
  422000    1.0961403   -7.2853379    151.03519  0.029825274  0.030282764            1 
  423000    1.0781353   -7.2959613    150.64234  0.029677372  0.030265495            3 
  424000    1.0809879   -7.3099057    150.64249  0.029607409  0.030247622            1 
  425000    1.0796465   -7.2524405    151.29054  0.029664812  0.030229647            1 
  426000     1.092155     -7.26593    151.12256  0.029562316  0.030211243            2 
  427000    1.0687457   -7.2704485    151.82873    0.0296309  0.030193222            5 
  428000    1.0800199   -7.2837141    151.85077  0.029565961  0.030175182            4 
  429000    1.0834744   -7.3301625    151.45392  0.029419953  0.030156909            2 
  430000    1.0837857   -7.3125631    152.40049  0.029534978  0.030138379            1 
  431000    1.1125808   -7.2726452    152.31912   0.02945072  0.030119678            1 
  432000    1.0779634   -7.2874769    152.62003  0.029440592  0.030100919            1 
  433000    1.0686671   -7.3044306    153.01768  0.029449131  0.030081468            1 
  434000    1.0881663   -7.2821529    153.36535  0.029448032  0.030062486            1 
  435000    1.0815073   -7.3290768    153.56916  0.029419379  0.030043209            2 
  436000    1.0755275    -7.304284    153.62707  0.029362973  0.030024769            1 
  437000    1.0812376   -7.3080865    154.24489  0.029413594  0.030005775            3 
  438000    1.0841876   -7.2990921    154.00645  0.029301075  0.029986611            2 
  439000    1.0868135   -7.2393521    154.62898  0.029352501  0.029967513            2 
  440000    1.0768917   -7.3271694    154.56811  0.029274264  0.029948409            1 
  441000    1.0992109    -7.338151    154.76991  0.029246015  0.029929551            1 
  442000    1.0687163   -7.3223793    154.98606  0.029220599  0.029910255            2 
  443000     1.068749   -7.3169648     155.1728  0.029189768  0.029890542            3 
  444000    1.0832863   -7.2952316    155.46452  0.029178776  0.029870802            2 
  445000    1.1113718   -7.2933411    156.00806  0.029214993   0.02985147            3 
  446000    1.0567981   -7.3227512    155.67354  0.029086985  0.029832067            5 
  447000    1.0737762   -7.3077603    156.26055  0.029131347  0.029812731            2 
  448000    1.0779801   -7.3098914    156.43384  0.029098557  0.029792879            3 
  449000    1.0888479   -7.3112496    156.38341   0.02902439  0.029772725            1 
  450000    1.0939516   -7.3689786    156.56314  0.028993173  0.029753222            3 
  451000    1.0560299   -7.2937984    157.54108  0.029109586  0.029733929            2 
  452000    1.0809206   -7.3141905    157.88481  0.029108557  0.029714383            2 
  453000    1.0943362   -7.3024937    157.90659  0.029048306  0.029694631            2 
  454000     1.075084   -7.2953181    158.46985  0.029087711  0.029675889            2 
  455000     1.086327   -7.3262938    158.43073  0.029016617  0.029656811            2 
  456000    1.0729967   -7.3582103    158.75799   0.02901279  0.029637483            1 
  457000    1.0787862   -7.2781473    159.11951  0.029015228   0.02961821            3 
  458000    1.0714586   -7.3258943    158.85522  0.028903788  0.029599062            1 
  459000     1.084349   -7.2940324    159.66129  0.028987163  0.029580357            3 
  460000    1.0842344   -7.2699472    159.76599  0.028943114   0.02956144            1 
  461000    1.0779667   -7.3137629    160.62321  0.029035288  0.029541953            1 
  462000    1.0799264   -7.2970145    160.43319  0.028938165  0.029522451            2 
  463000    1.0549246    -7.338171    160.62527  0.028910236   0.02950323            1 
  464000    1.0658896   -7.3392723    160.65603  0.028853453  0.029484156            2 
  465000    1.0515137   -7.3493782    161.16467  0.028882558  0.029464703            1 
  466000    1.0496844    -7.306456    161.16168  0.028820043  0.029446059            1 
  467000    1.0870631   -7.3112932    161.62147  0.028840377  0.029426947            1 
  468000    1.0630371   -7.3312031    161.04722    0.0286765  0.029407666            1 
  469000    1.0660752   -7.3408431    161.91626  0.028769768  0.029388974            2 
  470000     1.057486   -7.3631176    161.88484  0.028702986  0.029370165            1 
  471000    1.0840097   -7.3398937    162.43368   0.02873915   0.02935138            2 
  472000    1.0756535   -7.3441378    163.26705  0.028825397  0.029332805            1 
  473000     1.053088   -7.3582156    163.27372  0.028765631  0.029314574            2 
  474000    1.0709973   -7.3800361    163.89919  0.028814907  0.029296036            5 
  475000    1.0571636   -7.3288686    163.60055  0.028701851  0.029277324            1 
  476000    1.0559542   -7.3690801    164.08093  0.028725653  0.029258861            2 
  477000    1.0666086   -7.3356387    164.78321  0.028788122  0.029240617            2 
  478000    1.0663823   -7.3347798    164.85076  0.028739672  0.029222621            2 
  479000    1.0602467   -7.3826781    164.24371  0.028574063  0.029203802            3 
  480000    1.0437847   -7.3057057    165.32685  0.028702578  0.029185059            2 
  481000    1.0508427   -7.3399874    165.54626  0.028680917  0.029166659            2 
  482000    1.0512848     -7.35807    165.27202     0.028574  0.029148141            3 
  483000    1.0512627   -7.3528948    165.84514  0.028613724  0.029129191            2 
  484000    1.0666304    -7.332205    166.00668  0.028582417  0.029110757            1 
  485000    1.0822843   -7.3824823    165.91181  0.028507184  0.029091979            4 
  486000    1.0455124   -7.3555976    166.37593  0.028528109  0.029073161            1 
  487000    1.0834931   -7.3677154    166.33818   0.02846307  0.029053863            1 
  488000    1.0619009   -7.4068155    166.44991  0.028423824  0.029034872            3 
  489000    1.0438305   -7.3591379    167.17652  0.028489522  0.029016168            1 
  490000    1.0593429   -7.3382001    167.41367  0.028471712   0.02899711            2 
  491000    1.0663372   -7.3444453    168.18838  0.028545211  0.028978561            3 
  492000    1.0785217   -7.3453189    167.63164  0.028392894  0.028960014            1 
  493000    1.0647094    -7.377815    168.27805  0.028444565  0.028941563            1 
  494000    1.0447719   -7.3620475    167.95222  0.028332022  0.028921688            2 
  495000    1.0377541   -7.3520223    168.29083   0.02833179  0.028902061            2 
  496000    1.0548303   -7.3737376    168.12543  0.028246879  0.028881931            1 
  497000    1.0338695   -7.3380872    168.50849  0.028254274  0.028862417            1 
  498000    1.0704273   -7.3472567    168.54167   0.02820309  0.028842589            2 
  499000    1.0636013   -7.3040569    169.64847  0.028331408  0.028822843            2 
  500000    1.0702194   -7.3465287    169.88962  0.028314936  0.028803723            2 
  501000    1.0681712    -7.361059    169.99379  0.028275746  0.028785163            2 
  502000    1.0386416   -7.3486667    170.12538  0.028241264  0.028766543            2 
  503000      1.04334   -7.3527912     170.7685  0.028291667   0.02874757            1 
  504000    1.0622277   -7.3471586    171.18128  0.028303783  0.028729409            3 
  505000    1.0727283   -7.3741528    171.02078  0.028221251  0.028711119            2 
  506000    1.0570081   -7.3790258    171.21673  0.028197749   0.02869267            3 
  507000     1.064918   -7.3899728    170.88008  0.028086798  0.028674052            3 
  508000    1.0388763   -7.3575294     171.7639  0.028176492  0.028655539            1 
  509000    1.0604643    -7.362165    172.33057  0.028213912  0.028637581            2 
  510000    1.0494949   -7.3847697    172.70358  0.028219539  0.028619902            2 
  511000    1.0484767   -7.3782689    172.33992   0.02810501  0.028602157            1 
  512000    1.0488049   -7.3869198    172.87296  0.028136876  0.028584398            1 
  513000    1.0536341   -7.3629726    173.37087   0.02816291  0.028566461            4 
  514000    1.0397591   -7.3619788    173.24211  0.028087242  0.028547922            1 
  515000    1.0594086   -7.3798331    173.14712  0.028017333  0.028529609            2 
  516000    1.0495598   -7.3946233    173.24864  0.027979431  0.028510817            1 
  517000    1.0652965   -7.3452066    174.16666  0.028073284  0.028491805            1 
  518000    1.0449373   -7.4073792    173.63927  0.027934246   0.02847284            2 
  519000    1.0539269   -7.3688666    174.07725  0.027950747  0.028453802            2 
  520000    1.0182527   -7.3938739    173.58429  0.027817995  0.028434915            3 
  521000    1.0629751   -7.4039439    174.53783  0.027917119  0.028416183            1 
  522000    1.0421978   -7.3961296     174.5913  0.027872175  0.028397211            2 
  523000    1.0487187   -7.3891693    174.95497  0.027876828  0.028378312            2 
  524000    1.0397307    -7.372221    175.60796  0.027927474  0.028359473            1 
  525000    1.0145125   -7.3589424    175.86151  0.027914525  0.028341044            2 
  526000    1.0571542   -7.3739581    175.43549  0.027793962  0.028321917            2 
  527000    1.0514204   -7.3834109    175.87858  0.027811287  0.028302529            1 
  528000     1.060051   -7.4016908    175.59957  0.027714579  0.028283069            2 
  529000    1.0353505   -7.3692005      176.102  0.027741336  0.028263909            3 
  530000    1.0426759   -7.3644498     175.9195  0.027660299  0.028245145            3 
  531000    1.0435847   -7.4305977    176.34006   0.02767421  0.028226238            1 
  532000    1.0407815   -7.3991617    176.81139   0.02769602  0.028206864            2 
  533000    1.0676975   -7.3696512    176.69656  0.027626103  0.028187619            3 
  534000    1.0605545   -7.3865279    176.65132   0.02756731    0.0281678            1 
  535000    1.0579856   -7.4030954    176.81844  0.027541814   0.02814766            2 
  536000     1.025889   -7.4178421    176.75493  0.027480555  0.028127406            1 
  537000     1.051621   -7.3795231    177.66527   0.02757065    0.0281074            1 
  538000    1.0517512   -7.3982361    178.41252  0.027635148  0.028087685            1 
  539000    1.0289302   -7.3999417    177.76107  0.027483159   0.02806761            2 
  540000    1.0608603   -7.3841338    178.27184  0.027511086  0.028047747            2 
  541000    1.0425252   -7.3907347    178.59666  0.027510268  0.028028118            1 
  542000    1.0456458    -7.400306    178.29772  0.027413549  0.028008301            4 
  543000    1.0385941   -7.4367536    178.26227  0.027357623  0.027988165            2 
  544000    1.0360011   -7.4029207    178.66317  0.027368745  0.027967572            2 
  545000    1.0352064   -7.3868765    178.77134  0.027335067  0.027947581            2 
  546000    1.0492181   -7.4052287     179.6076  0.027412638   0.02792755            1 
  547000    1.0003098   -7.4358053    179.51412  0.027348281  0.027907254            1 
  548000     1.038384    -7.440489     179.4692  0.027291546  0.027887322            2 
  549000    1.0310075   -7.4372235    179.53701  0.027252127  0.027867573            1 
  550000    1.0367579   -7.4048185    180.43316  0.027338358  0.027847886            1 
  551000     1.046224   -7.4041547    180.58959  0.027312401  0.027828556            2 
  552000    1.0513941   -7.4566335    180.13281  0.027193963  0.027809092            2 
  553000    1.0332311   -7.3946811    181.16523  0.027300367  0.027789187            1 
  554000    1.0353378   -7.4305191    181.18398  0.027253908   0.02776956            6 
  555000    1.0411731   -7.4052609    181.25783   0.02721589  0.027749852            1 
  556000    1.0448862   -7.4035777    181.31305  0.027175218  0.027730373            2 
  557000    1.0302462   -7.4354778    182.17044  0.027254704  0.027710855            1 
  558000    1.0280618    -7.404237    182.22705  0.027214315   0.02769173            1 
  559000    1.0482407   -7.4103531    181.66509  0.027081856  0.027671851            2 
  560000    1.0283673   -7.4340174    182.26435  0.027122672  0.027651877            3 
  561000    1.0133206   -7.4314987    182.65429  0.027132248  0.027632226            2 
  562000    1.0470223   -7.4095637    182.42048  0.027049301  0.027612403            2 
  563000    1.0230691   -7.4260307    183.23469  0.027121772  0.027592634            1 
  564000     1.052394   -7.4251484    183.27187  0.027079177  0.027573179            2 
  565000    1.0335491   -7.4138361    183.23485   0.02702579   0.02755359            1 
  566000    1.0381739   -7.3955237    183.60357  0.027032327     0.027534            2 
  567000     1.026519   -7.3902043    184.02903  0.027047183  0.027514588       -1e+20 
  568000    1.0236983   -7.4392267    183.80784  0.026967112  0.027495204            2 
  569000    1.0264587   -7.4063458    184.56429  0.027030505  0.027476011            2 
  570000    1.0274294   -7.4245336    184.60945  0.026989686  0.027457136            2 
  571000    1.0322394   -7.4354567    185.15413   0.02702191  0.027438134            4 
  572000    1.0120944   -7.4073387     185.6835  0.027051792  0.027419152            2 
  573000    1.0124611   -7.4430629    185.75139  0.027014455  0.027400395            1 
  574000     1.038777   -7.4225361    185.69134  0.026958672  0.027381671            1 
  575000    1.0260567   -7.3987881    186.13911  0.026976683  0.027363356            3 
  576000    1.0113848    -7.413922    186.24054  0.026944523  0.027344747            1 
  577000    1.0184852   -7.4514823    186.80016  0.026978649   0.02732609            2 
  578000    1.0216958   -7.4382658    187.20163  0.026989854  0.027308012            3 
  579000    1.0238086    -7.461283    187.47667  0.026982825  0.027289711            2 
  580000    1.0590674   -7.4256994    187.31018  0.026912382  0.027271403            2 
  581000    1.0073667   -7.4043729      187.426  0.026882673  0.027252904            1 
  582000    1.0125751   -7.4350487    187.62877  0.026865517  0.027234424            1 
  583000    1.0216714    -7.444421    187.83883  0.026849462  0.027215929            3 
  584000    1.0276584   -7.4278323    187.82547  0.026801579  0.027197456            1 
  585000    1.0197661   -7.4102489    188.04806  0.026787473  0.027178889            3 
  586000    1.0098235   -7.4507754    187.81353  0.026708409  0.027159969            2 
  587000    1.0158204   -7.4054106    188.18986  0.026716334   0.02714095            3 
  588000    1.0199787   -7.4475983    188.81818  0.026759947  0.027122286            2 
  589000     1.023702   -7.4580345    188.35349  0.026648767  0.027103639            3 
  590000    1.0084833    -7.472155    188.42528   0.02661374  0.027084739            3 
  591000    1.0001734   -7.4641682    189.13827  0.026669242  0.027065972            1 
  592000   0.98476943   -7.4132689    189.71637   0.02670557   0.02704773            1 
  593000    1.0088884   -7.4377782    189.57624  0.026640843  0.027029395            2 
  594000     1.011942   -7.4553833    189.68257  0.026610911  0.027011173            1 
  595000    1.0161774   -7.4698701    189.93106  0.026600989    0.0269926            2 
  596000    1.0092511   -7.4434497    190.47545  0.026632473  0.026974103            1 
  597000    1.0027691   -7.4846869    190.29818  0.026563119  0.026955488            2 
  598000    1.0189702   -7.4671663    190.55948  0.026555111  0.026937061            2 
  599000    1.0200054   -7.4465511    192.10031  0.026725141  0.026919115            1 
  600000    1.0207658   -7.4208619    191.46146   0.02659187  0.026901422            2 
  601000    1.0262092   -7.4697171    191.64448  0.026573001  0.026883361            2 
  602000    1.0146873    -7.462014    191.73196   0.02654097  0.026865342            1 
  603000   0.99103786   -7.4501465     192.2992  0.026575345  0.026847352            2 
  604000    1.0510358   -7.4588076    192.52734  0.026562822  0.026829742            2 
  605000    1.0292908   -7.4896581    192.79433  0.026555692   0.02681239            2 
  606000     1.017485   -7.4537476    193.26776  0.026576975  0.026794976            1 
  607000    1.0214369    -7.492163    192.70134  0.026455428  0.026777225            2 
  608000   0.99722887   -7.4622076    192.95375  0.026446511  0.026759418            2 
  609000    1.0390475   -7.4452894    193.16696   0.02643226  0.026741791            2 
  610000   0.99180053    -7.429593    193.62565  0.026451592  0.026724018            1 
  611000    1.0016751      -7.4412    194.03833  0.026464584  0.026706951            3 
  612000    1.0245894   -7.4928319    193.85585  0.026396494  0.026689357            1 
  613000    1.0194385   -7.4534662    193.43308   0.02629596  0.026671375            2 
  614000   0.99849109    -7.473656    194.11576  0.026345787  0.026653385            2 
  615000    1.0174793   -7.4650331    193.87897  0.026270862  0.026635159            1 
  616000     1.005058   -7.4756287    194.34341  0.026291046   0.02661691            3 
  617000    1.0065513   -7.4381632     195.1357  0.026355443  0.026598502            1 
  618000    1.0202913   -7.4580774    194.96073  0.026289203  0.026580138            3 
  619000    1.0084981   -7.4760847    194.63323  0.026202643  0.026562126            1 
  620000   0.99756937   -7.4921365    195.29718  0.026249621  0.026544323            2 
  621000    1.0090216    -7.438529    195.53784  0.026239646   0.02652696            3 
  622000    1.0088861   -7.4999805    196.08471  0.026270727   0.02650929            1 
  623000    1.0208104   -7.5028141    195.82243  0.026193477  0.026491704            2 
  624000    1.0150356   -7.4694124    196.29544  0.026214668  0.026474539            2 
  625000     1.015118   -7.4653341    197.17907  0.026290543   0.02645704            1 
  626000   0.98051001   -7.4732547    196.40167  0.026145058   0.02643967            2 
  627000   0.98752187   -7.5157559     196.4157  0.026105223  0.026421945            1 
  628000   0.98599536   -7.4878213    197.31963  0.026183602  0.026404267            1 
  629000   0.98682263   -7.4888669    196.95143  0.026093194  0.026386528            2 
  630000    1.0123305   -7.5053498    197.33096  0.026101979  0.026368655            2 
  631000    1.0031803   -7.4784948    196.81569  0.025992564  0.026350887            1 
  632000    1.0020156   -7.4734331    197.00139  0.025975922  0.026332801            1 
  633000    1.0042352   -7.4289692     197.7289  0.026030661  0.026314812            2 
  634000    1.0159399   -7.4896575    197.94337  0.026017793  0.026296731            2 
  635000   0.99192297   -7.4879364    197.78619  0.025956193  0.026278475            2 
  636000    1.0084059   -7.4762044    198.35692  0.025990163    0.0262605            3 
  637000     1.003257   -7.4810763    198.17773   0.02592592  0.026242434            1 
  638000    1.0149104   -7.4819953    198.64524  0.025946349  0.026224542            3 
  639000     1.000876   -7.5204671    197.60214   0.02576971  0.026206099            1 
  640000   0.99899306    -7.487812    198.67515   0.02586916  0.026187746            2 
  641000    1.0126788    -7.492498     198.8649  0.025853471  0.026169635            1 
  642000   0.99763158   -7.4865648    199.46323  0.025890866  0.026151616            2 
  643000    1.0036844   -7.4985856    199.56733  0.025864092  0.026133586            1 
  644000    1.0091006   -7.4892128    199.64083  0.025833441  0.026115745            2 
  645000   0.99754823   -7.4929041    199.71643  0.025803157  0.026097771            2 
  646000   0.96712496   -7.5263705    199.62933  0.025751978  0.026079531            1 
  647000   0.98224475   -7.4980719    200.10583  0.025773549  0.026061596            1 
  648000    1.0080127   -7.4956893    200.27787  0.025755898  0.026044098            2 
  649000   0.97148816    -7.489359    200.95484  0.025803138  0.026026649            1 
  650000    1.0023663   -7.5068241    200.51475   0.02570702  0.026008933            2 
  651000   0.99914504   -7.5077546    201.08855  0.025740982  0.025991233            1 
  652000   0.98384291   -7.5100618    201.38444   0.02573932  0.025973866            3 
  653000   0.97426613   -7.5065942    201.14644  0.025669531  0.025956249            2 
  654000   0.97774645    -7.466327    202.04144  0.025744322  0.025938522            1 
  655000   0.97519697   -7.5031472    202.40901  0.025751782  0.025921087            2 
  656000    1.0194223   -7.5126648    202.48228  0.025721835    0.0259039            5 
  657000    1.0059243   -7.4827628    202.52753  0.025688423  0.025886707            2 
  658000    1.0145288   -7.4881213    202.36238  0.025628468  0.025869526            1 
  659000   0.99264083   -7.5206117    202.99933  0.025670122  0.025852534            2 
  660000    1.0053946   -7.5242863     203.4732  0.025691061  0.025835644            1 
  661000   0.98574388   -7.4995306    203.88953  0.025704681  0.025818922            1 
  662000    0.9804769   -7.5443849    203.57107  0.025625764  0.025802007            2 
  663000    0.9737133   -7.4965521    203.72405  0.025606342  0.025785243            2 
  664000    1.0134186   -7.4700894    204.03838  0.025607226  0.025768541            2 
  665000   0.97868062   -7.5017818    204.53394   0.02563082  0.025751813            1 
  666000   0.97540709   -7.5204202    204.63503  0.025604984  0.025735215            2 
  667000   0.98597093   -7.5448334     204.2356  0.025516692  0.025718538            3 
  668000    1.0051336   -7.5196381    205.39795  0.025623497  0.025702071            2 
  669000    1.0021567   -7.5371772    204.92817  0.025526678  0.025685404            3 
  670000   0.99292206   -7.5305266    205.47682  0.025556819  0.025668661            2 
  671000   0.98089202   -7.5507812     205.6298   0.02553773  0.025651699            1 
  672000     1.006857   -7.5336065    205.35185   0.02546526  0.025634938            2 
  673000   0.98959354   -7.5065214    205.69201  0.025469541  0.025618421            1 
  674000    1.0053431   -7.5546846    206.24618  0.025500269  0.025601822            3 
  675000   0.97568096   -7.5221468      206.346  0.025474814  0.025585247            2 
  676000    1.0030016   -7.5267847    206.66402  0.025476334  0.025568769            4 
  677000   0.99193037   -7.5093316    206.67773   0.02544039  0.025552254            3 
  678000    0.9786258   -7.4952474    207.03185  0.025446392  0.025535707            1 
  679000   0.97006763   -7.5254096    207.17697  0.025426727  0.025519184            2 
  680000   0.97521934   -7.4905232    207.64074  0.025446169  0.025502779            1 
  681000   0.98747704   -7.5198963    207.93276  0.025444538  0.025486677            3 
  682000   0.99834195   -7.5819688     207.2906  0.025328764  0.025470207            4 
  683000   0.98668449   -7.5333923    208.13941  0.025395243  0.025453777            3 
  684000   0.97983592   -7.5508321    208.16717  0.025361498  0.025437136            1 
  685000   0.96029171   -7.5397914    207.91018  0.025293209  0.025420357            5 
  686000    1.0102904   -7.5311603     207.6846  0.025228936  0.025403779            1 
  687000   0.97075058   -7.5360038    208.12492  0.025245623  0.025387046            3 
  688000   0.99366827   -7.5365665     208.2783  0.025227507  0.025370324            1 
  689000   0.96650503    -7.562315    208.79455  0.025253332   0.02535364            1 
  690000   0.96327675   -7.5720592    208.10184  0.025133072  0.025337239            4 
  691000   0.99469826   -7.5290486    209.02768  0.025208356  0.025320755            2 
  692000   0.98049265   -7.5194114     209.5614  0.025236199  0.025304608            2 
  693000   0.98356663   -7.5713221    209.49119   0.02519134  0.025287926            2 
  694000   0.99533581   -7.5616596    209.36353  0.025139713  0.025271383            3 
  695000    1.0017734   -7.5634068    209.73927  0.025148593  0.025254864            2 
  696000   0.95798087   -7.5744275    209.99572  0.025143166  0.025238389            2 
  697000   0.97466079   -7.5990168    210.11933  0.025121872  0.025221897            2 
  698000   0.98183084   -7.5705885    210.49707  0.025130978  0.025205396            2 
  699000   0.98906405   -7.5520638     210.2722  0.025068216  0.025189065            1 
  700000   0.98580845   -7.5646132     211.0456  0.025124477  0.025172893            1 
  701000   0.99007069   -7.5427077    211.69529  0.025165869  0.025156869            2 
  702000   0.97396793   -7.5501036    211.63645  0.025123036  0.025140989            1 
  703000   0.98142091   -7.5392507    211.94691    0.0251241  0.025124981            3 
  704000   0.98215328   -7.5972095    211.27089  0.025008391   0.02510875            2 
  705000   0.98521204   -7.5903478    211.80062  0.025035534  0.025092521            1 
  706000   0.94502152   -7.5885236    211.30282  0.024941315  0.025076304            5 
  707000   0.97219314   -7.5669518    212.90508  0.025094894  0.025059981            2 
  708000   0.99515455   -7.5760599    212.12705  0.024967873  0.025043566            1 
  709000   0.98416313   -7.5967096    212.23483  0.024945326  0.025027414            2 
  710000   0.96129322   -7.5588988    213.28526  0.025033481  0.025011346            1 
  711000   0.96621041   -7.5880088    213.15377  0.024982861  0.024995438            2 
  712000   0.96337366   -7.5580505     212.5854   0.02488125  0.024979281            1 
  713000   0.94979764   -7.5891723    213.53615  0.024957474  0.024963099            1 
  714000   0.97352555   -7.6068917    212.53557  0.024805739  0.024946863            1 
  715000   0.97413346   -7.5677938    212.94651  0.024818941  0.024930298            1 
  716000   0.96327334   -7.5373348    214.09456  0.024917896  0.024914163            2 
  717000   0.96518256    -7.539963    214.57878  0.024939421  0.024898036            1 
  718000    0.9925669   -7.5636268    214.11995  0.024851434  0.024881877            2 
  719000   0.96025069   -7.5898127    214.10497  0.024815133  0.024865662            1 
  720000   0.96887915   -7.5746611    213.88034  0.024754669  0.024849243            1 
  721000   0.96712282   -7.6045198    213.88487  0.024720859  0.024832918            2 
  722000   0.96713662   -7.5591947    215.11538  0.024828645  0.024816631            2 
  723000   0.96318418   -7.5813179    214.44803  0.024717384  0.024800243            3 
  724000   0.97820424   -7.5668708    215.63536  0.024819908  0.024783846            2 
  725000   0.97226206   -7.5927537    214.36913   0.02464013  0.024767445            1 
  726000   0.96230142   -7.5050418    215.42974  0.024727932  0.024751266            2 
  727000   0.95918265   -7.5887955    214.87954   0.02463085  0.024735029            2 
  728000   0.97267719    -7.567371    214.42247  0.024544696  0.024718361            1 
  729000   0.96518403   -7.5517809    215.92147  0.024682381  0.024701873            3 
  730000    0.9676955   -7.5744933    215.25314  0.024572277  0.024685523            2 
  731000   0.95384767    -7.544118    215.78852  0.024599695   0.02466893            2 
  732000   0.96051995   -7.5517497    215.51867  0.024535368  0.024652478            2 
  733000   0.96036113   -7.5492933    215.39216  0.024487513  0.024635788            3 
  734000   0.97391471   -7.5749263    216.32751  0.024560344   0.02461939            2 
  735000   0.95989473   -7.5724059    216.54492  0.024551578  0.024603038            2 
  736000   0.95126081   -7.5885459    216.40758   0.02450267  0.024586673            4 
  737000   0.96913593   -7.5837561    216.78235  0.024511799  0.024570411            3 
  738000   0.95822096   -7.5638538     217.5225  0.024562162  0.024554055            2 
  739000    0.9458672   -7.5981931    216.48081  0.024411458  0.024537636            1 
  740000   0.96262681   -7.5816409    216.92834  0.024428867  0.024521114            3 
  741000   0.94907598   -7.6046589    216.73404  0.024374049  0.024504636            1 
  742000   0.95700729   -7.5881149    217.11562  0.024384054  0.024488393            2 
  743000    0.9445623   -7.6041696    218.04488  0.024455459  0.024472251            1 
  744000   0.95072255   -7.6027362    218.79372  0.024506465  0.024456228            2 
  745000   0.96285121   -7.5681355    218.08216  0.024393978  0.024440276            1 
  746000   0.95622022   -7.5859125     218.1152  0.024364968  0.024424271            1 
  747000   0.94883052   -7.5986031    218.99484  0.024430482  0.024408306            1 
  748000   0.93618312   -7.6093629    218.39784   0.02433131  0.024392287            2 
  749000   0.94129191   -7.6336912    218.70743  0.024333269  0.024376161            1 
  750000   0.96695363   -7.5962111    219.27148  0.024363498  0.024360236            1 
  751000   0.95097934   -7.5891522    219.74253  0.024383326  0.024344303            2 
  752000   0.94949485   -7.5647291    220.39493  0.024423197  0.024328909            1 
  753000   0.94915852   -7.6184694    219.68602  0.024312309  0.024313288            1 
  754000   0.95106069   -7.5893509    220.21621  0.024338662  0.024297727            2 
  755000   0.94477035   -7.6125372    220.14246  0.024298284  0.024282053            2 
  756000   0.95777891   -7.6105783    220.16557  0.024268691  0.024266282            2 
  757000   0.92291663   -7.6510279    219.86004  0.024202999  0.024250405            1 
  758000   0.96618292   -7.6356136    220.63956  0.024256768  0.024234209            1 
  759000   0.96026282   -7.6323238    220.63612  0.024224431  0.024218074            1 
  760000   0.93315548   -7.6355065    220.49045  0.024176585  0.024201937            2 
  761000   0.97214056   -7.5875356    220.59721  0.024156506  0.024185895            1 
  762000   0.94836727   -7.6037859    220.96947  0.024165515  0.024169831            2 
  763000   0.95921436   -7.6151018    220.81307  0.024116762  0.024153866            1 
  764000   0.94319575   -7.5766623    221.98875  0.024213432  0.024137906            2 
  765000   0.95472986   -7.6072287    220.89907  0.024063079  0.024121791            4 
  766000   0.94795191   -7.6072181    221.30376  0.024075692  0.024105639            2 
  767000   0.96579749   -7.6169593    221.40461  0.024055259  0.024089726            3 
  768000   0.95386439   -7.6278214    221.29276  0.024011801  0.024073479            1 
  769000   0.93180407   -7.6268863    221.26815  0.023977909  0.024057205            2 
  770000   0.95741333   -7.6452387    221.61978  0.023984824  0.024041229            2 
  771000   0.92904592   -7.6458224    221.41506  0.023931589  0.024025185            1 
  772000   0.95002584   -7.6129947    222.10771  0.023975357  0.024008811            2 
  773000   0.96970664   -7.6110617     222.3936  0.023975161   0.02399271            2 
  774000   0.97156865   -7.6416208      222.569   0.02396307  0.023976639            2 
  775000   0.94916661   -7.6265176    222.82729  0.023959923  0.023960536            2 
  776000   0.93881226   -7.6664634    222.39792  0.023882938  0.023944515            2 
  777000   0.94257304   -7.6181655    223.54052  0.023974745    0.0239285            1 
  778000   0.94157086   -7.6465909    223.34568  0.023923059  0.023912551            1 
  779000   0.95150825   -7.6096567    223.08776  0.023864758  0.023896776            1 
  780000   0.95607264   -7.6447906    223.22968  0.023849325  0.023880985            5 
  781000   0.92826694   -7.6105369    223.75323  0.023874651  0.023865244            1 
  782000     0.949571   -7.6174049    224.11938   0.02388314  0.023849465            2 
  783000   0.94235945   -7.6362332    223.11871  0.023746137  0.023833395            1 
  784000   0.93970363   -7.6397942    223.36048  0.023741547  0.023817066            2 
  785000   0.91536594   -7.6205814    224.07439   0.02378709  0.023800709            6 
  786000   0.92595675    -7.623177    223.73346  0.023720681  0.023784433            3 
  787000   0.91711515   -7.6175108     223.6874  0.023685663  0.023768048            2 
  788000   0.94951835   -7.6348281    223.92168  0.023680381  0.023751831            1 
  789000   0.94142408   -7.6266762    224.27245  0.023687415  0.023735535            5 
  790000   0.92735572   -7.6386783    224.61542   0.02369361  0.023719442            1 
  791000    0.9384979   -7.6385242    224.89361  0.023692963  0.023703225            1 
  792000   0.92952282   -7.6365517    224.76402  0.023649413  0.023686919            2 
  793000   0.92999571   -7.6336031    225.10199  0.023655106  0.023670581            2 
  794000   0.94206388   -7.6155184    224.89487  0.023603576  0.023654123            2 
  795000   0.94157726   -7.6272813    224.95376  0.023580059  0.023637722            3 
  796000   0.93287055   -7.6884946    224.76034  0.023530186  0.023621225            2 
  797000   0.94991634   -7.6473371    225.74817  0.023603949  0.023604982            1 
  798000   0.91634807   -7.6485329    224.99542  0.023495762   0.02358869            6 
  799000   0.93465125   -7.6687963    226.05878  0.023577261  0.023572479            4 
  800000   0.91662495   -7.6284098    226.21727  0.023564299  0.023556346            2 
  801000   0.93046235   -7.6318516    225.76174  0.023487488  0.023540168            1 
  802000    0.9112516   -7.6425195    225.94885  0.023477644  0.023523859            1 
  803000   0.92576062   -7.6460825    226.52168  0.023507854  0.023507607            1 
  804000    0.9354656     -7.62874    226.53364  0.023479855   0.02349131            1 
  805000   0.92397606   -7.6559152    226.58307  0.023455805  0.023475194            4 
  806000   0.94006649   -7.6704513    226.14733  0.023381651  0.023458949            1 
  807000   0.93499468   -7.6715783    226.32207  0.023370721  0.023442597            2 
  808000   0.93079945   -7.6211715    226.42258  0.023352164  0.023426268            2 
  809000   0.92696049     -7.63304    227.27358  0.023410958  0.023410173            1 
  810000   0.95261277   -7.5966596    227.14271  0.023368591  0.023394147            1 
  811000   0.93557354   -7.6482366    227.85264  0.023412725  0.023377981            2 
  812000   0.93048107   -7.6468166    227.28276  0.023325406  0.023361912            2 
  813000   0.92155801   -7.6558287    226.80325  0.023247566  0.023345671            1 
  814000   0.90642916    -7.638982    228.20842   0.02336286  0.023329482            1 
  815000   0.91352753   -7.6343334    227.99171  0.023312036  0.023313591            2 
  816000   0.91977142   -7.6713789    227.61954   0.02324546  0.023297504            2 
  817000   0.94130492   -7.6785158    227.52428  0.023207291  0.023281376            1 
  818000    0.9280854   -7.6955346    227.94694  0.023221978  0.023264937            1 
  819000   0.90090752   -7.6545273    228.10046  0.023209245  0.023248446            3 
  820000   0.91996839   -7.6567827    228.03249  0.023174034  0.023231946            2 
  821000     0.906507   -7.6525619    227.96235  0.023138688  0.023215471            2 
  822000   0.89915898    -7.686575     228.2951  0.023144273  0.023199057            2 
  823000   0.92530881   -7.6736175    227.89912  0.023076055  0.023182418            2 
  824000   0.94366201   -7.6801764    228.24883  0.023083418  0.023165976            2 
  825000   0.91603541   -7.6992267    228.04177  0.023034522  0.023149512            1 
  826000   0.94090581   -7.6835034    228.59613  0.023062564  0.023133064            3 
  827000   0.91673754   -7.7057732    228.71552  0.023046707  0.023116483            2 
  828000    0.9198027   -7.6373289    229.14502  0.023062099  0.023100031            2 
  829000   0.93885546   -7.6457319    229.71099  0.023091173  0.023083567            4 
  830000   0.91249293   -7.6432029    229.39825  0.023031953  0.023067189            2 
  831000   0.93331735   -7.6640978    229.11828  0.022976161  0.023050794            2 
  832000   0.90784036   -7.6706004    229.54432  0.022991218  0.023034313            2 
  833000   0.91337814    -7.692679    229.44315  0.022953496  0.023017818            2 
  834000    0.9210199   -7.7119477    229.57862  0.022939511  0.023001194            2 
  835000   0.92030216   -7.6886319    229.89017  0.022943131  0.022984518            2 
  836000   0.91213952   -7.6780913    229.01786  0.022828734  0.022967737            1 
  837000   0.90542859   -7.6635698    229.55825  0.022855262  0.022951034            2 
  838000   0.91039253   -7.6645965    229.83416  0.022855425  0.022934307            1 
  839000   0.91634479   -7.6564224    230.12874  0.022857443  0.022917816            2 
  840000   0.92194012   -7.6910488    229.84983  0.022802563  0.022901121            4 
  841000   0.88285852   -7.7239397    229.67315  0.022757942  0.022884259            4 
  842000   0.93465356   -7.7002259    230.08028  0.022771207  0.022867387            4 
  843000   0.92126182   -7.6779514    230.58875  0.022794459  0.022850813            1 
  844000   0.92648494   -7.6823172      229.785  0.022688092  0.022834243            2 
  845000   0.91750126   -7.6695217    230.87913  0.022769145  0.022817556            3 
  846000   0.91830592   -7.6739924    230.42883  0.022697876  0.022801001            2 
  847000   0.91035423   -7.7304199    230.80995  0.022708574  0.022784447       -1e+20 
  848000   0.91609556   -7.7067337    230.87652  0.022688337  0.022767841            4 
  849000   0.91176335   -7.6532237    231.05948  0.022679572   0.02275144            2 
  850000   0.90819871    -7.705114    231.48591  0.022694697  0.022734959            3 
  851000   0.92620798   -7.7345978    230.89916  0.022610572  0.022718305            3 
  852000   0.92202098   -7.6675567    231.64559  0.022657041  0.022701698            1 
  853000   0.94316392   -7.7218748    232.17178  0.022681886  0.022685443            1 
  854000   0.90933047   -7.7087228    231.70276  0.022609559    0.0226692            2 
  855000   0.93715371   -7.7229885    231.65398  0.022578361   0.02265287            4 
  856000   0.90068439   -7.7306769    232.36214  0.022620925  0.022636604            2 
  857000   0.91304744   -7.7017252    232.44033  0.022602132  0.022620352            2 
  858000   0.89975215   -7.6883418    232.77456  0.022608252  0.022604147            2 
  859000   0.91276396   -7.6911226    231.97054  0.022503933  0.022588015            3 
  860000    0.9170465   -7.7345412    232.78891  0.022557065  0.022571747            1 
  861000   0.91091927    -7.729505    232.83847  0.022535663  0.022555352            1 
  862000   0.90076358   -7.7250332    232.74647  0.022500625  0.022538954            2 
  863000   0.90351884   -7.7012119      232.961  0.022495269  0.022522563            3 
  864000   0.90754279   -7.7467269    233.02431  0.022475338  0.022506088            2 
  865000   0.90541127   -7.7230001    232.61358  0.022409786  0.022489595            3 
  866000   0.90324211   -7.7001511    233.91918  0.022509544   0.02247313            1 
  867000   0.89803398   -7.7286878    233.03529  0.022398625  0.022456764            1 
  868000   0.93067513   -7.7155908    233.67187  0.022433936  0.022440425            3 
  869000   0.91242122   -7.6889651    234.93551  0.022529297  0.022424238            3 
  870000   0.90529715   -7.6819119    234.15023  0.022428183  0.022408116            1 
  871000   0.91034625   -7.7232852    233.78298  0.022367296  0.022392077            2 
  872000   0.89841896   -7.7206635    234.02521  0.022364794  0.022376013            2 
  873000   0.90076368   -7.7468787    233.31841  0.022271708  0.022359791            4 
  874000   0.88906007   -7.7196743    234.18231  0.022328595  0.022343388            3 
  875000   0.92185223   -7.6991857    234.25763  0.022310251  0.022327072            2 
  876000   0.90195736   -7.7314936    234.41002  0.022299279  0.022310685            1 
  877000   0.88971506   -7.7532759    234.20829  0.022254683  0.022294375            2 
  878000   0.90978832   -7.7327923    234.77558   0.02228318  0.022278152            2 
  879000   0.90184555   -7.7348679    234.27523  0.022210393   0.02226191            1 
  880000   0.90025099   -7.7469316    234.00011  0.022159101  0.022245444            1 
  881000   0.91128754    -7.735456    234.73981  0.022203917  0.022229154            2 
  882000   0.91008961   -7.7325577    235.05793  0.022208799  0.022212989            1 
  883000   0.90347814   -7.7512881    235.27393  0.022204033   0.02219671            2 
  884000   0.89240675   -7.7386201    234.88455  0.022142209  0.022180497            2 
  885000   0.92004234   -7.7413708    235.29406  0.022155749  0.022164112            1 
  886000   0.91408583   -7.7508121    235.66978  0.022166081  0.022147825            1 
  887000   0.91914105   -7.7572715    236.04767  0.022176594  0.022131933            2 
  888000   0.90464404   -7.7445537    236.08848   0.02215545  0.022115739            2 
  889000   0.90250294   -7.7453818    235.18945  0.022046255   0.02209956            3 
  890000   0.89788112   -7.7273533    236.28831  0.022124374  0.022083425            2 
  891000   0.89548318    -7.749263    236.39303  0.022109337  0.022067198            3 
  892000   0.90583275   -7.7478243    236.22076  0.022068457  0.022051208            2 
  893000   0.88451344   -7.7106569    236.80769  0.022098515  0.022035271            2 
  894000   0.92541613   -7.7144429    237.03567  0.022095047  0.022019412            2 
  895000   0.88260219   -7.7297587    236.99195   0.02206629  0.022003484            4 
  896000   0.90202973   -7.7529289    236.35972  0.021982861   0.02198758            5 
  897000   0.88439198   -7.7112123    237.93832  0.022105009  0.021971657            2 
  898000   0.90428688   -7.6934422    237.20407  0.022012256  0.021955903            2 
  899000   0.89896981   -7.7398971    236.75852   0.02194647  0.021939902            2 
  900000   0.88726282   -7.7280671    237.45278  0.021986369  0.021924105            3 
  901000   0.91008275   -7.7395065    237.14387  0.021933396   0.02190818            2 
  902000   0.91528423   -7.7217428    237.85707  0.021974969  0.021892254            2 
  903000   0.89659694   -7.7215741    237.36519  0.021905241  0.021876368            4 
  904000   0.88365427     -7.68677    238.43254  0.021979401   0.02186066            1 
  905000   0.91248174    -7.745455     238.5488  0.021965819  0.021845103            4 
  906000   0.88479293   -7.7475165    238.10956  0.021901173  0.021829577            4 
  907000   0.90299884   -7.7579301    237.50426  0.021821413  0.021813978            3 
  908000   0.90562378   -7.7468321     237.3984  0.021787665  0.021798147            4 
  909000    0.9049573   -7.7361637    238.27754  0.021844292  0.021782541            3 
  910000   0.89328083   -7.7528857    238.96965  0.021883667  0.021766882            4 
  911000   0.88925857   -7.7545556      238.819  0.021845865  0.021751208            3 
  912000   0.89181119   -7.7692112    238.16949  0.021762563  0.021735558            2 
  913000   0.88563435   -7.7456121    238.52789  0.021771439  0.021719893            3 
  914000    0.8932244   -7.7672192    238.73561  0.021766558  0.021704161            1 
  915000   0.89312415   -7.7648187    238.82863  0.021751241  0.021688307            1 
  916000   0.89436448   -7.7959291    238.69174  0.021715042  0.021672505            2 
  917000   0.88964205   -7.7531338    239.07305  0.021726013  0.021656793            3 
  918000   0.88805622   -7.7278853    239.69954  0.021759217  0.021641257            2 
  919000   0.88158017    -7.790706    238.48734   0.02162562  0.021625665            2 
  920000   0.87770376   -7.7585253    239.30328  0.021676022  0.021609917            2 
  921000   0.88374536   -7.7788394     239.4306  0.021664006   0.02159432            1 
  922000   0.86950817   -7.7727506    239.56656  0.021652798  0.021578725            2 
  923000   0.88324673   -7.7863221    239.46574  0.021620237  0.021563211            1 
  924000     0.877647   -7.7894141    239.98199  0.021643397  0.021547595            3 
  925000   0.87325455   -7.7922372    239.83989  0.021607197  0.021532002            1 
  926000   0.89777049   -7.7519646    240.47011  0.021640579   0.02151656            2 
  927000    0.8752418   -7.8191511    240.25577  0.021597966  0.021501085            3 
  928000   0.88308334   -7.7712214    240.85186   0.02162822  0.021485745            5 
  929000   0.86424451   -7.7664418    240.98714  0.021617074  0.021470465            2 
  930000   0.87407419   -7.7385754    240.98146  0.021593321   0.02145511            2 
  931000   0.88511393   -7.7664724    241.37839  0.021605656   0.02143973            2 
  932000   0.88579106   -7.7831465    241.34761  0.021579722  0.021424423            1 
  933000   0.87807648   -7.7614384    240.67398  0.021496426  0.021409011            2 
  934000   0.89649179   -7.8077512    241.66938  0.021562222  0.021393542            2 
  935000   0.87136997   -7.7325884    241.83875  0.021554256  0.021378347            3 
  936000   0.89032628   -7.7580937    241.18711  0.021473212  0.021363142            2 
  937000    0.8853883   -7.8002075    241.45701  0.021474299  0.021347836            3 
  938000   0.87946785   -7.8123823    241.44168  0.021450042  0.021332516            2 
  939000   0.87495053   -7.8090338    241.20746  0.021406413  0.021317178            2 
  940000   0.88343196   -7.8292805    241.18273  0.021381448  0.021301859            3 
  941000   0.89621433   -7.7954066    241.81783  0.021414969  0.021286389            1 
  942000   0.88524523    -7.802958    241.75142   0.02138636  0.021271084            2 
  943000    0.8729712   -7.8158484    241.44211  0.021336347  0.021255634            2 
  944000   0.86790635   -7.7782315    242.35799  0.021394597  0.021240191            2 
  945000   0.87012893    -7.810309    242.20426  0.021358401  0.021224825            2 
  946000   0.85850577   -7.7998492    242.53494  0.021364953  0.021209633            1 
  947000   0.87569104   -7.7819187    242.33504  0.021324801  0.021194402            2 
  948000    0.8594917   -7.7920962    242.71563  0.021335762  0.021179264            3 
  949000    0.8834461   -7.7955055     242.4884  0.021293326  0.021164006            2 
  950000   0.87463492   -7.7898652    242.71674  0.021290942  0.021148906            1 
  951000   0.88146305   -7.7842557    243.53442  0.021340205  0.021133824            2 
  952000   0.85206987   -7.7850536    243.99331  0.021357958  0.021118647            4 
  953000   0.87358544    -7.833261    243.05871  0.021253822  0.021103565            4 
  954000   0.86356326   -7.8007753    243.16628   0.02124094  0.021088368            5 
  955000   0.86922757   -7.7955127    243.47761  0.021245865  0.021073231            3 
  956000   0.88444387   -7.7975948    243.65954  0.021239499  0.021058086            1 
  957000   0.87636983    -7.832325    243.49749  0.021203194  0.021042932            1 
  958000    0.8708986   -7.8070196    244.05687  0.021229721  0.021027786            2 
  959000     0.871669    -7.818183    243.33229  0.021144621   0.02101258            3 
  960000   0.83495514   -7.8465427    243.44897  0.021132723   0.02099734            2 
  961000   0.86236553   -7.8294955     243.7978  0.021140981  0.020982017            1 
  962000   0.87399999   -7.8049271    244.22399  0.021155925  0.020966889            1 
  963000   0.87824787   -7.8073788    243.99902  0.021114488  0.020951856            1 
  964000   0.87161813    -7.822113    244.13164  0.021104049  0.020936741            1 
  965000    0.8743174   -7.8406135     243.6376  0.021039517  0.020921581            2 
  966000   0.85573347   -7.8368485    244.27409  0.021072644  0.020906408            4 
  967000   0.84642184    -7.823716    244.25817   0.02104948  0.020891095            2 
  968000   0.86752014   -7.8485986    244.17859  0.021020884  0.020875789            1 
  969000   0.85261819   -7.8169762    244.73441  0.021046991    0.0208606            2 
  970000   0.83305787   -7.7967421    244.67933  0.021020561  0.020845452            4 
  971000   0.86928893   -7.7961756    243.98379   0.02093922  0.020830243            2 
  972000   0.86719633   -7.8079005    244.48327  0.020960499  0.020815065            2 
  973000   0.86988868    -7.810481    244.83194   0.02096882  0.020800018            1 
  974000   0.89441383   -7.8168404    244.79638  0.020944249  0.020784978            4 
  975000   0.86111955   -7.8369186    244.96768  0.020937408  0.020769827            1 
  976000   0.88129244   -7.8022972     244.8567  0.020906481  0.020754816            1 
  977000   0.86941736   -7.8313493    245.10043  0.020905871  0.020739749            4 
  978000   0.86399578   -7.8459029    244.43339  0.020827657  0.020724616            3 
  979000   0.85018891   -7.8318724    245.48478  0.020895878  0.020709374            1 
  980000   0.85367065   -7.8219887     245.2846  0.020857534  0.020694275            1 
  981000   0.87828322   -7.8150652    246.27086  0.020920053  0.020679315            1 
  982000   0.86880744   -7.8075182    246.64676  0.020930649  0.020664287            2 
  983000   0.86820562   -7.8171411     245.4118  0.020804663  0.020649328            2 
  984000    0.8676774   -7.8696842     245.1935  0.020765032  0.020634354            2 
  985000   0.85118686   -7.8205287    245.61778  0.020779846  0.020619402            3 
  986000   0.85717498   -7.8153702    245.85531  0.020778847  0.020604437            5 
  987000   0.84680489   -7.8683143    245.99304  0.020769423  0.020589311            4 
  988000   0.85657768   -7.8593821     245.0885  0.020672107  0.020574065            1 
  989000   0.85349076   -7.8436002    246.47134  0.020767723  0.020558875            2 
  990000   0.85301296   -7.8390843    245.57853  0.020671594  0.020543793            2 
  991000   0.84738383   -7.8375808    245.99512  0.020685765   0.02052867            3 
  992000   0.85635031   -7.8343105    246.14199   0.02067725   0.02051357            3 
  993000   0.86020195   -7.8480405      245.744  0.020623028  0.020498493            1 
  994000   0.86647713   -7.8651701    245.97008  0.020621234  0.020483207            1 
  995000   0.84596061   -7.8380799    246.52955  0.020647366  0.020468095            2 
  996000   0.86448573   -7.8582855    246.95007   0.02066182  0.020453001            2 
  997000   0.84393092   -7.8441698    246.21913  0.020580001  0.020437829            3 
  998000   0.85933903   -7.8741035    246.17916  0.020556042  0.020422724            5 
  999000   0.85344347   -7.8293822    247.13718  0.020615381   0.02040759            3 
 1000000   0.84242299   -7.8556957    246.76255  0.020563546  0.020392563            2 
 1001000   0.85623087   -7.8052991    247.40887  0.020596809  0.020377554            4 
 1002000   0.86375822    -7.833511    247.55045  0.020588028  0.020362639            1 
 1003000   0.86522411   -7.8111766    247.45675  0.020559717  0.020347725            4 
 1004000   0.84871559   -7.8716901    247.38292  0.020533111  0.020332803            2 
 1005000   0.82022988   -7.8665254    247.42045  0.020515792  0.020317792            1 
 1006000    0.8603435   -7.8709353    247.67925  0.020516837  0.020302804            1 
 1007000   0.86036024   -7.8711582    247.20265  0.020457021  0.020287868            2 
 1008000   0.84720272   -7.8450435    247.91191  0.020495363  0.020272976            2 
 1009000   0.85076647   -7.8475329    247.50944  0.020441811  0.020258135            2 
 1010000   0.84191784   -7.8743941    248.14111  0.020473689  0.020243276            2 
 1011000    0.8598409    -7.865208    248.08353  0.020448692  0.020228561            1 
 1012000   0.84895674   -7.8467747     248.1413  0.020433243  0.020213822            3 
 1013000   0.85654667   -7.8616918    247.65033  0.020372683  0.020199179            1 
 1014000   0.83927305   -7.8556059    248.49622  0.020422108  0.020184562            2 
 1015000   0.85245141   -7.8568373    248.23328  0.020380401  0.020169962            3 
 1016000   0.85760473    -7.853457    248.81972  0.020408442  0.020155443            3 
 1017000   0.84276308   -7.8818482    248.88786  0.020393958  0.020140944            2 
 1018000   0.83582234   -7.8615209    249.30578  0.020408135  0.020126492            2 
 1019000   0.85183743    -7.851721    249.56634  0.020409416  0.020112102            4 
 1020000   0.83368878   -7.8575543    249.48404  0.020382683  0.020097626            2 
 1021000    0.8287245   -7.8392964    249.96231  0.020401755  0.020083196            2 
 1022000    0.8240052   -7.8807402    249.28088   0.02032623  0.020068829            3 
 1023000   0.84474683   -7.8868639     249.5925  0.020331745  0.020054472            2 
 1024000   0.83129364   -7.8646137    250.23355  0.020364058   0.02004001            2 
 1025000   0.83704487   -7.8739344    249.37356  0.020274273  0.020025524            1 
 1026000   0.84406577   -7.8532732    249.69217  0.020280391   0.02001092            1 
 1027000   0.84578038   -7.8640056    249.59108  0.020252441  0.019996309            2 
 1028000   0.84005891   -7.8850768    249.72155  0.020243317    0.0199816            2 
 1029000   0.83761386    -7.886294    249.45204  0.020201817  0.019966947            4 
 1030000   0.84569164    -7.877022    248.82568  0.020131528  0.019952177            1 
 1031000      0.86206   -7.8630497    249.43025  0.020160867  0.019937458            1 
 1032000   0.83627643   -7.8721631    249.32256  0.020132635  0.019922649            2 
 1033000   0.83151782   -7.8905709    249.50418  0.020127798  0.019907902            2 
 1034000   0.84046402   -7.8946926    250.28341  0.020171133  0.019893254            1 
 1035000   0.82858985   -7.8402238    251.02188  0.020211101   0.01987871            3 
 1036000    0.8356486   -7.8968048    249.77311  0.020091144  0.019864307            3 
 1037000   0.83801053   -7.9183907    249.61388  0.020058974   0.01984967            3 
 1038000   0.84388285   -7.8735934    250.50577  0.020111254    0.0198351            2 
 1039000   0.85679842   -7.8935532    249.31344  0.019996266  0.019820433            2 
 1040000   0.86279173   -7.9213914    249.69812  0.020007862  0.019805755            2 
 1041000   0.82943773   -7.8652392    250.60915  0.020061572  0.019791201            2 
 1042000   0.83033428   -7.8742619    251.37362  0.020103456  0.019776775            1 
 1043000   0.83779871   -7.8456342    250.91598  0.020047617  0.019762441            2 
 1044000   0.81240746   -7.8327971    251.04774  0.020038932  0.019748128            3 
 1045000   0.83676786    -7.890042    250.71167  0.019992956  0.019733721            2 
 1046000   0.85007932   -7.8935428    250.67035   0.01997055  0.019719256            3 
 1047000   0.82783532   -7.8824637    250.84259  0.019965185  0.019704832            2 
 1048000   0.84047937   -7.8567002    250.91948  0.019952249  0.019690466            1 
 1049000   0.82946425   -7.8513548    251.75406  0.019999528  0.019676054            5 
 1050000   0.83718433   -7.8985769    251.27951  0.019942819   0.01966152            2 
 1051000   0.82790387   -7.9043949    250.93166  0.019896262  0.019647046            2 
 1052000   0.82708674    -7.888377    251.74803  0.019942018   0.01963253            3 
 1053000   0.82762485   -7.9085358    251.65885  0.019916022   0.01961806            2 
 1054000   0.83398015    -7.887565     251.0751  0.019850973  0.019603594            3 
 1055000   0.81867357   -7.8751023    251.85671  0.019893895  0.019589191            1 
 1056000      0.82677   -7.8860583    251.85712  0.019875088  0.019574764            2 
 1057000   0.81942041   -7.8831123     251.3256   0.01981438  0.019560247            4 
 1058000   0.83545513   -7.8919312    251.00256  0.019770208  0.019545703            4 
 1059000   0.83465424   -7.9263524    251.32553  0.019776954  0.019531013            2 
 1060000    0.8028665   -7.9081526    250.98125  0.019731231  0.019516382            2 
 1061000   0.83046368   -7.9213136    251.18044  0.019728279  0.019501783            2 
 1062000   0.80933137   -7.9017785    251.71356  0.019751535   0.01948718            2 
 1063000   0.80915991   -7.8936995    251.52529  0.019718195  0.019472532            1 
 1064000   0.82939609   -7.8914432    251.99397   0.01973637  0.019457885            4 
 1065000   0.82378282   -7.9122801     251.4602  0.019676072  0.019443277            2 
 1066000   0.84100271   -7.9053459     252.0346  0.019702517   0.01942871            2 
 1067000   0.81562008   -7.8978402    251.78577  0.019664618  0.019414084            3 
 1068000   0.82324622   -7.9177167    251.57684  0.019629903  0.019399372            2 
 1069000   0.82246722   -7.9443401    251.02246  0.019568324  0.019384625            1 
 1070000   0.81516006   -7.9011908    251.57825  0.019593322  0.019370031            1 
 1071000   0.81577929    -7.920645     252.1549  0.019619895   0.01935544            2 
 1072000   0.81339953   -7.8951895    251.92656  0.019583843  0.019340974            2 
 1073000   0.81970835   -7.9088263    252.11754  0.019580424   0.01932648            1 
 1074000   0.81849683   -7.9028005    252.42167   0.01958579  0.019311991            1 
 1075000   0.80668123   -7.9230304    252.87653  0.019602832  0.019297488            3 
 1076000   0.81926706   -7.9283315    252.39191  0.019547081  0.019282962            1 
 1077000   0.80771131   -7.9449976    252.48737  0.019536318  0.019268508            2 
 1078000   0.81084689     -7.91754    252.64692  0.019530529  0.019253987            4 
 1079000    0.8248236   -7.9486064    252.52647  0.019503126  0.019239524            1 
 1080000   0.79916193   -7.9408771    252.92014  0.019515443  0.019225154            1 
 1081000   0.81445757   -7.9181863    252.66276  0.019477548  0.019210729            4 
 1082000   0.83277059   -7.9139759    253.05668  0.019489886  0.019196222            1 
 1083000    0.8111181   -7.9520852    253.17931  0.019481326  0.019181777            1 
 1084000   0.81041555   -7.9061249    252.64437   0.01942223  0.019167236            3 
 1085000   0.81516555   -7.9428581    253.23837  0.019449951  0.019152727            2 
 1086000   0.82617315   -7.9357546    252.71661  0.019392005  0.019138148            2 
 1087000   0.82097702   -7.9262268    253.16548  0.019408577  0.019123598            2 
 1088000   0.82141743   -7.9387828       253.14  0.019388787  0.019109154            2 
 1089000   0.80357664   -7.9152481    253.61521  0.019407347  0.019094828            1 
 1090000   0.80584426   -7.8902491    253.31342  0.019366469   0.01908056            1 
 1091000   0.81598717    -7.905156    253.53586  0.019365709  0.019066318            3 
 1092000   0.81035118   -7.8972545    254.58999  0.019428418  0.019052264            2 
 1093000   0.81704359   -7.8706582    254.38496  0.019395011  0.019038151            1 
 1094000     0.818758   -7.9306533    254.34608   0.01937432  0.019023989            1 
 1095000   0.83418842   -7.9327246    254.15136  0.019341808  0.019009796            1 
 1096000   0.81444868   -7.9504719    254.15972  0.019324796  0.018995566            2 
 1097000   0.79573052   -7.9755239    253.54047  0.019260139  0.018981306            2 
 1098000   0.83843412   -7.9941203    253.81542  0.019263465  0.018967083            4 
 1099000   0.79527772   -7.9505524    254.17752  0.019273394  0.018952802            3 
 1100000   0.80207179   -7.9734482    254.15794   0.01925439  0.018938513            1 
 1101000   0.81331589   -7.9611445    253.77921  0.019208236  0.018924247            1 
 1102000   0.82165563   -7.9500816    253.89992  0.019199934  0.018909924            1 
 1103000   0.81432293   -7.9498436    254.40221  0.019220475  0.018895656            1 
 1104000   0.80108579   -7.9892932    254.35471   0.01919948  0.018881409            2 
 1105000   0.81587376    -7.935231    254.82517  0.019217584   0.01886726            1 
 1106000   0.80566771    -7.982708    254.29639  0.019160367  0.018853126           11 
 1107000    0.8021073   -7.9675443    255.19071  0.019210382  0.018839039            6 
 1108000    0.8137902    -7.957396    254.69012  0.019155394  0.018824894            2 
 1109000   0.80105854   -7.9872906    253.97654  0.019084501   0.01881071            2 
 1110000   0.81135001   -7.9690609    254.32136  0.019093195  0.018796519            1 
 1111000   0.81216727   -7.9637915    254.21635  0.019068133  0.018782342            2 
 1112000   0.81787307    -7.975989    254.27391  0.019055299  0.018768165            1 
 1113000   0.80805738   -7.9830137    254.72562  0.019071999  0.018754045            4 
 1114000   0.80971172   -7.9835338    254.99905  0.019075333  0.018739839            1 
 1115000   0.80373738   -7.9665055    255.25899  0.019077653  0.018725705            1 
 1116000   0.81021762   -7.9903233    254.54811  0.019007475  0.018711481            2 
 1117000    0.8148121   -7.9936961    254.60372  0.018994608  0.018697325            1 
 1118000   0.79324379   -7.9909022    254.59095  0.018976666  0.018683216            1 
 1119000   0.81968243   -7.9879097     255.2697  0.019010254  0.018669099            2 
 1120000   0.80721014   -7.9624881    255.74744  0.019028828   0.01865501            1 
 1121000   0.79454026   -7.9584336    254.97453  0.018954395  0.018640879            3 
 1122000   0.80750904   -7.9736697    254.90333  0.018932214  0.018626785            2 
 1123000   0.81143953   -7.9743733     255.0427  0.018925697  0.018612664            3 
 1124000    0.8022253   -7.9766538    254.67532  0.018881622  0.018598407            2 
 1125000   0.80084766   -7.9370651    255.50305  0.018926152  0.018584296            2 
 1126000   0.80287597    -7.970323    255.57739  0.018914845  0.018570207            2 
 1127000    0.8050165   -7.9641289    255.22828  0.018872248  0.018556107            1 
 1128000   0.81307111   -7.9970965    255.11841    0.0188474  0.018541946            2 
 1129000   0.80323565   -7.9741883    255.64392  0.018869495  0.018527813            2 
 1130000   0.78539526   -7.9716835    255.56365  0.018846877   0.01851371            4 
 1131000   0.79984022   -7.9551858    255.93623  0.018857665  0.018499624            4 
 1132000   0.80606297    -7.966816    255.99702  0.018845482  0.018485543            2 
 1133000   0.80209003   -7.9759415    255.68674  0.018806027  0.018471446            1 
 1134000   0.79589626   -7.9952119     255.3816  0.018767019  0.018457362            2 
 1135000   0.79606559   -8.0166796    256.00281  0.018796095  0.018443291            5 
 1136000   0.78397076   -8.0058856    255.47454  0.018740797  0.018429154            2 
 1137000   0.78730277    -7.991098    255.44342  0.018722033  0.018415076            3 
 1138000   0.80323779   -8.0021533    256.22599  0.018762887  0.018400986            1 
 1139000   0.80649249   -7.9968217     256.3008  0.018751888  0.018386921            2 
 1140000   0.80101461   -7.9885063    256.18119  0.018726695  0.018372996            2 
 1141000     0.782325   -8.0231255    255.91275  0.018690677  0.018358958            2 
 1142000   0.81529398   -8.0047721    256.36715  0.018707469  0.018345002            3 
 1143000   0.79618184   -8.0088835    256.14915  0.018675208  0.018331077            3 
 1144000   0.79234641    -7.998644    255.96848  0.018645723  0.018317178            2 
 1145000   0.79999627   -8.0040893    255.92632   0.01862637  0.018303293            1 
 1146000   0.79708307   -8.0289907    256.14452  0.018625983  0.018289305            2 
 1147000   0.79343265   -7.9976092    256.83706   0.01866006  0.018275323            1 
 1148000    0.7890547   -8.0200725    256.01073  0.018583822  0.018261416            1 
 1149000   0.80593923   -8.0134035    256.70972  0.018618343  0.018247484            3 
 1150000   0.78646502   -8.0034214    257.09097  0.018629781  0.018233597            2 
 1151000   0.77432612   -8.0260001    256.45441  0.018567507  0.018219639            2 
 1152000   0.78728855   -8.0122907    256.64373  0.018565084  0.018205698            2 
 1153000     0.785746   -8.0180474    255.99204  0.018501882  0.018191834            2 
 1154000   0.79393206   -8.0065517    257.27159  0.018578249  0.018178003            2 
 1155000   0.80480099   -7.9937727    257.05399  0.018546464  0.018164209            2 
 1156000   0.79756381   -8.0151544    256.83003  0.018514276   0.01815041            1 
 1157000   0.77857005   -8.0405558    256.52252  0.018476125  0.018136528            1 
 1158000   0.78775104   -8.0150027    256.84428  0.018483325  0.018122677            2 
 1159000    0.7823191   -8.0054189     257.1632  0.018490308  0.018108906            2 
 1160000   0.78531644   -7.9999523    257.40265   0.01849157  0.018095062            5 
 1161000   0.77146615   -8.0229936    257.61849  0.018491135  0.018081249            4 
 1162000   0.77863107   -8.0368878     257.2619  0.018449649  0.018067487            2 
 1163000   0.77808471   -7.9946598    257.11701  0.018423403  0.018053719            2 
 1164000   0.78005714   -8.0011085     257.2573  0.018417619  0.018039857            2 
 1165000   0.81398209   -8.0144235    257.21933  0.018399093  0.018026088            3 
 1166000   0.77591496   -8.0067474    257.06474  0.018372265  0.018012314            2 
 1167000   0.79215078   -8.0481017    256.80376  0.018337886  0.017998469            2 
 1168000   0.79082247   -8.0698584     256.9489  0.018332541  0.017984575            1 
 1169000   0.77553189    -8.055709    256.97702  0.018318863  0.017970668            3 
 1170000   0.78971553   -8.0491158    257.11308  0.018312898  0.017956807            1 
 1171000    0.8019733   -8.0001292    257.81491  0.018347204  0.017943003            2 
 1172000   0.77361915   -8.0200128     257.6554  0.018320208  0.017929201            2 
 1173000   0.78429263   -8.0456935    257.11783  0.018266399   0.01791538            2 
 1174000   0.79084388   -8.0572799    257.49424  0.018277558  0.017901403            2 
 1175000   0.80312954   -8.0226435    257.56326  0.018266898  0.017887454            2 
 1176000   0.79886353   -8.0542563    257.17145    0.0182236  0.017873612            2 
 1177000   0.78379322   -8.0500724    257.69129  0.018244923   0.01785973            1 
 1178000   0.77709463   -8.0566362    257.60704  0.018223475  0.017845788            4 
 1179000   0.78564983   -8.0511031    257.31051  0.018187059  0.017831885            3 
 1180000   0.78480031   -8.0426416     257.6655  0.018196716  0.017818014            2 
 1181000   0.77753983   -8.0183655    257.96444  0.018202402  0.017804243            2 
 1182000   0.78745497    -8.053206    258.13513  0.018199036  0.017790503            5 
 1183000   0.77113704   -8.0282238     258.2423  0.018191202  0.017776776            2 
 1184000   0.79126038     -8.01835    257.48138  0.018122282  0.017763072            1 
 1185000   0.79384454   -8.0179001    258.25854  0.018161641  0.017749375            2 
 1186000    0.7841307   -8.0134166    258.35798  0.018153315  0.017735689            3 
 1187000   0.78733793   -8.0596707    257.52998  0.018079892  0.017721988            1 
 1188000   0.76416233   -8.0526504    257.97564  0.018095934  0.017708261            2 
 1189000    0.7730367   -8.0703237    257.72704  0.018063292  0.017694532            4 
 1190000   0.78175779   -8.0315016    257.95871  0.018064336   0.01768086            1 
 1191000    0.7802184   -8.0218491    258.41191  0.018080878  0.017667308            1 
 1192000   0.78126903   -8.0274585    258.54517  0.018075026  0.017653652            2 
 1193000   0.75896498   -8.0544129    258.40937  0.018050389  0.017640033            3 
 1194000   0.76617456   -8.0376246    258.33083   0.01802979  0.017626461            2 
 1195000   0.77338107   -8.0370465    258.96839  0.018059162  0.017612871            2 
 1196000   0.76740242   -8.0498353    258.45414  0.018008231  0.017599232            1 
 1197000   0.78496943   -8.0538222    258.05948  0.017965712  0.017585521            1 
 1198000   0.77795363    -8.060903    258.27012  0.017965367  0.017571819            1 
 1199000   0.78216817   -8.0524888    258.34817  0.017955808  0.017558125            3 
 1200000   0.77036517   -8.0705197    258.17189  0.017928603  0.017544391            1 
 1201000    0.7581652   -8.0416754    258.42649  0.017931341  0.017530682            2 
 1202000   0.78325556   -8.0563491    257.93038  0.017882029  0.017517056            2 
 1203000   0.76691231   -8.0431576    258.83393  0.017929754  0.017503383            1 
 1204000   0.75549586   -8.0696632    258.61913  0.017899995  0.017489712            5 
 1205000   0.78773647   -8.0687541    258.49332   0.01787644  0.017476024            2 
 1206000   0.75629142   -8.1009746    257.92778  0.017822539   0.01746228            2 
 1207000   0.76727091   -8.0619064    258.37617  0.017838731  0.017448523            3 
 1208000   0.77676839    -8.080585    257.96216  0.017795403  0.017434745            2 
 1209000   0.78343807   -8.0773158    258.66942  0.017829434   0.01742107            5 
 1210000   0.77840562   -8.0867304    258.12504  0.017777207  0.017407364            3 
 1211000   0.77908327   -8.0463866    258.09273  0.017760303  0.017393677            3 
 1212000   0.78111533   -8.0617791    258.30672  0.017760363  0.017380014            1 
 1213000   0.77725424   -8.0593813    258.02122  0.017726107  0.017366392            3 
 1214000   0.77036293   -8.0965825    258.23567  0.017726227  0.017352708            1 
 1215000     0.757459   -8.0960727    258.87945  0.017755792  0.017339063            4 
 1216000   0.77973555   -8.0925704    258.60117  0.017722119  0.017325385            3 
 1217000    0.7498045   -8.0658921    258.88036  0.017726675  0.017311716            3 
 1218000   0.77720761   -8.0634301    259.29122  0.017740231  0.017298039            2 
 1219000   0.76623803   -8.0809969    258.45187  0.017668298  0.017284351            2 
 1220000   0.77471311   -8.0424418    258.46353  0.017654613  0.017270724            2 
 1221000   0.76691213   -8.0786685    258.18838  0.017621374  0.017257028            3 
 1222000   0.75872061   -8.0543796    258.17624  0.017606127  0.017243298            3 
 1223000   0.76745753   -8.0831519    258.79236  0.017633712  0.017229582            2 
 1224000   0.77972154   -8.0548523    259.52373  0.017669099  0.017215942            2 
 1225000   0.78169072   -8.0997767    258.07585   0.01755618  0.017202298            3 
 1226000   0.76346734   -8.0759228    259.05138  0.017608169  0.017188654            2 
 1227000   0.77306966   -8.0966515    258.35152  0.017546286  0.017174982            1 
 1228000   0.77789093    -8.090034    258.55827  0.017546028  0.017161337            3 
 1229000   0.76762064   -8.0853218      258.617  0.017535734  0.017147699            3 
 1230000   0.75389049   -8.1178319    258.56578  0.017518007  0.017133986            3 
 1231000   0.76715071   -8.0957687    258.56954  0.017504031  0.017120253            4 
 1232000   0.75402972   -8.0871115    258.58615  0.017490946   0.01710658            4 
 1233000   0.75778542   -8.0927605    258.19322  0.017450204  0.017092924            2 
 1234000   0.76943126     -8.06827    259.18367  0.017502949  0.017079288            3 
 1235000   0.76496489   -8.1008339    258.49455  0.017442277  0.017065642            1 
 1236000   0.76485879   -8.1003592    258.83132  0.017450871  0.017051944            2 
 1237000   0.75583204   -8.0963569    258.98014  0.017446789  0.017038243            3 
 1238000   0.76387906   -8.1085794    258.79538   0.01742026  0.017024633            2 
 1239000   0.76721273   -8.1026696    259.18277  0.017432255  0.017010971            1 
 1240000   0.75198848   -8.1027914    258.12876  0.017347363  0.016997321            3 
 1241000   0.77516199   -8.1219002    258.91781  0.017386369  0.016983712            1 
 1242000   0.74843624   -8.1031536    258.66356  0.017355311  0.016970015            6 
 1243000    0.7604635   -8.0912608    258.87599   0.01735559  0.016956379            3 
 1244000   0.74361287   -8.1191747    258.95373  0.017346847  0.016942764            2 
 1245000   0.76165309   -8.1195975    258.09348  0.017275333  0.016929147            3 
 1246000    0.7673036   -8.1242905    259.05782  0.017325964  0.016915543            2 
 1247000   0.75449527   -8.1108952    258.56187  0.017278927  0.016901912            3 
 1248000   0.75110601   -8.0904419     259.0462  0.017297422  0.016888322            2 
 1249000   0.76828108   -8.0916237    258.97305  0.017278693  0.016874716            1 
 1250000   0.74215164    -8.143584    258.78284  0.017252189  0.016861083            2 
 1251000   0.77027702   -8.1061014    258.31298    0.0172071  0.016847396            2 
 1252000   0.75650222    -8.126461    258.68399  0.017218051  0.016833757            3 
 1253000   0.75872985   -8.0972813    259.26994  0.017243279  0.016820134            3 
 1254000   0.74905854   -8.1263367    259.18953  0.017224185  0.016806481            2 
 1255000   0.75468578   -8.1263528    258.49252  0.017164178  0.016792822            4 
 1256000   0.76259714   -8.1036405    258.21352  0.017132001    0.0167792            2 
 1257000   0.76869034   -8.0788065    258.83682  0.017159694  0.016765594            2 
 1258000   0.75541374   -8.1178016    258.76382  0.017141218  0.016752004            2 
 1259000   0.75585928   -8.0976453     258.1907  0.017089668  0.016738362            2 
 1260000   0.74762794   -8.1216711    258.60836  0.017103728  0.016724706            3 
 1261000   0.75488771   -8.1247255    258.87868  0.017108028  0.016711107            3 
 1262000   0.76122066   -8.1399036    258.83272  0.017091437    0.0166975            3 
 1263000   0.75188837   -8.1370934    258.89574  0.017082062  0.016683891            2 
 1264000   0.76171757   -8.1415517    258.79907  0.017062175  0.016670272            4 
 1265000   0.74412271   -8.0799598    259.95647  0.017124932  0.016656722            2 
 1266000   0.74737214    -8.119706    258.85624  0.017038984  0.016643218            2 
 1267000   0.75013647   -8.1222272    259.17567  0.017046545  0.016629659            3 
 1268000   0.74365431   -8.1360905    258.75742  0.017005614  0.016616104            1 
 1269000   0.75331252   -8.1262497    259.13914   0.01701728  0.016602559            3 
 1270000   0.73311074   -8.1419901    259.04492  0.016997698  0.016589035            3 
 1271000   0.74797261   -8.1515094    258.83381  0.016970483   0.01657555            2 
 1272000   0.74312891    -8.163706    259.25541  0.016984762  0.016562037            2 
 1273000   0.73605183   -8.1361979    259.66752  0.016998398  0.016548558            3 
 1274000   0.74398603   -8.1391979    259.38544  0.016966604  0.016535066            4 
 1275000   0.74963482   -8.1299263    259.22868  0.016943051  0.016521595            3 
 1276000   0.75431827   -8.1439939    259.54807  0.016950632   0.01650813            3 
 1277000   0.73852656   -8.1555674     258.8775  0.016893598  0.016494696            2 
 1278000   0.73597233   -8.1569144    259.35054  0.016911225  0.016481257            2 
 1279000   0.73919147   -8.1491869    259.68353  0.016919698  0.016467866            1 
 1280000   0.76224194   -8.1324377    259.39741  0.016887852  0.016454425            3 
 1281000   0.72847945   -8.1290087    259.28014   0.01686704  0.016440972            2 
 1282000   0.74472936   -8.1480897    259.69307  0.016880725  0.016427567            1 
 1283000   0.74741997   -8.1410303    259.32985  0.016843976  0.016414162            2 
 1284000   0.74971995   -8.1588608     259.1163  0.016816997  0.016400732            3 
 1285000   0.75516945   -8.1327574    259.74661  0.016844786  0.016387319            3 
 1286000   0.73944295    -8.144805    259.90588  0.016842009  0.016373899            1 
 1287000   0.73170092   -8.1411516     259.4742  0.016800971  0.016360462            1 
 1288000   0.75964586    -8.159996     258.6736  0.016736128  0.016347036            3 
 1289000   0.71930166   -8.1598642     259.0157  0.016745261  0.016333627            2 
 1290000   0.72743708   -8.1664264     259.1547   0.01674126  0.016320185            2 
 1291000   0.73276846   -8.1563477     258.9683   0.01671626  0.016306757            1 
 1292000   0.74238177   -8.1430189    259.52302  0.016739101  0.016293387            2 
 1293000   0.75850666   -8.1432623    259.18634  0.016704456  0.016280031            1 
 1294000   0.75538755   -8.1627831    259.23222  0.016694501  0.016266676            2 
 1295000   0.74676676   -8.1512789    259.49791  0.016698707  0.016253317            5 
 1296000   0.74684727   -8.1482451    259.31721  0.016674203  0.016239949            2 
 1297000    0.7268183   -8.1645063    259.15721  0.016651067   0.01622662            1 
 1298000   0.75323208   -8.1490015    259.35332  0.016650829  0.016213251            3 
 1299000    0.7598347   -8.1442109    259.65704  0.016657495  0.016199892            1 
 1300000   0.73689889   -8.1580783    259.46957  0.016632664  0.016186548            2 
 1301000   0.73138403   -8.1726017    259.16501  0.016600372  0.016173145            2 
 1302000   0.73914444   -8.1540587     259.1436  0.016586252   0.01615979            5 
 1303000   0.72592393   -8.1499584    259.45397  0.016593372  0.016146438            3 
 1304000   0.73070535   -8.1637022    258.98114  0.016550431   0.01613312            2 
 1305000   0.72556585    -8.152645    259.40484  0.016564805  0.016119777            2 
 1306000   0.74037119   -8.1673984    259.08245   0.01653155  0.016106445            3 
 1307000   0.72606945    -8.190401    259.58882  0.016551187  0.016093127            3 
 1308000   0.73338945   -8.1676698    259.60383   0.01653949  0.016079764            3 
 1309000   0.71293993   -8.1662702    259.60865  0.016527161  0.016066432            2 
 1310000   0.72109333   -8.1722421    260.19301  0.016551718  0.016053157            2 
 1311000   0.73399579   -8.1890607    259.17775  0.016474558  0.016039889            3 
 1312000   0.73531888   -8.1827501    259.46694   0.01648037  0.016026578            4 
 1313000   0.72282833   -8.1791886    259.49456  0.016469571   0.01601326            2 
 1314000   0.72578126   -8.1998829    259.98689   0.01648826  0.015999988            2 
 1315000   0.72649872   -8.1698061      259.595  0.016450887  0.015986717            3 
 1316000   0.74087421    -8.191101    259.90302  0.016457891  0.015973439            2 
 1317000   0.73674077   -8.2102699    259.66483  0.016430323  0.015960168            2 
 1318000    0.7227759    -8.212882    259.80379  0.016426643  0.015946908            2 
 1319000   0.72426622   -8.2068359    259.79875  0.016413871  0.015933668            1 
 1320000   0.74137228   -8.2011776    260.11397  0.016421336  0.015920502            4 
 1321000    0.7369451    -8.181331    259.72722  0.016384508  0.015907331            2 
 1322000   0.72747278   -8.1752544    259.99552  0.016389026  0.015894224            2 
 1323000   0.73049096   -8.1766598    259.71891  0.016359216  0.015881139            4 
 1324000   0.72592116   -8.1758049     259.7359  0.016347929  0.015868056            2 
 1325000   0.73026241   -8.1965212    259.88432  0.016344926   0.01585496            3 
 1326000   0.71116869   -8.2023365    260.09631  0.016345922  0.015841865            1 
 1327000   0.73372049   -8.1904058    260.01283  0.016328362  0.015828758            2 
 1328000    0.7097228   -8.2031175    260.06963  0.016319631   0.01581563            3 
 1329000   0.70769024   -8.1643873    260.20039   0.01631555   0.01580253            3 
 1330000    0.7170893   -8.2035814    259.01955  0.016229295  0.015789376            4 
 1331000   0.71358624   -8.2192649    259.53593  0.016249432  0.015776196            2 
 1332000   0.72020777   -8.2246122    259.23651    0.0162185  0.015763037            2 
 1333000   0.72103988   -8.2211199    259.42096  0.016217865  0.015749886            2 
 1334000   0.71871651    -8.221441    259.46729  0.016208601  0.015736702            2 
 1335000   0.72987315   -8.2078087    259.77807  0.016215859   0.01572356            2 
 1336000   0.73196758   -8.2244636    259.54461   0.01618916  0.015710385            2 
 1337000   0.73586857    -8.226076    259.17377  0.016153937  0.015697203            1 
 1338000   0.70525239   -8.2100571    259.31705  0.016150788  0.015684082            1 
 1339000    0.7140932   -8.2243403    259.33004  0.016139534  0.015670977            3 
 1340000    0.7109312   -8.2029106    259.77821  0.016155362  0.015657905            2 
 1341000   0.72567436   -8.2348416    259.67346  0.016136804  0.015644812            2 
 1342000   0.72010366   -8.2072231    260.06355  0.016149004  0.015631775            3 
 1343000   0.72373346   -8.2149672    259.74111  0.016116972   0.01561867            1 
 1344000   0.70815561   -8.1921627    259.69732  0.016102264  0.015605595            2 
 1345000   0.71931619   -8.2244818    260.25383  0.016124772  0.015592566            3 
 1346000   0.71059307   -8.2037659    259.84504  0.016087484  0.015579547            2 
 1347000   0.72213934   -8.2053941    260.10437  0.016091584   0.01556658            1 
 1348000    0.7088481   -8.1985866    259.53167  0.016044243  0.015553632            3 
 1349000   0.72293396   -8.2035822    259.66122  0.016040352  0.015540689            4 
 1350000   0.71806097   -8.2215419    259.99043  0.016048792  0.015527713            2 
 1351000   0.72167078   -8.2168089    259.91461  0.016032236  0.015514765            1 
 1352000   0.72517206   -8.1978872    260.08353  0.016030789   0.01550184            2 
 1353000   0.70973259   -8.2107405    259.84311  0.016004134  0.015488947            2 
 1354000   0.71389477    -8.222795    259.81688  0.015990699  0.015476114            3 
 1355000   0.72745632   -8.2039299    260.12589  0.015997902  0.015463239            2 
 1356000   0.72344706   -8.1994248    259.83155  0.015968015  0.015450349            1 
 1357000   0.71342871   -8.2300203    260.31757  0.015986095  0.015437497            2 
 1358000   0.71935155   -8.2005783    260.70769  0.015998263  0.015424669            1 
 1359000   0.72852527   -8.2140204    260.12626  0.015950838  0.015411844            2 
 1360000   0.68702746   -8.2130482    259.64638  0.015909704  0.015399001            1 
 1361000   0.71458162   -8.2185519    260.29383  0.015937658  0.015386142            3 
 1362000   0.70355959    -8.215894    260.26819  0.015924388  0.015373308            2 
 1363000   0.69315992    -8.200669    260.02389  0.015897768  0.015360504            1 
 1364000   0.70386541   -8.2208801    259.98376  0.015883661  0.015347721            1 
 1365000   0.70081946   -8.2396379    259.85627  0.015864241  0.015334942            1 
 1366000   0.71422206   -8.2060936    259.88649  0.015854471  0.015322121            2 
 1367000   0.72536896   -8.2204395    259.93255  0.015845681  0.015309304            2 
 1368000   0.70083129   -8.2117482    260.05346  0.015841463  0.015296495            2 
 1369000    0.6895857   -8.2359751    259.90139  0.015820635   0.01528367            3 
 1370000   0.71043054   -8.2251545    259.91246   0.01580976  0.015270849            4 
 1371000   0.69832128    -8.248522    259.51881  0.015774302  0.015257992            3 
 1372000   0.71026227   -8.2585548    259.51068   0.01576231  0.015245139            1 
 1373000    0.7045076   -8.2464113    259.87168  0.015772741  0.015232299            3 
 1374000   0.69933058   -8.2324123    259.20643  0.015720914  0.015219493            2 
 1375000   0.69727923   -8.2458284    260.06914  0.015761766  0.015206703            2 
 1376000   0.70069351   -8.2430658    259.76955  0.015732167  0.015193888            1 
 1377000   0.71132258   -8.2527921    260.13669  0.015742961  0.015181094            2 
 1378000   0.70533106   -8.2460123     259.6232  0.015700484  0.015168285            2 
 1379000    0.7014585   -8.2610658    259.68162  0.015692629  0.015155531            1 
 1380000   0.70091443   -8.2449188    260.13384  0.015708565  0.015142756            2 
 1381000   0.69391119   -8.2423355    260.63774  0.015727597  0.015130014            2 
 1382000   0.70700318   -8.2686913    259.50674  0.015648018  0.015117268            4 
 1383000   0.69511316   -8.2534039    259.87003  0.015658594    0.0151045            2 
 1384000   0.71243491   -8.2696053    260.01424  0.015655963  0.015091748            1 
 1385000   0.70521998   -8.2725325    259.99465  0.015643481  0.015078978            1 
 1386000   0.69241275    -8.239418    260.22905  0.015646287  0.015066226            1 
 1387000   0.70074167   -8.2607866    259.61112   0.01559788  0.015053468            3 
 1388000   0.69600568   -8.2558748    259.57039  0.015584198  0.015040691            3 
 1389000   0.69441641    -8.254011    259.88273  0.015591716  0.015027968            2 
 1390000     0.695432   -8.2606666    259.95395  0.015584769    0.0150152            2 
 1391000   0.70779651    -8.267141    259.43355  0.015542389  0.015002454            1 
 1392000   0.68557836   -8.2908304     259.9835  0.015564146  0.014989695            3 
 1393000   0.68501264   -8.2640164    259.92365  0.015549393  0.014976944            4 
 1394000   0.70274211   -8.2545317     259.9736  0.015541224  0.014964218            1 
 1395000   0.70295511    -8.245116    259.63698  0.015509975  0.014951558            4 
 1396000   0.71758653   -8.2832716    259.51386  0.015491515  0.014938846            2 
 1397000   0.68701057   -8.2412173    260.01172  0.015510124  0.014926171            3 
 1398000   0.69893404   -8.2726359    259.43056  0.015464387  0.014913517            2 
 1399000   0.69179863   -8.2571426    260.06738  0.015491266  0.014900856            3 
 1400000   0.69125547   -8.2685565     260.1895   0.01548747  0.014888198            1 
 1401000   0.71010081   -8.2993716    259.60826  0.015441842  0.014875541            3 
 1402000   0.69779757    -8.257714    260.14945  0.015462997  0.014862908            3 
 1403000   0.67924292   -8.2879916    259.38036  0.015406294  0.014850275            3 
 1404000   0.69505731   -8.2802646    259.95973  0.015429708  0.014837645            2 
 1405000   0.68562667   -8.2824923     259.8406  0.015411661  0.014825045            2 
 1406000    0.6912118   -8.2950616    259.30155   0.01536875  0.014812419            2 
 1407000   0.69794269   -8.2691533    259.76483  0.015385266  0.014799823            2 
 1408000   0.68719463   -8.2348592    259.63989  0.015366944  0.014787259            2 
 1409000   0.68781298   -8.2424467    259.97618  0.015375927  0.014774725            2 
 1410000    0.6786879   -8.2782924    259.90862  0.015361029  0.014762247            4 
 1411000   0.67537343   -8.2651115    259.77141   0.01534204   0.01474974            1 
 1412000   0.69768395   -8.2713429    259.76004  0.015330503  0.014737215            4 
 1413000   0.69402931   -8.2503903    259.70213  0.015316238  0.014724732            1 
 1414000   0.69605744   -8.2653234    260.29989  0.015340635   0.01471225            1 
 1415000   0.69313029   -8.2843548    260.00457  0.015312401  0.014699757            2 
 1416000   0.69638583   -8.2702539    259.73363  0.015285642  0.014687247            1 
 1417000   0.68510451   -8.2812154    259.50609  0.015261473  0.014674699            2 
 1418000   0.68399765   -8.2880361    259.85254  0.015271071  0.014662172            3 
 1419000   0.67434321   -8.3012169     259.6569   0.01524882  0.014649697            2 
 1420000   0.69623719   -8.2893054    259.69796   0.01524049  0.014637191            2 
 1421000   0.69904748   -8.2755605    260.10756  0.015253786  0.014624721            3 
 1422000   0.68715267   -8.2798638    260.19724  0.015248315   0.01461226            1 
 1423000   0.69297034   -8.2614287    259.77641  0.015212954  0.014599815            1 
 1424000   0.68401524   -8.2879167    259.76161  0.015201405  0.014587383            3 
 1425000   0.69874507   -8.2862742    259.18693   0.01515713  0.014574973            1 
 1426000   0.68524776   -8.2675518    259.36801  0.015157083  0.014562561            1 
 1427000   0.68905312    -8.294016     259.9916  0.015182878  0.014550136            3 
 1428000   0.67274754   -8.3046294    259.36914  0.015135921  0.014537733            2 
 1429000   0.69219805   -8.2664488    259.83852  0.015152701  0.014525349            1 
 1430000   0.69521966   -8.3072133    259.71929  0.015135157  0.014512937            4 
 1431000   0.68341856   -8.3119478    260.05291  0.015144008  0.014500556            2 
 1432000    0.6804069   -8.3311454    259.43557  0.015097508  0.014488122            2 
 1433000   0.68859832   -8.3086144    259.06597  0.015065479  0.014475739            2 
 1434000   0.68640838   -8.3047896    259.93836  0.015105669  0.014463365            3 
 1435000   0.66795079   -8.3118959    259.46405  0.015067599     0.014451            2 
 1436000    0.6806149   -8.3116621    259.14276  0.015038461  0.014438637            1 
 1437000   0.67585711   -8.3160337    259.35107  0.015040076  0.014426249            2 
 1438000    0.6861328   -8.3079354    259.62187   0.01504531  0.014413919            3 
 1439000   0.68084508   -8.2985413    259.93399   0.01505293   0.01440165            3 
 1440000   0.67440025   -8.2671347    260.09781  0.015051957  0.014389404            1 
 1441000   0.67183198   -8.3023476    260.06912  0.015039852  0.014377151            2 
 1442000   0.67533075   -8.2924836    259.92167  0.015020901  0.014364909            1 
 1443000   0.67229912   -8.2774203    260.44404  0.015040658  0.014352662            3 
 1444000   0.67685396   -8.2964599    259.65892  0.014984933  0.014340429            3 
 1445000   0.66948371   -8.2972211    260.37523  0.015015872  0.014328192            8 
 1446000   0.68159327   -8.3123333    259.45371  0.014952381  0.014315987            2 
 1447000   0.67022599   -8.3144253    260.33361  0.014992721  0.014303756            1 
 1448000   0.66687901   -8.3140184    259.74265  0.014948357  0.014291513            2 
 1449000   0.66889893   -8.3269051     259.7867  0.014940574  0.014279296            2 
 1450000   0.68453493   -8.3120031    259.85015  0.014933917  0.014267113            3 
 1451000   0.68352119   -8.3239702    259.98571   0.01493141  0.014254948            5 
 1452000   0.67841822   -8.3091756    260.10685  0.014928079  0.014242794            3 
 1453000   0.67057979    -8.307968    259.86397  0.014903875  0.014230656            6 
 1454000   0.65730005   -8.2975898    260.41461  0.014925184  0.014218532            3 
 1455000   0.67092551   -8.2814119    260.45531  0.014917257   0.01420643            1 
 1456000   0.67313543   -8.2890509    259.85232    0.0148725  0.014194339            4 
 1457000   0.66123112   -8.3131003    260.24039  0.014884488  0.014182276            2 
 1458000   0.67712198   -8.3059615    259.74041  0.014845702  0.014170179            2 
 1459000    0.6709354    -8.307979    260.05301  0.014853382   0.01415812            3 
 1460000   0.67339121   -8.3333461    259.77246  0.014827195  0.014146043            1 
 1461000    0.6751481    -8.335911     259.8912  0.014823819  0.014133937            3 
 1462000   0.66552279   -8.3302882    259.83327  0.014810378  0.014121845            2 
 1463000   0.66632039   -8.3597282    259.39857  0.014775494   0.01410975            2 
 1464000   0.67871327   -8.3398113    259.32934  0.014761461  0.014097657            2 
 1465000   0.66890847   -8.3482892    260.01344  0.014790298  0.014085598            2 
 1466000   0.68208825   -8.3393046    259.76549  0.014766115  0.014073524            2 
 1467000   0.66978888   -8.3145924    260.02043  0.014770531  0.014061491            2 
 1468000   0.65712542   -8.3068188    259.92228  0.014754898  0.014049496            3 
 1469000   0.66535426   -8.3300378    259.68774  0.014731549  0.014037493            2 
 1470000   0.66692561   -8.3357228    260.17782   0.01474931  0.014025484            2 
 1471000   0.66173366   -8.3561772    259.69825  0.014712115  0.014013469            2 
 1472000   0.67104095   -8.3331174    259.52826  0.014692497  0.014001502            1 
 1473000   0.66225042   -8.3339644    259.49027  0.014680373  0.013989524            2 
 1474000   0.64891878   -8.3382893    259.88108  0.014692508   0.01397757            1 
 1475000   0.67796062   -8.3167715    259.75958  0.014675682  0.013965631            2 
 1476000   0.65173073   -8.3273137    259.85159  0.014670934  0.013953722            3 
 1477000   0.67387488   -8.3344763    259.28725  0.014629161  0.013941775            2 
 1478000   0.66768622   -8.3476497    259.65618  0.014640064  0.013929846            4 
 1479000    0.6540757   -8.3427377    260.08061   0.01465408  0.013917926            1 
 1480000   0.66031431   -8.3450572    259.90492  0.014634286  0.013905995            5 
 1481000   0.65598928   -8.3577315    260.19988  0.014641002  0.013894089            2 
 1482000   0.65707236   -8.3454135    259.91659  0.014615193  0.013882206            1 
 1483000   0.65773019   -8.3523098    260.22488  0.014622661   0.01387033            4 
 1484000   0.64702588    -8.368168    259.87415  0.014593113   0.01385845            1 
 1485000     0.664226   -8.3648158     259.6018  0.014568002  0.013846593            2 
 1486000   0.65026432   -8.3859912    259.47049  0.014550835  0.013834715            2 
 1487000   0.65929446   -8.3536534    259.61774  0.014549302  0.013822829            1 
 1488000   0.64376345   -8.3864782    260.01813  0.014561947  0.013810979            2 
 1489000   0.65225673    -8.379947    259.57904  0.014527593  0.013799139            6 
 1490000   0.66400012   -8.3647638    259.24239  0.014499015  0.013787317            2 
 1491000   0.66386946   -8.3474291    259.52622  0.014505154  0.013775472            2 
 1492000   0.65389105    -8.329708    260.20103  0.014533123  0.013763666            3 
 1493000    0.6402672   -8.3822829    259.75373  0.014498422  0.013751858            2 
 1494000   0.65193285    -8.390344    259.48718   0.01447385  0.013740029            1 
 1495000   0.66735067   -8.3830146    259.48615  0.014464111  0.013728229            2 
 1496000    0.6504325   -8.3630939    259.42464  0.014451016  0.013716425            4 
 1497000   0.65095777   -8.3936782    259.48447  0.014444693  0.013704621            2 
 1498000   0.66125785   -8.3879544    259.55633  0.014439048  0.013692827            1 
 1499000   0.65148719   -8.3635217    259.18165  0.014408586  0.013681054            2 
 1500000   0.66157269   -8.3980866     259.9133  0.014439628  0.013669302            2 
 1501000   0.65219094   -8.3789582    259.49927  0.014407022   0.01365755            2 
 1502000   0.65853596    -8.385297    259.69929  0.014408527   0.01364578            2 
 1503000   0.66311221   -8.3792682    258.93158  0.014356375  0.013634029            4 
 1504000   0.66518538    -8.369125    259.56751  0.014382065  0.013622298            2 
 1505000   0.65460432   -8.3760429    259.30352  0.014357891   0.01361058            1 
 1506000    0.6615086   -8.3739641    259.87058  0.014379736  0.013598886            2 
 1507000   0.63684326   -8.3650501    259.41097  0.014344778  0.013587205            2 
 1508000   0.66430618   -8.3879341    259.15092  0.014320895  0.013575537            2 
 1509000   0.64783161    -8.396473    259.41988  0.014326258   0.01356386            3 
 1510000   0.65680124   -8.3882174    259.30627  0.014310501    0.0135522            1 
 1511000   0.65043254   -8.3874185    259.71875  0.014323778  0.013540534            3 
 1512000   0.65867554   -8.3698803     259.5633  0.014305738  0.013528889            2 
 1513000   0.64495805   -8.4209737     259.8568  0.014312448  0.013517254            3 
 1514000   0.66034891   -8.3734502      260.307  0.014327774  0.013505643            2 
 1515000   0.64318073   -8.3839498    259.14039  0.014254147  0.013494053            1 
 1516000      0.64677   -8.3792447     259.3165  0.014254425  0.013482456            3 
 1517000   0.64123971   -8.3922665    259.61339  0.014261338  0.013470883            2 
 1518000   0.64857769   -8.3912785     259.6761  0.014255385  0.013459316            1 
 1519000   0.64654274   -8.3882154    259.35227  0.014228235  0.013447738            4 
 1520000   0.64914126    -8.395505    259.13632  0.014207035  0.013436177            2 
 1521000   0.64645432   -8.3891721    259.26717  0.014204864  0.013424589            2 
 1522000   0.65438674   -8.4008989    259.16787  0.014190094  0.013413015            3 
 1523000   0.63904436   -8.4176124    259.35346  0.014190931  0.013401474            2 
 1524000   0.66018602   -8.3934715    259.60651  0.014195457  0.013389962            1 
 1525000   0.63822943   -8.3925247    259.61309  0.014186508  0.013378432            2 
 1526000   0.65189515   -8.4038123    259.47541  0.014169693  0.013366898            4 
 1527000   0.63621685   -8.3999992    259.09025  0.014139394  0.013355375            2 
 1528000   0.63105162   -8.4082135    259.19419  0.014135809  0.013343883            3 
 1529000   0.64696619   -8.4030006    259.36073   0.01413564  0.013332389            4 
 1530000   0.64153157   -8.4031146    259.11637  0.014113092  0.013320922            3 
 1531000   0.64790669      -8.4123    259.60039  0.014130219  0.013309431            1 
 1532000   0.64756796   -8.3958476    259.18287  0.014098285  0.013297954            2 
 1533000   0.64220318   -8.4302345    258.85459  0.014071243  0.013286464            1 
 1534000   0.63697644    -8.419693     259.0206  0.014071089  0.013274975            2 
 1535000   0.64485952   -8.4106661    259.29059  0.014076579  0.013263513            4 
 1536000   0.64327922   -8.4092479    259.33861   0.01407002  0.013252092            3 
 1537000    0.6376858    -8.416683    259.82065  0.014087001   0.01324069            2 
 1538000   0.63521989   -8.4234665    259.38319  0.014054139  0.013229286            3 
 1539000    0.6636522   -8.4090803     259.3539  0.014043421  0.013217879            4 
 1540000   0.63276492   -8.3849315    258.86067  0.014007612  0.013206485            2 
 1541000   0.62901633   -8.4115974    259.47558  0.014031775  0.013195089            4 
 1542000   0.62986109   -8.4135959    259.20128  0.014007851  0.013183701            4 
 1543000   0.63681123   -8.4149274    259.31115  0.014004707  0.013172332            2 
 1544000   0.63108194   -8.3989511    259.88203  0.014026448  0.013160953            1 
 1545000   0.63616729   -8.4097475    259.66087  0.014005441  0.013149588            3 
 1546000   0.63399676   -8.4000052     259.2778  0.013975733  0.013138237            3 
 1547000   0.64338588    -8.417713    259.11334   0.01395784  0.013126872            2 
 1548000   0.62219845   -8.4224886    259.36453  0.013962346  0.013115515            1 
 1549000   0.63404916   -8.4348625     259.2542  0.013947396  0.013104184            7 
 1550000   0.63366464   -8.4405425    259.26052  0.013938738  0.013092865            4 
 1551000   0.65075995   -8.4416642    259.14983  0.013923804  0.013081515            2 
 1552000   0.63141009   -8.4312957    258.83539  0.013897948  0.013070176            2 
 1553000   0.63357553   -8.4531202    258.91289  0.013893158   0.01305884            2 
 1554000   0.62081598   -8.4363722    259.12461  0.013895571  0.013047515            2 
 1555000   0.64586735   -8.4372093    259.07394   0.01388392  0.013036191            1 
 1556000   0.63471044   -8.4458105    258.59508  0.013849351  0.013024879            2 
 1557000   0.62086971   -8.4447579    258.86914  0.013855124  0.013013559            2 
 1558000   0.62362718   -8.4389169    258.39967   0.01382112  0.013002268            4 
 1559000   0.63819618   -8.4416167    258.70807   0.01382874  0.012990961            3 
 1560000    0.6314001   -8.4119621    258.61508  0.013814908  0.012979684            1 
 1561000   0.62533925   -8.4150134    258.88456  0.013820444  0.012968414            5 
 1562000    0.6296336   -8.4568114     258.7032   0.01380192  0.012957136            2 
 1563000   0.63457409   -8.4434818    258.93036  0.013805202  0.012945871            1 
 1564000   0.63673962   -8.4419297      258.497  0.013773284  0.012934636            3 
 1565000   0.65034671   -8.4466283    258.94082  0.013788116  0.012923396            4 
 1566000   0.62134289   -8.4350702    258.27731  0.013744003  0.012912166            3 
 1567000   0.63473359   -8.4608261      258.674  0.013756329  0.012900954            3 
 1568000   0.63565558   -8.4563959    258.50404  0.013738522  0.012889754            3 
 1569000   0.62370504   -8.4523759    258.41202  0.013724879  0.012878554            2 
 1570000   0.62065079   -8.4534337    258.43557  0.013717387  0.012867369            2 
 1571000   0.63077201   -8.4553495    259.07286   0.01374246  0.012856185            2 
 1572000   0.62235599   -8.4351306    258.62185   0.01370981  0.012845024            2 
 1573000   0.62081343   -8.4703063    258.37704  0.013688125  0.012833883            3 
 1574000   0.62654336   -8.4486381    258.29863  0.013675277  0.012822736            1 
 1575000   0.62249101   -8.4535617    258.90463  0.013698658  0.012811603            2 
 1576000   0.61852833   -8.4461832    259.01012  0.013695544  0.012800496            2 
 1577000   0.62198437   -8.4548718    258.89035   0.01368053  0.012789412            2 
 1578000   0.61381439   -8.4582534    259.00933  0.013678144  0.012778335            5 
 1579000   0.62143748   -8.4447083    258.63047  0.013649486  0.012767268            2 
 1580000   0.62976473   -8.4508922    258.60044  0.013639264  0.012756193            3 
 1581000   0.61594393   -8.4496519    258.69087  0.013635403  0.012745127            2 
 1582000   0.62563291   -8.4509583    258.77512  0.013631222  0.012734057            3 
 1583000   0.62338379   -8.4757196    258.73666  0.013620586  0.012723006            1 
 1584000   0.61632428   -8.4561814    258.74179  0.013612257   0.01271195            1 
 1585000    0.6296865   -8.4661168     258.3637  0.013583791  0.012700918            1 
 1586000   0.60734634    -8.457671    258.84221  0.013600368  0.012689882            2 
 1587000   0.62579391   -8.4421204    259.00637  0.013600418  0.012678855            1 
 1588000   0.59931695   -8.4633095    258.44079  0.013562174  0.012667864            1 
 1589000   0.61792126   -8.4588179    258.46119  0.013554709  0.012656891            2 
 1590000   0.63144762   -8.4474613    258.18515  0.013531716  0.012645911            3 
 1591000   0.63029957   -8.4643218    258.45336   0.01353726  0.012634962            3 
 1592000   0.62395039   -8.4612971    258.66491   0.01353983  0.012624038            3 
 1593000   0.61624696    -8.449711    258.74666  0.013535607  0.012613113            2 
 1594000   0.62499097   -8.4507873    258.69594  0.013524464  0.012602211            1 
 1595000   0.61519674   -8.4748441    258.28814  0.013494678  0.012591311            3 
 1596000   0.61779971   -8.4806569    258.53353  0.013499036  0.012580417            1 
 1597000   0.60311597   -8.4703951    258.64873  0.013496594   0.01256953            3 
 1598000   0.59769085    -8.468756    258.71015  0.013491351  0.012558635            2 
 1599000    0.6002961   -8.4762782    258.57492  0.013475866  0.012547772            1 
 1600000   0.62935699   -8.4691526     258.7189  0.013474943  0.012536912            1 
 1601000    0.6041225    -8.451988    259.10507  0.013486626  0.012526076            1 
 1602000   0.61156767   -8.4489013    259.04801   0.01347524  0.012515237            2 
 1603000   0.61242371   -8.4436494    259.04523  0.013466689   0.01250443            2 
 1604000   0.63571442    -8.461204    258.46725  0.013428265  0.012493633            2 
 1605000   0.61535703   -8.4650628    258.86576   0.01344059   0.01248284            1 
 1606000   0.60990701    -8.472576     258.5105  0.013413787  0.012472053            3 
 1607000   0.60980084   -8.4755815    258.44753  0.013402174  0.012461265            2 
 1608000   0.62757972   -8.4543981     258.2913  0.013385743  0.012450493            3 
 1609000   0.60815822   -8.4685925    258.43678  0.013384958  0.012439735            1 
 1610000   0.62459615   -8.4865802    258.60893  0.013385555   0.01242898            1 
 1611000   0.61335895   -8.4646572    259.13597  0.013404509  0.012418217            2 
 1612000   0.59703974   -8.4757621    258.20941  0.013348295  0.012407475            1 
 1613000   0.62289697   -8.4561166    258.32732  0.013346111  0.012396728            3 
 1614000   0.60475806   -8.4713917    258.40453  0.013341828  0.012385992            3 
 1615000   0.62286743   -8.4838106    258.39323  0.013332984  0.012375272            1 
 1616000   0.61964411   -8.4845459    258.16885  0.013313163  0.012364554            2 
 1617000   0.59463082   -8.4943983    258.25612  0.013309427  0.012353839            2 
 1618000   0.61629579   -8.4806658    258.79722   0.01332907  0.012343141            2 
 1619000   0.60412988     -8.49415    258.30253  0.013295374  0.012332473            1 
 1620000   0.59645561   -8.4711881    258.47891   0.01329624  0.012321817            2 
 1621000     0.594358   -8.4845157    258.56312  0.013292367  0.012311176            2 
 1622000   0.61262688   -8.4810349    258.83898  0.013298344  0.012300542            2 
 1623000    0.6075142   -8.4922668    258.63654  0.013279756  0.012289926            2 
 1624000   0.60216599   -8.4781897     258.1866  0.013248491  0.012279305            2 
 1625000   0.60357043   -8.4658676    257.98099  0.013229794  0.012268689            2 
 1626000   0.60932328   -8.5015698    258.18942   0.01323234   0.01225808            1 
 1627000   0.61379365   -8.5115791    257.74905  0.013201652  0.012247479            7 
 1628000   0.59148534   -8.5100823    258.28273   0.01322086  0.012236868            1 
 1629000   0.59262362   -8.5310444    258.65711  0.013231896  0.012226276            1 
 1630000     0.615334   -8.4935265    258.28891  0.013204955  0.012215715            2 
 1631000   0.59641894   -8.5049409    258.50662  0.013207982  0.012205158            1 
 1632000    0.6013161   -8.4897369    258.76534  0.013213099  0.012194613            2 
 1633000   0.59497879   -8.5159596    258.19754  0.013176033  0.012184083            1 
 1634000   0.59691115   -8.5037037    258.01953  0.013158891  0.012173541            3 
 1635000   0.61349634   -8.5074359    258.41055  0.013170772  0.012163021            5 
 1636000   0.59372199   -8.4825746    258.37638  0.013160981  0.012152517            2 
 1637000   0.60228484   -8.5132746    258.32931  0.013150545  0.012142016            4 
 1638000   0.58417629   -8.5111038    258.13739  0.013132753  0.012131512            2 
 1639000   0.58205415   -8.5036434    258.05226  0.013120412  0.012121024            2 
 1640000   0.59601439    -8.518046    257.91922  0.013105652  0.012110542            3 
 1641000   0.59489884   -8.4903091    258.18763  0.013111295  0.012100073            2 
 1642000   0.59701959   -8.5064985     257.9947  0.013093519  0.012089627            3 
 1643000   0.58546068   -8.5248922    258.10044  0.013090913  0.012079175            6 
 1644000   0.59512615   -8.5124065    258.61274  0.013108918  0.012068736            3 
 1645000   0.59861223   -8.5055554    258.19491  0.013079783  0.012058301            1 
 1646000   0.59547149   -8.5156639    257.56669  0.013040031  0.012047876            1 
 1647000   0.59285711   -8.5198501    258.23579  0.013065968  0.012037467            1 
 1648000   0.58450104   -8.5343916    257.96326  0.013044259  0.012027065            4 
 1649000   0.60136025   -8.5012794    258.80149  0.013078709  0.012016651            3 
 1650000   0.58293413   -8.5047984    258.25297  0.013043079  0.012006267            1 
 1651000    0.5988277   -8.5067247    258.08848  0.013026877  0.011995896            1 
 1652000   0.59662584   -8.4945038    258.55755  0.013042653  0.011985544            4 
 1653000    0.5844265   -8.4972022    258.20535  0.013017007  0.011975185            1 
 1654000   0.59949851   -8.5144666    258.45323  0.013021626   0.01196486            4 
 1655000   0.59169828   -8.4898746    258.43157  0.013012667  0.011954549            1 
 1656000   0.57930338   -8.5183045    258.46767  0.013006626  0.011944246            3 
 1657000   0.60259061   -8.5081442    258.73541  0.013012241  0.011933947            2 
 1658000   0.60190246    -8.507385    258.27177   0.01298109  0.011923654            2 
 1659000   0.59046614   -8.4923494    257.76501   0.01294781  0.011913351            2 
 1660000   0.58621967   -8.4955053    258.06461  0.012955051  0.011903085            4 
 1661000    0.5952336   -8.5039738    257.93553  0.012940775  0.011892803            2 
 1662000   0.58774971    -8.499691    258.15262  0.012943874  0.011882534            2 
 1663000   0.60362859   -8.5075045    258.27898  0.012942422  0.011872285            4 
 1664000   0.59822833   -8.5248101    257.89186  0.012915258  0.011862048            1 
 1665000   0.58070159   -8.5277453    257.69998  0.012897897  0.011851818            2 
 1666000   0.58943575   -8.5255052    258.20463  0.012915398  0.011841586            2 
 1667000   0.59698893   -8.5315951    258.01841  0.012898341  0.011831374            2 
 1668000   0.59263311   -8.5258278    258.08815  0.012894092  0.011821163            1 
 1669000   0.59090584   -8.5141054    258.16763  0.012890335  0.011810973            3 
 1670000   0.56913697   -8.5085687    258.45662  0.012897037   0.01180081            1 
 1671000   0.59232837   -8.5242854     257.9177  0.012862443   0.01179064            4 
 1672000   0.59087395   -8.5345378    258.18719  0.012868181  0.011780489            1 
 1673000   0.58018547   -8.5195525    258.11922  0.012857104  0.011770358            1 
 1674000   0.58264265   -8.5141447    257.94848  0.012840924  0.011760219            2 
 1675000   0.57952086   -8.5328608    257.81237  0.012826486  0.011750088            1 
 1676000   0.58342717   -8.5094653    257.94527  0.012825441  0.011739961            2 
 1677000   0.57555829   -8.5168506     257.9117  0.012816125  0.011729825            2 
 1678000   0.58203281   -8.5182016     257.7481  0.012800362  0.011719701            5 
 1679000   0.58169777   -8.5192767    258.22641  0.012816479  0.011709579            2 
 1680000   0.58251136   -8.5390138    257.69348  0.012782415  0.011699456            2 
 1681000   0.58297834   -8.5297274    258.19858   0.01279985   0.01168935            1 
 1682000   0.58402203   -8.5126511     258.1285  0.012788769  0.011679251            2 
 1683000   0.58059928   -8.5337272    258.08843  0.012779185  0.011669169            1 
 1684000   0.57684256   -8.5382835    257.69242     0.012752  0.011659094            2 
 1685000   0.58745807   -8.5453659     257.7869  0.012749105   0.01164903            2 
 1686000    0.5702529   -8.5443714    257.65649  0.012735098  0.011638985            2 
 1687000   0.58036097   -8.5434538     258.0159  0.012745302  0.011628943            1 
 1688000   0.56972362   -8.5440307    257.74065  0.012724163  0.011618912            3 
 1689000    0.5830768   -8.5376851    258.11457  0.012735078  0.011608907            1 
 1690000    0.5781204   -8.5402121    257.68519   0.01270637  0.011598905            1 
 1691000   0.57974815   -8.5420967     257.5514  0.012692263  0.011588915            3 
 1692000   0.58434635   -8.5332601     257.9118  0.012702512  0.011578922            2 
 1693000   0.57173884   -8.5359828    258.17837   0.01270813  0.011568934            3 
 1694000   0.57727949   -8.5560301    257.77633  0.012680851  0.011558975            3 
 1695000   0.57996406   -8.5422645    257.72121  0.012670659  0.011549028            1 
 1696000   0.57911239   -8.5410706    258.00628  0.012677196  0.011539093            1 
 1697000   0.57732882    -8.533154    257.64967  0.012652213  0.011529148            1 
 1698000   0.57969644   -8.5220997    257.93415  0.012658723  0.011519232            4 
 1699000   0.58115749    -8.535526    257.94586  0.012651847   0.01150933            2 
 1700000   0.57365074   -8.5272737    257.76133  0.012635359  0.011499422            1 
 1701000   0.57719837   -8.5321393    258.03253  0.012641217  0.011489534            2 
 1702000   0.57212572   -8.5600976    257.80186  0.012622496  0.011479649            1 
 1703000   0.57964316   -8.5644405    257.32453  0.012591727  0.011469765            2 
 1704000   0.58350752   -8.5663043     257.4084  0.012588439  0.011459903            2 
 1705000   0.57196515   -8.5428569    257.66474  0.012593584   0.01145004            2 
 1706000   0.58316335   -8.5414163    257.99063  0.012602122  0.011440181            1 
 1707000   0.57512911   -8.5408589    257.38741  0.012565291  0.011430333            2 
 1708000    0.5698309   -8.5321257    257.66158   0.01257131  0.011420481            2 
 1709000   0.57226216   -8.5298513    257.54811  0.012558421  0.011410646            3 
 1710000   0.55227656   -8.5468063    258.02042  0.012574094  0.011400819            2 
 1711000   0.57070112   -8.5349002    258.01414   0.01256644  0.011391017            1 
 1712000   0.56352272   -8.5412085     257.9023  0.012553655  0.011381231            1 
 1713000   0.57022969   -8.5365822    257.41845  0.012522789  0.011371439            2 
 1714000   0.55235139   -8.5614543    257.46677  0.012517832  0.011361669            1 
 1715000   0.55138285   -8.5509322    257.44129  0.012509295  0.011351898            3 
 1716000   0.58325937   -8.5749047    257.73231  0.012516138  0.011342139            1 
 1717000   0.57563601   -8.5498515    257.84141  0.012514144  0.011332381            4 
 1718000   0.56814381   -8.5612417    257.47963  0.012489311  0.011322655            2 
 1719000   0.56740743   -8.5561916    257.65055  0.012490331  0.011312922            3 
 1720000   0.56915495   -8.5418438    257.44434  0.012473079  0.011303195            2 
 1721000   0.55923122   -8.5649563    257.24416  0.012456138  0.011293479            2 
 1722000   0.55803664   -8.5655303    257.85363  0.012478399  0.011283786            4 
 1723000   0.57062962   -8.5620483    257.51014  0.012454543  0.011274118            3 
 1724000   0.55531028   -8.5467825    257.42998  0.012443444   0.01126445            2 
 1725000   0.56459506   -8.5649069    257.81789  0.012454971  0.011254779            2 
 1726000   0.55824818    -8.554215    257.74089  0.012444037  0.011245124            4 
 1727000   0.55735628   -8.5505548    257.79005  0.012439203  0.011235475            2 
 1728000   0.55473999   -8.5708057    257.72951  0.012429085  0.011225824            2 
 1729000   0.56050042   -8.5695031    257.10428  0.012391762  0.011216198            1 
 1730000    0.5596371   -8.5676043    257.59706  0.012408336  0.011206568            2 
 1731000   0.55869303   -8.5596538    257.57783  0.012400242  0.011196949            4 
 1732000   0.56808403    -8.566492     257.2089  0.012375332  0.011187343            2 
 1733000   0.57663128   -8.5656718    257.65072  0.012389436  0.011177754            3 
 1734000    0.5777014   -8.5757501    257.57276  0.012378545   0.01116816            2 
 1735000   0.55039897    -8.573088    257.13329  0.012350302   0.01115858            1 
 1736000   0.55956911   -8.5659413    257.44796  0.012358293  0.011149001            1 
 1737000   0.56399352   -8.5773202    257.29297  0.012343743  0.011139439            1 
 1738000   0.56360087   -8.5694765    257.70322  0.012356311  0.011129874            1 
 1739000   0.55447774   -8.5816613    257.57678  0.012343147  0.011120315            1 
 1740000   0.56438882   -8.5748771    257.69075  0.012341511  0.011110783            2 
 1741000   0.57257037   -8.5693332     257.6704  0.012333448  0.011101258            2 
 1742000   0.55190183   -8.5862778    256.96184  0.012292472  0.011091746            2 
 1743000   0.54980657   -8.5755917    257.61129   0.01231647  0.011082245            4 
 1744000   0.56782013   -8.5765254    257.35925  0.012297365  0.011072751            1 
 1745000   0.55579855   -8.5885763    257.54694  0.012299281   0.01106327            3 
 1746000    0.5659597   -8.5845172    257.85218  0.012306805  0.011053817            2 
 1747000   0.57400978   -8.5877089    257.59257  0.012287377   0.01104435            2 
 1748000   0.55084044   -8.5762864     257.6981  0.012285378   0.01103489            1 
 1749000   0.54849132   -8.5873021    257.49923  0.012268879  0.011025447            2 
 1750000   0.55296616   -8.5814103    257.20236  0.012247732  0.011016007            4 
 1751000   0.56305394   -8.5804816    257.44241  0.012252161  0.011006585            2 
 1752000   0.55858011   -8.5985303    256.91519  0.012220091  0.010997174            1 
 1753000   0.55644417   -8.5917049     257.2765  0.012230296  0.010987773            2 
 1754000   0.54788682   -8.5974019    257.63951   0.01224057  0.010978376            3 
 1755000   0.54620542   -8.5841033    257.72005  0.012237419  0.010968986            5 
 1756000   0.56101886   -8.6030931    257.13984  0.012202916  0.010959598            3 
 1757000   0.54631399   -8.6074697    256.84743  0.012182102  0.010950214            2 
 1758000   0.54800196   -8.5978135    257.29438  0.012196359   0.01094084            2 
 1759000   0.54281835   -8.6114988    257.33443  0.012191322  0.010931487            2 
 1760000   0.55510586   -8.5901798    257.55825  0.012194993  0.010922138            3 
 1761000   0.54143762    -8.605007    257.04143  0.012163611  0.010912795            2 
 1762000   0.55025506   -8.6043071     257.2686  0.012167452  0.010903452            2 
 1763000    0.5485731   -8.6000117    257.05808  0.012150599   0.01089412            2 
 1764000   0.55244165   -8.5735281    256.91063  0.012136745  0.010884807            2 
 1765000   0.55854948   -8.5935122    257.32539  0.012149452  0.010875503            3 
 1766000   0.55675899   -8.6040309    257.30065  0.012141405  0.010866202            2 
 1767000   0.54746295   -8.5991307    257.29066  0.012134062  0.010856921            2 
 1768000   0.55374484   -8.6084556    257.05678  0.012116175  0.010847632            1 
 1769000   0.54099245   -8.6033707    257.33138  0.012122262  0.010838363            2 
 1770000   0.54929528   -8.6323672    257.28634  0.012113293  0.010829102            1 
 1771000    0.5587403   -8.6068574    256.83703  0.012085311  0.010819841            2 
 1772000   0.54543661    -8.602916    256.86805   0.01207995  0.010810604            2 
 1773000   0.54235053   -8.6157496    257.06826  0.012082547  0.010801362            2 
 1774000   0.54731688   -8.6049339    256.50939  0.012049483  0.010792135            1 
 1775000   0.54437026   -8.6111085    256.53229   0.01204377  0.010782917            2 
 1776000   0.54345815   -8.5967831    257.46111   0.01208057  0.010773703            3 
 1777000   0.54282746   -8.6123186    256.93875  0.012049275  0.010764505            2 
 1778000   0.54746637   -8.6005339    257.52909  0.012070167  0.010755323            3 
 1779000   0.53939025    -8.608754    257.25037  0.012050326  0.010746145            1 
 1780000   0.55542895   -8.6113543    257.23291  0.012042739  0.010736976            2 
 1781000   0.54357819   -8.5868699    257.55954   0.01205126  0.010727824            5 
 1782000   0.52877465   -8.6070798    257.34201  0.012034325   0.01071868            3 
 1783000   0.54624943   -8.6144239    257.12402  0.012017387  0.010709537            1 
 1784000   0.54242247   -8.5990913    257.23511   0.01201584  0.010700398            2 
 1785000   0.55513141   -8.6087286    257.37884  0.012015819  0.010691286            2 
 1786000   0.55093898   -8.6301482    257.29439  0.012005151  0.010682174            2 
 1787000   0.53701316   -8.6181857    256.96761  0.011983194  0.010673072            4 
 1788000   0.54627143   -8.5984147    256.95497  0.011975903  0.010663994            2 
 1789000   0.55502949   -8.6228978    257.46061  0.011992762  0.010654919            3 
 1790000    0.5495826   -8.6212345    257.06058  0.011967439  0.010645859            1 
 1791000   0.53380973   -8.6188742    257.23106  0.011968689  0.010636803            3 
 1792000   0.54609212   -8.6098153    256.83813  0.011943738   0.01062775            2 
 1793000   0.52842265   -8.6131218    256.93901  0.011941765   0.01061871            4 
 1794000   0.54232635   -8.6108676    256.81483   0.01192934  0.010609683            4 
 1795000   0.52083582   -8.5995728     256.9107  0.011927145  0.010600665            2 
 1796000   0.54609712   -8.6017713     256.7593  0.011913479  0.010591639            1 
 1797000   0.54172293   -8.6315765    257.01695  0.011918798  0.010582634            3 
 1798000   0.53367697   -8.6254122    257.06829  0.011914548  0.010573618            2 
 1799000   0.53177832   -8.6352384    256.61559  0.011886955  0.010564622            2 
 1800000   0.53192797   -8.6149224    256.68861  0.011883732   0.01055564            1 
 1801000   0.53736711   -8.6219915    256.75456  0.011880185  0.010546663            2 
 1802000   0.52390935   -8.6307336    256.65733  0.011869096    0.0105377            2 
 1803000   0.54349571   -8.6171993    257.00332  0.011878504  0.010528763            2 
 1804000   0.53245689   -8.6163762    256.89357   0.01186685  0.010519818            2 
 1805000   0.53488105   -8.6129291    257.55039    0.0118906   0.01051089            2 
 1806000   0.54269383   -8.6404293    256.90199  0.011854097   0.01050197            5 
 1807000   0.54102708   -8.6349197    256.87665  0.011846368  0.010493046            2 
 1808000   0.53737772   -8.6254036    256.93114  0.011842328  0.010484137            2 
 1809000   0.53112038   -8.6380948    256.73353  0.011826678  0.010475233            3 
 1810000   0.53224095    -8.629165    256.87271  0.011826552  0.010466334            1 
 1811000   0.53980174   -8.6319728    256.66598  0.011810509  0.010457451            2 
 1812000   0.52893206   -8.6127648    256.89881  0.011814699   0.01044858            5 
 1813000   0.54222894   -8.6245524    256.85968  0.011806384  0.010439708            1 
 1814000   0.51899241   -8.6241308    256.87481   0.01180057  0.010430855            2 
 1815000   0.53760909   -8.6360682    256.50823  0.011777237  0.010422003            3 
 1816000   0.52533574   -8.6352611    256.62776  0.011776237  0.010413162            3 
 1817000   0.52891201     -8.64173    256.76768  0.011776173  0.010404323            2 
 1818000   0.53232876    -8.636689      256.514  0.011758067  0.010395491            1 
 1819000   0.53201088   -8.6246822    256.64309  0.011757517   0.01038667            2 
 1820000   0.52044626   -8.6404765    256.99509  0.011767174  0.010377858            1 
 1821000   0.51683601   -8.6361552    256.70696  0.011747527  0.010369061            1 
 1822000   0.53499346   -8.6438529    256.41948  0.011727931  0.010360266            2 
 1823000   0.51354532   -8.6229452    256.76291  0.011737196   0.01035149            2 
 1824000   0.52672986   -8.6399695    256.62138  0.011724295  0.010342713            1 
 1825000   0.51490305   -8.6488582    256.63591  0.011718535  0.010333951            2 
 1826000   0.52540194   -8.6278618    256.35039  0.011699087   0.01032519            1 
 1827000    0.5245535   -8.6346589    256.72256  0.011709659  0.010316445            1 
 1828000   0.52405145    -8.647636    256.61956  0.011698557  0.010307691            1 
 1829000   0.52315102   -8.6389196    256.42945  0.011683499  0.010298958            3 
 1830000   0.52617756    -8.643037    256.33045  0.011672607  0.010290231            3 
 1831000   0.52401946   -8.6471311    256.48045  0.011673059  0.010281517            1 
 1832000   0.52120981   -8.6494723     256.6442  0.011674136  0.010272813            3 
 1833000   0.52892843   -8.6592203    256.65623  0.011668314  0.010264113            2 
 1834000   0.52670181   -8.6461721    256.57236  0.011658141  0.010255421            1 
 1835000   0.52820229   -8.6554269     256.6523  0.011655418  0.010246747            3 
 1836000   0.51490305   -8.6526437    257.12384  0.011670472  0.010238082            3 
 1837000   0.52016608   -8.6422263    256.46166   0.01163408  0.010229425            3 
 1838000   0.52817269    -8.650999    256.15735  0.011613953  0.010220765            2 
 1839000   0.51849796   -8.6373897    256.51986  0.011624065   0.01021213            4 
 1840000   0.50915777   -8.6567695    256.55783  0.011619467  0.010203496            1 
 1841000   0.51735097   -8.6373597    256.98593  0.011632534   0.01019488            2 
 1842000   0.52620591   -8.6699583    256.90198   0.01162242  0.010186269            1 
 1843000   0.51931702   -8.6617965    256.01451  0.011575986  0.010177661            1 
 1844000   0.51266574   -8.6569483    256.20541  0.011578335  0.010169056            1 
 1845000   0.51053691   -8.6611724     256.4936  0.011585077  0.010160467            2 
 1846000   0.51827537   -8.6718404     256.5109  0.011579582  0.010151895            2 
 1847000   0.51365202   -8.6601199    256.44079   0.01157015  0.010143333            3 
 1848000   0.51391352   -8.6511074     256.6294  0.011572394  0.010134765            1 
 1849000   0.51359616   -8.6536056    255.86643  0.011531748  0.010126216            2 
 1850000   0.50799038   -8.6729673    256.48038   0.01155317  0.010117678            2 
 1851000   0.51477475   -8.6492315    256.38767  0.011542755  0.010109143            1 
 1852000   0.51861084   -8.6551455    256.55956  0.011544257  0.010100625            2 
 1853000   0.51249131    -8.665976    255.91478  0.011509029  0.010092121            3 
 1854000   0.51281246   -8.6794964    256.10858  0.011511533  0.010083615            3 
 1855000   0.50753267   -8.6726158    256.63005  0.011528754  0.010075118            1 
 1856000   0.50709397   -8.6520986     256.1531  0.011501127  0.010066621            2 
 1857000   0.50150074    -8.653456    256.00018  0.011488071  0.010058137            2 
 1858000   0.51335047   -8.6619392    256.35885  0.011497975   0.01004966            2 
 1859000   0.50741604   -8.6296871    256.62021  0.011503506  0.010041198            2 
 1860000   0.50979101   -8.6580168    256.46934  0.011490562  0.010032747            1 
 1861000   0.51785135   -8.6538203    256.68945  0.011494244  0.010024298            1 
 1862000   0.50594688   -8.6732992    256.26485  0.011469068  0.010015857            1 
 1863000   0.50981135   -8.6617613    255.96375  0.011449443  0.010007419            2 
 1864000   0.52003145   -8.6810025    256.11974  0.011450275  0.009998988            3 
 1865000   0.50335735     -8.67915    256.21623  0.011448446 0.0099905701            2 
 1866000   0.52203649   -8.6641728    256.51976  0.011455866 0.0099821657            3 
 1867000   0.50458628   -8.6722106    256.36647  0.011442889 0.0099737667            2 
 1868000   0.51065952   -8.6998465    256.13579  0.011426472 0.0099653795            1 
 1869000   0.50503076   -8.6628424    256.18256  0.011422443 0.0099570025            2 
 1870000   0.51505005   -8.6695793    256.13081  0.011414029 0.0099486303            1 
 1871000   0.51445563   -8.6751005    256.11708  0.011407317 0.0099402632            2 
 1872000   0.51213691   -8.6537987    256.70605  0.011427442 0.0099319115            2 
 1873000    0.4991184   -8.6705012    256.21802  0.011399627 0.0099235675            2 
 1874000   0.50222951   -8.6726587    256.44807  0.011403774 0.0099152234            1 
 1875000   0.51710623   -8.6714531    256.12405  0.011383291 0.0099068888            4 
 1876000   0.51222598   -8.6624548    256.25184    0.0113829 0.0098985706            2 
 1877000   0.50494884   -8.6737803    256.41113  0.011383907 0.0098902594            3 
 1878000   0.50594889   -8.6724908    256.04613  0.011361649 0.0098819519            1 
 1879000   0.49305354   -8.6721318    256.23573  0.011364012 0.0098736635            1 
 1880000    0.5030115   -8.6856426    256.47297  0.011368483 0.0098653801            2 
 1881000   0.50271862   -8.6710033    256.33573  0.011356359 0.0098571032            2 
 1882000   0.50452253   -8.6724543    256.07592  0.011338821 0.0098488317            1 
 1883000   0.48898348   -8.6823933    256.45108  0.011349402 0.0098405724            2 
 1884000   0.50499493    -8.683528    256.38275  0.011340355   0.00983232            3 
 1885000   0.49903395   -8.6889529    256.55924  0.011342141 0.0098240712            1 
 1886000    0.4962144    -8.681847    256.31185  0.011325197 0.0098158339            3 
 1887000   0.50308735   -8.6882553    255.83596  0.011298179 0.0098076066            2 
 1888000   0.50501588   -8.6720287    256.19807  0.011308177 0.0097993893            1 
 1889000   0.49427597   -8.6826467    256.11921  0.011298712   0.00979117            2 
 1890000   0.50112387   -8.6882908    256.05797  0.011290034 0.0097829603            1 
 1891000   0.48510454   -8.6886327    256.09023  0.011285485  0.009774755            3 
 1892000   0.48626963   -8.6925585    256.09797  0.011279861  0.009766569            3 
 1893000   0.49772013   -8.6923191    256.19894  0.011278347 0.0097583914            2 
 1894000   0.49906913   -8.6894267    255.92158  0.011260189 0.0097502238            4 
 1895000   0.50045546   -8.6920499    255.92869   0.01125456 0.0097420588            2 
 1896000   0.49756477    -8.683407     255.6981  0.011238489 0.0097339059            2 
 1897000    0.4965661   -8.6793895    256.04342  0.011247734 0.0097257691            2 
 1898000   0.49300812   -8.6822153    255.84315  0.011233015 0.0097176404            3 
 1899000   0.50009009   -8.6914015    255.92453  0.011230671 0.0097095171            6 
 1900000   0.49524631   -8.7000851    256.13365  0.011233932 0.0097014065            2 
 1901000    0.4957072   -8.6965637    256.16085  0.011229215    0.0096933            1 
 1902000   0.49655532   -8.6792274    255.68666  0.011202535 0.0096852045            4 
 1903000    0.4920053   -8.6860944    256.14547   0.01121674 0.0096771227            2 
 1904000   0.48927844   -8.6776327    256.07263  0.011207661 0.0096690398            3 
 1905000    0.4940086   -8.6864958    255.90199  0.011194313 0.0096609812            2 
 1906000    0.4934261   -8.6724202    255.88641  0.011187758 0.0096529227            3 
 1907000    0.4880725   -8.6985693    255.91573  0.011183173 0.0096448774            3 
 1908000   0.48828233   -8.6883247     255.8893  0.011176157 0.0096368348            2 
 1909000   0.48991372   -8.6969885    255.99266  0.011174815 0.0096287991            1 
 1910000   0.47648797   -8.6912369    256.06737  0.011172224 0.0096207769            2 
 1911000   0.48115506    -8.690541    255.79143  0.011154344 0.0096127565            3 
 1912000   0.48818075   -8.6999159    255.97386  0.011156462 0.0096047426            1 
 1913000   0.48562649   -8.6926395    256.35986  0.011167445 0.0095967371            1 
 1914000   0.48651297   -8.7024848    255.95818  0.011144122 0.0095887335            3 
 1915000   0.49210528   -8.6839322     256.0548  0.011142506  0.009580747            2 
 1916000   0.49406451   -8.7097827    255.97902  0.011133395 0.0095727576            3 
 1917000   0.47707944   -8.7038533    256.00369   0.01112866 0.0095647836            2 
 1918000   0.48648365   -8.6894866    255.83816  0.011115665 0.0095568089            3 
 1919000   0.49193457    -8.701248    255.99192   0.01111655 0.0095488443            1 
 1920000   0.48095257   -8.7049685    255.81925  0.011103266 0.0095408853            1 
 1921000   0.48229498    -8.706526    255.66308  0.011090712 0.0095329372            2 
 1922000   0.49868959   -8.7036859    255.54643  0.011079884 0.0095249987            5 
 1923000   0.47561638    -8.709265    255.88536  0.011088809 0.0095170697            2 
 1924000   0.48470579   -8.6868683    255.93412  0.011085157 0.0095091423            2 
 1925000   0.47853074    -8.706163    255.73095  0.011070604 0.0095012397            1 
 1926000   0.47941296   -8.7197791    256.08593  0.011080215  0.009493338            1 
 1927000   0.48788352   -8.6902755    255.62505  0.011054534 0.0094854435            1 
 1928000   0.49131643   -8.7023483     255.5974  0.011047606 0.0094775549            4 
 1929000   0.47663416   -8.7097688    255.64964  0.011044135  0.009469674            2 
 1930000   0.48143893   -8.7376156    255.38207   0.01102686 0.0094617962            2 
 1931000   0.48120303   -8.7058832    255.67542  0.011033809 0.0094539342            1 
 1932000   0.49283805   -8.7073926    255.72268  0.011030136 0.0094460884            4 
 1933000   0.47578868   -8.7158336    255.86943  0.011030757 0.0094382395            3 
 1934000   0.47392682   -8.7118356    255.24291  0.010998057 0.0094303923            2 
 1935000   0.48648058   -8.7006138    255.58893  0.011007275 0.0094225509            2 
 1936000   0.48401062   -8.7040252    255.97639  0.011018267 0.0094147169            2 
 1937000   0.48234351   -8.7035696    255.66192   0.01099905 0.0094068977            2 
 1938000   0.47044139   -8.7146607    255.71492  0.010995654 0.0093990847            2 
 1939000   0.46814726   -8.7287752    255.72391  0.010990369 0.0093912787            1 
 1940000   0.47189426   -8.7098037     255.6949  0.010983458 0.0093834846            1 
 1941000   0.48046672   -8.7183163    255.38131  0.010964336  0.009375694            1 
 1942000   0.46850479   -8.7221517    256.18402  0.010993135   0.00936792            2 
 1943000    0.4768441   -8.7237496    255.84042  0.010972741 0.0093601524            2 
 1944000   0.47695261   -8.7127839    255.62503  0.010957863 0.0093523911            2 
 1945000   0.46806075   -8.7249267    255.74166  0.010957226 0.0093446397            1 
 1946000   0.48438718   -8.7237724     255.4328  0.010938369 0.0093368943            4 
 1947000   0.47732212   -8.7288098    255.58752  0.010939373 0.0093291553            2 
 1948000   0.47535145    -8.731715    256.00777  0.010951735 0.0093214263            1 
 1949000    0.4833606   -8.7285958    255.26305  0.010914275 0.0093137074            2 
 1950000   0.46877956   -8.7278924    255.42757  0.010915708 0.0093059993            3 
 1951000   0.47221939   -8.7190043    255.41206   0.01090945 0.0092982946            1 
 1952000   0.47075252   -8.7339348    255.61549  0.010912547 0.0092906007            1 
 1953000   0.47191988   -8.7273615    255.77975  0.010913968 0.0092829111            1 
 1954000   0.47020309   -8.7342979     255.8531  0.010911511  0.009275231            1 
 1955000   0.45931783   -8.7115155    255.58896   0.01089467 0.0092675552            2 
 1956000    0.4807959   -8.7310026    255.66501   0.01089234 0.0092598866            2 
 1957000   0.46942566   -8.7194266    255.20649  0.010867249 0.0092522286            1 
 1958000   0.47561179   -8.7394693    255.67058  0.010881451 0.0092445917            2 
 1959000   0.47704792   -8.7218826    255.21879  0.010856678 0.0092369541            4 
 1960000   0.47983396   -8.7247487    255.32699  0.010855739 0.0092293165            1 
 1961000   0.47211625   -8.7087191    255.51561  0.010858219 0.0092216956            2 
 1962000   0.46451152   -8.7255142    255.94292  0.010870834 0.0092140805            1 
 1963000   0.47303702   -8.7262024    255.43275  0.010843639 0.0092064761            2 
 1964000   0.47407854   -8.7315852    255.54837  0.010843023 0.0091988788            4 
 1965000   0.46842752    -8.730502    255.57509  0.010838638 0.0091912889            6 
 1966000    0.4686345   -8.7503778    255.42034  0.010826566 0.0091837053            2 
 1967000   0.46990866   -8.7392906    255.38123  0.010819405 0.0091761313            3 
 1968000   0.46414849   -8.7163127    255.86192  0.010834262 0.0091685685            2 
 1969000   0.47370096   -8.7156146    255.69541  0.010821712 0.0091610125            3 
 1970000   0.47355588   -8.7277302    255.73531  0.010817907 0.0091534622            2 
 1971000    0.4678843   -8.7470591    255.29297  0.010793716 0.0091459169            2 
 1972000    0.4658172   -8.7300191    255.99696  0.010817992 0.0091383847            1 
 1973000   0.45815585   -8.7343047    255.68078  0.010799154 0.0091308579            1 
 1974000   0.46512801   -8.7412734    255.54587  0.010787988 0.0091233431            2 
 1975000   0.46097464   -8.7192019    255.30933  0.010772545 0.0091158325            2 
 1976000   0.46647487   -8.7420689    255.47027  0.010773881 0.0091083381            2 
 1977000   0.46854323   -8.7392188    255.70225   0.01077821 0.0091008364            1 
 1978000    0.4667824   -8.7338892    255.77018  0.010775623 0.0090933546            2 
 1979000   0.46275066   -8.7482909    255.36598  0.010753157 0.0090858724            1 
 1980000   0.46659461   -8.7519261    255.21664  0.010741441 0.0090784005            3 
 1981000   0.46432648   -8.7473296    255.07856   0.01073021  0.009070931            5 
 1982000   0.46454647    -8.744689    255.57835   0.01074581 0.0090634765            3 
 1983000   0.45608211   -8.7506052    255.66258  0.010743931 0.0090560246            2 
 1984000   0.44965298   -8.7258085    255.56273  0.010734322  0.009048582            1 
 1985000   0.45884706   -8.7316408    255.40163  0.010722151 0.0090411514            3 
 1986000   0.45534123   -8.7489359    255.39279  0.010716381 0.0090337282            2 
 1987000   0.45753297    -8.754529    255.31029  0.010707528 0.0090263111            2 
 1988000   0.46276086   -8.7404725    255.54184  0.010711848 0.0090189055            2 
 1989000   0.46314316   -8.7537484    255.50073   0.01070474  0.009011513            2 
 1990000   0.45813319   -8.7552067    254.90346  0.010674349 0.0090041159            2 
 1991000   0.45579451    -8.745397    255.37634   0.01068878 0.0089967313            2 
 1992000   0.44846672   -8.7533145    255.20065  0.010676065 0.0089893567            2 
 1993000   0.46686356    -8.728059    255.45141  0.010681193 0.0089819858            2 
 1994000   0.45590753   -8.7403942    255.57641   0.01068106 0.0089746186            2 
 1995000   0.44822451   -8.7570922    254.98249  0.010650897 0.0089672539            3 
 1996000   0.45008531   -8.7477871    255.25212  0.010656819 0.0089599035            2 
 1997000    0.4600227   -8.7668835    255.40504  0.010657863 0.0089525642            1 
 1998000   0.45522449    -8.746975     255.4408  0.010654021  0.008945233            2 
 1999000   0.45227538   -8.7565686    255.13733   0.01063604  0.008937906            1 
 2000000   0.45145641   -8.7604998    255.44755  0.010643648 0.0089305822            4 
 2001000   0.45554481   -8.7416765    255.43699  0.010637889 0.0089232699            1 
 2002000   0.45188753   -8.7567743    255.37961  0.010630187  0.008915965            1 
 2003000   0.46157083   -8.7539095    255.03603  0.010610586 0.0089086635            1 
 2004000   0.45785603   -8.7523913    255.15736  0.010610336 0.0089013687            2 
 2005000   0.44965752    -8.762672     255.0835  0.010601974 0.0088940819            2 
 2006000   0.44745871   -8.7629471    255.27291  0.010604558 0.0088868055            2 
 2007000   0.45428986   -8.7409355    254.87645  0.010582812 0.0088795331            2 
 2008000   0.44754841   -8.7601808    255.16358  0.010589458 0.0088722729            2 
 2009000   0.45548608   -8.7551645     255.0819  0.010580799 0.0088650189            3 
 2010000   0.44583404    -8.780987     255.4548  0.010590995 0.0088577711            5 
 2011000   0.44082715   -8.7624859    255.01236  0.010567394   0.00885053            2 
 2012000   0.45059951   -8.7748676     255.2843  0.010573405 0.0088432982            2 
Loop time of 4855.15 on 48 procs for 2000000 steps with 4000 atoms

Performance: 71182.148 tau/day, 411.934 timesteps/s
99.4% CPU use with 48 MPI tasks x no OpenMP threads

MPI task timing breakdown:
Section |  min time  |  avg time  |  max time  |%varavg| %total
---------------------------------------------------------------
Pair    | 318.47     | 334.84     | 354.55     |  51.3 |  6.90
Neigh   | 31.579     | 32.897     | 34.362     |  12.9 |  0.68
Comm    | 307.38     | 328.88     | 347.19     |  56.0 |  6.77
Output  | 4.1946     | 4.1969     | 4.2372     |   0.3 |  0.09
Modify  | 4101       | 4111.4     | 4121.9     |   6.2 | 84.68
Other   |            | 42.96      |            |       |  0.88

Nlocal:        83.3333 ave          92 max          76 min
Histogram: 2 6 2 11 4 10 7 3 1 2
Nghost:        2091.33 ave        2111 max        2076 min
Histogram: 4 3 10 7 4 7 5 2 3 3
Neighs:        13638.4 ave       15312 max       12122 min
Histogram: 3 0 7 11 10 5 2 2 4 4
FullNghs:      27276.8 ave       30182 max       24482 min
Histogram: 1 3 6 7 9 8 3 8 1 2

Total # of neighbors = 1309287
Ave neighs/atom = 327.32175
Neighbor list builds = 107025
Dangerous builds = 1

#clear
#
#next RN
#
#jump SELF
Total wall time: 1:20:58
