
units lj                  # Use reduced LJ style units
atom_style atomic         # Uncharged point particles
atom_modify map hash      # Needed for indexing of clusters etc
                          # Used to be able to find where atoms are in relation to each other.

lattice fcc 1.0 spacing 1 1 1
Lattice spacing in x,y,z = 1.5874011 1.5874011 1.5874011
region box block 0 10 0 10 0 10 units lattice
create_box 2 box
Created orthogonal box = (0.0000000 0.0000000 0.0000000) to (15.874011 15.874011 15.874011)
  3 by 4 by 4 MPI processor grid
create_atoms 1 box
Created 4000 atoms
  using lattice units in orthogonal box = (0.0000000 0.0000000 0.0000000) to (15.874011 15.874011 15.874011)
  create_atoms CPU = 0.002 seconds
set type 1 type/fraction 2 0.41 78393
Setting atom values ...
  1648 settings made for type/fraction
mass 1 1.0
mass 2 1.0
pair_style lj/cut  3.5
pair_modify tail  yes
pair_coeff 1  1  1.0  1.0   # Intearaction between 1 and 1 set with epsilon = 1 and sigma = 1
pair_coeff 1  2  1.5  0.8
pair_coeff 2  2  0.5  0.88

write_data data.0
System init for write_data ...
Neighbor list info ...
  update every 1 steps, delay 10 steps, check yes
  max neighbors/atom: 2000, page size: 100000
  master list distance cutoff = 3.8
  ghost atom cutoff = 3.8
  binsize = 1.9, bins = 9 9 9
  1 neighbor lists, perpetual/occasional/extra = 1 0 0
  (1) pair lj/cut, perpetual
      attributes: half, newton on
      pair build: half/bin/atomonly/newton
      stencil: half/bin/3d
      bin: standard
WARNING: Not all mixed pair coeffs generated from mixing. Use write_data with 'pair ij' option to store all pair coeffs. (../write_data.cpp:312)


#############################
#   M E L T   S Y S T E M   #
#############################

velocity all create 2.4 6229865 mom yes dist gaussian # Assign velocities
                                                    # Temperature 2.4, random number seed, zero linear momentum
                                                                                # Gaussian distribution

timestep 0.002   # simulation timestep
thermo 1000       # output thermodynamic data every 1000 steps bf 100

# Define a fix  in this case with index 1 applied to all
# particles in the simulation. This fix is for simulations
# in the anisotropic NPT ensemble. Note that we use the MTK
# correction.
fix 1 all npt temp 2.4 2.4 0.1 iso 5.68 5.68 0.5 mtk yes tchain 5 pchain 5 # Use NPT ensemble
                                                                         # Set temperature and pressure and damping
                                                                         # Numbers of thermostats in chain and in barostat
run 10000          # run for 10000 steps
Per MPI rank memory allocation (min/avg/max) = 3.642 | 3.644 | 3.648 Mbytes
Step Temp E_pair E_mol TotEng Press Volume 
       0          2.4   -5.8082674            0   -2.2091674   -4.1765581         4000 
    1000    2.4447906   -4.9490885            0   -1.2828193    6.1527297    3869.0527 
    2000    2.3623454   -5.0439299            0   -1.5012977    5.4139847     3880.084 
    3000    2.4087129   -4.9980113            0   -1.3858452    5.7228357    3878.9083 
    4000    2.4353581   -5.0503847            0   -1.3982607    5.6907017    3859.9366 
    5000    2.3605355   -5.0136064            0   -1.4736883    5.5284523    3890.1519 
    6000    2.4151159   -4.9722762            0   -1.3505081    5.6902409    3892.1442 
    7000    2.3887717   -5.0683189            0   -1.4860571    5.9121098    3830.3533 
    8000    2.3673513   -5.0429981            0   -1.4928589    5.7089821    3857.6756 
    9000    2.4063111   -5.0305901            0   -1.4220259     5.610986     3874.271 
   10000    2.4027308   -4.9996812            0    -1.396486    5.7780632    3872.2255 
Loop time of 2.70592 on 48 procs for 10000 steps with 4000 atoms

Performance: 638600.466 tau/day, 3695.605 timesteps/s
99.4% CPU use with 48 MPI tasks x no OpenMP threads

MPI task timing breakdown:
Section |  min time  |  avg time  |  max time  |%varavg| %total
---------------------------------------------------------------
Pair    | 1.1157     | 1.1857     | 1.2956     |   3.2 | 43.82
Neigh   | 0.20725    | 0.21664    | 0.22978    |   1.0 |  8.01
Comm    | 0.75544    | 0.8688     | 1.0047     |   5.1 | 32.11
Output  | 0.00025169 | 0.00025932 | 0.00046468 |   0.0 |  0.01
Modify  | 0.32965    | 0.41905    | 0.46344    |   4.6 | 15.49
Other   |            | 0.01543    |            |       |  0.57

Nlocal:        83.3333 ave          92 max          75 min
Histogram: 1 3 6 5 11 10 2 8 0 2
Nghost:        1681.40 ave        1712 max        1641 min
Histogram: 3 1 3 4 5 5 11 10 4 2
Neighs:        9862.23 ave       11218 max        8642 min
Histogram: 2 5 4 6 9 11 3 5 1 2

Total # of neighbors = 473387
Ave neighs/atom = 118.34675
Neighbor list builds = 901
Dangerous builds = 173

# Equilibrate just above the melting temperature to avoid step fn in T

fix 1 all npt temp 1.25 1.25 0.1 iso 5.68 5.68 0.5 mtk yes tchain 5 pchain 5
run 2000
Per MPI rank memory allocation (min/avg/max) = 3.643 | 3.645 | 3.649 Mbytes
Step Temp E_pair E_mol TotEng Press Volume 
   10000    2.4027308   -4.9996812            0    -1.396486    5.7780632    3872.2255 
   11000    1.2688563   -7.0467837            0   -5.1439751    5.5851374    3067.6427 
   12000    1.2526079   -7.1399191            0    -5.261477    5.7504203    3033.9341 
Loop time of 0.650905 on 48 procs for 2000 steps with 4000 atoms

Performance: 530953.345 tau/day, 3072.647 timesteps/s
99.4% CPU use with 48 MPI tasks x no OpenMP threads

MPI task timing breakdown:
Section |  min time  |  avg time  |  max time  |%varavg| %total
---------------------------------------------------------------
Pair    | 0.26875    | 0.29451    | 0.34607    |   2.4 | 45.25
Neigh   | 0.039191   | 0.041234   | 0.044616   |   0.5 |  6.33
Comm    | 0.19701    | 0.24553    | 0.29462    |   5.8 | 37.72
Output  | 5.5766e-05 | 5.6917e-05 | 7.1133e-05 |   0.0 |  0.01
Modify  | 0.040547   | 0.064677   | 0.094692   |   9.6 |  9.94
Other   |            | 0.004895   |            |       |  0.75

Nlocal:        83.3333 ave          91 max          75 min
Histogram: 2 3 2 6 6 9 11 5 3 1
Nghost:        1975.56 ave        1995 max        1954 min
Histogram: 3 3 3 4 8 8 8 4 5 2
Neighs:        12600.4 ave       13916 max       10673 min
Histogram: 1 1 2 4 6 7 12 8 3 4

Total # of neighbors = 604821
Ave neighs/atom = 151.20525
Neighbor list builds = 142
Dangerous builds = 6

#############################
# L I N E A R  Q U E N C H  #
#############################

# Define solid atoms. This closely follows ten Wolde  Ruiz-Montero and Frenkel  Faraday Discuss  1996  104  93-110
# Compute components of the per-atom q6 vector
compute q6 all orientorder/atom degrees 1 6 components 6 nnn NULL cutoff 1.3 # compute the Q6 parameter.
                                                                             # Use all neighbours within 1.3 unit cell.

# get number of connections
compute coord_number all coord/atom orientorder q6 0.5

# An atom is solid if it has 8 or more connections (of a possible 14)
variable is_solid atom c_coord_number>=8
group solid dynamic all var is_solid    # Must be dynamic to update
dynamic group solid defined

# do clustering
compute cluster solid cluster/atom 1.3 # Create a cluster where all atoms within are solid and max 1.3 units from another member

# define chunks one chunk per cluster
compute clus_chunks solid chunk/atom c_cluster nchunk every compress yes  # Says which atoms are in which chunk

# count the size of each chunk
compute size_chunks solid property/chunk clus_chunks count


# Find the maximum entry in the vector of chunk sizes
variable max_n equal max(c_size_chunks)


# Thermo style which includes this variable
# thermo_style custom step temp pe vol v_max_n

thermo ${N}  # Print the thermo information every 100 steps
thermo 1000  

# Reset the npt fix at a lower temperature (below freezing)
fix 1  all npt temp  ${temp} ${temp}  0.1  iso  5.68  5.68  0.5  mtk yes tchain  5  pchain  5
fix 1  all npt temp  0.45 ${temp}  0.1  iso  5.68  5.68  0.5  mtk yes tchain  5  pchain  5
fix 1  all npt temp  0.45 0.45  0.1  iso  5.68  5.68  0.5  mtk yes tchain  5  pchain  5

dump dmp2 all dcd ${N} traj.dcd
dump dmp2 all dcd 1000 traj.dcd


compute msd all msd com yes
variable twopoint equal c_msd[4]/6/(step*dt+1.0e-6)
fix 9 all vector 10 c_msd[4]
variable fit equal slope(f_9)/6/(10*dt)
thermo_style custom step temp pe c_msd[4] v_twopoint v_fit v_max_n

fix 1 all npt temp 1.25 ${temp} 0.1 iso 5.68 5.68 0.5 mtk yes tchain 5 pchain 5
fix 1 all npt temp 1.25 0.45 0.1 iso 5.68 5.68 0.5 mtk yes tchain 5 pchain 5
run 5000000 # 5000000  # Run for this many steps
Neighbor list info ...
  update every 1 steps, delay 10 steps, check yes
  max neighbors/atom: 2000, page size: 100000
  master list distance cutoff = 3.8
  ghost atom cutoff = 3.8
  binsize = 1.9, bins = 8 8 8
  4 neighbor lists, perpetual/occasional/extra = 1 3 0
  (1) pair lj/cut, perpetual
      attributes: half, newton on
      pair build: half/bin/atomonly/newton
      stencil: half/bin/3d
      bin: standard
  (2) compute orientorder/atom, occasional
      attributes: full, newton on
      pair build: full/bin/atomonly
      stencil: full/bin/3d
      bin: standard
  (3) compute coord/atom, occasional
      attributes: full, newton on
      pair build: full/bin/atomonly
      stencil: full/bin/3d
      bin: standard
  (4) compute cluster/atom, occasional
      attributes: full, newton on
      pair build: full/bin/atomonly
      stencil: full/bin/3d
      bin: standard
Per MPI rank memory allocation (min/avg/max) = 9.828 | 9.833 | 9.837 Mbytes
Step Temp PotEng c_msd[4] v_twopoint v_fit v_max_n 
   12000    1.2526079   -7.1399191 1.5163879e-30 1.0530471e-32 8.3333333e+20            1 
   13000    1.2366745   -7.1547896   0.45863537 0.0029399702  0.037735748            1 
   14000    1.2670401   -7.1352058     0.862707 0.0051351605  0.034751064            1 
   15000    1.2344818   -7.1086522    1.2649419 0.0070274549  0.034148667            4 
   16000    1.2407584   -7.1501714    1.7073486 0.0088924401  0.034653454            2 
   17000    1.2245667    -7.108343    2.1545101  0.010561324  0.035253635            2 
   18000    1.2412521   -7.0986192    2.6247131  0.012151449  0.035800138            2 
   19000    1.2728791   -7.1130015    3.0441232  0.013351417  0.036063111            2 
   20000    1.2285488   -7.1196983    3.5126565  0.014636069  0.036222617            3 
   21000    1.2492252   -7.1421533     3.878418  0.015390547  0.036108811            2 
   22000    1.2603998   -7.0816276    4.3613183  0.016520145  0.036091271            2 
   23000    1.2409093   -7.0761999    4.7921354  0.017362809  0.036205039            1 
   24000    1.2396568   -7.1689015    5.2061555  0.018076929  0.036190559            1 
   25000    1.2452653    -7.109569    5.6662757  0.018887585  0.036265877            3 
   26000    1.2652754   -7.1367102    6.1034309  0.019562278   0.03640331            3 
   27000    1.2510196   -7.1275713    6.5578009  0.020240126   0.03642647            2 
   28000    1.2614025      -7.1566    6.9934475  0.020813831  0.036488396            3 
   29000    1.2322728    -7.097016     7.360079  0.021149652  0.036431583            1 
   30000    1.2370656   -7.0977356    7.8106836  0.021696343  0.036340674            2 
   31000    1.2709946   -7.0996389    8.1965431  0.022033718  0.036198019            1 
   32000     1.251464   -7.1459076    8.6688189  0.022575049  0.036128676            2 
   33000    1.2429064   -7.1377536     9.123556  0.023039282   0.03615048            1 
   34000    1.2735404   -7.1327432    9.5654732  0.023444787  0.036161889            2 
   35000    1.2638479   -7.1070595    9.8367689  0.023420878  0.036106978            1 
   36000    1.2247435   -7.1431659    10.109494  0.023401607  0.035914047            1 
   37000    1.2320464    -7.130541    10.501144  0.023651225  0.035708222            2 
   38000    1.2379034   -7.0874589    10.999341  0.024121361  0.035553903            1 
   39000    1.2275276   -7.1602748    11.346308  0.024244247  0.035423031            1 
   40000     1.272336   -7.1538183    11.846853  0.024680944   0.03531846            3 
   41000     1.255358   -7.1082976    12.142492  0.024679862  0.035216795            2 
   42000    1.2538475   -7.1382402    12.625122  0.025049845    0.0351172            2 
   43000    1.2748217   -7.1328356    13.152586  0.025489508  0.035054014            2 
   44000    1.2348949   -7.1428902    13.522133    0.0256101  0.035031898            2 
   45000    1.2434907   -7.0908222    13.987349  0.025902497  0.035016716            2 
   46000    1.2412489   -7.1346762    14.335714  0.025970497  0.034983149            2 
   47000    1.2243395   -7.1175469    14.899386   0.02641735  0.034995398            4 
   48000    1.2460271   -7.0837537    15.111976  0.026236069   0.03499116            1 
   49000    1.2398601   -7.0760782    15.600511  0.026531482  0.034966201            2 
   50000     1.234322   -7.0546673    16.072848   0.02678808  0.034941223            1 
   51000    1.2531387   -7.1485422    16.395881  0.026790654   0.03492349            2 
   52000    1.2583517     -7.05458    16.739828  0.026826646  0.034884618            1 
   53000    1.2628182    -7.112254    17.054358  0.026815028  0.034824891            1 
   54000    1.2560991   -7.1435694     17.52236  0.027040678  0.034773695            1 
   55000    1.2608334   -7.1148824     17.96966  0.027226758  0.034728989            2 
   56000    1.2469808   -7.0848328    18.513821  0.027550328  0.034701782            3 
   57000    1.2531399   -7.1147264     19.06023  0.027865833  0.034725426            1 
   58000    1.2691313   -7.0904942    19.547872  0.028086023  0.034765316            1 
   59000    1.2388276   -7.1212571    19.954525  0.028184357  0.034804428            2 
   60000    1.2409512   -7.1695918    20.419972  0.028361072  0.034844567            2 
   61000    1.2531866   -7.1410448    20.804223  0.028421069  0.034891354            1 
   62000    1.2219358   -7.1140921    21.250892  0.028563026  0.034925539            1 
   63000    1.2511046   -7.1303684    21.554296  0.028510974  0.034953033            2 
   64000    1.2387942   -7.0560344    22.072534  0.028740279  0.034955557            1 
   65000    1.2407371   -7.1575175    22.366901  0.028675513  0.034962149            1 
   66000    1.2263761   -7.1293339    22.915558  0.028933785  0.034980371            1 
   67000    1.2636835   -7.1470552     23.45771  0.029176256  0.035015058            2 
   68000    1.2525905   -7.0957904    23.840841  0.029216717  0.035053092            2 
   69000    1.2313703   -7.1164332    24.181262  0.029204422  0.035072034            2 
   70000    1.2131226   -7.0783217    24.744214  0.029457397  0.035084969       -1e+20 
   71000    1.2293034   -7.1166651    25.070913  0.029425955  0.035109677            2 
   72000    1.2493147    -7.166759    25.329412  0.029316449  0.035116813            2 
   73000    1.2605313   -7.1004201    25.892693  0.029557869  0.035125828            1 
   74000    1.2308985   -7.1993749    26.184283  0.029486805   0.03513094            1 
   75000    1.2619904   -7.1115309    26.720474  0.029689415  0.035135123            2 
   76000    1.2685293   -7.1211167    27.192972  0.029816855  0.035139387            1 
   77000    1.2147829    -7.119554    27.543247  0.029808709  0.035143122            1 
   78000    1.2472002   -7.1633669    27.756789  0.029654689  0.035144157            2 
   79000    1.2569958   -7.1267414    28.119339  0.029661749  0.035117138            1 
   80000    1.2466349   -7.1262367    28.369676  0.029551746  0.035086724            3 
   81000    1.2409527   -7.1261593    28.791274  0.029620652  0.035045029            1 
   82000    1.2417828   -7.1453723    28.939321  0.029409879  0.034990613            1 
   83000     1.262687   -7.1172251    29.564943  0.029683677  0.034944104            3 
   84000     1.247964   -7.1713577    29.714819  0.029478987  0.034898425            2 
   85000    1.2393927   -7.1261741     30.15962  0.029568254  0.034846824            1 
   86000    1.2652497   -7.1225221    30.563622  0.029615912  0.034797136            2 
   87000    1.2361796   -7.1267295    31.021861  0.029714426  0.034763845            3 
   88000    1.2495799   -7.1255627    31.641857   0.02996388  0.034735169            2 
   89000    1.2392838   -7.1750622    31.971248  0.029935625  0.034708932            1 
   90000    1.2322807   -7.1872746    32.294247   0.02990208  0.034681792            2 
   91000     1.237427   -7.1140772    32.914332   0.03014133  0.034663494            2 
   92000    1.2683431   -7.1136133    33.156731  0.030033271  0.034642986            1 
   93000    1.1993345   -7.1539827    33.577405   0.03008728  0.034629002            1 
   94000    1.2162398   -7.1533275     34.28731  0.030396551   0.03462254            2 
   95000    1.2552142   -7.1075764    34.856613  0.030575976   0.03462082            3 
   96000    1.2359095     -7.14595    35.111509   0.03047874  0.034618288            2 
   97000    1.2278149   -7.1522141    35.777734  0.030736885  0.034622942            1 
   98000    1.2433584   -7.1428967    36.117124   0.03071184  0.034629246            1 
   99000    1.2401791   -7.1937373    36.570234  0.030783025  0.034635028            1 
  100000     1.271153   -7.1305679    36.947095  0.030789246  0.034639053            2 
  101000    1.2268468   -7.1400313     37.41671  0.030871873  0.034646156            1 
  102000    1.2468723   -7.1245166    37.786204  0.030871082   0.03465328       -1e+20 
  103000     1.219482   -7.1241492    38.136482  0.030854759  0.034650641            2 
  104000    1.2432098   -7.1182366    38.510864  0.030858064  0.034647619            1 
  105000      1.24436   -7.1346359    38.810633   0.03080209  0.034645424            2 
  106000    1.2243481   -7.1304807    39.166419   0.03079121  0.034639854            1 
  107000    1.2349138   -7.1952143    39.321781   0.03062444   0.03462625            1 
  108000    1.2362939   -7.1292501     40.07513  0.030922168  0.034619703            2 
  109000    1.2033217   -7.1338206    40.335826  0.030837788  0.034618777            1 
  110000     1.210877   -7.1328554    41.173935  0.031192375  0.034618444            1 
  111000    1.2359365    -7.178104    41.358542  0.031049956  0.034618215            2 
  112000    1.1959672    -7.190634    41.478724  0.030862146  0.034614012            3 
  113000    1.2142871   -7.1064622     42.13818  0.031075354  0.034602129            2 
  114000    1.2275417   -7.1670392     42.50433  0.031070416  0.034593436            1 
  115000    1.2223919   -7.1638236    42.850711   0.03105124  0.034586659            1 
  116000    1.2024715   -7.1042942    43.156486  0.031003222   0.03457755            1 
  117000    1.2266125   -7.1978547     43.72911   0.03114609  0.034569287            1 
  118000    1.2245978   -7.1412511    44.010827  0.031081092  0.034561389            1 
  119000    1.2244788   -7.1455008    44.545937  0.031194634  0.034551273            2 
  120000    1.2423619     -7.16463    44.952615  0.031217094   0.03454362            1 
  121000    1.2165538   -7.1815452    45.021132  0.031006289  0.034534713            2 
  122000    1.2550788   -7.1595327    45.552545  0.031115126  0.034522841            1 
  123000    1.2464926   -7.1622534    46.004481  0.031168347  0.034513955            1 
  124000    1.2479329   -7.1644912     46.59593  0.031314469  0.034511145            1 
  125000    1.2448803   -7.1646129    47.176746  0.031451164  0.034514229            1 
  126000    1.2243035   -7.1775054    47.696083  0.031545028  0.034517458            3 
  127000    1.2223917   -7.2026589    47.714196  0.031308527  0.034517677            2 
  128000    1.2418063    -7.177824    48.330637  0.031465258  0.034513831            1 
  129000    1.2136111   -7.1310156    48.794829  0.031521207  0.034515879            2 
  130000     1.219448   -7.1193645    49.076263  0.031459143  0.034513365            1 
  131000    1.2281073   -7.0968217    49.532721  0.031509365  0.034508939            2 
  132000    1.2463695   -7.1378313    49.785128  0.031430005  0.034502529            2 
  133000    1.2335818   -7.1400064    50.115643  0.031400779  0.034493579            2 
  134000    1.2336558   -7.2056995      50.1918  0.031213806  0.034481936            1 
  135000    1.2509683   -7.1531446     50.97037  0.031463191  0.034471067            1 
  136000    1.2172817   -7.1932601    51.191375  0.031367264  0.034461816            1 
  137000    1.2328403   -7.1314916    51.774028  0.031492718  0.034451966            2 
  138000    1.2314276   -7.1831966    52.177403  0.031508094  0.034446255            4 
  139000    1.2409898   -7.1610424    52.726872  0.031610835  0.034439946            2 
  140000    1.2001824   -7.1517158    53.007853  0.031552293  0.034433139            1 
  141000    1.2555825   -7.1799883    53.173849  0.031426624   0.03442475            2 
  142000    1.2337028    -7.207088    53.610196  0.031461383  0.034413181            3 
  143000    1.2212587   -7.1659793    54.129258  0.031543857  0.034403578            3 
  144000    1.2535704    -7.116096     54.55053  0.031568594  0.034397905            1 
  145000    1.2184303   -7.1535448    54.794564  0.031491129  0.034387236            6 
  146000    1.2313183   -7.1771488    55.274344  0.031549283  0.034376348            2 
  147000    1.2149448   -7.2093749    55.612065  0.031526114   0.03436546            2 
  148000     1.219286    -7.153634    55.917081  0.031484843  0.034352541            2 
  149000     1.203794   -7.1235679    56.294934  0.031484862  0.034338017            1 
  150000    1.2102129    -7.152176    56.682803  0.031490446  0.034324874            1 
  151000    1.2128585   -7.1647047    56.947992  0.031428252  0.034310607            1 
  152000    1.2304474   -7.1331693    57.666677  0.031615503  0.034298078            1 
  153000    1.2259622   -7.1884801     58.20813  0.031703774  0.034289532            1 
  154000    1.2096324   -7.1810868    58.225294  0.031507194  0.034280492            2 
  155000     1.238479   -7.1846998    58.628296  0.031520589  0.034267601            1 
  156000    1.2214089   -7.1889325    59.069868  0.031554417  0.034253511            2 
  157000    1.2494016   -7.1494988    59.603419  0.031636634  0.034242519            2 
  158000    1.2421131   -7.1659354    59.799339  0.031539735  0.034232431            2 
  159000    1.2178093   -7.1522622    60.483307  0.031699847  0.034218059            1 
  160000    1.2549361   -7.1493622    60.547063  0.031534928  0.034204354            2 
  161000    1.2365522   -7.1789504    60.956537  0.031551002  0.034189325            4 
  162000    1.2428225   -7.1762576    61.126934  0.031443896  0.034172242            2 
  163000    1.2103382   -7.1895081    61.299389  0.031339156  0.034155125            1 
  164000     1.201947   -7.1750105    61.978833   0.03149331   0.03413682            1 
  165000     1.195367   -7.1412596    62.236213  0.031432431  0.034116676            1 
  166000      1.22235   -7.1842536    62.503799  0.031377409  0.034096617            1 
  167000    1.2339507   -7.1503811    63.144584  0.031509273  0.034079309            1 
  168000    1.2091013   -7.1266597    63.849037  0.031671149  0.034062918            1 
  169000    1.2418168   -7.1771142    64.030113  0.031573034  0.034050534            2 
  170000    1.2095432   -7.1807591    64.372337  0.031555067  0.034038736            1 
  171000    1.2268046   -7.1633109    65.073344  0.031712156  0.034028213            1 
  172000    1.2111662   -7.1743963    65.595264  0.031780651  0.034019123            2 
  173000    1.2390928   -7.1760542    65.904511  0.031745911  0.034010108            1 
  174000    1.2009609   -7.1653328    66.249632  0.031728751   0.03399924            1 
  175000    1.2098896   -7.1598156    66.804307  0.031811575  0.033994093            1 
  176000    1.1996881   -7.1454352    67.343184  0.031885977  0.033989675            2 
  177000    1.2116657   -7.1719222    67.622389  0.031837283   0.03398604            2 
  178000    1.2368928   -7.1970147    67.849257  0.031764633  0.033980923            2 
  179000    1.2340423   -7.2092861    68.250069  0.031773775   0.03397462            1 
  180000    1.1911525   -7.2524782    68.729482  0.031819204  0.033969994            1 
  181000      1.22403   -7.1841327    69.335327  0.031922342  0.033966967            3 
  182000    1.2052609   -7.1466824    69.741788  0.031933053  0.033963185            1 
  183000    1.1987543   -7.1630357     70.10241  0.031922773  0.033958697            4 
  184000    1.1942163   -7.1913319    70.248132  0.031815277  0.033950993            2 
  185000    1.2393911   -7.2022652    70.691727   0.03184312   0.03394584            1 
  186000    1.2121442   -7.2034358    70.833752  0.031735552  0.033938593            1 
  187000    1.2337262   -7.1751698    71.192519  0.031725722  0.033930023            2 
  188000    1.2137086   -7.1667901    71.996484  0.031913335  0.033922123            1 
  189000     1.198407   -7.1606821    72.264153  0.031862501  0.033914467            1 
  190000    1.2061206   -7.1394943    72.782407  0.031922108  0.033908909            1 
  191000    1.2181086   -7.1438933    73.227369  0.031949114  0.033902936            2 
  192000    1.2147139   -7.1629612    73.690633  0.031983781  0.033896255            1 
  193000    1.2311961    -7.180335    73.921981  0.031917954  0.033889701            1 
  194000    1.2074736   -7.2259531    74.609266  0.032048654  0.033886007            4 
  195000    1.2456587   -7.2047191    74.765532  0.031951082   0.03388481            1 
  196000    1.2190113   -7.1441004    75.743158  0.032203724  0.033883959            2 
  197000    1.2051284   -7.1932097    75.692774   0.03201894   0.03388523            2 
  198000    1.2255396   -7.1562712    76.658344  0.032263613  0.033888225            1 
  199000    1.2174019   -7.1883129     76.94125  0.032219954  0.033890466            2 
  200000    1.2266535   -7.1840125    76.936901  0.032057042  0.033891052            3 
  201000    1.2242124   -7.2152368    77.398603  0.032088973  0.033888917            2 
  202000    1.2297191   -7.1757521    78.010197  0.032182425  0.033887768            1 
  203000    1.1991256    -7.148579    78.735899  0.032321798  0.033889511            2 
  204000    1.2114273   -7.1737862    79.061428  0.032296335  0.033891998            2 
  205000    1.2556989   -7.2034524    79.071313   0.03214281  0.033894437            3 
  206000    1.2320533   -7.1643714    79.548929  0.032179987  0.033896123            1 
  207000    1.2266519   -7.1567637    79.849675  0.032145602  0.033893625            2 
  208000    1.2223226   -7.1517147    79.938221  0.032026531  0.033888739            2 
  209000    1.2082658   -7.1997785    80.441269  0.032073871  0.033885762            3 
  210000    1.2244163   -7.2067918    80.776849  0.032054305  0.033880875            1 
  211000    1.2165027   -7.1881542    81.483657  0.032181539  0.033876228            2 
  212000    1.2187697   -7.1289894    81.557767  0.032058871  0.033872942            3 
  213000    1.2049942   -7.1676653    82.510879  0.032281251   0.03387197            1 
  214000    1.2167514   -7.1592653    82.876965  0.032272961  0.033871205            1 
  215000    1.1916832    -7.191349    82.946875  0.032149951  0.033871511            1 
  216000    1.2184316   -7.2182352    83.391231  0.032172543  0.033870998            1 
  217000    1.2018996   -7.1663935    84.030278  0.032269692  0.033870757            4 
  218000    1.1863337   -7.1825256    84.415095  0.032268767  0.033870531            1 
  219000    1.2136417   -7.1988313    84.367728  0.032103397  0.033868542            1 
  220000    1.2054898   -7.2259168     84.68616  0.032078091  0.033867274            1 
  221000    1.2225384   -7.1947834    85.397856  0.032201303  0.033864017            1 
  222000    1.2150303   -7.1956824     85.41797  0.032063803   0.03386015            1 
  223000    1.2310977   -7.2145831    85.627967  0.031998493  0.033855976            1 
  224000     1.221286   -7.1792659    86.574222  0.032207672  0.033852694            1 
  225000    1.2352145   -7.1489245    87.299293  0.032333072  0.033851159            1 
  226000    1.2096697   -7.2259108    87.041573  0.032094975  0.033849612            4 
  227000     1.231562   -7.1987235    87.806763  0.032234494  0.033847624            1 
  228000    1.2315546   -7.1752972    88.361532  0.032295882  0.033846455            1 
  229000    1.2075753   -7.2036071    88.585153  0.032236227  0.033844234            1 
  230000    1.2091273   -7.2353176    88.752284  0.032156624  0.033840912            2 
  231000    1.2141976   -7.1708054    89.356868  0.032235522  0.033836819            1 
  232000    1.1855878   -7.1809534    89.420375  0.032119388  0.033832244            3 
  233000    1.1994312   -7.2084632    89.778802  0.032109729  0.033825783            2 
  234000    1.1976201   -7.1847606    90.230921  0.032133519  0.033818943            2 
  235000    1.2029356   -7.2022863    90.633856  0.032139665  0.033813097            4 
  236000    1.1983604   -7.2027401    90.739751  0.032040872  0.033807551            1 
  237000    1.2238606   -7.2010578    91.144046  0.032047836  0.033800819            1 
  238000    1.2028894   -7.1992396    91.495872   0.03203637  0.033793178            2 
  239000    1.2167011    -7.199364    91.981972  0.032071817  0.033784333            1 
  240000    1.2063243   -7.2344682    92.288391   0.03204458  0.033775271            1 
  241000    1.1987293   -7.2105594    92.666936  0.032042509  0.033766558            2 
  242000    1.2053604   -7.1864731    93.045213  0.032040362   0.03375761            1 
  243000    1.2134048   -7.2297977    93.301549  0.031996416  0.033749657            2 
  244000     1.230429    -7.200526    94.090432   0.03213471  0.033740536            1 
  245000    1.1954146   -7.2529731     93.87125  0.031928997  0.033731766            2 
  246000    1.1976526   -7.2078252    94.451679  0.031995826  0.033721587            4 
  247000    1.2165088   -7.1953045    94.893967  0.032015508  0.033713264            1 
  248000    1.2278717   -7.2364922    95.129924    0.0319657  0.033704818            2 
  249000    1.2299459   -7.2347257    95.494977  0.031959497   0.03369742            1 
  250000    1.2093877    -7.222866    96.048526  0.032016175  0.033690797            3 
  251000     1.239762   -7.1853478     96.78024  0.032131554  0.033683949            2 
  252000    1.2258698   -7.1848685     97.25281  0.032160321  0.033678359            2 
  253000    1.2021393   -7.2227224     97.57363  0.032138877  0.033672406            1 
  254000    1.2188462   -7.2155166    98.339839  0.032263727  0.033667949            2 
  255000    1.2151016   -7.2468762    98.076799  0.032051241  0.033662533            1 
  256000    1.2139627   -7.1874568    98.933828  0.032205022  0.033655875            2 
  257000    1.2262212   -7.1461848    98.985991  0.032096625  0.033648946            6 
  258000    1.2294098   -7.2234312    99.181224  0.032035279   0.03364019            1 
  259000    1.2133416   -7.2183029    99.380161  0.031975599  0.033629796            1 
  260000    1.1938416   -7.1482655    99.794921  0.031985552  0.033619605            1 
  261000    1.2043933   -7.1819549    99.807597  0.031867049  0.033608444            3 
  262000    1.2197859   -7.2189883    100.29572  0.031900673  0.033597977            1 
  263000    1.2074615   -7.2078648    100.64408  0.031889761  0.033587066            1 
  264000    1.2122074   -7.2457636    100.57802  0.031748111  0.033574662            3 
  265000    1.2313448   -7.2255456    101.31949  0.031861474  0.033561453            2 
  266000    1.2024955   -7.2177084    101.77485  0.031884352  0.033549992            1 
  267000     1.182799   -7.2670902    102.18014  0.031891429  0.033539051            2 
  268000    1.1972271    -7.246746    102.18446  0.031773775  0.033528802            1 
  269000    1.2033377   -7.2165573    102.72727  0.031823814  0.033517149            1 
  270000    1.2069668   -7.2441768    103.08335  0.031815849  0.033505794            6 
  271000    1.1948647   -7.2020795    103.62361  0.031864577  0.033494243            1 
  272000    1.2081196   -7.2411837    103.80388  0.031802658  0.033481956            2 
  273000    1.2046011    -7.213813    104.49722  0.031897808  0.033470886            2 
  274000    1.2077158    -7.204498    104.88319  0.031898782  0.033459181            3 
  275000    1.1935072   -7.2500289    105.07881  0.031842064  0.033448019            4 
  276000    1.2058343   -7.2403382    105.17106  0.031754547  0.033435805            2 
  277000    1.1945273   -7.1985258    105.95198  0.031874844   0.03342339            1 
  278000    1.1981648   -7.2254424     105.9206  0.031750781  0.033412643            2 
  279000    1.1887985   -7.1783699    106.63431  0.031850154  0.033401984            3 
  280000    1.2249006   -7.2083688    107.24191  0.031917236  0.033391195            2 
  281000    1.1888815   -7.2196518    107.35518  0.031837243   0.03338053            3 
  282000    1.2004468   -7.2316211    107.87057  0.031876645   0.03337007            1 
  283000    1.1968359   -7.2238319    108.18485  0.031856552  0.033360056            3 
  284000    1.2084698   -7.1666919    108.51563  0.031841441  0.033351244            2 
  285000    1.1936564   -7.2107228    108.96762  0.031861877  0.033341424            2 
  286000    1.1826979   -7.2142755    109.41191  0.031879926  0.033331993            3 
  287000    1.1908784   -7.2081701    110.09809  0.031968086  0.033323079            2 
  288000    1.1954942   -7.2148995    110.28619  0.031911514  0.033315141            2 
  289000     1.218746   -7.1940637    110.82644  0.031956874  0.033306531            2 
  290000     1.180211   -7.2033423    111.28249  0.031977728  0.033299309            3 
  291000    1.2167599   -7.1934639    111.53287   0.03193954   0.03329169            2 
  292000    1.1879694   -7.2134416    111.97697  0.031956896  0.033283297            2 
  293000    1.2193044   -7.2592496    111.93909  0.031837056  0.033276048            1 
  294000    1.2078227   -7.1869708    112.60185  0.031916623  0.033267669            1 
  295000    1.2298455   -7.1904689    113.13388  0.031958722  0.033259537            1 
  296000    1.2021164   -7.2385857      113.199  0.031869088  0.033250561            2 
  297000    1.2075043   -7.2193435    113.37537  0.031811272   0.03324052            1 
  298000    1.2268558   -7.2192197     113.7282  0.031803188  0.033230922            1 
  299000    1.1900862   -7.2004292    114.10945  0.031803078   0.03322104            3 
  300000    1.2042765   -7.2186698    114.19306  0.031720294  0.033211442            4 
  301000    1.2125777   -7.2377966    115.22057  0.031899383  0.033202343            1 
  302000    1.2009515   -7.1613813    116.28154  0.032086517  0.033195941            2 
  303000     1.220516   -7.2769174    115.91061  0.031878605  0.033189438            3 
  304000    1.2061007   -7.2197937    116.71015  0.031992913  0.033182956            1 
  305000    1.1965942   -7.2061661    117.03063  0.031975581  0.033177217            1 
  306000    1.2132872   -7.2092813     117.5936    0.0320244  0.033172641            1 
  307000    1.2023692   -7.2291936    118.00651   0.03203217  0.033168374            2 
  308000    1.1917669   -7.1936135    118.40159  0.032035062  0.033164287            2 
  309000    1.2117906   -7.2197877    118.84197  0.032050155   0.03315938            3 
  310000     1.206568   -7.2392538    118.95502  0.031977156  0.033154748            2 
  311000     1.206827   -7.2157021    119.76256  0.032090718  0.033149002            1 
  312000    1.2159109   -7.2239637    119.54063  0.031928586  0.033143242            3 
  313000    1.2014772   -7.2284459    120.05465  0.031963431  0.033136162            3 
  314000    1.2063699   -7.1751729    120.51491  0.031983786  0.033129843            2 
  315000    1.1666592   -7.2069955    120.78956  0.031954911  0.033123225            2 
  316000    1.1936442   -7.1968981    121.28671  0.031984892  0.033116123            6 
  317000    1.1820435   -7.2385423    121.84317  0.032030277  0.033110112            2 
  318000    1.1939146   -7.2386152      122.174  0.032016248  0.033104246            2 
  319000     1.224938   -7.2275592    122.20047  0.031922799  0.033096961            1 
  320000     1.197189   -7.2054892    122.37242  0.031867818  0.033090065            1 
  321000    1.2170896   -7.1997978    122.81271  0.031882842  0.033081941            2 
  322000    1.1938936   -7.2237488    123.22146  0.031889612  0.033073252            2 
  323000    1.1973532   -7.2500014     123.3899   0.03183434  0.033065479            3 
  324000    1.1889837   -7.2483861    123.90312  0.031868087  0.033058315            1 
  325000    1.2059236   -7.1923387    124.26742  0.031863441  0.033050582            4 
  326000    1.2042525   -7.1815078    124.81955  0.031906839  0.033042813            2 
  327000    1.1820546   -7.2467243     124.7374  0.031788329  0.033035353            3 
  328000    1.2165348   -7.2268128    124.94203  0.031743403  0.033028422            2 
  329000    1.2034869   -7.2619198    125.56079  0.031803644  0.033020834            2 
  330000    1.2244423   -7.2209588    126.08062   0.03183854  0.033012952            1 
  331000    1.1972168   -7.1556592     126.5166  0.031852115   0.03300606            2 
  332000    1.2266002   -7.2432233     126.5585  0.031766691  0.032997958            1 
  333000    1.2123805   -7.2209846    127.47211  0.031899927  0.032990914            1 
  334000    1.1952014   -7.2738834    127.47247  0.031804508  0.032983675            2 
  335000    1.2134161   -7.2189675    127.97537   0.03183467  0.032976327            4 
  336000    1.1719319   -7.2289316    128.32078  0.031825591  0.032969245            2 
  337000    1.2124172   -7.2390358    129.35858  0.031987779  0.032963442            3 
  338000    1.2187765   -7.2572542    129.33273  0.031886767  0.032958872            4 
  339000    1.2108144    -7.242018    130.16456  0.031997187  0.032955251            2 
  340000    1.2222649   -7.2328119    130.22165  0.031917071   0.03295199            1 
  341000    1.2002598   -7.2694261    130.48693  0.031888301  0.032947264            2 
  342000    1.2147091   -7.2386563    130.73117  0.031854574  0.032941384            5 
  343000    1.2001038   -7.2317451    131.14103   0.03186128  0.032936676            1 
  344000    1.2077853   -7.2808529    131.11442  0.031762215  0.032931429            2 
  345000    1.1996046   -7.2366716    132.03073   0.03189148  0.032925718            1 
  346000    1.1697313   -7.2379385    132.07785  0.031810657  0.032919749            1 
  347000    1.2004359   -7.2002291     132.8355  0.031900936  0.032914507            1 
  348000    1.1765231   -7.2210906    133.25175  0.031908944  0.032908715            4 
  349000    1.1933696   -7.2351928    133.10878  0.031783377  0.032901885            2 
  350000    1.1613065   -7.2519438    133.69017  0.031830992  0.032894409            1 
  351000    1.2113453    -7.224899    134.08402  0.031833813  0.032887787            2 
  352000    1.2145322   -7.2165772    134.48004  0.031837131  0.032881867            3 
  353000    1.1829167   -7.2643465    134.35965  0.031718519  0.032875274            3 
  354000    1.1666798   -7.2695087     135.0279  0.031786228  0.032867984            1 
  355000     1.204984   -7.2217027    135.61616  0.031834779   0.03286045            2 
  356000    1.2082209   -7.2563959    135.64989  0.031753252  0.032854259            1 
  357000     1.248878   -7.2753684    136.08809  0.031766595    0.0328477            1 
  358000    1.1903727   -7.1945713    136.98135  0.031885788  0.032842095            1 
  359000    1.1981052   -7.2657865    136.62012   0.03171312  0.032836216            1 
  360000    1.1569006   -7.2118134     137.3258  0.031788379  0.032831006            2 
  361000    1.2119762    -7.277891    137.24253  0.031681102  0.032824043            6 
  362000    1.2070329   -7.2288649    138.20091  0.031814205  0.032817459            2 
  363000    1.1827423   -7.2773346    138.25678  0.031739389   0.03281149            2 
  364000    1.1783026    -7.262515     138.8449  0.031786836  0.032805508            2 
  365000    1.1480307   -7.1903243     139.6129  0.031875092  0.032799794       -1e+20 
  366000    1.2034966   -7.2348523    139.71342  0.031810888  0.032795069            3 
  367000     1.187078   -7.1939126    140.37276  0.031873924  0.032788903            2 
  368000    1.1913645   -7.2024355    140.71336  0.031864439  0.032782787            2 
  369000    1.1934866   -7.2463173    140.79254  0.031795966  0.032776559            3 
  370000     1.183913   -7.2561815    140.60124  0.031666946  0.032769902            2 
  371000    1.2093256    -7.264071    141.21072  0.031718491  0.032762314            1 
  372000    1.2044779   -7.2539867    141.85939  0.031778536  0.032755264            2 
  373000    1.1552487   -7.2065991    142.08869  0.031744569     0.032748            1 
  374000    1.1874629   -7.2524279    141.71888   0.03157729  0.032739828            2 
  375000    1.1869618   -7.2303648     142.0501  0.031566689  0.032730664            3 
  376000    1.1763036   -7.2454036     142.7233  0.031631937  0.032721095            3 
  377000    1.1592697   -7.2404498    143.40026   0.03169767   0.03271339            2 
  378000    1.1906582   -7.2628814    143.24892   0.03158045  0.032705379            2 
  379000    1.1968287   -7.1876386    144.07035  0.031677737  0.032696892            1 
  380000    1.1821429   -7.2105491    143.87374  0.031551258  0.032687777            1 
  381000    1.1927809   -7.2643774    144.70319  0.031649867  0.032679329            2 
  382000    1.1843829   -7.2389094     144.5992  0.031544329  0.032670979            1 
  383000    1.1875802   -7.2705263    144.80073  0.031505817  0.032661912            1 
  384000    1.1996982   -7.2628788    145.57523  0.031591846  0.032653249            1 
  385000    1.1857317   -7.3266732    144.66393  0.031312538  0.032644275            1 
  386000    1.2018499   -7.2951947    145.49177   0.03141014  0.032634027            2 
  387000     1.199807   -7.2271412    146.46596  0.031538752  0.032625181            1 
  388000    1.1828632   -7.2211437    147.29167  0.031634808  0.032617209            4 
  389000    1.1923354   -7.2597698    146.37281  0.031356642  0.032608199            2 
  390000    1.1876188   -7.2761817    147.55881  0.031529661  0.032598943            2 
  391000    1.1824292    -7.268316    148.05421  0.031554606  0.032590779            1 
  392000    1.1758186   -7.2650048    148.01894  0.031466611  0.032582189            1 
  393000    1.2155859   -7.2646427    148.81139  0.031554579  0.032573244            1 
  394000    1.1680974   -7.2617588     148.5139   0.03141157  0.032564445            1 
  395000    1.1547385   -7.2639426     149.5475  0.031550106  0.032555601            5 
  396000    1.2066692   -7.3015177    149.02628  0.031360749  0.032546537            2 
  397000    1.1787244   -7.2664448    149.56493  0.031394821  0.032537539            3 
  398000    1.1824203   -7.2571586     150.3127  0.031472509  0.032529295            2 
  399000    1.1964373   -7.2662771    150.69926  0.031474364  0.032520211            1 
  400000    1.2117766   -7.2563478     150.9871  0.031455646  0.032511702            1 
  401000    1.1841948   -7.2557099     151.3649  0.031455715  0.032502135            2 
  402000    1.1946731   -7.2570789     151.8079    0.0314693  0.032492422            2 
  403000    1.1963373   -7.2219212    152.48323  0.031530859  0.032484474            5 
  404000    1.1825524   -7.2558972    152.46052  0.031448126  0.032475842            1 
  405000    1.1929541   -7.2580306    152.98351  0.031478088   0.03246772            1 
  406000    1.1865298   -7.2680792    152.64901  0.031331898  0.032458572            1 
  407000    1.1918827   -7.2269669    154.11056  0.031554168  0.032449275            2 
  408000    1.1770754   -7.2375442    154.55013  0.031566612  0.032440597            4 
  409000    1.1717569   -7.2445369    154.96765    0.0315745  0.032432863            2 
  410000      1.20565   -7.2937411    154.76803  0.031456917  0.032424787            1 
  411000    1.1895626   -7.2715374    155.20054  0.031468074  0.032416762            1 
  412000    1.1740655   -7.2934502    155.34685  0.031421289  0.032408687            1 
  413000    1.1620879   -7.2571714    156.11486  0.031500173  0.032401519            1 
  414000    1.2067596   -7.2589317     156.7795  0.031557869  0.032395525            1 
  415000    1.1917211   -7.2376914    157.38662  0.031603739  0.032388978            2 
  416000    1.1723313   -7.2985287    156.77609  0.031405467  0.032382423            1 
  417000    1.1901536   -7.2689762    157.71888   0.03151856  0.032376211            1 
  418000    1.1936409   -7.2691886    158.14563  0.031528236  0.032370203            1 
  419000    1.1700705   -7.2383332    158.90448  0.031603913  0.032364341            2 
  420000     1.173758   -7.2661227    158.98604   0.03154485  0.032358587            2 
  421000    1.1750917   -7.2862989     159.5208  0.031575772   0.03235364            2 
  422000    1.1888186   -7.2814445    160.34829  0.031664354  0.032348592            4 
  423000    1.1697595   -7.2463851    160.34425  0.031588702  0.032343464            6 
  424000    1.1603358   -7.2805143    160.89969  0.031623367  0.032338341            3 
  425000    1.1932861   -7.2741391    160.95165  0.031559148  0.032333185            1 
  426000    1.1681451   -7.2610266    161.30806  0.031554784  0.032327992            1 
  427000    1.2144718   -7.2844298    161.44074  0.031506781  0.032322728            1 
  428000    1.2043517    -7.251619    162.13919  0.031569157  0.032317024            1 
  429000    1.1899384   -7.2624809    162.37615  0.031541599  0.032312047            2 
  430000    1.1787618   -7.3357777    162.38522  0.031470003  0.032305684            1 
  431000    1.1772784   -7.2682537     162.7564  0.031468755  0.032299017            1 
  432000    1.1886445   -7.2952834    162.93284  0.031429945  0.032291831            1 
  433000    1.1634229   -7.2707105     163.0698  0.031383719  0.032283838            1 
  434000    1.1789956   -7.2497841    163.08658  0.031314627  0.032275631            4 
  435000    1.1760574   -7.2405357    163.68089  0.031356492  0.032267071            1 
  436000     1.183048   -7.2745784    164.37534  0.031417304  0.032259088            2 
  437000    1.1804531     -7.23169    164.97374  0.031459524  0.032251935            3 
  438000    1.1675783   -7.2933011    164.76131  0.031347282  0.032244187            1 
  439000    1.1814576   -7.2929633    165.02765  0.031326434   0.03223648            2 
  440000    1.1656321   -7.2940636    165.75147  0.031392323  0.032229303            2 
  441000    1.1770676   -7.2603554    166.67889  0.031496389  0.032222524            2 
  442000    1.1890688   -7.2929506    165.54307  0.031210987  0.032214982            2 
  443000    1.1934042   -7.2978499    166.62918  0.031344842  0.032207747            4 
  444000    1.1892539   -7.2267345    167.66071  0.031467851  0.032200733            1 
  445000    1.1862877   -7.2846528     167.3893  0.031346312  0.032193339            2 
  446000    1.2092602   -7.2311103    168.54298  0.031491589  0.032186372            1 
  447000    1.1640545   -7.2637122    168.36029  0.031387078  0.032179816            1 
  448000     1.175847   -7.2454869    168.26601  0.031299481  0.032172675            2 
  449000    1.1891134   -7.2602067    169.29806  0.031421319  0.032166448            2 
  450000    1.1887825   -7.2539499    169.28777  0.031349588  0.032160062            2 
  451000    1.1921736   -7.2399581    169.96031  0.031404345  0.032154097            2 
  452000    1.1753623   -7.3097803    169.72079  0.031290707  0.032147432            4 
  453000    1.1897245   -7.2277892    171.01073  0.031458927  0.032140143            2 
  454000    1.1667525   -7.3181369    170.48779  0.031293647  0.032133449            1 
  455000     1.169847   -7.2720913    171.27785  0.031369569   0.03212659            1 
  456000    1.1961686   -7.2716327    171.67572  0.031373487  0.032119304            2 
  457000    1.1855695   -7.3009016    171.61243  0.031293294   0.03211226            2 
  458000    1.1692375   -7.2286191    171.65595  0.031232887  0.032104645            2 
  459000     1.151856   -7.2827124    171.48131  0.031133136  0.032096083            1 
  460000    1.1825887   -7.2714912    172.22061  0.031199385   0.03208755            1 
  461000    1.1550179   -7.2708792    172.78364  0.031233485  0.032079867            3 
  462000    1.1941064   -7.2839481    172.97374  0.031200169  0.032072205            2 
  463000    1.1721517   -7.2709313    173.62594  0.031250169  0.032064753            1 
  464000    1.2024485   -7.2303459    174.32019  0.031307506  0.032057395            1 
  465000    1.1541421   -7.3383392    173.82571  0.031151562   0.03205006            2 
  466000    1.1753312   -7.2809189    174.70315  0.031241623  0.032043332            2 
  467000    1.1793838   -7.3003617    175.57026  0.031329455  0.032037241            4 
  468000    1.1838589   -7.2926274     176.0649  0.031350588  0.032031585            1 
  469000    1.1869254   -7.2705121    176.44433   0.03135116  0.032026707            2 
  470000    1.1580147   -7.2413771    177.06188  0.031393951  0.032022131            2 
  471000    1.1906024   -7.2912093    176.78188  0.031277757  0.032016945            3 
  472000    1.1989179   -7.2523724    177.72877  0.031378667  0.032011135            2 
  473000    1.1710461   -7.3002916    178.21068  0.031397231  0.032005575            2 
  474000    1.1700712     -7.29309    178.37068  0.031359121  0.031999915            1 
  475000    1.2016678   -7.3193138    179.20216  0.031438975  0.031994891            2 
  476000    1.1676794   -7.2697821    178.65446  0.031277042   0.03198964            2 
  477000    1.1655716   -7.2797835    179.39246  0.031340402   0.03198452            1 
  478000    1.1905974   -7.2847852    179.49854   0.03129333  0.031979278            1 
  479000    1.1852931   -7.3135727    179.42787  0.031215704  0.031974094            3 
  480000    1.1666441   -7.2572153    180.61951  0.031357554   0.03196852            3 
  481000     1.163887   -7.3197787    180.63371  0.031294822  0.031963309            3 
  482000    1.1695665   -7.3013179    180.82057  0.031262201  0.031957131            1 
  483000    1.1791687   -7.2659775    181.01052  0.031230249  0.031951235            1 
  484000     1.158671   -7.2527838    182.20813  0.031371923  0.031945731            1 
  485000    1.1659139   -7.2535983     182.7893  0.031407096  0.031940457            1 
  486000     1.171099   -7.2503176    182.60469  0.031310819  0.031934801            2 
  487000    1.1545283   -7.2599818     183.0744    0.0313269  0.031929008            3 
  488000     1.149826   -7.2866029    183.30695  0.031302416  0.031923808            3 
  489000    1.1700344   -7.2593418    184.20734  0.031391844  0.031918522            2 
  490000    1.1799585   -7.2735831    184.28983  0.031341808  0.031913663            2 
  491000     1.183159   -7.2569183     184.3126   0.03128184  0.031907708            1 
  492000    1.1346899   -7.2695572    184.77779   0.03129705   0.03190193            1 
  493000    1.1933659   -7.3107212    184.12539  0.031123291   0.03189587            1 
  494000    1.1607647   -7.2859286    184.90252  0.031191383  0.031888869            3 
  495000    1.1866539   -7.2896463    185.18266  0.031175531  0.031882816            2 
  496000    1.1685546   -7.3278399     185.1507  0.031107309  0.031876603            1 
  497000    1.1642741   -7.2611081      186.397  0.031253688  0.031870123            1 
  498000    1.1609971   -7.2994855    186.19727  0.031157508  0.031864027            3 
  499000      1.19106    -7.328491    186.17012  0.031090535  0.031857732            2 
  500000    1.1732067   -7.2604319    187.07193  0.031178655   0.03185089            4 
  501000    1.1657544   -7.2914279    186.74235  0.031061602  0.031844225            2 
  502000    1.1845727    -7.325393    186.99568   0.03104178  0.031836615            1 
  503000    1.1892805    -7.294391    187.22358  0.031017823  0.031828952            2 
  504000    1.1716926   -7.3167707    187.22207  0.030956031  0.031821141            1 
  505000    1.1702663   -7.3343177    188.34596  0.031080191  0.031813512            1 
  506000    1.2114857   -7.3132023     188.5474  0.031051944  0.031805847            1 
  507000    1.1828184   -7.3163118    188.73663    0.0310218   0.03179871            1 
  508000      1.19994   -7.2451816    189.80075  0.031135294  0.031791856            2 
  509000    1.1754443    -7.291762    190.17777  0.031135849  0.031785864            3 
  510000    1.1863606   -7.3553219    189.94538  0.031036827  0.031780115            1 
  511000    1.1799441   -7.3180493    191.27338  0.031192658  0.031773916            2 
  512000    1.1528084   -7.3204059    191.20144  0.031120026  0.031767811            2 
  513000    1.1618611   -7.3073799     192.2547  0.031230458  0.031762431            2 
  514000    1.1974427   -7.3171774    192.23343   0.03116625   0.03175637            2 
  515000    1.2011573   -7.3144027    192.89251  0.031212381  0.031750388            1 
  516000    1.1678101   -7.3015518    193.07782  0.031181818  0.031744901            1 
  517000     1.161766    -7.309759    192.80816   0.03107804   0.03173954            3 
  518000      1.17172   -7.2787892    193.54352  0.031136345  0.031734143            1 
  519000    1.1542036   -7.2868208    194.13172  0.031170796  0.031728726            2 
  520000    1.1763514   -7.2756116    194.03178  0.031094836   0.03172335            2 
  521000    1.1596742   -7.3110147    194.22008  0.031065271  0.031717251            1 
  522000    1.1472849   -7.3320241    194.01798  0.030973496  0.031710398            1 
  523000    1.1323037   -7.3053242     194.5317  0.030996127  0.031703364            1 
  524000    1.1616792   -7.3077803    194.43322  0.030921314  0.031696488            1 
  525000    1.1820038   -7.2705867    195.03311  0.030957636  0.031689791            1 
  526000    1.1783997   -7.3240211    195.27583  0.030937235  0.031682608            4 
  527000    1.1592457   -7.3158985    196.08282  0.031006139  0.031675113            2 
  528000    1.1800484   -7.2910895    196.65087  0.031037069  0.031667777            2 
  529000    1.1791485   -7.3736315    196.08785  0.030889706  0.031660106            2 
  530000    1.1896153   -7.3267221    197.35242  0.031030255  0.031652722            2 
  531000    1.1486488   -7.2900224    197.48923  0.030993287  0.031645496            1 
  532000    1.1802284   -7.3226469    196.77086  0.030822503    0.0316385            2 
  533000    1.1663297    -7.316975    197.89543  0.030940499  0.031631688            1 
  534000    1.1561029    -7.310436    198.27877   0.03094238  0.031624187            2 
  535000    1.1774716   -7.3513697    198.02077  0.030844356  0.031616946            4 
  536000    1.1588122   -7.2862352    199.18447  0.030967734  0.031610546            2 
  537000    1.1656707   -7.3518057    199.28835  0.030926187  0.031604064            3 
  538000    1.1673976   -7.3535475    198.78745  0.030791117  0.031596618            3 
  539000    1.1733344   -7.2590552    199.29486   0.03081244  0.031589188            2 
  540000    1.1683334   -7.2899204    199.94726  0.030856058  0.031581555            2 
  541000    1.1810958   -7.2975863    199.77366  0.030772283  0.031573651            3 
  542000    1.1643138   -7.3464207    200.11927  0.030768646   0.03156522            1 
  543000    1.1575874   -7.2601247    201.00062  0.030847241  0.031556627            1 
  544000     1.154118   -7.3596209    200.37276  0.030694357  0.031547944            1 
  545000    1.1601649   -7.2875346    201.23983  0.030770616  0.031539886            1 
  546000    1.1767412   -7.3223293    201.56694  0.030764185  0.031531507            1 
  547000    1.1547649   -7.2923598    201.58198  0.030710234  0.031522975            1 
  548000    1.1716693   -7.3269836    201.87377  0.030698566  0.031514649            1 
  549000     1.150055   -7.3110931    201.90951  0.030648074  0.031506052            1 
  550000    1.1607941   -7.2838353    203.01683  0.030760125  0.031497233            2 
  551000    1.1448751   -7.2998044    202.28942  0.030594286  0.031488231            2 
  552000    1.1548878   -7.3315966    203.11445  0.030663413  0.031479499            1 
  553000    1.1484342   -7.2721825     203.3265  0.030639919  0.031470584            3 
  554000    1.1720715   -7.3048442    203.07393  0.030546621  0.031461674            1 
  555000    1.1808879     -7.30423     203.8633  0.030610105  0.031453418            4 
  556000     1.180962   -7.2863106    204.60555    0.0306663  0.031444493            1 
  557000    1.1714415   -7.3132961    204.81456  0.030642513  0.031435936            1 
  558000    1.1599601   -7.3281382    204.99393  0.030614386  0.031427551            2 
  559000    1.1363182   -7.3186839    204.76981  0.030526208  0.031418407            2 
  560000    1.1645344   -7.3014186     204.8682  0.030486339  0.031409263            1 
  561000    1.1835589   -7.3195429    205.72794  0.030559706  0.031400463            2 
  562000    1.1824851   -7.3212622    207.27714  0.030735045  0.031392051            1 
  563000    1.1477982   -7.3418661      206.702  0.030595323  0.031383699            3 
  564000     1.119248   -7.3378184    207.48686  0.030657042   0.03137549            2 
  565000    1.1621729    -7.326809     208.2036  0.030708495  0.031367673            2 
  566000    1.1765121   -7.2907939     208.3929  0.030682112  0.031360293            3 
  567000    1.1867593   -7.2775153    209.12294  0.030735294  0.031352759       -1e+20 
  568000    1.1696531   -7.3212922    208.56409  0.030599191  0.031344966            2 
  569000    1.1503889   -7.3194921    209.89915  0.030740942  0.031337473            3 
  570000    1.1681371   -7.3124266    209.81338  0.030674471  0.031329989            1 
  571000    1.1474186   -7.2705174     210.3494  0.030698979  0.031322422            1 
  572000    1.1713927   -7.3249429    210.28238  0.030635545  0.031315471            1 
  573000    1.1511284   -7.2950485    210.89059  0.030670533  0.031308102            2 
  574000    1.1633039   -7.3723625     211.1883  0.030660322  0.031300986            1 
  575000    1.1721243   -7.3643823     211.0756  0.030590667  0.031293142            1 
  576000     1.155857   -7.3209321    211.85835  0.030650803  0.031285676            1 
  577000    1.1458279   -7.3653203    211.51147  0.030547584  0.031277949            2 
  578000    1.1722842   -7.3094123    211.84582  0.030542939   0.03127012            1 
  579000    1.1354162   -7.3277874    212.51878  0.030587043  0.031261935            2 
  580000      1.15306   -7.2737908    212.78639  0.030572757  0.031253739            1 
  581000    1.1700165   -7.3292341    212.33108   0.03045483  0.031245013            1 
  582000    1.1310528   -7.2938774    213.59699  0.030583761  0.031236589            2 
  583000    1.1520355   -7.3223502     213.1236  0.030463636  0.031228656            2 
  584000    1.1619421   -7.3253598    213.85633  0.030516029  0.031220566            3 
  585000    1.1582898   -7.3585378    214.05917  0.030492759  0.031212215            2 
  586000    1.1310803   -7.3216098    214.51608    0.0305057  0.031203307            2 
  587000    1.1722587   -7.2992154    214.19114  0.030407601  0.031195137            3 
  588000    1.1533358   -7.3171253    214.35736  0.030379444  0.031186323            2 
  589000    1.1653038   -7.3221823    214.65773  0.030370364  0.031177687            3 
  590000    1.1481434   -7.3231957    214.30282   0.03026876  0.031169044            2 
  591000    1.1724569   -7.3117766    215.40224  0.030372566  0.031160077            3 
  592000    1.1730217    -7.343864    215.29073  0.030305564  0.031151154            2 
  593000    1.1512546   -7.3677904    215.79331  0.030325085  0.031142089            1 
  594000    1.1567317   -7.3012006    216.30569  0.030345915  0.031133083            2 
  595000    1.1594761   -7.2731592    216.92053  0.030381026  0.031124111            2 
  596000    1.1563116   -7.3526859    216.83686  0.030318353  0.031115415            2 
  597000      1.15817   -7.3102457    217.61558  0.030376268  0.031107085            2 
  598000    1.1529278   -7.3532637     217.5347  0.030314199  0.031098444            3 
  599000    1.1528701   -7.3448673    218.20257  0.030356507  0.031089489            1 
  600000    1.1453521   -7.3566094    218.67278  0.030371219  0.031080778            3 
  601000    1.1252463   -7.3346767    218.82162  0.030341323  0.031072574            1 
  602000    1.1536433   -7.3293321    219.88297  0.030437842  0.031064625            1 
  603000    1.1586271   -7.2977195    220.49459   0.03047189  0.031056919            4 
  604000    1.1369216   -7.3338859    220.41664  0.030410684  0.031048838            1 
  605000     1.147715   -7.3379231    220.14303  0.030322732  0.031040818            2 
  606000    1.1697309   -7.3649726     220.3473  0.030300784  0.031032958            2 
  607000    1.1723747   -7.3663004    221.02657   0.03034412  0.031025087            1 
  608000    1.1382955   -7.3537689     220.7494  0.030256223  0.031017225            2 
  609000     1.130286   -7.3668859    222.06741  0.030386892  0.031009592            5 
  610000    1.1718893   -7.3340253    222.80739  0.030438168  0.031002161            3 
  611000    1.1370827   -7.3091718    222.86767  0.030396572  0.030994638            1 
  612000     1.114092   -7.3306117    222.93749  0.030356413  0.030987256            1 
  613000    1.1580606   -7.3148258    223.51094  0.030384848  0.030979766            2 
  614000      1.16051   -7.3688773    223.28111  0.030304168  0.030972037            1 
  615000    1.1517247    -7.379268    222.92989  0.030207302  0.030963725            2 
  616000    1.1447562   -7.3069401    224.12712  0.030320227  0.030955511            1 
  617000    1.1642938   -7.2979855    224.93821  0.030380633  0.030947823            5 
  618000    1.1251271   -7.2862701    224.73082  0.030303509  0.030940165            1 
  619000    1.1790583   -7.3727303    224.43097  0.030214186    0.0309323            2 
  620000    1.1479116   -7.3792771     225.0257   0.03024539   0.03092396            2 
  621000     1.162409   -7.3448459     225.7978  0.030300295   0.03091567            2 
  622000    1.1714085   -7.3454479    225.78181  0.030249438  0.030907792            2 
  623000    1.1503504   -7.3594892    226.84901  0.030343634  0.030900264            2 
  624000    1.1566865   -7.3587965    226.10072  0.030195075  0.030892799            2 
  625000    1.1518723   -7.3446216    226.87753  0.030250338  0.030884932            1 
  626000    1.1386663   -7.3539717    226.34193  0.030130714  0.030876955            2 
  627000    1.1412359   -7.3735934    226.74333  0.030136009  0.030868711            2 
  628000    1.1581466   -7.3689212     228.1492  0.030274575   0.03086095            2 
  629000    1.1416578   -7.3239596    228.47904  0.030270142   0.03085359            3 
  630000    1.1675244   -7.3269924    229.35885  0.030338472  0.030846592            1 
  631000    1.1540062   -7.3335559    229.38523  0.030293876  0.030839467            3 
  632000    1.1547677   -7.3281185    229.84893  0.030307084  0.030832394            2 
  633000    1.1740793   -7.3352614    230.23451  0.030309967  0.030824791       -1e+20 
  634000    1.1573136   -7.3493102    229.91858  0.030220634  0.030817354            2 
  635000    1.1649199   -7.3230177    230.13632  0.030201616  0.030810119            1 
  636000     1.143647    -7.338364    230.52807  0.030205459  0.030802406            2 
  637000    1.1617158   -7.3424371    230.53264  0.030158639  0.030794934            2 
  638000    1.1282793   -7.3355351    231.30194  0.030211853   0.03078755            1 
  639000    1.1310795   -7.3497414    232.04937  0.030262046  0.030780196            1 
  640000    1.1600878   -7.3721979    231.92128  0.030198083  0.030772979            3 
  641000    1.1455675   -7.3135698     232.4506  0.030219787   0.03076537            1 
  642000    1.1633967   -7.3408473    232.85536  0.030225254  0.030757916            2 
  643000    1.1302893   -7.3509104    233.49112  0.030260643  0.030750941            1 
  644000    1.1467554   -7.3410998    232.83207  0.030128374  0.030743684            1 
  645000    1.1582604   -7.3391181    234.16055    0.0302533  0.030736775            1 
  646000    1.1332933   -7.3511264    233.28782  0.030093887   0.03072995            1 
  647000    1.1385947   -7.3476861    234.67642  0.030226226  0.030722847            2 
  648000    1.1803391    -7.340603    235.64491  0.030304129  0.030716229            1 
  649000    1.1706608   -7.3447028    234.86076  0.030156749  0.030709013            1 
  650000    1.1505831    -7.348667    234.93484  0.030119851  0.030701798            3 
  651000    1.1340878   -7.3975936    235.14147  0.030100035  0.030694414            2 
  652000    1.1490203   -7.3505243    235.39484  0.030086252  0.030687038            3 
  653000    1.1634778   -7.3267022    237.25852  0.030278014  0.030679934            2 
  654000     1.175086   -7.3784554    236.79618  0.030172806   0.03067287            2 
  655000    1.1466546   -7.3623713    236.56287  0.030097057  0.030665597            1 
  656000    1.1744635    -7.371874     237.1004  0.030119461  0.030658604            2 
  657000    1.1273621   -7.3208689    239.19872  0.030339767    0.0306514            1 
  658000    1.1493941   -7.3510977    238.19401  0.030166415  0.030644545            2 
  659000    1.1540788   -7.3351054    237.93253  0.030087573  0.030637477            1 
  660000    1.1522363   -7.3448835    238.38529  0.030099153   0.03063013            3 
  661000    1.1620723   -7.3432628    238.67476  0.030090112  0.030622765            7 
  662000    1.1381931   -7.3713701    238.91404  0.030074778  0.030615623            1 
  663000    1.1550428   -7.3581419    238.36373  0.029960248  0.030608044            1 
  664000    1.1201563   -7.3546207    239.96352  0.030115904  0.030600401            2 
  665000    1.1145327   -7.3664483    239.01102  0.029951255  0.030592941            3 
  666000    1.1573316   -7.3459223    239.77015  0.030001269  0.030585478            6 
  667000    1.1584269    -7.366789    240.58967  0.030058679  0.030578246            2 
  668000    1.1557021   -7.3783844    240.24223  0.029970338  0.030571024            1 
  669000    1.1596177   -7.3891832    240.05118  0.029901741  0.030563729            2 
  670000    1.1505637   -7.3770492    240.93555  0.029967108  0.030556279            2 
  671000    1.1490034   -7.3722821    241.90799  0.030043218  0.030548841            6 
  672000    1.1423372   -7.3407831    242.01268  0.030011493  0.030541334            2 
  673000    1.1340727   -7.3687561    241.83656  0.029945091  0.030534145            2 
  674000    1.1477987   -7.3711505    242.59867  0.029994889  0.030527031            3 
  675000    1.1559486   -7.3505157    242.22638  0.029904491  0.030519561            3 
  676000    1.1200015   -7.3218993    243.08838  0.029966516  0.030511764            2 
  677000     1.145379   -7.3436392    243.64958  0.029991332  0.030504352            1 
  678000    1.1462133   -7.3677223    243.29643  0.029903692  0.030496886            2 
  679000    1.1185392   -7.4124309    243.95272  0.029940196  0.030489176            2 
  680000    1.1511721   -7.4026716    244.17653  0.029923594  0.030481477            1 
  681000    1.1485519   -7.3509536    244.44138  0.029912063  0.030474173            1 
  682000    1.1489975   -7.3748967    245.45521  0.029992084  0.030466961            2 
  683000     1.158884     -7.36038    245.17892  0.029914461  0.030460452            1 
  684000    1.1335441     -7.36573    246.21105  0.029996473  0.030453613            2 
  685000    1.1202191   -7.4042343    245.52357  0.029869048  0.030446404            1 
  686000    1.1418486   -7.3889104    246.63843  0.029960936  0.030439392            1 
  687000    1.1339533   -7.3472805    247.49064  0.030020699  0.030432754            2 
  688000    1.1705623   -7.3002261    247.11716  0.029931826     0.030426            2 
  689000    1.1351504   -7.3539293    247.73744  0.029963406  0.030419132            1 
  690000    1.1671753   -7.3237777     248.5876  0.030022657  0.030412431            2 
  691000     1.134757   -7.3516906    248.24321  0.029937676  0.030405856            1 
  692000    1.1490977   -7.3991356    247.58146  0.029814723  0.030399096            1 
  693000    1.1295192   -7.3920694    248.93637  0.029934629  0.030392063            2 
  694000    1.1259363   -7.3633131    249.72349   0.02998601  0.030385194            1 
  695000    1.1367348   -7.3678849    249.35754  0.029898986  0.030378274            1 
  696000    1.1299776   -7.3958208    249.82402   0.02991188  0.030371248            1 
  697000      1.12847   -7.4042129    248.73279  0.029738497  0.030363995            3 
  698000    1.1358257   -7.3723256    250.53213  0.029910712  0.030356695            3 
  699000    1.1067901   -7.3851521    250.57583  0.029873132  0.030349764            1 
  700000    1.1569823   -7.3663138    250.64239   0.02983838  0.030342429            3 
  701000    1.1583418   -7.3576123    251.84632  0.029938935  0.030335619            2 
  702000    1.1410106   -7.3726848    252.17204  0.029934952  0.030329024            2 
  703000    1.1343384   -7.3836012    251.87837  0.029857559  0.030322516            2 
  704000    1.1396445   -7.3545276    253.10164  0.029959948   0.03031613            1 
  705000    1.1489335   -7.3249223    252.73379   0.02987397  0.030309625            1 
  706000    1.1239402   -7.3835513    253.04228  0.029868069  0.030303541            1 
  707000    1.1643434   -7.3755695    254.58821  0.030008039  0.030297231            1 
  708000    1.1249421   -7.3574869    254.44995  0.029949382  0.030291609            1 
  709000        1.154   -7.3980579    254.58553  0.029923076  0.030285974            1 
  710000    1.1425441   -7.3665154      254.858  0.029912911  0.030279853            1 
  711000    1.1338774   -7.3342081    256.08099  0.030014181   0.03027396            2 
  712000    1.1615618   -7.4074791    255.55155   0.02991006  0.030268193            1 
  713000    1.1555717   -7.3468924    256.48543  0.029977259  0.030262404            1 
  714000    1.1496297   -7.3871914     256.5907  0.029947561  0.030256758            2 
  715000    1.1412842   -7.3454329    257.36081  0.029995433  0.030250973            5 
  716000    1.1255286   -7.3056212    258.23994  0.030055859  0.030245499            1 
  717000    1.1188813    -7.364529    258.47181  0.030040889  0.030240131            1 
  718000    1.1529639   -7.3364304    258.79516  0.030036578  0.030235131            2 
  719000    1.1295925   -7.3551101    258.35566  0.029943864  0.030230253            1 
  720000    1.1374838   -7.4332058    258.37134   0.02990409  0.030224733            2 
  721000    1.1378219   -7.3109537    259.37518  0.029978638  0.030219234            1 
  722000    1.1110937   -7.4119014    259.46593  0.029947591  0.030214068            4 
  723000    1.1594858   -7.3171654    260.97007  0.030079537  0.030209008            1 
  724000    1.1505278   -7.3542572    260.22082  0.029951751  0.030204332            3 
  725000    1.1616087   -7.3401092     261.2991  0.030034379  0.030199817            2 
  726000    1.1452021   -7.3777032    260.94663  0.029952552  0.030195463            2 
  727000    1.1422649   -7.3539724    262.72912  0.030115672  0.030191122            2 
  728000    1.1384815   -7.4032618    262.57519  0.030056684  0.030186637            2 
  729000    1.1403431   -7.4041593    262.55564  0.030013219  0.030182419            1 
  730000    1.1225379   -7.3529136     263.8621  0.030121244  0.030178363            1 
  731000    1.1205631   -7.3968999    262.75163  0.029953446    0.0301741            2 
  732000    1.1079424   -7.3505182    264.44027  0.030104767  0.030170073            2 
  733000    1.1367601   -7.3714743    264.04716  0.030019004  0.030165886            1 
  734000    1.1430663   -7.3685688    264.89569  0.030074443  0.030161826            2 
  735000    1.1524972   -7.4110165    264.34063  0.029970593  0.030157557            1 
  736000    1.1455114   -7.3875167    265.11897     0.030018  0.030153171            2 
  737000      1.13676    -7.371948    265.01243  0.029965222  0.030148887            4 
  738000    1.1241379   -7.3949278    265.03896  0.029927615    0.0301444            3 
  739000    1.1080414   -7.3618152    264.99008  0.029881606  0.030139796            2 
  740000    1.1303431   -7.3508348    266.32963  0.029992075  0.030134554            2 
  741000     1.107118   -7.3781333    265.96388  0.029910468   0.03012947            2 
  742000    1.1303132   -7.3975715    265.80968  0.029852839   0.03012444            2 
  743000    1.1108535   -7.3683654    266.65208  0.029907142  0.030119514            2 
  744000    1.1634616     -7.38357    267.11454  0.029918744  0.030114461            2 
  745000      1.15138   -7.3831904    267.04397   0.02987069  0.030109807            1 
  746000    1.1307112   -7.4239189    266.77166   0.02980023   0.03010452            1 
  747000    1.1548069   -7.3647681    268.19629  0.029919265  0.030099541            2 
  748000    1.1400068   -7.3748468    268.06345  0.029864466  0.030094366            1 
  749000    1.1254324   -7.4465913    267.63686  0.029777132  0.030088846            2 
  750000    1.1166861   -7.3556014    268.44745  0.029827494  0.030083482            1 
  751000    1.1459943   -7.3600166     268.5701  0.029801387  0.030078019            2 
  752000    1.1298478   -7.4091467    268.56923  0.029761661  0.030072446            3 
  753000    1.1340968    -7.371159    268.74316  0.029741386  0.030066854            1 
  754000    1.1113892   -7.3802383    269.09997  0.029741376  0.030061053            1 
  755000    1.1499283   -7.4157301    269.50893  0.029747122  0.030055508            1 
  756000    1.1185047   -7.3815249    270.64002  0.029832453  0.030049922            2 
  757000    1.1168646   -7.3480775    271.12919  0.029846894  0.030044499            2 
  758000    1.1134831   -7.4491215    269.20814  0.029596322  0.030038769            2 
  759000    1.1553552   -7.3838094    269.67515  0.029608602  0.030032782            3 
  760000    1.1426309   -7.4489687    270.45461  0.029655111  0.030026689            2 
  761000    1.1578099   -7.3509302    270.77012  0.029650692  0.030020447            2 
  762000    1.1107575    -7.429612    270.75262  0.029609866  0.030014026            1 
  763000    1.1434768   -7.3656494    271.31998  0.029633025   0.03000783            3 
  764000    1.1398457   -7.4163833    271.36721   0.02959939   0.03000153            3 
  765000    1.1275367   -7.4281025    271.10985  0.029532663  0.029995245            2 
  766000     1.134254    -7.419994    271.36016   0.02952134    0.0299889            4 
  767000    1.1510733   -7.4255308    271.47241  0.029495047  0.029981868            3 
  768000    1.1053686   -7.4514307    271.54764  0.029464804  0.029975061            2 
  769000    1.0979026   -7.4025735    272.50041  0.029529736  0.029967986            1 
  770000    1.1342061    -7.366783    273.18231  0.029565185  0.029961127            2 
  771000       1.1155   -7.4066863    273.09913  0.029517848  0.029954241            2 
  772000    1.1246802   -7.3956722     274.1601  0.029594139  0.029947363            1 
  773000    1.1098592   -7.4498216    273.00345  0.029431162  0.029940184            1 
  774000    1.1411664   -7.4228687    273.27288  0.029422145  0.029932668            2 
  775000    1.1322273    -7.406012    273.38749  0.029396504  0.029925219            2 
  776000    1.1141848   -7.4244346    273.30277  0.029349525  0.029917459            6 
  777000    1.1331531   -7.3872455    274.14528  0.029402111  0.029909777            1 
  778000     1.107388    -7.411085    274.55914  0.029408649  0.029902476            3 
  779000    1.1126738   -7.4138102    274.29562  0.029342707  0.029895054            2 
  780000    1.1209656   -7.4063372    274.33544  0.029309342  0.029887303            2 
  781000    1.1073189   -7.4286598    274.39611  0.029278287  0.029879165            3 
  782000    1.1330481    -7.413217      274.274  0.029227835  0.029871069            1 
  783000    1.1436395   -7.4140427     275.3523  0.029305268  0.029863267            1 
  784000    1.1194756   -7.4230264    275.09471  0.029240509  0.029854985            2 
  785000    1.1342605   -7.3940863    274.96336  0.029189317   0.02984663            3 
  786000     1.103718   -7.3735707    275.63223  0.029223095  0.029838186            2 
  787000    1.1404317   -7.3799971    275.84462  0.029208452  0.029829818            2 
  788000    1.0998586   -7.4176508    275.46656  0.029131405  0.029821444            2 
  789000    1.1333536   -7.3840737    276.82963  0.029238449  0.029812993       -1e+20 
  790000    1.1320207   -7.4123961    277.60138  0.029282846  0.029804641            2 
  791000    1.1273971   -7.4198765     276.0693  0.029084418  0.029796473            1 
  792000    1.1534315   -7.3938121    277.68517  0.029217716  0.029788086            1 
  793000    1.1251309     -7.39675    277.40135  0.029151045  0.029779628            2 
  794000    1.1136907   -7.3852814    277.87933  0.029164497  0.029771343            3 
  795000    1.1409687   -7.3890951    277.83348  0.029123006  0.029762868            1 
  796000    1.1175389   -7.4346062    277.83034  0.029086091  0.029754206            3 
  797000     1.134089   -7.4003444     278.4584  0.029115265  0.029745713            1 
  798000    1.1178463   -7.3942263    279.45245  0.029182587  0.029737229            2 
  799000    1.1447976   -7.4001136    278.91572  0.029090084  0.029729034            2 
  800000    1.1412608   -7.4191995    279.87028  0.029153154  0.029720852            3 
  801000    1.1330365   -7.4248524    280.02993  0.029133368  0.029712841            2 
  802000    1.1103961   -7.3981484    280.52753  0.029148746  0.029704711            1 
  803000    1.0988209   -7.4470651     279.7714  0.029033977  0.029696517            2 
  804000    1.1174891   -7.4244963    280.53902  0.029077427  0.029687911            3 
  805000    1.1478439   -7.4483921     280.0539  0.028991087  0.029679566            2 
  806000    1.1047625   -7.4196228    281.21986  0.029075668   0.02967097            2 
  807000    1.1201879   -7.4034695    280.96088  0.029012895  0.029662184            2 
  808000    1.1107627   -7.4189326     281.0938  0.028990697  0.029653209            2 
  809000    1.1075466   -7.4146808    281.30728  0.028976853   0.02964424            2 
  810000    1.1260719   -7.4103123     281.3699  0.028947521  0.029635354            1 
  811000    1.1221376   -7.3785214    282.46126  0.029023968  0.029626304            2 
  812000    1.1469745   -7.4015842    281.82713  0.028923146  0.029617298            3 
  813000    1.1136704   -7.4519356    281.16898  0.028820109  0.029608084            4 
  814000    1.1039181   -7.4273359    282.21435  0.028891723  0.029598787            3 
  815000    1.0830439   -7.4445304    282.22599  0.028857463  0.029589661            2 
  816000    1.1135752   -7.4020225    283.23611  0.028925256   0.02958051            1 
  817000     1.117249   -7.3994516    283.01336  0.028867132  0.029571517            2 
  818000    1.1086134   -7.4310791    283.50338  0.028881762  0.029562121            1 
  819000     1.103866   -7.4538817    283.41365  0.028837368  0.029552759            3 
  820000    1.1281898   -7.4482878    283.13657  0.028774042  0.029543395            2 
  821000    1.0913798   -7.4068429    283.91534  0.028818041   0.02953393            1 
  822000    1.1174516   -7.3941143    284.71607   0.02886416   0.02952457            3 
  823000    1.1218194   -7.4309946    284.45097  0.028802244  0.029515553            1 
  824000    1.1221014   -7.4118812    284.50432  0.028772686  0.029506255            2 
  825000    1.1177579   -7.4416683    283.94455  0.028681267  0.029497015            2 
  826000    1.1174124   -7.3823791    285.98874  0.028852778    0.0294875            1 
  827000    1.1266917   -7.4116311    285.21808  0.028740233  0.029478106            1 
  828000    1.1214382   -7.4251444    285.31219  0.028714995  0.029468686            1 
  829000    1.1181429   -7.4209903    286.45007   0.02879474  0.029459463            1 
  830000    1.1088196   -7.3992463    287.04607  0.028819886  0.029450086            2 
  831000    1.1334028    -7.439113     286.6592  0.028746409  0.029440771            1 
  832000    1.1219537   -7.4174304    288.22908  0.028869099  0.029431325            1 
  833000    1.0999887   -7.4167335    287.55292  0.028766799  0.029422118            1 
  834000    1.1226476   -7.4134935     287.2277   0.02869981   0.02941305            1 
  835000     1.094134   -7.3583626    288.69646  0.028812022  0.029404088            2 
  836000    1.1098901   -7.4465352    287.28163  0.028636526   0.02939504            1 
  837000    1.1157904   -7.4072562    288.46349  0.028719982   0.02938584            3 
  838000    1.1171804    -7.458873    288.89694  0.028728812  0.029376753            2 
  839000    1.1108958   -7.4386267    287.91654  0.028597193  0.029367139            3 
  840000    1.1153564   -7.4434313    288.76777  0.028647597  0.029357827            2 
  841000    1.0999681   -7.4049719    288.92727  0.028629337  0.029348579            2 
  842000    1.1080157   -7.3977657    290.87835  0.028788435   0.02933953            2 
  843000    1.1136549   -7.4240237    289.40792  0.028608928  0.029330299            3 
  844000     1.104425   -7.4291451    289.46586  0.028580753  0.029320991            7 
  845000    1.1464216   -7.4361637    290.56241   0.02865507  0.029311424            2 
  846000    1.1123892   -7.4612167    290.32967  0.028598274  0.029302099            3 
  847000    1.1221854   -7.4259155    289.96997  0.028529119  0.029292777            1 
  848000     1.110142   -7.4170552     291.3139  0.028627545  0.029283188            2 
  849000     1.106022   -7.4563416    290.16827  0.028481377  0.029273705            2 
  850000    1.1141463   -7.4359114    291.69041  0.028597099  0.029264067            2 
  851000    1.0841521   -7.4654401    290.94724   0.02849072  0.029254334            2 
  852000    1.1121806   -7.4479125    290.65251  0.028428454  0.029244601            2 
  853000    1.1198577    -7.421966    292.15083  0.028541504   0.02923486            1 
  854000    1.1084785   -7.4684287    291.59462  0.028453807  0.029225023            2 
  855000    1.1441335   -7.4034877    292.22867  0.028482327  0.029215416            1 
  856000    1.1054464   -7.4107401    292.45631  0.028471214  0.029205904            1 
  857000    1.1224143   -7.3982412    292.92232  0.028483306  0.029196504            3 
  858000    1.1304782   -7.4276328     293.0381  0.028461354    0.0291872            2 
  859000    1.1170844   -7.4307917    293.67619  0.028490123  0.029177767            1 
  860000    1.1032781   -7.4328963      294.438  0.028530814  0.029168049            1 
  861000    1.1185837   -7.4662007    292.82548  0.028341606  0.029158141            2 
  862000    1.0983218   -7.4374957    295.07943  0.028526627  0.029148439            7 
  863000    1.1150637   -7.4467662    294.45404  0.028433182  0.029138837            1 
  864000    1.1085097   -7.4398238    294.69547   0.02842356  0.029129076            2 
  865000    1.1073825   -7.4266171    294.68149  0.028389353   0.02911941            1 
  866000    1.1070749   -7.4294757    294.46507  0.028335745  0.029109864            1 
  867000    1.1239803   -7.3936428    296.05953  0.028456317  0.029100009            1 
  868000    1.0823117   -7.4682082    295.22932  0.028343828  0.029090033            2 
  869000    1.1054616   -7.4777873      295.138  0.028302454  0.029079828            1 
  870000    1.0961595   -7.4281455    296.44294  0.028394918  0.029069951            3 
  871000    1.1222009    -7.422876    295.53583  0.028275529  0.029060227            2 
  872000    1.1135274   -7.4604831    296.22423  0.028308891  0.029050765            1 
  873000    1.1373039   -7.4353415     297.6339  0.028411025  0.029041423            1 
  874000    1.0941964   -7.4293192     297.2687  0.028343697    0.0290321            2 
  875000    1.1127526   -7.4394798    297.56139   0.02833918  0.029022769            1 
  876000    1.1022595   -7.4274428    298.05402  0.028353693  0.029013538            3 
  877000    1.0881598   -7.4064802    298.47333  0.028361206   0.02900439            1 
  878000    1.0967525   -7.4544185    298.85638   0.02836526  0.028995304            1 
  879000    1.1122079   -7.4326376    299.66107  0.028409278  0.028986398            3 
  880000    1.1064832   -7.4236972    299.06015   0.02832009  0.028977682            2 
  881000    1.1160051   -7.4159487    300.46138  0.028420487  0.028968804            2 
  882000    1.1202858   -7.4295062    300.16245   0.02836002  0.028960287            2 
  883000    1.1247768   -7.4744404    300.05735  0.028317983  0.028951323            3 
  884000    1.1119426   -7.4530637    299.99139  0.028279731  0.028942351            2 
  885000    1.1338209   -7.4856931    300.97626  0.028340514   0.02893313            1 
  886000     1.126957   -7.4238045    301.36996  0.028345557  0.028924313            5 
  887000    1.1288584   -7.4572064    301.45232  0.028321338  0.028915454            1 
  888000    1.1215483   -7.4455353     302.0673  0.028347157  0.028906492            2 
  889000    1.1040865    -7.367373    303.00513   0.02840318  0.028897667            2 
  890000    1.1365004    -7.471159    301.73258  0.028252114  0.028888935            1 
  891000    1.1127228   -7.3862762    303.70216  0.028404616  0.028880056            2 
  892000     1.126167   -7.4259707     303.5075  0.028354587  0.028871195            1 
  893000    1.1167708   -7.4497174    303.79996  0.028350127  0.028862416            2 
  894000    1.0882562   -7.4761272     302.7239  0.028218112  0.028853522            2 
  895000    1.1273652   -7.4357162    303.28454  0.028238784  0.028844431            2 
  896000    1.1124351   -7.4218934    303.27075  0.028205985  0.028835395            2 
  897000    1.1195228   -7.4374886    303.61858  0.028206855  0.028826163            2 
  898000     1.122648   -7.4257853    304.21492  0.028230783  0.028816963            1 
  899000    1.1084361   -7.4484518    303.36235  0.028120351  0.028807571            2 
  900000    1.1118642   -7.4736577    304.49414  0.028193902  0.028798402            3 
  901000    1.0902985   -7.4385073    304.21849  0.028137115  0.028789184            1 
  902000    1.0833464   -7.4724912    303.96822  0.028082799   0.02877974            2 
  903000    1.1000784   -7.4454059    304.69138  0.028118437  0.028770544            1 
  904000    1.1038613   -7.4537546      305.558   0.02816722  0.028761537            1 
  905000    1.1197426   -7.4350693    305.84289  0.028162329  0.028752173            1 
  906000    1.1123282   -7.4025397    307.30545   0.02826577  0.028742975            2 
  907000    1.1262481   -7.4727997    305.22329  0.028043302  0.028733942            2 
  908000    1.1028024   -7.4635799    306.22813  0.028104638  0.028724828            2 
  909000    1.1108719   -7.4995116    306.27715  0.028078214  0.028715647            1 
  910000    1.1044263   -7.4434379    307.49723  0.028159087    0.0287063       -1e+20 
  911000    1.0881999    -7.400372     307.0695  0.028089051  0.028696766            1 
  912000    1.1086772   -7.4397742    307.01752  0.028053502   0.02868737            1 
  913000    1.1076496   -7.4266212    307.59546  0.028075526  0.028677943            2 
  914000    1.0817408   -7.5294421    306.98032  0.027988724   0.02866854            2 
  915000    1.1283141   -7.4255906    308.77038  0.028121164  0.028659182            1 
  916000    1.0955021   -7.4313608    309.37166  0.028145165  0.028650372            2 
  917000    1.1106322    -7.481585    307.62763  0.027955982  0.028641165            2 
  918000    1.1137262   -7.4071818    309.62454  0.028106803  0.028632015            3 
  919000    1.0992695   -7.4864613    308.17207  0.027944511  0.028622711            2 
  920000    1.1146738   -7.4377268    310.11025  0.028089696  0.028613602            1 
  921000    1.0839677   -7.4332244    309.40921  0.027995767  0.028604462            2 
  922000    1.0928088   -7.4944893     309.3149  0.027956879  0.028595028            1 
  923000    1.1151664   -7.4636139    310.06206  0.027994046  0.028585911            4 
  924000    1.0903517   -7.4699805     309.5038  0.027913402  0.028576624            1 
  925000    1.0924575   -7.4488615    310.47602  0.027970813  0.028567526            8 
  926000    1.1109524   -7.4765473    311.15856   0.02800203  0.028558472            1 
  927000    1.0957428   -7.4290756    312.54548  0.028096501   0.02854955            2 
  928000    1.1231558   -7.4736627    310.07326  0.027844223  0.028540604            2 
  929000     1.096485   -7.4624653    311.10328  0.027906645  0.028531479            2 
  930000    1.1171125   -7.4057746    312.81316  0.028029853  0.028522452            2 
  931000    1.0966947   -7.4184095    312.64538  0.027984728   0.02851379            3 
  932000    1.0802673   -7.4134822    312.76777  0.027965644  0.028505021            2 
  933000    1.0773788   -7.4516808    312.55274  0.027916465  0.028496323            4 
  934000    1.0832053   -7.5307724    312.21024  0.027856017  0.028487241            1 
  935000    1.1170741   -7.4759929    312.77497  0.027876557  0.028478122            2 
  936000    1.1080647   -7.4281699     314.2231  0.027975703  0.028469207            2 
  937000    1.0769189   -7.4616819    313.11012  0.027846863  0.028460351            1 
  938000    1.0873546    -7.484557    313.07677  0.027814212  0.028451067            3 
  939000    1.0983781   -7.5120353    312.78778  0.027758944   0.02844193            1 
  940000    1.1042536   -7.4790811    313.82384  0.027821262  0.028432852            3 
  941000    1.1117366   -7.4988833     314.5448  0.027855544  0.028423692            3 
  942000      1.14526   -7.4552399    314.20841  0.027796215  0.028414852            4 
  943000    1.0944347   -7.4722714    315.33355  0.027866167  0.028405883            2 
  944000    1.0727675   -7.4734005    315.66867  0.027866232  0.028396985            2 
  945000    1.0761533    -7.462139    316.25641  0.027888572  0.028388404            3 
  946000    1.0914898   -7.4639846    315.91133  0.027828693  0.028379742            1 
  947000    1.0718411   -7.4184728    317.03874  0.027898516  0.028371131            1 
  948000    1.0852787   -7.4566839    316.63961  0.027834003   0.02836236            1 
  949000    1.0842973   -7.4732449    317.55765  0.027885287  0.028353523            2 
  950000    1.0881446   -7.4551751    318.11523  0.027904845  0.028344949            2 
  951000    1.0698592   -7.4415964    317.89725  0.027856401  0.028336254            4 
  952000    1.0975108   -7.4912081    318.33711  0.027865643  0.028327863            1 
  953000    1.1024233   -7.4506964    318.53786  0.027853957  0.028319307            4 
  954000    1.0909114   -7.4693509      318.258  0.027800315  0.028310676            2 
  955000    1.1002316   -7.4607017    318.14886   0.02776168   0.02830183            1 
  956000    1.1018436    -7.471976     317.9368  0.027714156  0.028292961            1 
  957000    1.1045106   -7.4763344    318.44669  0.027729597   0.02828391            3 
  958000    1.0886583   -7.4697845    319.24622    0.0277702  0.028275116            4 
  959000    1.1025403   -7.4781967    319.17961  0.027735455  0.028266067            1 
  960000    1.0807931   -7.4505006     318.4721  0.027645147  0.028257036            3 
  961000    1.0938266   -7.5101665    318.67646  0.027634102  0.028248057            1 
  962000    1.0775969   -7.4583843     319.7298  0.027696622  0.028238987            3 
  963000    1.1180923   -7.4568359    319.89886   0.02768249   0.02822997            2 
  964000    1.0757279   -7.4911243    320.47132  0.027703261  0.028220948            1 
  965000    1.1180177   -7.4917657    319.33904  0.027576774  0.028211468            3 
  966000     1.106794   -7.4688634    320.18302  0.027621034  0.028202297            2 
  967000    1.0951997   -7.4720325    320.29356  0.027601996  0.028193234            3 
  968000    1.0869555   -7.4653675    320.23534  0.027568469  0.028184351            1 
  969000    1.1051413   -7.5315515    321.17517  0.027620844   0.02817526            3 
  970000     1.074816   -7.4799753    320.39718  0.027525531  0.028165942            2 
  971000    1.0691971   -7.4409642    322.09819  0.027643168   0.02815682            2 
  972000    1.1076537    -7.497901    321.13768   0.02753238  0.028147612            4 
  973000    1.1099644   -7.4910525    321.86725  0.027566568  0.028138584            2 
  974000    1.1144026   -7.4881656     322.5264  0.027594661   0.02812944            3 
  975000    1.0898565   -7.5220966    322.26952  0.027544404  0.028120352            1 
  976000    1.0595789   -7.4988709    322.97611  0.027576512  0.028111159            1 
  977000     1.110327   -7.4686442    323.04327  0.027554014   0.02810209            2 
  978000    1.0732375   -7.5328329     322.7121  0.027497623  0.028092839            2 
  979000    1.0892248     -7.48044    323.80204  0.027562312  0.028083625            4 
  980000    1.1098488   -7.4408563    324.29563  0.027576159  0.028074548            5 
  981000    1.0908401   -7.4567734    325.39952  0.027641821  0.028065704            2 
  982000    1.0858139    -7.515894    323.72909  0.027471918  0.028056839            3 
  983000    1.1120038   -7.4762388    325.17803  0.027566805  0.028047939            2 
  984000    1.0890265   -7.5198005    324.91752  0.027516728  0.028038919            1 
  985000    1.1136442   -7.5013653    324.42383  0.027447025   0.02802987            3 
  986000    1.0965206   -7.4926833    324.64217  0.027437642  0.028020738            2 
  987000    1.0993522   -7.5171621    324.88571  0.027430405  0.028011722            6 
  988000    1.0754319    -7.464786    325.58023   0.02746122  0.028002941            2 
  989000    1.1047694   -7.4757862     325.5097  0.027427511  0.027993815            1 
  990000    1.0818171   -7.4410993    326.21397  0.027459089  0.027984824            2 
  991000    1.0756857   -7.4996849    326.71334  0.027473372  0.027975826            1 
  992000    1.0851555   -7.4848481    327.24151  0.027490046  0.027966689            1 
  993000    1.0987455   -7.5013688    326.02069   0.02735991  0.027957572            3 
  994000    1.0975297   -7.4862765    325.99522   0.02733025  0.027948476            2 
  995000    1.0857308   -7.4915692    326.83274  0.027372927  0.027939303            3 
  996000     1.088571   -7.5292154    326.40637   0.02730977  0.027930135            2 
  997000    1.0931455   -7.4878654     326.7254  0.027309044  0.027921001            2 
  998000    1.0845443   -7.5073763    328.24041  0.027408184  0.027911641            2 
  999000     1.086291   -7.4974135    327.29356  0.027301765  0.027902254            1 
 1000000    1.0885184   -7.4805841    327.62056  0.027301713  0.027892918            3 
 1001000    1.0977643   -7.4625462    328.06166   0.02731116  0.027883468            1 
 1002000    1.0744246    -7.486083    328.51329  0.027321464  0.027873971            3 
 1003000    1.1027011   -7.5233729     328.1043  0.027260245  0.027864567            2 
 1004000    1.1054287   -7.5245331    328.51409  0.027267106  0.027855175            3 
 1005000    1.0982281   -7.4983426    329.27164  0.027302789  0.027845791            2 
 1006000    1.0902523   -7.4706328      329.062  0.027258284  0.027836447            3 
 1007000    1.0998557   -7.4777418    328.59447  0.027192525  0.027827076            1 
 1008000    1.0958901     -7.42115    330.45899  0.027319691  0.027817642            2 
 1009000    1.0870385   -7.5044826    330.58444  0.027302976  0.027808581            2 
 1010000    1.1027195   -7.4862008    330.79482  0.027293302  0.027799642            2 
 1011000    1.0848278   -7.4909662    331.13794  0.027294588  0.027790657            1 
 1012000    1.0870415   -7.5142647    330.81059  0.027240662  0.027781578            1 
 1013000    1.1261858    -7.496016    332.33832  0.027339447  0.027772702            3 
 1014000    1.0895396   -7.4865344    332.04976  0.027288771  0.027763764            2 
 1015000    1.0845819   -7.4872292    332.24551  0.027277957  0.027754909            4 
 1016000    1.0687487    -7.478016    331.77579  0.027212581  0.027745909            1 
 1017000     1.069519   -7.5210464    332.73116  0.027264107  0.027736956            1 
 1018000    1.0919932   -7.5080846    332.98449  0.027258063  0.027728032            1 
 1019000    1.0901118   -7.5283015    331.32755  0.027095809  0.027718969            2 
 1020000    1.0716545   -7.4940162    333.91761   0.02728085  0.027710151            1 
 1021000     1.078011   -7.5164842    332.96803  0.027176627  0.027701299            4 
 1022000     1.071757   -7.5055563    332.85947  0.027141183  0.027692228            3 
 1023000    1.1010909   -7.5036389    332.94828  0.027121886  0.027683139            2 
 1024000    1.1077873   -7.5245841    332.68289  0.027073803  0.027673857            1 
 1025000    1.0920271   -7.4772182    333.44686  0.027109501  0.027664846            1 
 1026000    1.0866586   -7.4926396    333.52569  0.027089481   0.02765542            2 
 1027000    1.0694162   -7.5292219    332.97022  0.027018032   0.02764587            3 
 1028000    1.0798404   -7.5201811    334.28678  0.027098474  0.027636272            2 
 1029000    1.0966783   -7.4849668    334.62091  0.027099199  0.027626751            3 
 1030000    1.1107527   -7.5146906    334.14728   0.02703457  0.027617308            2 
 1031000    1.0730146   -7.5011282    335.03148  0.027079816  0.027607993            3 
 1032000    1.0723153   -7.5022936    336.15774   0.02714452     0.027599            1 
 1033000    1.0926614   -7.5424917    335.12544  0.027034966  0.027589616            2 
 1034000    1.0905946   -7.4885301    336.67791  0.027133938   0.02758017            2 
 1035000    1.0836376   -7.5540409    335.35672  0.027001346  0.027570737            2 
 1036000    1.0974458   -7.5173074    336.36519  0.027056402  0.027561465            1 
 1037000    1.0904256    -7.536895      335.651  0.026972918  0.027552252            3 
 1038000    1.0616604   -7.5022976    336.09855  0.026982863  0.027543033            2 
 1039000    1.0857779   -7.4993952    337.13431  0.027039967  0.027533913            2 
 1040000    1.0765761   -7.4900469    337.28212  0.027025811  0.027524888            2 
 1041000    1.0773462   -7.5272207    337.02694  0.026979422  0.027515725            1 
 1042000    1.0882857   -7.4906815     337.5401   0.02699457  0.027506376            3 
 1043000    1.0912776   -7.5369098    337.47479   0.02696347  0.027497297            1 
 1044000    1.0859392   -7.5186061    337.72552  0.026957656  0.027488043            3 
 1045000    1.0747536   -7.5184295    338.40945    0.0269864  0.027478812            1 
 1046000    1.0789456   -7.5436916    336.91006  0.026841146   0.02746951            2 
 1047000    1.0653604   -7.5013654    338.49542  0.026941692  0.027460214            1 
 1048000    1.0810421   -7.5007961    338.63998  0.026927479  0.027450928            1 
 1049000    1.0645284   -7.5299318    339.12762  0.026940548  0.027441617            4 
 1050000    1.0651761    -7.527569    338.47224  0.026862876  0.027432315            3 
 1051000    1.1027656   -7.4594526    339.82135  0.026944287  0.027423244            3 
 1052000    1.1047171   -7.5258184    339.07624  0.026859651   0.02741409            2 
 1053000    1.1066734   -7.5127756    339.34213  0.026855186  0.027404727            4 
 1054000    1.0814556   -7.5390265    340.10289  0.026889855  0.027395305            1 
 1055000    1.0909987   -7.4808862    339.40957  0.026809602  0.027385945            2 
 1056000    1.0754951   -7.4953618    341.14123  0.026920867  0.027376624            3 
 1057000    1.0774241   -7.5210593    339.97331   0.02680332  0.027367066            1 
 1058000    1.0984772   -7.5104509    340.22779   0.02679803  0.027357613            2 
 1059000     1.072599   -7.4740754    340.27152  0.026776166  0.027348134            4 
 1060000    1.0878822   -7.4875417    340.31888  0.026754629   0.02733863            2 
 1061000    1.0923343   -7.4733588    341.47516   0.02682023  0.027329237            3 
 1062000     1.059821   -7.5040068    340.22743  0.026697068  0.027319709            3 
 1063000    1.0908423   -7.4626157    341.45025  0.026767815  0.027310171            1 
 1064000    1.0885247   -7.4956284    341.40266   0.02673893  0.027300691            4 
 1065000    1.0870463   -7.4932561    340.97897  0.026680671  0.027290946            1 
 1066000    1.0612148   -7.5278243    341.05932  0.026661923  0.027281281            2 
 1067000    1.0960553   -7.4677302    342.43893  0.026744684   0.02727157            1 
 1068000    1.0828879   -7.5002688    343.00069  0.026763474  0.027262144            1 
 1069000     1.076234   -7.4945466    342.26335  0.026680959  0.027252693            2 
 1070000    1.1000124   -7.4988412    343.26567  0.026734087  0.027243183            1 
 1071000    1.0948721   -7.5265131    342.83875  0.026675907  0.027233643            5 
 1072000    1.0927927    -7.527154    342.37418  0.026614908  0.027223906            1 
 1073000    1.0699214   -7.4966709    342.95277   0.02663504  0.027214166            2 
 1074000    1.0599125   -7.5328435    342.04023  0.026539434   0.02720445            3 
 1075000    1.0759169   -7.4625258    344.18722   0.02668118  0.027194916            2 
 1076000    1.0586928   -7.5344872    342.61665  0.026534746  0.027185211            2 
 1077000     1.062528   -7.4618661    344.33278  0.026642895  0.027175427            2 
 1078000    1.0774921   -7.5178674     345.2841  0.026691721  0.027165834            3 
 1079000    1.0681344   -7.4810801    345.16179  0.026657537   0.02715634            1 
 1080000    1.0720697   -7.4879934    344.27344  0.026564308  0.027146869            1 
 1081000     1.072246   -7.5081715    344.63038  0.026567251  0.027137259            1 
 1082000    1.0780513   -7.5084838    344.14932  0.026505647  0.027127524            2 
 1083000    1.0773014    -7.467018    346.03445  0.026626227   0.02711787            1 
 1084000    1.0932743   -7.5317434     344.8074  0.026507334  0.027108375            2 
 1085000     1.109885   -7.5547216    344.87208  0.026487871  0.027098523            1 
 1086000    1.0799436   -7.5256136    345.46193  0.026508742  0.027088844            2 
 1087000    1.0730266   -7.5339647    345.06868  0.026454207  0.027079236            6 
 1088000    1.0897297   -7.4994623    345.47871  0.026461298  0.027069552            2 
 1089000    1.0576209    -7.487773    346.72642  0.026532478  0.027060011            1 
 1090000    1.0874923   -7.5257237     347.2209  0.026545941  0.027050433            2 
 1091000    1.0715569   -7.5358986    345.60119  0.026397891  0.027040711            1 
 1092000    1.0536926   -7.5145102    347.14676  0.026491664  0.027030897            2 
 1093000    1.0941999   -7.5361366    347.19008  0.026470729  0.027021013            1 
 1094000    1.0689395   -7.5548266    346.76097  0.026413846  0.027011117            2 
 1095000    1.0754523   -7.5023892    347.85199  0.026472754  0.027001525            1 
 1096000    1.0899181   -7.5575472    347.50103  0.026421915  0.026991998            1 
 1097000    1.0815685   -7.5711853    347.45254  0.026394146   0.02698221            2 
 1098000    1.0769133   -7.5172335    347.10375  0.026343636  0.026972453            2 
 1099000    1.0617333   -7.5236861    348.42501  0.026419852  0.026962633            4 
 1100000    1.0483737   -7.5111634    347.94479  0.026359454  0.026952818            2 
 1101000    1.0632506   -7.4939954    348.37516  0.026368087  0.026943204            2 
 1102000     1.086315   -7.5189801    348.75558  0.026372926  0.026933465            3 
 1103000    1.1070154   -7.5090741    348.02015  0.026293454  0.026923727            3 
 1104000     1.094454   -7.5190443    349.58931  0.026388082  0.026914181            2 
 1105000    1.0705977   -7.5260024    348.89466  0.026311814  0.026904652            2 
 1106000    1.0749397   -7.5566909    349.72767  0.026350789  0.026895045            2 
 1107000     1.098806   -7.5150117    350.38626  0.026376563  0.026885562            2 
 1108000    1.0929261   -7.5428799    350.18951  0.026337959  0.026876136            2 
 1109000    1.0848423   -7.5423065    350.72612  0.026354533  0.026866557            2 
 1110000    1.0632412   -7.4848519    351.25477  0.026370478  0.026857147            2 
 1111000    1.0818936   -7.5300209    350.00812  0.026253235  0.026847685            2 
 1112000    1.0862905   -7.5040603    350.64136   0.02627708  0.026838066            1 
 1113000    1.0746374   -7.5650597    350.63808  0.026253226  0.026828526            1 
 1114000    1.0605949   -7.5300298     351.3425  0.026282353  0.026818941            2 
 1115000    1.0970587   -7.5124672    352.37733  0.026336123  0.026809563            2 
 1116000    1.0784531   -7.5211985    352.00752   0.02628491  0.026800161            2 
 1117000    1.0661224    -7.537508    351.98616  0.026259785   0.02679067            2 
 1118000    1.0922473   -7.5419382    352.18302   0.02625097  0.026781267            2 
 1119000    1.0819388   -7.5405074    352.66349  0.026263293   0.02677177            2 
 1120000    1.0811692   -7.5052248    353.47204  0.026300003  0.026762356       -1e+20 
 1121000     1.076612   -7.5719195    351.79997  0.026152243  0.026752919            2 
 1122000     1.087918   -7.4954556    353.80788  0.026278066  0.026743459            6 
 1123000    1.0904561   -7.5237495    354.53932  0.026308943  0.026734152            4 
 1124000    1.0484739   -7.5257143    354.34243  0.026270939  0.026724806            5 
 1125000    1.0488355   -7.5322787    353.11212  0.026156453  0.026715516            2 
 1126000     1.058585   -7.5534141    352.86943  0.026115262  0.026706125            2 
 1127000    1.0799913   -7.5558826    354.06436  0.026180446  0.026696717            1 
 1128000    1.0885714   -7.5632532    354.61374  0.026197823   0.02668748            2 
 1129000    1.0663383   -7.5159511    355.94165  0.026272635  0.026678238            6 
 1130000    1.0844006   -7.5075052    356.47164  0.026288469  0.026669067            1 
 1131000    1.0595413   -7.5208852    356.66402    0.0262794  0.026660078            2 
 1132000    1.0698237   -7.5458908    355.94867  0.026203524  0.026650913            3 
 1133000    1.0592319   -7.5295435     356.3042  0.026206546  0.026641689            1 
 1134000    1.0750471   -7.5621648    356.57687  0.026203474  0.026632506            3 
 1135000    1.0476145   -7.5008798     357.6119   0.02625638  0.026623587            1 
 1136000    1.0824884   -7.5684779    357.30575  0.026210809  0.026614673            1 
 1137000    1.0815618   -7.5250068    357.47151  0.026199906   0.02660561            1 
 1138000    1.0736466   -7.5321062    355.94834  0.026065344  0.026596703            1 
 1139000    1.0432513   -7.5184469    358.19308  0.026206693  0.026587627            2 
 1140000    1.0812698   -7.5529143    357.21211  0.026111997  0.026578487            2 
 1141000    1.0607907   -7.5778327    357.31364  0.026096526  0.026569199            4 
 1142000    1.0583395   -7.5507283    357.44909  0.026083559  0.026560092            3 
 1143000    1.0700432   -7.5152706    358.72824  0.026153998  0.026551043            2 
 1144000    1.0456986   -7.5480713    358.61427  0.026122835  0.026541913            1 
 1145000    1.0700079   -7.5700873    356.89709  0.025975043  0.026532778            1 
 1146000    1.0556978   -7.5471675    359.11118  0.026113378  0.026523755            1 
 1147000    1.0497265   -7.5316599    359.85331   0.02614453  0.026514854            3 
 1148000    1.0649592   -7.5806702    359.27539  0.026079805  0.026505872            1 
 1149000    1.0356482   -7.5452029    359.67193  0.026085867  0.026496944            2 
 1150000    1.0678313   -7.5478515    359.43477  0.026045998  0.026487789            1 
 1151000    1.0715302   -7.5116543    360.43133   0.02609552  0.026479006            1 
 1152000    1.0673448    -7.583237    358.88766  0.025961203  0.026470015            1 
 1153000    1.0670499   -7.5507801    360.82374  0.026078617  0.026461068            1 
 1154000    1.0482421   -7.5297327    361.39349  0.026097161  0.026452325            2 
 1155000     1.043225   -7.6106618    359.57286  0.025943208  0.026443433            3 
 1156000    1.0691552   -7.5542722    360.65728  0.025998939  0.026434604            1 
 1157000    1.0426843   -7.5467921    361.70393  0.026051853  0.026425655            1 
 1158000     1.059198   -7.6063822    360.43316  0.025937908  0.026416738            3 
 1159000    1.0525337    -7.584823    361.00795  0.025956856  0.026407682            2 
 1160000    1.0638751   -7.5493615    362.59786  0.026048697  0.026398954            1 
 1161000    1.0592815   -7.5327851    362.54634  0.026022562  0.026390065            1 
 1162000    1.0784357   -7.5600051    361.99946  0.025960948   0.02638115            1 
 1163000     1.078324   -7.5954027    361.22331  0.025883012  0.026372097            1 
 1164000    1.0690105    -7.503138     363.0574  0.025992082  0.026363226            2 
 1165000    1.0685263   -7.5362495    363.84769  0.026026301  0.026354636            6 
 1166000    1.0841579   -7.5494439    362.29952  0.025893334  0.026345812            1 
 1167000    1.0799885   -7.5542327     364.2581  0.026011004  0.026337078            2 
 1168000    1.0487914   -7.5460382    364.86197  0.026031818  0.026328397            3 
 1169000    1.0701947   -7.5922426    363.59271  0.025919069  0.026319544            2 
 1170000    1.0665659   -7.5652623    364.24923  0.025943677  0.026310665            1 
 1171000    1.0519161   -7.5825299    363.71027  0.025883167   0.02630173            2 
 1172000    1.0413395   -7.5867815    364.08406  0.025887661  0.026292788            1 
 1173000    1.0593757   -7.5943467    362.67097  0.025765201   0.02628378            2 
 1174000    1.0683982   -7.5604865    364.74651  0.025890581  0.026274667            5 
 1175000    1.0529528   -7.5655357    362.80098  0.025730566  0.026265443            2 
 1176000    1.0833053   -7.5849253    363.38637  0.025750168  0.026256158            2 
 1177000    1.0616652    -7.567792    363.45312  0.025733016  0.026246837            2 
 1178000    1.0449512   -7.5848953    365.33069  0.025843993  0.026237688            2 
 1179000    1.0778078    -7.580624    365.43961  0.025829772  0.026228679            2 
 1180000    1.0541821   -7.5882204    364.48312  0.025740333  0.026219589            1 
 1181000    1.0641189   -7.5435689    365.63532  0.025799839  0.026210505            2 
 1182000    1.0674428   -7.5327808     367.4079  0.025902982  0.026201678            3 
 1183000    1.0745972   -7.5761963    365.72638  0.025762636  0.026192784            1 
 1184000    1.0336115   -7.5677158    366.34714  0.025784568  0.026183963            2 
 1185000    1.0623265   -7.5409359    367.49358   0.02584343  0.026175113            3 
 1186000    1.0661899   -7.5702997    366.90783  0.025780483  0.026166425            2 
 1187000    1.0612607   -7.5977577    366.08757  0.025701177  0.026157567            2 
 1188000    1.0768099   -7.5333166    368.49554  0.025848452  0.026148836            1 
 1189000    1.0196461   -7.5386877    368.91528  0.025856131  0.026140207            2 
 1190000    1.0595872   -7.6054286     367.9904  0.025769636  0.026131557            2 
 1191000    1.0672618   -7.5930268    367.28657  0.025698752  0.026122846            1 
 1192000    1.0431634   -7.5467983    369.11853  0.025805267  0.026114323            1 
 1193000     1.071088   -7.5364403    370.16203  0.025856526  0.026105906            2 
 1194000    1.0733105   -7.5164436    370.88854  0.025885577  0.026097428            2 
 1195000    1.0916345   -7.5734525    370.62887  0.025845807  0.026089158            1 
 1196000    1.0681196   -7.5951655     369.0671  0.025715378  0.026080812            1 
 1197000    1.0656356   -7.5575674     370.9287  0.025823496  0.026072314            2 
 1198000    1.0459485   -7.5497497    371.19001  0.025820118  0.026064037            2 
 1199000     1.055048   -7.6024407    371.32264  0.025807801  0.026055619            1 
 1200000    1.0656152   -7.5978092    371.49595   0.02579833  0.026047368            2 
 1201000    1.0603176   -7.5656742    371.72342  0.025792632  0.026039268            5 
 1202000     1.063436   -7.6033492    371.89015  0.025782734  0.026031059            1 
 1203000    1.0402013   -7.5606935    372.88407  0.025830152  0.026022954            3 
 1204000     1.059523   -7.5806278    372.60174  0.025789157  0.026014677            2 
 1205000    1.0352798   -7.5691859    371.96168  0.025723491  0.026006407            3 
 1206000    1.0577083   -7.5788194    372.82821  0.025762038  0.025998319            1 
 1207000    1.0676689   -7.5738612    372.86164  0.025743002   0.02599007            1 
 1208000    1.0429087   -7.5757533    372.57891  0.025702188  0.025981801            4 
 1209000    1.0521748    -7.569292      372.841  0.025698994   0.02597362            3 
 1210000    1.0612749   -7.5802479    374.58919  0.025798154  0.025965448            2 
 1211000    1.0617409   -7.6162062    373.89707  0.025729223  0.025957271            1 
 1212000    1.0665915   -7.5516127     374.5774  0.025754772  0.025949239            1 
 1213000    1.0634346   -7.5417818    374.18213  0.025706385  0.025941331            3 
 1214000    1.0555425   -7.5493323    374.47054  0.025705007  0.025933406            2 
 1215000    1.0686679   -7.5820057    375.20581  0.025734281  0.025925516            9 
 1216000    1.0724355   -7.5767004    375.87811   0.02575919  0.025917595            2 
 1217000     1.057006   -7.5411471    376.32701  0.025768762  0.025909765            2 
 1218000     1.042353   -7.5538175    377.24451  0.025810379  0.025901988            2 
 1219000     1.044089   -7.5677034    376.55054  0.025741765  0.025894207            4 
 1220000     1.050264   -7.5651536    376.76955  0.025735625  0.025886484            3 
 1221000    1.0649207   -7.5639773    376.73148  0.025711949  0.025878791            2 
 1222000    1.0780452   -7.5618372    377.63581  0.025752579   0.02587124            3 
 1223000    1.0320857   -7.5696432    377.29689  0.025708428  0.025863603            5 
 1224000    1.0597835    -7.581744    378.30112  0.025755796  0.025855883            1 
 1225000    1.0965848   -7.5822223    378.22058  0.025729291  0.025848233            3 
 1226000     1.050153    -7.569952    380.21057  0.025843568    0.0258406            4 
 1227000    1.0643368   -7.5678999     379.1614   0.02575125  0.025833031            3 
 1228000    1.0662922   -7.5517931    378.93352  0.025714815  0.025825616            3 
 1229000     1.091564   -7.5959446    378.41496  0.025658731  0.025817985            4 
 1230000     1.061344   -7.5378603    379.98048  0.025743935  0.025810544            3 
 1231000    1.0627703   -7.5660543    379.44716  0.025686918  0.025803084            2 
 1232000    1.0586313   -7.5746125    379.79316  0.025689472  0.025795442            2 
 1233000    1.0683063   -7.5561981    380.84334  0.025739615  0.025787941            1 
 1234000    1.0605871   -7.5401224    381.35809  0.025753517  0.025780461            2 
 1235000    1.0471094   -7.5439755    380.92983  0.025703767  0.025773071            2 
 1236000    1.0613396   -7.5863139     380.3377  0.025643049  0.025765549            1 
 1237000    1.0486255   -7.5525868    381.55771  0.025704507  0.025758044            2 
 1238000    1.0576281   -7.5513843    379.81481  0.025566425   0.02575052            5 
 1239000    1.0591914   -7.5773033    380.24702   0.02557486   0.02574278            5 
 1240000    1.0521858   -7.5660545    380.77438  0.025589676  0.025735157            2 
 1241000    1.0282494   -7.5826419    380.80303   0.02557098  0.025727627            2 
 1242000    1.0497392   -7.6281852    381.55119  0.025600589  0.025719944            3 
 1243000    1.0466917   -7.5726523    381.74843  0.025593217  0.025712409            1 
 1244000     1.051412   -7.5784353    382.39634  0.025616046  0.025704963            4 
 1245000    1.0568295   -7.5944463    382.45534   0.02559942  0.025697532            2 
 1246000    1.0385585   -7.5665014    383.81289  0.025669669  0.025690128            5 
 1247000    1.0714645   -7.5615103    383.87097  0.025652965  0.025682716            2 
 1248000    1.0598043   -7.5651417    383.21429  0.025588561  0.025675315            3 
 1249000    1.0523428   -7.5723927    383.31228  0.025574611  0.025667831            3 
 1250000    1.0531564   -7.5976102    384.11514  0.025607676  0.025660434            1 
 1251000    1.0596758   -7.6015358    384.16813  0.025590736  0.025652808            2 
 1252000     1.032817   -7.5982364    383.59485  0.025532139  0.025645301            1 
 1253000    1.0867672   -7.5913759    384.48634  0.025571052  0.025637901            1 
 1254000    1.0551438   -7.5874966    384.06157  0.025522433  0.025630468            2 
 1255000    1.0693102   -7.5694364    384.84088  0.025553843  0.025623116            5 
 1256000    1.0489687   -7.6025712    384.42611  0.025505979  0.025615697            3 
 1257000    1.0752976   -7.5948089    384.63575  0.025499586  0.025608187            1 
 1258000    1.0310481   -7.6226685    385.65517  0.025546845  0.025600584            2 
 1259000    1.0576992   -7.5725979    385.26043  0.025500425  0.025592896            3 
 1260000     1.054008   -7.5836296    385.55088  0.025499397  0.025585323            1 
 1261000    1.0494262   -7.6005603    386.08652  0.025514573  0.025577648            1 
 1262000    1.0431345   -7.6042606    385.30146  0.025442516  0.025569851            1 
 1263000    1.0331939   -7.6354457     385.2388  0.025418237  0.025562209            1 
 1264000    1.0407583    -7.594928    386.26611  0.025465857  0.025554641            4 
 1265000    1.0462024   -7.6407444    385.24967  0.025378766  0.025546984            2 
 1266000    1.0521539    -7.620441    385.27259  0.025360228  0.025539241            4 
 1267000    1.0247265    -7.615045    385.01323  0.025323154  0.025531537            1 
 1268000    1.0434589   -7.6214659    386.42514  0.025395974  0.025523754            3 
 1269000     1.031924   -7.5738561    387.23683  0.025429264  0.025515922            2 
 1270000    1.0361657   -7.5933926    386.07989  0.025333326  0.025508062            2 
 1271000     1.063895   -7.5810329    385.74984  0.025291755  0.025500141            5 
 1272000     1.051202   -7.5599483    387.03476  0.025356051  0.025492166            1 
 1273000    1.0582562    -7.576539    386.00315  0.025268601  0.025484346            2 
 1274000    1.0437295   -7.6180217    386.42764  0.025276533  0.025476539            1 
 1275000     1.040062    -7.646899    386.62212   0.02526942  0.025468459            4 
 1276000    1.0379152   -7.6166599    387.21462  0.025288311  0.025460467            1 
 1277000    1.0518644   -7.5941866    386.82526    0.0252431   0.02545249            2 
 1278000    1.0566503   -7.5971072     387.7387   0.02528291  0.025444672            2 
 1279000    1.0394506   -7.5952346    389.52422  0.025379477  0.025436944            2 
 1280000     1.043197   -7.6156364    388.61872  0.025300698  0.025429258            4 
 1281000    1.0405069   -7.5996626    389.55717  0.025341996  0.025421568            2 
 1282000    1.0512348   -7.6258724    389.25714  0.025302726  0.025413903            5 
 1283000    1.0504333   -7.6189363    388.15323  0.025211304  0.025406299            3 
 1284000    1.0569975    -7.602123    389.48698  0.025278231  0.025398673            2 
 1285000    1.0489186   -7.5621113    389.96556  0.025289595  0.025391061            1 
 1286000    1.0391978   -7.5761099    390.75873  0.025321328  0.025383477            3 
 1287000    1.0499314   -7.5833343    389.26561  0.025204974  0.025375888            1 
 1288000    1.0350666   -7.5628295    389.76592  0.025217775  0.025368372            2 
 1289000    1.0698283   -7.5878826     390.3716  0.025237367  0.025360915            3 
 1290000    1.0446296   -7.6099813    390.61378  0.025233449  0.025353246            2 
 1291000    1.0652759   -7.6033327    391.01631  0.025239886  0.025345761            1 
 1292000    1.0541469   -7.6027468    391.42076  0.025246437   0.02533822            2 
 1293000    1.0612738   -7.5858813    390.32196  0.025156095  0.025330732            2 
 1294000    1.0517931   -7.6212005    391.87303  0.025236542  0.025323301            1 
 1295000    1.0526128   -7.6417755    391.59395  0.025199096  0.025315725            3 
 1296000    1.0431516   -7.6434379    392.26798  0.025222993  0.025308192            3 
 1297000    1.0441326   -7.6241726    393.22489  0.025265028   0.02530068            1 
 1298000    1.0432279   -7.6329227    391.65093  0.025144512  0.025292984            2 
 1299000     1.067238   -7.5909299    391.42278   0.02511052  0.025285356            1 
 1300000    1.0157251   -7.6040428    392.92391   0.02518743  0.025277796            2 
 1301000    1.0395574   -7.6024728     392.4557   0.02513808  0.025270156            2 
 1302000    1.0429641   -7.5892172    392.98297   0.02515252  0.025262527            3 
 1303000    1.0511018   -7.5896721    394.36309  0.025221482  0.025254909            3 
 1304000    1.0497568   -7.6449369    393.59745  0.025153211  0.025247262            3 
 1305000    1.0371118    -7.608219    392.69922  0.025076578  0.025239443            5 
 1306000     1.037786    -7.635344    392.92332  0.025071677  0.025231853            1 
 1307000    1.0369878   -7.6609824    392.39812  0.025019008  0.025224037            4 
 1308000    1.0344864   -7.6143753     392.9818  0.025037067  0.025216195            2 
 1309000    1.0411748   -7.6248408    393.53707  0.025053289  0.025208385            2 
 1310000    1.0455914   -7.5867082    395.05866  0.025130958  0.025200581            2 
 1311000    1.0536349   -7.6364451    392.48095  0.024947937  0.025192952            3 
 1312000    1.0193212   -7.5841429    395.11919  0.025096493  0.025185407            4 
 1313000    1.0540008   -7.6224596    395.48011  0.025100286   0.02517793            2 
 1314000    1.0247804   -7.5614663    395.85157  0.025104742  0.025170454            3 
 1315000    1.0510466   -7.6576782    395.49053  0.025062772  0.025162863            2 
 1316000    1.0341405   -7.6060814    396.11903  0.025083525  0.025155395            1 
 1317000    1.0339968   -7.6108124     396.4079  0.025082757  0.025148032            2 
 1318000    1.0638107   -7.6270482    395.72512  0.025020557  0.025140665            1 
 1319000    1.0471622   -7.6233963    396.39348  0.025043813   0.02513327            2 
 1320000    1.0351664   -7.6245188    396.37139  0.025023446  0.025125828            2 
 1321000    1.0789624   -7.6184291    398.08053  0.025112322  0.025118526            6 
 1322000    1.0688817   -7.6052437    397.58334  0.025061986  0.025111175            3 
 1323000    1.0511661   -7.6146698    398.47897  0.025099457  0.025103818            4 
 1324000    1.0398708   -7.6100516    398.22142  0.025064289  0.025096542            1 
 1325000    1.0543294    -7.615472    396.63481  0.024945586  0.025089226            5 
 1326000    1.0184196   -7.6549206    397.31284  0.024969384  0.025081737            1 
 1327000    1.0476787   -7.6170129    397.90223   0.02498758  0.025074349            2 
 1328000    1.0680581   -7.6253891     399.3111  0.025057172  0.025066846            2 
 1329000     1.048364   -7.6022743    397.74152    0.0249399  0.025059341            1 
 1330000    1.0460568   -7.6710643    396.85368  0.024865519  0.025051815            2 
 1331000    1.0492176   -7.6002046    399.22369  0.024995222  0.025044138            2 
 1332000    1.0374564   -7.6507259    399.32364   0.02498271  0.025036603            1 
 1333000    1.0209756   -7.6446494    398.63345  0.024920821  0.025028942            1 
 1334000    1.0472611   -7.6149837    398.13611  0.024871071   0.02502143            1 
 1335000     1.021403   -7.6150758    398.98608  0.024905498  0.025013808            3 
 1336000    1.0559682   -7.6375615    400.04606  0.024952973  0.025006263            1 
 1337000    1.0653185   -7.5817097    400.14431  0.024940433  0.024998816            3 
 1338000     1.029042   -7.5942539    399.19564  0.024862708  0.024991414            2 
 1339000    1.0245234   -7.6142441    400.25407  0.024910012  0.024983816            1 
 1340000    1.0281505   -7.6226317     400.2222   0.02488944  0.024976375            1 
 1341000    1.0442701   -7.6339285    400.47116  0.024886351  0.024969106            1 
 1342000     1.019975   -7.6415404     400.5761  0.024874323  0.024961793            2 
 1343000    1.0270853   -7.6393307    401.59546  0.024919053  0.024954513            2 
 1344000    1.0483891   -7.6474227    401.80114  0.024913265  0.024947148            2 
 1345000    1.0135921   -7.6222419    401.31351   0.02486453  0.024939798            2 
 1346000    1.0000451   -7.6067115    401.60352  0.024864012  0.024932397            6 
 1347000    1.0669172   -7.6548608    400.31003   0.02476553  0.024925101            3 
 1348000    1.0267837   -7.6399193    402.42374  0.024877827   0.02491763            4 
 1349000    1.0222899   -7.6233143    401.16356  0.024781539  0.024910234            2 
 1350000    1.0234467   -7.6402218    401.21791  0.024766538  0.024902864            1 
 1351000    1.0301105   -7.6492398    402.53342   0.02482935  0.024895436            3 
 1352000    1.0382966   -7.6505045     402.1426  0.024786896  0.024888005            1 
 1353000    1.0621493     -7.65526    401.34468  0.024719431  0.024880515            1 
 1354000    1.0153647    -7.627798     403.4175  0.024828748  0.024873074            1 
 1355000    1.0458077    -7.634243    403.85012   0.02483703  0.024865755            2 
 1356000    1.0374917   -7.6315133    403.56132  0.024800966  0.024858392            5 
 1357000    1.0387839   -7.6189948    403.51434  0.024779805  0.024851088            3 
 1358000    1.0454132   -7.6425271    404.50067  0.024822083  0.024843792            2 
 1359000    1.0457683   -7.6689894    403.47884   0.02474116  0.024836446            2 
 1360000    1.0261523   -7.6520082    404.96211  0.024813854  0.024829161            4 
 1361000    1.0584692   -7.6051513    405.67296  0.024839148  0.024821935            2 
 1362000    1.0391071   -7.6189226    404.54955  0.024752175  0.024814662            2 
 1363000    1.0218822   -7.6659472    405.05715   0.02476505  0.024807337            2 
 1364000   0.99831728   -7.6126748    406.63926  0.024843552  0.024800093            2 
 1365000    1.0083785   -7.6091897    404.68525  0.024706059  0.024792781            1 
 1366000    1.0316854   -7.6056241    406.25767  0.024783899  0.024785535            2 
 1367000    1.0580377   -7.6579219    405.31583  0.024708354  0.024778205            7 
 1368000    1.0401831   -7.5890118     405.8343  0.024721875  0.024770765            2 
 1369000    1.0248442   -7.6571461    406.45249  0.024741447  0.024763506            1 
 1370000    1.0475597   -7.6316934    407.49845   0.02478701  0.024756238            4 
 1371000    1.0340503   -7.6428302     407.0931  0.024744293  0.024748948            1 
 1372000    1.0315602   -7.6669231    405.85954  0.024651333   0.02474162            1 
 1373000    1.0304884    -7.635324    406.51008  0.024672862  0.024734348            1 
 1374000    1.0482423   -7.6298275     407.1594  0.024694286  0.024726901            2 
 1375000    1.0178733    -7.630776    407.43927  0.024693289  0.024719473            3 
 1376000    1.0112567   -7.6410148    407.02482  0.024650243  0.024711898            3 
 1377000    1.0504094   -7.6436005    405.78409  0.024557255  0.024704307            2 
 1378000    1.0335607   -7.6439195    406.82143  0.024602167  0.024696676            2 
 1379000    1.0288335   -7.6173855    407.77834  0.024642153  0.024689117            2 
 1380000     1.018952   -7.6134143    408.04168  0.024640198  0.024681743            2 
 1381000    1.0315473   -7.6171616    408.08726  0.024625106  0.024674524            2 
 1382000    1.0185172   -7.6250341    408.27652    0.0246187  0.024667116            2 
 1383000    1.0080376   -7.6293085    408.96503  0.024642386  0.024659888            1 
 1384000    1.0173938   -7.6494456    409.36139  0.024648446  0.024652621            1 
 1385000    1.0097118   -7.6100709    410.14057  0.024677531  0.024645328            1 
 1386000    1.0273614     -7.68022    408.66794  0.024571184  0.024638158            1 
 1387000    1.0461469   -7.6702111    408.65407  0.024552636   0.02463064            3 
 1388000    1.0332873   -7.6227998    409.32565  0.024575267  0.024623255            2 
 1389000    1.0394236   -7.6270452    408.75905  0.024523581  0.024615789            7 
 1390000    1.0184487   -7.6023354     410.6738  0.024620732  0.024608429            2 
 1391000    1.0382426    -7.659472    408.40062  0.024466848  0.024601004            1 
 1392000    1.0218497   -7.6260961    410.11632  0.024551983  0.024593631            2 
 1393000    1.0383385   -7.6089731     410.1331  0.024535361  0.024586176            4 
 1394000    1.0568903   -7.6416718    409.38248  0.024472889  0.024578734            2 
 1395000    1.0332656   -7.5953373    411.18372  0.024562946  0.024571303            3 
 1396000    1.0257476    -7.649112    410.52763  0.024506186  0.024563875            3 
 1397000    1.0182918   -7.6633923    410.12822  0.024464819  0.024556391            2 
 1398000    1.0468942   -7.6501239    409.76882  0.024425895  0.024548889            3 
 1399000    1.0405368   -7.6684343    410.91688  0.024476822  0.024541408            2 
 1400000    1.0497859   -7.6454715    411.05185  0.024467372  0.024534014            2 
 1401000     1.031597   -7.6284347     411.0376   0.02444906   0.02452651            1 
 1402000   0.99786654   -7.6428016    410.88231  0.024422391  0.024518886            2 
 1403000    1.0373071   -7.6474018    412.47792  0.024499758  0.024511329            1 
 1404000    1.0636039   -7.6473233    411.36244  0.024416099  0.024503859            4 
 1405000    1.0272484   -7.6396557    411.14502  0.024385826  0.024496302            1 
 1406000    1.0363151   -7.6454533    411.77573  0.024405864  0.024488778            4 
 1407000    1.0183581   -7.6491875    411.43038  0.024368063  0.024481205            1 
 1408000    1.0316942   -7.6722174    411.18579   0.02433628  0.024473539            2 
 1409000    1.0188494   -7.6351155    412.13615  0.024375216  0.024465854            1 
 1410000    1.0438389   -7.6596078    412.04395  0.024352479  0.024458245            1 
 1411000    1.0109758   -7.6855614    410.86662  0.024265687  0.024450624            4 
 1412000     1.041474   -7.6617302    412.66141  0.024354427  0.024442995            1 
 1413000    1.0441106   -7.6336614    414.35612  0.024437139  0.024435432            4 
 1414000    1.0155249    -7.613287    413.81435  0.024387928  0.024427939            3 
 1415000    1.0286066   -7.6660221    414.97995  0.024439337  0.024420504            3 
 1416000    1.0214016   -7.6830533    414.17074  0.024374455  0.024413007            3 
 1417000    1.0467086   -7.6327461    412.85805  0.024280055  0.024405485            5 
 1418000     1.025625   -7.6468811    414.69141  0.024370675  0.024398034            3 
 1419000    1.0074069   -7.6408935    414.22338  0.024326015  0.024390585            3 
 1420000     1.032512   -7.6637158    414.26037  0.024311055  0.024383012            1 
 1421000    1.0095545    -7.639903    414.18233   0.02428937  0.024375583            2 
 1422000    1.0144813   -7.6763044    414.31375   0.02427999  0.024368086            3 
 1423000    1.0173971   -7.6629418    414.99582  0.024302871  0.024360665            2 
 1424000    1.0219692   -7.6781042    414.07785  0.024232084  0.024353129            2 
 1425000    1.0193487   -7.6698502    415.49251  0.024297808  0.024345793            2 
 1426000    1.0150393   -7.6578606    416.44309  0.024336319  0.024338388            4 
 1427000    1.0438722   -7.6722454    416.36571  0.024314746  0.024331108            2 
 1428000     1.020097   -7.6668016    416.93488  0.024330934  0.024323788            3 
 1429000    1.0243579   -7.6482648    417.26242  0.024333008  0.024316534            1 
 1430000    1.0420732   -7.6481682    416.90167  0.024294969  0.024309335            3 
 1431000     1.016153   -7.6265668    416.89809  0.024277783  0.024302016            2 
 1432000   0.99631362   -7.6417836    417.84175  0.024315744  0.024294735            3 
 1433000    1.0370072   -7.6450056    418.32129  0.024326663   0.02428753            1 
 1434000    1.0311579    -7.687285     418.6962  0.024331485  0.024280258            2 
 1435000     1.016937   -7.6602544    417.68118  0.024255585  0.024272955            3 
 1436000    1.0181456   -7.6600743    418.30388  0.024274831  0.024265756            4 
 1437000    1.0257068   -7.6650804    418.43925  0.024265788  0.024258607            1 
 1438000    1.0137132   -7.6616876    418.77375  0.024268298  0.024251473            2 
 1439000     1.059738   -7.6342783    418.59539  0.024241104  0.024244302            2 
 1440000    1.0121477    -7.678866    418.03867  0.024192053  0.024237011            2 
 1441000    1.0301113   -7.6958276    416.59031  0.024091505  0.024229661            2 
 1442000    1.0064122   -7.6657355    417.93238  0.024152357  0.024222349            3 
 1443000    1.0137926   -7.6707391    417.74345  0.024124708  0.024215064            2 
 1444000    1.0433217    -7.644507    419.61425  0.024215965  0.024207838            2 
 1445000    1.0106219   -7.6987804    417.84077   0.02409693  0.024200422            1 
 1446000    1.0129215   -7.7076979    417.99412  0.024089103  0.024193038            4 
 1447000    1.0306097   -7.7072533    418.96961  0.024128635  0.024185549            1 
 1448000    1.0303038   -7.7039457    418.98167  0.024112665  0.024178138            2 
 1449000    1.0337286   -7.6563378    420.75678  0.024198112  0.024170911            1 
 1450000    1.0125367    -7.671538    420.23539  0.024151459  0.024163664            1 
 1451000    1.0463641   -7.6376016    420.89719  0.024172823  0.024156296            1 
 1452000    1.0042005   -7.6605752    420.83864  0.024152815  0.024149175            1 
 1453000    1.0253201   -7.6933076    420.51761   0.02411778  0.024141816            2 
 1454000    1.0261991   -7.6923685    420.10545   0.02407757   0.02413437            2 
 1455000    1.0068937    -7.639978    420.83102  0.024102578  0.024126985            1 
 1456000     1.013667   -7.6508408    420.93911  0.024092211  0.024119512            2 
 1457000    1.0153011   -7.6867708      420.538  0.024052734  0.024112036            4 
 1458000    1.0220195   -7.6608097    420.05768  0.024008783  0.024104498            2 
 1459000    1.0078009   -7.6758968    420.64729  0.024026005  0.024097048            1 
 1460000    1.0278677   -7.7110793    419.09363  0.023920869   0.02408942            1 
 1461000    1.0235373   -7.6680721    419.12743  0.023906424  0.024081807            2 
 1462000   0.99485683   -7.6347323    422.08943  0.024058905  0.024074263            3 
 1463000    1.0288835   -7.6338298    421.81016  0.024026553  0.024066929            2 
 1464000     1.003102   -7.6915951    421.33268  0.023982962  0.024059539            1 
 1465000   0.99567568   -7.6385634    423.15004  0.024069968  0.024052166            3 
 1466000     1.021493   -7.6497925    422.18059  0.023998442  0.024044739            3 
 1467000    1.0363237   -7.6825928    422.70595  0.024011926  0.024037315            1 
 1468000    1.0066801   -7.6624302     422.5929  0.023989152  0.024029899            1 
 1469000    1.0273658   -7.6734815    421.69961  0.023922147  0.024022435            2 
 1470000    1.0393198   -7.6430069     423.1457  0.023987851  0.024015069            3 
 1471000    1.0235537   -7.6830894    422.79092  0.023951446  0.024007742            6 
 1472000    1.0232262    -7.680323    422.84488  0.023938229  0.024000374            2 
 1473000    1.0092327   -7.6602815    425.02232  0.024045164  0.023993072            2 
 1474000     1.023836     -7.66363    424.11847  0.023977752  0.023985719            1 
 1475000    1.0165694   -7.6777452    424.18507  0.023965258  0.023978448            3 
 1476000    1.0077182   -7.6969955    424.29441  0.023955195  0.023971122            3 
 1477000   0.99941582   -7.6655427    423.23791  0.023879367   0.02396386            2 
 1478000    1.0325598    -7.672601    424.90225  0.023957051  0.023956393            4 
 1479000    1.0214861   -7.6664878    423.62474  0.023868872  0.023949095            1 
 1480000   0.98895226   -7.7160418     424.0693  0.023877776  0.023941762            3 
 1481000      1.02605   -7.6677341    424.62887  0.023893139  0.023934339            1 
 1482000    1.0283626   -7.6936461     423.4942  0.023813214  0.023926913            4 
 1483000    1.0218766    -7.668617    425.14528  0.023889935  0.023919454            2 
 1484000    1.0156397   -7.6905521    425.55626  0.023896915  0.023912077            1 
 1485000    1.0104861    -7.659681    426.37987  0.023927041  0.023904844            2 
 1486000    1.0045192   -7.6444519    425.60925  0.023867724  0.023897527            2 
 1487000     1.023501   -7.6981183    425.48671  0.023844805  0.023890164            1 
 1488000    1.0054236   -7.6420338    426.34998  0.023877127  0.023882753            4 
 1489000   0.99624245   -7.7022033    424.74664  0.023771359  0.023875289            2 
 1490000    1.0094644   -7.6435558    425.97827  0.023824288  0.023867967            1 
 1491000     1.023022   -7.6587982    427.00137  0.023865491  0.023860587            5 
 1492000    1.0045838   -7.7338871     424.9196  0.023733221  0.023853107            3 
 1493000    1.0133743    -7.700384    426.79963  0.023822261  0.023845591            2 
 1494000    1.0144366   -7.6634405    426.77741  0.023805076  0.023838215            3 
 1495000     0.987889   -7.6967635    425.92345  0.023741552  0.023830799            1 
 1496000    1.0089521   -7.6897119    427.18546  0.023795981  0.023823436            8 
 1497000    1.0049376   -7.6718249    427.91471  0.023820681  0.023815989            2 
 1498000    1.0263778   -7.6946612    427.82925  0.023800025  0.023808526            1 
 1499000    1.0011758   -7.6887406    427.75774  0.023780172  0.023801196            1 
 1500000    1.0056685    -7.670744    427.60536  0.023755853   0.02379388            3 
 1501000    1.0079378   -7.7367899    426.81103  0.023695927  0.023786498            2 
 1502000    1.0112009   -7.6917953    428.93527  0.023798006  0.023779027            6 
 1503000   0.99521782   -7.7031592    428.16357  0.023739386   0.02377164            2 
 1504000   0.95785492   -7.6717284    427.92163  0.023710196  0.023764342            2 
 1505000    1.0141507   -7.6855281    428.00749  0.023699197  0.023757055            2 
 1506000    1.0255468   -7.6979406    428.83162  0.023729063  0.023749635            1 
 1507000    0.9963691   -7.6925744    429.28154  0.023738196  0.023742353            1 
 1508000    1.0140131   -7.6908152     428.8133  0.023696579  0.023735085            1 
 1509000    1.0304723   -7.7221586    429.57255  0.023722805  0.023727799            1 
 1510000    1.0269069   -7.7373986    428.71228  0.023659618  0.023720496            3 
 1511000   0.99626281   -7.7270593     429.4812  0.023686367  0.023713253            5 
 1512000    1.0291631   -7.6958219    430.52017  0.023727963  0.023705969            3 
 1513000    1.0169624   -7.7042383    430.59278   0.02371628  0.023698816            2 
 1514000    1.0085714   -7.6976743    430.46482  0.023693572   0.02369167            2 
 1515000   0.99936759   -7.6784998    431.29215  0.023723441  0.023684586            2 
 1516000    1.0135742   -7.6704662    432.36001  0.023766491  0.023677671            2 
 1517000    1.0051078   -7.6903123    432.39039  0.023752494  0.023670637            2 
 1518000   0.99595978   -7.7061711    432.36261  0.023735321  0.023663718            3 
 1519000    1.0051108   -7.7194371    432.12256  0.023706526  0.023656848            1 
 1520000   0.99826245   -7.7024326    433.02682  0.023740505  0.023649958            5 
 1521000    1.0297716   -7.6883925    432.94226  0.023720264  0.023643131            8 
 1522000    1.0221785   -7.7105414    432.74802  0.023694044  0.023636311            2 
 1523000   0.97928226   -7.7306854    431.62817  0.023617212  0.023629283            2 
 1524000    1.0156976   -7.6975304     434.4455  0.023755769  0.023622341            1 
 1525000    1.0142274   -7.6877939    435.07066  0.023774353  0.023615464            2 
 1526000    1.0201607    -7.710967    433.54488  0.023675452  0.023608506            2 
 1527000    1.0114735    -7.666311     435.1567   0.02374791  0.023601611            2 
 1528000   0.99593482   -7.6849853    434.80154  0.023712998  0.023594795            2 
 1529000    1.0021276   -7.7398101    433.81372  0.023643652  0.023587906            3 
 1530000    0.9829278   -7.7289097    434.85751   0.02368505  0.023581039            2 
 1531000   0.98789872   -7.6902586    436.05296  0.023734648  0.023574135            1 
 1532000    1.0161259   -7.7249357     434.3471  0.023626365  0.023567399            1 
 1533000    1.0109001   -7.7130512    434.72205  0.023631335    0.0235606            2 
 1534000    1.0422718   -7.6975632    435.17725  0.023640659  0.023553738            1 
 1535000    0.9987461   -7.7068757    435.29593  0.023631701  0.023546852            1 
 1536000    1.0128353   -7.6706504    435.14044   0.02360788   0.02353996            1 
 1537000   0.98502011   -7.6613392    436.23179  0.023651691  0.023533108            2 
 1538000    1.0226681    -7.706761    436.90483   0.02367278  0.023526356            1 
 1539000    1.0104239   -7.6863879    436.49879  0.023635412  0.023519644            2 
 1540000   0.99102858    -7.694364    437.83855  0.023692562  0.023513008            2 
 1541000     1.027294   -7.6762118    439.12111  0.023746545  0.023506399            1 
 1542000    1.0170651   -7.7485873    435.97746  0.023561255   0.02349966            3 
 1543000   0.99564789   -7.7188089    438.11455  0.023661404  0.023493025            3 
 1544000    1.0007743   -7.6753095    437.20628  0.023597057  0.023486222            1 
 1545000    1.0090726   -7.7019518    437.41448  0.023593014  0.023479497            2 
 1546000     1.015529   -7.7002501    438.36444  0.023628959  0.023472742            4 
 1547000   0.99467719   -7.6927341    438.29771   0.02361009  0.023465959            2 
 1548000    1.0143789   -7.7134174    438.01947   0.02357986  0.023459217            1 
 1549000    1.0036709   -7.7073881    437.91439  0.023558984  0.023452429            3 
 1550000   0.99856591   -7.7068269    438.79175  0.023590955  0.023445725            1 
 1551000   0.98691056   -7.7386597    437.46132  0.023504261  0.023438903            2 
 1552000     1.029118   -7.6767072    439.89488  0.023619785  0.023432182            2 
 1553000     1.011599   -7.6732829    439.25544  0.023570264  0.023425587            4 
 1554000   0.98288279   -7.7027229    438.93248  0.023537778  0.023418858            3 
 1555000   0.99672382   -7.7227157     438.7768  0.023514298  0.023412148            2 
 1556000    1.0297025   -7.6522395    440.00169  0.023564786  0.023405398            3 
 1557000   0.98951836    -7.706673    439.38671  0.023516737  0.023398709            4 
 1558000    1.0307685   -7.7116747    439.98806  0.023533807  0.023391927            2 
 1559000    0.9877225   -7.7195454    439.40736  0.023487672   0.02338513            2 
 1560000    1.0021756   -7.6967752    439.11487  0.023456991  0.023378256       -1e+20 
 1561000   0.98223755   -7.7016684    439.59722  0.023467714  0.023371386            1 
 1562000   0.98562915   -7.7203628    440.33927  0.023492278    0.0233646            1 
 1563000    1.0109242   -7.7011445    439.54095  0.023434685  0.023357707            4 
 1564000   0.99302602   -7.7409139    440.33618  0.023462073  0.023350804            2 
 1565000    1.0081529   -7.7716134     438.5297  0.023350889  0.023343856            2 
 1566000    1.0001787   -7.7073063    439.70628  0.023398589  0.023336991            2 
 1567000   0.98914151   -7.6796221    441.99126  0.023505173  0.023330131            4 
 1568000     1.010922   -7.6938335    441.55366  0.023466925  0.023323388            1 
 1569000   0.98962473   -7.7144227    439.81516  0.023359632  0.023316511            1 
 1570000    1.0042618   -7.7335612    440.11859  0.023360859  0.023309613            3 
 1571000    1.0142513   -7.7455684    440.38797  0.023360278  0.023302628            2 
 1572000    1.0025251   -7.7524885    439.12884   0.02327867  0.023295573            2 
 1573000    1.0220099   -7.7016926    440.31311  0.023326611  0.023288602            2 
 1574000    1.0157825   -7.7286627    442.15325  0.023409215  0.023281639            4 
 1575000   0.99257229   -7.7269109    442.38393  0.023406557  0.023274675            2 
 1576000     1.018884    -7.700702    441.44073  0.023341832  0.023267612            3 
 1577000    1.0168479   -7.7169568    442.35503  0.023375345  0.023260705            2 
 1578000    0.9790344   -7.6757833    442.11552  0.023347884  0.023253815            2 
 1579000    1.0083316   -7.7177164    442.21506   0.02333835  0.023246866            2 
 1580000   0.99691041   -7.6896079    442.50101  0.023338661  0.023239905            2 
 1581000    0.9966362   -7.7491365    441.82404  0.023288216   0.02323292            5 
 1582000   0.97546103   -7.6784149    442.19884  0.023293239  0.023225893            1 
 1583000    1.0005951   -7.7496309    442.01756  0.023268981  0.023218807            4 
 1584000    1.0152681   -7.7514585    440.89535  0.023195252  0.023211805            3 
 1585000    1.0138523   -7.7065102    442.96593  0.023289481  0.023204766            3 
 1586000   0.98429561   -7.7037384     442.7959  0.023265863  0.023197689            2 
 1587000   0.99824221   -7.7523873    443.21858  0.023273398  0.023190627            1 
 1588000   0.98424072   -7.7500849    442.15182  0.023202761   0.02318359            4 
 1589000   0.99789379   -7.7040874    442.08725  0.023184773  0.023176582            2 
 1590000    1.0031838   -7.6718206    442.83133  0.023209189  0.023169617            2 
 1591000   0.99475911   -7.6802132    443.12049  0.023209747  0.023162561            3 
 1592000    1.0014437   -7.7069761    442.54458  0.023165022  0.023155471            2 
 1593000   0.99697573   -7.7404882    442.39525  0.023142668  0.023148482            1 
 1594000   0.98597057   -7.6963199    444.98495  0.023263538  0.023141499            2 
 1595000   0.99587005   -7.7250352    443.44794  0.023168649  0.023134539            1 
 1596000    1.0183296   -7.7396341    443.78395  0.023171676  0.023127531            2 
 1597000    1.0029237    -7.767702    444.02311  0.023169646   0.02312051            2 
 1598000    1.0190236   -7.7330251    444.21489  0.023165148   0.02311342            3 
 1599000    1.0021228   -7.7245967    443.77245  0.023127603  0.023106327            2 
 1600000   0.99843719   -7.7131982    444.55894  0.023154112  0.023099306            1 
 1601000   0.99642335   -7.7270056    443.61372   0.02309045  0.023092317            2 
 1602000   0.98245726   -7.7269668     445.2023  0.023158671  0.023085276            7 
 1603000    1.0002218   -7.7140287     444.5116  0.023108318  0.023078176            3 
 1604000    1.0066453   -7.7374981    444.79929  0.023108858  0.023071131            2 
 1605000   0.97886685   -7.7293211     444.3323  0.023070213  0.023063995            2 
 1606000   0.98347265   -7.7227959    445.38699  0.023110574  0.023056864            2 
 1607000    1.0023165   -7.7601226    443.07957  0.022976539  0.023049714            2 
 1608000   0.99056669   -7.7646481    442.77965  0.022946707  0.023042411            1 
 1609000   0.99153993   -7.7164411    444.37213  0.023014923  0.023035111            2 
 1610000    1.0032882   -7.7094921    444.49329  0.023006899  0.023027853            3 
 1611000   0.97873112   -7.7463056    444.24323  0.022979683  0.023020602            2 
 1612000     1.023608   -7.7333868    443.52909  0.022928509  0.023013328            2 
 1613000   0.99692447   -7.7497304    443.88336  0.022932598  0.023005969            2 
 1614000   0.99418497   -7.7492285    444.94593  0.022973251  0.022998581            2 
 1615000   0.98766266   -7.7270685    445.02615  0.022963166   0.02299119            2 
 1616000   0.98914083   -7.7318341    445.93867  0.022996013  0.022983806            2 
 1617000   0.99042677   -7.7278532    446.05208  0.022987635   0.02297661            1 
 1618000    1.0013672   -7.7068559    445.51365  0.022945697  0.022969368            1 
 1619000   0.99256474   -7.6777269    445.72007  0.022942149  0.022962147            2 
 1620000   0.98454423   -7.7109833    445.99321  0.022942038  0.022955095            2 
 1621000   0.97238862   -7.7302018    446.66183  0.022962257  0.022947908            2 
 1622000   0.97579507   -7.7517595    445.66826  0.022897054  0.022940594            2 
 1623000   0.97839939   -7.7413145    446.23776  0.022912187  0.022933386            7 
 1624000   0.97980808    -7.731751    447.17657  0.022946253  0.022926005            3 
 1625000   0.97213377   -7.6751907    450.06481  0.023080247  0.022918774            3 
 1626000    0.9837146   -7.6873507     447.2859  0.022923632  0.022911592            2 
 1627000   0.96847624   -7.7791348    445.91251  0.022839198  0.022904387            2 
 1628000   0.98963417   -7.7191366    447.34811  0.022898654  0.022897123            2 
 1629000    1.0130148   -7.7394113    448.03255  0.022919611   0.02288985            2 
 1630000    0.9963282   -7.7386787    446.88179  0.022846717  0.022882507            2 
 1631000   0.99842391   -7.7294269    447.09973  0.022843845  0.022875151            1 
 1632000    1.0006351    -7.754659    447.09214   0.02282946  0.022867843            3 
 1633000   0.98232007   -7.7433632    448.64083  0.022894511  0.022860597            2 
 1634000   0.97753779   -7.7142989    449.08381  0.022903091   0.02285343            3 
 1635000   0.98868373   -7.7506904    448.63864  0.022866393  0.022846334            2 
 1636000   0.98492201   -7.6929476    447.77406  0.022808377  0.022839145            2 
 1637000   0.99009646   -7.7537476    447.26938  0.022768753  0.022831916            2 
 1638000    0.9716554   -7.7108426    449.86888  0.022887102    0.0228248            2 
 1639000    1.0090544   -7.7284389    449.48295  0.022853516  0.022817732            5 
 1640000   0.97486365   -7.7251841    449.53299  0.022842123  0.022810599            2 
 1641000    0.9823285   -7.7681353    448.21926   0.02276149  0.022803428            2 
 1642000   0.97243717   -7.7241545     449.3899  0.022807039  0.022796304            3 
 1643000    1.0023451   -7.7596923    449.87768  0.022817898  0.022789077            2 
 1644000   0.99758872   -7.7594769    449.98483   0.02280945  0.022781907            4 
 1645000   0.97729659   -7.7604278    449.72515  0.022782429  0.022774709            2 
 1646000   0.97704688   -7.7618183    450.00827  0.022782922  0.022767701            4 
 1647000    1.0098359   -7.7411622    450.63438  0.022800768  0.022760543            1 
 1648000    0.9819122   -7.7572294    451.05691  0.022808298  0.022753416            2 
 1649000   0.97883704   -7.7198156    451.22287  0.022802854  0.022746385            1 
 1650000    0.9778479   -7.7685159    449.03948  0.022678761  0.022739336            1 
 1651000    0.9932147   -7.7527636    451.78415  0.022803561  0.022732256            2 
 1652000    1.0158046   -7.7480286    451.56346  0.022778625  0.022725171            3 
 1653000   0.97445107   -7.7337594    452.05331   0.02278954  0.022718072            1 
 1654000   0.97667915   -7.7496273    450.24585  0.022684696   0.02271102            3 
 1655000   0.99228802   -7.7645584    451.40876  0.022729545  0.022703957            2 
 1656000   0.98925136   -7.7095925    452.95355  0.022793556  0.022696851            1 
 1657000    1.0061137   -7.7548412    452.00397  0.022732044  0.022689732            4 
 1658000   0.98198465   -7.7786997    450.55444  0.022645479  0.022682592            1 
 1659000   0.97735701   -7.7616055    451.33762  0.022671168  0.022675319            4 
 1660000    1.0189651   -7.7764543    451.93303  0.022687401  0.022668047            2 
 1661000   0.97153826   -7.7794618    452.22766  0.022688524  0.022660813            2 
 1662000   0.98481153   -7.7542927    450.22841   0.02257463  0.022653558            2 
 1663000   0.97450741   -7.7513902    451.96948    0.0226483   0.02264633            4 
 1664000   0.99020358   -7.7382187    452.15814  0.022644138   0.02263909            1 
 1665000   0.99263484   -7.7441858    452.32028  0.022638653   0.02263184            4 
 1666000   0.97133873   -7.7602906    451.89118    0.0226036  0.022624566            1 
 1667000   0.97673149    -7.755528    451.25514  0.022558245  0.022617273            2 
 1668000   0.98335993   -7.7581009    453.39337  0.022651547  0.022609989            2 
 1669000   0.99459132   -7.7318101    452.71554  0.022604131  0.022602749            5 
 1670000   0.96742103   -7.7670804    451.89478   0.02254964  0.022595432            4 
 1671000    1.0024038   -7.7332248    453.39668  0.022611045  0.022588177            3 
 1672000   0.98428016   -7.7573703    453.39175  0.022597276  0.022580978            3 
 1673000   0.99841046   -7.7785053    453.74234  0.022601232  0.022573821            1 
 1674000   0.96728005   -7.7645342    453.13324  0.022557409  0.022566579            2 
 1675000    1.0037848   -7.7934515    452.95831  0.022535239  0.022559313            2 
 1676000   0.96945878   -7.7406304    454.54443  0.022600658  0.022552105            3 
 1677000   0.99572572   -7.7624701     454.8339  0.022601565   0.02254502            6 
 1678000   0.97127791   -7.7698844    454.09374  0.022551338   0.02253784            3 
 1679000   0.97646542   -7.7570133    454.80057  0.022572988  0.022530605            1 
 1680000   0.97970449   -7.7276003    455.56535  0.022597488  0.022523433            2 
 1681000    1.0025082     -7.74199    455.15258  0.022563582  0.022516317            3 
 1682000   0.94761081     -7.74186    456.35635  0.022609807   0.02250925            3 
 1683000   0.96878579   -7.7263987    455.12421  0.022535364  0.022502211            4 
 1684000    0.9689628   -7.7760268    455.94978  0.022562835   0.02249508            3 
 1685000    1.0049839   -7.7526406    455.06408  0.022505642  0.022487943            2 
 1686000   0.98146459   -7.7236822    456.15755   0.02254634  0.022480806            4 
 1687000   0.99268454   -7.7805605    456.61096  0.022555373  0.022473703            3 
 1688000   0.96516478    -7.789986    455.57362  0.022490799  0.022466581            4 
 1689000   0.97762364   -7.7740586    456.20453  0.022508611  0.022459549            5 
 1690000   0.97513071   -7.7908553    456.26322  0.022498186  0.022452495            6 
 1691000   0.98281307   -7.8154394    454.83411  0.022414454  0.022445446            1 
 1692000   0.98360928   -7.7771427    456.83123  0.022499568  0.022438464            1 
 1693000   0.98567333   -7.8005958    457.34307  0.022511472   0.02243153            2 
 1694000    1.0026218   -7.7484967    457.44767  0.022503329  0.022424557            5 
 1695000   0.97745802   -7.7808666    458.35138  0.022534483  0.022417577            7 
 1696000   0.97608153   -7.7307152    457.37115  0.022473032  0.022410567            3 
 1697000   0.97542869    -7.798958    457.37945  0.022460197  0.022403618            2 
 1698000   0.98212556   -7.7678455    458.52607  0.022503243   0.02239667            2 
 1699000    1.0007731   -7.7500894    458.44073  0.022485812  0.022389816            1 
 1700000   0.99239089    -7.760795    459.41431   0.02252031  0.022382956            2 
 1701000   0.96573592   -7.7633022    459.36439  0.022504624  0.022376062            1 
 1702000   0.97874976   -7.7847825    458.91324  0.022469313  0.022369137            4 
 1703000   0.96120264   -7.7555679    458.26028  0.022424167  0.022362178            2 
 1704000   0.97019012   -7.7631708    458.57599  0.022426447  0.022355233            3 
 1705000   0.98485542   -7.7745675    458.96559  0.022432336  0.022348388            1 
 1706000   0.96689839   -7.7490859    458.98756   0.02242026  0.022341383            2 
 1707000    0.9716222     -7.74036    458.10482  0.022364032  0.022334516            3 
 1708000   0.99154581   -7.7767873    458.79975  0.022384843  0.022327579            2 
 1709000   0.95031852   -7.7898069    458.25057  0.022344966  0.022320633            2 
 1710000   0.98576075   -7.7583122    459.58527  0.022396943  0.022313688            2 
 1711000   0.96834079     -7.74265    461.51689  0.022477931  0.022306797            3 
 1712000   0.97082389   -7.7593603    460.30008  0.022405573  0.022299885            3 
 1713000   0.99268507   -7.7639236    459.21498  0.022339705   0.02229296            2 
 1714000    1.0107975   -7.7925694    459.89237  0.022359606  0.022285994            1 
 1715000    0.9672719   -7.8060294    459.12399  0.022309232  0.022279009            3 
 1716000   0.98884142   -7.7898405    459.26899  0.022303273  0.022271943            2 
 1717000   0.97050301   -7.8159498    459.74549   0.02231341  0.022264998            2 
 1718000   0.95710062   -7.7798382    460.29373  0.022327014  0.022258044            2 
 1719000   0.97280165    -7.782023    460.48857  0.022323472  0.022250999            3 
 1720000   0.99092227   -7.8015863    460.68454  0.022319987  0.022243989            2 
 1721000   0.97784648   -7.7687992    461.80138  0.022361097  0.022237049            2 
 1722000   0.96467253   -7.7893255    460.61516  0.022290707  0.022230125            2 
 1723000   0.98728708   -7.7686808    461.58377  0.022324617  0.022223298            2 
 1724000   0.99607208   -7.7792023    460.63321   0.02226572  0.022216369            3 
 1725000   0.99811977   -7.7781699    461.36904   0.02228836  0.022209439            1 
 1726000   0.96711575   -7.7841017    461.00022  0.022257639  0.022202599            2 
 1727000   0.96128383    -7.756209    463.67487  0.022373811  0.022195728            1 
 1728000   0.98203857   -7.7757302    462.25291  0.022292289  0.022188873            1 
 1729000   0.97954733   -7.7945034    461.75611  0.022255451  0.022181999            1 
 1730000   0.97601959   -7.7694388    461.97944  0.022253345  0.022175108            2 
 1731000   0.97602444   -7.8099278    461.56822  0.022220692  0.022168239            3 
 1732000   0.98889105   -7.7857273     462.9139  0.022272609  0.022161433            3 
 1733000    1.0067198   -7.7877404    464.10028  0.022316805  0.022154684            2 
 1734000   0.98332518     -7.76941    464.25088  0.022311173  0.022147965            3 
 1735000   0.97941988   -7.7902227    463.66393  0.022270122  0.022141287            2 
 1736000   0.97927947    -7.736651     465.6491  0.022352587   0.02213468            3 
 1737000   0.98713457   -7.7384712    466.24038  0.022368086  0.022128085            2 
 1738000   0.97453172   -7.7420737    466.55267  0.022370189  0.022121486            2 
 1739000   0.94674041   -7.8008343    464.95671  0.022280847  0.022114879            1 
 1740000   0.95582594   -7.7870341    464.56409  0.022249238  0.022108151            2 
 1741000   0.98309691   -7.7837448    465.46193  0.022279434  0.022101414            2 
 1742000   0.99570147   -7.8108124    463.47482  0.022171585  0.022094693            4 
 1743000   0.96832881   -7.7811901    464.86719  0.022225435  0.022087926            2 
 1744000   0.97007416   -7.7844796    465.67951  0.022251506  0.022081154            1 
 1745000   0.94780551   -7.7987235    465.21128  0.022216393  0.022074368            3 
 1746000   0.96828796   -7.7692952    465.83439  0.022233409  0.022067554            1 
 1747000   0.96508889   -7.7962961    464.51989   0.02215798  0.022060843            2 
 1748000   0.97214327   -7.7836336    465.62663  0.022198066  0.022054206            2 
 1749000   0.97111384    -7.803028    466.11002  0.022208406  0.022047625            2 
 1750000   0.95325098   -7.8124499    465.92983  0.022187135  0.022040978            2 
 1751000     0.980878   -7.8182174    466.33465   0.02219373  0.022034302            2 
 1752000   0.96153049    -7.812514    467.14916  0.022219804  0.022027732            2 
 1753000   0.98208085   -7.7721088    466.19905  0.022161963  0.022021086            3 
 1754000   0.97501478   -7.8124555    466.48537  0.022162931    0.0220144            1 
 1755000   0.96315856    -7.787514    466.36074  0.022144385  0.022007736            1 
 1756000   0.96793921   -7.7991582    467.14167  0.022168834   0.02200104            1 
 1757000   0.98814996   -7.7868339    466.27693  0.022115203  0.021994378            3 
 1758000    0.9775967   -7.8002007    468.26851  0.022197028  0.021987725            2 
 1759000   0.97832427   -7.7754128     467.2312  0.022135266  0.021981098            1 
 1760000   0.99844015   -7.7759852    466.76177  0.022100463  0.021974462            2 
 1761000   0.97297556   -7.8432205    466.27644  0.022064946  0.021967835            2 
 1762000   0.97733279   -7.7968918    468.21223  0.022143976  0.021961099            2 
 1763000   0.96811748   -7.7755306    468.86828  0.022162426   0.02195437            2 
 1764000    0.9796818   -7.8425173    466.23544  0.022025484  0.021947603            3 
 1765000   0.95047611    -7.825227     468.0231  0.022097408  0.021940858            3 
 1766000   0.93869445   -7.8044955     467.2051  0.022046296   0.02193412            6 
 1767000   0.95808835   -7.7798776    468.71376  0.022104969  0.021927486            1 
 1768000    0.9876766   -7.8021997    469.44636  0.022126996  0.021920846            3 
 1769000   0.97890997   -7.7835826    468.04694  0.022048565  0.021914178            4 
 1770000   0.97582639   -7.8094091    468.26777  0.022046505  0.021907522            3 
 1771000   0.98068088   -7.8066013    468.44266  0.022042286  0.021900846            1 
 1772000   0.97099422   -7.7888995    469.90473  0.022098604  0.021894229            2 
 1773000   0.96473459   -7.7959676    469.84202  0.022083193  0.021887639            2 
 1774000   0.97843827   -7.8029435    470.21904  0.022088455  0.021881062            4 
 1775000   0.97361189   -7.7983717    468.43222  0.021992123  0.021874504            5 
 1776000   0.94728051   -7.7866361    471.35286  0.022116782  0.021867938            2 
 1777000   0.94033648    -7.791792    470.36037  0.022057793  0.021861384            3 
 1778000   0.95337415   -7.8167489        470.3  0.022042557  0.021854702            1 
 1779000   0.97070408   -7.8468284    469.09494  0.021973718  0.021848105            3 
 1780000   0.98521651   -7.8422049    468.90143  0.021952314  0.021841447            2 
 1781000   0.96149591   -7.7828523    470.75881  0.022026895  0.021834839            1 
 1782000   0.97363069   -7.8548675    470.28885  0.021992557  0.021828257            4 
 1783000   0.95505012   -7.8505842    469.91336  0.021962673  0.021821715            2 
 1784000   0.96709066   -7.8433171    469.69293  0.021940066  0.021815077            3 
 1785000   0.96656963   -7.7736413    472.29978  0.022049476  0.021808591            1 
 1786000   0.97245363   -7.7917965    471.84556  0.022015937  0.021802186            3 
 1787000   0.96821619   -7.7883093     471.9932  0.022010502  0.021795864            2 
 1788000   0.97224557   -7.8085159    472.23259  0.022009349  0.021789453            3 
 1789000   0.97489875     -7.84188    472.72866  0.022020154     0.021783            1 
 1790000   0.97568918   -7.8349699    472.02599  0.021975139  0.021776497            1 
 1791000   0.96285247    -7.827651    471.01595  0.021915873  0.021769938            1 
 1792000   0.99928782    -7.823446    472.39006  0.021967544  0.021763351            2 
 1793000   0.97001475   -7.8174082    473.17547  0.021991796  0.021756786            3 
 1794000   0.96104966   -7.8248062    472.02468  0.021926081  0.021750289            3 
 1795000   0.98728572   -7.8347762    471.77382   0.02190222  0.021743806            3 
 1796000   0.96714666   -7.8045179    472.70434  0.021933201  0.021737243            1 
 1797000   0.96077066   -7.7772771    472.61508  0.021916856  0.021730735            1 
 1798000   0.98279157   -7.8005521     473.5527  0.021948123  0.021724343            2 
 1799000   0.96450266   -7.8010743     474.1719  0.021964605  0.021717961            2 
 1800000   0.96768741   -7.8123218     474.4311  0.021964403  0.021711564            1 
 1801000    0.9688478   -7.8034175    474.10384  0.021937065  0.021705188            2 
 1802000   0.98649085   -7.7853825    475.15814  0.021973647  0.021698948            8 
 1803000   0.94823517   -7.8174782    475.21896  0.021964271  0.021692561            1 
 1804000   0.95606051   -7.7851014     475.5603  0.021967863  0.021686267            1 
 1805000   0.95979573   -7.7696781    476.38571    0.0219938  0.021680038            1 
 1806000   0.97392545   -7.8210098    475.51565  0.021941475  0.021673769            2 
 1807000   0.96661683   -7.8037423    476.49909  0.021974686  0.021667569            2 
 1808000   0.95801558   -7.8198954    475.91265  0.021935502  0.021661349            3 
 1809000   0.95745915   -7.8284605    476.45549  0.021948383  0.021655028            3 
 1810000   0.98873053    -7.815834    475.52293  0.021893321  0.021648785            1 
 1811000   0.97025328   -7.7703305    477.61243   0.02197738  0.021642578            1 
 1812000    0.9564417   -7.8217833    477.90047  0.021978498  0.021636435            4 
 1813000   0.97330676   -7.8201698    476.95771  0.021923042  0.021630295            1 
 1814000   0.98556093   -7.8650548     476.8181  0.021904543  0.021624114            2 
 1815000   0.96445035   -7.8266582    477.23276  0.021911514  0.021617901            2 
 1816000   0.94018345   -7.8097238     477.8102  0.021925945  0.021611733            4 
 1817000   0.95399083    -7.837945    476.75716  0.021865582  0.021605566            2 
 1818000   0.97522781   -7.8258311    476.48743  0.021841192  0.021599345            2 
 1819000   0.95834922    -7.807546    478.43222   0.02191828  0.021593098            2 
 1820000   0.98252364   -7.8191549    477.21199  0.021850366  0.021586893            3 
 1821000   0.94892875   -7.8513875    477.10543   0.02183349  0.021580659            3 
 1822000   0.93934663   -7.8756652     477.0355  0.021818309  0.021574303            3 
 1823000   0.96921667   -7.8331853    476.57368  0.021785229  0.021567992            2 
 1824000    0.9674706   -7.8168821    478.68104  0.021869565  0.021561702            2 
 1825000   0.94707034   -7.8082391    477.83482  0.021818942    0.0215555            5 
 1826000   0.94953884   -7.8058777    478.65581   0.02184446  0.021549256            4 
 1827000   0.96686182    -7.785923    478.87469  0.021842487  0.021543026            3 
 1828000   0.97102444   -7.8504309    478.07999   0.02179431  0.021536807            2 
 1829000    0.9464568   -7.8211407    478.78255  0.021814405   0.02153058            1 
 1830000    0.9578369   -7.8095465    479.52516  0.021836301  0.021524445            3 
 1831000   0.95726587   -7.8208804    478.40207   0.02177326  0.021518264            2 
 1832000   0.96278539   -7.8465639    480.62206  0.021862357  0.021512091            2 
 1833000   0.96253012   -7.8531372    479.53411  0.021800969  0.021505952            1 
 1834000   0.93998607   -7.8259979    480.21342  0.021819948  0.021499873            3 
 1835000   0.96675879   -7.8523863    479.65037  0.021782487  0.021493811            4 
 1836000   0.94245304   -7.8424614    481.49262   0.02185424  0.021487725            4 
 1837000   0.93795889   -7.7945596    481.31169  0.021834136  0.021481688            1 
 1838000   0.99083002   -7.8316472    481.48807  0.021830253   0.02147558            2 
 1839000   0.96253607   -7.8569448    479.44259  0.021725693  0.021469421            1 
 1840000   0.96894646   -7.8272158     480.7585  0.021773483  0.021463278            1 
 1841000   0.96892288   -7.8738889    480.73099   0.02176041  0.021457094            4 
 1842000    0.9561502   -7.8295805    481.11675  0.021766049  0.021450954            2 
 1843000   0.95359701   -7.8412604    481.43763  0.021768748  0.021444888            1 
 1844000    0.9571706   -7.8037956    481.22087  0.021747147  0.021438707            2 
 1845000   0.97120396   -7.8398169    481.76605  0.021759984   0.02143257            2 
 1846000   0.98069864   -7.8162717    483.34163  0.021819322  0.021426483            2 
 1847000   0.95544425   -7.8346352    481.74435  0.021735442  0.021420377            1 
 1848000   0.94870194   -7.8183079    481.83754  0.021727883  0.021414314            2 
 1849000   0.95622079   -7.8155101    482.98166  0.021767697  0.021408232            2 
 1850000   0.96927119    -7.844918    481.62263  0.021694713  0.021402152            3 
 1851000   0.95942643    -7.883608    481.24631   0.02166605  0.021396022            5 
 1852000   0.97442817   -7.8576996    482.05371  0.021690682  0.021389862            4 
 1853000   0.94217069    -7.839453     482.5958  0.021703355  0.021383789            2 
 1854000   0.97056139   -7.8291488    481.33014   0.02163476  0.021377743            4 
 1855000   0.94428398   -7.8415939    482.72365  0.021685699  0.021371649            1 
 1856000   0.93852359   -7.8494242    482.11027  0.021646474  0.021365569            2 
 1857000   0.94851626    -7.831759    481.44845  0.021605118  0.021359408            1 
 1858000   0.95883492   -7.8339497    482.23498  0.021628767   0.02135323            3 
 1859000   0.92595229   -7.8316419    482.29391  0.021619774  0.021347032            1 
 1860000   0.96576455   -7.8166633    483.06838  0.021642848  0.021340871            1 
 1861000    0.9498578    -7.839516    482.93493  0.021625243  0.021334713            1 
 1862000   0.96216756   -7.8518402    482.53823  0.021595875  0.021328456            1 
 1863000   0.96058525   -7.8140446    483.06494  0.021607843   0.02132225            1 
 1864000   0.94099802   -7.8595149    483.40321  0.021611374  0.021316011            5 
 1865000   0.96901868   -7.8044977     484.3884  0.021643807   0.02130978            1 
 1866000   0.94157713   -7.8286627    484.31895  0.021629106  0.021303595            2 
 1867000   0.92712385   -7.8482829    482.61187  0.021541326  0.021297438            2 
 1868000   0.93745095   -7.8441293    483.00479  0.021547323  0.021291284            6 
 1869000   0.97797467   -7.8178487    484.79231  0.021615495  0.021285088            7 
 1870000   0.96549037   -7.8626081    484.46191  0.021589212    0.0212789            3 
 1871000   0.96597365   -7.8004035    485.08962   0.02160563  0.021272784            4 
 1872000   0.94726618   -7.8133297    484.97161  0.021588836   0.02126669            2 
 1873000   0.93703462   -7.8474067    484.86219  0.021572441  0.021260543            2 
 1874000   0.95647719   -7.8462448    483.91903  0.021518989  0.021254324            2 
 1875000   0.95404876   -7.8695031     483.9814  0.021510284  0.021248086            1 
 1876000   0.95866193   -7.8049295    484.87042  0.021538309  0.021241866            3 
 1877000    0.9648503   -7.8735482    483.52092  0.021466921  0.021235622            3 
 1878000   0.96624445   -7.8573609    483.46436   0.02145298  0.021229367            2 
 1879000   0.96000887   -7.8426142     483.9092  0.021461292  0.021223091            2 
 1880000   0.94373846   -7.8591681    484.76452  0.021487789  0.021216906            2 
 1881000   0.94823739       -7.858    484.88879  0.021481871  0.021210682            3 
 1882000   0.93915814    -7.803435    485.43797  0.021494774  0.021204467            1 
 1883000   0.95383517   -7.8319952    484.67612  0.021449642  0.021198241            2 
 1884000   0.96392636   -7.8953886    484.87923  0.021447241  0.021192089            3 
 1885000   0.96922861   -7.8700785    485.37189  0.021457643  0.021185873            6 
 1886000   0.94296154   -7.8235177    485.88233   0.02146882   0.02117965            2 
 1887000    0.9514947   -7.8460044    485.56844  0.021443581   0.02117356            1 
 1888000   0.94353343   -7.8629955    486.19094  0.021459699  0.021167446            2 
 1889000   0.95857528   -7.8242799    487.66316  0.021513286  0.021161344            3 
 1890000   0.94051042    -7.880969     487.3542  0.021488281  0.021155189            2 
 1891000   0.93453914   -7.8545671    486.79476  0.021452263  0.021149056            2 
 1892000   0.95211186   -7.8615107    486.74268  0.021438631  0.021142927            2 
 1893000   0.96520174   -7.8860588    487.51198  0.021461172  0.021136786            2 
 1894000   0.92751807   -7.8669785    487.03823  0.021428996  0.021130611            4 
 1895000   0.95898804   -7.8907436    486.58043  0.021397556  0.021124445            3 
 1896000   0.92838067    -7.841148     487.3205  0.021418798   0.02111835            1 
 1897000   0.94162751   -7.8953687    486.29879  0.021362625  0.021112195            1 
 1898000   0.94723446   -7.8704072    485.93812  0.021335534  0.021105988            1 
 1899000   0.94909901   -7.8596466    487.90348  0.021410544  0.021099777            2 
 1900000   0.97596238   -7.8513157    488.14525  0.021409879  0.021093667            2 
 1901000   0.94877168   -7.8755799     488.2795  0.021404502  0.021087529            3 
 1902000    0.9503174   -7.8546433    487.58292  0.021362729   0.02108135            1 
 1903000   0.93832754   -7.8539099    488.92397  0.021410228  0.021075228            3 
 1904000   0.92702644   -7.8786508     489.1902  0.021410636  0.021069084            2 
 1905000   0.93890064   -7.8645971    488.57193  0.021372351  0.021062912            2 
 1906000   0.97785354   -7.8367561    488.37055  0.021352333  0.021056727            2 
 1907000   0.95809168   -7.8510237    487.97067  0.021323661  0.021050608            2 
 1908000    0.9452205   -7.8160893    488.83305  0.021350151  0.021044493            1 
 1909000   0.94464348    -7.855331     488.5556  0.021326855  0.021038373            2 
 1910000   0.95542604   -7.8708917    488.38667  0.021308319   0.02103222            2 
 1911000    0.9293526   -7.8398719    489.48035  0.021344861  0.021026039            1 
 1912000   0.94511568   -7.8531615    488.44141  0.021288416  0.021019828            3 
 1913000   0.96030117   -7.8786792    488.27102  0.021269865  0.021013613            2 
 1914000   0.94677543   -7.8609495    488.72297   0.02127843  0.021007397            1 
 1915000   0.93527429   -7.8790195    489.31147  0.021292927  0.021001165            1 
 1916000   0.94349049    -7.878646    487.99653  0.021224623  0.020994983            5 
 1917000   0.93406954   -7.8831145    489.49552  0.021278713  0.020988761            2 
 1918000   0.92152362   -7.8645098    488.55317  0.021226676  0.020982604            2 
 1919000   0.94818722   -7.8914272    490.66614  0.021307371  0.020976464            2 
 1920000   0.93543071   -7.8347584    491.31599  0.021324479  0.020970332            2 
 1921000   0.93947103   -7.8680378    489.28747   0.02122538   0.02096421            1 
 1922000   0.94360944   -7.8603731    490.22789  0.021255111  0.020958176            5 
 1923000    0.9431479   -7.8804094    491.03289  0.021278943  0.020952062            1 
 1924000   0.94677807   -7.8676389    490.44861  0.021242577   0.02094588            1 
 1925000   0.93442649   -7.8485072    490.75972  0.021245009  0.020939713            1 
 1926000    0.9289496   -7.8822819    490.33243  0.021215491  0.020933511            4 
 1927000   0.96146552   -7.8864482    489.12435  0.021152238  0.020927247            2 
 1928000   0.92679638   -7.8905437    489.25325  0.021146838  0.020921028            2 
 1929000   0.92527625   -7.8822435    490.23081  0.021178106  0.020914777            2 
 1930000   0.94157002   -7.8567183    490.23224  0.021167195  0.020908591            1 
 1931000   0.94394355   -7.9405873    489.40071  0.021120348  0.020902354            2 
 1932000   0.94364568   -7.9028995    490.16087  0.021142205  0.020896048            3 
 1933000   0.94111631   -7.9018374    489.87374  0.021118889  0.020889658            1 
 1934000   0.92644627   -7.8603867    490.05859  0.021115934  0.020883373            2 
 1935000    0.9593894   -7.8526047    489.80921  0.021094281  0.020877126            3 
 1936000   0.90643907    -7.862396    491.69498  0.021164557  0.020870785            1 
 1937000   0.93929875   -7.8703845    491.27215  0.021135439  0.020864503            2 
 1938000   0.94287378   -7.8770189    490.98577  0.021112219  0.020858228            4 
 1939000   0.94663105   -7.8845579    491.32306  0.021115827  0.020851931            1 
 1940000   0.96357436    -7.841162    490.97086  0.021089814  0.020845674            1 
 1941000   0.96116409   -7.8779179     491.9884  0.021122634  0.020839498            1 
 1942000    0.9400074   -7.8698341    492.58965  0.021137558  0.020833289            3 
 1943000   0.94443226   -7.8953684     492.5124  0.021123366   0.02082704            2 
 1944000   0.94651122   -7.8795478    491.16506  0.021054744  0.020820811            2 
 1945000   0.96815454   -7.9136362    491.89771  0.021075309  0.020814551            2 
 1946000   0.93954925   -7.8728548    492.35671  0.021084135  0.020808307            2 
 1947000   0.92752391     -7.87182    492.09821  0.021062241  0.020802116            1 
 1948000   0.93752102   -7.8950927    491.87343  0.021041813    0.0207958            3 
 1949000   0.93989083   -7.8884669    491.27581  0.021005465  0.020789497            2 
 1950000   0.95131276   -7.8886841    491.14777  0.020989221  0.020783193            1 
 1951000   0.95269668   -7.8870345    492.62032   0.02104136  0.020776844            3 
 1952000   0.95965318   -7.8828935     492.5172  0.021026178  0.020770535            3 
 1953000   0.95236397   -7.9036581    492.22193  0.021002813  0.020764208            3 
 1954000    0.9577559   -7.8683003    491.00522  0.020940175  0.020757826            1 
 1955000   0.93825555   -7.9204818    491.75117   0.02096126    0.0207515            2 
 1956000   0.95529909   -7.8671712     492.9672  0.021002352  0.020745157            2 
 1957000   0.94917976    -7.910849    491.35251  0.020922863  0.020738842            3 
 1958000   0.94391425   -7.8769041    493.42626  0.021000437  0.020732497            3 
 1959000   0.92273963   -7.8807775    492.81202  0.020963588  0.020726194            2 
 1960000   0.93371301   -7.8936205    492.67936  0.020947252  0.020719874            2 
 1961000   0.96589539   -7.9410481     492.6628  0.020935866  0.020713541            3 
 1962000   0.94045848    -7.926293    492.54019  0.020919988  0.020707199            4 
 1963000   0.92627732   -7.8875123    492.01012  0.020886828  0.020700929            2 
 1964000   0.93947864   -7.9122195    493.20265  0.020926793  0.020694676            4 
 1965000   0.92442446   -7.8826353    494.59622  0.020975243   0.02068837            1 
 1966000   0.93956107   -7.9072059     493.3045  0.020909821  0.020682113            2 
 1967000   0.91320031   -7.8894227    493.58631   0.02091113  0.020675765            2 
 1968000   0.96701443   -7.8980945    492.32947  0.020847284  0.020669428            2 
 1969000   0.91850747   -7.8535294    493.43841   0.02088363   0.02066304            2 
 1970000   0.93225682   -7.8895899    493.46558  0.020874179   0.02065672            2 
 1971000   0.94473748   -7.8935967     494.5152  0.020907966  0.020650421            3 
 1972000   0.95286463    -7.919797    493.21284  0.020842327  0.020644125            3 
 1973000   0.95491871   -7.8805757    494.76039  0.020897128  0.020637858            3 
 1974000   0.95462479   -7.8810848    494.62187  0.020880694  0.020631613            1 
 1975000   0.95581646   -7.8558153    495.14065  0.020892011  0.020625329            1 
 1976000   0.93389435   -7.9079469     495.1113    0.0208802  0.020619097            1 
 1977000   0.92988243   -7.8597119    495.54704  0.020888005  0.020612835            6 
 1978000   0.93987765   -7.8789094     495.2579  0.020865264  0.020606521           10 
 1979000   0.93303932   -7.8641689    496.95887  0.020926346   0.02060022            3 
 1980000   0.91106338   -7.9171033    494.63471  0.020817959  0.020593879            2 
 1981000   0.95814306    -7.887447    494.98333  0.020822115  0.020587519            2 
 1982000   0.93128994   -7.8847466    494.10048  0.020774491   0.02058124            1 
 1983000   0.95545177   -7.8476572    495.68327  0.020830529  0.020574946            3 
 1984000   0.91421783   -7.9096157    495.06789  0.020794182  0.020568617            2 
 1985000   0.92446282   -7.9204108    494.43938  0.020757321  0.020562297            4 
 1986000   0.94844689   -7.9157229    495.34207  0.020784746  0.020555952            2 
 1987000   0.92872335   -7.8939242    495.94417  0.020799537  0.020549648            4 
 1988000   0.93845049   -7.9229634    494.92788  0.020746474  0.020543352            5 
 1989000   0.95166901   -7.8966929    496.58491  0.020805468  0.020536988            4 
 1990000   0.92420771   -7.9133986    495.85246  0.020764341  0.020530676            6 
 1991000   0.91368746    -7.927171    494.47685  0.020696335  0.020524282            3 
 1992000   0.92716526   -7.9122352    495.98908  0.020749209  0.020517907            1 
 1993000   0.94923726   -7.9411459    494.94068  0.020694961  0.020511486            3 
 1994000   0.93130444   -7.9137044    495.81361  0.020721064   0.02050501            3 
 1995000   0.93330058   -7.9377166    495.16782  0.020683702  0.020498536            4 
 1996000   0.93116073   -7.9085599    496.33314  0.020721992  0.020492075            3 
 1997000   0.94327139   -7.8992759    495.43668  0.020674206  0.020485706            1 
 1998000    0.9462332   -7.9491428    495.95529  0.020685489  0.020479363            2 
 1999000   0.93155102    -7.911632    495.98246  0.020676274  0.020472988            1 
 2000000   0.93666593   -7.9239672    496.82788  0.020701161  0.020466632            1 
 2001000   0.92375984   -7.8954632    497.30848  0.020710831  0.020460296            3 
 2002000   0.92095936   -7.9200761    496.00277  0.020646136  0.020453962            1 
 2003000   0.93057491   -7.9185067    495.95742  0.020633942  0.020447534            2 
 2004000   0.93421284   -7.8655772    496.92607  0.020663925  0.020441201            2 
 2005000   0.93304705   -7.8497887    498.06969  0.020701151  0.020434922            1 
 2006000   0.95836399   -7.9117386    497.31082  0.020659306  0.020428677            4 
 2007000   0.93185213    -7.859364    497.49026  0.020656463  0.020422437            1 
 2008000   0.91995661   -7.9084843    498.15053  0.020673578  0.020416166            5 
 2009000    0.9314513   -7.8910786     498.6823  0.020685345  0.020409929            2 
 2010000    0.9342559   -7.8988764    496.87236  0.020600015  0.020403648            9 
 2011000   0.92194769   -7.9055764    497.95686  0.020634712  0.020397386            1 
 2012000   0.92148584   -7.8984439    498.83514  0.020660833  0.020391149            5 
 2013000   0.93289537   -7.8630244    500.38387  0.020714682  0.020384958            5 
 2014000   0.92240463   -7.9041022    498.26617  0.020616773  0.020378684            1 
 2015000   0.92734129   -7.8658121    499.11785  0.020641764  0.020372423            8 
 2016000   0.94840134   -7.8929476    499.25012  0.020636992  0.020366239            4 
 2017000   0.94954292   -7.9027398    498.49629  0.020595616  0.020360001            3 
 2018000   0.92709373   -7.9002582    499.76729  0.020637896  0.020353799            3 
 2019000   0.91305587   -7.9037022    499.67187  0.020623736  0.020347586            5 
 2020000   0.91989906   -7.9093648    498.99281  0.020585512  0.020341382            2 
 2021000   0.94466231   -7.9055817    499.58184  0.020599614  0.020335199            1 
 2022000   0.90619821   -7.9025506    498.39052  0.020540328  0.020328991            1 
 2023000   0.93556641   -7.9295119    499.86652  0.020590976  0.020322754            1 
 2024000   0.91401245   -7.8917663    501.17817  0.020634806  0.020316583            3 
 2025000   0.92736411   -7.9364239    501.75156  0.020648212  0.020310455            2 
 2026000   0.92987547   -7.9077964    500.72497  0.020595795  0.020304327            2 
 2027000   0.90025564   -7.8904919    501.63704  0.020623131  0.020298224            3 
 2028000   0.91882358   -7.9104038    500.46743  0.020564901  0.020292196            3 
 2029000   0.94253684   -7.9113933    499.75654  0.020525569  0.020286064            4 
 2030000   0.91103624   -7.8775933    502.26036  0.020618242  0.020279871            2 
 2031000     0.936511   -7.9005591    501.45678  0.020575118  0.020273688            1 
 2032000   0.92877714   -7.9513562    500.16765  0.020512125  0.020267495            3 
 2033000   0.92756695   -7.9085886    501.94523  0.020574899   0.02026128            4 
 2034000   0.92878274   -7.9018323    501.21079  0.020534693  0.020255106            2 
 2035000   0.93892623   -7.9204847    500.97751  0.020515049  0.020248937            1 
 2036000   0.93448978   -7.9330444    501.65039  0.020532515  0.020242806            3 
 2037000    0.9213527    -7.932518    501.85301  0.020530724  0.020236703            1 
 2038000   0.93060134   -7.9124524    501.07082  0.020488666  0.020230509            2 
 2039000   0.92384608   -7.9344594    501.54363  0.020497941  0.020224301            3 
 2040000   0.91543425   -7.9255467      502.108  0.020510948  0.020218076            5 
 2041000   0.94129617   -7.9496089    500.83597  0.020448962  0.020211828            6 
 2042000   0.92843905   -7.8993461    502.21787  0.020495342  0.020205626            3 
 2043000   0.89624195   -7.9505173    501.01406  0.020436207  0.020199489            4 
 2044000   0.92219516   -7.9111635    501.82975  0.020459465  0.020193301            3 
 2045000    0.9286192   -7.9427064    501.76994  0.020447023  0.020187196            1 
 2046000   0.91315643    -7.906146    504.05117  0.020529943  0.020181057            2 
 2047000   0.92392805   -7.9174839    503.50114  0.020497522  0.020174933            7 
 2048000   0.90865518   -7.8972479    503.36093  0.020481809  0.020168883            4 
 2049000   0.93059593   -7.9372238    502.78829  0.020448523  0.020162787            2 
 2050000   0.91264266   -7.9342539    502.30641   0.02041896  0.020156738            3 
 2051000   0.94120132   -7.9287756     503.5708  0.020460377  0.020150739            4 
 2052000   0.92431302   -7.8948203    503.33912  0.020440998  0.020144664            1 
 2053000   0.91560834   -7.9613405    502.40763  0.020393231  0.020138571            2 
 2054000   0.93436894   -7.9729963    503.29736    0.0204194  0.020132451            5 
 2055000   0.93178867    -7.907531    504.35446   0.02045233  0.020126356            2 
 2056000   0.93663786   -7.9226552    503.48591  0.020407179  0.020120238            2 
 2057000   0.92535341   -7.9569398    502.36131  0.020351698  0.020114112            3 
 2058000   0.92688086   -7.9192521     504.2978  0.020420222  0.020107981            2 
 2059000   0.92941391   -7.9380045    503.71077  0.020386546  0.020101855            5 
 2060000   0.91050675    -7.916592    504.02052  0.020389179  0.020095767            2 
 2061000   0.92872996   -7.9078035    504.67717  0.020405837  0.020089692            3 
 2062000   0.91527363   -7.9308941    504.26263  0.020379188  0.020083632            2 
 2063000   0.91538868   -7.9210466    504.82546  0.020392045  0.020077577            2 
 2064000    0.9235077   -7.9044599    504.21325  0.020357447  0.020071463            2 
 2065000   0.91072104   -7.9200485    505.21928  0.020388187  0.020065371            2 
 2066000   0.91893898   -7.9071104     504.5813  0.020352585  0.020059306            4 
 2067000   0.93248392   -7.9426977     505.0206   0.02036045  0.020053163            4 
 2068000   0.95352375   -7.8852268    505.67472  0.020376963  0.020047063            3 
 2069000    0.9271866   -7.8956927    505.05735  0.020342249  0.020040943            9 
 2070000   0.92847686   -7.8890558    505.21588  0.020338803  0.020034898            5 
 2071000   0.92740635   -7.9177576    504.68115  0.020307466  0.020028797            2 
 2072000   0.91878065   -7.9314094     504.8142  0.020303017    0.0200227            2 
 2073000    0.9325125   -7.8783939    505.52744  0.020321894  0.020016582            3 
 2074000   0.92293222   -7.8968748    506.06217  0.020333581   0.02001049            3 
 2075000   0.92195329   -7.9257854    505.11034  0.020285556  0.020004346            3 
 2076000   0.90368806   -7.9411233    505.47515  0.020290428  0.019998188            3 
 2077000   0.92119082   -7.9475122    505.43976  0.020279239  0.019992018            1 
 2078000   0.91698091   -7.8783121    505.58656  0.020275367  0.019985894            2 
 2079000   0.93877353   -7.9680895    505.38334  0.020257469  0.019979754            3 
 2080000   0.92290844   -7.9433198    506.45005  0.020290467  0.019973592            2 
 2081000   0.92388962   -7.9388535     505.4936  0.020242415  0.019967492            3 
 2082000   0.92731259   -7.9491986    506.86985  0.020287778   0.01996138            2 
 2083000   0.93154652   -7.9664127    507.07941  0.020286422  0.019955268            2 
 2084000   0.91029696   -7.9327401    505.85692  0.020227804   0.01994913            2 
 2085000   0.90950196   -7.9247251    506.31669  0.020236478  0.019943021            2 
 2086000   0.90579088   -7.9246231    506.64834  0.020240026  0.019936979            2 
 2087000   0.91292697   -7.9210685    507.16744  0.020251056  0.019930963            3 
 2088000   0.90991117   -7.9488142    506.65523  0.020220914  0.019924931            2 
 2089000   0.89649254   -7.9597624    507.11592  0.020229612  0.019918824            3 
 2090000   0.92292939   -7.9785054    506.37717  0.020190477  0.019912777            2 
 2091000   0.91260716   -7.9599711    506.94415  0.020203417  0.019906747            3 
 2092000   0.90040099    -7.973382    506.45053  0.020174097  0.019900613            3 
 2093000   0.94185037   -7.9233899    506.96281  0.020184855  0.019894567            2 
 2094000   0.90971866   -7.9596875    506.25483  0.020147041  0.019888442            2 
 2095000   0.93368059    -7.953846    506.97697  0.020166148  0.019882323            2 
 2096000   0.91802825   -7.9593534    507.43153    0.0201746  0.019876228            2 
 2097000   0.89718543   -7.9403071    507.71186  0.020176119  0.019870104            2 
 2098000   0.92865151   -7.9498821    508.17475  0.020184888   0.01986399            1 
 2099000   0.92757276   -7.9413775    507.76038  0.020158821  0.019857884            3 
 2100000   0.91528547   -7.9538005    508.40996  0.020174998  0.019851879            2 
 2101000    0.9025707    -7.895936    509.85337  0.020222647  0.019845863            3 
 2102000   0.90523089   -7.9807256    508.60752  0.020163634  0.019839836            2 
 2103000   0.91346317   -7.9227025     510.0063  0.020209474   0.01983382            2 
 2104000   0.90873888    -7.934476    510.32375  0.020212443  0.019827817            1 
 2105000   0.92528048   -7.9279558    509.48227  0.020169528  0.019821806            6 
 2106000   0.92154236   -7.9761954    508.52668  0.020122138  0.019815796            2 
 2107000   0.92114109   -7.9516931    509.19464  0.020139006  0.019809803            1 
 2108000   0.90730929   -7.9417989    508.88048  0.020117033  0.019803851            2 
 2109000   0.91316103   -7.9390291    509.33902  0.020125613  0.019797872            2 
 2110000   0.91079218   -7.9327759     508.2493  0.020073037  0.019791874            3 
 2111000   0.91848133   -7.9638816    508.89006  0.020088823  0.019785845            5 
 2112000    0.9135875   -7.9408457    510.07842    0.0201262  0.019779793            4 
 2113000   0.89818454   -7.9630345    509.23739  0.020083507  0.019773718            3 
 2114000   0.90072905   -7.9588305    509.92911  0.020101274  0.019767683            4 
 2115000   0.89837853   -7.9528867    509.65572  0.020080997  0.019761681            2 
 2116000   0.91346348   -7.9190828       509.54   0.02006695  0.019755642            2 
 2117000   0.91479151   -7.9616592    510.00134  0.020075631  0.019749607            2 
 2118000   0.89941132   -7.9170221    509.49506  0.020046233  0.019743573            3 
 2119000   0.92991169   -7.9795066     507.9935  0.019977721  0.019737518            2 
 2120000   0.89191208   -7.9435309    509.11313  0.020012308   0.01973139            3 
 2121000   0.91307345   -7.9853951    509.54985  0.020020032  0.019725238            3 
 2122000   0.90045092   -7.9692772    509.01142  0.019989453  0.019719094            2 
 2123000   0.91944198   -7.9672611    509.62381  0.020004075  0.019712982            3 
 2124000   0.90337087   -7.9367936    510.09935  0.020013314  0.019706874            5 
 2125000   0.90390583   -7.9755173    508.52647  0.019942214   0.01970074            1 
 2126000   0.90524559   -8.0138376    509.31117  0.019963592  0.019694605            1 
 2127000   0.91605113   -7.9675923    511.20368  0.020028353  0.019688462            2 
 2128000   0.89889574   -7.9773413    509.49355  0.019951972  0.019682327            2 
 2129000   0.92087829   -7.9167203    511.03256   0.02000284  0.019676221            3 
 2130000    0.9065596   -7.9429532    510.25074  0.019962861  0.019670151            5 
 2131000   0.90140265   -7.9272354    510.28402  0.019954795  0.019664082            1 
 2132000   0.91663645   -7.9347811    510.29425  0.019945835  0.019657971            1 
 2133000    0.9279935   -7.9817798    509.71886  0.019914004  0.019651804            2 
 2134000   0.90370795   -7.9484272    510.43993  0.019932831  0.019645645            1 
 2135000   0.88889814   -7.9597527    509.62347  0.019891626  0.019639479            2 
 2136000   0.90239139   -7.9200713     511.3539  0.019949824  0.019633301            2 
 2137000   0.91572433   -7.9400354    509.92956  0.019884946  0.019627181            2 
 2138000   0.90881026   -7.9475442     509.4775  0.019858026  0.019621002            3 
 2139000   0.91476772   -7.9619521    509.11772  0.019834725  0.019614805            2 
 2140000   0.92239711   -7.9559862    510.10489  0.019863898  0.019608645            3 
 2141000   0.90785021   -7.9466544    511.10999  0.019893741  0.019602498            1 
 2142000   0.92238248   -7.9623723    510.24424  0.019850772  0.019596369            4 
 2143000    0.9090875    -7.967323    510.34747  0.019845523  0.019590236            6 
 2144000   0.91546971   -7.9517138    512.35259  0.019914202  0.019584149            2 
 2145000    0.9206194   -7.9290018    512.27808  0.019902023  0.019578075            2 
 2146000   0.91423569   -7.9542035    510.77464  0.019834368  0.019571961            1 
 2147000   0.91376141   -7.9291401    511.45512  0.019851542    0.0195659            3 
 2148000   0.89708498   -7.9423246     510.8481   0.01981875  0.019559832            2 
 2149000   0.91316419   -7.9537661    510.69166  0.019803461  0.019553786            5 
 2150000   0.93322068   -7.9864699    512.01088  0.019845383  0.019547651            2 
 2151000   0.89227768   -7.9490953    511.21845  0.019805457  0.019541511            2 
 2152000   0.90804978   -7.9534939    512.82227  0.019858359  0.019535366            3 
 2153000   0.92178129    -7.979218    511.63247  0.019803084  0.019529223            3 
 2154000   0.92226078    -7.966825    510.79468  0.019761478  0.019523086            1 
 2155000   0.90340372   -7.9758725    511.84871  0.019793067  0.019516946            3 
 2156000   0.89880365   -7.9462598    512.13787  0.019795063  0.019510789            2 
 2157000   0.90604041   -7.9532083    511.62286  0.019765989  0.019504701            2 
 2158000   0.92103547    -7.981101    511.42775  0.019749295  0.019498546            4 
 2159000   0.91297967   -7.9841255    511.15498  0.019729619  0.019492302            4 
 2160000   0.90056206   -7.9484514    512.07741  0.019756073  0.019486055            2 
 2161000   0.90384148   -7.9856136    511.66482   0.01973102  0.019479812            3 
 2162000   0.90983484   -8.0052247    510.53097   0.01967819  0.019473565            2 
 2163000   0.92594896   -7.9821147    512.23229  0.019734639  0.019467353            2 
 2164000   0.91249024   -7.9282616    513.90089  0.019789776  0.019461205            3 
 2165000   0.90366002   -7.9592513    512.52594  0.019727711  0.019455054            3 
 2166000   0.91589388   -7.9846491    511.37709  0.019674403  0.019448903            2 
 2167000   0.88461767   -7.9508123    513.12459  0.019732525   0.01944273            3 
 2168000   0.90963603   -7.9417982    512.38543  0.019695012  0.019436624            3 
 2169000   0.91617736   -7.9529046    513.12634  0.019714397  0.019430476            3 
 2170000   0.92666439    -7.983097    513.24786  0.019709979  0.019424341            3 
 2171000   0.88825195   -7.9262908    513.99883  0.019729726   0.01941823            3 
 2172000   0.89903139   -7.9639695    513.62155  0.019706167  0.019412123            4 
 2173000   0.91245906   -7.9688025    512.68087  0.019661024  0.019405959            4 
 2174000   0.90817859   -7.9912746    511.75511  0.019616495  0.019399807            3 
 2175000   0.90544396   -7.9620372    513.16858  0.019661631   0.01939367            3 
 2176000   0.90445082   -7.9342924    514.51407  0.019704124   0.01938757            2 
 2177000   0.91530015   -7.9665127    513.85061  0.019669676  0.019381443            2 
 2178000   0.89151376   -7.9643971    514.45915  0.019683928  0.019375362            2 
 2179000   0.90687298   -7.9798087    512.95072  0.019617207  0.019369199            6 
 2180000   0.90498176   -7.9470652     515.4136  0.019702355    0.0193631            1 
 2181000    0.9020799   -7.9540062    513.05657  0.019603262  0.019356994            1 
 2182000    0.8979106   -7.9724146    514.79865   0.01966081  0.019350919            4 
 2183000   0.89678645   -7.9649914    513.88072  0.019616763  0.019344779            3 
 2184000   0.88694793    -7.965719    513.84527  0.019606428  0.019338647            2 
 2185000   0.89272164   -8.0226948    513.44851  0.019582323  0.019332495            1 
 2186000   0.88984145   -7.9624093    512.26534  0.019528261  0.019326335            2 
 2187000   0.90111224   -8.0246014    513.39919  0.019562536  0.019320143            2 
 2188000   0.90438397   -7.9990367    514.19876  0.019584048  0.019313957            1 
 2189000   0.89801663   -7.9998247    512.76181  0.019520398  0.019307769            2 
 2190000   0.87667116   -7.9693174      513.637  0.019544787  0.019301538            2 
 2191000   0.89719268   -7.9787272    513.51459  0.019531211  0.019295311            3 
 2192000   0.90262962   -7.9697046    515.00625  0.019579009  0.019289178            2 
 2193000   0.89834468   -7.9944683    512.81701  0.019486891  0.019283023            1 
 2194000    0.9022358   -8.0345563     512.4804  0.019465223   0.01927681            5 
 2195000   0.89497787   -7.9666501    515.07347  0.019554802  0.019270638            3 
 2196000   0.89063507   -8.0057326     513.4475  0.019484195   0.01926445            2 
 2197000   0.90452816   -7.9960062    513.83002  0.019489836  0.019258237            1 
 2198000   0.90826855   -7.9967006    514.40991  0.019502954  0.019252044            5 
 2199000   0.89908674   -8.0164373    513.92606  0.019475749  0.019245848            3 
 2200000   0.90783269    -8.023701    513.67842  0.019457516  0.019239626            4 
 2201000   0.88881946   -7.9961875    514.45562  0.019478102  0.019233356            4 
 2202000   0.90349406   -7.9852419    515.33277  0.019502451  0.019227137            4 
 2203000   0.91891194    -7.961667    515.74955  0.019509364  0.019220988            4 
 2204000   0.91625646    -7.980015    514.66646  0.019459561  0.019214798            3 
 2205000   0.89157541   -7.9797314    514.81293  0.019456271  0.019208647            2 
 2206000   0.90016424   -7.9911646    516.08057  0.019495337   0.01920241            1 
 2207000   0.89858453   -8.0129999    514.23305  0.019416744  0.019196172            2 
 2208000   0.90527091   -8.0018199    515.06611  0.019439391  0.019189984            1 
 2209000    0.8966172   -7.9911282    516.10184  0.019469663  0.019183815            2 
 2210000   0.87884051   -8.0347375     513.5086  0.019363069  0.019177662            4 
 2211000   0.91286719   -8.0261759    514.23356  0.019381636  0.019171459            4 
 2212000   0.90496484   -8.0081404    515.78673  0.019431387  0.019165282            2 
 2213000    0.9008648   -7.9900161    516.35578  0.019444035  0.019159076            2 
 2214000    0.8974708   -7.9634665    515.78883  0.019413913  0.019152968            4 
 2215000    0.9043666   -8.0109058    515.78537  0.019405018  0.019146824            4 
 2216000   0.92171788   -8.0104718    515.47176  0.019384467  0.019140655            3 
 2217000   0.89851682   -8.0016046    516.11425  0.019399874  0.019134465            2 
 2218000   0.90639647   -7.9791555    516.88659  0.019420145  0.019128309            4 
 2219000   0.90592324   -7.9787074    517.03588     0.019417  0.019122152            2 
 2220000   0.90637148   -7.9852771    517.11415  0.019411192  0.019116006            3 
 2221000   0.89660639   -7.9634288    518.68672  0.019461456  0.019109921            2 
 2222000   0.89437967   -7.9740763    516.57719  0.019373582  0.019103779            2 
 2223000   0.90488213   -7.9879035    517.13194  0.019385663  0.019097648            4 
 2224000   0.87946016   -7.9755838    516.67392  0.019359784  0.019091488            1 
 2225000   0.89572349   -7.9975742    516.09721  0.019329484  0.019085364            2 
 2226000   0.88809829   -7.9675492    516.83169  0.019348296  0.019079231            3 
 2227000   0.87607849   -7.9707774     517.5444  0.019366277  0.019073126            1 
 2228000   0.89227328   -8.0080487    515.71453  0.019289143  0.019066953            1 
 2229000   0.87991781   -8.0111566    516.40866   0.01930644  0.019060812            1 
 2230000   0.90613566    -7.988883    517.03879   0.01932133  0.019054709            3 
 2231000   0.90068282    -7.945595    517.92952  0.019345941  0.019048632            4 
 2232000   0.88646836    -7.978522    517.21827  0.019310718  0.019042568            1 
 2233000   0.90193919   -7.9660948    517.25689  0.019303511  0.019036456            1 
 2234000   0.89692109   -7.9698008    518.82714  0.019353445  0.019030358            3 
 2235000   0.88872601   -7.9831086    517.83016  0.019307612   0.01902424            1 
 2236000   0.88131948   -7.9770386    518.11529  0.019309604  0.019018194            2 
 2237000   0.89227111   -8.0199609    518.84032  0.019327981  0.019012129            3 
 2238000    0.8835442   -8.0246246    517.76133  0.019279168  0.019006028            1 
 2239000   0.88909514     -7.98096    518.66113  0.019304047  0.018999927            3 
 2240000   0.90792356   -8.0089344    518.45804  0.019287873   0.01899384            3 
 2241000   0.87315567   -7.9749787    519.46767  0.019316811  0.018987771            2 
 2242000   0.89283087   -7.9999015    518.81561  0.019283958  0.018981715            5 
 2243000   0.88923094   -8.0117874    519.85387  0.019313935  0.018975678            3 
 2244000   0.89177394   -8.0152928    518.28524  0.019247075   0.01896963            6 
 2245000   0.87017361   -7.9947665    518.85954   0.01925982  0.018963574            2 
 2246000   0.88960976   -7.9922998    517.02926  0.019183335  0.018957464            3 
 2247000   0.89476623   -7.9738793    518.74858  0.019238562    0.0189514            3 
 2248000   0.90229296   -7.9885029    519.41528  0.019254718  0.018945357            2 
 2249000   0.88363777   -7.9943228    519.79368  0.019260178  0.018939298            4 
 2250000   0.90893392   -7.9612986    519.47716  0.019239895  0.018933269            2 
 2251000   0.90632349   -7.9930701    519.22001  0.019221828    0.0189272            4 
 2252000   0.90203964   -7.9937325     519.2363  0.019213895  0.018921104            3 
 2253000   0.89268518   -7.9924953    519.20673  0.019204273  0.018915033            2 
 2254000   0.89886891   -8.0234306    519.10257  0.019191902  0.018908915            4 
 2255000   0.88948313   -7.9967579    518.60571   0.01916503  0.018902767            5 
 2256000   0.89806008   -8.0253277     518.4217  0.019149738   0.01889661            3 
 2257000   0.88269014   -8.0184775    519.11978  0.019167028  0.018890449            4 
 2258000   0.88669342   -8.0127599    518.38098  0.019131273  0.018884239            3 
 2259000   0.88302643   -7.9973479    518.85797    0.0191404  0.018878026            3 
 2260000    0.9147373    -7.964009    518.86429  0.019132164  0.018871885            2 
 2261000   0.88487553   -7.9937905      518.626  0.019114919  0.018865741            2 
 2262000   0.89468373   -8.0005936    518.11673  0.019087707  0.018859512            2 
 2263000   0.89280379   -8.0236348    518.47676   0.01909253  0.018853329            2 
 2264000   0.87804219   -8.0012527    518.59446   0.01908843  0.018847144            3 
 2265000   0.89660633   -7.9993752    518.32961  0.019070258  0.018840983            3 
 2266000   0.90086887   -8.0098343    519.50045    0.0191049  0.018834848            3 
 2267000   0.89941984   -8.0107026    519.88735  0.019110695  0.018828695            2 
 2268000   0.91271716   -8.0321279    518.96999  0.019068562  0.018822553            2 
 2269000    0.9068397   -8.0286786    519.98518  0.019097443  0.018816408            2 
 2270000   0.89332453   -8.0319584    519.06452  0.019055232  0.018810238            4 
 2271000   0.89911485   -8.0496773     517.3243  0.018982985  0.018804006            3 
 2272000   0.87553166   -8.0458129    518.69265  0.019024818  0.018797801            4 
 2273000     0.868853   -8.0330926    519.59072  0.019049374  0.018791564            2 
 2274000   0.87808972   -8.0469494     519.0698  0.019021907  0.018785385            3 
 2275000   0.88749042   -8.0027842    520.25177  0.019056841  0.018779193            2 
 2276000   0.87633785   -8.0335955    519.20691  0.019010212  0.018772993            2 
 2277000   0.89607329   -8.0330825    518.73679  0.018984658  0.018766756            2 
 2278000   0.89878859   -8.0030007    520.23596  0.019031166  0.018760571            3 
 2279000   0.88389825   -8.0283173    520.34493    0.0190268  0.018754386            5 
 2280000   0.87463439   -8.0399896     519.7323  0.018996064  0.018748212            5 
 2281000    0.8717598   -8.0048312    520.76789   0.01902557  0.018742084            6 
 2282000   0.89219713   -8.0117336    519.93345   0.01898676  0.018735949            3 
 2283000   0.85997111   -8.0255066    520.53884  0.019000542   0.01872982            2 
 2284000   0.90628642   -8.0002402     520.9638  0.019007728  0.018723731            2 
 2285000   0.89230859   -8.0072287    519.95398  0.018962581  0.018717637            3 
 2286000   0.87894276   -8.0259548     520.7665  0.018983906  0.018711545            3 
 2287000   0.88550234   -8.0306667    521.39193  0.018998394  0.018705391            5 
 2288000   0.87608697   -8.0296036    520.87465   0.01897125  0.018699306            3 
 2289000   0.87298896   -8.0391546    520.02979  0.018932204  0.018693213            2 
 2290000   0.90822695   -8.0591291     522.3996  0.019010175  0.018687093            6 
 2291000   0.90396201   -8.0295597    521.03187  0.018952127  0.018680956            2 
 2292000   0.87944124   -8.0931992    519.54151  0.018889671  0.018674852            3 
 2293000   0.87758543   -8.0437062    522.42879  0.018986364    0.0186687            5 
 2294000   0.88033923   -8.0420752    521.54593  0.018946016  0.018662555            4 
 2295000   0.90873788   -8.0285987    521.80123  0.018947031   0.01865649            1 
 2296000   0.89489119   -8.0648426    520.36881  0.018886789  0.018650397            4 
 2297000   0.87304982   -7.9819909    523.34853  0.018986669  0.018644351            3 
 2298000   0.88132848   -8.0434251    521.16751  0.018899315  0.018638295            3 
 2299000    0.8882722   -8.0381332    522.04194   0.01892279  0.018632204            2 
 2300000   0.86589452   -8.0282574    522.78093  0.018941338  0.018626139            1 
 2301000   0.86492563   -8.0077156    522.45497  0.018921301  0.018620049            2 
 2302000   0.88729035   -8.0211039    522.94656  0.018930877  0.018613955            3 
 2303000   0.89592649   -8.0161114    523.09183  0.018927914  0.018607906            3 
 2304000   0.88600193     -8.02817    523.22564  0.018924538  0.018601886            3 
 2305000   0.87352495   -8.0218275    521.26668  0.018845505  0.018595857            4 
 2306000   0.90713412   -8.0559161    521.54025  0.018847219  0.018589807            3 
 2307000   0.89444487   -8.0491794    522.39276  0.018869844  0.018583775            5 
 2308000    0.8784302   -8.0245513    523.05676  0.018885643  0.018577767            2 
 2309000   0.86943619   -8.0543429    523.30615  0.018886464  0.018571733            3 
 2310000   0.87314983   -8.0113989    523.34341  0.018879633  0.018565745            1 
 2311000   0.90553192   -8.0242254    523.76856  0.018886794  0.018559749            4 
 2312000   0.88379445   -8.0239077    523.16382  0.018856827  0.018553732            2 
 2313000   0.88697542   -8.0013443    522.99391  0.018842553  0.018547726            3 
 2314000   0.86701056   -8.0234063    522.99916  0.018834599  0.018541717            3 
 2315000   0.87282293   -8.0400626    522.79435  0.018819091  0.018535728            2 
 2316000   0.89398008   -8.0397064    524.05669  0.018856386   0.01852968            2 
 2317000   0.87234518   -8.0469386    522.54674  0.018793941  0.018523608            2 
 2318000   0.87308059   -8.0349339    523.41437  0.018817025   0.01851755            2 
 2319000   0.88102606   -8.0431548    522.90885  0.018790745  0.018511535           12 
 2320000   0.86318607   -8.0795803    521.78968  0.018742445  0.018505479            2 
 2321000   0.87526916   -8.0321471    523.75971  0.018805102  0.018499373            5 
 2322000   0.88042593   -8.0362242    523.79644  0.018798322  0.018493275            6 
 2323000   0.87257934   -8.0563235     522.0234  0.018726625   0.01848721            2 
 2324000   0.87861328   -8.0568358    524.34319  0.018801749  0.018481143            1 
 2325000   0.87629183    -8.043465    523.70345  0.018770733  0.018475059            7 
 2326000   0.88223996   -8.0478716     523.1385  0.018742422  0.018469031            6 
 2327000   0.87286941   -8.0636828    523.61796  0.018751538  0.018462936            2 
 2328000   0.88629276   -8.0666572    522.51824  0.018704118  0.018456872            3 
 2329000   0.87276954   -8.0333516    522.31883  0.018688952  0.018450793            5 
 2330000   0.90108965   -8.0658207     524.5417  0.018760433  0.018444774            2 
 2331000   0.87475728   -8.0612056    522.85543    0.0186921  0.018438711            8 
 2332000   0.90323671   -8.0554575    524.14386  0.018730127  0.018432667            2 
 2333000   0.89382377   -8.0400476    523.77285  0.018708846  0.018426647            2 
 2334000   0.87333281   -8.0385884     525.0598  0.018746779  0.018420625            2 
 2335000   0.86978528   -8.0282669    524.06957  0.018703411   0.01841459            7 
 2336000   0.86658145    -8.043195    524.64361  0.018715882  0.018408567            2 
 2337000   0.87711141   -8.0333733    523.23262   0.01865756  0.018402582            2 
 2338000   0.88190675   -8.0273382    525.88921  0.018744269  0.018396591            4 
 2339000   0.88867223   -8.0132526    524.97064  0.018703528  0.018390578            2 
 2340000    0.8921162   -8.0200787    525.36251  0.018709491  0.018384556            3 
 2341000   0.86402143   -8.0643906     523.4381  0.018632995   0.01837855            3 
 2342000   0.87661405   -8.0643842    523.78202  0.018637276   0.01837249            1 
 2343000   0.88279371   -8.0458824    524.43629  0.018652592  0.018366446            2 
 2344000   0.88353381   -8.0430959    524.21664  0.018636826  0.018360379            2 
 2345000   0.87062688   -8.0195283    525.07477  0.018659374  0.018354383            3 
 2346000   0.85305501   -8.0502253    524.67369  0.018637173  0.018348359            2 
 2347000   0.89099084   -8.0587703    524.79548  0.018633556   0.01834233            2 
 2348000   0.87786796   -8.0741159    523.56995  0.018582125  0.018336245            4 
 2349000   0.88622175     -8.02329     524.5914  0.018610451  0.018330169            7 
 2350000   0.87670884   -8.0203482    525.62755  0.018639275  0.018324133            5 
 2351000   0.87853814   -8.0689468     524.4606  0.018589983   0.01831806            7 
 2352000   0.88434715   -8.0850362    524.17787  0.018572062  0.018311985            3 
 2353000   0.86332722    -8.046494    524.42797  0.018573026  0.018305927            4 
 2354000   0.87483105   -8.0340403    524.48359  0.018567105  0.018299934            3 
 2355000   0.86553693   -8.0401007    525.92756  0.018610317  0.018293948            2 
 2356000   0.85967888   -8.0911405    524.24042  0.018542743  0.018287936            1 
 2357000   0.86102617   -8.0557606    526.03203  0.018598219  0.018281951            2 
 2358000   0.86330619   -8.0437312     526.2326   0.01859742  0.018276028            2 
 2359000   0.88330935    -8.051932    526.23976   0.01858979  0.018270055            1 
 2360000   0.87579456    -8.059857     525.5145  0.018556303  0.018264048            5 
 2361000   0.87230122   -8.0426003    525.58221  0.018550833  0.018258071            3 
 2362000   0.86801303   -8.0510678    526.16389  0.018563501  0.018252118            3 
 2363000   0.87393173   -8.0693396    527.58179  0.018605649   0.01824612            2 
 2364000   0.88264912   -8.0781673    525.48056  0.018523708  0.018240102            9 
 2365000   0.85458943   -8.0535015    524.81882  0.018492559   0.01823405            2 
 2366000   0.88814005   -8.0502804    525.67065  0.018514745  0.018228014            1 
 2367000     0.877139   -8.0644196    526.53287  0.018537279  0.018221964            3 
 2368000   0.87852833   -8.0492038    525.90148  0.018507231  0.018215954            2 
 2369000   0.88797704   -8.0299145    525.55101  0.018487091  0.018209949            2 
 2370000   0.87286179   -8.0720236     525.7939  0.018487831  0.018203973            1 
 2371000   0.87347373   -8.0181385     527.3327  0.018534117  0.018197974            3 
 2372000   0.87711277   -8.0550363    524.66643  0.018432632  0.018191926            4 
 2373000   0.86860017   -8.0782656    526.53418  0.018490454  0.018185898            3 
 2374000   0.86400957   -8.0486435    525.42607  0.018443768  0.018179883            1 
 2375000   0.87372614    -8.035768    524.88304  0.018416949  0.018173855            3 
 2376000   0.85424405   -8.0393824    526.10971   0.01845222  0.018167829            3 
 2377000    0.9022845   -8.0567359    525.99188  0.018440327  0.018161775            3 
 2378000   0.87750322   -8.0970657    525.87642  0.018428526  0.018155646            5 
 2379000   0.85429652   -8.0873078     523.9706  0.018354021   0.01814951            4 
 2380000   0.88139083   -8.0908943    525.54452  0.018401419  0.018143369            2 
 2381000   0.90193355   -8.0639332    526.96693  0.018443474  0.018137197            3 
 2382000   0.86377517   -8.0888953    524.67094  0.018355407  0.018131059            4 
 2383000   0.85687221   -8.0630517    526.66062  0.018417283  0.018124961            3 
 2384000   0.88718329   -8.0685732    526.25157  0.018395259  0.018118899            2 
 2385000   0.86799161   -8.1063897    525.84519  0.018373347   0.01811283            2 
 2386000   0.86758482    -8.055394    527.23825    0.0184143  0.018106793            3 
 2387000   0.86799285   -8.0251909    527.34052  0.018410156  0.018100789            1 
 2388000   0.87249363    -8.030653    528.41045  0.018439784  0.018094805            1 
 2389000   0.84153142    -8.034345    527.63616  0.018405057  0.018088795            1 
 2390000   0.86300077   -8.0596862    527.25427   0.01838404  0.018082769            2 
 2391000   0.86519217   -8.0294087    528.94177  0.018435165  0.018076785            3 
 2392000   0.87446187    -8.039577    527.51195  0.018377646  0.018070796            2 
 2393000   0.88738697   -8.0547896    528.16689  0.018392774  0.018064824            3 
 2394000   0.86626699   -8.1056296     526.5058  0.018327269  0.018058824            2 
 2395000   0.86719686   -8.0629569    527.96323  0.018370328  0.018052808            1 
 2396000   0.85815078   -8.0607002    528.07017   0.01836638  0.018046813           10 
 2397000   0.85870743   -8.0450445    529.07421  0.018393624  0.018040872            4 
 2398000   0.87050779    -8.041363    528.26887  0.018357967  0.018034926            5 
 2399000   0.86558601   -8.0657093    527.99932  0.018340952  0.018028992            4 
 2400000   0.87977436    -8.062345    528.81269  0.018361552  0.018023069            5 
 2401000   0.86252374   -8.0674029    529.15694  0.018365852  0.018017136            3 
 2402000   0.88104295   -8.0715566    527.96713  0.018316928  0.018011212            2 
 2403000   0.87890086   -8.0679579    529.00374  0.018345254  0.018005276            3 
 2404000   0.87615581   -8.0609917    529.96716  0.018371019  0.017999374            4 
 2405000   0.87366185   -8.0586727    528.85325  0.018324783  0.017993483            3 
 2406000   0.86894356   -8.0744782    529.03126  0.018323333  0.017987574            3 
 2407000   0.89160424   -8.0562829    529.79638  0.018342209  0.017981646            3 
 2408000   0.86183375   -8.0839068    529.64778   0.01832945  0.017975713            2 
 2409000   0.85994551   -8.1035579    528.55878   0.01828417  0.017969823            1 
 2410000   0.85387234   -8.0736605    530.04277  0.018327897  0.017963936            2 
 2411000   0.85590262   -8.1053345     527.3591  0.018227537  0.017958057           11 
 2412000   0.87235779   -8.0785599    528.83545  0.018270987  0.017952136            5 
 2413000   0.86382623   -8.0724922     528.8075   0.01826245  0.017946166            2 
 2414000   0.86174924   -8.0761503     527.9902  0.018226671  0.017940202            2 
 2415000    0.8628308   -8.1050894    528.04674  0.018221074  0.017934232            3 
 2416000   0.88294407   -8.0898545     529.7235  0.018271368  0.017928293            2 
 2417000   0.84479793   -8.1270547    528.98838  0.018238463  0.017922366            3 
 2418000   0.85986904    -8.078147    530.39894  0.018279533  0.017916431            2 
 2419000   0.87338453   -8.0918118     529.8089   0.01825165  0.017910557            2 
 2420000   0.87973395   -8.0959454    529.98407   0.01825014  0.017904653            2 
 2421000   0.85860474   -8.0931769    529.54083  0.018227345  0.017898773            3 
 2422000   0.85189464   -8.0897187    529.98258  0.018235019  0.017892891            5 
 2423000   0.86397703    -8.047027    531.92376  0.018294255  0.017887044            1 
 2424000   0.87026179   -8.0264683    531.19931  0.018261802  0.017881229            5 
 2425000   0.87010763   -8.0485589    529.80994  0.018206527  0.017875379            1 
 2426000   0.85083279   -8.0556164    530.49228  0.018222461  0.017869544            3 
 2427000    0.8719356   -8.0515329    531.94738  0.018264915  0.017863706            3 
 2428000   0.86583528    -8.061765    532.12996  0.018263659  0.017857835            2 
 2429000   0.86506385   -8.0635094    531.14626  0.018222391  0.017851961            2 
 2430000   0.85028137   -8.0401607    529.66826  0.018164206  0.017846085            3 
 2431000   0.85151993   -8.0778338    529.28001  0.018143426  0.017840193            2 
 2432000   0.87373853   -8.0641786    530.84837  0.018189706  0.017834295            3 
 2433000   0.87427108   -8.0507001    531.16556  0.018193093  0.017828452            3 
 2434000   0.86581338   -8.1210834    530.87332  0.018175613  0.017822591            4 
 2435000   0.86648256   -8.0800557    531.83971  0.018201222  0.017816735            2 
 2436000   0.86800586   -8.0789292    531.18368  0.018171308  0.017810901            4 
 2437000   0.87004864   -8.0957724    530.85535  0.018152624  0.017805047            4 
 2438000   0.86862319   -8.0686894    531.90494  0.018181055  0.017799231            1 
 2439000   0.84542553   -8.0537964    531.60695  0.018163419  0.017793371            4 
 2440000   0.88572674   -8.1108575    531.61005  0.018156081  0.017787524            1 
 2441000   0.86510818   -8.0876881     531.2013  0.018134689  0.017781677            1 
 2442000   0.86598344   -8.1371088    530.66077  0.018108817  0.017775802            1 
 2443000   0.84233658   -8.0906516    531.63593  0.018134668  0.017769987            4 
 2444000   0.86057691   -8.0666792    532.57086  0.018159126  0.017764204            5 
 2445000   0.87347888   -8.0796369    530.83642  0.018092584  0.017758391            1 
 2446000   0.85484035   -8.1165084    532.47912  0.018141153  0.017752547            4 
 2447000   0.86275448   -8.0786315    531.72136  0.018107934  0.017746681            2 
 2448000   0.85712003   -8.0855964    532.24286  0.018118289  0.017740824            1 
 2449000   0.86950302   -8.1137534    532.06896  0.018104973  0.017734959            1 
 2450000   0.86886012    -8.094369    532.20943  0.018102361  0.017729075            5 
 2451000   0.85351989   -8.1274901    532.36763  0.018100354  0.017723206            4 
 2452000   0.85004745   -8.0891689    531.61533  0.018067405  0.017717337            3 
 2453000   0.86331201   -8.0988971    531.86818   0.01806863  0.017711511            2 
 2454000   0.84291148   -8.0829427    532.84038  0.018094281   0.01770569            2 
 2455000   0.86651272   -8.0998935    533.31288  0.018102949  0.017699898            3 
 2456000    0.8338424   -8.0645721    534.11197  0.018122692  0.017694155            4 
 2457000   0.85792332   -8.1173825    533.09675  0.018080883  0.017688394            3 
 2458000    0.8602914   -8.0818418    532.80349  0.018063585  0.017682623            3 
 2459000    0.8769231   -8.0943684    532.61858  0.018049972  0.017676889            4 
 2460000   0.85676211   -8.0750651    533.61898  0.018076524  0.017671105            2 
 2461000   0.84602033   -8.0973971    532.78023  0.018040777   0.01766528            3 
 2462000    0.8575752   -8.1030776    533.35449  0.018052887  0.017659481            1 
 2463000   0.84767925   -8.0292855    534.59433  0.018087506  0.017653744            1 
 2464000   0.84157641   -8.1167229    533.88824  0.018056285  0.017648009            1 
 2465000   0.87240477   -8.1039525    534.10068  0.018056142  0.017642248            1 
 2466000   0.84691378   -8.1203527    532.96377    0.0180104  0.017636457            3 
 2467000   0.85234269   -8.0993154    532.61844  0.017991435  0.017630659            1 
 2468000     0.837953   -8.1001352    532.81004  0.017990615  0.017624871            1 
 2469000   0.85632666   -8.1107738    532.80273  0.017983081  0.017619054            5 
 2470000   0.85863202   -8.1014072    533.05299  0.017984244  0.017613225            6 
 2471000   0.87273815   -8.1205017    533.56429  0.017994209  0.017607407            3 
 2472000      0.84394   -8.0946546      531.534  0.017918487  0.017601602            4 
 2473000   0.88247989   -8.0981426    533.76221  0.017986326  0.017595813            2 
 2474000   0.86633377   -8.1126204    533.05311  0.017955171  0.017590002            4 
 2475000   0.85529796   -8.0652631    533.86695  0.017975318  0.017584201            2 
 2476000   0.85037745   -8.1100198    533.57929  0.017958377  0.017578419            3 
 2477000   0.85739668    -8.085158    533.92229  0.017962666  0.017572647            2 
 2478000   0.87372278   -8.1019127    534.01448  0.017958517  0.017566862            3 
 2479000   0.85379419   -8.0809256    533.62609  0.017938217   0.01756106            5 
 2480000   0.86835303   -8.1307579    534.83707  0.017971676  0.017555252            4 
 2481000   0.84729047   -8.0985616     533.0173  0.017903309  0.017549463            3 
 2482000   0.86937642   -8.1392531    532.49613  0.017878597  0.017543669            2 
 2483000   0.85397051   -8.0838911    533.79241  0.017914902   0.01753788            7 
 2484000   0.84308436   -8.1103346    534.16773  0.017920281  0.017532091            2 
 2485000   0.84848057   -8.1046344    534.82266  0.017935032  0.017526318            2 
 2486000   0.85200971   -8.1355401    533.21111  0.017873797  0.017520534            2 
 2487000   0.85339203   -8.1105744    534.37101  0.017905475  0.017514759            1 
 2488000   0.87021128   -8.1113065     533.6181  0.017873061  0.017509002            2 
 2489000    0.8351213   -8.0987268    535.81991  0.017939598   0.01750323            2 
 2490000   0.85596623    -8.120595    533.66718  0.017860347  0.017497465            4 
 2491000   0.85859333   -8.1495555    534.58309  0.017883818  0.017491662           13 
 2492000   0.85728274   -8.1107172    533.82011  0.017851127  0.017485845           14 
 2493000   0.84899847   -8.1304261    533.64796  0.017838212  0.017480064            6 
 2494000   0.86319667   -8.1235335    534.48611  0.017859065  0.017474294           10 
 2495000   0.84104881   -8.1156236    535.05416   0.01787088  0.017468516            6 
 2496000   0.83438513   -8.1008285    535.90273  0.017892052  0.017462728            5 
 2497000    0.8612968    -8.139654    534.47968  0.017837394  0.017456961            1 
 2498000   0.84521187    -8.122077    533.58279  0.017800333  0.017451192            2 
 2499000   0.84361058   -8.1519963    535.07489  0.017842967  0.017445432            4 
 2500000   0.84212619   -8.1231879    534.64699  0.017821566  0.017439688            2 
 2501000   0.83901717   -8.1058397    533.96697  0.017791782   0.01743394            3 
 2502000    0.8441702   -8.0947357    535.71742  0.017842973  0.017428173            6 
 2503000   0.85327447   -8.1199285    533.78374  0.017771466  0.017422421            3 
 2504000   0.85505455   -8.1422597    535.24746  0.017813081  0.017416648            3 
 2505000   0.83887785    -8.111804    535.18235  0.017803804  0.017410918            1 
 2506000    0.8474507   -8.1119637    534.28922     0.017767  0.017405199            3 
 2507000    0.8560776   -8.0922612     536.0496  0.017818428  0.017399475            1 
 2508000    0.8447239   -8.1280564    534.88966  0.017772782  0.017393746            1 
 2509000   0.85632887   -8.1420059    534.72653  0.017760281  0.017387965            2 
 2510000   0.83024452   -8.1005445    535.57676  0.017781433  0.017382189            2 
 2511000   0.84712414   -8.1118033    535.02576  0.017756065  0.017376415            4 
 2512000   0.85051749   -8.1135344     534.9278  0.017745747  0.017370636            2 
 2513000   0.83074209   -8.1336098    534.91532  0.017738272  0.017364849            1 
 2514000   0.85597677    -8.155272    532.87348  0.017663534   0.01735906            3 
 2515000    0.8407072   -8.1758511    533.36253  0.017672715  0.017353218            2 
 2516000   0.82306432   -8.1397036    532.85801   0.01764898  0.017347348            3 
 2517000   0.84629656   -8.1351673    535.50262  0.017729526  0.017341536            1 
 2518000   0.83706618   -8.0849371    535.58415  0.017725184  0.017335753            1 
 2519000   0.82607701   -8.0875925    534.86236  0.017694269  0.017329953            3 
 2520000   0.84826323   -8.0635126    535.63908  0.017712933  0.017324164            2 
 2521000    0.8397283   -8.1312077     533.8974  0.017648334  0.017318334            2 
 2522000   0.84204241   -8.1130596    534.11277  0.017648453  0.017312488            2 
 2523000   0.85068867   -8.1271703    535.08897  0.017673701  0.017306614            3 
 2524000   0.83777606   -8.1370811    534.30888  0.017640943  0.017300773            3 
 2525000   0.84284735   -8.1326585    535.00959  0.017657082  0.017294954            9 
 2526000   0.85409514   -8.1121057    533.87174  0.017612554  0.017289135            3 
 2527000    0.8470545   -8.1624384    534.43872  0.017624282  0.017283341            2 
 2528000   0.86082133   -8.1439364    534.65047   0.01762429   0.01727752            2 
 2529000   0.84210265   -8.0899962    536.31901  0.017672302  0.017271722            3 
 2530000   0.83926824   -8.0991994    537.67104   0.01770985  0.017265952            1 
 2531000   0.84154266   -8.1245356    535.17784  0.017620764  0.017260156            2 
 2532000   0.83013122   -8.1300909     535.6684   0.01762995  0.017254393            3 
 2533000   0.84270221   -8.0768193       537.18   0.01767272  0.017248648            3 
 2534000    0.8358852   -8.1057415    536.16376  0.017632326  0.017242861            5 
 2535000   0.85991589   -8.1394116    535.61024  0.017607174   0.01723709            3 
 2536000   0.86251127   -8.1262565    536.79085  0.017639026  0.017231299            2 
 2537000   0.84069234   -8.1486859    535.22831  0.017580748  0.017225444            1 
 2538000   0.85579051   -8.1315361    534.62193  0.017553912  0.017219588            2 
 2539000   0.85130238   -8.1284866    535.75157  0.017584074  0.017213772            3 
 2540000   0.85055287   -8.1011232     537.4542  0.017633012  0.017207998            3 
 2541000   0.85124708   -8.1073642    536.52617  0.017595637  0.017202216            3 
 2542000   0.85938405   -8.1383548    535.15131  0.017543644  0.017196464            3 
 2543000   0.85016848   -8.1212948    535.42998  0.017545877  0.017190673            4 
 2544000   0.85822663   -8.1284179      535.418  0.017538588  0.017184875            2 
 2545000   0.84334192   -8.1475448     536.5112  0.017567492  0.017179059            1 
 2546000   0.85274337   -8.1375105    536.23756  0.017551635  0.017173278            5 
 2547000   0.83184567   -8.1380011    535.88951  0.017533357   0.01716748            2 
 2548000   0.84999932   -8.1442607    537.11338  0.017566502  0.017161692            1 
 2549000    0.8375036   -8.1633588    536.85183   0.01755106  0.017155898            1 
 2550000   0.86252414   -8.1703713    535.64915  0.017504874  0.017150097            1 
 2551000   0.82394837   -8.1596977    535.42736  0.017490767  0.017144285            3 
 2552000   0.83940713   -8.1100283    536.49452   0.01751876  0.017138462            1 
 2553000   0.83685249   -8.1234554    536.87708  0.017524386  0.017132695            2 
 2554000    0.8380082   -8.1602382     535.4133  0.017469763   0.01712692            2 
 2555000   0.84200755    -8.131345    536.10531  0.017485496  0.017121157            2 
 2556000   0.84711536   -8.1568611    536.03596  0.017476394  0.017115367            2 
 2557000   0.85981329   -8.1273558      537.398  0.017513948  0.017109574            1 
 2558000   0.82563708   -8.1453253    537.84397  0.017521631  0.017103836            1 
 2559000   0.83749693   -8.1063759    538.28039  0.017528995  0.017098125            4 
 2560000    0.8488212   -8.1398887    539.22214  0.017552804   0.01709244            2 
 2561000   0.82599207   -8.1411738    538.43829  0.017520444   0.01708674            1 
 2562000   0.83520124   -8.1235864    537.96018  0.017498054  0.017081053            3 
 2563000   0.84744279   -8.1583337    537.19351  0.017466299  0.017075369            2 
 2564000    0.8342294   -8.1659759     536.9844  0.017452691  0.017069656            3 
 2565000   0.83084671   -8.1750725    535.44093  0.017395742  0.017063924            3 
 2566000   0.84553123   -8.1604411    538.34266  0.017483199   0.01705819            2 
 2567000   0.84179697   -8.1562073    538.41108  0.017478609  0.017052477            1 
 2568000   0.83814979   -8.1526312    537.89603  0.017455089  0.017046767            5 
 2569000   0.84562307   -8.1470289    537.46962  0.017434463  0.017041053            4 
 2570000   0.85743875   -8.1691049    538.02214  0.017445595  0.017035356            1 
 2571000   0.84263069   -8.1476486    539.05022  0.017472132  0.017029649            3 
 2572000   0.84610645    -8.145137     538.3799   0.01744362  0.017023977            2 
 2573000   0.84600606   -8.1463028    538.15018  0.017429401  0.017018332            3 
 2574000   0.82002642   -8.1433383    539.23347  0.017457701  0.017012656            2 
 2575000   0.84675164   -8.1558366    538.75913  0.017435571  0.017007019            2 
 2576000   0.84805229   -8.1485589    539.25195  0.017444745  0.017001338            6 
 2577000   0.85012312   -8.1595017     538.3425  0.017408566  0.016995642            3 
 2578000   0.83679138    -8.157005    538.90059  0.017419854  0.016989944            4 
 2579000   0.85140066   -8.1355666    539.06755  0.017418494  0.016984285            3 
 2580000    0.8451034   -8.1443828    538.44139  0.017391518  0.016978647            7 
 2581000    0.8657008   -8.1375752    539.22133  0.017409962  0.016973025            1 
 2582000   0.81949371   -8.1736152    538.47292  0.017379064  0.016967393            1 
 2583000   0.85223929   -8.1513153    539.66647  0.017410842  0.016961749            2 
 2584000   0.84095392   -8.1789971    538.48854  0.017366117  0.016956091            3 
 2585000   0.82929305    -8.190688    539.03166  0.017376907   0.01695042            4 
 2586000   0.82432829   -8.1557903    539.38529  0.017381583  0.016944781            5 
 2587000   0.84338492   -8.1650806    537.55651  0.017315955  0.016939162            3 
 2588000   0.82000889   -8.1593385    540.19595  0.017394254  0.016933522            4 
 2589000   0.84835029   -8.1632817    539.25408  0.017357219  0.016927906            4 
 2590000   0.82172376   -8.1438367    539.50498   0.01735859  0.016922289            5 
 2591000   0.81756617   -8.1505166    538.41232  0.017316748  0.016916684            1 
 2592000   0.83570892   -8.1230193    539.59571  0.017348113  0.016911068            2 
 2593000    0.8459062   -8.1340304    539.91725  0.017351756  0.016905473            2 
 2594000   0.82934999    -8.188977    539.19609  0.017321899  0.016899843            3 
 2595000   0.82547945   -8.1633334    540.76561  0.017365627  0.016894227            1 
 2596000   0.83702391   -8.1500315    539.71757  0.017325294  0.016888598            3 
 2597000   0.84293305   -8.1691847    539.60985  0.017315167  0.016882959            5 
 2598000   0.83831681    -8.136299    539.35094  0.017300197  0.016877327            4 
 2599000   0.84998621    -8.130073    539.70945  0.017305036  0.016871742            2 
 2600000   0.83500891   -8.1244425    540.06441  0.017309757  0.016866161            1 
 2601000   0.83236577   -8.1353625    539.55705  0.017286847  0.016860582            4 
 2602000   0.84042377    -8.151714    538.39928  0.017243123  0.016854968            2 
 2603000   0.83588014    -8.141446    539.77835  0.017280649  0.016849353            1 
 2604000   0.83269776   -8.1597059     539.1119  0.017252685  0.016843746            2 
 2605000   0.84490827   -8.1787015    539.93955  0.017272538  0.016838151            2 
 2606000   0.85302399   -8.1583621     540.4594  0.017282534  0.016832528            4 
 2607000   0.84506219   -8.1910071    540.16712  0.017266562  0.016826901            2 
 2608000   0.82008331   -8.1587416     540.3777   0.01726667  0.016821275            6 
 2609000   0.83833324   -8.1520161    540.71448  0.017270809  0.016815645            4 
 2610000   0.85207939   -8.1446513    541.34291  0.017284256   0.01681005            1 
 2611000   0.82578098   -8.1581862    539.96967  0.017233808  0.016804435            2 
 2612000   0.84348292   -8.1616694    539.77789  0.017221092  0.016798799            2 
 2613000   0.84128694   -8.1639744    540.66732  0.017242867   0.01679317            3 
 2614000   0.83228839   -8.1964094    538.16311  0.017156437  0.016787532            1 
 2615000   0.82437297   -8.2014898    538.76061  0.017168917  0.016781868            1 
 2616000   0.82847553   -8.1548521     540.4063  0.017214778  0.016776222            3 
 2617000   0.82657434   -8.1579829    539.88324  0.017191544  0.016770587            3 
 2618000   0.81837808   -8.1656888    539.24864  0.017164777  0.016764922            4 
 2619000   0.83653754   -8.1683109    538.87841  0.017146443  0.016759245            3 
 2620000   0.83644078   -8.1657322    538.90463  0.017140733  0.016753584            4 
 2621000   0.84197208   -8.1555404    539.94823  0.017167373  0.016747948            4 
 2622000   0.81380932   -8.1645628    540.02177  0.017163163  0.016742328            2 
 2623000   0.82763543    -8.161991    541.31907  0.017197836  0.016736729            7 
 2624000   0.83823189   -8.1523648    540.81745  0.017175351  0.016731138            2 
 2625000   0.84580611   -8.1527453    541.19502  0.017180794  0.016725542            4 
 2626000   0.81791931   -8.1627059    539.97139  0.017135421  0.016719938            3 
 2627000   0.82160842   -8.1562772    540.44422  0.017143897  0.016714357            4 
 2628000   0.81323332   -8.1321897    541.21778  0.017161903  0.016708751            4 
 2629000   0.83473353   -8.1706632    540.91908  0.017145907  0.016703146            3 
 2630000   0.82899241   -8.1806921    540.20615  0.017116798  0.016697523            3 
 2631000   0.82786388   -8.1854312    539.22268  0.017079142  0.016691914            6 
 2632000   0.82401737   -8.1723419    541.19126  0.017134982  0.016686264            2 
 2633000   0.83334084   -8.2030247    540.69801  0.017112863  0.016680632            1 
 2634000    0.8403385   -8.1768241    540.69162  0.017106164   0.01667503            2 
 2635000   0.81831347    -8.171042    542.43225   0.01715472  0.016669422            6 
 2636000    0.8451504   -8.1845582    540.86666  0.017098718  0.016663846            3 
 2637000   0.82648285   -8.1550371    542.03442  0.017129137  0.016658251            2 
 2638000     0.835377     -8.17125    540.64923  0.017078886  0.016652701            2 
 2639000   0.84437134   -8.1414605    542.09566   0.01711809  0.016647142            2 
 2640000   0.82747153   -8.1676368    541.53232  0.017093823  0.016641575            3 
 2641000   0.82584949   -8.1902134    541.68151  0.017092058  0.016636011            2 
 2642000   0.84165226   -8.1522206    540.77264  0.017056922  0.016630408            3 
 2643000   0.84526071   -8.1903516      541.215  0.017064416  0.016624807            2 
 2644000   0.83121753   -8.1518641    542.02626  0.017083531  0.016619195            7 
 2645000    0.8253406   -8.1868529    541.81879  0.017070535  0.016613617            2 
 2646000   0.82321548   -8.1702607    540.79997  0.017031997  0.016608019            3 
 2647000   0.83307378   -8.2013849    542.15304   0.01706816  0.016602383            2 
 2648000   0.83156209   -8.2028819     541.0857  0.017028125  0.016596756            4 
 2649000   0.81789747   -8.1926566    540.98917   0.01701866  0.016591134            2 
 2650000   0.82878253   -8.2053478     541.7449  0.017036003   0.01658553            3 
 2651000   0.82613744    -8.174066    541.53065  0.017022842  0.016579939            1 
 2652000    0.8399343   -8.1694358    540.85873  0.016995309  0.016574359            3 
 2653000    0.8279819   -8.1722593    540.51694  0.016978168  0.016568782            5 
 2654000   0.81480849   -8.2156547    540.14441  0.016960073  0.016563143            1 
 2655000   0.82010761   -8.2164559    539.99644  0.016949041  0.016557495            3 
 2656000   0.81852685   -8.2026116    540.96866  0.016973163  0.016551854            1 
 2657000   0.82756694    -8.182305    541.75231  0.016991353  0.016546227            1 
 2658000   0.82990174    -8.217054    540.51084  0.016946038  0.016540598            2 
 2659000   0.82756442   -8.2168219    541.01264  0.016955392  0.016534944            2 
 2660000   0.81606826   -8.2025485    540.01487  0.016917759  0.016529304            3 
 2661000   0.82402123    -8.203653    540.80788  0.016936236  0.016523637            4 
 2662000   0.82528247   -8.1903743    541.11919  0.016939619  0.016517999            2 
 2663000   0.81612739   -8.1921284    543.33822  0.017002698  0.016512417            5 
 2664000   0.82551239   -8.1760699    543.44191  0.016999559  0.016506882            3 
 2665000   0.83974256   -8.1897402    542.24774  0.016955839  0.016501359            2 
 2666000   0.83376909   -8.1944755    540.99628  0.016910361  0.016495827            2 
 2667000   0.81763858   -8.2356687    541.65266   0.01692453  0.016490246            3 
 2668000   0.84349406   -8.2124506     541.8924  0.016925675  0.016484665            1 
 2669000   0.83415081   -8.1930815    542.41768  0.016935734  0.016479089            3 
 2670000   0.81417727    -8.200131    541.55916  0.016902596  0.016473549            2 
 2671000   0.81832027   -8.1959514    543.23859  0.016948664  0.016468021            3 
 2672000   0.80561026   -8.1834664    542.34401  0.016914422  0.016462483            1 
 2673000    0.8301469   -8.2168879    542.05518  0.016899089  0.016456965            3 
 2674000   0.82376657    -8.192482    542.22442  0.016898044  0.016451429            2 
 2675000   0.83116534   -8.1901556    542.28914  0.016893743  0.016445891            3 
 2676000   0.81433128   -8.1822668     543.0588  0.016911398  0.016440363            2 
 2677000   0.84751119   -8.1978755    542.78907  0.016896684   0.01643483            2 
 2678000   0.81051869   -8.2070007    542.04637  0.016867263  0.016429295            2 
 2679000   0.82216138   -8.1776024    544.44905  0.016935705  0.016423761            1 
 2680000   0.83204806   -8.1960802    543.31997  0.016894278  0.016418213            6 
 2681000    0.8211876   -8.2033261    543.03472   0.01687911  0.016412672            3 
 2682000   0.81253723   -8.2061775     543.6926  0.016893257  0.016407116            2 
 2683000    0.8225096   -8.1896056    543.00197   0.01686551  0.016401575            2 
 2684000   0.81738073   -8.2023818    541.81828  0.016822475  0.016396012            2 
 2685000   0.83155528   -8.2082356    543.81999  0.016878336  0.016390464            2 
 2686000   0.80716521   -8.1856155    542.98095  0.016846021  0.016384893            3 
 2687000   0.83370966    -8.207722    542.37903  0.016821084  0.016379335            3 
 2688000   0.82341159   -8.2236051    540.69144  0.016762508  0.016373761            4 
 2689000   0.80855609   -8.2116808    542.30191  0.016806183   0.01636817            2 
 2690000   0.82891287   -8.1998554    543.97564  0.016851786  0.016362648            5 
 2691000   0.79475888   -8.1945697    542.98906  0.016814972  0.016357143            5 
 2692000   0.81546576   -8.2194647    541.66787  0.016767827  0.016351604            4 
 2693000   0.81592723   -8.1965994    544.05143  0.016835358  0.016346053            2 
 2694000   0.81412019   -8.1892674    541.83607  0.016760581  0.016340541            2 
 2695000   0.79783523   -8.2292384    543.03391  0.016791401  0.016335024            6 
 2696000   0.84623179   -8.2087552    542.91272  0.016781427  0.016329527            2 
 2697000   0.82617687   -8.1923642    543.54662  0.016794791  0.016324043            3 
 2698000   0.83213248   -8.2079172    543.52777  0.016787984  0.016318531            2 
 2699000   0.81155334   -8.2103155    543.84353  0.016791513   0.01631303            3 
 2700000   0.82750125   -8.2138666    543.15993  0.016764195  0.016307511            2 
 2701000   0.82751133   -8.2229803    542.88039  0.016749364  0.016301996            3 
 2702000   0.80102192   -8.2138938    543.70553  0.016768614  0.016296479            2 
 2703000   0.82248769   -8.1974592    544.28912  0.016780402  0.016291004            6 
 2704000   0.83505008   -8.2196857    544.23042  0.016772387  0.016285534            3 
 2705000   0.80936382   -8.2221055    543.10246  0.016731437  0.016280027            3 
 2706000   0.81237285   -8.1796581    544.57848   0.01677071   0.01627455            3 
 2707000   0.82418404      -8.2052    544.76895  0.016770378    0.0162691            3 
 2708000   0.81774651   -8.1965847     544.6202  0.016759607  0.016263642            2 
 2709000   0.80889111   -8.2135204     545.0844    0.0167677   0.01625819            7 
 2710000   0.81734795   -8.1898909    545.41182  0.016771581  0.016252719            1 
 2711000   0.81472432   -8.2474631    543.65302  0.016711331  0.016247244            3 
 2712000   0.83323442    -8.224847    544.32887  0.016725936  0.016241767            2 
 2713000   0.82514242   -8.2156612    544.14763  0.016714204  0.016236318            1 
 2714000   0.82089545   -8.2185058    544.29949  0.016712709  0.016230818            2 
 2715000   0.81210228   -8.2219151    543.84291  0.016692539  0.016225326            2 
 2716000   0.79977463   -8.2063416    545.24246  0.016729334  0.016219861            7 
 2717000   0.79751983   -8.2030623    544.65973  0.016705304  0.016214404            4 
 2718000   0.81795569   -8.2221921    544.26276  0.016686987  0.016208953            3 
 2719000   0.81400881   -8.2153918    544.47182  0.016687257   0.01620349            4 
 2720000   0.80300269   -8.1912201    545.55511  0.016714311  0.016198045            4 
 2721000   0.81437516   -8.1705626    545.67104  0.016711719  0.016192617            2 
 2722000   0.83015524   -8.1852307    545.59059  0.016703116   0.01618719            5 
 2723000   0.79845802   -8.1947113    544.96581  0.016677862  0.016181744            6 
 2724000   0.80796538   -8.2048365    545.70144  0.016694244  0.016176308            2 
 2725000   0.82414934   -8.2180485    545.08907   0.01666939  0.016170872            4 
 2726000   0.80883164   -8.1891499    544.64816  0.016649797  0.016165418            3 
 2727000   0.82016235    -8.208121    545.39603  0.016666545   0.01615999            2 
 2728000   0.82538083   -8.2249038    545.40599   0.01666074   0.01615458            3 
 2729000   0.80176693   -8.1954868    544.82743  0.016636968  0.016149178            3 
 2730000   0.81919718   -8.2078616     545.6798  0.016656893  0.016143764            3 
 2731000   0.83279165   -8.1911884    545.79363  0.016654267  0.016138367            7 
 2732000   0.81651541   -8.1710059    544.87873  0.016620264  0.016132972            4 
 2733000   0.81498195    -8.225538    545.70017  0.016639229  0.016127543           11 
 2734000   0.81620078     -8.22734    544.87187  0.016607897  0.016122093            4 
 2735000   0.80505846   -8.1930573    546.05526  0.016637881  0.016116676            4 
 2736000   0.80136125   -8.2090616    546.67805  0.016650769  0.016111272            4 
 2737000   0.81933342   -8.2071293    545.45823  0.016607546  0.016105824            2 
 2738000   0.80665146   -8.1887159    546.05019  0.016619497  0.016100427            7 
 2739000   0.81222308   -8.2044061    546.20024  0.016617994  0.016095034           10 
 2740000   0.83926851   -8.2033441    544.15002  0.016549575  0.016089654            3 
 2741000   0.81805936    -8.202955      546.141  0.016604068  0.016084258            4 
 2742000   0.81928787   -8.2367368    544.77996  0.016556648  0.016078847            1 
 2743000   0.81583421   -8.2307413    545.27317  0.016565596  0.016073429            2 
 2744000   0.81544924   -8.2107457    546.00167  0.016581683  0.016068028            3 
 2745000   0.82266887   -8.2150015    545.21682  0.016551816  0.016062611            5 
 2746000   0.81834113   -8.1978375    545.86416  0.016565433  0.016057193            2 
 2747000   0.82705434   -8.2512301    545.41549  0.016545792  0.016051769            2 
 2748000   0.80795254   -8.2546682    544.90727  0.016524359  0.016046348            1 
 2749000   0.82389084   -8.2414728    545.32361  0.016530969  0.016040908            7 
 2750000   0.83365029   -8.2246105    545.87658  0.016541715  0.016035491            2 
 2751000   0.81324134    -8.252448    545.01192  0.016509509  0.016030082            2 
 2752000   0.82118544   -8.2234611    546.09287  0.016536243  0.016024677            7 
 2753000   0.80663902    -8.240705    546.09265  0.016530229  0.016019262            2 
 2754000   0.80825968   -8.2415377    546.02715  0.016522245  0.016013849            3 
 2755000   0.81126542   -8.2200976    546.05122  0.016516976  0.016008419            2 
 2756000    0.8117908   -8.2165098    546.96718  0.016538679  0.016003032            4 
 2757000   0.80464981   -8.2437656    546.70677  0.016524809   0.01599762            2 
 2758000   0.82491779   -8.2177186    545.97482  0.016496701  0.015992211            3 
 2759000   0.81346352   -8.2024504    546.71783  0.016513164  0.015986827            5 
 2760000   0.79096446   -8.2124973    546.25013  0.016493059  0.015981463            3 
 2761000   0.80155079   -8.2128598    546.16952  0.016484653  0.015976096            2 
 2762000    0.8251863    -8.230909    546.81184  0.016498064  0.015970716            2 
 2763000   0.80727115   -8.2426536    546.68818  0.016488364  0.015965329            2 
 2764000   0.80839362   -8.2604302    546.37125  0.016472843  0.015959927            1 
 2765000   0.81114685   -8.2265084    544.98867  0.016425216  0.015954515            3 
 2766000   0.82840795   -8.2427216    546.96897   0.01647894   0.01594912            2 
 2767000   0.79802996   -8.2483079    546.27633  0.016452124  0.015943748            1 
 2768000   0.80549371   -8.2447621    546.33127  0.016447834  0.015938394            4 
 2769000   0.82145258   -8.2814457    545.62748  0.016420714  0.015933029            4 
 2770000   0.79716648   -8.2285813    547.12362  0.016459796  0.015927651            2 
 2771000   0.81322675   -8.2587382    544.83794  0.016385118  0.015922301            2 
 2772000   0.81199549   -8.2378654    546.90133  0.016441238  0.015916941            3 
 2773000   0.81809485   -8.2325822    548.49417  0.016483176  0.015911595            3 
 2774000   0.79888964   -8.2295298     547.7743  0.016455609  0.015906233            6 
 2775000   0.80434633   -8.2356178    546.71041   0.01641773  0.015900885            4 
 2776000   0.82696241   -8.2423023    547.63602  0.016439602  0.015895542            9 
 2777000   0.81413659   -8.2581746    545.83048  0.016379501  0.015890161            3 
 2778000   0.82936298   -8.2655071    547.29543  0.016417549  0.015884782            4 
 2779000   0.79683853   -8.2521055    547.20109  0.016408813   0.01587942            2 
 2780000   0.78444336   -8.2658119    546.58059   0.01638431  0.015874088            5 
 2781000   0.80213468   -8.2113742     547.1337  0.016394993  0.015868748            4 
 2782000   0.79870133   -8.2206372    548.24532  0.016422398  0.015863418            4 
 2783000   0.81161548   -8.2429317    546.16527  0.016354212  0.015858089            2 
 2784000   0.80916723   -8.2571452    547.37779  0.016384632  0.015852735            2 
 2785000   0.81100046   -8.1662133    550.06228  0.016459075  0.015847426            7 
 2786000   0.81417009   -8.2543626       547.85  0.016386994   0.01584213            4 
 2787000   0.80941522   -8.2444272    548.50384  0.016400665  0.015836822            6 
 2788000   0.81315814   -8.2049196    548.65225  0.016399218   0.01583152            7 
 2789000   0.80185531   -8.2548462    547.86618  0.016369851  0.015826202            7 
 2790000   0.82439404   -8.2691925    548.63152  0.016386843  0.015820885            6 
 2791000   0.78001462   -8.2296099    547.69085  0.016352886  0.015815538            3 
 2792000   0.79448051   -8.2180741    547.35748  0.016337079  0.015810222            4 
 2793000    0.8162389   -8.2509743     548.1346  0.016354416  0.015804929            2 
 2794000   0.82056368    -8.241223    548.08749  0.016347157  0.015799607            4 
 2795000   0.79527381   -8.2536316    547.93209  0.016336675  0.015794294            3 
 2796000   0.79301058   -8.2423877    548.24201  0.016340069  0.015788987            2 
 2797000   0.79985686   -8.2476023    548.07228  0.016329171  0.015783673            3 
 2798000   0.79348022   -8.2587069    548.31337  0.016330515  0.015778381            1 
 2799000   0.80526372   -8.2335985    548.16306  0.016320205   0.01577309            2 
 2800000   0.83667738   -8.2188483    548.88173  0.016335766  0.015767796            4 
 2801000   0.79664933   -8.2801582    547.87757  0.016300059   0.01576249            4 
 2802000    0.8078668   -8.2485902    547.60063  0.016286005  0.015757175            4 
 2803000   0.80217085   -8.2402441    547.99468   0.01629191  0.015751872            5 
 2804000   0.80407883    -8.266536    549.32045  0.016325501  0.015746572            2 
 2805000   0.80605041    -8.267478    547.96068  0.016279283  0.015741244            4 
 2806000   0.78777526   -8.2535605    548.38197  0.016285993  0.015735939            2 
 2807000   0.78624861   -8.2854066    547.59554  0.016256844  0.015730616            1 
 2808000   0.81314102   -8.2520624    548.74082  0.016285043  0.015725294            2 
 2809000   0.82529297   -8.2831702    547.85926  0.016253093  0.015720002            3 
 2810000   0.81033775   -8.2501449    548.75388   0.01627384  0.015714713            2 
 2811000   0.80160191   -8.2569553    548.49477  0.016260369  0.015709456            5 
 2812000   0.79293526   -8.2460853    549.50559  0.016284542  0.015704189            6 
 2813000   0.80361817   -8.2414532    549.15259  0.016268296  0.015698894            3 
 2814000   0.81267711   -8.2527293    548.04009  0.016229569  0.015693599            3 
 2815000   0.81324943   -8.2294369    548.38291  0.016233952  0.015688311            4 
 2816000    0.7898536   -8.2413741    548.39599  0.016228575  0.015683032            8 
 2817000   0.80540021   -8.2663671    548.54222  0.016227139  0.015677715            2 
 2818000   0.79088377   -8.2313315    548.62286  0.016223766  0.015672412            1 
 2819000   0.78864088   -8.2508713    547.73121  0.016191652  0.015667101            2 
 2820000   0.79990792   -8.2800206    548.38582  0.016205255  0.015661789            3 
 2821000   0.79955362   -8.2526458    548.27495  0.016196235  0.015656484            6 
 2822000   0.79521381     -8.24219    549.12775  0.016215679  0.015651201            1 
 2823000   0.80925325   -8.2576008    547.51642  0.016162369  0.015645914            2 
 2824000   0.80460565    -8.257745    548.00959  0.016171199  0.015640606            2 
 2825000   0.78985464   -8.2900521    548.40294  0.016177078  0.015635291            3 
 2826000   0.78876404     -8.27696    549.48873  0.016203371  0.015629978            3 
 2827000   0.80550079    -8.262128    548.60379  0.016171554  0.015624668            4 
 2828000   0.81157933   -8.2288156    550.45145  0.016220281  0.015619379            3 
 2829000   0.79665921   -8.2484805    548.59944  0.016159993  0.015614087            2 
 2830000   0.78338487   -8.2660131    549.22623  0.016172739  0.015608818            2 
 2831000   0.79263226   -8.2637901    548.27515  0.016139031  0.015603524            2 
 2832000   0.79856214   -8.2892315    547.88021  0.016121711  0.015598219            2 
 2833000   0.81961622   -8.2746587    547.85771  0.016115358  0.015592898            2 
 2834000   0.80738805   -8.2758291     548.0115  0.016114194  0.015587576            1 
 2835000   0.80569702   -8.3143878    548.87188    0.0161338  0.015582261            1 
 2836000   0.80725655   -8.2886105    547.79523  0.016096475  0.015576943            5 
 2837000    0.8014458   -8.2829951    548.59556   0.01611431  0.015571615            3 
 2838000   0.79688166   -8.2908428    548.53861  0.016106959  0.015566315            7 
 2839000   0.78489558   -8.2569688    548.81629  0.016109437  0.015561019            1 
 2840000   0.80301852   -8.2667512    547.89035  0.016076595  0.015555732            4 
 2841000   0.79509446   -8.2726887    549.31704  0.016112784  0.015550437            2 
 2842000   0.78570673    -8.292823    548.72928   0.01608988  0.015545122            6 
 2843000   0.79645924   -8.2751204    549.50129   0.01610685  0.015539827            4 
 2844000   0.79503029   -8.2754034    549.73008   0.01610789  0.015534553            3 
 2845000   0.80546183   -8.2787757    549.24371  0.016087982  0.015529262            2 
 2846000   0.80640275   -8.2848843    548.18221  0.016051248  0.015523969            5 
 2847000   0.81058782   -8.3146942    547.45091  0.016024204  0.015518689            3 
 2848000   0.80024496   -8.2861302    548.91835  0.016061516  0.015513396            4 
 2849000   0.80850284   -8.2723172    548.28047   0.01603722  0.015508121            8 
 2850000   0.80543704   -8.2495904    549.02059  0.016053234  0.015502858            1 
 2851000   0.79059283   -8.2510778    550.09574  0.016079029  0.015497596            5 
 2852000   0.81527825   -8.2726574    549.65874  0.016060622  0.015492333            4 
 2853000   0.79577525   -8.2668349    549.10843  0.016038919  0.015487066            9 
 2854000   0.80030031   -8.2717294    549.05368    0.0160317  0.015481829            5 
 2855000   0.80328518   -8.2664008    550.54883  0.016069726  0.015476585            2 
 2856000   0.80271982   -8.2714666    549.48704  0.016033118  0.015471347            6 
 2857000   0.81117329   -8.2829898    549.03215  0.016014239  0.015466139            9 
 2858000    0.7877518   -8.2522684    549.67149  0.016027277  0.015460924            5 
 2859000   0.78966501   -8.2688127    549.72108  0.016023117  0.015455703            2 
 2860000   0.77601041   -8.2761193     549.0369  0.015997579  0.015450477            2 
 2861000   0.79650554   -8.2955585    549.64963  0.016009834  0.015445216            2 
 2862000   0.79747409   -8.2753452    550.55667  0.016030651  0.015439967            3 
 2863000    0.7908296   -8.2635643     550.4229  0.016021158   0.01543475            5 
 2864000   0.79770825    -8.261188    549.40208  0.015985861  0.015429532            2 
 2865000   0.81447599   -8.2792993    549.11925  0.015972055   0.01542432            4 
 2866000   0.79722478   -8.2984509    548.66247  0.015953201  0.015419078            2 
 2867000   0.78918096   -8.2750463     549.4533  0.015970623  0.015413814            2 
 2868000    0.7916111    -8.285244    549.24749  0.015959074  0.015408539            2 
 2869000   0.79066671   -8.2696226    551.76519  0.016026641  0.015403285            3 
 2870000   0.78500835   -8.2842698    549.68112  0.015960544   0.01539803            1 
 2871000   0.79748896   -8.2732574    549.73527  0.015956556  0.015392803            2 
 2872000   0.78504663   -8.2817621    550.13735  0.015962667  0.015387565            2 
 2873000   0.79235529   -8.3005599    550.18615  0.015958526  0.015382316            4 
 2874000   0.77814843   -8.2742018    550.63012  0.015965847  0.015377087           10 
 2875000   0.78303181   -8.2811138     550.7917  0.015964977  0.015371844            1 
 2876000   0.79932511   -8.2642968     550.2243  0.015942985  0.015366616            4 
 2877000   0.79847204   -8.2970379    549.66538  0.015921254  0.015361401            3 
 2878000   0.78200873   -8.2947766    549.31201   0.01590549  0.015356186            3 
 2879000   0.78082786    -8.291301    550.08516  0.015922344  0.015350971            4 
 2880000   0.78517721    -8.243188    551.18277  0.015948576  0.015345757            2 
 2881000   0.77527379   -8.2919626    550.24004  0.015915771  0.015340535            2 
 2882000   0.77068326   -8.2903683    550.09311     0.015906  0.015335329            3 
 2883000   0.79633077   -8.2870012    548.35989  0.015850384  0.015330124            7 
 2884000   0.80076091      -8.2554    550.34443  0.015902232  0.015324897            3 
 2885000    0.7994639   -8.3020495    548.23403   0.01583576  0.015319655            4 
 2886000   0.80333956   -8.2774059    549.70774  0.015872827  0.015314426            2 
 2887000    0.7989012   -8.2837828    550.34054  0.015885595  0.015309191            3 
 2888000   0.78511633   -8.2826017    551.29833  0.015907731   0.01530394            2 
 2889000   0.78339441    -8.301806      549.948  0.015863274  0.015298695            2 
 2890000   0.79322825   -8.2980218    550.01899  0.015859833  0.015293429            9 
 2891000   0.77741554   -8.3027862    550.51727   0.01586871  0.015288169            2 
 2892000   0.79525882   -8.2747548     549.6764  0.015838993  0.015282932            2 
 2893000   0.78872943   -8.2863074    549.40724  0.015825764  0.015277694            2 
 2894000   0.78169376   -8.2739212    550.59273  0.015854432  0.015272455            3 
 2895000   0.78616729   -8.2689584     550.1337  0.015835743   0.01526724            3 
 2896000   0.78241516   -8.2889722     550.5214  0.015841431  0.015262008            5 
 2897000   0.79931122   -8.2861896    551.52711  0.015864892  0.015256789            2 
 2898000    0.7812149   -8.2667525    550.43744  0.015828084  0.015251549            4 
 2899000   0.78002816   -8.3095986    550.32424   0.01581937  0.015246347            6 
 2900000   0.80880595   -8.3062573    550.07405  0.015806725  0.015241095            1 
 2901000   0.79774099   -8.3352351    548.85887   0.01576637  0.015235843            4 
 2902000   0.77942936   -8.3168085     549.4542  0.015778032   0.01523058            3 
 2903000   0.77767654   -8.3422184    548.70598  0.015751119  0.015225299            1 
 2904000   0.77544157   -8.3091261    550.71705  0.015803405  0.015220052            3 
 2905000   0.79630191   -8.2860046    549.64031  0.015767077  0.015214828            3 
 2906000   0.78918014   -8.3099084     549.6553  0.015762081   0.01520958            5 
 2907000    0.7800768   -8.2780284    550.64918   0.01578515  0.015204355            4 
 2908000   0.77749316   -8.3127653    550.19113  0.015766596  0.015199143            3 
 2909000   0.79612856   -8.2628792    550.96522  0.015783351  0.015193925            5 
 2910000   0.78548221   -8.3165866    551.66021   0.01579783  0.015188718            5 
 2911000   0.77214922   -8.3054386    550.21361  0.015750991   0.01518351            3 
 2912000   0.77881839    -8.295147    549.90571  0.015736771   0.01517832            3 
 2913000   0.78304246   -8.3030596    550.62046  0.015751815  0.015173145            3 
 2914000   0.78812199   -8.2988183    550.07226  0.015730733  0.015167961            3 
 2915000   0.77372931   -8.2606317     550.6764  0.015742607  0.015162786            9 
 2916000   0.76305706     -8.29908    550.85202  0.015742227    0.0151576            4 
 2917000   0.78586087   -8.3210051    550.90224  0.015738265   0.01515241            1 
 2918000   0.78077764   -8.3206867    551.06722  0.015737583  0.015147237            3 
 2919000   0.78794919   -8.3159296    550.89591  0.015727301  0.015142062            3 
 2920000   0.78625863   -8.3332877    550.29226  0.015704688  0.015136859            2 
 2921000   0.76312673   -8.3217156    551.06722   0.01572142  0.015131667            2 
 2922000   0.78209689   -8.3370063    550.20629  0.015691487  0.015126501            2 
 2923000    0.7790705   -8.3088223    552.34273  0.015747027  0.015121361            1 
 2924000   0.79541876   -8.3343746    550.64914  0.015693375  0.015116206            3 
 2925000   0.77624305   -8.3212782    551.98226   0.01572599  0.015111033            5 
 2926000   0.77688865   -8.3295378    550.65595  0.015682842   0.01510588            6 
 2927000   0.78524384   -8.2739266    552.87965  0.015740794  0.015100727            1 
 2928000   0.77441727    -8.278832    551.25993  0.015689319  0.015095573            2 
 2929000   0.78083027   -8.3025686    550.68044  0.015667476  0.015090421            2 
 2930000   0.79211171   -8.3011556    551.52422  0.015686127  0.015085306            4 
 2931000   0.77925734   -8.2950113    551.81592  0.015689069  0.015080175            2 
 2932000   0.78126521   -8.3107883    551.21433  0.015666619  0.015075043            4 
 2933000    0.7886812   -8.3263583    550.32111  0.015635899  0.015069866            3 
 2934000   0.78164034   -8.2983813    551.41746  0.015661709  0.015064685            2 
 2935000   0.76882298    -8.334098    551.31889  0.015653574  0.015059523            4 
 2936000   0.77319885   -8.3105172    550.29701  0.015619238  0.015054371            3 
 2937000   0.78534901   -8.3246954    551.83367  0.015657521  0.015049207            4 
 2938000   0.78344918   -8.3446039     550.1651  0.015604864  0.015044004            3 
 2939000   0.78362332   -8.3430375    549.63097   0.01558441  0.015038811            2 
 2940000   0.76961049   -8.3577129    550.26084  0.015596963  0.015033593            2 
 2941000   0.80060459   -8.3366487     551.9686  0.015640049  0.015028389            4 
 2942000   0.78757214   -8.3441664    550.16732  0.015583711  0.015023188            4 
 2943000   0.79428721   -8.3395025    549.32837   0.01555466  0.015017976            3 
 2944000    0.7968004   -8.3446965    549.76861  0.015561838   0.01501276            4 
 2945000   0.77716194   -8.3347048    551.17086  0.015596233  0.015007568            2 
 2946000   0.78098251   -8.3391789    550.35092  0.015567745  0.015002382            2 
 2947000   0.78285279   -8.3340089    551.59225  0.015597564  0.014997187            4 
 2948000    0.7593557   -8.3272219    552.56828  0.015619863  0.014992023            6 
 2949000   0.76504597   -8.3198472    551.58388  0.015586749  0.014986871            2 
 2950000   0.77590696   -8.3237768     552.0314  0.015594107  0.014981725            2 
 2951000   0.77885957   -8.3135296    551.86218  0.015584044  0.014976568            4 
 2952000    0.7676308   -8.3310675    551.94013  0.015580966  0.014971427            5 
 2953000   0.77267157    -8.319895    551.95274  0.015576045  0.014966279            2 
 2954000   0.77404966   -8.3072065    551.29238  0.015552143  0.014961129            3 
 2955000   0.77728373   -8.3036541    552.54749  0.015582276  0.014955986            2 
 2956000   0.76596853   -8.3053807    551.91828  0.015559266  0.014950848            6 
 2957000   0.77649113   -8.3254925    550.98319  0.015527652  0.014945691            4 
 2958000   0.78245074   -8.3438009    551.34803   0.01553268  0.014940541            2 
 2959000    0.7763101   -8.3271364     550.1397  0.015493402  0.014935413            5 
 2960000   0.79245354    -8.338235    551.13936  0.015516311  0.014930277            3 
 2961000   0.78426798   -8.3442665    550.44177  0.015491438  0.014925119            1 
 2962000   0.76046384   -8.3650642    550.88519  0.015498683  0.014919957            1 
 2963000   0.78037668   -8.3274895    551.66237   0.01551531  0.014914803            6 
 2964000   0.77584319   -8.3148745    551.98357  0.015519106  0.014909653            3 
 2965000    0.7783697   -8.3559182    550.94919    0.0154848  0.014904482            2 
 2966000   0.77981946   -8.3384299    550.90821  0.015478428  0.014899309            2 
 2967000   0.76283289   -8.3537413    551.45107  0.015488458  0.014894163            5 
 2968000    0.7819289   -8.3352491    551.42435   0.01548249  0.014889015            7 
 2969000   0.77214076   -8.3416039    551.75857  0.015486656  0.014883863            3 
 2970000   0.76629783   -8.3432655    551.82831  0.015483398  0.014878724           10 
 2971000   0.76805811   -8.3283403    550.89244  0.015451936  0.014873585            3 
 2972000   0.79647695   -8.3322551    551.15008  0.015453961  0.014868452            5 
 2973000   0.78492227   -8.3518345    551.88973  0.015469496  0.014863315            6 
 2974000   0.78021362   -8.3020035    552.38673   0.01547822  0.014858199            2 
 2975000   0.79527683   -8.3609304      551.775  0.015455882  0.014853075            3 
 2976000   0.77195702   -8.3483026    551.74775  0.015449926  0.014847936            3 
 2977000   0.78059706    -8.335735    551.26247  0.015431152  0.014842773            1 
 2978000   0.78789799   -8.3377397    551.94275  0.015445006  0.014837641            6 
 2979000    0.7936176   -8.3374092    551.62511  0.015430936  0.014832523            4 
 2980000   0.77886259   -8.3357496    553.01694  0.015464679  0.014827415            2 
 2981000   0.79487702   -8.3266763    551.63104  0.015420749  0.014822322            2 
 2982000   0.77004763   -8.3273265    551.73396  0.015418454  0.014817228            2 
 2983000   0.78728784   -8.2850461    553.34949  0.015458417  0.014812122            3 
 2984000   0.77171163   -8.3388596    552.81238  0.015438237  0.014807016            2 
 2985000   0.76607099   -8.3389344     551.9092   0.01540785    0.0148019            2 
 2986000   0.76805915    -8.300389    551.54401  0.015392499   0.01479677            6 
 2987000   0.76739733   -8.3438101    551.87613  0.015396611  0.014791639            3 
 2988000   0.79049813   -8.3611487    551.04045  0.015368152  0.014786506            2 
 2989000   0.76022388   -8.3735836    550.42909  0.015345966  0.014781364            5 
 2990000   0.76513788   -8.3520587    552.18872  0.015389875  0.014776246            1 
 2991000   0.76117907   -8.3388251    552.30405  0.015387943  0.014771136            3 
 2992000   0.78112301   -8.3620085    551.79262  0.015368556  0.014766025            7 
 2993000   0.77452606    -8.348187    550.55801  0.015329046   0.01476089            2 
 2994000    0.7853821   -8.3495062    551.49003  0.015349867  0.014755763            6 
 2995000   0.77246937   -8.3490142    551.21945  0.015337213  0.014750654            4 
 2996000   0.76718122   -8.3400638    552.87546  0.015378156  0.014745551            1 
 2997000   0.76808405    -8.349098    552.22334  0.015354892  0.014740455            5 
 2998000   0.76797102   -8.3753085    551.36458    0.0153259  0.014735358            3 
 2999000     0.787497   -8.3701387    551.72809  0.015330891  0.014730263            1 
 3000000   0.77300859   -8.3436968     553.8777  0.015385492  0.014725203            5 
 3001000     0.764407   -8.3106292    552.31131  0.015336869  0.014720132            1 
 3002000   0.76160598   -8.3412201    553.59946  0.015367518  0.014715074            6 
 3003000   0.76055122   -8.3396668    554.05203  0.015374959   0.01471003           11 
 3004000    0.7682214   -8.3150262    552.57776  0.015328944  0.014704983            9 
 3005000   0.77057444   -8.3130125    554.38415  0.015373936  0.014699958            6 
 3006000   0.77444095   -8.3174935    552.61359  0.015319738  0.014694923            2 
 3007000   0.77785387   -8.2996471    553.46682  0.015338289  0.014689909            4 
 3008000   0.76892636   -8.3440371    552.28127  0.015300345  0.014684871            1 
 3009000   0.78193419   -8.3058355    554.38371  0.015353487  0.014679848            2 
 3010000   0.76044006   -8.3203835    553.72754   0.01533022  0.014674815            4 
 3011000   0.76809199   -8.3494427    553.01926  0.015305526   0.01466978            9 
 3012000   0.77354522   -8.3487263    553.06644   0.01530175  0.014664724            5 
 3013000   0.77899616   -8.3552287     552.9308   0.01529292  0.014659673            5 
 3014000   0.76397439   -8.3686291    553.31728  0.015298531  0.014654598            3 
 3015000    0.7599733   -8.3715597    553.43954  0.015296836  0.014649518            1 
 3016000   0.77541131   -8.3792814    551.26463  0.015231671  0.014644447            3 
 3017000   0.77291775   -8.3934738    551.86957  0.015243331   0.01463938            3 
 3018000   0.77813117   -8.3386392    552.18444  0.015246975    0.0146343            3 
 3019000   0.75079083   -8.3417171    553.72501  0.015284449   0.01462926            5 
 3020000   0.78794502   -8.3424786    552.74444   0.01525233   0.01462422            4 
 3021000    0.7666741   -8.3381703     553.8761  0.015278498  0.014619203            2 
 3022000   0.76256555   -8.3344387    554.00133  0.015276895  0.014614215            2 
 3023000   0.75570223   -8.3361114    553.67694  0.015262899    0.0146092            5 
 3024000    0.7741714   -8.3232402    552.40411  0.015222776  0.014604176            3 
 3025000   0.76324426   -8.3575735    552.70845  0.015226128  0.014599149            3 
 3026000   0.77492153   -8.3417348    554.20182  0.015262222  0.014594111            1 
 3027000   0.76948356   -8.3182809    552.62448  0.015213756   0.01458911            3 
 3028000    0.7801416   -8.3624218    553.29849  0.015227281  0.014584107            1 
 3029000   0.75582865    -8.331089    553.45715  0.015226619  0.014579107            4 
 3030000   0.75729673   -8.3607155     553.8857   0.01523338  0.014574103            2 
 3031000   0.75993922   -8.3308747    554.44441  0.015243715  0.014569097            1 
 3032000   0.75478824   -8.3286008    554.00459  0.015226599  0.014564112            1 
 3033000   0.77175736    -8.346265    554.76849  0.015242568   0.01455915            3 
 3034000   0.77665149   -8.3637886    553.66457  0.015207223  0.014554158            4 
 3035000   0.76569387   -8.3411832    554.53734  0.015226176  0.014549153            3 
 3036000   0.76454204   -8.3956145    552.66067  0.015169649  0.014544149            5 
 3037000   0.77250838   -8.3807327    553.89394  0.015198495  0.014539122            2 
 3038000   0.78430362    -8.355725    553.37228  0.015179182  0.014534122            1 
 3039000   0.73542188   -8.3651662    552.56537  0.015152061  0.014529099            3 
 3040000   0.78174032   -8.3728221    552.97198  0.015158223  0.014524072            4 
 3041000   0.76161376   -8.3753687    553.02006  0.015154556  0.014519043            3 
 3042000   0.76479705   -8.3822529     553.1127  0.015152112  0.014514015            5 
 3043000    0.7524021   -8.3937709    551.92701  0.015114662  0.014508989            6 
 3044000   0.76725639   -8.3812219    553.20093  0.015144572  0.014503964            3 
 3045000   0.78066298   -8.3916693     553.3566  0.015143859  0.014498925            5 
 3046000   0.75442107   -8.3732036    553.60399  0.015145655  0.014493898            5 
 3047000   0.77164021   -8.3631732    554.49011  0.015164919  0.014488873            3 
 3048000    0.7664008   -8.3690391     554.8794  0.015170587  0.014483867            4 
 3049000   0.75690281   -8.3733656    553.91717  0.015139313  0.014478869            6 
 3050000   0.75446822   -8.3560117    553.99986  0.015136608  0.014473867            4 
 3051000   0.76170342    -8.376579    552.46834  0.015089816  0.014468861            5 
 3052000   0.75086899   -8.3512091     552.6737  0.015090479  0.014463839            2 
 3053000   0.76466049   -8.4007752    552.44253  0.015079226  0.014458829            4 
 3054000    0.7709082   -8.4071314    552.72425  0.015081976  0.014453807            2 
 3055000   0.77067061   -8.3850441    554.46536  0.015124533  0.014448787            2 
 3056000   0.77664248   -8.3591821    554.81288   0.01512906   0.01444378            2 
 3057000   0.77076232   -8.3849214    553.12137  0.015078001  0.014438781            3 
 3058000   0.76490086   -8.3689113    552.91081  0.015067332  0.014433784            1 
 3059000    0.7550113   -8.3794827    552.65204  0.015055357  0.014428769            1 
 3060000   0.76589986   -8.4155551    551.60294  0.015021867  0.014423758            3 
 3061000   0.75718279   -8.4198657    552.45179  0.015040068  0.014418733            3 
 3062000   0.76300316   -8.3823101    554.04742  0.015078582  0.014413718            2 
 3063000   0.75798765   -8.3933957    551.87105  0.015014448  0.014408711            5 
 3064000   0.75130631   -8.3929862    553.70893  0.015059534  0.014403711            4 
 3065000   0.76060313   -8.3779177    554.53161  0.015076988  0.014398722            3 
 3066000   0.76862709   -8.3743534     553.8001  0.015052188  0.014393721            4 
 3067000    0.7591485   -8.3832699    553.32463  0.015034361  0.014388715            3 
 3068000   0.76543888   -8.3751887    554.00478  0.015047935  0.014383722            5 
 3069000   0.75044931   -8.3776187    553.50846  0.015029555  0.014378718            8 
 3070000   0.76968603   -8.3842224    553.96198   0.01503697  0.014373716            6 
 3071000   0.76460789   -8.3655482    553.46399   0.01501856  0.014368705            8 
 3072000   0.75542271   -8.3958565    551.56526  0.014962165  0.014363687            8 
 3073000   0.75837671   -8.3816756    552.46416  0.014981673  0.014358694            3 
 3074000   0.75309819   -8.3987592    553.87454  0.015015033  0.014353703            3 
 3075000   0.75652795   -8.3697311    553.76243  0.015007112  0.014348704            2 
 3076000   0.75392137   -8.4034679    552.37443   0.01496463  0.014343706            2 
 3077000   0.78600424   -8.3538109    553.40877   0.01498778    0.0143387            5 
 3078000   0.75744037   -8.3625563    554.48156  0.015011955  0.014333734            1 
 3079000   0.76021948   -8.3624649    554.51414  0.015007961  0.014328769            2 
 3080000   0.78164197   -8.3665445    554.82483  0.015011494  0.014323812            6 
 3081000   0.75906264   -8.3965105    553.81137   0.01497921  0.014318839            4 
 3082000   0.75426363   -8.3935897    553.11584  0.014955544   0.01431386            2 
 3083000   0.75876643   -8.3713829    553.08079  0.014949746  0.014308873            5 
 3084000   0.74092554   -8.3802517    553.67404  0.014960928  0.014303894            5 
 3085000   0.74652368   -8.3741761    554.03108  0.014965724  0.014298921            2 
 3086000   0.75845115   -8.3773823    553.85613   0.01495615  0.014293937            6 
 3087000    0.7619113   -8.3577149    553.57898  0.014943823  0.014288968            3 
 3088000   0.75082171   -8.3565463    553.48132  0.014936348  0.014283989            3 
 3089000   0.76942612   -8.3761773    553.47267  0.014931279  0.014279005            3 
 3090000    0.7341514   -8.3896974    552.84172  0.014909431  0.014274014            3 
 3091000   0.76380276   -8.3598931    553.12762  0.014912316  0.014269021            3 
 3092000   0.75450344   -8.3796479    553.14231  0.014907889  0.014264037            4 
 3093000   0.74331874   -8.3982103    552.72135  0.014891727  0.014259043            5 
 3094000    0.7693156   -8.3419651    552.89306  0.014891539  0.014254056            2 
 3095000   0.75628546   -8.4062503    553.03057   0.01489043  0.014249088            2 
 3096000   0.76033927   -8.3710704    553.66539  0.014902708  0.014244108            6 
 3097000    0.7610961   -8.3900123    553.31437   0.01488845  0.014239121            3 
 3098000   0.74202662   -8.3595763    553.35506  0.014884739  0.014234143            1 
 3099000   0.75787179   -8.3454359    553.62721  0.014887254  0.014229166            4 
 3100000   0.75685929   -8.3601005    554.15672  0.014896686  0.014224191            2 
 3101000   0.74834697   -8.3836897    553.72078  0.014880167  0.014219217            6 
 3102000   0.75318529   -8.3814789    553.47382  0.014868736  0.014214236            1 
 3103000   0.76531332   -8.4014299    553.30434  0.014859393  0.014209264            1 
 3104000   0.76441022   -8.4295861    552.86679  0.014842859  0.014204266            1 
 3105000   0.76228842   -8.3873361     553.3101  0.014849976  0.014199278            3 
 3106000   0.75668338   -8.4034452    552.59599  0.014826035  0.014194278            4 
 3107000   0.75131953   -8.3915797    553.96332  0.014857937  0.014189286            5 
 3108000    0.7404583   -8.3956939    552.74998  0.014820624  0.014184313            3 
 3109000   0.74488724   -8.3905341    552.86514  0.014818943   0.01417934            6 
 3110000    0.7490751   -8.4040117    552.53724  0.014805392  0.014174367            4 
 3111000   0.75116676   -8.4013213    552.31646  0.014794719   0.01416938            4 
 3112000   0.75507591   -8.3996097    554.46535  0.014847508  0.014164372            4 
 3113000   0.76707396   -8.4181118    552.67299  0.014794758  0.014159374            2 
 3114000   0.75930177     -8.40154    552.46208  0.014784363  0.014154378            2 
 3115000    0.7365053    -8.405613    552.20768  0.014772811  0.014149386            2 
 3116000   0.74958118   -8.4405276    551.93347  0.014760737  0.014144372            1 
 3117000   0.75443179   -8.4077267    552.59997   0.01477382  0.014139361            1 
 3118000   0.75290247   -8.3910005    554.29993  0.014814516   0.01413437            4 
 3119000   0.75387401   -8.4329481      552.317  0.014756786  0.014129368            4 
 3120000    0.7547345   -8.3996126    552.39162   0.01475405  0.014124366            2 
 3121000   0.74607757   -8.3808929    553.05695  0.014767087  0.014119377            2 
 3122000   0.74914848   -8.3959137    552.80646  0.014755671  0.014114396            2 
 3123000    0.7509089   -8.4258023    552.89219  0.014753234   0.01410942            2 
 3124000   0.74566911   -8.4046119    552.96826   0.01475054  0.014104432            4 
 3125000   0.75457967   -8.3819334    552.46954  0.014732521  0.014099467            2 
 3126000   0.76903419    -8.411292    552.83921  0.014737663  0.014094502            2 
 3127000   0.76206486   -8.4103628    553.52978  0.014751353   0.01408953            4 
 3128000   0.74786232   -8.4201008    553.16649  0.014736959  0.014084554            1 
 3129000   0.77069359    -8.423175    553.32762   0.01473654  0.014079569            4 
 3130000   0.75504765   -8.4189729    551.93426  0.014694735  0.014074571            2 
 3131000   0.73799929   -8.4270737    551.02609  0.014665871  0.014069575            7 
 3132000   0.75138183   -8.4232474     551.9963  0.014687002  0.014064581            1 
 3133000   0.76698399   -8.4298739    552.78522  0.014703299  0.014059593            7 
 3134000   0.73703363   -8.4252519    553.09347  0.014706803  0.014054597            2 
 3135000   0.73544345   -8.4224589    552.63924  0.014690038  0.014049595            4 
 3136000   0.75909283   -8.4171902     552.3987  0.014678962    0.0140446            4 
 3137000   0.74684067   -8.4363907    552.53556  0.014677918  0.014039607            3 
 3138000   0.74304212   -8.4092018    551.15235  0.014636508  0.014034623            3 
 3139000   0.75654129   -8.3966548    551.79671  0.014648952  0.014029635            4 
 3140000   0.75027731   -8.4150037    552.79165  0.014670691  0.014024644            1 
 3141000   0.75202361   -8.4074826    551.32389   0.01462708   0.01401965            2 
 3142000   0.76945141    -8.408647    552.84644  0.014662806   0.01401467            5 
 3143000   0.74590916   -8.3964623    552.33521  0.014644586   0.01400969            3 
 3144000   0.75725868   -8.4292065     552.4624    0.0146433  0.014004703            2 
 3145000   0.74115517   -8.4251397    551.52109  0.014613701  0.013999718            1 
 3146000   0.75503881   -8.4323964    552.77285  0.014642214  0.013994742            3 
 3147000   0.76521939   -8.4362679    552.79226  0.014638075  0.013989748            3 
 3148000   0.74702025   -8.4416341    551.65232  0.014603248  0.013984751            3 
 3149000   0.73791128   -8.4315283    552.13966  0.014611508  0.013979757            1 
 3150000   0.74837771   -8.4346989    552.65806  0.014620584  0.013974774            2 
 3151000    0.7409385    -8.424361    551.41979  0.014583196  0.013969776            4 
 3152000   0.73905943   -8.4433733     551.7057  0.014586128  0.013964785            3 
 3153000   0.75698067   -8.4381302     552.5807  0.014604628  0.013959816            6 
 3154000   0.75269645   -8.4033856    553.51061  0.014624567  0.013954846            4 
 3155000   0.76346718   -8.4121369    552.48447  0.014592828  0.013949873            4 
 3156000    0.7588378   -8.4366578    552.84336  0.014597681  0.013944914            1 
 3157000   0.74201456    -8.421533    552.68821  0.014588961  0.013939943            3 
 3158000   0.74817174   -8.4150952    552.46127  0.014578353  0.013934982            2 
 3159000   0.73405627   -8.4652545    552.26587  0.014568584  0.013930011            2 
 3160000   0.72280631   -8.4315889    553.06953  0.014585167   0.01392504            3 
 3161000   0.76420561   -8.4352152    552.17065  0.014556856  0.013920086            2 
 3162000   0.74672556   -8.4298059    552.19018  0.014552767  0.013915125            3 
 3163000   0.74825872   -8.4404087    551.60241   0.01453268  0.013910173            2 
 3164000    0.7455439   -8.4140278    553.02608  0.014565584  0.013905207            2 
 3165000   0.75889977   -8.4485556    551.57378  0.014522743  0.013900256            2 
 3166000   0.73092176   -8.4464138    552.77946  0.014549891    0.0138953            3 
 3167000   0.73838582   -8.4249047    553.03648   0.01455206  0.013890343            1 
 3168000   0.74647072   -8.4227748    553.32949  0.014555174  0.013885395            3 
 3169000   0.72976954   -8.3988133    553.34023  0.014550863   0.01388047            3 
 3170000   0.75366021   -8.3964011    553.60039  0.014553112  0.013875552            5 
 3171000   0.75582246   -8.4277908    552.47856  0.014519041  0.013870613            3 
 3172000   0.73447798   -8.4293859    553.11453  0.014531172  0.013865683            1 
 3173000   0.74923307   -8.4355454    552.41418  0.014508199  0.013860742            5 
 3174000   0.74878688   -8.4308455    552.75098  0.014512471  0.013855815            3 
 3175000   0.73712144   -8.4127147    552.44191  0.014499788  0.013850858            3 
 3176000   0.75817274    -8.394947    554.42642  0.014547293  0.013845924            2 
 3177000   0.74188714    -8.415407    553.40338  0.014515879  0.013841002            4 
 3178000   0.73501474   -8.4028083    552.56784  0.014489402   0.01383608            2 
 3179000   0.74270879   -8.3892924    552.98988  0.014495908  0.013831164            3 
 3180000   0.73661456   -8.4281917    552.84088  0.014487444   0.01382624            4 
 3181000   0.74142367   -8.4168239    553.83922  0.014509044  0.013821309            6 
 3182000   0.73583308   -8.4648651    552.90674  0.014480063  0.013816355            2 
 3183000   0.74403229   -8.4424069    551.92278  0.014449753  0.013811399            4 
 3184000   0.73810221   -8.4068909     552.7345   0.01446646  0.013806439            3 
 3185000   0.74561869   -8.4302839    551.53453  0.014430522  0.013801487            2 
 3186000   0.74754342   -8.4325159    552.64666  0.014455081  0.013796527            5 
 3187000   0.74806618   -8.4586689    552.62119  0.014449879  0.013791568            5 
 3188000   0.74783107   -8.4676015     551.7177   0.01442173  0.013786611            5 
 3189000   0.73811381   -8.4403142    552.19981  0.014429806  0.013781651            4 
 3190000   0.73544972   -8.4448091     552.0534  0.014421458  0.013776713           12 
 3191000    0.7381182    -8.423614    552.09592  0.014418049   0.01377178            2 
 3192000   0.72174759   -8.4230026    551.03128  0.014385737  0.013766842            8 
 3193000   0.75345568   -8.4767126    551.29035  0.014387993    0.0137619            3 
 3194000   0.74531172   -8.4227232    552.26939  0.014409032  0.013756961            1 
 3195000   0.73287005   -8.4252754    552.06619  0.014399222  0.013752017            3 
 3196000   0.74243651   -8.4550923    553.33497    0.0144278  0.013747075            1 
 3197000   0.74748333   -8.4308245    552.35001  0.014397613  0.013742144            3 
 3198000     0.753022   -8.4133654    552.94741  0.014408678  0.013737233            3 
 3199000   0.73896906   -8.4081543    553.14995   0.01440945  0.013732312            3 
 3200000   0.77433874   -8.4610373    552.25767   0.01438171  0.013727378            3 
 3201000   0.73727433   -8.4279809    552.52177  0.014384093  0.013722459            3 
 3202000   0.74967561   -8.4510015    552.81383  0.014387202  0.013717559            6 
 3203000   0.74709413   -8.4357987    552.72779  0.014380471  0.013712639            4 
 3204000    0.7440611   -8.4601923    552.36011   0.01436642   0.01370772            3 
 3205000   0.73499048   -8.4087665    552.59391  0.014368016  0.013702786            1 
 3206000   0.71290328   -8.4502979    552.44242  0.014359597   0.01369787            2 
 3207000   0.74848664   -8.4267717    553.16099  0.014373792  0.013692959           10 
 3208000   0.73404068   -8.4393273    552.75347  0.014358725  0.013688037            5 
 3209000   0.73643448   -8.4376002    552.69169  0.014352646  0.013683124            2 
 3210000   0.73140457   -8.4525509    552.17496   0.01433476  0.013678206            2 
 3211000   0.75089484   -8.4227769    552.51006  0.014338993  0.013673295            4 
 3212000   0.73915869   -8.4562689    553.21625   0.01435285  0.013668381            1 
 3213000   0.75275174   -8.4699851    552.81321  0.014337929  0.013663466            2 
 3214000    0.7510472   -8.4101883    552.34214  0.014321254  0.013658558            2 
 3215000   0.74486051   -8.4481231    552.49018  0.014320637  0.013653641            2 
 3216000   0.73401615   -8.4317877    552.23449  0.014309559  0.013648717            2 
 3217000    0.7472642   -8.4519481    552.12371  0.014302241   0.01364381            4 
 3218000   0.73039007   -8.4647748    551.92692    0.0142927  0.013638881            4 
 3219000   0.74372311   -8.4438832    552.44769  0.014301742  0.013633968            3 
 3220000   0.72715452    -8.422615    552.96933  0.014310801  0.013629072            3 
 3221000   0.74030637   -8.4323716    552.47437  0.014293552   0.01362418            4 
 3222000    0.7384206   -8.4513771    553.15427  0.014306701  0.013619294            2 
 3223000   0.73440582   -8.4396183    552.25933  0.014279122  0.013614401            3 
 3224000   0.74682148   -8.4804955    551.00717  0.014242328  0.013609502            5 
 3225000   0.74315265   -8.4466191    552.32915  0.014272071  0.013604604            3 
 3226000   0.74603534   -8.4392992    553.02364  0.014285587  0.013599724            2 
 3227000   0.74019887   -8.4495577    552.59215  0.014270017  0.013594822            2 
 3228000    0.7208427   -8.4536426    552.55827  0.014264722  0.013589937            8 
 3229000   0.73021215   -8.4826351    551.61826  0.014236045  0.013585036            3 
 3230000   0.72884535   -8.4763473    551.55886  0.014230105  0.013580148            2 
 3231000   0.72534681    -8.453398    551.98576  0.014236711  0.013575256            4 
 3232000   0.72400015   -8.4470995    551.76004  0.014226486  0.013570368            2 
 3233000   0.74820669   -8.4471533    552.80183  0.014248939  0.013565481            5 
 3234000   0.73030324    -8.461129    551.87997  0.014220779  0.013560598            7 
 3235000   0.73147147    -8.477991    553.10224  0.014247868   0.01355572            4 
 3236000   0.72776941   -8.4534037    552.41794  0.014225843  0.013550847            3 
 3237000   0.73666341   -8.4519744    552.55628   0.01422501  0.013545981            2 
 3238000   0.73960967    -8.443039    553.51317  0.014245243  0.013541104            5 
 3239000     0.741195   -8.4330784    552.68314   0.01421949  0.013536253            4 
 3240000   0.74757847   -8.4433254    552.19187  0.014202466  0.013531384            5 
 3241000   0.73644666   -8.4149994    552.50309  0.014206086  0.013526538            6 
 3242000   0.74225377   -8.4392003    553.85252   0.01423639  0.013521707            2 
 3243000   0.74520735   -8.4377066    552.55583   0.01419868  0.013516853            2 
 3244000   0.74187023   -8.4411521    552.51692  0.014193303  0.013512016            7 
 3245000   0.73138661   -8.4253494    553.40813  0.014211816  0.013507163            5 
 3246000   0.73014916   -8.4396712    552.54682  0.014185326  0.013502339            4 
 3247000   0.73491185   -8.4337758    553.68364  0.014210133  0.013497506            7 
 3248000   0.75053026   -8.4440152    553.10855  0.014191003  0.013492671            6 
 3249000   0.73921574   -8.4173098    552.75831  0.014177652  0.013487812           20 
 3250000   0.75143989   -8.4778644    552.55999  0.014168205  0.013482955            3 
 3251000   0.73886773   -8.4644574    551.36397  0.014133189  0.013478094            9 
 3252000   0.74123761   -8.4387511    551.40844  0.014129983   0.01347324            4 
 3253000   0.73282611   -8.4495802    551.31959  0.014123363  0.013468387            3 
 3254000   0.72921781   -8.4248172    552.87902  0.014158959  0.013463542            2 
 3255000   0.72554028    -8.437415    552.95516  0.014156558  0.013458705            5 
 3256000   0.72401311   -8.4381716    552.13968  0.014131339  0.013453854            2 
 3257000    0.7307888   -8.4418279    552.75024  0.014142622  0.013449007            3 
 3258000   0.72901316   -8.4416897    552.42826  0.014130046  0.013444163            8 
 3259000   0.73380367   -8.4412973    553.50777  0.014153313  0.013439334            2 
 3260000   0.73482646   -8.4469445    552.36028  0.014119639  0.013434497            4 
 3261000   0.72136277   -8.4291287    553.46801  0.014143617  0.013429656            3 
 3262000   0.71981408   -8.4909093    552.57542  0.014116478  0.013424822            2 
 3263000   0.72994028   -8.4397801    552.51242  0.014110543  0.013419989            3 
 3264000   0.74253625     -8.44379    553.25436  0.014125162  0.013415158            6 
 3265000    0.7185189   -8.4580757    553.30314  0.014122081  0.013410329            6 
 3266000   0.73436955   -8.4443078    552.13363  0.014087917  0.013405485            7 
 3267000   0.73387776   -8.4864036     551.7192  0.014073033  0.013400644            7 
 3268000   0.74066288   -8.4482616    552.71992  0.014094245  0.013395807            3 
 3269000    0.7157189   -8.4927761    552.05109  0.014072884  0.013390956            1 
 3270000    0.7180351   -8.4592846    551.43361  0.014052844  0.013386125            4 
 3271000   0.73325461   -8.4412893    552.88762  0.014085591  0.013381288            1 
 3272000    0.7400528   -8.4749774    551.66641  0.014050184  0.013376451            4 
 3273000   0.72277504   -8.4521664    552.25921  0.014060984  0.013371624            4 
 3274000   0.74056275   -8.4380139    552.64259  0.014066447  0.013366795            1 
 3275000   0.73543182   -8.4465282     553.0958  0.014073684  0.013361971            2 
 3276000   0.72228861   -8.4632325    553.46516  0.014078784  0.013357153            2 
 3277000   0.73347141   -8.4437944    552.66768  0.014054208  0.013352328            4 
 3278000   0.72112895    -8.472281    552.80769   0.01405348   0.01334749            7 
 3279000   0.70998095   -8.4796386    551.94091  0.014027165  0.013342657            2 
 3280000   0.72621046   -8.4902933    552.14882  0.014028171  0.013337827            2 
 3281000    0.7317767   -8.4576365    553.53231  0.014059035  0.013332995            3 
 3282000   0.72184348   -8.4675111    552.95503  0.014040093  0.013328165            2 
 3283000   0.73337082   -8.4669978    552.20954  0.014016894  0.013323344            4 
 3284000   0.72478925   -8.4676994     551.9768  0.014006719   0.01331852            2 
 3285000   0.73374494   -8.4845448    551.21619   0.01398316  0.013313707            2 
 3286000   0.74012843   -8.4852729    552.37758  0.014008358  0.013308892            4 
 3287000   0.74017534    -8.474857    551.22376  0.013974844   0.01330407            2 
 3288000   0.72934696   -8.4788927    552.51339  0.014003279   0.01329924            4 
 3289000   0.73612314   -8.4776496    552.16655  0.013990234   0.01329442            4 
 3290000   0.72779216   -8.4770177    553.18831  0.014011862  0.013289608            3 
 3291000   0.72029974   -8.4893484    553.09172  0.014005158  0.013284776            2 
 3292000    0.7299606   -8.4537013     552.4685  0.013985128   0.01327997            3 
 3293000   0.71206738   -8.4822351    552.83962  0.013990273  0.013275163            5 
 3294000   0.73704395   -8.4656543    552.10247  0.013967377  0.013270365            4 
 3295000   0.72601305   -8.4736194    552.37847  0.013970118  0.013265553            3 
 3296000     0.726484   -8.4972012    551.19445  0.013935944  0.013260742            3 
 3297000    0.7240122    -8.495114    552.19212  0.013956934  0.013255922            6 
 3298000   0.73087236   -8.4672887     552.7435  0.013966634  0.013251108            8 
 3299000   0.73068215   -8.4618057    552.64367  0.013959878  0.013246306            3 
 3300000   0.71106995   -8.4718707    552.28099   0.01394649    0.0132415            1 
 3301000   0.72767824   -8.5019046    551.89679  0.013932566   0.01323668            2 
 3302000   0.73175855     -8.50444     551.4917  0.013918123  0.013231869            2 
 3303000    0.7231149   -8.4753641    553.31926  0.013960018  0.013227045            3 
 3304000   0.73325999   -8.4901479    551.51167  0.013910202  0.013222212            2 
 3305000   0.72391511   -8.4985965     550.0442  0.013868991  0.013217376            1 
 3306000   0.73119186   -8.5047938    551.68736  0.013906215  0.013212544            3 
 3307000    0.7110548   -8.5078928    552.39302  0.013919792  0.013207731            5 
 3308000    0.7228636   -8.4758853    552.25029  0.013911988  0.013202922            8 
 3309000   0.73424419   -8.5094004    552.07653  0.013903408    0.0131981            3 
 3310000   0.71494305    -8.507066     551.2064  0.013877301  0.013193271            2 
 3311000   0.74950233   -8.5346184    551.39979  0.013877977  0.013188447            6 
 3312000    0.7373085   -8.5021178    551.46931  0.013875536  0.013183621            9 
 3313000   0.73117496   -8.5222297    550.41179  0.013844748  0.013178797            1 
 3314000   0.71231534   -8.4911812    551.09634  0.013857784  0.013173992            1 
 3315000   0.72509964   -8.5091385    551.37042  0.013860493  0.013169165            2 
 3316000   0.69945625   -8.5240967    551.44826   0.01385827  0.013164335            4 
 3317000   0.71870842    -8.528939    550.89088  0.013840088   0.01315953            2 
 3318000   0.73890337   -8.4930258    551.50321  0.013851296   0.01315472            4 
 3319000   0.72379538   -8.5083985    552.26189  0.013866172  0.013149913            7 
 3320000   0.72652196   -8.4938072    553.25938  0.013887033  0.013145121            6 
 3321000   0.71600444   -8.5121575    551.71522  0.013844104  0.013140316            3 
 3322000   0.73625168    -8.490392     552.3027  0.013854673  0.013135521            6 
 3323000   0.70778541   -8.5158465    551.64731  0.013834068  0.013130721            2 
 3324000   0.72293707   -8.5159298    551.36607  0.013822856   0.01312592            2 
 3325000   0.73302608   -8.5122295    551.85373  0.013830921  0.013121123            3 
 3326000   0.71351163   -8.4964458    550.81445  0.013800723  0.013116337            4 
 3327000   0.72009047   -8.5215069    551.36035  0.013810248  0.013111565            3 
 3328000   0.72283429   -8.4900218    552.02472  0.013822734  0.013106782            3 
 3329000   0.72619639   -8.5190733    551.76528  0.013812088  0.013101983            8 
 3330000   0.71047713   -8.5279237    550.94072  0.013787305  0.013097195            2 
 3331000   0.70361709   -8.5234482    551.53036  0.013797918  0.013092399            2 
 3332000    0.7239717   -8.5215607    552.40873  0.013815745  0.013087607            3 
 3333000   0.71897732   -8.4868514    551.52696  0.013789553  0.013082822            3 
 3334000   0.72539521    -8.524724    551.01628  0.013772652  0.013078039            7 
 3335000   0.71860294   -8.5220289    551.35245  0.013776923  0.013073247            3 
 3336000   0.71952387   -8.5122521    552.55008   0.01380271  0.013068473            6 
 3337000    0.7207455   -8.5064392    552.86281  0.013806383  0.013063701            6 
 3338000   0.72507701   -8.5242747    552.02435  0.013781315  0.013058924            3 
 3339000   0.71115218   -8.5362371    552.44667  0.013787728  0.013054156            5 
 3340000   0.72254973     -8.51063     552.8538  0.013793758  0.013049398            6 
 3341000   0.73365989   -8.5139725       551.99  0.013768083  0.013044633            2 
 3342000   0.72567723   -8.5319121    552.05706  0.013765636  0.013039873            1 
 3343000   0.72488022   -8.5121533    551.90456  0.013757717  0.013035112            2 
 3344000   0.70879384   -8.5387662    551.64372  0.013747102  0.013030363            3 
 3345000   0.71033695   -8.5563696    552.01595  0.013752266  0.013025593            3 
 3346000   0.72821115   -8.5184979    552.84536  0.013768812  0.013020828            3 
 3347000   0.70415648   -8.5232122    551.48671  0.013730871  0.013016073            3 
 3348000   0.73368027   -8.5327631    551.81365  0.013734908  0.013011313            2 
 3349000   0.71840616   -8.5248259    550.59111  0.013700386  0.013006557            3 
 3350000   0.72141289   -8.4976499     551.9746  0.013730712  0.013001808            2 
 3351000   0.71578593   -8.5019734    552.01365  0.013727585  0.012997056            1 
 3352000   0.69996394   -8.5105522    552.21184  0.013728417  0.012992314            4 
 3353000   0.70666763   -8.5065429    552.54933   0.01373271  0.012987579            4 
 3354000   0.72378015   -8.5062028     551.8186   0.01371046  0.012982854            3 
 3355000   0.71527413   -8.5295314    551.63351  0.013701776  0.012978116            5 
 3356000   0.71876565   -8.5172323    551.31722   0.01368984  0.012973386            4 
 3357000   0.71192431   -8.5111735    552.35609   0.01371155   0.01296866            8 
 3358000   0.72258399   -8.5408785    550.96074   0.01367284  0.012963922            3 
 3359000   0.70090622   -8.5379248    551.79984  0.013689586  0.012959179            6 
 3360000   0.70873877   -8.5382597    550.83646  0.013661619  0.012954434           14 
 3361000   0.71536783   -8.5362084    551.60579  0.013676629  0.012949697            5 
 3362000    0.7156048   -8.5365769     552.1242   0.01368541  0.012944967            6 
 3363000   0.70749586   -8.5324576    551.93512  0.013676656  0.012940242            4 
 3364000   0.70246463   -8.5289397    552.10292  0.013676747  0.012935503            6 
 3365000   0.70537545   -8.5300384    552.22955  0.013675818  0.012930771            3 
 3366000   0.71355219   -8.5278813    551.78371  0.013660718  0.012926036            2 
 3367000   0.70526264   -8.5362708    552.29787  0.013669386   0.01292131            3 
 3368000   0.70675135    -8.545159    552.33033   0.01366613  0.012916589            3 
 3369000   0.70407212    -8.547829     551.7621  0.013648019   0.01291187            3 
 3370000   0.72277315    -8.505901    552.87089  0.013671387  0.012907151            4 
 3371000   0.70790454   -8.5233118    553.07684  0.013672423  0.012902432            3 
 3372000    0.7100761   -8.5106435    551.17683  0.013621412  0.012897724            3 
 3373000   0.70945465   -8.5350676     551.3762    0.0136223  0.012893002            3 
 3374000   0.71332745   -8.5370727    551.26092  0.013615415  0.012888293            4 
 3375000   0.71687578   -8.5518214    550.58944  0.013594801  0.012883587            4 
 3376000    0.6984925   -8.5308973     551.0743  0.013602743  0.012878882            2 
 3377000   0.70940424   -8.5257321    551.91202  0.013619387  0.012874181            5 
 3378000   0.70912743    -8.533654    552.15807  0.013621425  0.012869493            2 
 3379000   0.69729794   -8.5274759     551.5542  0.013602501  0.012864812            7 
 3380000   0.71124921   -8.5198946    552.01261  0.013609778  0.012860123            2 
 3381000   0.70347098   -8.5321216    550.91172  0.013578619   0.01285542            1 
 3382000   0.69757056   -8.5183785    552.28288   0.01360839  0.012850728            3 
 3383000    0.7148052   -8.5178578    552.45343  0.013608568  0.012846036            6 
 3384000   0.71031092    -8.521962    551.76975  0.013587711  0.012841358            2 
 3385000   0.71150843   -8.5396943    552.95819  0.013612954  0.012836688            3 
 3386000   0.69542339     -8.52863    552.44781  0.013596373  0.012831999            6 
 3387000   0.72166317   -8.5049868    553.54361  0.013619319  0.012827328            4 
 3388000   0.73054065   -8.5215203    552.47562   0.01358903  0.012822665            2 
 3389000   0.71297768   -8.5375485    552.00018   0.01357333  0.012817984            4 
 3390000   0.70272622   -8.5478604    552.72651  0.013587181  0.012813317            2 
 3391000   0.71839449   -8.5341145    552.33242  0.013573489  0.012808645            3 
 3392000     0.697349   -8.5373602    552.24496  0.013567339  0.012803975            3 
 3393000   0.69341542   -8.5161329    553.34942  0.013590466  0.012799302            3 
 3394000   0.70490641    -8.517134    552.57999   0.01356757  0.012794631            4 
 3395000   0.71854393    -8.538693     552.3289  0.013557411   0.01278997            2 
 3396000   0.69561497   -8.5310597    551.57374  0.013534888  0.012785308            1 
 3397000   0.69825492   -8.5083867    553.20566  0.013570937   0.01278065            2 
 3398000   0.70132392   -8.5160567    551.69696  0.013529943     0.012776            4 
 3399000   0.70751493   -8.5555561    552.84323  0.013554066  0.012771342            4 
 3400000   0.70339245   -8.5503791     552.0544  0.013530745  0.012766677            3 
 3401000   0.71296925   -8.5438358    551.90551  0.013523119  0.012762025            3 
 3402000   0.71802705   -8.5448305    551.25905  0.013503308  0.012757361            2 
 3403000   0.69546647   -8.5595128    551.84555  0.013513702  0.012752695            5 
 3404000   0.69521156    -8.527948     552.1502   0.01351719  0.012748034            1 
 3405000   0.70670804   -8.5700596    550.95503   0.01348397  0.012743369            2 
 3406000   0.70872905   -8.5209798    552.35649    0.0135143  0.012738711            5 
 3407000   0.70619213   -8.5363598    551.73793  0.013495204  0.012734047            3 
 3408000   0.69374555   -8.5601301    551.62618  0.013488512  0.012729383            2 
 3409000    0.7084082   -8.5631031    552.08535   0.01349578  0.012724718            1 
 3410000   0.69751326   -8.5620983     552.0129  0.013490051  0.012720062            3 
 3411000   0.70499065    -8.569713    552.62454  0.013501039  0.012715408            2 
 3412000   0.70748842   -8.5398924    552.26226  0.013488234  0.012710762            2 
 3413000   0.70866724   -8.5407233    552.60189  0.013492575  0.012706129            2 
 3414000   0.68755785   -8.5821172     551.5333  0.013462539  0.012701482            6 
 3415000   0.69266111   -8.5420479    551.41347  0.013455673  0.012696826            1 
 3416000   0.70504987    -8.522445    552.10313  0.013468558  0.012692181            3 
 3417000   0.70543399   -8.5557528    551.29285  0.013444855  0.012687538            3 
 3418000   0.70697752   -8.5443325    551.54611  0.013447097  0.012682898            3 
 3419000    0.7043056   -8.5433619    550.95683  0.013428801  0.012678259            2 
 3420000   0.70537882   -8.5220724    551.81178  0.013445706   0.01267363            4 
 3421000    0.7093323   -8.5413857     551.8131  0.013441808  0.012669006            5 
 3422000   0.70144323   -8.5460707    553.31877  0.013474546  0.012664374            3 
 3423000   0.70391493   -8.5504047    552.12108  0.013441452  0.012659741            3 
 3424000    0.7069651   -8.5468441    552.07872  0.013436495  0.012655115            3 
 3425000   0.70066097   -8.5581032    551.64182  0.013421942  0.012650481            1 
 3426000   0.72231631   -8.5756617    552.00077  0.013426755  0.012645839            4 
 3427000    0.6967007   -8.5594702    552.32067  0.013430617  0.012641199            4 
 3428000   0.69068515   -8.5749742    552.05917  0.013420342  0.012636562            3 
 3429000   0.71750178   -8.5595198    551.42174  0.013400937   0.01263193            7 
 3430000   0.69733991   -8.5489922    552.08801  0.013413217  0.012627298            5 
 3431000   0.70468116   -8.5370838    552.77965  0.013426106  0.012622661           10 
 3432000   0.71496874   -8.5517801    553.09476  0.013429846  0.012618028            6 
 3433000   0.68620389   -8.5674972    551.16196  0.013379016  0.012613396            4 
 3434000   0.70826292   -8.5609769    551.99099  0.013395239  0.012608764            2 
 3435000   0.70773176   -8.5444127     550.3169  0.013350725  0.012604152            2 
 3436000   0.68966157   -8.5523002    550.83866  0.013359494  0.012599528            3 
 3437000   0.70430347   -8.5646915    552.33752  0.013391948  0.012594917            1 
 3438000   0.71235938   -8.5452382    551.75267  0.013373877  0.012590311            8 
 3439000   0.71243805   -8.5502546    552.38139  0.013385223  0.012585703            4 
 3440000   0.69338469   -8.5419587    551.83984  0.013368213   0.01258111            4 
 3441000   0.68886821   -8.5251447    552.02563  0.013368828  0.012576515            3 
 3442000   0.70990323   -8.5464117    551.86698  0.013361103  0.012571917            6 
 3443000   0.70871411    -8.524775    551.19899  0.013341054   0.01256733            9 
 3444000   0.70022281   -8.5453351    552.74378  0.013374559  0.012562738            3 
 3445000   0.72024191   -8.5359112    551.92382  0.013350842  0.012558153            5 
 3446000   0.70449235   -8.5449067    551.07074  0.013326338  0.012553559            6 
 3447000   0.69505177   -8.5670679    551.86975  0.013341789  0.012548977            3 
 3448000   0.70137881   -8.5345194    551.78787   0.01333594  0.012544382            2 
 3449000    0.6848806   -8.5593611    551.21544  0.013318243  0.012539795            4 
 3450000   0.70224402   -8.5457618    550.92757  0.013307429  0.012535208            4 
 3451000   0.71484351   -8.5711601    552.73738  0.013347276  0.012530621            4 
 3452000   0.69842846   -8.5330154    552.06774  0.013327244  0.012526037            3 
 3453000   0.70096896   -8.5693428     552.4786  0.013333299  0.012521451            2 
 3454000   0.70077683   -8.5471822    552.03898  0.013318833  0.012516855            6 
 3455000   0.69875634   -8.5744916    550.00682  0.013265963  0.012512252            4 
 3456000   0.68861023    -8.564131    550.95315  0.013284943  0.012507653            6 
 3457000   0.70316568   -8.5394041     552.3605  0.013315025  0.012503063            3 
 3458000   0.71347352    -8.563897    551.24808  0.013284367  0.012498482            4 
 3459000   0.69737241   -8.5341637    552.43064  0.013309016  0.012493897            2 
 3460000   0.70622202   -8.5463298      552.059  0.013296219  0.012489322            3 
 3461000   0.69466001   -8.5505827    552.57981  0.013304917  0.012484757            2 
 3462000   0.68564667   -8.5711624    551.76748   0.01328152  0.012480186            3 
 3463000    0.6992637   -8.5508493    551.95727  0.013282252  0.012475612            7 
 3464000   0.70788641   -8.5531262    551.16757   0.01325942  0.012471046            3 
 3465000   0.69965188   -8.5413971    551.34173  0.013259782  0.012466474            5 
 3466000   0.68983229   -8.5565027    551.68751   0.01326427  0.012461908            3 
 3467000   0.68654974   -8.5607068    551.49531  0.013255824  0.012457339            7 
 3468000    0.7075986    -8.554721    552.41465  0.013274093  0.012452769            3 
 3469000   0.71715292    -8.576145    551.33859  0.013244417  0.012448203            3 
 3470000   0.68856715   -8.5893644    551.95958  0.013255513  0.012443635            2 
 3471000   0.70172014   -8.5661845    550.32448  0.013212438  0.012439057            3 
 3472000   0.70315932   -8.5810174    551.76502  0.013243208  0.012434482            2 
 3473000   0.70784459   -8.5911602    551.24614  0.013226944  0.012429907            4 
 3474000   0.69835751   -8.5932234    551.24407  0.013223087  0.012425326            4 
 3475000   0.68224771   -8.5953881    551.38228  0.013222597  0.012420757            4 
 3476000   0.69973831    -8.580901    551.18963  0.013214174  0.012416189            3 
 3477000   0.70121776   -8.5498567    552.18084   0.01323413  0.012411631            7 
 3478000   0.71547401   -8.5662131    551.96022  0.013225039   0.01240708            2 
 3479000    0.7052575   -8.5923372    550.61777  0.013189081  0.012402528            2 
 3480000   0.68417813   -8.5642552    552.01812  0.013218825  0.012397978            3 
 3481000   0.69695381    -8.565538    552.18479  0.013219017  0.012393427            2 
 3482000    0.7047279   -8.5710477    552.76428   0.01322909  0.012388875            3 
 3483000   0.68500249   -8.5746243    550.84154  0.013179288  0.012384328            3 
 3484000   0.69442833   -8.5649529    551.27608  0.013185899  0.012379789            2 
 3485000   0.69653921   -8.5727547    551.34201  0.013183692  0.012375257            5 
 3486000   0.69596625   -8.5973341    552.17526  0.013199829  0.012370714            2 
 3487000   0.69777174   -8.5939373     550.6751  0.013160193  0.012366175            3 
 3488000   0.69411272   -8.5758922    551.81079  0.013183553  0.012361638            3 
 3489000   0.69413531    -8.576547    551.85017  0.013180715  0.012357109            2 
 3490000   0.69056843   -8.5869877    551.47321  0.013167937  0.012352579            3 
 3491000   0.68280157   -8.5744305    551.23721  0.013158532  0.012348052            9 
 3492000   0.69938632   -8.5730541    551.57092  0.013162727  0.012343534            3 
 3493000   0.70856166   -8.5682975    551.28523  0.013152143  0.012339015            3 
 3494000   0.70478679   -8.5883207    552.07268   0.01316716  0.012334491            3 
 3495000   0.69589184   -8.5647438     552.1805  0.013165963  0.012329978            1 
 3496000   0.70107813   -8.5904493    550.08006   0.01311213  0.012325468            2 
 3497000   0.70871955   -8.5537939    551.57299  0.013143957  0.012320953            7 
 3498000   0.69485456   -8.5738132    551.42123  0.013136584  0.012316445            2 
 3499000   0.69257931   -8.5853116    551.72337  0.013140025  0.012311923            3 
 3500000   0.68853864    -8.564541    551.44238   0.01312958  0.012307423            4 
 3501000   0.69057213   -8.5544456    551.46843   0.01312645  0.012302904            1 
 3502000   0.69562416   -8.5665125    551.74871  0.013129372  0.012298401            5 
 3503000   0.68820758   -8.5759817    551.79804  0.013126797  0.012293906            1 
 3504000    0.6798188   -8.5711632    552.07711  0.013129688  0.012289407            3 
 3505000   0.69601518   -8.5693884    551.91143  0.013122003  0.012284908            6 
 3506000   0.68382871   -8.6039558    552.56334  0.013133755  0.012280414            6 
 3507000   0.68374207   -8.5680271    552.26501  0.013122921  0.012275926            5 
 3508000   0.68737893   -8.5905333    550.44142   0.01307586  0.012271426            3 
 3509000   0.69249458    -8.559269    552.04375  0.013110187  0.012266937            2 
 3510000   0.69751894   -8.5583004    551.90803   0.01310323  0.012262448            3 
 3511000   0.69070466   -8.5902684    552.36928  0.013110445  0.012257958            3 
 3512000   0.69636978    -8.592001    551.79977  0.013093199  0.012253474            2 
 3513000   0.68884503   -8.6001598    551.63928  0.013085665  0.012248976            2 
 3514000   0.70282789   -8.5678896    551.36312  0.013075392  0.012244476            5 
 3515000   0.68349837   -8.5759905    550.94639  0.013061792  0.012239989            5 
 3516000   0.68078815   -8.5828434    552.34644   0.01309126  0.012235493            3 
 3517000   0.69308749   -8.5827669    551.70038   0.01307223  0.012231006            3 
 3518000   0.69209176   -8.5778806    552.37634  0.013084526  0.012226532            3 
 3519000   0.68307854   -8.5659656    551.09282  0.013050413  0.012222047            6 
 3520000    0.6914985   -8.5768281    551.69049  0.013060854  0.012217551            6 
 3521000   0.69100691   -8.5806701    550.81041  0.013036316   0.01221306            4 
 3522000    0.6958737   -8.5803759    551.27545  0.013043618  0.012208576            3 
 3523000    0.6841655   -8.5722049    551.69675  0.013049881  0.012204088            3 
 3524000   0.69967826     -8.58468    551.56924  0.013043162  0.012199604            5 
 3525000   0.67684341   -8.5723854    551.80497  0.013045035  0.012195122            6 
 3526000   0.66814933   -8.5862562    551.78908   0.01304096  0.012190641            3 
 3527000   0.68235259   -8.6004134    552.24813  0.013048108  0.012186161            3 
 3528000   0.68696019    -8.609929     550.3031  0.012998467  0.012181684            4 
 3529000   0.69324885    -8.614783    551.56978  0.013024695  0.012177204            5 
 3530000   0.69634188   -8.6009059    551.59268  0.013021546  0.012172721            4 
 3531000   0.68257026   -8.6106151    550.64085  0.012995394  0.012168241            2 
 3532000   0.69168955   -8.5916401    551.02471  0.013000772  0.012163761            4 
 3533000   0.71185787   -8.6248908    550.21615   0.01297802  0.012159287            4 
 3534000   0.69891361   -8.5895128    552.25155  0.013022344  0.012154817            2 
 3535000   0.67012026   -8.6010648    551.00351  0.012989239  0.012150351            6 
 3536000   0.68927671   -8.6035143     550.4015  0.012971378   0.01214589            4 
 3537000   0.67933023   -8.6377742    550.41733  0.012968083  0.012141423            6 
 3538000   0.66761485   -8.6094326    550.61621  0.012969102  0.012136954            3 
 3539000   0.68369905   -8.6299694    550.37846  0.012959839  0.012132484            7 
 3540000   0.68082682    -8.581471    550.68262  0.012963339  0.012128015            8 
 3541000   0.68675424   -8.6266779    551.71956  0.012984081   0.01212354            4 
 3542000   0.68188107   -8.6002089    552.09462  0.012989239  0.012119076            3 
 3543000   0.66891595   -8.6052639    551.30722  0.012967053  0.012114617           14 
 3544000   0.67746126    -8.579846    550.83543    0.0129523  0.012110151            9 
 3545000   0.68154526   -8.5889627    552.05002  0.012977198  0.012105695            3 
 3546000   0.69640635   -8.6170248    551.03953  0.012949792  0.012101236            3 
 3547000   0.68896391   -8.6037246    551.22274  0.012950445  0.012096777            4 
 3548000   0.68147504   -8.6189397    550.72974  0.012935216   0.01209231            3 
 3549000   0.67443008   -8.5970649    551.03366  0.012938707  0.012087851            1 
 3550000   0.67592871   -8.6083696    550.20809  0.012915683  0.012083395            4 
 3551000   0.67034859   -8.6105959    550.46611  0.012918101  0.012078937            4 
 3552000   0.68417685   -8.6309749    550.25008  0.012909396  0.012074483            4 
 3553000   0.67936821   -8.6036851    550.29846  0.012906897  0.012070027            2 
 3554000   0.68798745   -8.5821806      551.757  0.012937465  0.012065578            2 
 3555000   0.67639037   -8.6347949    551.49236  0.012927622  0.012061128            2 
 3556000    0.6641542   -8.6314923    550.87988  0.012909634  0.012056675            2 
 3557000   0.68805157   -8.6295614     551.2019  0.012913548  0.012052232            4 
 3558000   0.69003714    -8.628332    549.57114  0.012871724  0.012047784            4 
 3559000   0.68646237   -8.6127463    551.19994  0.012906246  0.012043351            3 
 3560000   0.67757891    -8.614156    551.47354  0.012909025  0.012038905           12 
 3561000   0.68759564   -8.6220605    552.01416  0.012918051  0.012034459            8 
 3562000   0.68114347   -8.6669788    549.64218  0.012858932  0.012030013            6 
 3563000   0.67305943   -8.6215732    552.03927  0.012911387   0.01202557            7 
 3564000   0.67047872   -8.6172426    551.38649  0.012892501  0.012021146            5 
 3565000   0.69418525   -8.6166538    550.69966   0.01287283  0.012016718            8 
 3566000   0.67380744   -8.6389124    549.98768  0.012852582  0.012012281            4 
 3567000   0.66997154   -8.6256125    550.84941  0.012869111   0.01200785            3 
 3568000   0.68693371   -8.6241813    550.16192  0.012849447  0.012003417            3 
 3569000   0.68511594   -8.6222183    550.04419  0.012843098  0.011998986            4 
 3570000   0.66744128   -8.6373473    550.03584  0.012839305  0.011994552            5 
 3571000   0.69005028    -8.602007    550.86738  0.012855115  0.011990125            3 
 3572000   0.68310661   -8.6125088    551.02351  0.012855158  0.011985701            4 
 3573000   0.68163918     -8.63999    550.71231  0.012844302  0.011981275            3 
 3574000   0.67393526   -8.6358073    550.43343  0.012834206  0.011976851            2 
 3575000   0.68616908   -8.6293044     549.5552  0.012810145   0.01197243            4 
 3576000   0.68405584   -8.6366029    551.15765  0.012843905  0.011968021            5 
 3577000   0.68823161   -8.6329162    550.87753  0.012833788  0.011963607            3 
 3578000   0.69427294   -8.6170044    551.84042  0.012852628  0.011959194            2 
 3579000   0.67524659   -8.6093231     551.9645  0.012851926  0.011954792           10 
 3580000   0.67482434   -8.6164912    551.27056  0.012832182  0.011950387            7 
 3581000   0.67645805   -8.6187064    549.72333  0.012792594   0.01194598           10 
 3582000   0.67963872   -8.6427366    550.92555  0.012816991  0.011941578            7 
 3583000   0.68171026   -8.6304759    549.75683  0.012786232  0.011937172            3 
 3584000   0.68879806   -8.6383972    549.38278  0.012773967  0.011932773            5 
 3585000   0.68211835   -8.6089972    551.94922  0.012830061  0.011928381            4 
 3586000   0.68056936   -8.6510655    551.91965  0.012825796  0.011923993            7 
 3587000   0.67677687   -8.6146377    550.95562  0.012799824  0.011919598            7 
 3588000    0.6898316   -8.6511986    550.09206    0.0127762  0.011915197            3 
 3589000   0.67216323   -8.6324051    550.69976   0.01278675  0.011910797            3 
 3590000    0.6747308   -8.6413781     549.9874  0.012766653  0.011906402            4 
 3591000   0.70334627   -8.6590945    550.01435  0.012763723  0.011902004            7 
 3592000   0.68839013   -8.6345981     550.0035  0.012759918  0.011897613            4 
 3593000   0.68987368   -8.6100896    551.50416  0.012791172  0.011893234            5 
 3594000   0.67211832   -8.6228394    551.87458  0.012796202   0.01188886            2 
 3595000   0.68244285   -8.6177585    550.64369   0.01276411  0.011884486            5 
 3596000   0.66343164   -8.6135107     551.0967  0.012771058  0.011880107            8 
 3597000   0.67583103   -8.6060091     551.4123  0.012774819  0.011875728            5 
 3598000   0.67987031   -8.6037551    551.21092  0.012766605  0.011871356            4 
 3599000   0.67175116   -8.6114151    550.78691   0.01275324  0.011866989            4 
 3600000   0.67175684   -8.6207587    550.73681  0.012748537  0.011862624            3 
 3601000   0.67119985   -8.6189744    552.32857  0.012781833  0.011858255            3 
 3602000   0.67979406   -8.6116542    551.03178  0.012748283   0.01185389            2 
 3603000   0.66664996   -8.6099678    549.82884  0.012716922  0.011849533            2 
 3604000   0.66473529   -8.6161692    551.35891  0.012748773  0.011845185            5 
 3605000   0.67656003   -8.6117208    551.71637  0.012753499  0.011840835            6 
 3606000   0.66672646   -8.6274596     550.2819  0.012716812  0.011836481            2 
 3607000   0.66668435   -8.5992087    551.22659  0.012735112  0.011832122            3 
 3608000   0.65553356   -8.6334036    551.01663  0.012726733  0.011827758            2 
 3609000   0.66708725   -8.6186872    550.95574  0.012721801  0.011823408            2 
 3610000   0.68104202   -8.6395035    550.83156   0.01271541  0.011819047            2 
 3611000     0.682211   -8.6355171    550.85745  0.012712486  0.011814691            2 
 3612000   0.67275826   -8.6227285    552.34087  0.012743191  0.011810343            4 
 3613000   0.67853185   -8.6235415    550.19756  0.012690229   0.01180599            4 
 3614000   0.68809093   -8.6385267    549.89404  0.012679719   0.01180164            4 
 3615000   0.66551912   -8.6139226    551.60922   0.01271575  0.011797303            3 
 3616000   0.66040169    -8.619149    551.27655  0.012704566  0.011792956            7 
 3617000   0.68477691   -8.6179121    550.37062  0.012680182  0.011788618            2 
 3618000   0.68099335   -8.6222895    550.49687  0.012679585   0.01178428            1 
 3619000   0.66694104    -8.645389    550.22376  0.012669793  0.011779937            3 
 3620000   0.67139665   -8.6279382    551.24821  0.012689876  0.011775601            3 
 3621000   0.68219108   -8.6176204    549.50946  0.012646356  0.011771263            5 
 3622000    0.6542948    -8.606549    551.49362  0.012688515  0.011766927            3 
 3623000   0.67573233   -8.6224678    551.32776  0.012681198  0.011762596            3 
 3624000   0.68240043   -8.5988201    550.89075   0.01266765  0.011758271            2 
 3625000   0.67585374   -8.6377017      551.569  0.012679747  0.011753949            2 
 3626000   0.65900044   -8.6448985    551.11385   0.01266579  0.011749632            2 
 3627000   0.66289468   -8.6307782    550.45247  0.012647102  0.011745309            1 
 3628000   0.67356386   -8.6208069    551.27964  0.012662616  0.011740984            3 
 3629000   0.67431101   -8.6211306    550.36827  0.012638199  0.011736663            2 
 3630000    0.6794482   -8.6756438    550.06851  0.012627835  0.011732338            4 
 3631000   0.68033258     -8.64629    550.67063  0.012638176  0.011728027            7 
 3632000   0.68054681   -8.6175937    552.33546  0.012672895  0.011723708            8 
 3633000    0.6665843   -8.6355756    551.61467  0.012652873  0.011719403            3 
 3634000    0.6720904   -8.6276078    550.28439  0.012618886  0.011715094            6 
 3635000   0.66376884    -8.609838    550.76697  0.012626478  0.011710788            1 
 3636000   0.67925781   -8.6447658    551.42291  0.012638039  0.011706474            5 
 3637000   0.67211101   -8.6328467    549.51198  0.012590779  0.011702165            7 
 3638000   0.65728739   -8.6146596    551.05802  0.012622733  0.011697859            4 
 3639000   0.67561466   -8.6374987    550.77761  0.012612843  0.011693554            4 
 3640000   0.66509762   -8.6598297    551.48611  0.012625598  0.011689254            3 
 3641000   0.66611414   -8.6579137    551.17723  0.012615061  0.011684959            6 
 3642000    0.6633527   -8.6449566    550.84072  0.012603897  0.011680663            7 
 3643000   0.64537655   -8.6388764    550.92943  0.012602467  0.011676362            7 
 3644000   0.67561575   -8.6480894    551.09122  0.012602708   0.01167206            4 
 3645000   0.67897652   -8.6072791    551.31464  0.012604358  0.011667763            7 
 3646000   0.65818327   -8.6377805    550.56037  0.012583662  0.011663468            4 
 3647000   0.65105243   -8.6269945    551.29829  0.012597073   0.01165917           10 
 3648000    0.6824997   -8.6457589    550.74372  0.012580951  0.011654874            6 
 3649000   0.66559565   -8.6519116    550.25833  0.012566418  0.011650583            6 
 3650000   0.65519504   -8.6332747    550.12275   0.01255988  0.011646288            7 
 3651000   0.65741902   -8.6605852    550.88985  0.012573949  0.011641998           10 
 3652000   0.67112683   -8.6403936    551.25763  0.012578898  0.011637704            8 
 3653000   0.65540997   -8.6595157    551.14893  0.012572975  0.011633413            8 
 3654000   0.66361166   -8.6289841    550.35028   0.01255132  0.011629118            6 
 3655000   0.67790395   -8.6371022    550.78027   0.01255769  0.011624827            4 
 3656000   0.68030928   -8.6416159     550.8889  0.012556731  0.011620538           10 
 3657000   0.67251553   -8.6626053    550.00272  0.012533104  0.011616238           16 
 3658000   0.64646798   -8.6469183    550.02675  0.012530225   0.01161194            8 
 3659000    0.6703389   -8.6719195    550.39417  0.012535168   0.01160765            8 
 3660000   0.66591462   -8.6213027    550.86179  0.012542391  0.011603367            4 
 3661000   0.66618759   -8.6643095    551.15124  0.012545553  0.011599084            5 
 3662000   0.66223761   -8.6436779    551.52507  0.012550634  0.011594799            4 
 3663000   0.67976198   -8.6754334    550.36406  0.012520795   0.01159051            3 
 3664000   0.66208326   -8.6292777     550.3676  0.012517458  0.011586231            5 
 3665000   0.64826349   -8.6601971    550.64421  0.012520332  0.011581957            9 
 3666000   0.68032237   -8.6608324     550.5401   0.01251455  0.011577691            3 
 3667000   0.65715811   -8.6464139    549.77111  0.012493662  0.011573423            6 
 3668000   0.65665254   -8.6335458    550.52264   0.01250733  0.011569154           10 
 3669000    0.6710308   -8.6483573     551.0782  0.012516539  0.011564892            7 
 3670000   0.67099834   -8.6522971    550.73639  0.012505368  0.011560626            5 
 3671000   0.67094513   -8.6387657    550.58253  0.012498469  0.011556356            8 
 3672000   0.66320502   -8.6616254    549.52802  0.012471133  0.011552091            9 
 3673000   0.65335803   -8.6487125     550.5607  0.012491167  0.011547824            7 
 3674000   0.65222805   -8.6664441    549.98641  0.012474742  0.011543559            8 
 3675000   0.65825824    -8.666025    549.93655  0.012470216  0.011539293            7 
 3676000   0.67133224   -8.6646175     549.6361  0.012460013  0.011535028           16 
 3677000   0.67164778   -8.6337301    550.66422  0.012479925  0.011530773           15 
 3678000   0.66734798   -8.6457246    549.65917   0.01245376  0.011526517           10 
 3679000   0.64887955   -8.6430596    550.30273  0.012464953   0.01152226            7 
 3680000   0.66692204   -8.6611747    550.36182  0.012462904  0.011518008            6 
 3681000   0.67651984   -8.6493143    549.73217  0.012445263  0.011513751           13 
 3682000   0.65825396   -8.6759868    549.49414  0.012436496  0.011509503           10 
 3683000   0.67476272   -8.6541467    550.25097  0.012450244  0.011505251            6 
 3684000   0.65689054   -8.6785991    549.58541  0.012431809  0.011501001           13 
 3685000    0.6553469   -8.6654928    551.54225  0.012472688  0.011496751           11 
 3686000   0.65667958   -8.6655016    550.64298  0.012448973  0.011492499            3 
 3687000   0.66771654   -8.6550261     551.1196  0.012456369  0.011488262            6 
 3688000   0.66442356   -8.6470259     550.5176  0.012439389  0.011484028            9 
 3689000   0.66334588   -8.6570828    549.89298  0.012421907  0.011479796            4 
 3690000   0.66526789    -8.669909    551.30188  0.012450359  0.011475557            4 
 3691000   0.65511895   -8.6613192      550.169  0.012421408  0.011471313            4 
 3692000   0.64739353   -8.6566514    550.18758  0.012418463  0.011467075            4 
 3693000   0.67143812    -8.681487    549.44534  0.012398351  0.011462844            5 
 3694000   0.64754963   -8.6615593    550.61274   0.01242133  0.011458609            3 
 3695000   0.66510919   -8.6351462    551.24181  0.012432156  0.011454379            3 
 3696000   0.65919878   -8.6611776    549.82157  0.012396771  0.011450156            9 
 3697000   0.65526018   -8.6625526    549.54015  0.012387074  0.011445936            3 
 3698000   0.64083127   -8.6444795     550.4292  0.012403759  0.011441713            2 
 3699000   0.66507924   -8.6688554     549.5925  0.012381556  0.011437498            8 
 3700000     0.661763    -8.670038    549.95558  0.012386387  0.011433282            5 
 3701000   0.65759775   -8.6501921    550.60326  0.012397624  0.011429067            5 
 3702000   0.65628781   -8.6637443    550.38239  0.012389303  0.011424858            6 
 3703000    0.6790157   -8.6464878    551.04747  0.012400924  0.011420648            5 
 3704000   0.67469193   -8.6853025    549.44081  0.012361429  0.011416441            7 
 3705000   0.65845865   -8.6677702    549.45745  0.012358467  0.011412233            7 
 3706000   0.68101824   -8.6767351     549.7284  0.012361225  0.011408023            4 
 3707000   0.66534756   -8.6701844    550.44239  0.012373941  0.011403819            7 
 3708000   0.65780598   -8.6463841    549.08083  0.012340004  0.011399615            4 
 3709000   0.65746061   -8.6691136    549.99741  0.012357271  0.011395415            4 
 3710000   0.66725725   -8.6832587    549.87433  0.012351176  0.011391213            5 
 3711000   0.66544019   -8.6467054    550.03277  0.012351405  0.011387015            4 
 3712000   0.65757585   -8.6791715     550.0704  0.012348922  0.011382822           11 
 3713000   0.65430889   -8.6469704    551.08218  0.012368305  0.011378634            6 
 3714000   0.65668908   -8.6725341    550.57841  0.012353671  0.011374437            4 
 3715000   0.66215329   -8.6719316    549.91195  0.012335396  0.011370248            8 
 3716000   0.66505256   -8.6608194     551.3913  0.012365252  0.011366057            4 
 3717000   0.65284828   -8.6608063    550.93177  0.012351622  0.011361867            5 
 3718000    0.6639087   -8.6679288    550.82269  0.012345856  0.011357677            3 
 3719000   0.64873135   -8.6456045    551.07226  0.012348128  0.011353487            9 
 3720000   0.65361622   -8.6638325    549.39521   0.01230724   0.01134931            4 
 3721000   0.66879733   -8.6687247    549.78322  0.012312622   0.01134513            3 
 3722000   0.65851115   -8.6409826    550.46379  0.012324552  0.011340954            4 
 3723000   0.66195488   -8.6757434    549.88893  0.012308374   0.01133678            9 
 3724000    0.6628038   -8.6781375    550.02676  0.012308153  0.011332607            3 
 3725000   0.65484104   -8.6722054    550.48619  0.012315127  0.011328433            7 
 3726000   0.66177221   -8.6559788    550.32973  0.012308323  0.011324267            4 
 3727000   0.65710603    -8.674365     548.6136  0.012266649  0.011320095            4 
 3728000   0.65733411   -8.6534791    550.13671  0.012297405  0.011315918           19 
 3729000   0.64627025   -8.6603889    550.72365  0.012307224  0.011311747            4 
 3730000   0.64091695   -8.6599895    550.52963   0.01229959  0.011307573            6 
 3731000    0.6551933   -8.6579379    550.61443  0.012298187  0.011303409            3 
 3732000   0.65341485   -8.6669048    550.10866  0.012283598  0.011299246            6 
 3733000   0.65671029   -8.6800913    549.80164  0.012273454  0.011295086            2 
 3734000   0.66054836   -8.6790761    550.55426  0.012286963   0.01129092            6 
 3735000   0.66802575   -8.6894318    549.99086  0.012271104  0.011286759            2 
 3736000   0.64395399    -8.679909    550.46543  0.012278404  0.011282598            3 
 3737000    0.6458678   -8.6609586    549.99867   0.01226471  0.011278443            5 
 3738000   0.64297123   -8.6792734    550.00468  0.012261563  0.011274286            3 
 3739000   0.66076577   -8.6654628    551.42791  0.012290004   0.01127012            2 
 3740000   0.66209295   -8.6835226    549.41253  0.012241812  0.011265957            6 
 3741000   0.65627471   -8.6938691    550.19247  0.012255914    0.0112618           11 
 3742000   0.64911258   -8.6956559    549.14582   0.01222933  0.011257641            2 
 3743000   0.64871843   -8.6820416    549.03856  0.012223674  0.011253485            4 
 3744000    0.6508699   -8.6948985    549.26993  0.012225559  0.011249322            5 
 3745000   0.65987222   -8.6936634      548.828  0.012212461  0.011245163            4 
 3746000   0.65451763   -8.6795453    550.10923  0.012237703  0.011241011            3 
 3747000   0.65578985   -8.6820132    550.20056  0.012236468  0.011236858            5 
 3748000   0.65959409     -8.67849    549.46278    0.0122168  0.011232706            3 
 3749000   0.65541407    -8.659909    550.21483  0.012230258  0.011228565            3 
 3750000    0.6502817   -8.6681223    549.84246  0.012218721  0.011224428            3 
 3751000   0.65330236   -8.6878516    549.42961  0.012206292  0.011220283            4 
 3752000   0.66275062   -8.6968425    549.04565  0.012194511  0.011216135            2 
 3753000   0.66166546   -8.6802425    549.34031  0.012197804  0.011211992            2 
 3754000   0.65544886   -8.6846049    549.37371  0.012195296   0.01120785            3 
 3755000   0.65458877   -8.6688923    549.90956  0.012203941  0.011203716            5 
 3756000   0.66388218   -8.6759816    549.67614  0.012195513  0.011199592            5 
 3757000   0.66616444   -8.6555473    550.86897  0.012218724  0.011195463            4 
 3758000   0.63786488   -8.6852157     549.8247  0.012192316  0.011191337            8 
 3759000   0.64553133   -8.6682595    550.00193  0.012193002  0.011187219            7 
 3760000    0.6596708   -8.6826629    549.26719  0.012173475  0.011183101            6 
 3761000   0.64780207   -8.6852337    550.27395  0.012192545  0.011178981            6 
 3762000   0.63780778     -8.68154    549.41314  0.012170236  0.011174862            8 
 3763000   0.64517826   -8.6939238     549.1698  0.012161613   0.01117074            7 
 3764000   0.65576886   -8.6726459    549.24142  0.012159968  0.011166623            3 
 3765000   0.64106308   -8.6707354    550.55525  0.012185818  0.011162506            6 
 3766000   0.63780175    -8.676618    550.51473  0.012181685  0.011158389            5 
 3767000   0.64706679   -8.7074828    549.89202  0.012164676  0.011154266            4 
 3768000   0.64391417   -8.6801295    549.35324  0.012149532  0.011150146            7 
 3769000   0.65571678   -8.7009538    549.49401  0.012149421  0.011146032            7 
 3770000   0.64306671   -8.7003367    548.40936  0.012122223  0.011141915            3 
 3771000   0.64900952   -8.6930706    549.62066  0.012145776   0.01113779            5 
 3772000   0.65252805   -8.7003134    549.71038  0.012144538  0.011133675            4 
 3773000   0.64908302   -8.7300032    549.55938  0.012137984   0.01112956            6 
 3774000   0.64718733   -8.6741256    549.23428   0.01212759  0.011125452            3 
 3775000   0.66083606   -8.6830863     549.2545  0.012124823  0.011121343            5 
 3776000   0.64584581   -8.6760968    548.93485  0.012114558  0.011117235            6 
 3777000   0.63828832   -8.6854869    549.69899   0.01212821  0.011113129            2 
 3778000   0.64206451   -8.7097178      548.469  0.012097869  0.011109017            3 
 3779000   0.64350035   -8.6910496    548.66073  0.012098896  0.011104907            4 
 3780000   0.63789303   -8.7072117    548.61079  0.012094594    0.0111008            6 
 3781000   0.64784714   -8.7074623    549.07991  0.012101735  0.011096697            3 
 3782000   0.65568025   -8.6875284    548.36615  0.012082808  0.011092589            4 
 3783000   0.65030871   -8.7148856    548.28488  0.012077824  0.011088481            2 
 3784000   0.64999428   -8.7023205    548.44655  0.012078192   0.01108438            4 
 3785000   0.65381994   -8.7074183    548.83359  0.012083522  0.011080277           11 
 3786000   0.65677003   -8.7210834    548.64427  0.012076164  0.011076181           11 
 3787000   0.64875525    -8.711417    549.51642  0.012092167  0.011072091           12 
 3788000   0.64237563   -8.7061381     549.3694   0.01208574  0.011067999           13 
 3789000   0.63988026   -8.7288529    548.75471  0.012069031  0.011063908            6 
 3790000   0.64464964   -8.7134214    548.54435  0.012061221   0.01105982            6 
 3791000   0.66749591   -8.7057825     549.3882  0.012076589  0.011055738            6 
 3792000   0.64241485   -8.7021764    548.20948  0.012047501  0.011051649            4 
 3793000    0.6610561   -8.7302122    548.33914  0.012047173   0.01104756            6 
 3794000   0.63282726   -8.6842357    548.67808  0.012051443  0.011043475            4 
 3795000   0.65728438   -8.7180055    549.63275   0.01206923  0.011039388            3 
 3796000    0.6439164   -8.7127027    549.36769  0.012060232  0.011035305            6 
 3797000   0.64772717   -8.7218387    549.21561  0.012053718  0.011031224            8 
 3798000   0.64499108   -8.7057207    549.51719  0.012057161  0.011027151            7 
 3799000   0.63980587   -8.7046356    548.96452  0.012041865  0.011023078            2 
 3800000   0.63508456   -8.7170419    548.52876  0.012029139  0.011019005            4 
 3801000   0.65488566   -8.7018867    548.85193   0.01203306  0.011014935            3 
 3802000   0.63771449   -8.6977703    550.17158   0.01205882  0.011010863            7 
 3803000   0.63752246   -8.6954071    549.75991  0.012046628  0.011006797            7 
 3804000   0.62857571    -8.679613    549.39912  0.012035557  0.011002735            8 
 3805000   0.64649845   -8.6977659    549.05007   0.01202475  0.010998666            4 
 3806000   0.64445394   -8.7210998    549.19389  0.012024739  0.010994601            5 
 3807000   0.64462137   -8.7036225    548.81448  0.012013276  0.010990531            5 
 3808000   0.63900908   -8.6800901    549.13249   0.01201708  0.010986467            3 
 3809000   0.64404406   -8.7111762    549.56616  0.012023413  0.010982411            4 
 3810000   0.63038825   -8.7175919    548.92836  0.012006307  0.010978352            2 
 3811000   0.65747891   -8.7264935    549.36734  0.012012756  0.010974296            6 
 3812000    0.6390243   -8.7209199    548.80061  0.011997215  0.010970244            4 
 3813000   0.63644356   -8.7044968    549.26344  0.012004184  0.010966193            3 
 3814000   0.61876234   -8.7220149    547.32498  0.011958682  0.010962135            2 
 3815000   0.64559168   -8.7410892    549.44609  0.012001881  0.010958073            3 
 3816000    0.6323828   -8.7130358     550.0341  0.012011576  0.010954022            3 
 3817000   0.64010183    -8.729032     549.5958   0.01199886  0.010949968            7 
 3818000    0.6460628   -8.6998329    548.69711  0.011976102  0.010945913            4 
 3819000   0.64809233   -8.6986285    548.40716   0.01196664  0.010941867            9 
 3820000   0.63393886   -8.7209859    549.18967  0.011980577  0.010937823            3 
 3821000    0.6427385   -8.7020677    550.45959  0.012005138  0.010933777            3 
 3822000   0.63288401   -8.7102382    548.35099  0.011956022  0.010929736            6 
 3823000   0.64131439   -8.7164877    549.39448  0.011975641  0.010925694            5 
 3824000   0.63630948   -8.7313774    549.04816  0.011964962  0.010921661            4 
 3825000   0.63013908   -8.7123134    548.58096  0.011951655  0.010917632            2 
 3826000   0.65898348   -8.7123723    548.99039  0.011957449  0.010913607            8 
 3827000   0.62653741   -8.7213216    548.08185  0.011934541  0.010909579            8 
 3828000   0.63519501   -8.7191093     548.7399  0.011945748  0.010905549            5 
 3829000   0.63710964   -8.7363536     548.6948  0.011941647  0.010901516            5 
 3830000   0.64816531   -8.7294552    549.11836  0.011947745  0.010897485            5 
 3831000   0.63506025   -8.7194681    548.17991  0.011924213  0.010893462           12 
 3832000    0.6430032   -8.6849126    549.88696  0.011958224   0.01088944           14 
 3833000   0.63330805   -8.7194749    548.66956  0.011928636  0.010885423            9 
 3834000   0.62369912   -8.7335809    548.72421  0.011926713  0.010881406            9 
 3835000   0.63933416    -8.719395    548.11498  0.011910365  0.010877391            8 
 3836000   0.63978718   -8.7360593    549.11132  0.011928904  0.010873378            6 
 3837000   0.63985346   -8.7101399    549.76435  0.011939978   0.01086937            6 
 3838000   0.63460949   -8.7202965    548.66048  0.011912899  0.010865358            5 
 3839000   0.63498737   -8.7276675    548.41469  0.011904461   0.01086135           13 
 3840000   0.63350111   -8.7395634    548.22797  0.011897308  0.010857341            5 
 3841000   0.63364086   -8.7286836    548.12057  0.011891881   0.01085333           11 
 3842000   0.63060655   -8.7102242    548.64489  0.011900158   0.01084932           11 
 3843000    0.6364179   -8.7434614    549.31724  0.011911641  0.010845316           10 
 3844000   0.63477989    -8.722006    549.25026   0.01190709  0.010841311            5 
 3845000   0.63029741   -8.7197189    548.85306  0.011895385   0.01083731            5 
 3846000   0.63074609   -8.7319799    548.96534  0.011894725  0.010833306            4 
 3847000   0.63803699   -8.7296653    548.71365  0.011886181  0.010829306           10 
 3848000   0.63162185   -8.7327691    548.72333  0.011883301   0.01082531           12 
 3849000   0.64845517   -8.7401489    548.19433  0.011868761   0.01082131           19 
 3850000   0.65203658   -8.7168895      549.088  0.011885022  0.010817317           11 
 3851000   0.64204272   -8.7212636    548.57185  0.011870766  0.010813332            9 
 3852000    0.6410358   -8.7385938    549.70974  0.011892301   0.01080934            9 
 3853000   0.63306855    -8.728953    549.23528  0.011878953  0.010805352            4 
 3854000   0.64291337   -8.7401165    548.10407  0.011851411  0.010801365           14 
 3855000   0.63062204   -8.7274772    549.36517  0.011875598  0.010797378           13 
 3856000   0.62830095   -8.7317376    548.20828  0.011847516  0.010793392            5 
 3857000   0.63783085   -8.7218501    549.26027  0.011867174  0.010789398            9 
 3858000   0.64120434   -8.7251029    547.54679  0.011827086   0.01078541           12 
 3859000   0.62775736   -8.7075013    547.87072  0.011831017  0.010781423            7 
 3860000   0.63301076   -8.7237684    547.79939  0.011826412  0.010777438            9 
 3861000   0.63424708   -8.7082659    548.69653  0.011842712  0.010773455           15 
 3862000   0.62406231   -8.7227805    547.35218  0.011810637  0.010769474            7 
 3863000   0.64328066   -8.7493832    548.45797  0.011831434  0.010765495            4 
 3864000   0.63028116     -8.74403    548.69984  0.011833589  0.010761524            5 
 3865000   0.63566802   -8.7507036    547.81135   0.01181137   0.01075755            7 
 3866000   0.64094633   -8.7389519    548.52801  0.011823763  0.010753575            4 
 3867000   0.63455177   -8.7432877    548.70938  0.011824614  0.010749607            8 
 3868000   0.63134363   -8.7284848    547.77203  0.011801362  0.010745641            3 
 3869000   0.63629794   -8.7452686    548.67889  0.011817845  0.010741679            5 
 3870000   0.63998315   -8.7385482    548.16258  0.011803673  0.010737713            8 
 3871000    0.6323894   -8.7662476    548.33968  0.011804436  0.010733747            8 
 3872000    0.6478627   -8.7150539    548.74524  0.011810116  0.010729789            5 
 3873000   0.63282402   -8.7407443    548.49512  0.011801685  0.010725839            8 
 3874000   0.63550583   -8.7185371    548.58451  0.011800562  0.010721885           12 
 3875000   0.63912464   -8.7380908    548.39528  0.011793447  0.010717929            3 
 3876000   0.63959694   -8.7365747    548.07247  0.011783464  0.010713975           10 
 3877000   0.63280155   -8.7298845    548.19245  0.011783003  0.010710018            3 
 3878000   0.65037461    -8.772249    548.10834  0.011778158  0.010706065            7 
 3879000   0.62121204   -8.7372643    548.58347  0.011785328  0.010702118            7 
 3880000   0.62843917   -8.7275912    546.77189  0.011743382  0.010698167            8 
 3881000   0.62933939   -8.7587333     548.9641  0.011787428  0.010694225           13 
 3882000     0.634254   -8.7212906    550.12688  0.011809352  0.010690288            6 
 3883000   0.62805036   -8.7352486    549.37371  0.011790147  0.010686346            3 
 3884000   0.64734645   -8.7578129    548.86437  0.011776184  0.010682401            6 
 3885000     0.623085   -8.7229836    548.22709  0.011759483  0.010678465            2 
 3886000   0.62964644   -8.7426834    548.78759  0.011768476  0.010674529            9 
 3887000   0.64721769    -8.728521    548.33588  0.011755764  0.010670593           10 
 3888000   0.63291473   -8.7419599    548.06866  0.011747013  0.010666657            7 
 3889000   0.63124975   -8.7333563    547.93067  0.011741036  0.010662728            4 
 3890000   0.63259475    -8.731603    548.64419  0.011753303  0.010658792            8 
 3891000   0.63163851   -8.7408485    547.87213  0.011733747  0.010654854            8 
 3892000   0.62433744   -8.7421391    548.39509   0.01174193  0.010650933            4 
 3893000   0.63476118   -8.7314672    548.80412  0.011747669  0.010647009            5 
 3894000   0.63158742   -8.7296198    549.64368  0.011762619  0.010643088            9 
 3895000   0.62677076   -8.7299204    548.23305  0.011729419  0.010639168            4 
 3896000   0.64452253   -8.7677667     548.0693  0.011722906  0.010635241            4 
 3897000   0.63302299   -8.7679929    547.74262  0.011712912  0.010631316            7 
 3898000   0.62778506   -8.7804264    547.55931  0.011705988  0.010627385            7 
 3899000   0.63137675   -8.7545997    547.65774   0.01170509   0.01062346            2 
 3900000   0.63852723   -8.7450468    548.40912  0.011718144  0.010619542            5 
 3901000   0.63108896   -8.7316649    547.97989  0.011705971  0.010615629            5 
 3902000   0.63991077   -8.7464522    548.28186   0.01170942  0.010611707            4 
 3903000   0.63120189   -8.7425663    547.63257  0.011692556  0.010607793            6 
 3904000   0.62801986   -8.7746011    548.72578  0.011712897  0.010603877            5 
 3905000   0.62493125    -8.755167    548.52304  0.011705571  0.010599963            5 
 3906000   0.62818792   -8.7428466    547.81192  0.011687402  0.010596044            9 
 3907000   0.61990222   -8.7349132    549.16796  0.011713334  0.010592132            5 
 3908000   0.62375771   -8.7622035    548.49247  0.011695933  0.010588218            5 
 3909000   0.61555352   -8.7498453    548.35665  0.011690045  0.010584308            6 
 3910000   0.61921304   -8.7495852    548.08845  0.011681339  0.010580405            4 
 3911000   0.62655895   -8.7540617    549.56977  0.011709916  0.010576498            5 
 3912000   0.62792509   -8.7653623    547.62201  0.011665431  0.010572595            9 
 3913000   0.62561408   -8.7614186    547.47639  0.011659349  0.010568693            8 
 3914000   0.61769245   -8.7722379    547.83096  0.011663919  0.010564792           11 
 3915000   0.61393539    -8.724863    547.83471   0.01166102  0.010560891            4 
 3916000   0.62698765    -8.757054    547.55887  0.011652172  0.010556997            2 
 3917000    0.6249009   -8.7688797    548.27412  0.011664414  0.010553102            7 
 3918000   0.62436107   -8.7448414    548.22007  0.011660287   0.01054921            3 
 3919000   0.61350602   -8.7663839    548.27259  0.011658429  0.010545313            6 
 3920000   0.60754681    -8.753274    548.28222  0.011655659  0.010541423            6 
 3921000    0.6299124   -8.7855596    547.81393  0.011642734  0.010537534            6 
 3922000   0.62827631     -8.77054    548.61545  0.011656796  0.010533649            9 
 3923000    0.6161728   -8.7555509    547.03339  0.011620218  0.010529765            6 
 3924000   0.63274838   -8.7500355    547.52039  0.011627599  0.010525883           10 
 3925000   0.62436029   -8.7595561    547.85019  0.011631639  0.010521994            2 
 3926000   0.62248531   -8.7605538    547.22875  0.011615485  0.010518108            5 
 3927000   0.62047491   -8.7535208    548.05975  0.011630162  0.010514223            6 
 3928000   0.60976016   -8.7590144    547.71196  0.011619823  0.010510343           11 
 3929000   0.63264852   -8.7534114    547.79387  0.011618602  0.010506465           11 
 3930000   0.62257141   -8.7465921    547.74003  0.011614504  0.010502591            9 
 3931000   0.63755623   -8.7688555    547.25259  0.011601217  0.010498715            5 
 3932000    0.6328146   -8.7663829    547.79059  0.011609668  0.010494838           14 
 3933000   0.61932128   -8.7672859    547.36473  0.011597693  0.010490965            8 
 3934000   0.61816179   -8.7692697    547.39566    0.0115954   0.01048709            6 
 3935000    0.6345104   -8.7627362    547.54415  0.011595598  0.010483218            7 
 3936000   0.61518475   -8.7657477    548.18534  0.011606228  0.010479348            7 
 3937000   0.61127008   -8.7743951    547.35082  0.011585615   0.01047548            5 
 3938000   0.61804518   -8.7679307    547.18954  0.011579261  0.010471609            9 
 3939000   0.62263075   -8.7724967    547.61107  0.011585239  0.010467743            5 
 3940000   0.62483071   -8.7725725    547.84622  0.011587272   0.01046388            4 
 3941000   0.63511972   -8.7669414    546.64975  0.011559032  0.010460017            6 
 3942000   0.61847013   -8.7920536    548.10244   0.01158681  0.010456155            7 
 3943000   0.61359603   -8.7696812    548.30918   0.01158824  0.010452299            7 
 3944000   0.62401984   -8.7762013    548.10841   0.01158106  0.010448439            7 
 3945000   0.63507766     -8.75845    547.98742  0.011575569  0.010444585            6 
 3946000   0.62222486   -8.7562878     547.3519  0.011559214  0.010440734            5 
 3947000   0.62182999   -8.7772728    547.33144  0.011555853  0.010436885            6 
 3948000   0.61315477   -8.7856889    547.01399  0.011546226  0.010433039            5 
 3949000      0.62367   -8.7478621    549.55587  0.011596942  0.010429187            5 
 3950000   0.61189525   -8.7530467    547.25958  0.011545561  0.010425347            2 
 3951000   0.61857679   -8.7665542    547.21604   0.01154172  0.010421504            8 
 3952000   0.61880942   -8.7668992    547.50866   0.01154497  0.010417665            5 
 3953000   0.62455733    -8.772167    547.37554  0.011539243  0.010413818            5 
 3954000   0.62275253   -8.7719055    547.98976   0.01154927   0.01040998            6 
 3955000    0.6288336   -8.7684512    547.29669  0.011531747  0.010406144            4 
 3956000   0.63118713   -8.7814899     547.2656  0.011528177  0.010402302            4 
 3957000    0.6216076   -8.7669994    548.54783  0.011552267  0.010398473            4 
 3958000   0.62391321   -8.7712917    547.94477  0.011536651  0.010394644            4 
 3959000   0.60960374   -8.7718061    547.65317  0.011527599  0.010390811            6 
 3960000   0.61447301   -8.7668288     548.1441  0.011535019  0.010386986            3 
 3961000   0.62546703   -8.7654828    547.62046   0.01152109  0.010383156            4 
 3962000   0.62407667   -8.7675469    549.01156  0.011547442   0.01037933            4 
 3963000     0.635359   -8.7725256    547.95629  0.011522338   0.01037551            4 
 3964000   0.62485359   -8.7635304    547.22562   0.01150407   0.01037169            5 
 3965000   0.61488488   -8.7816245    547.24973  0.011501676  0.010367869            5 
 3966000   0.61891788   -8.7597016     547.9144  0.011512742  0.010364053            6 
 3967000   0.62911327   -8.7910658    547.83752  0.011508225   0.01036024            5 
 3968000   0.62866818   -8.7840585     548.4834  0.011518889  0.010356425            4 
 3969000   0.60859395   -8.7991243    547.75996  0.011500797  0.010352612            9 
 3970000   0.61797762   -8.7738159    547.86453  0.011500095  0.010348802            2 
 3971000   0.62308436   -8.7675927    546.65411  0.011471798  0.010344996            4 
 3972000    0.6155967   -8.7780672    547.72119  0.011491297   0.01034119            9 
 3973000   0.60631159    -8.767173    548.37689  0.011502158  0.010337388            6 
 3974000   0.61277307   -8.7723668    547.93161  0.011489926  0.010333584            5 
 3975000   0.61850659   -8.7615798    549.41096   0.01151805  0.010329786            1 
 3976000   0.62608743   -8.7922829    548.29359  0.011491734  0.010325991            4 
 3977000   0.60085676   -8.7622951    548.05815  0.011483911  0.010322198            8 
 3978000    0.6168653    -8.774973    548.30338  0.011486161  0.010318402            3 
 3979000   0.60741734   -8.7793587    547.56589  0.011467829  0.010314609            3 
 3980000   0.60685223   -8.7544745    547.45709  0.011462669  0.010310818            9 
 3981000   0.61611239   -8.7514956    547.97063   0.01147054  0.010307023            8 
 3982000   0.61509579   -8.7791269    546.72505  0.011441592  0.010303236            3 
 3983000   0.60250335   -8.7572364    547.94814  0.011464309  0.010299446            4 
 3984000   0.61038612    -8.768828    547.35714   0.01144907  0.010295663            5 
 3985000    0.6075066   -8.7558837     547.8557  0.011456623  0.010291878            6 
 3986000   0.62747208   -8.7694338    546.96668  0.011435162  0.010288099            3 
 3987000   0.62915824   -8.7731506     547.7021  0.011447665  0.010284325            6 
 3988000   0.60241289   -8.7721796     548.9198   0.01147024  0.010280545            2 
 3989000   0.61325017   -8.7639418    547.79229   0.01144381  0.010276763            6 
 3990000   0.60683408   -8.7814859    547.36927  0.011432107   0.01027298            5 
 3991000   0.60674145   -8.7628354    548.51274  0.011453118  0.010269202           12 
 3992000   0.62149546   -8.8037709    546.58427  0.011409992   0.01026543            7 
 3993000   0.62429311   -8.7846599    547.56001  0.011427498  0.010261655            6 
 3994000   0.62206292   -8.7753066    547.68684  0.011427283  0.010257881            2 
 3995000   0.61194121   -8.7850222    546.52701   0.01140023  0.010254109            1 
 3996000    0.6055324   -8.7799925    546.54979  0.011397852  0.010250336            7 
 3997000   0.61216209   -8.7885197    547.58079  0.011416496  0.010246567            2 
 3998000   0.62152994   -8.7995051    546.20782  0.011385022  0.010242797            2 
 3999000   0.61958613   -8.7933047    547.74729  0.011414255  0.010239024            1 
 4000000   0.59925802   -8.8105264     546.9563  0.011394923  0.010235251            2 
 4001000   0.60757725     -8.78868    546.49699  0.011382508  0.010231481            5 
 4002000   0.62400573    -8.788912     547.2576  0.011395502  0.010227718            8 
 4003000   0.61262982   -8.7839504    546.81521  0.011383446  0.010223955            9 
 4004000   0.60160139   -8.7790832    546.95326  0.011383476  0.010220199            1 
 4005000   0.62321497   -8.7743623       546.84  0.011378277   0.01021644            1 
 4006000   0.61003813   -8.7869417    546.58888  0.011370213  0.010212684            3 
 4007000   0.61454766    -8.770998    547.34892  0.011383182  0.010208929            1 
 4008000   0.61776289   -8.8044679    547.39238  0.011381245  0.010205178            4 
 4009000    0.6041258   -8.7773756    547.36032   0.01137774  0.010201427            5 
 4010000   0.60006543   -8.7591293    547.50906  0.011377994  0.010197675            1 
 4011000   0.60532385   -8.7964379    545.84433   0.01134057  0.010193926            2 
 4012000   0.62136282   -8.7901303    548.86097  0.011400402  0.010190176           10 
 4013000   0.62279503   -8.7941786    546.73568  0.011353428   0.01018643            5 
 4014000   0.59986172   -8.7956198    547.25949  0.011361474  0.010182686            4 
 4015000   0.59963925   -8.7977328    547.84782  0.011370856  0.010178943            4 
 4016000   0.59282705   -8.7872808    547.55083  0.011361861  0.010175201            2 
 4017000   0.61952656   -8.7827221    547.73405  0.011362834   0.01017146            2 
 4018000   0.61314387   -8.8047922    547.08493  0.011346543  0.010167724            3 
 4019000   0.61191403    -8.794318    547.11708  0.011344387  0.010163987            3 
 4020000   0.60237714   -8.7801587    547.42331  0.011347913  0.010160257            2 
 4021000   0.61933324   -8.7688434    547.67678  0.011350344  0.010156529            4 
 4022000   0.60814278   -8.7810016    547.87907  0.011351713  0.010152803            1 
 4023000   0.61059927   -8.7768674    547.45386  0.011340083  0.010149078            2 
 4024000   0.59634666   -8.7843133     547.4851  0.011337912  0.010145354            1 
 4025000   0.61576712   -8.7865611    547.39866  0.011333306  0.010141636            7 
 4026000   0.61795457   -8.7967439    546.58812  0.011313713  0.010137909            2 
 4027000    0.5958574   -8.7912189    547.77598  0.011335485  0.010134185            3 
 4028000   0.61459689   -8.7708982    547.81752   0.01133353   0.01013046            1 
 4029000   0.60296398   -8.7833489    546.46008  0.011302641  0.010126742            2 
 4030000   0.60547882   -8.8025336    546.51459  0.011300963  0.010123022            3 
 4031000   0.61391752   -8.7930953     546.8044  0.011304151  0.010119304            2 
 4032000   0.60411838   -8.8040021    546.67149  0.011298601   0.01011559            2 
 4033000   0.59070424   -8.8027352    547.65573  0.011316136  0.010111877            3 
 4034000   0.60553456   -8.7843841    547.56999   0.01131156  0.010108167            2 
 4035000   0.60602222   -8.7814509    548.17916  0.011321337  0.010104458            2 
 4036000   0.60297221   -8.7988938    546.63168  0.011286581  0.010100749            3 
 4037000   0.60269949    -8.791768     546.3271  0.011277498  0.010097045            4 
 4038000   0.59578914   -8.7871222    547.03851  0.011289386  0.010093338            3 
 4039000   0.59643424   -8.7925896     547.8151  0.011302614  0.010089634            3 
 4040000   0.60852635   -8.8130775    547.25973  0.011288361  0.010085929            2 
 4041000   0.59783593   -8.8017947    547.60273  0.011292641  0.010082228            2 
 4042000   0.60040461   -8.7923454     546.4205  0.011265473  0.010078527            3 
 4043000   0.59706945   -8.8096243    547.80193   0.01129116  0.010074824            4 
 4044000   0.60716446   -8.7977689    545.51834  0.011241311  0.010071126            4 
 4045000   0.60406307   -8.7935803    547.61763  0.011281781  0.010067427            2 
 4046000   0.60805219   -8.7752974     547.1772  0.011269921  0.010063728            1 
 4047000    0.5968856   -8.7852389    547.37501  0.011271209  0.010060038            4 
 4048000   0.59549025   -8.8027558    547.24381  0.011265724  0.010056344            2 
 4049000    0.5919439    -8.792097    547.32386  0.011264589  0.010052651            2 
 4050000    0.6087141   -8.8063421    546.34958  0.011241761  0.010048959            4 
 4051000   0.60820545   -8.7942847     546.2608   0.01123716  0.010045264            4 
 4052000   0.59849513   -8.8016159    547.60548  0.011262041  0.010041576            2 
 4053000   0.61909896   -8.8081942    545.81036  0.011222353  0.010037892            3 
 4054000    0.6021667   -8.7988451    546.35896  0.011230862   0.01003421            1 
 4055000   0.61080017   -8.7977689      548.136  0.011264612  0.010030528            2 
 4056000   0.60480967   -8.8022938    547.35114  0.011245709  0.010026847            2 
 4057000   0.59505878   -8.8201234    547.09795  0.011237736  0.010023166            4 
 4058000   0.59734195   -8.8004172    547.53995  0.011244044  0.010019485            2 
 4059000   0.59848094   -8.7882588    547.21609  0.011234624  0.010015808            3 
 4060000   0.60307939   -8.8102307    546.97214   0.01122685  0.010012133            3 
 4061000   0.60741967   -8.8046349    547.76184  0.011240291  0.010008464            2 
 4062000   0.60016566   -8.8019487    546.23338  0.011206166  0.010004794            3 
 4063000   0.59779752   -8.8031546    547.44325  0.011228223  0.010001122            4 
 4064000   0.59809983   -8.7897075    546.88507  0.011214015 0.0099974562            2 
 4065000   0.59018745   -8.8133498    546.31062   0.01119948 0.0099937917            2 
 4066000   0.60337595   -8.8058179    547.72367  0.011225686  0.009990129            4 
 4067000   0.59474974   -8.8080729    546.81052  0.011204215 0.0099864617            3 
 4068000    0.5944813   -8.8204095    546.72894   0.01119979 0.0099827967            2 
 4069000   0.60714791    -8.804557     546.6652  0.011195732 0.0099791381            1 
 4070000    0.5964568   -8.8134636    546.62247  0.011192106 0.0099754741            2 
 4071000   0.61333644   -8.8145052    547.08522  0.011198829 0.0099718146            3 
 4072000   0.60235599   -8.8015081     546.8373  0.011191006 0.0099681593            5 
 4073000   0.59785222   -8.7963032    547.83142  0.011208598 0.0099645054            6 
 4074000   0.60308299   -8.7960441    547.86948  0.011206625 0.0099608504            2 
 4075000    0.6135825   -8.7995387    545.97645  0.011165162 0.0099571931            1 
 4076000   0.59368878   -8.8209732    546.71027  0.011177426 0.0099535391            4 
 4077000    0.6056338   -8.7999631    547.66169  0.011194132 0.0099498892            2 
 4078000   0.59322459   -8.8003903    547.54537  0.011189009 0.0099462419            1 
 4079000    0.6020776   -8.8105636     546.7976   0.01117099 0.0099425954            2 
 4080000   0.59699413   -8.8007599    547.21252  0.011176726 0.0099389489            2 
 4081000   0.59578031   -8.8071176    546.27282  0.011154799 0.0099353055            3 
 4082000   0.59487885   -8.8139968    547.09729  0.011168898 0.0099316645            2 
 4083000   0.59310083   -8.8054406    546.69329  0.011157917 0.0099280248            3 
 4084000   0.59419027   -8.8185224    546.74766  0.011156294  0.009924391            3 
 4085000   0.59020025   -8.7967316     546.0004  0.011138319 0.0099207597            2 
 4086000   0.60094547    -8.826977     546.8886  0.011153708 0.0099171326            2 
 4087000   0.58249411   -8.8059673    546.99461   0.01115314 0.0099135045            3 
 4088000   0.60207727   -8.8135348    546.42202   0.01113874 0.0099098724            2 
 4089000   0.58980507    -8.813779    547.06022  0.011149022 0.0099062422            1 
 4090000   0.59087048   -8.8190003    545.64987   0.01111756 0.0099026106            3 
 4091000   0.59834199   -8.7933719    547.33026  0.011149072 0.0098989812            4 
 4092000   0.59296076   -8.8125636    547.49682   0.01114974 0.0098953534            4 
 4093000   0.59703536   -8.8092364    545.73574   0.01111116 0.0098917286            2 
 4094000   0.60772649   -8.8063794     546.8425  0.011130974 0.0098881062            1 
 4095000   0.60179885   -8.8195155    546.92505  0.011129936 0.0098844842            3 
 4096000   0.59651301   -8.7966849    546.91794  0.011127074 0.0098808697            3 
 4097000   0.60821669   -8.8133531    546.03167  0.011106331 0.0098772513            2 
 4098000   0.58370995   -8.8225004    546.43201  0.011111762 0.0098736377            5 
 4099000   0.60355901   -8.8056815    546.76146  0.011115749 0.0098700211            2 
 4100000   0.60278698   -8.8410669    546.18279  0.011101276 0.0098664076            2 
 4101000   0.59205016   -8.8374002    546.37372  0.011102449 0.0098627997            3 
 4102000   0.59887324   -8.8106856    546.03484  0.011092858 0.0098591919            2 
 4103000    0.5899129    -8.804104    546.51163  0.011099838 0.0098555854            4 
 4104000   0.59475912   -8.8207921    545.43722  0.011075317 0.0098519818            3 
 4105000   0.59467692   -8.8033957    547.39584   0.01111238 0.0098483785            2 
 4106000   0.59149602   -8.8300804    547.01096  0.011101862 0.0098447744            4 
 4107000   0.58899159   -8.8346381    546.13209  0.011081326 0.0098411724            3 
 4108000   0.58437289    -8.818595    546.03025  0.011076563 0.0098375702            1 
 4109000   0.60319833   -8.8137711     546.5254  0.011083909 0.0098339719            3 
 4110000   0.59873189    -8.817703    546.38844  0.011078435 0.0098303732            3 
 4111000   0.57609932   -8.8176761    547.17422  0.011091669 0.0098267738            5 
 4112000   0.59287318   -8.8176218    546.23236  0.011069884 0.0098231811            5 
 4113000   0.59347036   -8.8089589     546.2278    0.0110671 0.0098195912            2 
 4114000   0.60116096   -8.8366364    546.89462  0.011077917 0.0098160011            3 
 4115000     0.586902   -8.8025833    547.64525  0.011090426 0.0098124166            4 
 4116000   0.58583699    -8.800176    546.51972  0.011064944  0.009808828            2 
 4117000   0.58403353   -8.7997335    546.36627   0.01105915 0.0098052497            4 
 4118000   0.59591445   -8.8097854    546.42681   0.01105769 0.0098016729            4 
 4119000   0.59800036    -8.816105     547.2832  0.011072331 0.0097980917            5 
 4120000   0.58445276    -8.820942    546.37788  0.011051333 0.0097945147            2 
 4121000   0.60474502   -8.8097396    547.10696  0.011063394 0.0097909366            4 
 4122000    0.5917948   -8.7871328    545.82898  0.011034873 0.0097873609            4 
 4123000   0.60148327     -8.81532    546.07893  0.011037249 0.0097837871            3 
 4124000    0.5825286   -8.8160141    547.01122  0.011053411 0.0097802157            3 
 4125000   0.58432865   -8.8142766    547.23185  0.011055189 0.0097766488            2 
 4126000   0.59423494   -8.8129374    546.55168  0.011038772 0.0097730777            3 
 4127000   0.58048423   -8.8161252    546.84635  0.011042047 0.0097695069            3 
 4128000   0.59756825   -8.8325377    546.47487  0.011031873 0.0097659393            2 
 4129000   0.58402146   -8.8333253    545.94423  0.011018492 0.0097623688            4 
 4130000   0.58992986   -8.8343507    545.88672  0.011014663 0.0097588006            3 
 4131000   0.60018988   -8.8362403    546.88097  0.011032054 0.0097552316            4 
 4132000   0.58824212   -8.8158621    546.33939  0.011018461 0.0097516657            4 
 4133000   0.58931877   -8.8134636    545.59676  0.011000822 0.0097480987            5 
 4134000   0.58740485   -8.8106692    546.03331  0.011006961 0.0097445367            2 
 4135000   0.59592635   -8.8131828    545.76273  0.010998846 0.0097409774            5 
 4136000   0.58313226   -8.8137619    547.02713  0.011021662 0.0097374221            2 
 4137000   0.59216814    -8.838777     547.9783  0.011038158 0.0097338682            3 
 4138000   0.59686547   -8.8470274    546.92716  0.011014322  0.009730311            3 
 4139000   0.59408899   -8.8110628    545.86522   0.01099028 0.0097267589            2 
 4140000   0.59618989   -8.8237412    546.00777  0.010990495 0.0097232081            2 
 4141000   0.59817395   -8.8261218    546.56746  0.010999104 0.0097196566            2 
 4142000   0.58109121   -8.8084134    546.38841  0.010992846 0.0097161129            3 
 4143000   0.58642894    -8.828052    546.52814  0.010993003  0.009712564            4 
 4144000   0.59190406   -8.8225276    547.19168  0.011003694 0.0097090172            3 
 4145000   0.58048755   -8.8196398    545.68915  0.010970831 0.0097054697            2 
 4146000   0.58144744   -8.8304504    545.51053  0.010964595 0.0097019243            1 
 4147000   0.58313246   -8.8227901    545.78992  0.010967565 0.0096983797            2 
 4148000   0.59878248   -8.8403708    545.42813  0.010957653 0.0096948352            4 
 4149000   0.59572011   -8.8113916    545.98594  0.010966216 0.0096912974            2 
 4150000   0.57521659   -8.8483113    545.25508  0.010948897 0.0096877604            2 
 4151000   0.59406231   -8.8171114    545.71343  0.010955461 0.0096842234            2 
 4152000   0.59252764   -8.8158755    546.54295  0.010969472 0.0096806921            3 
 4153000   0.58413737   -8.8278769     546.5849  0.010967672 0.0096771638            5 
 4154000    0.5926254   -8.8424078     546.2325  0.010957962  0.009673631            2 
 4155000     0.572268   -8.8407646    545.67119  0.010944067 0.0096700989            2 
 4156000   0.59788929   -8.8395192    546.27637  0.010953569 0.0096665723            3 
 4157000   0.59019598   -8.8330444    546.49766   0.01095537 0.0096630469            2 
 4158000   0.57674345   -8.8252436    545.43613   0.01093146 0.0096595232            4 
 4159000   0.58303175   -8.8236729    546.18873  0.010943911 0.0096560013            4 
 4160000   0.57652033   -8.8202136    546.85019  0.010954531 0.0096524808            3 
 4161000   0.59148108   -8.8450401    546.63199  0.010947528 0.0096489599            2 
 4162000    0.5928695   -8.8254847     546.5215  0.010942686  0.009645441            2 
 4163000   0.59327341   -8.8181885    545.98753  0.010929369 0.0096419218            5 
 4164000   0.58382694   -8.8428176    546.27106  0.010932418 0.0096384062            1 
 4165000   0.58188771   -8.8148405    545.73693  0.010919106 0.0096348904            2 
 4166000   0.58406154   -8.8254836    545.95191  0.010920786 0.0096313788            3 
 4167000   0.58130003   -8.8376902    546.80049  0.010935135 0.0096278689            3 
 4168000   0.58878768   -8.8387418    546.37414  0.010923987 0.0096243586            4 
 4169000   0.58454692   -8.8455061    546.43558  0.010922595 0.0096208489            1 
 4170000    0.5803222   -8.8548636    545.82268  0.010907727 0.0096173416            3 
 4171000   0.58046284   -8.8522765    545.61112  0.010900885 0.0096138302            3 
 4172000    0.5872721   -8.8425335    546.54439  0.010916914 0.0096103198            2 
 4173000   0.58137434   -8.8251653    546.12498  0.010905923 0.0096068132            4 
 4174000   0.59564362   -8.8467275    545.45055  0.010889845 0.0096033101            3 
 4175000   0.58108367   -8.8316077    546.19255  0.010902047 0.0095998122            1 
 4176000   0.57955243   -8.8342034    545.50495  0.010885715 0.0095963107            1 
 4177000   0.57137544   -8.8276698    545.68696   0.01088674  0.009592814            2 
 4178000   0.57557119   -8.8338253    545.85279  0.010887442  0.009589315            2 
 4179000   0.58496083   -8.8247993    546.73899  0.010902508 0.0095858236            3 
 4180000   0.58546001   -8.8237513    547.60656  0.010917196 0.0095823348            5 
 4181000   0.59031715   -8.8473347    546.03627  0.010883287 0.0095788439            3 
 4182000   0.58930199   -8.8454889    545.83671  0.010876708 0.0095753547            1 
 4183000   0.58511213   -8.8319569    546.72538  0.010891812 0.0095718693            2 
 4184000   0.59016178   -8.8429116    544.67885  0.010848447 0.0095683848            2 
 4185000   0.58790489    -8.838508       545.95  0.010871167 0.0095649011            5 
 4186000   0.58410312   -8.8384006    545.90587  0.010867691  0.009561421            2 
 4187000   0.58067543   -8.8432327    546.17048  0.010870362 0.0095579424            4 
 4188000   0.58442067   -8.8388999    546.04237  0.010865218 0.0095544693            3 
 4189000   0.58566581   -8.8334195    545.59566  0.010853737 0.0095509908            4 
 4190000   0.58782793   -8.8311588    546.84164  0.010875928 0.0095475142            4 
 4191000   0.58960026   -8.8345777    545.32392  0.010843154 0.0095440378            3 
 4192000   0.58973665   -8.8351696     545.9099  0.010852217 0.0095405651            1 
 4193000   0.58962774   -8.8569743      544.892  0.010829398 0.0095370908            2 
 4194000   0.57818192   -8.8432382    545.83437  0.010845541 0.0095336158            2 
 4195000   0.58739513   -8.8443956    545.47039  0.010835725 0.0095301451            4 
 4196000   0.58896237   -8.8503421    545.55057  0.010834735 0.0095266736            3 
 4197000   0.58074394   -8.8497278    545.57894  0.010832717  0.009523206            1 
 4198000   0.57266192   -8.8556703    545.23899  0.010823388 0.0095197337            1 
 4199000   0.58145282   -8.8479797    545.19201  0.010819878 0.0095162669            2 
 4200000   0.57479754    -8.830234    545.29452  0.010819336 0.0095127991            2 
 4201000   0.58987259   -8.8347644    546.54919  0.010841649 0.0095093326            2 
 4202000    0.5741832   -8.8519387    545.69002   0.01082203  0.009505871            3 
 4203000   0.58699484   -8.8286579    545.73665  0.010820379 0.0095024085            5 
 4204000   0.57172262   -8.8345555    545.11111  0.010805406 0.0094989439            6 
 4205000   0.57714409   -8.8531281    545.56303  0.010811792 0.0094954858            2 
 4206000    0.5798737   -8.8314962    546.10092  0.010819879 0.0094920278            4 
 4207000   0.58393887   -8.8494606    545.84597  0.010812257 0.0094885745            4 
 4208000   0.58951368   -8.8446638    545.25504  0.010797985 0.0094851223            2 
 4209000   0.57628465    -8.848163    545.18203  0.010793974 0.0094816671            2 
 4210000   0.57985794   -8.8294081    546.08221  0.010809228 0.0094782208            3 
 4211000   0.57580568   -8.8353219    545.84904  0.010802047 0.0094747687           10 
 4212000   0.57268235    -8.841911    545.86984  0.010799894 0.0094713178            3 
 4213000   0.57265845   -8.8634057    546.21451  0.010804148 0.0094678727            4 
 4214000   0.57876833   -8.8393738    545.22182  0.010781953  0.009464431            5 
 4215000   0.57158908   -8.8709382    544.91932  0.010773415 0.0094609858            2 
 4216000   0.58598183   -8.8541722    545.24401  0.010777277 0.0094575442            6 
 4217000   0.56991363   -8.8470229     545.1266  0.010772401 0.0094541057            5 
 4218000   0.56113229   -8.8327857    545.10061  0.010769334 0.0094506672            6 
 4219000     0.580769   -8.8428995    546.40266  0.010792499 0.0094472324            1 
 4220000   0.57748435   -8.8353238    545.76409  0.010777332 0.0094437984            2 
 4221000   0.58833813   -8.8432425     546.2205  0.010783789 0.0094403667            2 
 4222000   0.57135246   -8.8577122    545.65573  0.010770088 0.0094369332            2 
 4223000   0.59642827   -8.8286773    545.65229   0.01076747 0.0094335093            5 
 4224000   0.58895825    -8.833752    545.71579  0.010766173 0.0094300811            6 
 4225000   0.57124795   -8.8471835    546.20545  0.010773283 0.0094266552            7 
 4226000   0.57278639   -8.8499876    545.14862  0.010749894 0.0094232298            1 
 4227000   0.58289648    -8.837935    545.55023  0.010755268 0.0094198077            1 
 4228000   0.56602405   -8.8545139     544.7139  0.010736241 0.0094163889            2 
 4229000   0.57475433   -8.8296635    546.06389  0.010760304 0.0094129707            2 
 4230000   0.56408145   -8.8611682    545.09601  0.010738692 0.0094095526            2 
 4231000   0.56893513   -8.8479281     545.4689  0.010743498 0.0094061363            2 
 4232000   0.56430638   -8.8565372    546.44082  0.010760098 0.0094027219            1 
 4233000   0.57033712     -8.85244    545.54936  0.010740006 0.0093993103           11 
 4234000   0.58262169   -8.8421733    546.14321  0.010749158 0.0093958962            3 
 4235000   0.57961355   -8.8489292    545.61692  0.010736264 0.0093924817            2 
 4236000   0.57496745   -8.8564524    545.33367  0.010728157 0.0093890685            1 
 4237000   0.58450335    -8.871573    544.62985  0.010711782 0.0093856554            2 
 4238000   0.57923669   -8.8514354    546.08644  0.010737896 0.0093822524            2 
 4239000   0.58775996   -8.8426889    545.91319  0.010731957 0.0093788454            5 
 4240000   0.57546466   -8.8192867    545.85048  0.010728193 0.0093754418            2 
 4241000   0.56120799   -8.8551154     545.1896  0.010712678 0.0093720391            1 
 4242000   0.55574774   -8.8319515    545.90547  0.010724216  0.009368638            4 
 4243000   0.57104588   -8.8525507    545.25792   0.01070897 0.0093652365            3 
 4244000   0.57660184   -8.8331932    543.96202  0.010681001 0.0093618363            5 
 4245000    0.5737633   -8.8574413    545.34615  0.010705657 0.0093584343            7 
 4246000   0.57830266    -8.847211    545.41409  0.010704469 0.0093550333            6 
 4247000   0.57553919   -8.8540533    545.41298  0.010701927 0.0093516359            5 
 4248000   0.57684687   -8.8631067    546.04349  0.010711776 0.0093482423            2 
 4249000    0.5642629   -8.8463257    545.35835  0.010695818  0.009344849            2 
 4250000   0.57599887   -8.8786784    544.47458  0.010675972 0.0093414569            1 
 4251000   0.56819254   -8.8461898    545.46873  0.010692949   0.00933807            6 
 4252000   0.57127911   -8.8703479    545.52975   0.01069163  0.009334682            4 
 4253000   0.58312625   -8.8427429    545.23021  0.010683247 0.0093312932            3 
 4254000   0.56650509   -8.8464399    545.45389  0.010685118 0.0093279074            7 
 4255000   0.57933527   -8.8453174    545.65006  0.010686449 0.0093245223            1 
 4256000   0.57913033   -8.8590465    545.01569  0.010671516 0.0093211393            3 
 4257000   0.56394869   -8.8573542    545.68192  0.010682052 0.0093177555            4 
 4258000   0.57294017   -8.8764873    545.08467  0.010667854 0.0093143784            9 
 4259000    0.5819918   -8.8612362    544.60181  0.010655901 0.0093109978            3 
 4260000   0.58502468   -8.8802766    544.88243  0.010658889 0.0093076203            6 
 4261000    0.5713717   -8.8780088    544.89992   0.01065673  0.009304245            5 
 4262000   0.57738426    -8.870217    544.09531  0.010638497 0.0093008696            7 
 4263000   0.56719145   -8.8567789    545.46869  0.010662849 0.0092974958            4 
 4264000   0.57004344   -8.8471751    545.95944  0.010669939 0.0092941241            1 
 4265000   0.56111394   -8.8652011    546.02904  0.010668797 0.0092907545            4 
 4266000   0.57354413   -8.8474254     545.9121  0.010664012 0.0092873891            3 
 4267000    0.5706125   -8.8566196    545.91143    0.0106615 0.0092840248            1 
 4268000   0.58385745   -8.8612364    544.91858  0.010639616 0.0092806607            1 
 4269000   0.56812731   -8.8506714    545.36369  0.010645813 0.0092773013            2 
 4270000   0.56482688   -8.8543129    545.74192  0.010650701 0.0092739394            5 
 4271000   0.56136372   -8.8660409    545.62416   0.01064591 0.0092705828            2 
 4272000   0.56612183   -8.8584918    545.81606  0.010647161  0.009267228            2 
 4273000   0.57665763   -8.8637347    544.53352  0.010619657 0.0092638755            2 
 4274000    0.5673488   -8.8501173    546.09372  0.010647592 0.0092605283            4 
 4275000   0.58872449   -8.8717735    545.00305  0.010623841 0.0092571771            4 
 4276000   0.56281045   -8.8643856    545.14479  0.010624119 0.0092538318            2 
 4277000   0.57147338   -8.8722025    544.51186  0.010609303 0.0092504813            8 
 4278000   0.56636514   -8.8736552     544.9349  0.010615064 0.0092471355            2 
 4279000   0.57310217    -8.877289    546.20079  0.010637236   0.00924379            1 
 4280000   0.56819875   -8.8620276    545.14758  0.010614244 0.0092404453            3 
 4281000   0.55019777   -8.8745499    545.11954  0.010611219 0.0092370989            8 
 4282000   0.57118311   -8.8814978    544.73256   0.01060121 0.0092337532            5 
 4283000   0.58271215   -8.8886748     544.6387  0.010596908 0.0092304088            3 
 4284000   0.56823463   -8.8940247    544.69638  0.010595557  0.009227067            4 
 4285000   0.55980967   -8.8189718     545.1588  0.010602077 0.0092237271            3 
 4286000   0.56562495   -8.8382319    546.27342  0.010621275 0.0092203908            3 
 4287000   0.56338022   -8.8879304    544.58009  0.010585881 0.0092170525            7 
 4288000   0.56539334   -8.8823603    544.97502  0.010591088 0.0092137158            2 
 4289000   0.55763402   -8.8627672    544.61559  0.010581635 0.0092103836            5 
 4290000   0.56631994   -8.8608632    546.29732  0.010611836 0.0092070548            3 
 4291000   0.55463421   -8.8539462    544.52273    0.0105749 0.0092037259            4 
 4292000   0.55014399   -8.8741708     544.5084  0.010572158  0.009200397            3 
 4293000   0.56281071   -8.8599736    544.67822  0.010572991 0.0091970677            2 
 4294000   0.55642526   -8.8510216    545.64475  0.010589286   0.00919374            2 
 4295000   0.57498412   -8.8750257    544.68988  0.010568294 0.0091904137            1 
 4296000   0.55755619   -8.8659581    545.11815  0.010574142 0.0091870895            2 
 4297000    0.5616803    -8.872324    544.69081  0.010563393 0.0091837679            6 
 4298000   0.56343739   -8.8662834    545.75941  0.010581655 0.0091804473            2 
 4299000   0.56132379   -8.8551577    544.51856   0.01055514 0.0091771295            2 
 4300000   0.55739166   -8.8804234    544.61958  0.010554643  0.009173812            2 
 4301000    0.5649404   -8.8642527     544.6094  0.010551992 0.0091704978            2 
 4302000   0.56031855   -8.8858008     544.9731  0.010556584 0.0091671832            3 
 4303000   0.56844104   -8.8537436    545.47241  0.010563801 0.0091638711            2 
 4304000   0.57191697   -8.8739348    545.31729  0.010558343 0.0091605607            2 
 4305000    0.5512006   -8.8501869    545.66794  0.010562678 0.0091572535            6 
 4306000   0.55773703   -8.8585825    546.03526  0.010567334 0.0091539489            7 
 4307000   0.55574705    -8.864176    544.48899  0.010534962 0.0091506434            1 
 4308000   0.56391535   -8.8797768    544.78492  0.010538241 0.0091473391            3 
 4309000    0.5647225   -8.8730581    544.31754  0.010526757 0.0091440355            3 
 4310000   0.56085926   -8.8509989    544.87344  0.010535063 0.0091407343            4 
 4311000   0.55898692    -8.874432    545.12122  0.010537408 0.0091374357            3 
 4312000   0.56220929   -8.8531801    545.32004  0.010538807 0.0091341359            6 
 4313000   0.56517394   -8.8652016    545.19578  0.010533963 0.0091308381            2 
 4314000   0.55865223   -8.8852296    545.57815  0.010538907  0.009127538            5 
 4315000   0.57537419   -8.8568652    544.48722  0.010515396 0.0091242422            2 
 4316000   0.56487336   -8.8720019    544.89306  0.010520796 0.0091209476            1 
 4317000   0.55887006   -8.8767705    544.74237   0.01051545 0.0091176519            2 
 4318000   0.57963882   -8.8707462     544.2156  0.010502849 0.0091143577            2 
 4319000   0.57113293   -8.8629536     544.5689  0.010507234  0.009111065            1 
 4320000   0.55808055   -8.8836422    545.12772  0.010515581 0.0091077759            2 
 4321000   0.55970649   -8.8725852    545.06756  0.010511987 0.0091044878            1 
 4322000   0.55692959    -8.876634    545.60302  0.010519879  0.009101208            2 
 4323000   0.55635967    -8.860834    545.48076  0.010515089 0.0090979243            3 
 4324000   0.56014725   -8.8667497    544.17397  0.010487472 0.0090946423            1 
 4325000   0.56181422   -8.8859971    544.78965   0.01049691 0.0090913579            2 
 4326000   0.55763548   -8.8775345    543.89063  0.010477166 0.0090880765            1 
 4327000   0.56483943   -8.8749597    545.33246  0.010502513 0.0090848006            2 
 4328000   0.57057668   -8.8689715    545.46509   0.01050264 0.0090815287            2 
 4329000    0.5468568   -8.8914742    544.35463  0.010478837 0.0090782541            2 
 4330000   0.55740505   -8.8471014    544.65387  0.010482176 0.0090749802            3 
 4331000   0.56449998    -8.881208    545.16503  0.010489591 0.0090717097            2 
 4332000   0.57292224   -8.8822759    543.56598  0.010456409 0.0090684406            2 
 4333000    0.5713536   -8.8715082    544.81621  0.010478041 0.0090651733            3 
 4334000   0.54968609   -8.8882646    544.17965  0.010463384 0.0090619027            4 
 4335000   0.54899427   -8.8652227    543.93706  0.010456306 0.0090586335            2 
 4336000   0.55157738   -8.8894556    544.32682  0.010461386 0.0090553658            5 
 4337000   0.55128435   -8.8551019    545.09807  0.010473793 0.0090520978            3 
 4338000   0.55718157   -8.8831208    544.04971  0.010451239 0.0090488385            4 
 4339000   0.55718245   -8.8702849    543.96533   0.01044721 0.0090455769            4 
 4340000   0.55422134   -8.8592472    544.78575  0.010460556 0.0090423134            3 
 4341000   0.56287507   -8.8807303    544.09098  0.010444809  0.009039055            5 
 4342000   0.55735055   -8.8993328    544.58886  0.010451959 0.0090357967            2 
 4343000   0.55342124   -8.9008991    545.18479  0.010460987 0.0090325393            1 
 4344000   0.55531576   -8.8777149    545.26139  0.010460048 0.0090292838            4 
 4345000   0.56298784   -8.8886389    544.34216  0.010440011 0.0090260289            2 
 4346000   0.55089143   -8.9000731     543.9988  0.010431025 0.0090227751            5 
 4347000   0.55231846   -8.8787053    545.44355  0.010456321  0.009019526            1 
 4348000   0.56535775    -8.881458    544.40612  0.010434033 0.0090162761            3 
 4349000   0.55806953   -8.8683329    544.39663  0.010431452  0.009013028            2 
 4350000   0.55008326   -8.8890718    544.04794  0.010422374 0.0090097807            3 
 4351000   0.55377447   -8.8859425    545.01598  0.010438519 0.0090065351            4 
 4352000   0.54933547   -8.8860055    544.67022    0.0104295 0.0090032886            5 
 4353000    0.5519029    -8.898099    544.43931  0.010422684 0.0090000446            4 
 4354000    0.5512008   -8.8862789    544.12882  0.010414347 0.0089968025            3 
 4355000   0.55724259   -8.8982929     543.8425  0.010406477  0.008993563            4 
 4356000   0.56793664   -8.8992241    544.05566  0.010408166 0.0089903224            5 
 4357000   0.55009877   -8.9017192    544.71043  0.010418301 0.0089870875            1 
 4358000   0.55575021   -8.8913691    545.07281  0.010422839 0.0089838541            2 
 4359000   0.54970589   -8.8748898    544.91228  0.010417379 0.0089806224            1 
 4360000    0.5544434    -8.881656    545.48189  0.010425877 0.0089773909            1 
 4361000   0.54739802    -8.897735    544.10541  0.010397184  0.008974162            2 
 4362000   0.56330601    -8.879017    543.79879  0.010388942 0.0089709321            2 
 4363000   0.55100143   -8.8879158    545.04277  0.010410321 0.0089677044            3 
 4364000   0.54312953   -8.8747793    544.60514  0.010399579 0.0089644786            3 
 4365000   0.56373698   -8.9022655    543.38775  0.010373955 0.0089612549            1 
 4366000   0.55348924   -8.8875458    544.85715  0.010399625 0.0089580313            7 
 4367000   0.54379006   -8.8913304    544.39796  0.010388481 0.0089548063            2 
 4368000   0.56004472   -8.8881582    544.50231  0.010388094 0.0089515834           10 
 4369000   0.55208526   -8.8710422    545.30213  0.010400971 0.0089483652            5 
 4370000    0.5647532   -8.8818522    544.97753  0.010392401 0.0089451497            1 
 4371000   0.54218743   -8.8818995    545.03513  0.010391122 0.0089419339            4 
 4372000   0.54845114   -8.8874387    545.02642  0.010388579 0.0089387173            4 
 4373000   0.55420266   -8.8878028    545.65892  0.010398257 0.0089355025            1 
 4374000   0.55309351   -8.8679433    545.07694  0.010384791 0.0089322905            3 
 4375000   0.54560633   -8.8739037    543.67386  0.010355693  0.008929077            1 
 4376000     0.548934    -8.898836    544.03081  0.010360124 0.0089258667            4 
 4377000   0.54081906   -8.9009023    543.94115   0.01035605 0.0089226564            1 
 4378000   0.55350319   -8.9062686    544.01282  0.010355048 0.0089194525            2 
 4379000   0.54949422   -8.8835209    544.02803  0.010352973 0.0089162494            2 
 4380000   0.53885127   -8.8859334    544.47286  0.010359073 0.0089130471            1 
 4381000   0.55483891   -8.9113055    545.05371  0.010367757 0.0089098479            3 
 4382000   0.56466587   -8.9003885    544.92674  0.010362976 0.0089066486            2 
 4383000   0.55256347   -8.8892532    544.98032  0.010361631 0.0089034489            3 
 4384000   0.54021439   -8.8916256    543.44354  0.010330055 0.0089002521            4 
 4385000   0.55911971   -8.8807737    544.67904  0.010351179 0.0088970543            1 
 4386000   0.53232275   -8.8978863    544.62683  0.010347827 0.0088938597            5 
 4387000   0.56206891   -8.9016238    543.68228  0.010327526 0.0088906638            2 
 4388000   0.56364069   -8.8813858    544.72474   0.01034497  0.008887472            7 
 4389000   0.54807004   -8.8935035     543.8754  0.010326487 0.0088842781            1 
 4390000   0.55322098   -8.8829785    544.29529  0.010332105 0.0088810886            6 
 4391000   0.55031456   -8.8976208    544.57072  0.010334979 0.0088778994            5 
 4392000   0.56121355   -8.8858643     545.6905  0.010353873 0.0088747137            5 
 4393000    0.5563164    -8.885251    543.42411  0.010308523 0.0088715271            4 
 4394000   0.54043755   -8.8946674    544.34952  0.010323728 0.0088683438            4 
 4395000   0.53697282   -8.8928931    544.02428  0.010315212 0.0088651623            6 
 4396000   0.54681972   -8.8989372    544.94874   0.01033039 0.0088619813            3 
 4397000   0.53828245   -8.8938655     544.4041  0.010317718 0.0088587998            3 
 4398000   0.56354274   -8.8897635    544.41996  0.010315673 0.0088556219            1 
 4399000   0.55854759   -8.8700784    543.35371  0.010293129 0.0088524434            2 
 4400000   0.55217309   -8.9163065    544.10355  0.010304992 0.0088492684            4 
 4401000   0.54611408   -8.8990651    543.53487  0.010291882  0.008846092            3 
 4402000   0.54188235   -8.9068685    543.01911   0.01027978 0.0088429156            8 
 4403000   0.54331404   -8.8972803    544.47442  0.010304989  0.008839739            3 
 4404000   0.52628496   -8.8739494    544.10803  0.010295717 0.0088365672            1 
 4405000   0.55181837   -8.8993982    544.54399  0.010301627 0.0088333997            4 
 4406000   0.54612365   -8.8831864    544.02593   0.01028949 0.0088302334            3 
 4407000   0.54392455   -8.8913136    543.52513  0.010277686 0.0088270636            1 
 4408000   0.55959093   -8.9109088    544.33114  0.010290592 0.0088238973            4 
 4409000   0.55890871   -8.8904316    544.20067  0.010285792 0.0088207331            1 
 4410000   0.54643646   -8.9178107    544.94717  0.010297566  0.008817574            9 
 4411000   0.54482422    -8.896133    544.02193  0.010277751 0.0088144131            3 
 4412000   0.55594617   -8.8996798    544.61989  0.010286716 0.0088112549            5 
 4413000   0.54003175   -8.9211344     544.6698  0.010285327 0.0088080998            3 
 4414000   0.55090848   -8.8993125     545.2531   0.01029401 0.0088049446            3 
 4415000   0.54391369   -8.9097346    543.64192  0.010261267 0.0088017896            2 
 4416000   0.54372949   -8.9012477    545.27036  0.010289673 0.0087986367            2 
 4417000   0.53892159   -8.8899045    544.37106  0.010270377 0.0087954854            3 
 4418000   0.54667632   -8.8917819    544.76978  0.010275573 0.0087923337            3 
 4419000   0.54006236   -8.9025286    544.00516  0.010258829 0.0087891799            1 
 4420000    0.5336879   -8.8992588    544.63784  0.010268436 0.0087860304            2 
 4421000   0.53376551    -8.912608    544.01377   0.01025435 0.0087828815            6 
 4422000   0.54906246   -8.8961031    544.00141  0.010251798 0.0087797318            6 
 4423000   0.53908795   -8.8994509    544.06567  0.010250691 0.0087765885            5 
 4424000   0.53973793   -8.9145584    543.20571  0.010232175 0.0087734445            1 
 4425000   0.53851006   -8.9092206    544.43596  0.010253031 0.0087702989            4 
 4426000   0.54991758   -8.9209505    543.90516  0.010240721 0.0087671567            1 
 4427000   0.54551696    -8.904241    543.76768   0.01023582 0.0087640182            7 
 4428000   0.55140714   -8.9078252    544.56065  0.010248431 0.0087608781            3 
 4429000   0.54623767    -8.896904    544.20523   0.01023943 0.0087577404            4 
 4430000   0.54512511   -8.9056841    544.46159  0.010241941 0.0087546063            2 
 4431000   0.53917277   -8.9238433    543.33589  0.010218459  0.008751472            1 
 4432000   0.54969644   -8.9127104     544.8013  0.010243707 0.0087483409            4 
 4433000   0.54413536   -8.9016166    543.90102  0.010224472 0.0087452117            2 
 4434000   0.53165051   -8.8931222    544.09413  0.010225796 0.0087420807            8 
 4435000   0.54292113   -8.9292891    543.66204  0.010215371 0.0087389535            2 
 4436000   0.53042132   -8.9098438    544.50702  0.010228942 0.0087358248            1 
 4437000   0.54519701   -8.9084872    544.09708  0.010218937 0.0087326998            3 
 4438000   0.55650308    -8.902396    543.10705  0.010198044 0.0087295747            2 
 4439000   0.53562814   -8.8973632    544.13593  0.010215062 0.0087264502            4 
 4440000   0.54564138   -8.9295143    544.26208  0.010215129 0.0087233265            5 
 4441000   0.53961217   -8.9201134    543.92163   0.01020644 0.0087202067            4 
 4442000   0.54718199   -8.8997861    543.40911  0.010194528 0.0087170848            1 
 4443000   0.54043468   -8.8886563    544.03982  0.010204063 0.0087139674            4 
 4444000     0.535189   -8.9201405     543.7553  0.010196431 0.0087108497            2 
 4445000   0.54774183   -8.9076796    544.69603  0.010211774 0.0087077356            2 
 4446000   0.53268137   -8.9093606    544.39111  0.010203762 0.0087046232            2 
 4447000   0.53640537   -8.9116834    543.20566  0.010179253 0.0087015091            2 
 4448000   0.53680975   -8.9155437    544.24103  0.010196362 0.0086983993            2 
 4449000   0.53215157   -8.9155335     543.1308  0.010173275 0.0086952879            2 
 4450000   0.53879031   -8.9077333     543.1675  0.010171676 0.0086921806            2 
 4451000   0.53926853   -8.9096514    543.85718  0.010182303 0.0086890738            1 
 4452000   0.52695837   -8.9133792    543.49325  0.010173204 0.0086859648            1 
 4453000   0.54042788   -8.9157847    542.94657  0.010160689 0.0086828577            3 
 4454000   0.53144218   -8.9097667    543.70167  0.010172535 0.0086797536            3 
 4455000   0.54190005   -8.9078296    543.63763  0.010169054 0.0086766522            2 
 4456000   0.54703565   -8.9181964    543.73943  0.010168676 0.0086735526            2 
 4457000   0.53408341   -8.9285686    543.48605  0.010161657 0.0086704536            1 
 4458000   0.54290848   -8.9001808    544.54544   0.01017918 0.0086673547            2 
 4459000   0.53421708   -8.8951248    543.76865   0.01016238 0.0086642581            4 
 4460000   0.53943598    -8.933476    543.63963  0.010157691 0.0086611608            4 
 4461000   0.53849211   -8.9264074    543.21988  0.010147573 0.0086580635            3 
 4462000   0.53900486   -8.9089457    543.87777  0.010157586 0.0086549698            4 
 4463000   0.52659764   -8.9146777    543.69231  0.010151847 0.0086518805            8 
 4464000   0.53852259   -8.9222316    542.90764  0.010134925 0.0086487882            6 
 4465000     0.530734   -8.9109465    544.79849  0.010167945 0.0086456979            1 
 4466000   0.54377111   -8.9051252    543.87489  0.010148434 0.0086426102            2 
 4467000   0.52813646   -8.9216185    543.90711  0.010146764 0.0086395271            2 
 4468000   0.53612401   -8.9350564     543.2292  0.010131849 0.0086364406            3 
 4469000   0.54344148   -8.9322069    544.00263  0.010144004 0.0086333572            1 
 4470000   0.54331796   -8.9329551    544.07294  0.010143045 0.0086302719            1 
 4471000   0.53315426   -8.9147106    543.31246  0.010126602 0.0086271915            1 
 4472000   0.53970337   -8.9058231    544.32419  0.010143191 0.0086241147            5 
 4473000   0.54149963   -8.9129497    544.87723  0.010151226 0.0086210398            1 
 4474000   0.54821429   -8.9220178    543.57732  0.010124745 0.0086179633            4 
 4475000   0.53718754   -8.9117294    543.70745  0.010124906 0.0086148883            2 
 4476000   0.52208117   -8.9248018    543.80057  0.010124378 0.0086118148            4 
 4477000   0.54076657    -8.909175    545.39147  0.010151729 0.0086087433            2 
 4478000   0.52811612   -8.9328914    543.72603  0.010118469 0.0086056727            3 
 4479000   0.52613487   -8.9061437    543.92721  0.010119953  0.008602601            2 
 4480000   0.53978272   -8.9181707    543.94832  0.010118086 0.0085995333            2 
 4481000   0.53997286    -8.922987     543.3483   0.01010467 0.0085964682            2 
 4482000   0.53170897   -8.9072956    542.95829  0.010095164 0.0085934044            4 
 4483000   0.54947659   -8.9072895      543.256  0.010098446 0.0085903431            3 
 4484000   0.52656873   -8.9253121    543.26012   0.01009627 0.0085872817            2 
 4485000   0.52575338   -8.9070762    544.18543  0.010111212  0.008584219            3 
 4486000   0.53497062   -8.9191924    543.43444  0.010095007   0.00858116            3 
 4487000   0.53171736   -8.9260634    542.78708  0.010080735 0.0085780992            3 
 4488000   0.53893355   -8.9271082    543.68524  0.010095166 0.0085750406            2 
 4489000   0.54057638   -8.9346554    543.37125  0.010087088  0.008571984            3 
 4490000   0.52576881   -8.9221231    543.41684  0.010085688 0.0085689307            2 
 4491000   0.54346665    -8.933393    542.34918  0.010063631 0.0085658786            3 
 4492000   0.53495837   -8.9153987    543.53653  0.010083417 0.0085628296            1 
 4493000   0.53206578    -8.943533    543.23019  0.010075491 0.0085597783            2 
 4494000   0.51671696   -8.9142545    543.19803  0.010072653 0.0085567318            3 
 4495000   0.52855734   -8.9267044    543.29721  0.010072251 0.0085536841            3 
 4496000   0.52681493   -8.9244144    544.05063  0.010083975  0.008550642            2 
 4497000   0.52826706   -8.9080815    543.45746  0.010070741 0.0085475982            1 
 4498000   0.53060954    -8.928707    542.96838  0.010059441 0.0085445541            2 
 4499000   0.54061068   -8.9082157    543.10431  0.010059723 0.0085415122            2 
 4500000   0.53686346   -8.9277814    543.19536  0.010059173 0.0085384704            3 
 4501000   0.51746896   -8.9345448    542.84692  0.010050487 0.0085354298            2 
 4502000   0.53782597   -8.9170283    543.36421   0.01005783 0.0085323877            1 
 4503000   0.52932964   -8.9302881      544.593  0.010078337 0.0085293508            2 
 4504000   0.52974409    -8.942388    543.81223  0.010061653  0.008526317            2 
 4505000    0.5320924   -8.9348454    543.37577  0.010051346 0.0085232791            2 
 4506000   0.53193224   -8.9272372    543.05142  0.010043117 0.0085202412            2 
 4507000   0.52644211   -8.9330561     543.4186  0.010047678  0.008517207            3 
 4508000   0.52716118   -8.9175432    543.22732  0.010041913 0.0085141783            2 
 4509000   0.54041966    -8.922974    543.99768  0.010053923 0.0085111519            3 
 4510000   0.53354571   -8.9156898     543.2855  0.010038535  0.008508129            3 
 4511000   0.52503213   -8.9196753    544.00687  0.010049636 0.0085051035            2 
 4512000   0.53766384   -8.9190872    543.53395  0.010038674 0.0085020761            5 
 4513000   0.52623694   -8.9251641    543.62608  0.010038151 0.0084990545            4 
 4514000   0.52918557   -8.9140695    543.21594  0.010028355 0.0084960355            2 
 4515000   0.53694668   -8.9307219    543.67144  0.010034541 0.0084930162            3 
 4516000   0.52378257   -8.9392858    542.23521  0.010005817 0.0084899989            3 
 4517000   0.52130277   -8.9455608    543.05699  0.010018762 0.0084869788            2 
 4518000   0.53265355   -8.9351876    543.35706   0.01002208 0.0084839598            1 
 4519000   0.53616097   -8.9288359    542.80762   0.01000973 0.0084809435            5 
 4520000    0.5325841   -8.9289894    543.08719  0.010012669 0.0084779262            2 
 4521000   0.51591898   -8.9403041    543.96424  0.010026621 0.0084749131            1 
 4522000    0.5333019   -8.9265235    542.74308    0.0100019 0.0084719018            1 
 4523000   0.53540774   -8.9342093    542.97727  0.010004003 0.0084688889            2 
 4524000   0.52189722   -8.9341618    543.52058    0.0100118 0.0084658807            1 
 4525000    0.5327474   -8.9226215    543.43364  0.010007986 0.0084628721            2 
 4526000   0.52396171   -8.9249612    543.14943  0.010000542 0.0084598649            3 
 4527000   0.52363696   -8.9272476    543.14021 0.0099981631 0.0084568582            5 
 4528000   0.52936499   -8.9287411     543.8644  0.010009283 0.0084538562            2 
 4529000   0.53126346   -8.9240865    542.01586 0.0099730599  0.008450855            3 
 4530000   0.53588779   -8.9306805     542.8912 0.0099869609 0.0084478545            3 
 4531000   0.52079478   -8.9204584    543.18138 0.0099900938 0.0084448554            3 
 4532000    0.5240192   -8.9341463    543.42092  0.009992294 0.0084418572            5 
 4533000   0.52902166   -8.9329626    543.50156 0.0099915722  0.008438858            1 
 4534000   0.53255977   -8.9348501    543.02457 0.0099806015 0.0084358606            3 
 4535000   0.52703247   -8.9284028    543.70933 0.0099909837 0.0084328665            2 
 4536000   0.52780543   -8.9195912    542.42821 0.0099652449 0.0084298768            2 
 4537000   0.51368918   -8.9433528    543.30879 0.0099792225 0.0084268854            6 
 4538000    0.5256203    -8.946167    543.19048 0.0099748508  0.008423894            2 
 4539000   0.52330573   -8.9215563    542.80416 0.0099655607 0.0084209076            3 
 4540000   0.51336702   -8.9300868    542.97855 0.0099665666   0.00841792            1 
 4541000   0.53307207   -8.9372089    543.28594 0.0099700128 0.0084149368            2 
 4542000   0.52550548   -8.9349439    542.82244 0.0099593138 0.0084119539            1 
 4543000   0.52315698   -8.9457563    542.69799 0.0099548388 0.0084089699            2 
 4544000   0.52284458   -8.9281965    543.96776 0.0099759346 0.0084059902            2 
 4545000   0.51434439   -8.9178591    542.72956  0.009951037 0.0084030094            3 
 4546000   0.50452388   -8.9296696    543.10281 0.0099556902 0.0084000306            7 
 4547000    0.5356023   -8.9364424    543.75231  0.009965404 0.0083970514            2 
 4548000   0.53171015   -8.9243248    542.82794 0.0099462756 0.0083940756            5 
 4549000   0.53016084   -8.9237345    543.33499 0.0099533778 0.0083911024            3 
 4550000   0.52594929   -8.9475462    542.95516 0.0099442336 0.0083881322            2 
 4551000   0.53200713   -8.9261025    543.01288 0.0099431055 0.0083851596            3 
 4552000   0.51694337   -8.9453077    542.85065 0.0099379512 0.0083821928            7 
 4553000   0.52313084   -8.9226389    542.52348 0.0099297804 0.0083792205            1 
 4554000   0.53802813   -8.9546335    543.43944 0.0099443609 0.0083762506            2 
 4555000   0.50631579   -8.9381356    542.99936 0.0099341266 0.0083732844            2 
 4556000   0.51435529   -8.9539953    543.46089  0.009940388 0.0083703194            4 
 4557000   0.52428507   -8.9299108     543.4096 0.0099372686 0.0083673541            1 
 4558000    0.5297596   -8.9278265    542.91988  0.009926135 0.0083643909            5 
 4559000   0.52820602   -8.9403865    543.18601 0.0099288223 0.0083614309            1 
 4560000   0.52083156   -8.9306986    542.48818 0.0099138921 0.0083584686            1 
 4561000    0.5243016   -8.9450146    542.82254 0.0099178276 0.0083555124            4 
 4562000   0.51695132   -8.9267187    542.87857  0.009916677 0.0083525573            2 
 4563000   0.51444236   -8.9319584    543.02754 0.0099172245 0.0083496003            2 
 4564000   0.53165022   -8.9203156    542.73538  0.009909717 0.0083466448            1 
 4565000   0.52288069   -8.9341493    542.36961 0.0099008691  0.008343693            2 
 4566000   0.52664502   -8.9358232    542.90501 0.0099084721 0.0083407406            1 
 4567000   0.51696623   -8.9519509    543.90337 0.0099245195 0.0083377906            3 
 4568000   0.52126438   -8.9438931    543.03454  0.009906497 0.0083348424            2 
 4569000   0.50438287   -8.9404941    543.56639 0.0099140292 0.0083318949            4 
 4570000   0.52028931   -8.9381911    542.84369 0.0098986814 0.0083289471            2 
 4571000   0.52779076   -8.9406501    542.89971 0.0098975372 0.0083260005            2 
 4572000   0.52634968   -8.9468248    542.23514 0.0098832593 0.0083230548            2 
 4573000    0.5230931   -8.9372965    542.39294 0.0098839736 0.0083201094            4 
 4574000   0.51225316   -8.9333139    543.32428 0.0098987807 0.0083171654            4 
 4575000   0.52660426   -8.9393365    542.35994 0.0098790516 0.0083142271            3 
 4576000   0.52315718   -8.9235174    542.46002 0.0098787154 0.0083112895            3 
 4577000   0.50799356   -8.9461924    542.95173 0.0098855096 0.0083083514            3 
 4578000   0.52477542   -8.9519317      543.293 0.0098895625 0.0083054134            3 
 4579000   0.51408205   -8.9401946    542.29839 0.0098693018 0.0083024769           12 
 4580000   0.51691885   -8.9352766    543.45478 0.0098881875 0.0082995448            1 
 4581000   0.51548039   -8.9393527    542.88797 0.0098757181 0.0082966124            9 
 4582000   0.52070546   -8.9526926    542.21197 0.0098612682 0.0082936801            3 
 4583000   0.51311459   -8.9403217    543.09173 0.0098751132 0.0082907498            3 
 4584000   0.51629952   -8.9359204    541.94861 0.0098521781 0.0082878192            3 
 4585000    0.5206704   -8.9538584    542.69604 0.0098636139 0.0082848917            1 
 4586000   0.51512772   -8.9432324    543.04843 0.0098678664 0.0082819652            2 
 4587000   0.52772361   -8.9547898    542.80408  0.009861276 0.0082790412            2 
 4588000   0.52509849   -8.9420444    544.10365 0.0098827312 0.0082761181            2 
 4589000    0.5177146   -8.9508724    542.35749 0.0098488685 0.0082731971            2 
 4590000   0.51350975   -8.9409213    542.86374 0.0098559139 0.0082702758            2 
 4591000   0.51138333    -8.950126    543.03946 0.0098569567 0.0082673578            3 
 4592000   0.50691154   -8.9419219    542.92115 0.0098526631 0.0082644404            1 
 4593000   0.51010501   -8.9401709    542.15413 0.0098366016 0.0082615243            3 
 4594000   0.51558339   -8.9372353    542.91196  0.009848207 0.0082586107            3 
 4595000   0.51915114   -8.9694203    543.47558 0.0098562855 0.0082556965            2 
 4596000   0.50020326   -8.9455566    542.32632 0.0098333029 0.0082527816            1 
 4597000   0.51335217   -8.9375942    543.10216  0.009845228   0.00824987            2 
 4598000   0.50928753   -8.9696616    543.06036 0.0098423292 0.0082469587            2 
 4599000   0.51811277    -8.957653    543.38173 0.0098460124 0.0082440479            3 
 4600000   0.51203511   -8.9451408    542.15585 0.0098216639 0.0082411359            2 
 4601000    0.5331631   -8.9456791    542.72446 0.0098298279 0.0082382294            2 
 4602000   0.51072959   -8.9490375    541.99228 0.0098144336 0.0082353224            2 
 4603000   0.51100648   -8.9577013    542.89148 0.0098285805 0.0082324194            2 
 4604000   0.52014615   -8.9460514     541.8218 0.0098070845 0.0082295134            3 
 4605000   0.52295169   -8.9637597    543.14102 0.0098288278  0.008226609            2 
 4606000   0.50900843   -8.9620519    542.76644 0.0098199169 0.0082237068            5 
 4607000   0.51739127   -8.9471887    542.84001 0.0098191161 0.0082208067            2 
 4608000    0.5178825    -8.951534    542.35483 0.0098082108 0.0082179079            5 
 4609000   0.51299083   -8.9617566    542.52838 0.0098092207 0.0082150094            4 
 4610000   0.50547665   -8.9542087    543.06205 0.0098167398 0.0082121152            3 
 4611000   0.51232837   -8.9656588    541.68497 0.0097897232 0.0082092176            1 
 4612000   0.50794962   -8.9550479    542.87274 0.0098090623 0.0082063234            2 
 4613000   0.51064828   -8.9635481    543.90221 0.0098255331 0.0082034288            1 
 4614000   0.52107341   -8.9367795    542.24839 0.0097935341 0.0082005355            2 
 4615000    0.5244707   -8.9644223    542.67757 0.0097991616 0.0081976451            1 
 4616000   0.51179107     -8.96004    542.47593 0.0097933984 0.0081947534            1 
 4617000    0.5159373   -8.9515626    542.40337 0.0097899676 0.0081918653            3 
 4618000   0.50815813   -8.9543993    543.31875  0.009804366 0.0081889791            1 
 4619000   0.49953989   -8.9467113    542.83035  0.009793432 0.0081860966            3 
 4620000   0.51721495   -8.9373409    542.92851 0.0097930827 0.0081832127            3 
 4621000   0.50409356   -8.9459336    543.13668 0.0097947177 0.0081803328            2 
 4622000    0.5116565   -8.9498954    543.56137 0.0098002554 0.0081774552            1 
 4623000   0.49498709   -8.9537692    542.96616 0.0097874064 0.0081745766            2 
 4624000   0.51321247   -8.9514285    542.48867 0.0097766846 0.0081716999            1 
 4625000   0.52636876   -8.9560846    542.09233 0.0097674294 0.0081688259            1 
 4626000   0.50789196   -8.9480301    542.13057 0.0097660069 0.0081659502            1 
 4627000   0.51820639   -8.9647277     542.2258 0.0097656114 0.0081630752            2 
 4628000   0.51011333   -8.9564852    542.30644 0.0097649532 0.0081602019            2 
 4629000   0.51417121   -8.9586333    542.99048 0.0097751581 0.0081573311            1 
 4630000   0.50445604   -8.9449209    542.01783 0.0097555405 0.0081544618            2 
 4631000   0.51135743   -8.9587881     542.8913 0.0097691516 0.0081515958            2 
 4632000   0.51154429   -8.9631185    541.95835 0.0097502581 0.0081487276            1 
 4633000   0.50345242   -8.9594078    542.50231 0.0097579378 0.0081458623            4 
 4634000   0.50732019   -8.9542199    543.17716 0.0097679679 0.0081429961            1 
 4635000   0.51503733   -8.9595322    542.94673 0.0097617176 0.0081401327            2 
 4636000   0.51581799   -8.9722518    542.53334  0.009752181 0.0081372704            1 
 4637000   0.51804136   -8.9519034     541.6807 0.0097347549 0.0081344101            3 
 4638000   0.51519892    -8.969089     542.1207 0.0097405617 0.0081315489            2 
 4639000   0.50205964   -8.9618478    541.89396 0.0097343889 0.0081286915            6 
 4640000   0.51228272   -8.9547699    542.69364 0.0097466531 0.0081258325            3 
 4641000   0.51418904   -8.9681358    542.42684 0.0097397623 0.0081229763            3 
 4642000   0.50467044    -8.938618    542.90642 0.0097462734 0.0081201223            3 
 4643000   0.49626154   -8.9634487    543.34679 0.0097520782 0.0081172692            5 
 4644000   0.51199355   -8.9465879    542.44767 0.0097338441 0.0081144177            2 
 4645000   0.49808684   -8.9471017    542.34971 0.0097299912 0.0081115659            1 
 4646000     0.505705   -8.9526928    542.40893 0.0097289591 0.0081087149            2 
 4647000   0.51129428   -8.9691435    542.46729  0.009727912 0.0081058661            2 
 4648000   0.50589356   -8.9743424    541.83853 0.0097145462 0.0081030202            3 
 4649000   0.49205361   -8.9703647    542.39329 0.0097224008 0.0081001737            6 
 4650000   0.51895079   -8.9712649    542.63062  0.009724563 0.0080973301            1 
 4651000   0.51073509   -8.9446857    543.37807 0.0097358644 0.0080944886            3 
 4652000   0.51623272   -8.9734659    542.76635 0.0097228137 0.0080916469            6 
 4653000   0.51632141   -8.9617542    542.12941 0.0097093168 0.0080888069            2 
 4654000   0.51007095   -8.9464736    542.79715 0.0097191869 0.0080859669            3 
 4655000   0.50679945   -8.9727326    542.42571 0.0097104495 0.0080831284            6 
 4656000   0.50478304   -8.9697825    543.04075  0.009719372 0.0080802898            2 
 4657000   0.51283855   -8.9600098    541.85025 0.0096959818 0.0080774506           10 
 4658000   0.50680087   -8.9758612    542.44277 0.0097045006 0.0080746147            5 
 4659000   0.50852831   -8.9788761    542.29173 0.0096997161 0.0080717795            2 
 4660000   0.49714063   -8.9591258    542.68315 0.0097046343 0.0080689444            3 
 4661000   0.50828343   -8.9588558    542.20513 0.0096940058 0.0080661109            4 
 4662000   0.51189107    -8.972971    543.27442   0.00971104 0.0080632809            1 
 4663000   0.49942131   -8.9848434     541.9304 0.0096849382   0.00806045            7 
 4664000   0.50170462   -8.9692165    542.75874 0.0096976618 0.0080576219            3 
 4665000   0.50632129   -8.9757094    541.20984 0.0096679142 0.0080547949            3 
 4666000   0.50021571   -8.9541144    542.43682 0.0096877557 0.0080519702            3 
 4667000   0.50668082   -8.9650688    542.08429 0.0096793852  0.008049147            5 
 4668000   0.50946699   -8.9692267    542.28316  0.009680862 0.0080463257            4 
 4669000   0.50753844   -8.9804006    541.80713 0.0096702923 0.0080435043            7 
 4670000   0.50869456   -8.9614498    542.48295 0.0096802811 0.0080406844            7 
 4671000   0.48946102   -8.9655625     542.3633  0.009676074 0.0080378637            3 
 4672000     0.499446    -8.976233    542.32113 0.0096732508 0.0080350441            1 
 4673000    0.5084576   -8.9710777    541.91669 0.0096639683 0.0080322261            3 
 4674000   0.51624882   -8.9694541    542.22124 0.0096673306 0.0080294113            3 
 4675000   0.49911428   -8.9765097    542.31605 0.0096669528  0.008026595            2 
 4676000   0.49928678   -8.9814127    541.71396 0.0096541553 0.0080237837            9 
 4677000   0.50926561   -8.9709754    542.32451 0.0096629696 0.0080209705            2 
 4678000   0.50488701   -8.9690924    541.70201  0.009649815 0.0080181584            2 
 4679000   0.49979347   -8.9803484    542.40962 0.0096603552 0.0080153489            3 
 4680000   0.49858883    -8.953751    542.29282 0.0096562111 0.0080125412            1 
 4681000   0.49304211     -8.96561    542.06086 0.0096500189 0.0080097358            3 
 4682000   0.49634922   -8.9655636     543.1129 0.0096666827 0.0080069321            2 
 4683000   0.51851984   -8.9921018    541.43168 0.0096347013 0.0080041295            4 
 4684000   0.49787202   -8.9829989    541.95026 0.0096418705 0.0080013243            2 
 4685000   0.50059715   -8.9837478    542.55711 0.0096506068 0.0079985209            5 
 4686000   0.50575945   -8.9839742    542.06551 0.0096398048 0.0079957214            5 
 4687000    0.5014696   -8.9884064    542.42169  0.009644081 0.0079929223            3 
 4688000   0.51034034   -8.9835098    542.44037 0.0096423558 0.0079901231            3 
 4689000   0.51023704   -8.9758282      542.002 0.0096325087 0.0079873245            2 
 4690000   0.49935073   -8.9781798    542.09945 0.0096321864 0.0079845272            3 
 4691000   0.50477279   -8.9651103    541.93435 0.0096272002 0.0079817305            2 
 4692000   0.50710877   -8.9702325    541.62824 0.0096197116 0.0079789363            2 
 4693000   0.50244151   -8.9852232    541.29088 0.0096116712   0.00797614            1 
 4694000   0.49822551   -8.9836985     541.2811 0.0096094499 0.0079733482            4 
 4695000   0.50873882   -8.9674968    541.72202 0.0096152293 0.0079705566            3 
 4696000   0.50588541   -8.9682329    542.11614 0.0096201757 0.0079677693            6 
 4697000   0.49875519   -8.9754624    542.28842 0.0096211842 0.0079649808            4 
 4698000   0.49906045   -8.9806851    540.87932 0.0095941415 0.0079621919            6 
 4699000   0.49283657   -8.9702569    542.06785 0.0096131775 0.0079594078            4 
 4700000   0.49781511   -8.9860218    542.22164 0.0096138589 0.0079566239            1 
 4701000   0.49801865   -8.9842994    541.53085 0.0095995683 0.0079538391            2 
 4702000   0.50412389   -8.9788044    542.43661 0.0096135795 0.0079510586            3 
 4703000   0.49715796   -8.9768693    541.22017 0.0095899811 0.0079482754            6 
 4704000   0.49724508   -8.9839362    541.92046 0.0096003483 0.0079454972            3 
 4705000   0.49105864    -8.976063    541.28263 0.0095870108 0.0079427204            2 
 4706000   0.49715692   -8.9869527    542.44809 0.0096056115 0.0079399422            2 
 4707000   0.49207648   -8.9767075    541.53658 0.0095874333 0.0079371669            4 
 4708000   0.50724306   -8.9682424    541.77457 0.0095896094 0.0079343925            3 
 4709000   0.51194309   -8.9839559    542.06514 0.0095927149 0.0079316195            1 
 4710000   0.50002847    -8.985362    542.35346 0.0095957795 0.0079288471            4 
 4711000   0.50654156   -8.9823183     541.8255 0.0095844036 0.0079260752            3 
 4712000   0.49399081   -8.9767347    542.53485 0.0095949145 0.0079233012            2 
 4713000   0.49826629   -8.9771133     541.1928 0.0095691491 0.0079205323            2 
 4714000   0.48591018   -8.9899661    541.70286 0.0095761359 0.0079177637            4 
 4715000   0.49724286   -8.9916791    541.79225 0.0095756848 0.0079149983            2 
 4716000   0.50077531   -8.9828642    541.25967 0.0095642434  0.007912236            6 
 4717000   0.49947921   -8.9815817    541.83806 0.0095724341 0.0079094739            2 
 4718000   0.49388769   -8.9854683    542.07855  0.009574653 0.0079067142            3 
 4719000   0.48668561   -8.9582622    541.51888 0.0095627408 0.0079039562            3 
 4720000   0.49042885   -8.9877742    541.45408 0.0095595707 0.0079011963            2 
 4721000   0.48656271   -8.9929644    541.32621 0.0095552886 0.0078984366            4 
 4722000    0.4948769    -8.985491    541.96787 0.0095645889 0.0078956778            6 
 4723000   0.50235241   -8.9834131    541.41684 0.0095528414 0.0078929196            5 
 4724000   0.50714518   -8.9875282    542.00432 0.0095611826 0.0078901641            1 
 4725000     0.500181    -8.977062    541.28416 0.0095464578 0.0078874096            1 
 4726000   0.49391756   -8.9895807    542.62401 0.0095680634 0.0078846562            2 
 4727000   0.49931996   -8.9818674    541.74837 0.0095506024 0.0078819036            1 
 4728000   0.49644187   -8.9845522    542.13732 0.0095554378 0.0078791537            2 
 4729000   0.49798644   -8.9831861    541.85596 0.0095484592 0.0078764039            2 
 4730000   0.49683109   -8.9740825    540.90347 0.0095296594 0.0078736562            2 
 4731000   0.48301197   -9.0015048    541.11614 0.0095313911 0.0078709084            1 
 4732000   0.49294486   -9.0055482    541.59257 0.0095377671 0.0078681645            2 
 4733000   0.49718661   -8.9964665    541.37571 0.0095319338 0.0078654191            2 
 4734000   0.49700583   -8.9834187    542.04731 0.0095417426 0.0078626764            3 
 4735000     0.494871   -8.9961527    541.88314 0.0095368381 0.0078599339            4 
 4736000   0.48907555   -8.9830087    541.93227 0.0095356888 0.0078571929            5 
 4737000   0.49277233   -8.9928056    542.34506 0.0095409377 0.0078544534            1 
 4738000    0.4948866   -8.9958784    540.96895 0.0095147206 0.0078517133            2 
 4739000   0.48943382   -8.9869215    541.81063 0.0095275134 0.0078489766            3 
 4740000   0.49837815   -8.9964625    541.96568 0.0095282292 0.0078462404            3 
 4741000   0.50205675   -8.9853103    541.59262 0.0095196622 0.0078435059            2 
 4742000   0.49652038   -8.9915738       541.93 0.0095235836 0.0078407721            4 
 4743000   0.49201671   -9.0189009     541.8802 0.0095207008 0.0078380394            5 
 4744000   0.50004383   -8.9888011    542.04844 0.0095216491 0.0078353075            1 
 4745000   0.49524993   -8.9969741    541.10636 0.0095030973 0.0078325777            2 
 4746000   0.49215089   -9.0063177    542.15629 0.0095195302 0.0078298475            4 
 4747000   0.47865709   -9.0018281    541.84021 0.0095119761 0.0078271194            4 
 4748000   0.49240097   -8.9784114    541.43814  0.009502916 0.0078243933            1 
 4749000   0.48770532   -8.9598214    541.57785 0.0095033665 0.0078216696            3 
 4750000   0.49187718    -8.987582    541.42287 0.0094986468 0.0078189466            1 
 4751000    0.4898115   -8.9965168    541.34611 0.0094953011 0.0078162264            4 
 4752000   0.48953295   -9.0018007    541.19032  0.009490571 0.0078135074            1 
 4753000   0.48834162   -8.9829469    541.05237 0.0094861555 0.0078107877            4 
 4754000   0.49622482   -9.0150893    541.91701 0.0094993165 0.0078080692            2 
 4755000   0.49421123   -8.9903569    541.98462 0.0094985036  0.007805355            5 
 4756000   0.48892678   -8.9924164    541.45488 0.0094872245 0.0078026373            1 
 4757000   0.48529772   -8.9869865     541.0134 0.0094774964 0.0077999254            3 
 4758000   0.50922405   -8.9849486    541.94342 0.0094917932 0.0077972107            1 
 4759000   0.48803044   -8.9897256    542.23799 0.0094949568  0.007794501            2 
 4760000   0.48687878   -8.9886142    541.56121 0.0094811137 0.0077917917            1 
 4761000   0.49299177   -8.9892557    540.55868 0.0094615745 0.0077890811            4 
 4762000   0.48164284   -9.0038957    542.04694 0.0094856318 0.0077863729            2 
 4763000   0.49522066   -9.0047551     541.6622 0.0094769089  0.007783668            2 
 4764000   0.49125375   -8.9992641     542.1749 0.0094838878 0.0077809626            2 
 4765000    0.4903268   -8.9863773    542.34591 0.0094848882  0.007778257            1 
 4766000   0.48712379   -9.0070777    542.20309 0.0094804009 0.0077755551            2 
 4767000   0.49025091   -8.9920527    541.17348 0.0094604132 0.0077728518            4 
 4768000   0.48563413   -9.0030443     540.7574  0.009451157  0.007770151            1 
 4769000   0.49439624    -8.996008    541.91042  0.009469323   0.00776745            1 
 4770000   0.48153121   -9.0109572    541.06593 0.0094525843 0.0077647534            2 
 4771000    0.4909576   -8.9893775    540.90924 0.0094478663 0.0077620542            1 
 4772000   0.48803034   -9.0020485     541.6998 0.0094596919 0.0077593567            4 
 4773000   0.47385172    -8.996022    540.87514 0.0094433121 0.0077566594            1 
 4774000   0.48502166   -8.9945199     541.7264 0.0094561933 0.0077539639            3 
 4775000   0.48312259   -8.9830637    541.51323 0.0094504927 0.0077512692            2 
 4776000   0.49016455    -8.992718    541.50454 0.0094483624 0.0077485782            1 
 4777000   0.48951747   -9.0161109    541.84264 0.0094522824  0.007745888            2 
 4778000   0.48652506   -9.0159154    541.31217 0.0094410523 0.0077431991            5 
 4779000   0.48628466   -8.9998017    541.62522 0.0094445355 0.0077405125            2 
 4780000   0.49000175   -9.0021259    541.05947 0.0094326965 0.0077378296            4 
 4781000   0.48162665   -9.0106994    541.37355  0.009436198 0.0077351455            2 
 4782000   0.48524262   -9.0000208    542.30332 0.0094504273 0.0077324625            2 
 4783000   0.48818875   -8.9976614    541.68876 0.0094377441  0.007729782            5 
 4784000   0.49141864    -8.989025    542.05639 0.0094421752  0.007727099            4 
 4785000   0.48940702   -9.0101366    541.38056  0.009428432 0.0077244191            2 
 4786000   0.48258666    -8.991927    541.95089 0.0094363924 0.0077217404            4 
 4787000   0.48689223    -9.011707    540.92894 0.0094166307 0.0077190613            1 
 4788000   0.48486865   -9.0070146    541.19309 0.0094192616 0.0077163844            2 
 4789000   0.50017429   -8.9903107    541.71033 0.0094262952 0.0077137106            2 
 4790000   0.49802598   -8.9870656    541.49118 0.0094205146 0.0077110368            2 
 4791000   0.48457532   -8.9740272    542.07723 0.0094287419 0.0077083667            3 
 4792000   0.47755344   -9.0033857     541.2818 0.0094129417 0.0077056941            2 
 4793000   0.46887361   -8.9900133     541.3041 0.0094113655 0.0077030236            5 
 4794000   0.48458062    -8.999109    541.18532 0.0094073376 0.0077003541            2 
 4795000   0.48160505    -9.005549    540.60133 0.0093952264 0.0076976852            2 
 4796000   0.48005616   -8.9931532    542.04377 0.0094183307 0.0076950205            3 
 4797000   0.48721948   -8.9842942    542.55125 0.0094251834 0.0076923556            2 
 4798000   0.48324644   -8.9804177    541.25074 0.0094006311 0.0076896921            3 
 4799000   0.47337025   -9.0088896    541.41463 0.0094015181 0.0076870312            3 
 4800000   0.48349683    -9.009663    541.05788  0.009393366 0.0076843692            2 
 4801000   0.48700443   -9.0184293    541.55567 0.0094000499 0.0076817084            3 
 4802000   0.48971274   -9.0051349    541.71517 0.0094008603 0.0076790504            2 
 4803000   0.49174899   -8.9876068    541.22407 0.0093903823 0.0076763905            2 
 4804000   0.48408202   -8.9995391    541.36964 0.0093909527 0.0076737307            3 
 4805000   0.47799896   -9.0057037    541.52297 0.0093916575 0.0076710779            2 
 4806000   0.49168749   -8.9993331    541.44825 0.0093884077 0.0076684243            1 
 4807000   0.48391237   -9.0018521    541.16554 0.0093815535 0.0076657723            1 
 4808000   0.47819167   -9.0094118    541.05035  0.009377606 0.0076631214            2 
 4809000   0.48379053   -9.0216898     541.0126 0.0093750017 0.0076604724            3 
 4810000   0.47508769   -9.0029467     540.8072 0.0093694941 0.0076578199            2 
 4811000   0.47485448   -9.0019059    541.33222 0.0093766406 0.0076551703            2 
 4812000   0.47353823   -9.0042092    541.67257 0.0093805862 0.0076525234            2 
 4813000   0.48263035   -8.9947345     540.9867 0.0093667619 0.0076498773            3 
 4814000   0.48583592   -9.0252906    540.85783 0.0093625854 0.0076472299            4 
 4815000   0.48589244   -9.0134035    541.43034 0.0093705494 0.0076445856            3 
 4816000   0.48119309   -9.0135562    541.24935 0.0093654719 0.0076419409            1 
 4817000   0.47951701   -9.0007265    541.48991 0.0093676892 0.0076392986            2 
 4818000   0.48072195   -9.0198543    540.74653 0.0093528873  0.007636658            2 
 4819000   0.49358252   -8.9893996    541.67252 0.0093669593 0.0076340187            2 
 4820000   0.47868619   -9.0014706    541.25335 0.0093577688 0.0076313804            6 
 4821000   0.46498548   -9.0169658    541.24745 0.0093557258 0.0076287442            2 
 4822000    0.4753014   -9.0161472    541.71627 0.0093618876 0.0076261083            1 
 4823000   0.48740036   -9.0074978    541.10891 0.0093494525 0.0076234758            3 
 4824000   0.48736147   -9.0146906    541.38451 0.0093522753 0.0076208403            2 
 4825000   0.47981522   -9.0134498    540.82085 0.0093406018 0.0076182088            2 
 4826000   0.49259183   -9.0078857    540.30619 0.0093297795 0.0076155777            2 
 4827000   0.47767394   -9.0052424    542.03056 0.0093576162 0.0076129462            3 
 4828000   0.47890178   -9.0087973    541.58148 0.0093479267 0.0076103189            2 
 4829000   0.47306166    -9.016148    540.67579 0.0093303615  0.007607692            2 
 4830000   0.47176482   -9.0139505    541.61282 0.0093445966 0.0076050648            4 
 4831000   0.47928043   -9.0212223      540.919 0.0093306941 0.0076024405            3 
 4832000   0.47944666   -9.0059553    541.12839 0.0093323743 0.0075998163            2 
 4833000   0.48225319   -9.0049472    541.37258 0.0093346538 0.0075971934            4 
 4834000    0.4829676   -9.0127779    540.73818 0.0093217863 0.0075945721            2 
 4835000   0.47858169   -9.0186152    540.79324 0.0093208073 0.0075919526            3 
 4836000   0.47116963    -9.029852    540.89801 0.0093206852 0.0075893339            2 
 4837000   0.47227468   -9.0175678    541.15463 0.0093231796 0.0075867155            3 
 4838000   0.47400072   -9.0140713    541.02574 0.0093190323 0.0075840985            1 
 4839000   0.47368881   -9.0154473    541.40936 0.0093237128 0.0075814834            7 
 4840000   0.47840885   -9.0312128    541.83419 0.0093291011 0.0075788709            5 
 4841000   0.48320786   -9.0030012     541.3064 0.0093180885 0.0075762569            3 
 4842000   0.47954016   -9.0081412    541.46337 0.0093188656 0.0075736448            2 
 4843000   0.47725137    -9.009186    541.56008 0.0093186055 0.0075710347            1 
 4844000   0.47586902   -9.0231702     541.3692  0.009313398 0.0075684257            3 
 4845000   0.47377732   -9.0145927    540.44611 0.0092955987  0.007565817            4 
 4846000   0.49285827   -9.0125036    541.26099 0.0093076934 0.0075632101            2 
 4847000   0.48926696   -8.9947992     540.3974 0.0092909256 0.0075606061            3 
 4848000   0.48032654   -9.0210258    540.75262 0.0092951152 0.0075580035            1 
 4849000    0.4629766    -9.025718    541.12698 0.0092996319 0.0075553992            3 
 4850000   0.46497536   -8.9992504    540.86582 0.0092932272 0.0075527971            3 
 4851000   0.46552431   -9.0262907    540.91211 0.0092921065 0.0075501942            2 
 4852000   0.47409343   -9.0166346    541.60055 0.0093020154 0.0075475914            2 
 4853000   0.46488162   -9.0065765    541.47809 0.0092979959 0.0075449916            2 
 4854000   0.46697009   -9.0081996    541.22119 0.0092916699 0.0075423933            5 
 4855000   0.45999399   -9.0336987    541.09908 0.0092876602 0.0075397953            3 
 4856000   0.46873855   -9.0148608    540.86875 0.0092817948 0.0075371986            3 
 4857000   0.48544533   -9.0131946    540.60033 0.0092752785 0.0075346038            3 
 4858000   0.47670601   -9.0120657    540.96978 0.0092797066 0.0075320089            1 
 4859000   0.47952124   -9.0031641     540.3045 0.0092663871 0.0075294143            3 
 4860000   0.47204484   -9.0186807    541.27166 0.0092810642 0.0075268216            2 
 4861000   0.47447463   -9.0064565     540.9917 0.0092743555  0.007524231            2 
 4862000   0.46297527   -9.0264209    540.43258 0.0092628647 0.0075216421            1 
 4863000    0.4778051   -8.9983374    540.49008 0.0092619452  0.007519053            3 
 4864000   0.47968139   -9.0208244    540.53283 0.0092607735 0.0075164672            3 
 4865000   0.46595075   -9.0151001    540.79673 0.0092633904 0.0075138785            1 
 4866000   0.46740162   -9.0259696    540.56698 0.0092575521 0.0075112937            3 
 4867000   0.46828121   -9.0106064    541.19639 0.0092664268 0.0075087083            2 
 4868000   0.47642674   -9.0065343    541.08294 0.0092625812 0.0075061255            3 
 4869000   0.48297792    -9.009571      541.453 0.0092670125 0.0075035434            5 
 4870000   0.47452004   -9.0164102    540.99575 0.0092572852 0.0075009633            3 
 4871000   0.47264756   -9.0256798    540.85853 0.0092530373 0.0074983837            3 
 4872000   0.47304046   -9.0124325    542.11654 0.0092726557  0.007495804            3 
 4873000   0.47650558    -9.002838    541.52047 0.0092605594 0.0074932296            4 
 4874000   0.47632708   -9.0073586    540.33114 0.0092383248 0.0074906548            5 
 4875000   0.46360158   -9.0342792    540.35971 0.0092369181  0.007488079            4 
 4876000   0.47361416   -9.0188617    542.13841 0.0092654227 0.0074855059            4 
 4877000   0.46015251   -9.0306611    540.72575 0.0092393847 0.0074829336            2 
 4878000   0.47666591   -9.0262921    541.40932 0.0092491684 0.0074803618            7 
 4879000   0.47404331   -9.0141265    540.43891  0.009230698 0.0074777922            4 
 4880000   0.47255453   -9.0195872    540.72962 0.0092337709  0.007475223            1 
 4881000   0.47261133   -9.0327082    540.69723 0.0092313261 0.0074726548            2 
 4882000    0.4723325   -9.0166809    541.33272 0.0092402827  0.007470088            2 
 4883000   0.47795776   -9.0202752    540.84817  0.009230121 0.0074675226            2 
 4884000   0.47951506   -9.0247847    540.96053 0.0092301483 0.0074649577            2 
 4885000   0.47460389   -9.0140587    540.92342 0.0092276257 0.0074623934            3 
 4886000    0.4719322   -9.0122877    540.72333 0.0092223245 0.0074598288            1 
 4887000   0.46212545   -9.0319033    540.12111 0.0092101683 0.0074572654            3 
 4888000   0.46840321    -9.027567    541.14239 0.0092256955 0.0074547042            2 
 4889000   0.47472874    -9.030699    540.29826 0.0092094202 0.0074521459            3 
 4890000   0.46075226   -9.0286027    540.86003 0.0092171103 0.0074495879            2 
 4891000   0.45723375   -9.0321018    541.18459 0.0092207557 0.0074470312            2 
 4892000   0.46043654    -9.028053    540.82969 0.0092128252  0.007444474            1 
 4893000   0.45450634   -9.0040561    540.60651 0.0092071414 0.0074419187            2 
 4894000   0.46845149   -9.0112768    540.96301 0.0092113303 0.0074393661            2 
 4895000   0.46658301   -9.0234351     540.5981 0.0092032363 0.0074368152            3 
 4896000   0.46805175   -9.0239647    540.89591 0.0092064255 0.0074342625            5 
 4897000   0.47569838   -9.0228794    540.41509 0.0091963633 0.0074317116            2 
 4898000   0.47562694   -9.0231434    540.01474 0.0091876743 0.0074291624            2 
 4899000   0.47484747   -9.0305143    541.00007 0.0092025595 0.0074266154            3 
 4900000   0.46422444   -9.0177215    541.22013 0.0092044241 0.0074240691            3 
 4901000   0.47424679   -9.0278706    540.27502 0.0091864759 0.0074215226            3 
 4902000   0.45767242   -9.0333037    540.37615  0.009186321 0.0074189794            2 
 4903000   0.47205041   -9.0293798    540.79013 0.0091914837 0.0074164349            2 
 4904000   0.46175428   -9.0208997     539.8365 0.0091734043 0.0074138928            4 
 4905000   0.46012373    -9.023666    540.58477 0.0091842469  0.007411353            4 
 4906000   0.46432825   -9.0374533    540.95524 0.0091886676 0.0074088132            2 
 4907000   0.45849709   -9.0169453    540.43054 0.0091778844 0.0074062739            2 
 4908000   0.46574206    -9.026852    540.79288 0.0091821665 0.0074037378            3 
 4909000   0.46754459   -9.0181593    540.41394 0.0091738634 0.0074012014            3 
 4910000   0.46869285   -9.0351292    540.79173 0.0091784068 0.0073986656            2 
 4911000   0.45876538   -9.0365014    540.90479 0.0091784564  0.007396132            1 
 4912000   0.46337817    -9.013858    540.46292 0.0091690913 0.0073936014            3 
 4913000   0.45211794   -9.0239755    540.48068 0.0091675263 0.0073910705            1 
 4914000   0.46163333    -9.026846    540.60809 0.0091678213 0.0073885398            4 
 4915000   0.46967743   -9.0104933    540.42131 0.0091627893 0.0073860102            1 
 4916000   0.47541028    -9.035501    540.51523 0.0091625175 0.0073834833            4 
 4917000     0.463116    -9.042255    540.50977 0.0091605615 0.0073809556            3 
 4918000   0.47473818   -9.0262848    539.84767 0.0091474799 0.0073784267            4 
 4919000   0.46256431    -9.011016    540.82499  0.009162177 0.0073759027            1 
 4920000   0.46526279   -9.0315521    541.15083 0.0091658338 0.0073733795            2 
 4921000   0.46554883   -9.0282868    540.35588 0.0091505093 0.0073708561            4 
 4922000   0.47669597   -9.0336987    541.18473 0.0091626834 0.0073683339            2 
 4923000   0.46703277   -9.0398644    540.67232 0.0091521484 0.0073658134            1 
 4924000   0.45476045   -9.0429378    541.49487 0.0091642105 0.0073632937            2 
 4925000   0.46203655   -9.0366865    540.18686 0.0091402176 0.0073607747            5 
 4926000   0.47168078   -9.0333338    541.24006 0.0091561792 0.0073582565            3 
 4927000   0.46433548   -9.0322412    540.31611 0.0091386934 0.0073557405            1 
 4928000   0.45916089   -9.0272322    540.31147 0.0091367605  0.007353225            1 
 4929000   0.46971583   -9.0461574    539.56169 0.0091222305 0.0073507105            2 
 4930000   0.46340018   -9.0289795    540.68647 0.0091393926 0.0073481983            3 
 4931000    0.4608215   -9.0245571    539.62007 0.0091195171 0.0073456868            2 
 4932000   0.46231395   -9.0359145    540.39079 0.0091306905 0.0073431766            1 
 4933000   0.45278925   -9.0253786    540.04206 0.0091229485 0.0073406668            1 
 4934000   0.46386966   -9.0374111    540.47088 0.0091283421 0.0073381583            2 
 4935000   0.46130493   -9.0390772    540.30715 0.0091237275 0.0073356513            3 
 4936000   0.45821195   -9.0218548    540.43165 0.0091239811 0.0073331456            3 
 4937000   0.45691111   -9.0411424    539.86035 0.0091124898   0.00733064            2 
 4938000   0.46614432   -9.0140342    540.76189 0.0091258588 0.0073281346            3 
 4939000   0.46100473    -9.017739    540.30102 0.0091162351 0.0073256328            1 
 4940000   0.46947008   -9.0233546    540.70473 0.0091211999 0.0073231319            3 
 4941000   0.45023043   -9.0242212    540.15667 0.0091101104 0.0073206319            1 
 4942000   0.45379963   -9.0261552    540.67299 0.0091169733 0.0073181319            2 
 4943000    0.4718691   -9.0433125    539.72813 0.0090991998 0.0073156318            4 
 4944000   0.45806325   -9.0462211    540.15652   0.00910458 0.0073131355            2 
 4945000   0.45806431   -9.0306979    540.31947 0.0091054848 0.0073106392            4 
 4946000   0.46423384   -9.0303263    540.72478 0.0091104728 0.0073081444            4 
 4947000   0.45988712   -9.0391052    540.47771 0.0091044692 0.0073056494            2 
 4948000   0.45980858   -9.0216261    540.46948 0.0091024905 0.0073031583            4 
 4949000   0.46379604   -9.0402849    540.84035 0.0091068961 0.0073006667            2 
 4950000    0.4691819   -9.0310614    540.89181 0.0091059227 0.0072981759            2 
 4951000   0.47190248   -9.0367407    539.45536 0.0090799057 0.0072956856            6 
 4952000   0.46630138   -9.0530994    540.33892 0.0090929409 0.0072931971            3 
 4953000   0.46117653   -9.0399203    540.11054 0.0090872627 0.0072907087            4 
 4954000    0.4606682   -9.0302488    541.16857 0.0091032259 0.0072882232            2 
 4955000   0.46630742    -9.034656    540.67731 0.0090931266 0.0072857386            4 
 4956000   0.45127209   -9.0252336     540.7355 0.0090922704 0.0072832533            1 
 4957000   0.46573833   -9.0503564    541.08393 0.0090962937 0.0072807694            3 
 4958000   0.46407853   -9.0281304    539.30133 0.0090644973 0.0072782873            3 
 4959000   0.45312227   -9.0331209    540.45686 0.0090820874 0.0072758057            5 
 4960000   0.46003116   -9.0512597    540.04268 0.0090732978 0.0072733258            2 
 4961000   0.45389326   -9.0451951    539.88483 0.0090688172 0.0072708486            8 
 4962000   0.45230019   -9.0329095    540.33061 0.0090744762 0.0072683726            8 
 4963000   0.46539731   -9.0550281     540.6706 0.0090783565 0.0072658957            2 
 4964000   0.45385488   -9.0451084    540.39067 0.0090718284 0.0072634194            1 
 4965000   0.45255182   -9.0424432    540.78408 0.0090766043  0.007260944            4 
 4966000   0.45391661   -9.0450935    539.90536 0.0090600309 0.0072584708            3 
 4967000   0.45443516   -9.0453178     540.9227 0.0090752752 0.0072559987            4 
 4968000   0.46202792   -9.0383222    540.46733 0.0090658101 0.0072535292            3 
 4969000   0.46186339   -9.0311968    540.78082 0.0090692429 0.0072510588            3 
 4970000   0.45920228   -9.0384818    540.64349 0.0090651155  0.007248591            2 
 4971000   0.44753382    -9.047799     540.2285 0.0090563351  0.007246123            3 
 4972000   0.46558725   -9.0587406    540.58084  0.009060419 0.0072436544            1 
 4973000    0.4480976   -9.0427589    540.14914  0.009051363 0.0072411903            3 
 4974000   0.46036008    -9.046736    540.15367 0.0090496191 0.0072387262            2 
 4975000   0.45637747   -9.0404356    539.84455 0.0090426222 0.0072362634            3 
 4976000   0.45901115   -9.0451485     539.2005 0.0090300191 0.0072337996            2 
 4977000   0.46375765   -9.0401916    540.61623 0.0090519092 0.0072313393            7 
 4978000   0.45963376   -9.0440663    541.35444 0.0090624488 0.0072288793            4 
 4979000   0.45661876   -9.0429328    539.68464 0.0090326813 0.0072264207            6 
 4980000   0.46501175   -9.0276106    539.32631 0.0090248714  0.007223963            3 
 4981000    0.4501024   -9.0443788    540.30199 0.0090393829 0.0072215064            6 
 4982000   0.45829085   -9.0555188    540.06714 0.0090336402 0.0072190504            3 
 4983000   0.44318752   -9.0347342    540.36757 0.0090368515 0.0072165982            3 
 4984000   0.46363867   -9.0360212    540.22028 0.0090325756 0.0072141442            6 
 4985000   0.45200125   -9.0422639    540.39404 0.0090336683 0.0072116922            4 
 4986000   0.45197548   -9.0491081    539.61808 0.0090188876 0.0072092406            4 
 4987000   0.45712442   -9.0462993    539.90628 0.0090218949 0.0072067906            3 
 4988000   0.45841288   -9.0412567    540.50818  0.009030142 0.0072043414            2 
 4989000   0.45494498   -9.0607407    540.17847 0.0090228246 0.0072018945            2 
 4990000   0.46100681   -9.0410025    539.99823 0.0090180065 0.0071994486            3 
 4991000   0.45297619   -9.0362792    540.00547 0.0090163205 0.0071970013            5 
 4992000   0.45245837   -9.0521801    539.58878 0.0090075585  0.007194556            2 
 4993000   0.44307685    -9.039685    540.14064  0.009014965 0.0071921135            8 
 4994000   0.45215533   -9.0545082    540.04513  0.009011566 0.0071896706            2 
 4995000   0.44581587   -9.0451652    540.82198 0.0090227224 0.0071872288            6 
 4996000   0.44986208   -9.0425346    539.81087  0.009004051 0.0071847887            2 
 4997000   0.45554462   -9.0390013    540.40982 0.0090122377 0.0071823514            4 
 4998000   0.45309536   -9.0567918    540.60318 0.0090136585 0.0071799139            2 
 4999000   0.46285473   -9.0656386    539.20172  0.008988493 0.0071774763            2 
 5000000   0.45414796   -9.0355009    540.79628 0.0090132714 0.0071750401            3 
 5001000   0.45331043   -9.0630081    540.30285 0.0090032468 0.0071726035            1 
 5002000   0.45453962    -9.055651     539.6502 0.0089905738 0.0071701722            6 
 5003000   0.45504212   -9.0385344    540.36066 0.0090006106 0.0071677418            5 
 5004000   0.44625476   -9.0460613    540.09619 0.0089944077 0.0071653118            6 
 5005000   0.44690707   -9.0506213    540.83072 0.0090048406 0.0071628813            3 
 5006000    0.4450405   -9.0627435    540.30375 0.0089942694  0.007160453            3 
 5007000   0.44973016   -9.0480018    540.37301 0.0089936258 0.0071580265            5 
 5008000   0.44678934   -9.0351373    540.18961 0.0089887781 0.0071556001            3 
 5009000   0.44955687   -9.0478173    539.76273 0.0089798818 0.0071531748            5 
 5010000   0.44584906   -9.0565795    540.47104  0.008989871 0.0071507484            2 
 5011000    0.4486802   -9.0512716    540.04071 0.0089809204 0.0071483241            3 
 5012000   0.44926429   -9.0525538    540.14388  0.008980844 0.0071459026            4 
Loop time of 12543.2 on 48 procs for 5000000 steps with 4000 atoms

Performance: 68881.688 tau/day, 398.621 timesteps/s
99.4% CPU use with 48 MPI tasks x no OpenMP threads

MPI task timing breakdown:
Section |  min time  |  avg time  |  max time  |%varavg| %total
---------------------------------------------------------------
Pair    | 849.1      | 900.29     | 958.27     |  95.9 |  7.18
Neigh   | 82.514     | 85.684     | 92.821     |  22.7 |  0.68
Comm    | 787.5      | 855.13     | 910.92     | 109.2 |  6.82
Output  | 13.978     | 13.983     | 14.08      |   0.4 |  0.11
Modify  | 10546      | 10571      | 10602      |  12.2 | 84.27
Other   |            | 117.5      |            |       |  0.94

Nlocal:        83.3333 ave          91 max          77 min
Histogram: 2 1 8 7 12 10 1 5 1 1
Nghost:        2206.83 ave        2229 max        2188 min
Histogram: 5 3 4 10 5 6 6 2 6 1
Neighs:        14730.9 ave       16234 max       13526 min
Histogram: 4 2 8 8 8 8 2 3 3 2
FullNghs:      29460.9 ave       32282 max       27186 min
Histogram: 2 2 6 9 13 7 2 4 2 1

Total # of neighbors = 1414123
Ave neighs/atom = 353.53075
Neighbor list builds = 266863
Dangerous builds = 2

#clear
#
#next RN
#
#jump SELF
Total wall time: 3:29:07
