
units lj                  # Use reduced LJ style units
atom_style atomic         # Uncharged point particles
atom_modify map hash      # Needed for indexing of clusters etc
                          # Used to be able to find where atoms are in relation to each other.

lattice fcc 1.0 spacing 1 1 1
Lattice spacing in x,y,z = 1.5874011 1.5874011 1.5874011
region box block 0 10 0 10 0 10 units lattice
create_box 2 box
Created orthogonal box = (0.0000000 0.0000000 0.0000000) to (15.874011 15.874011 15.874011)
  3 by 4 by 4 MPI processor grid
create_atoms 1 box
Created 4000 atoms
  using lattice units in orthogonal box = (0.0000000 0.0000000 0.0000000) to (15.874011 15.874011 15.874011)
  create_atoms CPU = 0.002 seconds
set type 1 type/fraction 2 0.85 78393
Setting atom values ...
  3394 settings made for type/fraction
mass 1 1.0
mass 2 1.0
pair_style lj/cut  3.5
pair_modify tail  yes
pair_coeff 1  1  1.0  1.0   # Intearaction between 1 and 1 set with epsilon = 1 and sigma = 1
pair_coeff 1  2  1.5  0.8
pair_coeff 2  2  0.5  0.88

write_data data.0
System init for write_data ...
Neighbor list info ...
  update every 1 steps, delay 10 steps, check yes
  max neighbors/atom: 2000, page size: 100000
  master list distance cutoff = 3.8
  ghost atom cutoff = 3.8
  binsize = 1.9, bins = 9 9 9
  1 neighbor lists, perpetual/occasional/extra = 1 0 0
  (1) pair lj/cut, perpetual
      attributes: half, newton on
      pair build: half/bin/atomonly/newton
      stencil: half/bin/3d
      bin: standard
WARNING: Not all mixed pair coeffs generated from mixing. Use write_data with 'pair ij' option to store all pair coeffs. (../write_data.cpp:312)


#############################
#   M E L T   S Y S T E M   #
#############################

velocity all create 2.4 5833274 mom yes dist gaussian # Assign velocities
                                                    # Temperature 2.4, random number seed, zero linear momentum
                                                                                # Gaussian distribution

timestep 0.002   # simulation timestep
thermo 1000       # output thermodynamic data every 1000 steps bf 100

# Define a fix  in this case with index 1 applied to all
# particles in the simulation. This fix is for simulations
# in the anisotropic NPT ensemble. Note that we use the MTK
# correction.
fix 1 all npt temp 2.4 2.4 0.1 iso 5.68 5.68 0.5 mtk yes tchain 5 pchain 5 # Use NPT ensemble
                                                                         # Set temperature and pressure and damping
                                                                         # Numbers of thermostats in chain and in barostat
run 10000          # run for 10000 steps
Per MPI rank memory allocation (min/avg/max) = 3.642 | 3.644 | 3.648 Mbytes
Step Temp E_pair E_mol TotEng Press Volume 
       0          2.4   -3.4381692            0   0.16093083   -2.9520202         4000 
    1000    2.3830242   -2.6566779            0   0.91696484    5.6129099    3894.4832 
    2000    2.4161864   -2.6142058            0    1.0091677    5.6650295    3912.8413 
    3000    2.4188783   -2.6057403            0      1.02167    5.7082612    3903.2683 
    4000    2.4143292   -2.6516388            0   0.96894962    5.8400155    3866.4673 
    5000    2.3833617   -2.6234724            0   0.95067636    6.0720257    3843.6195 
    6000     2.427898   -2.6153182            0    1.0256184    5.8864909    3884.7485 
    7000    2.3906761   -2.6442197            0   0.94089803    5.7352674    3889.2177 
    8000    2.4123746   -2.6164785            0    1.0011788    5.5985741    3932.7707 
    9000     2.386895   -2.6335917            0   0.94585567    5.8054907    3870.7014 
   10000    2.4219392   -2.6469753            0   0.98502517    5.6715442    3887.8944 
Loop time of 2.52182 on 48 procs for 10000 steps with 4000 atoms

Performance: 685219.374 tau/day, 3965.390 timesteps/s
99.6% CPU use with 48 MPI tasks x no OpenMP threads

MPI task timing breakdown:
Section |  min time  |  avg time  |  max time  |%varavg| %total
---------------------------------------------------------------
Pair    | 1.1258     | 1.1862     | 1.2604     |   2.6 | 47.04
Neigh   | 0.20863    | 0.21697    | 0.23381    |   0.8 |  8.60
Comm    | 0.76429    | 0.85081    | 0.93401    |   4.4 | 33.74
Output  | 0.00024518 | 0.00025256 | 0.00041265 |   0.0 |  0.01
Modify  | 0.21145    | 0.25235    | 0.28249    |   4.5 | 10.01
Other   |            | 0.01524    |            |       |  0.60

Nlocal:        83.3333 ave          92 max          70 min
Histogram: 2 0 2 2 4 11 10 11 4 2
Nghost:        1667.96 ave        1697 max        1650 min
Histogram: 5 6 10 7 8 3 4 3 1 1
Neighs:        9827.04 ave       11058 max        7552 min
Histogram: 1 0 1 2 2 9 14 12 4 3

Total # of neighbors = 471698
Ave neighs/atom = 117.92450
Neighbor list builds = 906
Dangerous builds = 185

# Equilibrate just above the melting temperature to avoid step fn in T

fix 1 all npt temp 1.25 1.25 0.1 iso 5.68 5.68 0.5 mtk yes tchain 5 pchain 5
run 2000
Per MPI rank memory allocation (min/avg/max) = 3.643 | 3.645 | 3.649 Mbytes
Step Temp E_pair E_mol TotEng Press Volume 
   10000    2.4219392   -2.6469753            0   0.98502517    5.6715442    3887.8944 
   11000    1.2581124   -3.8828721            0   -1.9961754    5.6791815     3018.564 
   12000    1.2266497   -3.9295338            0   -2.0900193    5.6758187    2992.5812 
Loop time of 0.622213 on 48 procs for 2000 steps with 4000 atoms

Performance: 555436.846 tau/day, 3214.334 timesteps/s
99.6% CPU use with 48 MPI tasks x no OpenMP threads

MPI task timing breakdown:
Section |  min time  |  avg time  |  max time  |%varavg| %total
---------------------------------------------------------------
Pair    | 0.27719    | 0.30123    | 0.33136    |   2.6 | 48.41
Neigh   | 0.039357   | 0.041969   | 0.045174   |   0.7 |  6.75
Comm    | 0.19745    | 0.23026    | 0.25725    |   3.3 | 37.01
Output  | 5.0631e-05 | 5.2547e-05 | 7.4081e-05 |   0.0 |  0.01
Modify  | 0.040295   | 0.043888   | 0.047168   |   0.8 |  7.05
Other   |            | 0.004812   |            |       |  0.77

Nlocal:        83.3333 ave          93 max          73 min
Histogram: 2 1 1 7 10 13 4 6 1 3
Nghost:        1990.29 ave        2013 max        1967 min
Histogram: 5 3 3 7 2 7 11 3 4 3
Neighs:        12758.4 ave       15354 max       10629 min
Histogram: 2 1 9 8 10 9 4 3 1 1

Total # of neighbors = 612403
Ave neighs/atom = 153.10075
Neighbor list builds = 143
Dangerous builds = 11

#############################
# L I N E A R  Q U E N C H  #
#############################

# Define solid atoms. This closely follows ten Wolde  Ruiz-Montero and Frenkel  Faraday Discuss  1996  104  93-110
# Compute components of the per-atom q6 vector
compute q6 all orientorder/atom degrees 1 6 components 6 nnn NULL cutoff 1.3 # compute the Q6 parameter.
                                                                             # Use all neighbours within 1.3 unit cell.

# get number of connections
compute coord_number all coord/atom orientorder q6 0.5

# An atom is solid if it has 8 or more connections (of a possible 14)
variable is_solid atom c_coord_number>=8
group solid dynamic all var is_solid    # Must be dynamic to update
dynamic group solid defined

# do clustering
compute cluster solid cluster/atom 1.3 # Create a cluster where all atoms within are solid and max 1.3 units from another member

# define chunks one chunk per cluster
compute clus_chunks solid chunk/atom c_cluster nchunk every compress yes  # Says which atoms are in which chunk

# count the size of each chunk
compute size_chunks solid property/chunk clus_chunks count


# Find the maximum entry in the vector of chunk sizes
variable max_n equal max(c_size_chunks)


# Thermo style which includes this variable
# thermo_style custom step temp pe vol v_max_n

thermo ${N}  # Print the thermo information every 100 steps
thermo 1000  

# Reset the npt fix at a lower temperature (below freezing)
fix 1  all npt temp  ${temp} ${temp}  0.1  iso  5.68  5.68  0.5  mtk yes tchain  5  pchain  5
fix 1  all npt temp  0.45 ${temp}  0.1  iso  5.68  5.68  0.5  mtk yes tchain  5  pchain  5
fix 1  all npt temp  0.45 0.45  0.1  iso  5.68  5.68  0.5  mtk yes tchain  5  pchain  5

dump dmp2 all dcd ${N} traj.dcd
dump dmp2 all dcd 1000 traj.dcd


compute msd all msd com yes
variable twopoint equal c_msd[4]/6/(step*dt+1.0e-6)
fix 9 all vector 10 c_msd[4]
variable fit equal slope(f_9)/6/(10*dt)
thermo_style custom step temp pe c_msd[4] v_twopoint v_fit v_max_n

fix 1 all npt temp 1.25 ${temp} 0.1 iso 5.68 5.68 0.5 mtk yes tchain 5 pchain 5
fix 1 all npt temp 1.25 0.45 0.1 iso 5.68 5.68 0.5 mtk yes tchain 5 pchain 5
run 5000000 # 5000000  # Run for this many steps
Neighbor list info ...
  update every 1 steps, delay 10 steps, check yes
  max neighbors/atom: 2000, page size: 100000
  master list distance cutoff = 3.8
  ghost atom cutoff = 3.8
  binsize = 1.9, bins = 8 8 8
  4 neighbor lists, perpetual/occasional/extra = 1 3 0
  (1) pair lj/cut, perpetual
      attributes: half, newton on
      pair build: half/bin/atomonly/newton
      stencil: half/bin/3d
      bin: standard
  (2) compute orientorder/atom, occasional
      attributes: full, newton on
      pair build: full/bin/atomonly
      stencil: full/bin/3d
      bin: standard
  (3) compute coord/atom, occasional
      attributes: full, newton on
      pair build: full/bin/atomonly
      stencil: full/bin/3d
      bin: standard
  (4) compute cluster/atom, occasional
      attributes: full, newton on
      pair build: full/bin/atomonly
      stencil: full/bin/3d
      bin: standard
Per MPI rank memory allocation (min/avg/max) = 9.829 | 9.835 | 9.841 Mbytes
Step Temp PotEng c_msd[4] v_twopoint v_fit v_max_n 
   12000    1.2266497   -3.9295338 8.5729459e-31 5.9534344e-33 8.3333333e+20            1 
   13000    1.2728025   -3.9213007   0.87785916 0.0056273021  0.074520091            2 
   14000    1.2636724   -3.9356174    1.7827097  0.010611367  0.075526953            3 
   15000    1.2625036   -3.9565065    2.6223817  0.014568787  0.074131007            1 
   16000    1.2329741   -3.8849762    3.5191698  0.018329009  0.073045285            2 
   17000    1.2459525   -3.8682096    4.4595292  0.021860437  0.073397738            3 
   18000     1.268915   -3.9001842    5.3805321   0.02490987  0.074306668            2 
   19000    1.2496066   -3.9500694     6.326537  0.027747969  0.075018649            1 
   20000    1.2887804   -3.9465445    7.2374003  0.030155834  0.075598938            1 
   21000    1.2609767   -3.9174705    8.2644436   0.03279541  0.076270358            2 
   22000    1.2341144   -3.9009372    9.1226058  0.034555324  0.076736898            1 
   23000    1.2538237   -3.9274181    9.8596828  0.035723488  0.076495244            6 
   24000    1.2754323   -3.8788208    10.815273  0.037553031  0.076097323            2 
   25000    1.2549601   -3.9142612    11.740341  0.039134468  0.075792639            1 
   26000    1.2563639   -3.9081885    12.673523  0.040620264  0.075725424            1 
   27000    1.2192564   -3.9373128    13.626742  0.042057844  0.075707815            1 
   28000    1.2542461   -3.9097519    14.619023  0.043508997  0.075794797            1 
   29000    1.2506452   -3.9293888    15.567167  0.044733239  0.076103866            2 
   30000    1.2407113   -3.8930972    16.612676   0.04614632  0.076394186            2 
   31000    1.2385911   -3.9146154    17.356203   0.04665646  0.076558939            1 
   32000    1.2552697   -3.9133778    18.221827  0.047452674  0.076537377            3 
   33000    1.2515895   -3.9289628    19.092606  0.048213652  0.076480337            3 
   34000    1.2598522   -3.9403556    20.165948  0.049426342  0.076435803            2 
   35000    1.2199897   -3.9630976    21.065337  0.050155564  0.076507289            2 
   36000    1.2507985   -3.8956317    22.052644  0.051047787   0.07656759            3 
   37000    1.2492523   -3.9226151    23.259191  0.052385564  0.076745612            2 
   38000    1.2447818   -3.9392804    24.052315  0.052746305  0.076972434            3 
   39000    1.2264315   -3.9285536    25.083789   0.05359784  0.077114957            2 
   40000    1.2540941   -3.9389072    25.987072  0.054139733   0.07727868            1 
   41000    1.2412034   -3.9303011    27.038858  0.054957028  0.077409662            3 
   42000    1.2413946   -3.9276989    28.103356  0.055760627  0.077586127            3 
   43000    1.2535179    -3.940159    29.108721  0.056412249  0.077780442            1 
   44000    1.2195922   -3.9471074    29.838331  0.056511989  0.077962007            3 
   45000    1.2256353   -3.9286442    30.844402  0.057119263  0.078042735            1 
   46000     1.266598   -3.9400507    31.927023  0.057838808  0.078159003            1 
   47000    1.2306349   -3.8942303     33.06079  0.058618421  0.078304691            1 
   48000    1.2438466   -3.8898156    33.987097  0.059005377  0.078521175            1 
   49000    1.2300484   -3.9488069    35.097612  0.059689816   0.07871634            1 
   50000    1.2653312   -3.9407517    36.123145  0.060205242  0.078893501            1 
   51000    1.2546208   -3.9307365    36.941159  0.060361371  0.079047951            2 
   52000    1.2340536   -3.9213284    37.880743  0.060706318   0.07916309            1 
   53000    1.2594912   -3.9444098    38.917998  0.061191821  0.079296547            3 
   54000      1.26061   -3.9202779    40.404086  0.062351984  0.079478219            2 
   55000    1.2841935   -3.9494811    40.864617  0.061916085  0.079586868            2 
   56000    1.2298363   -3.9216989    41.689728  0.062038285  0.079627092            3 
   57000    1.2399809   -3.9243661    42.571154  0.062238529   0.07968242            1 
   58000    1.2487788   -3.9396105      43.3913  0.062343821  0.079715005            1 
   59000     1.238219   -3.9031354    44.718961  0.063162374  0.079733528            2 
   60000    1.2232117     -3.93382    45.988333  0.063872684  0.079806449            2 
   61000     1.233377   -3.9078929    46.723726  0.063830226  0.079878513            2 
   62000    1.2614907   -3.9395854    47.738127  0.064164148  0.079925967            2 
   63000    1.2730194   -3.9052035    48.611475  0.064300893  0.079976031            2 
   64000    1.2613424   -3.9241956    49.681951   0.06469004  0.080019498            3 
   65000    1.2372391   -3.9294662     49.84198  0.063899973  0.079999545            1 
   66000    1.2414816   -3.9254488    50.929721  0.064305203  0.079938185            2 
   67000    1.2473755   -3.9352421    51.221942  0.063708882   0.07983812            1 
   68000    1.2321403   -3.9320239    52.168412  0.063931877  0.079702796            2 
   69000    1.2163805   -3.9103028    52.826833  0.063800523  0.079573369            1 
   70000    1.2505452   -3.9337318    54.123238  0.064432426  0.079477726            3 
   71000    1.2539483   -3.9180577    55.133498  0.064710678  0.079404314            1 
   72000    1.2179163   -3.9520786     55.85542  0.064647476  0.079320341            2 
   73000     1.267655   -3.9270903    56.831863  0.064876555  0.079211774            1 
   74000    1.2612849   -3.9389256    57.565653  0.064826185   0.07910514            1 
   75000    1.2192444   -3.9619879    58.624165  0.065137961  0.079000906            3 
   76000    1.2471656   -3.9330338    59.644469  0.065399637  0.078916615            1 
   77000    1.2681603   -3.9272734    60.499939  0.065476125   0.07885655            1 
   78000    1.2427142    -3.942543    61.730124  0.065950986  0.078806925            1 
   79000    1.2498472   -3.9433056    62.875822  0.066324706  0.078771501            2 
   80000    1.2459901   -3.9548439    63.559312  0.066207616  0.078750575            4 
   81000    1.2450916   -3.9176229    64.796146  0.066662701  0.078726982            1 
   82000     1.242007   -3.9563951    65.462101  0.066526525  0.078702996            4 
   83000    1.2299432   -3.9292718    66.532775  0.066799975   0.07868366            1 
   84000    1.2522688   -3.8962678    67.646428  0.067109551  0.078663842            1 
   85000    1.2248683   -3.9262262    68.072803  0.066738042  0.078633804            1 
   86000     1.216632   -3.9553274    68.821886  0.066687874  0.078593234            4 
   87000    1.2324041   -3.9244392    70.442752    0.0674739  0.078565946            1 
   88000    1.2290098   -3.9686518    71.239636  0.067461776  0.078543648            4 
   89000    1.2159453   -3.9374942    72.352142  0.067745451  0.078528087            4 
   90000    1.2213465   -3.9052649    73.278692   0.06785064    0.0785302            3 
   91000     1.242236    -3.936678    74.486808  0.068211362  0.078532961            1 
   92000    1.2282549   -3.9019778    75.295647  0.068202578  0.078541785            1 
   93000    1.2246686   -3.9335717     75.94543   0.06805146   0.07852962            4 
   94000    1.2599182   -3.9267374     77.02678  0.068286152  0.078533635            2 
   95000    1.2344944   -3.9572336    77.895666  0.068329531  0.078537317            2 
   96000    1.2312061   -3.9611596    78.602401  0.068231251  0.078517884            2 
   97000    1.2524822   -3.9337913    79.719791  0.068487793   0.07850956            3 
   98000    1.2339907   -3.9350754    80.701612   0.06862382    0.0784983            4 
   99000    1.2234049   -3.9289086    81.161152  0.068317468  0.078480674            1 
  100000    1.2243071   -3.9414163     81.80766   0.06817305  0.078442495            1 
  101000    1.2204562   -3.9591209    82.698278  0.068232902  0.078393266            4 
  102000    1.2331452   -3.9501644    83.377342  0.068118743  0.078344902            1 
  103000    1.2219263   -3.9599112    84.494444    0.0683612  0.078286827            2 
  104000    1.2330619    -3.911696    85.473864  0.068488673  0.078233976            3 
  105000    1.2328778   -3.9141939    86.044091  0.068288961  0.078181628            1 
  106000    1.2415311    -3.991158    86.919536  0.068332969  0.078123046            2 
  107000    1.2284254   -3.9389441    88.232965  0.068717262  0.078071533            1 
  108000    1.2505474   -3.9438531    89.051208  0.068712352  0.078034273            2 
  109000    1.2486253   -3.9338554    90.054305  0.068848857  0.078003412            1 
  110000    1.2256978   -3.9644671    91.256449  0.069133673    0.0779831            2 
  111000    1.2230953   -3.9165765    92.690914  0.069587773   0.07797397            1 
  112000    1.2416252   -3.9616826    92.961274  0.069167614  0.077966593            8 
  113000    1.2775373   -3.9488405    94.205711  0.069473238  0.077959557            2 
  114000    1.2236851   -3.9374932    95.274568  0.069645152  0.077963303            3 
  115000    1.2155848    -3.956645    96.200682  0.069710639  0.077963194            2 
  116000    1.2329381   -3.9522761    97.424005  0.069988509  0.077966384            4 
  117000    1.2177281   -3.9362242    98.673818  0.070280497  0.077983203            2 
  118000    1.2195306   -3.9764083    99.049201      0.06995  0.077989209            2 
  119000    1.2254789   -3.9350179    100.36171  0.070281312  0.077996043            4 
  120000    1.2249691   -3.9580284    101.39445  0.070412816  0.077996015            1 
  121000     1.229164   -3.9282835    102.16069  0.070358599  0.077998246            1 
  122000    1.2009453   -3.9534348    102.28383  0.069866003  0.077996964            2 
  123000    1.2198252   -3.9621723    103.10142  0.069851908  0.077985764            3 
  124000    1.2360051   -3.9066552    104.47736  0.070213282  0.077973049            4 
  125000    1.2532929   -3.9555924    105.07054   0.07004703  0.077954279            1 
  126000    1.2272188   -3.9737471    105.43325  0.069730987   0.07792886            1 
  127000    1.2233131   -3.9493037    106.90076  0.070144855  0.077903908            4 
  128000    1.2316645   -3.9183631    107.70218  0.070118603  0.077874406            3 
  129000     1.250321   -3.9401441    108.14938  0.069863943  0.077837191            2 
  130000    1.2382277   -3.9320787    109.44169  0.070154926  0.077797514            2 
  131000    1.2281204   -3.9346765     109.1766  0.069450764  0.077763161            2 
  132000    1.2565369   -3.9676626    110.76415  0.069926863  0.077728613            3 
  133000    1.2559931   -3.9406378    112.00405  0.070177974  0.077697177            2 
  134000    1.2378909   -3.9256329    112.54509  0.069990726  0.077657884            1 
  135000    1.2142001   -3.9294083    114.08149  0.070420672  0.077618916            2 
  136000      1.21826     -3.97517    114.52999  0.070177689  0.077593286            3 
  137000    1.2452129   -3.9378267    115.27545   0.07011889  0.077557933            3 
  138000    1.2500334   -3.9356425    117.09637   0.07071037  0.077529392            2 
  139000    1.2405626   -3.9635721    117.87586   0.07066898  0.077508467            3 
  140000     1.220886    -3.949528     118.8444  0.070740717  0.077496699            2 
  141000    1.2219025   -3.9472531    118.95554  0.070304692  0.077477801            2 
  142000    1.2312424   -3.9678826    119.82581  0.070320309  0.077452333            2 
  143000    1.2431562    -3.950906    120.83001  0.070413758  0.077423977            1 
  144000    1.2419898   -3.9396846      121.929  0.070560765  0.077400566            3 
  145000    1.2259438   -3.9000372     123.5094  0.070982411  0.077380939            3 
  146000    1.2659161   -3.9714851    123.46156  0.070468924  0.077358346            3 
  147000    1.2117728   -3.9664157    124.53075  0.070595665  0.077327136            3 
  148000    1.1890923   -3.9169166    125.27614  0.070538369  0.077304586            1 
  149000    1.1953341   -3.9170142    127.16769  0.071122871  0.077285139            2 
  150000    1.2296343   -3.9298751    128.42544  0.071347464  0.077271646            3 
  151000    1.2326285   -3.9594318    128.11601  0.070704202  0.077255073            3 
  152000    1.1974278   -3.9513342    129.87565  0.071203758  0.077240615            2 
  153000    1.2068159   -3.9459663    131.17306  0.071445022  0.077233397            1 
  154000    1.1795858   -3.9591016    131.79074  0.071315337  0.077237047            3 
  155000    1.2056625   -3.9524794    133.24771  0.071638555    0.0772367            2 
  156000    1.2256355   -3.9279125    133.97201  0.071566244  0.077229855            7 
  157000    1.2256321   -3.9437474    134.66613  0.071478839  0.077231671            1 
  158000    1.2302878   -3.9519768    135.31616  0.071369281  0.077228922       -1e+20 
  159000    1.2264036   -3.9418601    136.89098  0.071745794  0.077224583            2 
  160000    1.2204364   -3.9599097    137.39597  0.071560399  0.077217555            1 
  161000    1.2308404   -3.9547496    138.25388   0.07155998  0.077218303            1 
  162000    1.2229902   -3.9390082    139.05459  0.071530139  0.077210521            3 
  163000    1.2502401   -3.9740517    139.54461  0.071341826   0.07720338            1 
  164000    1.2192273   -3.9779765    141.26379  0.071780379  0.077201801            2 
  165000    1.2214212   -3.9403217    142.08228  0.071758728   0.07720083            2 
  166000    1.2547709   -3.9509566    143.36029  0.071968015  0.077203364            2 
  167000    1.2271062   -3.9378939    144.23456  0.071973336  0.077205385            1 
  168000    1.2524526    -3.930462    145.14963  0.071998825  0.077210406            4 
  169000    1.2449087   -3.9439494    145.93944   0.07196225  0.077209813            1 
  170000    1.2268948   -3.9365697    147.63274  0.072368991  0.077216924            1 
  171000    1.2342326   -3.9505502    147.65438  0.071956325  0.077225995            2 
  172000    1.2270934   -3.9602237    149.16487  0.072269802  0.077234128            2 
  173000    1.2334508   -3.9576012    149.73136  0.072124932  0.077240709            1 
  174000    1.2031808   -3.9347578    151.28699  0.072455455  0.077252015            1 
  175000    1.2122413   -3.9550661    152.07087  0.072414701  0.077260303            4 
  176000    1.2177218   -3.9262701    152.58388  0.072246154  0.077265719            1 
  177000    1.1979748    -3.942315    153.32328    0.0721861  0.077270196            1 
  178000     1.244343   -3.9323226    154.08802  0.072138587  0.077266492            3 
  179000    1.2245984   -3.9222735    155.39035  0.072341876  0.077263945            3 
  180000     1.219491   -3.9425204    157.39898  0.072869899  0.077269675            2 
  181000    1.2023486   -3.9488102    156.70907  0.072149662  0.077273693            3 
  182000    1.2214039    -3.956297    158.15294  0.072414348  0.077272719            3 
  183000    1.1959765   -3.9652861    158.93678  0.072375581  0.077273749            2 
  184000    1.2033668   -3.9293887    160.07936  0.072499711  0.077273979            1 
  185000    1.1941216     -3.98606    160.84155  0.072451148  0.077275091            3 
  186000    1.2366417   -3.9532493    161.74715  0.072467361   0.07728011            2 
  187000    1.2306842   -3.9881366     162.1453  0.072257265  0.077279993            1 
  188000    1.2288215   -3.9420527    164.19451  0.072781255  0.077284824            4 
  189000    1.2297688   -3.9425385     163.9461   0.07228664  0.077288766            1 
  190000     1.245413   -3.9839513    164.63238  0.072207184  0.077285064            2 
  191000    1.1841757   -3.9682372    165.36831   0.07215022  0.077278785            2 
  192000    1.2003223   -3.9263267    166.48144  0.072257569   0.07727051            1 
  193000     1.223133   -3.9822384    166.83442  0.072035588  0.077254729            3 
  194000    1.1992694   -3.9509583    168.50942  0.072383771  0.077237646            2 
  195000    1.2211453   -3.9448863    169.08726  0.072259513  0.077228743            1 
  196000    1.2186344    -3.960458    170.25093  0.072385597  0.077222198            1 
  197000    1.1987807   -3.9624376    170.93077  0.072305739  0.077210597            2 
  198000     1.236846   -3.9720582    172.27825  0.072507679  0.077200817            2 
  199000    1.2027793   -3.9602897    172.88333  0.072396703  0.077190175            1 
  200000    1.2397995   -3.9931726     173.1429  0.072142876  0.077171136            1 
  201000    1.2107926    -3.949014    174.36482  0.072290555  0.077154139            1 
  202000    1.2218419   -3.9678757    173.90675  0.071743708  0.077133098            3 
  203000      1.22655   -3.9789546    175.30508  0.071964319  0.077115854            2 
  204000    1.1912797    -3.969842    177.15493  0.072367209  0.077095932            4 
  205000    1.1982281   -3.9535199    176.79277  0.071866981  0.077077517            4 
  206000    1.2351881   -3.9852045    178.06372  0.072032249  0.077056464            1 
  207000    1.2191865   -3.9415655    179.69826  0.072342294  0.077031994            1 
  208000    1.2095652   -3.9258509    181.10301  0.072557295  0.077014001            2 
  209000    1.2403624   -3.9570383    182.31614  0.072693837   0.07699901            3 
  210000    1.2354727   -3.9636769     182.6639  0.072485673   0.07698787            3 
  211000    1.1861637   -3.9570902    183.32298  0.072402442  0.076979046            3 
  212000    1.2059367   -3.9565453    184.93459  0.072694413  0.076967934            4 
  213000    1.2193383   -3.9273049    186.52301  0.072974572  0.076961092            2 
  214000    1.2315072   -3.9605764    186.27563  0.072537237  0.076957354            3 
  215000     1.227798   -3.9437246    187.70121  0.072752407   0.07695325            2 
  216000    1.2216517   -3.9685468    189.42274  0.073079761  0.076947019            2 
  217000    1.2118041   -3.9382693    189.36162  0.072719518  0.076942982            1 
  218000    1.2141047   -3.9536141    190.86329  0.072959973   0.07693917            1 
  219000    1.2195586   -3.9818773    190.66795  0.072552492  0.076933362            2 
  220000    1.2250759   -3.9412058     191.6379  0.072590113  0.076920973            1 
  221000    1.2197849   -3.9485179    191.69811  0.072284354  0.076907462            1 
  222000     1.208085   -3.9092889    194.00437  0.072824462  0.076895431            1 
  223000    1.2105737   -3.9802901    194.21503  0.072576616   0.07688319            2 
  224000    1.2244332   -3.9676194    195.94863  0.072897554  0.076873994            3 
  225000    1.2071066   -3.9459679    196.47314   0.07276783  0.076868476            4 
  226000    1.2227049   -3.9709417    196.59487  0.072490733  0.076860359            2 
  227000    1.2276893    -4.002636    197.47353  0.072493954  0.076848332            1 
  228000    1.2321849   -3.9688668    199.25443   0.07282691   0.07684025            2 
  229000    1.1862492   -3.9659203    200.32757  0.072899408  0.076834476            6 
  230000    1.1996316   -3.9680848    201.14922  0.072880153   0.07682417            1 
  231000    1.2263734    -3.933172    202.23646  0.072956875  0.076819905            1 
  232000    1.2318173   -3.9684707    203.24345  0.073004113  0.076813657            3 
  233000    1.1865314   -3.9511374    203.86916  0.072914578  0.076813851            2 
  234000    1.2416112   -3.9712916     204.7265  0.072908298  0.076812716            1 
  235000    1.2099937   -3.9663501    206.02733  0.073059335  0.076809342            3 
  236000    1.1953075    -3.997729    206.66833  0.072976105  0.076809419            3 
  237000    1.2554326   -3.9653401    208.72347  0.073390814  0.076809818            2 
  238000    1.1934474   -3.9410175    209.60097  0.073389695  0.076809165            2 
  239000    1.2062514   -3.9657112     210.5291  0.073406242   0.07681091            1 
  240000    1.2207211   -3.9944969    211.23509  0.073345516  0.076811824            2 
  241000     1.212673   -3.9858364    212.29884  0.073409003  0.076810932            2 
  242000    1.2205206   -3.9687563    212.59797  0.073208668  0.076810439            2 
  243000    1.1946301   -3.9569513    213.65185  0.073268809  0.076808151            2 
  244000    1.2143613   -3.9756391    214.97882   0.07342173  0.076804704            2 
  245000    1.2120122   -3.9795551    215.17134  0.073187529  0.076802275            3 
  246000    1.1928551   -3.9456901    216.83595  0.073453913  0.076799567            1 
  247000    1.1991386   -3.9528569    216.57683  0.073069107  0.076798132            3 
  248000     1.216269    -3.966415    218.58465  0.073449144  0.076803047            2 
  249000    1.2093137   -3.9903584     219.0741  0.073317973  0.076802676            1 
  250000    1.1958963   -4.0050567    220.12507  0.073375023  0.076800511            2 
  251000    1.1969871   -3.9634758    221.17767  0.073432163   0.07680178            1 
  252000    1.2032194   -4.0021515    222.07195  0.073436491  0.076802961            1 
  253000    1.2178105   -3.9505795    223.77092  0.073705836  0.076803914            2 
  254000    1.2302254   -3.9921368    222.93483  0.073141348  0.076801524            2 
  255000    1.2394709   -3.9270398    224.83301  0.073474839  0.076798767            1 
  256000    1.2225332   -3.9853363    224.22384  0.072989531  0.076795286            2 
  257000    1.1992819   -3.9369473    225.78955  0.073213213   0.07678871            1 
  258000    1.2287682    -3.981396    226.13084  0.073039678  0.076778968            1 
  259000     1.214766   -3.9141645    226.75131  0.072957306  0.076765016            2 
  260000     1.223693   -3.9867445    228.36023  0.073192381  0.076752595            2 
  261000    1.1982502   -3.9912555    228.42138  0.072931474  0.076745518            2 
  262000    1.1968464   -4.0030247     228.3565  0.072632474   0.07673157            1 
  263000    1.2241974   -3.9678525    229.38455  0.072682049  0.076719295            3 
  264000    1.2068938   -3.9971034    230.09377   0.07263061  0.076704115            6 
  265000     1.184839   -3.9682625     231.9971  0.072955063  0.076684723            1 
  266000    1.2030204   -3.9609591    232.39409  0.072805166  0.076670386            3 
  267000    1.1928545   -3.9736531    233.26376  0.072803921  0.076649197            1 
  268000    1.2201616   -3.9950591    233.33306  0.072553813  0.076631632            2 
  269000    1.2113347   -3.9768003    234.49709    0.0726447  0.076612692            5 
  270000    1.2075014   -3.9835957    234.73766  0.072449895  0.076595028            1 
  271000    1.2156265   -4.0187464    236.21958  0.072638246  0.076577903            3 
  272000    1.2267479   -4.0068126    236.49286  0.072454919  0.076560042            3 
  273000    1.2065902   -3.9652962     237.8937  0.072617125  0.076543293            2 
  274000    1.2156477    -3.958371    238.72702   0.07260554  0.076526105            1 
  275000    1.2396109   -3.9835496    239.45205  0.072561227  0.076509727            2 
  276000    1.2134003   -3.9499135    242.27852  0.073151728  0.076493055            3 
  277000    1.2294402   -3.9821905    241.47586  0.072646166  0.076473529            3 
  278000    1.2063685   -3.9515656    242.71446  0.072756132  0.076452826            1 
  279000    1.1771427   -3.9852761    241.26907  0.072063641  0.076428914            1 
  280000    1.2135521   -3.9722178    243.45282  0.072456197  0.076402721            2 
  281000    1.2172957    -3.969798    244.36194  0.072467955  0.076378496            1 
  282000    1.2113166   -3.9517309    245.80868    0.0726385  0.076356434            2 
  283000    1.1914571   -3.9609426    246.51071  0.072588549  0.076335122            7 
  284000    1.2220944   -3.9778972    247.17518  0.072527928  0.076315787            2 
  285000    1.2211464   -3.9854795    246.63523  0.072115565  0.076294003            2 
  286000    1.2265865   -3.9662715    249.09332  0.072579638  0.076272288            1 
  287000    1.2299963   -3.9957057    249.77277  0.072524033   0.07625084            4 
  288000    1.1873544   -3.9965381    251.18374  0.072680481    0.0762302            1 
  289000    1.2242784   -3.9420483     252.0788  0.072687082  0.076208968            1 
  290000    1.2229841   -3.9468722    253.33274  0.072796765  0.076186341            1 
  291000    1.2050861   -4.0047933    252.01964  0.072170573  0.076165095            1 
  292000    1.2067472    -3.963582    253.23067  0.072269027  0.076139943            2 
  293000    1.2062806   -3.9858441    254.87314  0.072489515  0.076115574            1 
  294000    1.2186289   -3.9931695    254.58022  0.072159927  0.076090039            3 
  295000    1.2230187   -3.9742867    255.35274  0.072133543  0.076064154            2 
  296000    1.2283004   -3.9741108    256.65732  0.072257128  0.076038934            2 
  297000    1.1882766   -3.9997103    256.57151   0.07198976  0.076012612            2 
  298000    1.1807411   -4.0169658    258.07309  0.072168091  0.075988556            3 
  299000    1.2098043   -3.9783616     258.5288  0.072053735  0.075963773            2 
  300000    1.2029297   -3.9792401    260.20454   0.07227904  0.075940239            1 
  301000    1.1652823   -3.9503665    263.48694  0.072947658  0.075919397            2 
  302000    1.2296679   -3.9673327    262.60191  0.072461896  0.075895867            1 
  303000     1.205699   -4.0398718    262.67693  0.072243381  0.075874097            3 
  304000    1.2021949   -4.0103607    263.74631  0.072298879  0.075853362            2 
  305000    1.2049864   -3.9672918    264.38382  0.072236017  0.075834466            1 
  306000     1.224669   -4.0282017    265.81999  0.072391065  0.075816044            2 
  307000    1.1948721   -3.9805809    266.63202  0.072375683  0.075798056            2 
  308000    1.2105652   -4.0208737    267.62822  0.072410233   0.07577944            2 
  309000    1.1842324   -4.0007677    268.56388  0.072428231  0.075760914            2 
  310000    1.1845268     -3.96019    270.07706  0.072601359  0.075744361            1 
  311000    1.1742671   -4.0191095    270.68475  0.072530746  0.075727502            3 
  312000     1.197309   -4.0084593    271.24248  0.072447243   0.07571252            6 
  313000    1.1801801   -3.9965938    272.66285  0.072593943  0.075698207            4 
  314000    1.2010698   -3.9960654    273.73709  0.072647847  0.075686827            3 
  315000    1.1868502   -3.9728517    273.98625  0.072483136  0.075673688            2 
  316000    1.1855555   -4.0126379     275.2086  0.072576108  0.075659506            2 
  317000    1.2129341   -3.9679979    275.32064  0.072376614  0.075644966            1 
  318000    1.2202422   -4.0154511    276.45459  0.072446171  0.075629256            2 
  319000    1.2194465   -3.9545497    277.76224  0.072560668  0.075611164            2 
  320000    1.2057081   -3.9972512    277.43611  0.072248986  0.075593088            1 
  321000    1.1841233   -3.9764552    279.11613  0.072460056   0.07557633            3 
  322000    1.2180101   -4.0000605    278.83216  0.072161533  0.075558058            2 
  323000    1.1946998   -3.9702423    280.25302  0.072304701  0.075537791            2 
  324000    1.2141359   -3.9777428    281.41582  0.072380613  0.075518876            2 
  325000    1.2207825   -4.0014642    281.79792  0.072255876  0.075499326            2 
  326000    1.2071052   -3.9710722    282.82291  0.072296245   0.07547541            1 
  327000    1.2208987   -3.9968011     283.8523  0.072337488  0.075453467            2 
  328000    1.1917735     -3.95705    285.07254  0.072426967  0.075433118            3 
  329000    1.1931111   -4.0041173    284.22865  0.071993072  0.075411708            2 
  330000    1.1961305   -3.9937977     285.6458  0.072132778  0.075392579            2 
  331000    1.1873967   -3.9707187    288.09734  0.072532059  0.075375189            2 
  332000    1.1895002   -4.0308591     287.4309  0.072146311  0.075356332            2 
  333000    1.2140917   -3.9863823    289.52391   0.07245343  0.075338895            1 
  334000    1.2194177   -4.0256486    288.43196  0.071964061   0.07532162            3 
  335000    1.1932832   -4.0291283    291.21012  0.072440329  0.075305843            1 
  336000    1.2097155   -3.9764388    292.87633  0.072637979  0.075291952            2 
  337000    1.1864653   -4.0095632    291.21821  0.072012415  0.075275883            1 
  338000    1.1778053   -4.0056404    293.01902  0.072243348  0.075259153            2 
  339000    1.1911665   -4.0166793    293.54763  0.072160184   0.07523983            5 
  340000    1.2103079   -3.9847714    293.82918  0.072016956  0.075219736            3 
  341000    1.1974037   -3.9686504    295.14369  0.072127002  0.075201746            2 
  342000    1.2106168   -3.9833878    297.51514  0.072493942   0.07518265            2 
  343000    1.2188501   -3.9875809    296.99288  0.072155705   0.07516346            2 
  344000    1.1897251   -3.9812766     298.4727  0.072304432  0.075145193            2 
  345000    1.1895785   -3.9843623    299.18104  0.072265952  0.075125783            2 
  346000    1.2003451   -3.9859882    299.74263  0.072192349  0.075107859            2 
  347000     1.192454   -4.0041861    300.89213  0.072260358  0.075091725            3 
  348000    1.1888697   -3.9848531    300.92324  0.072060163  0.075075368            1 
  349000    1.1815798   -4.0001643    302.98797  0.072346698  0.075058056            2 
  350000    1.2007165   -4.0055049    303.27864  0.072209201  0.075040761            2 
  351000    1.1973536   -4.0046025    303.72444  0.072109316  0.075023958            3 
  352000    1.1832041   -4.0008516    304.27946  0.072035857  0.075004453            3 
  353000    1.2041125   -3.9812387    305.74398  0.072177521  0.074985284            1 
  354000    1.2157696   -3.9438131    307.53861  0.072396095  0.074966561            1 
  355000    1.1989448   -3.9609473    307.72434  0.072235761  0.074948113            4 
  356000    1.1972181   -4.0177541    308.01534  0.072100969  0.074929427            2 
  357000    1.2096766   -3.9818785     307.7805  0.071844187   0.07491013            2 
  358000    1.1945722   -3.9878286    308.33702   0.07177305  0.074889662            3 
  359000    1.1894392   -3.9808832    311.05189  0.072203318  0.074869608            2 
  360000    1.1717163   -4.0029157    311.63982  0.072138848  0.074849583            2 
  361000    1.1903107   -3.9975829    310.85622   0.07175813  0.074827601            2 
  362000    1.2282409    -3.994196    313.08215  0.072072319  0.074806633            2 
  363000     1.213518   -3.9869957     314.0192  0.072088889  0.074786996            4 
  364000    1.2078777   -3.9924734    313.95205   0.07187547  0.074764595            3 
  365000    1.1909428    -3.967809    314.74455  0.071859486  0.074744343            2 
  366000    1.2278542   -4.0094628    314.39884  0.071584435  0.074723217            1 
  367000     1.209547    -4.003957    316.59829  0.071888802  0.074700796            3 
  368000    1.1995711   -3.9954219    317.96368  0.072002645  0.074681219            1 
  369000    1.1726828   -3.9523627      320.253  0.072324526  0.074660965            2 
  370000    1.1799281   -4.0200646    318.51637  0.071737921  0.074642343            1 
  371000    1.1606359   -4.0163773     318.8784  0.071625876  0.074623779            2 
  372000    1.1922057   -4.0095822    320.43491  0.071782014  0.074606453            3 
  373000    1.1773702   -4.0060061    322.74199  0.072105002   0.07458705            1 
  374000    1.1945251   -4.0392157     321.9159  0.071728142  0.074567303            3 
  375000    1.2043695   -3.9697207    323.87055  0.071971234  0.074546493            1 
  376000    1.1846626   -3.9918654    323.49498  0.071696582  0.074525775            2 
  377000    1.1606364   -3.9678087    324.96009  0.071830259  0.074501831            1 
  378000     1.199052   -4.0024797    325.37498  0.071731697  0.074479436            3 
  379000    1.2128979   -4.0075718    326.18996  0.071721626   0.07445951            2 
  380000    1.2004878   -4.0173311    326.71109  0.071647168  0.074438761            2 
  381000    1.2056844   -3.9671947    329.92689  0.072162486  0.074420127            3 
  382000       1.1983    -3.986406     330.3453  0.072064855   0.07440145            1 
  383000    1.2013538   -3.9782036    329.75011  0.071747194  0.074382646            2 
  384000    1.1995901   -4.0029711    329.17505  0.071435557  0.074360594            1 
  385000    1.1776571   -4.0125444    329.95814   0.07141951  0.074337666            2 
  386000    1.2143935   -3.9846871    331.96105  0.071666893  0.074315121            1 
  387000    1.1894324   -3.9796176    333.27279  0.071764167  0.074294118            2 
  388000    1.1959354   -3.9778207    333.47987  0.071623684  0.074275351            1 
  389000    1.1806067    -4.005392     334.0406  0.071559682  0.074257092            3 
  390000    1.1814599   -4.0082147    335.05557  0.071593071   0.07423791            2 
  391000    1.1991134    -4.026856    334.50162  0.071291905   0.07421714            3 
  392000    1.2093774   -4.0338608     335.8204  0.071390392  0.074195251            1 
  393000    1.1755102   -4.0070506    338.38114  0.071751726  0.074174927            1 
  394000    1.1499776    -4.020675    338.65428  0.071627386  0.074154093            3 
  395000    1.1870646   -3.9904945    338.92526  0.071503219  0.074133548            1 
  396000    1.1890126   -3.9912897    339.01526  0.071341595  0.074114838            2 
  397000    1.1565581    -4.033584    340.31796  0.071435339  0.074094101            2 
  398000    1.1919433   -4.0398034     339.8924   0.07116675  0.074073889            1 
  399000    1.1563338   -4.0360812    340.98539  0.071216664  0.074053695            4 
  400000    1.1999847   -3.9959849    344.09217  0.071685869  0.074033956            1 
  401000    1.1812258   -4.0455999    343.85542    0.0714579  0.074013897            2 
  402000    1.1992801    -4.010916    344.05946  0.071322441  0.073992585            4 
  403000    1.2059556   -3.9756354    346.96094  0.071745438  0.073972415            4 
  404000    1.1869458   -4.0159931     345.1474  0.071193771  0.073952337            2 
  405000    1.1770452   -3.9955015    347.55211   0.07151278  0.073933441            2 
  406000    1.2102223   -3.9770486     347.8705   0.07140199  0.073913923            1 
  407000       1.1767   -3.9739501    348.46392   0.07134806  0.073896246            1 
  408000    1.2056973   -4.0049413    348.65445  0.071212102  0.073875894            1 
  409000    1.1911922   -3.9950748    349.81334  0.071274112  0.073858966            2 
  410000     1.182762   -4.0242401      351.134    0.0713687  0.073841213            2 
  411000    1.2128546   -4.0197879    351.83673  0.071337536  0.073822797            1 
  412000    1.1877846   -3.9918028    352.10488  0.071218624  0.073804317            4 
  413000    1.1821303   -4.0284812    353.28511  0.071284323  0.073784816            2 
  414000    1.1793995   -4.0111568    353.87867  0.071231615  0.073763709            3 
  415000    1.2043148   -4.0539254    353.22296  0.070928305  0.073743099            5 
  416000    1.2090769   -3.9907257    356.74521  0.071463384  0.073722486            1 
  417000    1.1818047   -4.0099351    357.12574  0.071368054  0.073701524            2 
  418000    1.1856607   -3.9928993    359.01676  0.071574313  0.073682651            4 
  419000    1.1471936   -3.9749728    359.16098  0.071432176  0.073663455            2 
  420000    1.1539858   -4.0003808    359.80129  0.071389144  0.073644996            2 
  421000    1.2048099   -3.9936717    359.99521   0.07125796  0.073625746            2 
  422000    1.2208238    -3.980104    360.81379  0.071250748  0.073606757            2 
  423000    1.2001622   -4.0131496    361.27414  0.071172998  0.073587199            2 
  424000    1.1730211   -4.0329569    361.29193  0.071008634  0.073566284            5 
  425000    1.1925717   -4.0044284    364.32574   0.07143642    0.0735446            2 
  426000    1.1938076   -3.9873555    363.74002  0.071154151  0.073526101            2 
  427000     1.193116   -4.0090578    363.88403  0.071015619  0.073506302            1 
  428000    1.1896253   -3.9815793    365.70879  0.071204982  0.073486199            2 
  429000    1.1667131   -3.9841955    364.27361   0.07076022  0.073465032            2 
  430000    1.1754632   -4.0270304     365.8733  0.070905679  0.073444308            3 
  431000    1.1813537   -3.9918449    366.44692  0.070852073  0.073422343            1 
  432000    1.1842037   -3.9901062    366.03353   0.07060832  0.073401162            4 
  433000    1.1920504   -4.0214871    368.24168  0.070870223  0.073379481            1 
  434000    1.1680703   -4.0215524    370.52157  0.071144695  0.073360509            4 
  435000    1.1792735   -3.9893555    372.24778  0.071311835  0.073339517            5 
  436000    1.1843206   -4.0036382    370.67687  0.070848025  0.073318858            1 
  437000    1.1825203   -4.0211836    371.42709  0.070828965  0.073299057            3 
  438000    1.1659515    -4.021592    373.85919  0.071129982  0.073279744            2 
  439000    1.1981467   -3.9977056    372.80451  0.070767751  0.073260232            2 
  440000    1.1655126   -4.0076505     375.1396  0.071049166  0.073240672            2 
  441000    1.1886014   -4.0163219    374.93703  0.070849779  0.073221875            2 
  442000    1.1661082   -4.0372603    375.49733  0.070795123  0.073201427            1 
  443000    1.2040848   -3.9667452    379.77176  0.071439383  0.073183819            2 
  444000    1.1664719   -3.9958795    377.94185  0.070935031   0.07316807            4 
  445000    1.1812358   -4.0213212    379.03873  0.070981035  0.073149218            2 
  446000    1.1954369   -4.0327614    379.15661  0.070843911  0.073131012            2 
  447000    1.1761662    -4.008435    382.14733  0.071242977  0.073115285            1 
  448000    1.1921108   -3.9865852    383.33761  0.071305358  0.073100891            2 
  449000    1.1682146   -3.9928257    383.55469  0.071186839  0.073088011            2 
  450000    1.1917709   -4.0104555    385.19144  0.071331748  0.073076531            4 
  451000    1.2087579    -4.026104    385.80085  0.071286189   0.07306459            2 
  452000    1.1905093   -4.0261584    387.64552  0.071468569  0.073053076            2 
  453000    1.2080062   -4.0553721    384.94314  0.070813675  0.073039713            2 
  454000    1.1794518   -4.0140894    389.09445  0.071419687  0.073027035            5 
  455000    1.1901076   -4.0277936     388.5165  0.071156868  0.073015246            3 
  456000    1.1989003   -4.0198465    390.57685  0.071377347  0.073004303            1 
  457000    1.1830893   -4.0128026    392.87139  0.071639568  0.072994447            3 
  458000    1.1899609   -4.0322695    391.04128  0.071150159  0.072983262            4 
  459000    1.1731044   -3.9986244    394.18298  0.071565537  0.072972823            1 
  460000    1.1976457   -4.0387813    393.26476  0.071243616  0.072962569            2 
  461000    1.1941802   -4.0415739    392.96041  0.071034057   0.07295028            3 
  462000    1.1719804   -4.0080066    394.09042  0.071084131  0.072938583            2 
  463000    1.1942094   -4.0344702    395.35175  0.071157623  0.072925592            3 
  464000    1.1857114   -4.0388874    395.83285  0.071090669  0.072910198            1 
  465000    1.1873134   -4.0198439    396.78753  0.071108877  0.072895851            3 
  466000     1.160441   -4.0251297    397.71279  0.071121744  0.072883585            2 
  467000    1.2055963   -4.0105297    397.83768  0.070991735  0.072870413            7 
  468000    1.1710206   -4.0014457    400.10853  0.071244396  0.072858018            1 
  469000    1.2082214   -4.0362866    399.33105  0.070954344  0.072845896            2 
  470000    1.2052638   -4.0123949    401.10241  0.071117449  0.072833971            2 
  471000    1.1516984   -4.0477913    402.51112  0.071215697  0.072821827            1 
  472000     1.169776   -4.0017524    402.50188  0.071063185  0.072809733            2 
  473000    1.1604757   -4.0275873    403.01726  0.071003745  0.072798734            2 
  474000    1.1324587   -3.9982478    404.27082  0.071074335  0.072786276            4 
  475000    1.1766053   -4.0279572    403.67071  0.070819423   0.07277178            1 
  476000     1.168365   -4.0407658    404.86275  0.070879332  0.072757211            4 
  477000    1.1662559   -4.0166172    405.39363  0.070823486   0.07274331            2 
  478000    1.1756232   -4.0370522    406.52062  0.070871795   0.07272895            3 
  479000     1.196576   -4.0411127    407.39737   0.07087637  0.072713949            1 
  480000    1.1848165   -3.9854714    406.96313   0.07065332    0.0726993            5 
  481000    1.1791673   -3.9964076    409.61089  0.070965157  0.072684511            2 
  482000    1.1769693    -4.055096    409.23253  0.070752512  0.072668614            1 
  483000    1.1716911   -4.0287718    411.10554  0.070929182  0.072653187            3 
  484000    1.1582963   -4.0401967    411.20581  0.070799899  0.072637494            3 
  485000     1.169787   -4.0511071    410.95199  0.070610307  0.072621536            2 
  486000    1.1758901   -3.9897257    414.13833  0.071011373  0.072606923            1 
  487000    1.1714892    -4.004211    415.13422  0.071035971  0.072593225            2 
  488000     1.182753   -4.0042043    416.05662   0.07104792  0.072581492            2 
  489000    1.1784578   -4.0387397    416.34903  0.070952459  0.072569558            2 
  490000    1.1786425   -4.0098809    417.68327  0.071034569  0.072557254            3 
  491000    1.1985655   -4.0300358    417.72674  0.070897274   0.07254459            3 
  492000    1.1765739   -3.9986296      418.581  0.070897866  0.072531678            2 
  493000     1.199866   -4.0285544    420.06459  0.071004832  0.072518881            2 
  494000    1.2096481   -4.0672293    420.02601   0.07085459  0.072505902            2 
  495000    1.1661996    -4.029809    421.26351  0.070919783  0.072493436            2 
  496000    1.1811574   -4.0178879    421.54279  0.070823721  0.072481886            3 
  497000    1.2033473     -4.03588    421.97063  0.070752955  0.072470567            4 
  498000    1.1979292   -4.0336814     423.9168  0.070936547  0.072458083            2 
  499000    1.1830981   -4.0019903    425.55179  0.071067432  0.072447654            2 
  500000    1.1836346   -4.0343941    426.55597  0.071092661  0.072438225            2 
  501000     1.191063   -4.0193337    429.34938  0.071415399  0.072429507            2 
  502000    1.1778898   -4.0044067    429.63898  0.071321212   0.07242107            1 
  503000    1.1698332   -4.0419264    430.06028  0.071249219  0.072413445            2 
  504000     1.142817   -4.0646387    430.63749  0.071203289  0.072405623            3 
  505000    1.1959246   -4.0333343    431.31031  0.071173318  0.072397833            1 
  506000    1.1590298   -4.0085705    431.22546  0.071018685   0.07239109            2 
  507000    1.1875458   -4.0285626    433.05321  0.071179029  0.072384095            3 
  508000    1.1884231   -4.0351669    435.51721  0.071443112  0.072377153            2 
  509000    1.1492652    -4.036033    434.73293   0.07117435  0.072372673            3 
  510000      1.16388   -4.0688396    436.75237  0.071364766  0.072367547            1 
  511000    1.1779975   -4.0314751    437.13632  0.071287724  0.072362857            2 
  512000    1.1721299   -4.0383685    439.81978  0.071585251  0.072356294            3 
  513000    1.1529509   -4.0196633    440.02143  0.071478464  0.072351077            1 
  514000    1.1716167   -4.0539446    440.79822  0.071465341  0.072345644            3 
  515000    1.1655314    -4.043491    439.64724   0.07114033  0.072339874            2 
  516000    1.1578926   -4.0435879    441.98175  0.071379482  0.072332752            2 
  517000    1.1627176   -4.0167013    440.14401  0.070945197  0.072324702            3 
  518000      1.14368   -4.0368829    442.55691  0.071196414  0.072316342            3 
  519000    1.1819703   -4.0546294    443.12958  0.071151184  0.072307632            2 
  520000    1.1798084    -4.076333      444.258  0.071195193  0.072299237            2 
  521000    1.1469972   -4.0269224    445.18533  0.071206867  0.072291153            2 
  522000    1.1851811   -4.0491403     445.7846  0.071166124  0.072283641            2 
  523000    1.1511515   -4.0436579    445.76732  0.071027298  0.072275024            2 
  524000    1.1713625   -4.0004899    448.02628  0.071250998  0.072267707            2 
  525000    1.1441555   -4.0398432    447.60704  0.071048736  0.072259775            2 
  526000    1.1709255   -4.0428402    447.41152  0.070882687  0.072251168            5 
  527000    1.1697416   -4.0157822    448.92649  0.070987743  0.072243661            4 
  528000    1.1720233   -4.0295972    450.77057  0.071144345  0.072236198            2 
  529000    1.1787583   -4.0374877    450.75745   0.07100779  0.072227339            3 
  530000    1.1793395   -3.9996195    451.67446  0.071017997  0.072217826            2 
  531000    1.1752161   -4.0255046    450.42923  0.070688831  0.072206841            2 
  532000    1.1752859    -4.039208    450.94559  0.070636841  0.072197065            3 
  533000     1.161977   -4.0282627    453.69122  0.070933587  0.072187645            5 
  534000    1.1651798   -4.0365448    457.24381  0.071355151  0.072179984            3 
  535000     1.171086   -4.0590819    456.76391  0.071147027  0.072170947            3 
  536000    1.1790775   -4.0675307    456.60593  0.070989728  0.072162484            2 
  537000    1.1617864   -4.0314204    459.55471  0.071315131  0.072155522            4 
  538000    1.1701748   -4.0201231    460.72979  0.071364589  0.072148804            4 
  539000    1.1495548    -4.021468    459.56647   0.07105233  0.072141388            1 
  540000    1.1427645   -4.0456887    460.60344  0.071080778  0.072134506            3 
  541000    1.1645842   -4.0622292    461.10634  0.071026854  0.072126979            3 
  542000    1.1750781   -4.0508873     463.3461  0.071240175  0.072120057            2 
  543000    1.1576592   -4.0431729    464.06197  0.071218841  0.072113638            1 
  544000    1.1887284   -4.0569091    466.14204  0.071406562  0.072108526            2 
  545000    1.1482372   -4.0520364    464.50723  0.071025571   0.07210424            3 
  546000    1.1446745   -4.0414085    465.01137  0.070972432  0.072097454            4 
  547000    1.1723112   -4.0284484    468.32598   0.07134765  0.072091155            3 
  548000    1.1389169   -4.0655077    466.15958  0.070888014  0.072084741            2 
  549000    1.1661657   -4.0941385    467.26619  0.070926865  0.072077177            4 
  550000    1.1774556   -4.0232229    468.81125  0.071032008  0.072068302            5 
  551000    1.1428358    -4.066068    468.20874   0.07081197  0.072059272            4 
  552000    1.1767473   -4.0254065    470.39726  0.071014079   0.07205002            1 
  553000    1.1650393   -4.0169646    471.57226  0.071062727  0.072042036            3 
  554000    1.1600328   -4.0593768    469.88153  0.070680134  0.072033199            2 
  555000    1.1670416   -4.0473062    471.86631  0.070850797  0.072023979            1 
  556000     1.158801   -4.0561784    473.63439  0.070988368  0.072015393            1 
  557000    1.1552105   -4.0368629    473.06108  0.070775147  0.072006316            7 
  558000    1.1680133   -4.0585178    474.85535  0.070916271  0.071997922            7 
  559000    1.1686755   -4.0290101    474.16575  0.070686605  0.071990418            3 
  560000    1.1517896   -4.0295137    475.90968  0.070819892  0.071981348            2 
  561000    1.1927888   -4.0308214    478.24241  0.071040168  0.071971299            3 
  562000    1.1734536   -4.0654998    475.88626  0.070564392  0.071960257            1 
  563000    1.1875922   -4.0326975    477.98587  0.070749833  0.071948981            1 
  564000     1.169334   -4.0432459    477.75161  0.070589776  0.071938069            2 
  565000    1.1528575   -4.0562953    478.88673  0.070632262   0.07192763            1 
  566000    1.1611114   -4.0695126    479.05236  0.070531856  0.071916749            2 
  567000    1.1584854    -4.020707    481.59428  0.070781052   0.07190688            3 
  568000    1.1790418   -4.0532662    480.46087  0.070490151  0.071896406            3 
  569000    1.1502039   -4.0694767    480.56538  0.070381573  0.071884824            2 
  570000     1.148477   -4.0373046    482.39058  0.070524938  0.071873822            2 
  571000    1.1415684   -4.0627441    483.64471  0.070584459  0.071864431            1 
  572000    1.1566544   -4.0608121    485.17373  0.070683819  0.071853412            3 
  573000      1.15734   -4.0655939    486.67349  0.070778577   0.07184263            3 
  574000    1.1543052   -4.0696382    483.05371  0.070129749  0.071831802            2 
  575000    1.1519281   -4.0837527    484.79591  0.070260277  0.071819961            3 
  576000     1.156006   -4.0783461    486.34448  0.070362338  0.071808434            3 
  577000    1.1341893   -4.0617469     488.9916  0.070622704  0.071796979            2 
  578000    1.1491011   -4.0425958    489.25901  0.070539073  0.071785852            1 
  579000    1.1569977   -4.0238809     490.2687  0.070562565  0.071774763            6 
  580000    1.1292119   -4.0510777    488.62273  0.070204415  0.071761674            3 
  581000    1.1510471   -4.0734816     487.1613  0.069873967  0.071746468            1 
  582000    1.1276425   -4.0358749    487.58264  0.069814239  0.071732331            2 
  583000    1.1611735   -4.0678323    489.92689  0.070029573  0.071717274            3 
  584000    1.1547033   -4.0396685    490.81917  0.070036981  0.071702712            3 
  585000    1.1606708   -4.0379751    493.49829  0.070298902  0.071688199            2 
  586000    1.1749054   -4.0251329    493.39665  0.070164484  0.071673753            2 
  587000    1.1699548   -4.0917848    491.96654  0.069841928  0.071658024            3 
  588000    1.1869535   -4.0839994    492.24576  0.069762721  0.071642092            3 
  589000    1.1651398   -4.0350129    496.42916  0.070236157  0.071627735            3 
  590000    1.1499493   -4.0428221    496.54487  0.070133456  0.071614286            2 
  591000    1.1584499   -4.0752846    497.43663  0.070140528  0.071599845            2 
  592000    1.1411227   -4.0982177    496.13045  0.069838183  0.071584945            3 
  593000    1.1735202   -4.0229864     497.1722  0.069866807  0.071570772            1 
  594000    1.1408802   -4.0689822    500.72746   0.07024796  0.071556474            1 
  595000    1.1615566   -4.0524859    501.37438  0.070220502  0.071542293            3 
  596000    1.1866803   -4.0759558    498.04641  0.069637361  0.071527866            2 
  597000    1.1624107   -4.0758558     502.5012  0.070142546  0.071513972            3 
  598000    1.1541716   -4.0440933    503.82441  0.070209644   0.07150019            1 
  599000    1.1359237   -4.0817579     503.5355   0.07005224  0.071486757            3 
  600000     1.115652   -4.0434189    503.29524  0.069902117  0.071473268            4 
  601000    1.1357148   -4.0707738    506.18987   0.07018717   0.07145889            5 
  602000    1.1693177   -4.0333092    507.48497  0.070249857  0.071444585            1 
  603000    1.1474102   -4.0351055    508.03524  0.070209403  0.071429496            2 
  604000    1.1487878   -4.0642624    507.35527  0.069999347  0.071415877            4 
  605000    1.1603494   -4.0513805    505.94158  0.069688923  0.071401109            2 
  606000    1.1742597   -4.0349301    507.31802  0.069763205  0.071386992            4 
  607000    1.1638073   -4.0440893    509.04422  0.069885258   0.07137211            3 
  608000    1.1826537   -4.0352947    509.22066  0.069794498  0.071358457            1 
  609000    1.1523164   -4.0760062     510.2547  0.069821388  0.071343744            4 
  610000    1.1689558   -4.0567057    511.02762  0.069812516   0.07133015            2 
  611000    1.1869892   -4.0946006    510.62972  0.069643988  0.071315574            3 
  612000    1.1855023   -4.0652378    512.28246  0.069755237  0.071300935            2 
  613000    1.1674097    -4.023378    514.51371  0.069944767  0.071286176            1 
  614000    1.1795746    -4.089313    511.43161  0.069412542  0.071271199            1 
  615000    1.1574496   -4.0437253    514.57746  0.069725943  0.071257196            4 
  616000    1.1463923   -4.0471987    516.60306  0.069886778  0.071242643            3 
  617000    1.1685891   -4.0955944    516.04337  0.069697916  0.071229027            2 
  618000    1.1624554   -4.0467501    517.25417  0.069748405  0.071216156            2 
  619000    1.1658563   -4.0425337    517.81046  0.069710617  0.071203119            4 
  620000    1.1279604   -4.0613267    518.86684  0.069740167  0.071189915            2 
  621000    1.1338273   -4.0482054    519.84487  0.069759107  0.071176459            4 
  622000    1.1337513   -4.0582589    519.11388  0.069549019  0.071162422            2 
  623000    1.1502156   -4.0609167    522.41366  0.069878766  0.071149108            2 
  624000    1.1641162    -4.064622    521.33134  0.069622241  0.071135174            1 
  625000    1.1662381   -4.0400992    523.83681  0.069844908  0.071121815            4 
  626000    1.1623289   -4.0510775    521.98938  0.069487404  0.071107607            1 
  627000    1.1817727   -4.0384056    524.78489  0.069748125  0.071094675            1 
  628000    1.1383089   -4.0745164    523.68833  0.069491551  0.071081942            5 
  629000    1.1551958   -4.0681725    528.33935  0.069997264  0.071068686            2 
  630000    1.1634934   -4.0753756    528.06446  0.069849797  0.071055619            2 
  631000    1.1416866   -4.0587094    527.84506  0.069710123  0.071042691            2 
  632000    1.1462347   -4.0909439    528.00873  0.069621404  0.071029662            2 
  633000     1.180051   -4.1012094    530.22164  0.069802743  0.071015653            3 
  634000    1.1776321   -4.0939622    529.19067  0.069557133   0.07100301            2 
  635000     1.166214   -4.0574471    532.03453  0.069820805  0.070991717            1 
  636000    1.1571396   -4.0860644    531.80422  0.069680846  0.070980438            1 
  637000      1.18177   -4.1043192    532.48856  0.069660984  0.070969753            4 
  638000    1.1297992    -4.088535    535.29609  0.069918507  0.070959709            1 
  639000    1.1321415   -4.0743406    535.49855  0.069835491  0.070949384            2 
  640000    1.1281719   -4.0808409     535.8172  0.069767864  0.070939477            4 
  641000    1.1221544   -4.0398105    540.25676  0.070236188  0.070930133            3 
  642000    1.1485664   -4.0518779    537.75658  0.069802257  0.070919658            4 
  643000    1.1454813   -4.0692159    540.68206  0.070072843  0.070910111            2 
  644000    1.1393363   -4.0978157    539.29544  0.069784607  0.070899541            1 
  645000    1.1542321   -4.0646735     541.9858  0.070024005  0.070889528            5 
  646000    1.1680684   -4.0447895    541.00381  0.069788933  0.070880313            4 
  647000    1.1538844   -4.0661611    541.69151  0.069769643  0.070870265            3 
  648000    1.1299717   -4.0608539    541.91529  0.069690752   0.07085946            3 
  649000     1.160393   -4.0728821    543.53503   0.06979135  0.070849701            4 
  650000    1.1562352   -4.0803909    545.94574  0.069993044  0.070839931            7 
  651000    1.1537459   -4.0669148    545.93301  0.069883898  0.070830184            4 
  652000    1.1484514   -4.0872874     545.7714  0.069756058  0.070818942            1 
  653000    1.1477761   -4.0593341    547.28707  0.069842658  0.070808007            3 
  654000    1.1244257   -4.0779601    548.09543  0.069838867  0.070796806            2 
  655000    1.1435615   -4.0846016    547.45868  0.069651232  0.070785385            4 
  656000    1.1493705   -4.0718601    548.41607  0.069666676  0.070774568            3 
  657000     1.158128   -4.0590191    551.29925  0.069926338  0.070763326            3 
  658000    1.1054561   -4.0604892    550.57781    0.0697287  0.070752817            2 
  659000    1.1494524   -4.1065506    549.85417  0.069531383  0.070741893            4 
  660000    1.1688468   -4.0936638    547.87215  0.069175776  0.070730569            2 
  661000    1.1522007   -4.0912834    553.65836    0.0698006  0.070719882            3 
  662000    1.1509333   -4.0674543    553.02269  0.069615142  0.070709289            3 
  663000     1.143828   -4.0869894    554.37166  0.069679696  0.070699122            2 
  664000     1.150623   -4.0644847    556.49901  0.069841743  0.070688153            1 
  665000     1.129054    -4.061244    558.29354  0.069961596  0.070677283            3 
  666000    1.1092387   -4.0744163    555.39937  0.069494416  0.070667743            2 
  667000    1.1541591   -4.0580611    559.17101  0.069861445  0.070657642            3 
  668000    1.1406942   -4.1012725    557.67295  0.069569979  0.070647834            3 
  669000    1.1257309   -4.1040416    558.01698  0.069508842  0.070637547            3 
  670000    1.1499137   -4.0600455    563.57484  0.070096373  0.070627223            2 
  671000    1.1585313   -4.1020676    561.27518  0.069706306  0.070617483            4 
  672000    1.1467168   -4.0647958    560.83888  0.069548472  0.070606424            4 
  673000    1.1290461   -4.0675407    563.43081  0.069766073  0.070595667            3 
  674000    1.1558795   -4.0451415      562.442  0.069540306  0.070585105            2 
  675000     1.131041   -4.0922991    563.34992  0.069549373  0.070574339            1 
  676000    1.1514981    -4.078384      565.094  0.069661489   0.07056458            2 
  677000    1.1566881   -4.0781075    564.23036  0.069452284  0.070553872            1 
  678000    1.1557247   -4.0592901     567.4665  0.069747603  0.070543576            3 
  679000    1.1253804   -4.0894799     566.1276  0.069480559  0.070532717            4 
  680000       1.1592   -4.0916624    566.76185  0.069456109  0.070521065            2 
  681000    1.1512563   -4.0851341    568.08771  0.069516362  0.070508862            2 
  682000    1.1348546    -4.044398    569.43386  0.069578917   0.07049638            2 
  683000    1.1412015   -4.0909584    568.30184  0.069338926  0.070484266            2 
  684000    1.1473293   -4.0834315    569.59726  0.069395377   0.07047178            3 
  685000    1.1501703   -4.0766801    571.46144  0.069520857  0.070461237            2 
  686000    1.1375526   -4.0634903    570.98872  0.069362089  0.070449363            3 
  687000     1.147568   -4.0764829    572.22724  0.069411359  0.070437857            1 
  688000      1.14501   -4.0598059    571.81214  0.069260191  0.070425694            3 
  689000    1.1430562   -4.1166825    572.29031  0.069217503  0.070413849            3 
  690000    1.1659738   -4.0674357    575.35469  0.069487281   0.07040294            2 
  691000    1.1392347   -4.0752792    574.14615  0.069240974  0.070391608            3 
  692000    1.1256561   -4.0938838    572.84959  0.068984777  0.070378838            2 
  693000    1.1648074   -4.0733289    575.80359  0.069240451   0.07036688            2 
  694000     1.119588    -4.053976    575.40474  0.069092788  0.070353848            3 
  695000      1.14069   -4.1121279    574.80769  0.068921785  0.070338831            4 
  696000    1.1362011   -4.0771622     577.7014  0.069169229  0.070324543            1 
  697000    1.1265635   -4.0639602     576.2092  0.068891582  0.070310104            2 
  698000    1.1597845   -4.0683609    578.70984  0.069091432  0.070296037            3 
  699000     1.158743   -4.0890187    576.28748  0.068703801  0.070282033            2 
  700000     1.117187   -4.0793832     579.5184  0.068990286  0.070268558            3 
  701000    1.1580157   -4.0679498    578.86901  0.068814671  0.070253978            2 
  702000    1.1292291   -4.0467129    580.63212   0.06892594  0.070240375            2 
  703000    1.1636894   -4.0968031     578.1353  0.068531923  0.070225923            4 
  704000    1.1509614   -4.0994065    581.66884  0.068852845  0.070211697            2 
  705000    1.1350821   -4.0590124    583.93213  0.069022711  0.070197951            2 
  706000    1.1467486   -4.0798754    585.74854  0.069139346  0.070183786            1 
  707000     1.124728   -4.0866118    585.80878  0.069048654  0.070169497            3 
  708000    1.1300111   -4.0678757    586.15021  0.068991315    0.0701549            3 
  709000    1.1381485   -4.0666278    584.89719  0.068746731  0.070141331            4 
  710000    1.1239563   -4.1268558    585.30592  0.068697878  0.070127099            5 
  711000    1.1382388   -4.1006533    585.93017  0.068674422  0.070112955            2 
  712000    1.1421498   -4.0698342     589.3667  0.068980185  0.070100018            2 
  713000    1.1378071   -4.0810061    588.30465  0.068759309  0.070087225            2 
  714000    1.1513113   -4.0850396    593.90076  0.069316149  0.070074966            3 
  715000    1.1479901   -4.0853337    594.79243  0.069323127  0.070062276            1 
  716000    1.1313718   -4.1007521    590.98424  0.068783081   0.07004977            2 
  717000    1.1508737   -4.0795006    593.77365  0.069011349   0.07003547            2 
  718000    1.1392471   -4.0966228    590.32253  0.068514686  0.070021383            3 
  719000    1.1621703   -4.0829685    594.77805  0.068935797   0.07000881            2 
  720000    1.1124672   -4.0731744    595.33266  0.068904243   0.06999595            2 
  721000    1.1082875   -4.1064676    593.03111  0.068542662  0.069983375            2 
  722000    1.1395046   -4.0901717     595.3725  0.068717971  0.069970284            3 
  723000    1.1283579   -4.0622864    596.51225  0.068754293  0.069957342            3 
  724000    1.1346008   -4.0600408    598.24321  0.068858564  0.069944739            6 
  725000    1.1446224   -4.1133988    597.87015  0.068720707    0.0699316            2 
  726000    1.1376869   -4.0929182    600.41494  0.068918152  0.069917904            6 
  727000    1.1128261   -4.0952688     598.3229  0.068583551  0.069904637            4 
  728000    1.1550671   -4.0984667    597.09546  0.068348839  0.069890292            3 
  729000    1.1598039   -4.1218871    598.58032  0.068424819  0.069876279            1 
  730000     1.134428   -4.0668022    603.87016  0.068934949  0.069862882            2 
  731000    1.1366437    -4.101704    601.74957  0.068598902  0.069849929            3 
  732000    1.1327948    -4.095266    603.20584  0.068670974  0.069837007            2 
  733000    1.1516592   -4.0882139    605.73814  0.068865181  0.069824762            1 
  734000    1.1121095   -4.0826897    604.72341  0.068656155  0.069812651            5 
  735000    1.1240168   -4.1398972    606.85138  0.068804011   0.06980111            1 
  736000    1.1546248   -4.1319139    604.24992  0.068415979   0.06978831            3 
  737000     1.129269   -4.1524677    605.54732  0.068469846  0.069775451            2 
  738000    1.1146454   -4.0890187    609.16958  0.068786086   0.06976284            1 
  739000    1.1321759   -4.0923559     608.3931  0.068605447  0.069751062            3 
  740000    1.1512701   -4.1295795    608.26237  0.068498014  0.069738624            4 
  741000    1.1124148   -4.0880267    606.65321  0.068224608  0.069726472            4 
  742000    1.1159698   -4.0698276     612.3446  0.068771855  0.069714111            3 
  743000    1.1394486   -4.1198847    610.75353  0.068500844  0.069701501            3 
  744000    1.1272466   -4.0764387    612.36106  0.068588828  0.069689299            4 
  745000    1.1176522   -4.1292004    612.33279    0.0684936  0.069676426            3 
  746000    1.1258756   -4.0889938    615.99688   0.06881109  0.069663567            3 
  747000    1.1449171   -4.1031428    615.30617   0.06864192   0.06965129            2 
  748000     1.145067   -4.1128351    615.15673  0.068533503  0.069638327            4 
  749000    1.1390955    -4.138809    614.31147   0.06834796  0.069625333            2 
  750000    1.1391057     -4.06734    619.20624  0.068800693  0.069613684            3 
  751000    1.1200525   -4.1079979    618.09124  0.068585357  0.069601411            3 
  752000     1.107129   -4.0706111    620.08697  0.068715311  0.069588973            3 
  753000    1.1189978   -4.1009864     620.0775  0.068623008  0.069576437            2 
  754000    1.1368014   -4.0779722    618.84397  0.068395664  0.069563754            2 
  755000    1.1432041   -4.0656834    622.36726  0.068693958  0.069552415            1 
  756000    1.1521167   -4.0538747    621.40688  0.068497231   0.06954119            2 
  757000    1.1482971   -4.1008695    621.72222  0.068441459  0.069529533            2 
  758000     1.134173    -4.094241    623.49658  0.068546238  0.069517249            2 
  759000    1.1395435   -4.1062962    624.28721  0.068542732  0.069505335            1 
  760000    1.1339703    -4.098913    625.04112   0.06853521  0.069493801            1 
  761000    1.1370047   -4.0663106    624.79043  0.068417699  0.069481699            1 
  762000    1.1404224   -4.1039247    623.88541  0.068228938   0.06946928            2 
  763000    1.1340065   -4.0458921    624.62375  0.068220156  0.069457935            2 
  764000    1.1249076   -4.0786666    628.49296  0.068552898   0.06944646            2 
  765000    1.1458189   -4.0681699     632.8003  0.068932494  0.069434981            3 
  766000    1.1219016   -4.1044816    630.71067  0.068615172  0.069422456            4 
  767000    1.1358747   -4.0960148    632.80897   0.06875369  0.069410497            2 
  768000     1.133987   -4.1118326    630.10215  0.068370459  0.069398193            2 
  769000    1.1498893   -4.0983677    631.56788  0.068440386  0.069386956            2 
  770000    1.1200033   -4.1072469    633.05059  0.068511969  0.069375055            3 
  771000    1.1311022   -4.1064457      632.634  0.068378081  0.069362993            3 
  772000    1.1313772   -4.0958587    633.55785  0.068389232  0.069351623            4 
  773000    1.1313852   -4.1003777    634.17474  0.068367264   0.06934041            3 
  774000    1.1069749   -4.0893696    634.87715  0.068354559  0.069329224            2 
  775000    1.1223967   -4.0920098    635.93937  0.068380577  0.069317674            4 
  776000    1.1373947   -4.0918512     638.2952  0.068545447  0.069305384            2 
  777000    1.1183151   -4.1212754    634.59945  0.068060859  0.069293095           13 
  778000    1.1394819   -4.1237673    638.87752  0.068431611  0.069280818            3 
  779000    1.1338457   -4.1263234    638.69877  0.068324644  0.069267843            2 
  780000    1.1419248   -4.1003966    640.65454  0.068445998   0.06925579            2 
  781000    1.1210188   -4.0844581    640.35625  0.068326531  0.069243454            3 
  782000    1.1387643   -4.1333236     638.1021  0.067998945  0.069230252            1 
  783000     1.107472   -4.1221361    638.36574   0.06794016  0.069218094            8 
  784000    1.1162884   -4.1034703    642.25433  0.068266829   0.06920572            3 
  785000    1.1496026   -4.1166499    644.45343  0.068413315  0.069193514            3 
  786000    1.1166828   -4.0953732    644.81322  0.068364421  0.069181197            1 
  787000    1.1126901   -4.0718061     644.4241  0.068236351  0.069168831            2 
  788000    1.1553738    -4.115147     644.7951  0.068188991  0.069156989            2 
  789000    1.1275177   -4.0727233    647.72148  0.068411648  0.069145226            1 
  790000    1.1269269   -4.1112637    647.59958  0.068312192  0.069133252            4 
  791000    1.1036164   -4.0760104    647.56112  0.068221778  0.069121118            3 
  792000    1.1152932   -4.0886566    649.07413  0.068294836  0.069109016            3 
  793000    1.1551059   -4.1408872    647.95138   0.06809073  0.069097006            2 
  794000    1.1260364   -4.0901576     650.2739   0.06824873  0.069085487            2 
  795000    1.1254005   -4.1034707    648.82871  0.068011395  0.069073434            5 
  796000    1.1364501   -4.0905572    651.13904  0.068167822  0.069061883            3 
  797000    1.1143677   -4.1316063    652.27709  0.068201285  0.069049975            4 
  798000    1.1108653   -4.0563851    653.55537  0.068249307  0.069038943            2 
  799000    1.1200042   -4.1016375    654.99129  0.068313651  0.069027493            1 
  800000    1.1042866   -4.1110086     653.0885  0.068030052  0.069015156            4 
  801000    1.1519314   -4.1075024    654.71557  0.068114395  0.069003899            4 
  802000    1.1259652   -4.0904837    657.26943  0.068294828  0.068991382            2 
  803000     1.139902   -4.1058603    655.45176  0.068021146  0.068979433            2 
  804000    1.0975794   -4.1560149    655.55248  0.067946982  0.068966142            4 
  805000    1.1136771   -4.0844977    659.51361  0.068272631  0.068954153            3 
  806000    1.1277738   -4.1379186    657.04104  0.067932283  0.068941452            2 
  807000    1.1287018    -4.101516    656.98163   0.06784197  0.068928309            1 
  808000    1.1040566   -4.1184004     659.7405  0.068042543  0.068915515            3 
  809000    1.1206574   -4.1330171     658.6776  0.067848949  0.068902044            2 
  810000    1.1233949   -4.0917328    659.29535  0.067828739  0.068889342            2 
  811000    1.1207063   -4.0953303    658.68076  0.067681953  0.068875714            1 
  812000     1.108409   -4.1244107    660.75724  0.067811703  0.068863082            2 
  813000    1.1232291   -4.0952253    662.07176  0.067863034  0.068850353            3 
  814000     1.091343    -4.090131    663.61445  0.067937597  0.068838263            3 
  815000     1.136453   -4.1383812     663.1798  0.067809796   0.06882662            5 
  816000    1.0961657   -4.0923819    664.56084  0.067867733  0.068814911            3 
  817000    1.1278354   -4.1376719    664.35891  0.067764067  0.068802688            2 
  818000    1.1359425   -4.1069314    669.61948  0.068217143  0.068790948            6 
  819000    1.1147474   -4.1161406     671.6159  0.068336986  0.068780331            3 
  820000    1.1224444   -4.0950985    668.70299  0.067957621  0.068769362            3 
  821000    1.0947359   -4.1064206    668.14288  0.067817995  0.068758435            2 
  822000    1.1004028   -4.0802569    671.40021  0.068065715  0.068747737            1 
  823000    1.1256346   -4.0988487    672.22116  0.068066136  0.068737238            4 
  824000    1.1442396   -4.1071401    671.91056   0.06795212  0.068726298            4 
  825000    1.1084869    -4.119802    670.82693  0.067760296  0.068715616            2 
  826000    1.1116373   -4.1461701    672.70323  0.067867557  0.068705483            3 
  827000    1.1391673   -4.0980316    675.50075  0.068067387  0.068694524            3 
  828000    1.1308307   -4.1278629     673.0807  0.067741617  0.068683575            2 
  829000    1.1268294    -4.109429    674.59298   0.06781192  0.068671428            5 
  830000    1.1177195   -4.0845723    677.46034  0.068018106  0.068660687            2 
  831000    1.1340109   -4.1356398    674.66812   0.06765625  0.068649302            1 
  832000     1.098272   -4.1216613     675.3892  0.067647155  0.068637232            5 
  833000     1.131801   -4.1279731    677.14089  0.067741186  0.068625121            4 
  834000    1.0970596   -4.1192333    676.79119  0.067625019  0.068613187            3 
  835000    1.0914587    -4.141128    676.85656  0.067550554  0.068600909            3 
  836000    1.1361629   -4.1346259    677.70202  0.067554029  0.068588742            2 
  837000    1.1101597   -4.1049766    682.08221   0.06790942  0.068577203            3 
  838000    1.1359448   -4.1208316    680.39714  0.067660813  0.068565975            2 
  839000    1.1113509   -4.1362941    680.06839  0.067547515  0.068554528            2 
  840000     1.152344   -4.1076091    684.47849  0.067904612  0.068542926            3 
  841000     1.102561   -4.1270451    683.01095  0.067678453  0.068531828            5 
  842000    1.1319488   -4.1087186    682.77892  0.067575111   0.06852035            2 
  843000    1.1424095   -4.1402257    682.27442  0.067445079  0.068509233            1 
  844000    1.1226635   -4.1393482    682.25787  0.067363534  0.068497731            1 
  845000    1.1305677   -4.1493568    686.20853  0.067673425  0.068485257            2 
  846000    1.1228174   -4.1106035    685.68602  0.067541964  0.068473785            1 
  847000    1.1220741    -4.136268    686.54505  0.067546738   0.06846212            2 
  848000    1.1068202   -4.0896878    689.62773   0.06777002  0.068450496            2 
  849000    1.1204116    -4.115887    687.41479  0.067472987  0.068438708            1 
  850000     1.117375    -4.134391    686.19222  0.067273747  0.068426133            3 
  851000    1.1129571   -4.1016946     687.0763  0.067281267  0.068413488            2 
  852000     1.130815   -4.1226224    691.60801  0.067645541  0.068401662            1 
  853000    1.1301893   -4.1162058    690.47687  0.067455732  0.068389275            1 
  854000    1.1024166   -4.0905029    690.59935  0.067388696   0.06837659            2 
  855000    1.1094177   -4.1201042    692.67838  0.067512513  0.068364374            1 
  856000    1.1010689   -4.1342794    689.19988  0.067095003  0.068351827            5 
  857000    1.0996202   -4.1169604    693.14427   0.06740026  0.068339526            5 
  858000    1.1051446   -4.1412732    690.70739  0.067085023  0.068326425            3 
  859000    1.1040571   -4.0973783    693.18357  0.067247145  0.068313431            1 
  860000    1.1104159   -4.1165747    698.02116  0.067637709  0.068301309            2 
  861000    1.1035839   -4.1238202     694.7012  0.067237824  0.068288254            4 
  862000    1.1058951   -4.1263356    692.64384  0.066960928  0.068274807            2 
  863000    1.1058767   -4.0882772    698.29008  0.067428552  0.068262658            2 
  864000    1.1159897   -4.1091408    698.85723  0.067405211  0.068250299            2 
  865000    1.1152834   -4.1176304    700.72895  0.067507606  0.068237741            4 
  866000    1.1016439   -4.1020943     698.9924  0.067262548  0.068224384            2 
  867000    1.1077647   -4.1443869    699.61346  0.067244662  0.068211483            2 
  868000    1.0934994   -4.1323777    699.26281  0.067133526   0.06819827            3 
  869000    1.0945267   -4.1306979    703.04201  0.067418681  0.068185067            3 
  870000    1.1310831   -4.1295842    701.14943  0.067159907  0.068171639            1 
  871000    1.0991361   -4.1065648    703.66431  0.067323412  0.068159001            2 
  872000    1.1105437   -4.1168157    703.68916  0.067248582  0.068146175            5 
  873000    1.1097079   -4.1388397    703.83066  0.067185057  0.068133603            2 
  874000    1.1066522   -4.1352846    703.43164  0.067070141  0.068120904            3 
  875000    1.1165589   -4.0901512    707.86017  0.067415254  0.068108201            4 
  876000    1.1394358   -4.1046938    707.48806  0.067302897  0.068095415            2 
  877000    1.0945021   -4.1127657     708.8703  0.067357497  0.068082699            2 
  878000    1.1136745       -4.114    711.05143  0.067487797  0.068071129            3 
  879000    1.1042953   -4.1481458    708.87172  0.067204372  0.068059066            3 
  880000    1.1267449   -4.1377021    711.55343  0.067381953  0.068047753            2 
  881000    1.1220532   -4.0932988    710.70181  0.067224916  0.068037065            4 
  882000    1.1291223   -4.1579946    710.80776  0.067158708  0.068026231            2 
  883000    1.1191319   -4.1061665     716.8444   0.06765236   0.06801609            4 
  884000    1.1289073   -4.1527981     714.3837  0.067343863  0.068005799            2 
  885000    1.0894875   -4.1079915    715.06486  0.067331907   0.06799525            2 
  886000    1.1398938   -4.1202633    718.60182  0.067588584  0.067984818            2 
  887000    1.1297389   -4.0920364      717.766  0.067433859  0.067974032            2 
  888000    1.1116864   -4.1318025    720.18477  0.067584907  0.067963228            1 
  889000    1.1167959   -4.1255753    717.99046  0.067303193  0.067952016            1 
  890000    1.1192384   -4.1120087    720.07085  0.067422364  0.067941599            6 
  891000    1.1068902   -4.1564822    718.74312  0.067222514  0.067930839            3 
  892000    1.1124951   -4.1299698     717.6844  0.067048244  0.067920372            2 
  893000    1.1066247   -4.1316039    718.01487  0.067004001  0.067909177            1 
  894000    1.0973125     -4.14468     721.3028  0.067235533  0.067898131            2 
  895000    1.1296725   -4.1494862    722.16854  0.067241018  0.067886973            1 
  896000    1.0896197    -4.124949    722.44508  0.067191693  0.067876283            4 
  897000    1.1198991   -4.1599364    720.71689  0.066956233   0.06786522            1 
  898000    1.0950885   -4.1298919    722.85373  0.067079967  0.067854127            5 
  899000    1.1145024   -4.1181352     724.8803  0.067193206  0.067844282            3 
  900000    1.1217848   -4.0899482    728.03539  0.067410684  0.067834031            6 
  901000    1.1095441   -4.1445263    728.07089   0.06733915  0.067823215            4 
  902000    1.1036923   -4.1372129    725.69548  0.067045037  0.067813243            4 
  903000    1.1093749   -4.1440005    728.42262  0.067222464  0.067802833            3 
  904000    1.1298391   -4.1141189    729.79337  0.067274462   0.06779277            2 
  905000    1.0934052   -4.1270696    731.62189  0.067368499  0.067783068            3 
  906000    1.0978655   -4.1173609    732.78875  0.067401467    0.0677735            2 
  907000    1.0964345   -4.1150188    733.90234  0.067429469  0.067763908            3 
  908000    1.1100877   -4.1211252    732.46746  0.067223518  0.067754245            3 
  909000    1.1218281   -4.1517352    731.52031  0.067062735  0.067744319            2 
  910000    1.1079656   -4.1157473    733.58087  0.067177735  0.067734287            4 
  911000    1.1115129   -4.1563678    734.39111  0.067178111  0.067724743            3 
  912000    1.1064738   -4.1370878    736.96809  0.067339921  0.067715977            2 
  913000    1.1036226   -4.1142829    742.15988   0.06774004  0.067706141            3 
  914000     1.096539   -4.1213925    739.12122  0.067388879  0.067696861            2 
  915000    1.0985558   -4.1225184    740.06907  0.067401554  0.067688226            1 
  916000    1.0956853   -4.1186023    738.67978  0.067201581  0.067679056            2 
  917000    1.1141451   -4.1363711    738.78566  0.067137919   0.06766958            2 
  918000      1.13123   -4.1350126    743.81544  0.067521373   0.06766041            1 
  919000    1.1076955   -4.1724391    735.57729  0.066700878  0.067650919            3 
  920000    1.1136117   -4.1322159    743.15835  0.067315068  0.067640614            2 
  921000    1.0934569   -4.1491722    741.80628  0.067119642  0.067630843            3 
  922000    1.0975444   -4.1380285    740.08884  0.066891616  0.067621047            3 
  923000    1.0976089   -4.1587519    744.40377  0.067208719  0.067610911            1 
  924000    1.1125863   -4.1723279    743.99942  0.067099515  0.067601215            3 
  925000     1.109323   -4.1408182    745.94859  0.067202575  0.067591608            2 
  926000    1.1155005   -4.1378698    748.55736  0.067364773  0.067582938            5 
  927000    1.1084289   -4.1498872    748.92101  0.067324794  0.067573912            3 
  928000    1.0956193    -4.145063    746.43197  0.067028733  0.067564373            3 
  929000    1.1100862   -4.1622317    748.09452  0.067105716  0.067554981            1 
  930000    1.1051604   -4.1424252     748.9184  0.067107383  0.067545995            3 
  931000    1.0940781   -4.1462802    749.60174  0.067096468  0.067537192            4 
  932000    1.1008132   -4.1546789    751.56085  0.067199646  0.067528275            4 
  933000     1.096706   -4.1690551    752.69992   0.06722936   0.06751952            4 
  934000    1.0906013   -4.1270794    750.79694  0.066987593  0.067510544            3 
  935000    1.1163904   -4.1606268    753.39249   0.06714728  0.067500993            1 
  936000     1.094074   -4.1252568    755.64552  0.067276132  0.067491074            2 
  937000    1.1079343   -4.1161605    754.42768  0.067096022  0.067481305            3 
  938000    1.1036115   -4.1395798    752.47144  0.066850697   0.06747218            2 
  939000    1.0992135   -4.1274683    754.36986  0.066947982  0.067462057            1 
  940000    1.1074545   -4.1169354    757.30826  0.067137257  0.067452249            4 
  941000    1.1019895   -4.1566447    754.44703  0.066812525  0.067442225            2 
  942000    1.0977234    -4.127102    756.47798  0.066921265  0.067432294            2 
  943000    1.1097499   -4.1596268    760.57939  0.067212742  0.067422215            4 
  944000    1.0910005   -4.0931621    760.44282  0.067129486  0.067412878            4 
  945000    1.1152647   -4.1766576     759.9626  0.067016102  0.067403925            1 
  946000    1.1320149    -4.183003    758.97787  0.066858515  0.067394215            2 
  947000    1.1091411    -4.152302    758.81887  0.066773924  0.067384096            1 
  948000     1.111774   -4.1076772    763.51134  0.067115976  0.067374199            2 
  949000    1.0902102   -4.1630215    761.17869  0.066840419  0.067364201            2 
  950000    1.1271492   -4.1227347    763.65178  0.066986998  0.067354532            2 
  951000    1.1048713   -4.1253007     762.9663  0.066856494  0.067344369            3 
  952000    1.1210583   -4.1897065    761.68759  0.066674334  0.067334162            2 
  953000    1.1221416   -4.1274451    764.79052  0.066875702  0.067324148            1 
  954000    1.0856679   -4.1348731     765.3778  0.066856901   0.06731406            2 
  955000    1.0951155   -4.1304595    768.30305  0.067042151  0.067304028            2 
  956000    1.1156615   -4.1569612    763.91931  0.066589898  0.067293572            4 
  957000     1.094213   -4.1655228    766.62316  0.066755761  0.067283897            3 
  958000    1.1093118   -4.1304173     765.1957  0.066561909  0.067274683            2 
  959000    1.0986039   -4.1804375    767.16262  0.066663419  0.067264661            2 
  960000    1.0949132   -4.1326981    765.89977  0.066484355  0.067254756            2 
  961000    1.0994929   -4.1655417    769.15644  0.066697575  0.067244719            1 
  962000    1.0994111   -4.1550928    769.62419  0.066668762  0.067234542            8 
  963000    1.0861081   -4.1508902    771.37947  0.066751425  0.067224173            4 
  964000    1.1113283   -4.1929042    767.77682  0.066370748  0.067213533            3 
  965000    1.0702888   -4.1354184    771.07348  0.066586656  0.067202317            3 
  966000    1.1046819   -4.1649206    771.45072  0.066550269  0.067191273            1 
  967000     1.076798   -4.1472853     771.4611  0.066482342  0.067179867            3 
  968000    1.1064231   -4.1472357    773.96665   0.06662936  0.067168495            3 
  969000     1.106485   -4.1275646     777.5988  0.066872962  0.067157685            2 
  970000    1.0861954   -4.1400203    777.20789  0.066770438   0.06714724            2 
  971000    1.1133542   -4.1604882    776.48021  0.066639222  0.067136653            2 
  972000    1.0747651   -4.1567767    775.06377  0.066449226  0.067126363            3 
  973000    1.1092365   -4.1324265    779.18704  0.066734074    0.0671159            3 
  974000     1.116352   -4.1437113    780.32085  0.066762564  0.067106347            1 
  975000    1.0910348   -4.1873788    776.93223  0.066404464  0.067096063            2 
  976000    1.1150276   -4.1397379    781.62096  0.066736763    0.0670855            5 
  977000    1.0678811   -4.1355078    783.88457   0.06686153  0.067075978            1 
  978000    1.0944773   -4.2067192    779.29764  0.066402321  0.067065992            3 
  979000    1.0899735   -4.1416152    782.31068  0.066590967  0.067056224            1 
  980000    1.0841294   -4.1387643    784.91519  0.066744489  0.067047104            2 
  981000    1.1185502   -4.1635564    784.85165  0.066671055  0.067037276            2 
  982000    1.0845453   -4.1397019     787.6766  0.066842889  0.067027974            2 
  983000    1.1001704   -4.1654957    783.73094  0.066440398  0.067018436            2 
  984000    1.1050517   -4.1059493    789.63659  0.066873018  0.067009155            3 
  985000    1.1036537   -4.1386103    784.49671   0.06637028  0.066999578            3 
  986000    1.0857221   -4.1465931     788.3887  0.066631905  0.066989337            4 
  987000    1.1054469   -4.1414648    787.07284  0.066453296   0.06697911            2 
  988000    1.0975689    -4.139875    786.67715  0.066352661  0.066968666            1 
  989000    1.0818791   -4.1678694    785.18429  0.066159782  0.066957622            4 
  990000    1.0829124   -4.1563239    787.01145  0.066246755  0.066946598            2 
  991000    1.0885712   -4.1797467    789.62686  0.066399837  0.066934804            4 
  992000    1.0931147   -4.1615706    791.06813  0.066453976  0.066924512            1 
  993000    1.0707126   -4.1557922    793.21777  0.066567453  0.066913779            1 
  994000    1.1050518   -4.1394191    793.83971  0.066552624  0.066903829            2 
  995000    1.0972671   -4.1851139    789.34379  0.066109196  0.066893055            1 
  996000    1.0789481   -4.1647982    789.62025  0.066065951  0.066882145            4 
  997000    1.0903707   -4.1761183    795.78704  0.066515132  0.066872049            5 
  998000    1.0579403   -4.1571503    793.99519  0.066298864  0.066861615            5 
  999000    1.1372484   -4.1859179    794.97367   0.06631412  0.066851113            2 
 1000000    1.1142995   -4.1786709    796.35863  0.066363219  0.066840867            2 
 1001000    1.0953288   -4.1951123    795.67954  0.066240388  0.066830726            3 
 1002000    1.0818614   -4.1637939     796.7021  0.066259323  0.066820294            3 
 1003000    1.1139516    -4.138946    800.43701  0.066503573  0.066810172            1 
 1004000    1.0784341   -4.1816885    799.74961   0.06638028  0.066800245            1 
 1005000    1.0846387   -4.1555289    800.14659  0.066347146  0.066790448            2 
 1006000    1.1210705   -4.1505839    797.83386  0.066089617  0.066780508            3 
 1007000    1.1071857   -4.1673739    797.70729  0.066013513  0.066770264            1 
 1008000    1.0762602   -4.1440273    800.54675  0.066182767  0.066760435            2 
 1009000    1.1131775   -4.1881704    801.54521  0.066199638  0.066750634            2 
 1010000     1.093731   -4.1419082    804.49733  0.066377667  0.066740218            3 
 1011000    1.0651086   -4.1534304    806.25108  0.066456568  0.066730682            2 
 1012000     1.091894   -4.1804548    801.33705  0.065986252   0.06672102            3 
 1013000     1.099191   -4.1864841    801.94557  0.065971172  0.066710436            1 
 1014000    1.0978879   -4.1629629    804.40639  0.066108349  0.066699525            2 
 1015000    1.0933064   -4.1604699    804.89038  0.066082954  0.066689136            2 
 1016000    1.0785399   -4.1657274    806.21111  0.066126239  0.066678266            3 
 1017000     1.081493   -4.1977878    804.37973  0.065911154  0.066667828            4 
 1018000    1.1263705   -4.1551187    807.74863  0.066122187  0.066657203            2 
 1019000     1.069991   -4.1726098      812.173   0.06641912  0.066646618            3 
 1020000    1.0906362   -4.1662089    807.16877  0.065945161  0.066636971            2 
 1021000    1.0830314    -4.162123    808.70264  0.066005765  0.066626474            2 
 1022000    1.0574156   -4.1417249    809.38378   0.06599672  0.066615457            2 
 1023000    1.0877262   -4.1785857    813.00685  0.066227342  0.066604832            1 
 1024000    1.0754658   -4.1410178    810.79048  0.065982298  0.066594682            1 
 1025000    1.0861546   -4.1516359    812.04237  0.066019705  0.066584158            2 
 1026000    1.0871882   -4.1669686    815.71129  0.066253354  0.066573972            2 
 1027000    1.0828524   -4.1996535    811.93791  0.065882661  0.066563664            1 
 1028000    1.0764212    -4.188195    815.54141  0.066110685  0.066553115            3 
 1029000    1.1130408   -4.1575144    815.09354  0.066010167  0.066543108            2 
 1030000    1.1153468   -4.1586466    813.19826  0.065792739  0.066532499            1 
 1031000    1.0665368   -4.1585207    816.60919  0.066004623  0.066522073            4 
 1032000    1.0904596   -4.1813983    820.55529  0.066259309  0.066512147            2 
 1033000    1.0813901   -4.1746716    822.36477   0.06634114  0.066501891            3 
 1034000    1.0777121   -4.1715558    820.26185  0.066107499  0.066492181            7 
 1035000    1.0947671   -4.1658048    822.20285  0.066199907  0.066482323            4 
 1036000    1.0825754   -4.1579374    820.18809  0.065973945  0.066472323            3 
 1037000    1.0987503   -4.1808513    819.04761  0.065818676  0.066461744            2 
 1038000    1.0876334   -4.1606996    824.11869  0.066162387  0.066451235            4 
 1039000    1.0817972   -4.1739526    821.48118  0.065887165   0.06644105            2 
 1040000    1.1178292   -4.1771404    820.72617  0.065763315  0.066430833            2 
 1041000    1.0823022   -4.1933925    821.38359  0.065752769  0.066420543            4 
 1042000    1.0972034   -4.1695762    825.73419  0.066037603  0.066410567            3 
 1043000    1.1023393   -4.1373438    823.07698  0.065761983  0.066400592            2 
 1044000    1.0809875   -4.1778875    823.82632  0.065758806  0.066391233            1 
 1045000    1.0767585   -4.2198275    821.86137  0.065539184  0.066380954            2 
 1046000    1.0856511   -4.1799257    829.01702  0.066046608  0.066370803            2 
 1047000    1.0621478   -4.1996256     823.8429  0.065571705  0.066360675            1 
 1048000    1.0497232   -4.1583202    828.59786  0.065887234  0.066349884            4 
 1049000    1.0789642   -4.2027081     823.9451  0.065454806  0.066339338            3 
 1050000    1.0862688   -4.1724412    828.48849  0.065753055  0.066329004            2 
 1051000    1.0849179   -4.1876285    827.04499  0.065576038  0.066318018            3 
 1052000    1.0981395   -4.1593443    828.68522  0.065643632   0.06630695            3 
 1053000    1.1003592   -4.1806389    828.96981  0.065603816  0.066295535            2 
 1054000    1.0889528   -4.1478463    832.88416  0.065851057  0.066284132            2 
 1055000    1.0840867    -4.150086      829.405  0.065513823   0.06627304            1 
 1056000    1.0846356    -4.184725    826.00668  0.065183608  0.066261695            1 
 1057000    1.0785347   -4.1906672    833.94512  0.065747802  0.066250532            3 
 1058000    1.0648912   -4.1679756    835.22133  0.065786179  0.066239557            3 
 1059000    1.0645264   -4.1969664    830.18298  0.065327587  0.066228381            3 
 1060000    1.0792564   -4.1551944    837.17164   0.06581538  0.066217279            3 
 1061000    1.0617283   -4.1746492    837.75065  0.065798826  0.066206911            3 
 1062000    1.0901578   -4.1849472    835.50513  0.065560666  0.066195727            2 
 1063000    1.0930971   -4.1550306    837.85305  0.065683055  0.066184795            2 
 1064000    1.0661529   -4.1388617     838.4163  0.065665437  0.066173816            2 
 1065000    1.0729407   -4.1764289    836.23875  0.065433392  0.066162689            2 
 1066000    1.0760884   -4.2128058    834.48176  0.065234659  0.066151486            5 
 1067000    1.0590277   -4.1588168    838.26793  0.065469223  0.066139879            3 
 1068000    1.0924158    -4.174542    839.13808  0.065475818  0.066128191            2 
 1069000    1.0681366   -4.1701865    844.52407   0.06583443   0.06611711            2 
 1070000    1.0813736   -4.1286156    843.75169  0.065712748  0.066106153            2 
 1071000    1.0847009   -4.1846472    842.51707  0.065555327   0.06609439            6 
 1072000    1.0622361   -4.2098185    840.07213  0.065304114   0.06608214            3 
 1073000    1.0788483   -4.1550421    842.77937  0.065453508  0.066069701            5 
 1074000    1.0931645    -4.170707    839.72076  0.065155242   0.06605774            2 
 1075000     1.058246   -4.1804679    844.05065  0.065430283  0.066045809            2 
 1076000     1.067297   -4.2002617    844.82533  0.065429471  0.066033701            4 
 1077000    1.0833188   -4.1439764    845.78949  0.065443321  0.066022184            3 
 1078000    1.0809832   -4.2029525    841.26983  0.065033227  0.066010021            1 
 1079000    1.0708153   -4.1679923    844.78242   0.06524424  0.065997963            5 
 1080000    1.0567311   -4.1761386    843.22335   0.06506353  0.065985729            6 
 1081000     1.058794   -4.1773991    845.23773  0.065158629  0.065973328            2 
 1082000    1.0734328   -4.1621574    846.73708  0.065213885  0.065960725            1 
 1083000    1.0935693   -4.1765217    845.88262  0.065087921  0.065948293            2 
 1084000    1.0680262   -4.1641991     846.1162  0.065045833  0.065935474            3 
 1085000    1.0694868   -4.2263025    847.22305  0.065070895  0.065923257            1 
 1086000    1.1024881   -4.2124603    844.73871  0.064820343  0.065910681            4 
 1087000    1.0629789     -4.15946    849.35202  0.065114384  0.065898077            3 
 1088000    1.1022279   -4.1828486    850.71089  0.065158616  0.065885607            3 
 1089000    1.0659158   -4.1702225    851.01379  0.065121961  0.065873087            2 
 1090000    1.0657222   -4.1860932    850.68332  0.065036951  0.065860545            5 
 1091000    1.0783377   -4.1500799       851.77  0.065060342  0.065848231            2 
 1092000    1.0740041   -4.1951045    853.74486   0.06515147  0.065835367            1 
 1093000    1.0532582   -4.2011033    851.82511  0.064945494  0.065823316            5 
 1094000     1.085228   -4.1782298     855.0561  0.065132244  0.065811493            4 
 1095000    1.0609419   -4.1816202    854.02343  0.064994172  0.065799892            1 
 1096000    1.0640603   -4.1725968    851.27557  0.064725941  0.065787603            6 
 1097000    1.0752346   -4.1699778    857.33413  0.065127175  0.065775896            2 
 1098000     1.062597   -4.1920854    859.09146  0.065201234  0.065763991            1 
 1099000    1.0789757   -4.1886216    858.14514   0.06507015  0.065751421            3 
 1100000    1.0489486   -4.2097323    855.74855  0.064829436   0.06573888            5 
 1101000     1.067373   -4.1906989    858.89051  0.065008364   0.06572632            1 
 1102000     1.082642   -4.1694268    861.95547  0.065181146  0.065713677            3 
 1103000    1.0523325   -4.1423774    860.46156  0.065009184  0.065701139            3 
 1104000    1.0671119   -4.1650985     862.8202  0.065128336  0.065688889            1 
 1105000    1.0698739   -4.1655119    860.00352  0.064856977  0.065676853            3 
 1106000      1.06769   -4.1891476    861.00737  0.064873973  0.065664852            5 
 1107000    1.1073846   -4.1887611    864.77164  0.065098738  0.065653121            4 
 1108000    1.0933679   -4.2016898    863.07376  0.064912286   0.06564091            3 
 1109000    1.0718491   -4.1850489    861.27354   0.06471848  0.065629196            2 
 1110000    1.0889937   -4.1703389    867.54428  0.065130952  0.065616908            2 
 1111000    1.0717866   -4.1700259    867.02675  0.065033509  0.065605157            2 
 1112000    1.0920224    -4.166326    870.21339  0.065213833  0.065593308            1 
 1113000    1.1022662   -4.1781569    863.32449   0.06463945  0.065581494            2 
 1114000    1.0732763   -4.1581103    866.54205  0.064822116  0.065569493            3 
 1115000    1.1129955   -4.2018542    865.35881  0.064675546  0.065557402            5 
 1116000    1.0682284   -4.1905726    869.23515  0.064907045  0.065545216            2 
 1117000    1.0746746   -4.2050691    870.51026  0.064944066  0.065533396            3 
 1118000    1.0445948   -4.2037601    868.37994  0.064727187  0.065521711            5 
 1119000    1.0485219   -4.2020632    870.93138  0.064859352  0.065510046            3 
 1120000    1.0711408   -4.2195871    869.62093  0.064703938  0.065498323            2 
 1121000    1.0975157   -4.1785512    871.28149  0.064769662  0.065486172            3 
 1122000    1.0571531   -4.2135707     872.9729  0.064837559  0.065474086            2 
 1123000    1.0653338   -4.1917109    874.01638  0.064857256  0.065461754            1 
 1124000     1.086171    -4.223982    871.66748  0.064625407  0.065449339            2 
 1125000    1.0891091   -4.2498328    868.56308  0.064338006  0.065437352            5 
 1126000    1.0787376   -4.2102531    875.93429  0.064826398   0.06542517            4 
 1127000    1.0898805   -4.1968318    876.61655  0.064819325  0.065413585            3 
 1128000    1.0646367   -4.2148273    871.96441  0.064418175  0.065401683            1 
 1129000    1.0919543   -4.2159997    877.22893    0.0647497  0.065389747            4 
 1130000    1.0800787   -4.1901284    879.38354  0.064851294   0.06537775            5 
 1131000    1.0818717   -4.2034265    877.20171  0.064633194  0.065366019            2 
 1132000    1.0705475   -4.1843549    876.91775  0.064555193  0.065354227            6 
 1133000    1.0823166   -4.1880103    879.97408  0.064723013  0.065341853            2 
 1134000    1.0512452    -4.184576    881.07045  0.064746505   0.06533001            3 
 1135000     1.086096   -4.2333098    877.39963  0.064419943  0.065317642            2 
 1136000     1.049781   -4.1775843    886.22929  0.065010951  0.065305891            3 
 1137000    1.0729174   -4.1770561    885.36972  0.064890774  0.065294273            3 
 1138000    1.0416815    -4.207448    882.82206  0.064647193  0.065282444            6 
 1139000    1.0447072    -4.186415     884.1625  0.064688506  0.065270815            6 
 1140000    1.0581688   -4.2217006    881.89028  0.064465664  0.065259163            1 
 1141000    1.0842352   -4.1703714    886.15227   0.06472044   0.06524741            2 
 1142000    1.0668456   -4.1982885    884.19474  0.064520924  0.065235656            3 
 1143000     1.073862   -4.1890316    882.79298  0.064362276  0.065224202            3 
 1144000    1.0721197   -4.1971679    887.27009  0.064632145  0.065212155            5 
 1145000    1.0492017   -4.1974846     888.8568  0.064691179  0.065201038            2 
 1146000    1.0789208   -4.1756597    888.86711  0.064635479  0.065189408            4 
 1147000    1.0626386   -4.1968203    888.36218  0.064542443  0.065177816            3 
 1148000     1.053648   -4.2141122    890.21033  0.064620378  0.065166152            4 
 1149000    1.0798057   -4.1649564    890.14919  0.064559703  0.065154579            2 
 1150000    1.0416826   -4.2241665    889.39768  0.064449107   0.06514262            1 
 1151000    1.0577386   -4.2025169    889.52812  0.064402557  0.065130444            2 
 1152000    1.0566452   -4.1937978    888.75842  0.064290974  0.065118764            2 
 1153000    1.1008552   -4.2047119    887.91856  0.064174513  0.065107095            3 
 1154000    1.0715987   -4.2189009    891.85042  0.064402832  0.065095184            2 
 1155000    1.0609611   -4.2027763    890.75176  0.064267804  0.065083425            2 
 1156000    1.0333708   -4.1927897    896.42538  0.064621207  0.065071527            6 
 1157000    1.0698251   -4.2146513    895.17409  0.064475229  0.065059658            2 
 1158000    1.0741606   -4.2064749    896.88186  0.064542448  0.065047684            3 
 1159000    1.0506229   -4.1962021    894.60425  0.064322998  0.065036363            2 
 1160000    1.0510282   -4.2119375    896.85348  0.064429129   0.06502439            3 
 1161000    1.0499546   -4.1842481    900.20329  0.064614075  0.065013025            3 
 1162000    1.0731211    -4.227265     898.9806  0.064470783  0.065001821           14 
 1163000    1.0706973   -4.2014356    896.19314  0.064215616  0.064990404            3 
 1164000    1.0582819   -4.2015926      898.702  0.064340063  0.064978711            3 
 1165000    1.0719296   -4.1711693    902.50309   0.06455673  0.064967461            2 
 1166000    1.0760355   -4.1911744    903.15966  0.064548289  0.064955592            2 
 1167000    1.0840995   -4.1781299    900.20095  0.064281701  0.064943914            2 
 1168000    1.0726971   -4.2104271    900.94774  0.064279947  0.064932001            2 
 1169000    1.0668768   -4.1868043    903.24114  0.064388447  0.064920452            3 
 1170000    1.0615933    -4.183295     903.5968  0.064358746  0.064908641            3 
 1171000      1.07404   -4.2111451    901.62172  0.064163231   0.06489659            5 
 1172000    1.0677603    -4.197016    901.54932  0.064103336  0.064884648            1 
 1173000    1.0575799   -4.2447717    902.41526  0.064110206  0.064872398            5 
 1174000    1.0492769   -4.2018753    904.72481  0.064219535  0.064860603            3 
 1175000    1.0669085   -4.2007954    903.73803  0.064094896  0.064848336            2 
 1176000    1.0727384    -4.230266    903.55759  0.064027607  0.064835566            3 
 1177000    1.0503532   -4.2040643    905.02264  0.064076936  0.064822788            2 
 1178000    1.0642403   -4.2073708    905.96971  0.064089538  0.064810597            3 
 1179000    1.0778638   -4.2136391    905.24314  0.063983824  0.064798421            3 
 1180000    1.0402621   -4.2028611     906.9249  0.064048369  0.064785775            4 
 1181000    1.0834396   -4.1731487    906.89509  0.063992033  0.064773693            2 
 1182000    1.0570019   -4.2162983    907.45661  0.063977483  0.064761575            1 
 1183000    1.0515638   -4.2369587    908.32587  0.063984635  0.064749364            1 
 1184000    1.0726087   -4.1907837     909.0103  0.063978766  0.064737455            2 
 1185000     1.077529   -4.1891248    911.76772  0.064118686  0.064725691            2 
 1186000    1.0605933   -4.2265913    910.28018  0.063960103  0.064713909            3 
 1187000    1.0619285   -4.2433502     911.4863  0.063990895  0.064701937            1 
 1188000    1.0405295   -4.1989382    915.64394  0.064228672  0.064690148            4 
 1189000    1.0564746   -4.2273118    917.01629  0.064270836   0.06467869            2 
 1190000    1.0537122   -4.2208221      917.965  0.064283264  0.064666899            2 
 1191000    1.0600071    -4.208275     915.7805  0.064076442  0.064656203            1 
 1192000    1.0428869   -4.1974879    918.61029  0.064220518   0.06464509            2 
 1193000    1.0605693   -4.2238922    917.29771  0.064075001  0.064633808            1 
 1194000     1.049322   -4.2120852    917.26002  0.064018706  0.064622323            7 
 1195000    1.0363749   -4.2175567    917.98378  0.064015606  0.064610953            4 
 1196000    1.0430865   -4.2094066    918.69482  0.064011623  0.064599524            5 
 1197000    1.0803441   -4.2058449     922.0776  0.064193651  0.064587828            2 
 1198000    1.0619158   -4.2033165    918.14469  0.063866492  0.064576211            2 
 1199000    1.0774336   -4.2354203    918.15509  0.063813949  0.064564409            5 
 1200000    1.0684917   -4.2132098     920.6962  0.063937236  0.064552259            2 
 1201000    1.0825089   -4.2306696    919.96092  0.063832981  0.064539878            2 
 1202000    1.0554616    -4.240555    917.70224  0.063623283  0.064527822            3 
 1203000    1.0560929   -4.2021823    923.03518  0.063939815  0.064515923            3 
 1204000    1.0891745   -4.2299212    924.30372   0.06397451  0.064503812            4 
 1205000    1.0589543   -4.2055847    924.76088  0.063953034  0.064491618            7 
 1206000    1.0578095   -4.1927011    928.53938  0.064161096  0.064479788            1 
 1207000    1.0603201   -4.2604254    922.50341  0.063691205  0.064468139            5 
 1208000    1.0786161   -4.2357075    924.42526  0.063771058  0.064456436            2 
 1209000    1.0664016   -4.2126065    926.83948  0.063884717   0.06444503            2 
 1210000    1.0694846   -4.2037625    929.06461  0.063985166  0.064433529            1 
 1211000    1.0776589   -4.1979467    929.70153  0.063976158  0.064422249            3 
 1212000    1.0624866   -4.2217339    928.29615  0.063826743  0.064410974            6 
 1213000    1.0665634   -4.2429288    927.47114  0.063717446  0.064399725            2 
 1214000    1.0287259   -4.2239995    932.86714  0.064035361  0.064388685            2 
 1215000    1.0562475   -4.2397479    930.48904   0.06381955  0.064377727            2 
 1216000    1.0526134   -4.1968491    936.38201  0.064170916  0.064366576            3 
 1217000    1.0740226   -4.2145597    933.93838  0.063950861  0.064355838            9 
 1218000    1.0751409   -4.2089229    933.34218  0.063857566  0.064344534            6 
 1219000    1.0657332   -4.2249342     931.2852  0.063664561  0.064333182            3 
 1220000    1.0570964   -4.2235496    932.51922  0.063696668  0.064321575            3 
 1221000    1.0755275   -4.2130109    933.41562   0.06370568  0.064309708            7 
 1222000     1.044883   -4.2015431     936.4259  0.063858831   0.06429809            3 
 1223000    1.0857727   -4.2383476    933.25621  0.063590639  0.064286217            3 
 1224000    1.0617348   -4.2148643    931.89278  0.063445859  0.064274675            3 
 1225000    1.0449849   -4.2434683    935.43112   0.06363477  0.064262545            5 
 1226000    1.0521892   -4.1953303    939.27273  0.063843986  0.064251003            1 
 1227000    1.0586738    -4.207384    938.40334  0.063732908  0.064239382            3 
 1228000    1.0709758   -4.2167984    934.25004  0.063399161  0.064227409            5 
 1229000    1.0778142   -4.2409446    937.81308   0.06358917  0.064215466            2 
 1230000    1.0395932    -4.216992    938.65464  0.063594488   0.06420389            1 
 1231000    1.0559722   -4.2286276    933.57902   0.06319923  0.064191767            3 
 1232000    1.0462556   -4.2063081    938.31673  0.063468393  0.064179603            2 
 1233000      1.05976   -4.2059475    938.50339  0.063429534  0.064167482            4 
 1234000    1.0600901   -4.2454216    938.06498  0.063348526  0.064155525            2 
 1235000    1.0571918   -4.2344639    942.08969  0.063568805   0.06414332            4 
 1236000    1.0569305   -4.2302398    941.41262  0.063471725  0.064131409            3 
 1237000    1.0730816   -4.2006962    945.26163  0.063679711  0.064119841            5 
 1238000     1.051675   -4.2207236    946.98327  0.063744162  0.064108356            3 
 1239000    1.0587569   -4.2190443    944.19471  0.063505159  0.064096209            4 
 1240000     1.060705   -4.1997636    946.12786  0.063583862  0.064084385            2 
 1241000    1.0640393   -4.2362193    943.96331  0.063387275  0.064072479            3 
 1242000    1.0389496   -4.2596311    940.83672  0.063126457  0.064060468            3 
 1243000    1.0836404   -4.2145852    945.98787  0.063421015  0.064048825            3 
 1244000    1.0564684   -4.2123774    947.87037   0.06349614  0.064037185            2 
 1245000     1.057858   -4.2519624    943.59589  0.063159029  0.064025331            3 
 1246000    1.0460115   -4.2246749      948.947  0.063466225  0.064013393            2 
 1247000    1.0529254   -4.2240261    950.24968  0.063502385  0.064002053            4 
 1248000    1.0335415   -4.2206071    950.03825  0.063437383  0.063990611            3 
 1249000    1.0725443   -4.2215717    948.93975    0.0633133  0.063979109            4 
 1250000    1.0728669   -4.2422289    947.80193  0.063186795  0.063967181            3 
 1251000    1.0469158   -4.2608717    947.96549  0.063147181  0.063955308            3 
 1252000    1.0362145   -4.2001375    952.92141  0.063426611  0.063943241            3 
 1253000    1.0730643   -4.2373053    949.75852  0.063165637   0.06393125            4 
 1254000    1.0213014   -4.2324754    948.85739  0.063055382  0.063919046            6 
 1255000      1.06238   -4.2433059    950.52274   0.06311572  0.063906859            3 
 1256000     1.059021   -4.2344359    952.08856  0.063169357  0.063894734            2 
 1257000    1.0424317   -4.2465148    953.20482  0.063193106  0.063882353            2 
 1258000    1.0398108   -4.2491405    955.57643  0.063299975  0.063870524            4 
 1259000    1.0376347   -4.1973603    959.95268  0.063539362  0.063858826            2 
 1260000    1.0415065   -4.2136024    957.45001  0.063323414  0.063847272            1 
 1261000    1.0450527    -4.207149    956.93219  0.063238976  0.063835704            2 
 1262000    1.0529645   -4.2009269    959.69592  0.063371363  0.063823906            2 
 1263000    1.0576785   -4.2422682     955.9967  0.063077112  0.063811129            5 
 1264000    1.0468717   -4.2652547    954.29808  0.062915221  0.063798564            2 
 1265000    1.0560138   -4.2522583    957.49419  0.063076034  0.063786043            2 
 1266000     1.045414    -4.222795    956.67813  0.062972494  0.063773559            3 
 1267000    1.0524052   -4.2320812    957.40003  0.062970273  0.063760641            1 
 1268000    1.0391287   -4.2281287    960.91628  0.063151701  0.063748132            2 
 1269000    1.0294843   -4.2584427    958.82834  0.062964824  0.063735708            2 
 1270000     1.028313   -4.2165493    956.67114  0.062773697  0.063723024            5 
 1271000     1.030703   -4.2498156    960.03321  0.062944742  0.063710541            2 
 1272000    1.0482961   -4.2600659    958.59741  0.062801193  0.063698039            3 
 1273000    1.0280022   -4.2277049    962.67198   0.06301859   0.06368538            3 
 1274000    1.0301072   -4.2508252    961.39558  0.062885634  0.063672907            6 
 1275000    1.0408951   -4.2228666    961.53512  0.062845433  0.063660208            2 
 1276000    1.0274986    -4.197884    965.03045  0.063024455  0.063648021            2 
 1277000    1.0576217   -4.2404649     964.0457  0.062910839  0.063635275            3 
 1278000    1.0365119   -4.2358682    965.93417  0.062984753  0.063622176            6 
 1279000    1.0306443   -4.2628796    961.36552  0.062637837  0.063609312            2 
 1280000    1.0575312   -4.2374655    965.24838  0.062841692  0.063596072            2 
 1281000    1.0418541   -4.2392513    965.14685   0.06278603   0.06358317            3 
 1282000    1.0537919   -4.2348213    969.46424  0.063017697  0.063570288            2 
 1283000    1.0291549   -4.2170315    967.18038  0.062820238    0.0635574            4 
 1284000    1.0301337   -4.2377884    968.28088  0.062842736  0.063544789            3 
 1285000    1.0456781   -4.2696753    964.55346  0.062552105  0.063531596            3 
 1286000    1.0590596   -4.2396081    969.59812   0.06283036  0.063518776            3 
 1287000    1.0397897    -4.223838      968.663  0.062720992   0.06350626            4 
 1288000    1.0422885   -4.2309781     969.1552  0.062704141  0.063493466            3 
 1289000    1.0578568   -4.2053992    970.78954  0.062761154  0.063480612            3 
 1290000    1.0489099   -4.2638294     968.8665  0.062588275  0.063467824            3 
 1291000    1.0494801    -4.243012    968.97824  0.062547007  0.063454939            2 
 1292000    1.0581658   -4.2375128    978.24761  0.063096466  0.063442353            2 
 1293000    1.0394291   -4.2089276    973.45273  0.062738639  0.063429986            3 
 1294000    1.0292009   -4.2417352    972.42411  0.062623912   0.06341716            2 
 1295000    1.0456428   -4.2353696     975.2256   0.06275583   0.06340476            2 
 1296000    1.0496989   -4.2270566    972.97917  0.062562961  0.063392463            3 
 1297000     1.071441   -4.2392325    973.74326  0.062563818  0.063379256            2 
 1298000    1.0639427   -4.2574961    972.95775  0.062465187   0.06336609            2 
 1299000    1.0351872   -4.2448978    973.67016  0.062462802  0.063353132            4 
 1300000    1.0540747   -4.2311401    976.99647  0.062627979  0.063340391            4 
 1301000    1.0434174    -4.262702    974.92407  0.062447096  0.063327642            1 
 1302000    1.0475258   -4.2556127    976.17087  0.062478934  0.063314669            3 
 1303000    1.0557238   -4.2224247    980.21124  0.062689386  0.063301605            2 
 1304000    1.0293833   -4.2355914    973.91682   0.06223906  0.063288446            1 
 1305000    1.0537512   -4.2320098    979.62597  0.062555937  0.063275627            3 
 1306000    1.0390055   -4.2677319    975.29122  0.062231446   0.06326217            5 
 1307000    1.0165404   -4.2401304     976.5238  0.062262421  0.063248493            2 
 1308000    1.0513214   -4.2537511    980.09707  0.062442474  0.063234713            3 
 1309000    1.0199011   -4.2360276    982.54439  0.062550573  0.063220688            3 
 1310000    1.0340942   -4.2465879    981.34939  0.062426806  0.063207378            2 
 1311000    1.0409772    -4.240404    982.22472  0.062434829  0.063193737            5 
 1312000    1.0205244   -4.2454144     980.7322  0.062292442  0.063180539            2 
 1313000    1.0264703   -4.2459673    982.03701  0.062327812  0.063167367            6 
 1314000    1.0305283   -4.2210322    985.64004  0.062508881  0.063154206            2 
 1315000    1.0271183   -4.2308255    983.19225  0.062306226  0.063140868            3 
 1316000    1.0400538   -4.2518879    983.76959   0.06229544  0.063127583            1 
 1317000    1.0470329   -4.2207436    984.52642  0.062296027  0.063114256            4 
 1318000    1.0466254   -4.2544949    983.62823  0.062191972  0.063100922            3 
 1319000    1.0308737   -4.2580335     983.2576  0.062121405  0.063087335            3 
 1320000     1.051592   -4.2610927    983.90373  0.062115134  0.063073673            2 
 1321000    1.0174528   -4.2495362    984.60276  0.062112211  0.063060004            3 
 1322000    1.0201321   -4.2422843     987.4193   0.06224277   0.06304638            3 
 1323000    1.0132429   -4.2099223    991.06845  0.062425576  0.063033278            8 
 1324000    1.0545165   -4.2169437      992.894  0.062493328  0.063020264            4 
 1325000    1.0365816   -4.2718259    984.23163  0.061901361  0.063007135            3 
 1326000    1.0370662   -4.2376378    990.92916  0.062275588  0.062994004            4 
 1327000    1.0430168   -4.2482927    989.85234  0.062161036  0.062980976            2 
 1328000    1.0300014   -4.2705845    991.23661  0.062201092  0.062967844            3 
 1329000    1.0631096   -4.2615261    989.71187  0.062058683  0.062954633            2 
 1330000    1.0621231   -4.2074387    994.93887  0.062339528  0.062941668            3 
 1331000    1.0024919   -4.2694378     991.2887  0.062064156  0.062928549            3 
 1332000    1.0408541    -4.258958    992.71847  0.062107012  0.062915469            1 
 1333000    1.0197703   -4.2483712    993.87377  0.062132644  0.062902206            3 
 1334000    1.0189697   -4.2327053    993.75729  0.062078791  0.062889011            3 
 1335000     1.030218   -4.2604581    994.08031  0.062052454  0.062875967            4 
 1336000    1.0486609   -4.2737207    991.71585  0.061858523  0.062862473            3 
 1337000    1.0423845   -4.2214907    995.10318  0.062023385  0.062849201            3 
 1338000    1.0358574   -4.2766745    996.04082  0.062035427  0.062836145            5 
 1339000    1.0236203   -4.2322503    997.30757  0.062067934  0.062822844            4 
 1340000    1.0183827   -4.2634362    996.73455  0.061985979  0.062810233            3 
 1341000    1.0257482   -4.2534391    996.15527  0.061903758   0.06279688            4 
 1342000    1.0555529    -4.270098    1001.3584  0.062180723  0.062783407            3 
 1343000    1.0320159   -4.2590139    1000.8081  0.062100281  0.062770066            3 
 1344000    1.0275743   -4.2341455    1000.4681   0.06203299  0.062756769            4 
 1345000    1.0275537   -4.2535118    1000.7441  0.062003974  0.062743633           10 
 1346000    1.0295897   -4.2539828    996.99513    0.0617258  0.062730256            6 
 1347000    1.0410874   -4.2245744    999.53598  0.061837168   0.06271702            3 
 1348000    1.0497696   -4.2836981    1001.7861  0.061930399  0.062703493            4 
 1349000    1.0437386   -4.2484138    998.85909  0.061703675   0.06268978            3 
 1350000    1.0535517   -4.2728245    1002.5146  0.061883617  0.062676367            3 
 1351000    1.0605812   -4.2920681    1002.0161  0.061807063  0.062662944            3 
 1352000    1.0238137   -4.2564017    1001.5246  0.061731051  0.062649681            3 
 1353000    1.0376716   -4.2423958    999.50587  0.061561091   0.06263637            3 
 1354000    1.0311889   -4.2747416    999.42884  0.061510884  0.062623144            2 
 1355000    1.0319828   -4.2207392     1008.012  0.061993355  0.062609964            2 
 1356000    1.0167747   -4.2598805    1003.2456  0.061654717  0.062597135            4 
 1357000    1.0291222   -4.2936733    1003.4145  0.061619657  0.062583775            3 
 1358000    1.0399307   -4.2456321    1006.8663  0.061786102  0.062570679            3 
 1359000        1.029    -4.260427    1005.4141  0.061651589   0.06255777            2 
 1360000    1.0495811   -4.2581372    1006.8116  0.061691885  0.062544513            2 
 1361000    1.0170569   -4.2665274    1009.6064  0.061817685  0.062531339            4 
 1362000    1.0492024   -4.2374722     1011.652  0.061897456  0.062518371            2 
 1363000    1.0357208   -4.2256989    1009.8472  0.061741699  0.062505323            2 
 1364000    1.0283304   -4.2370865    1012.5151  0.061859427  0.062492042            4 
 1365000    1.0259793   -4.2304065    1013.6039  0.061880582  0.062478704            3 
 1366000    1.0425828   -4.2422894    1012.1443  0.061746233  0.062465609            4 
 1367000    1.0461092   -4.2504874    1012.7707  0.061739254   0.06245223            2 
 1368000    1.0328612    -4.254764    1009.5785  0.061499663  0.062439221            3 
 1369000    1.0458734   -4.2461059    1010.0147  0.061481295  0.062425618            5 
 1370000    1.0374716   -4.2427999    1013.9442  0.061675438  0.062412101            4 
 1371000    1.0074039   -4.2859797    1007.9588  0.061266644  0.062398126            2 
 1372000    1.0243328   -4.2331933    1010.8717   0.06139891  0.062384372            4 
 1373000    1.0472019   -4.2802299    1010.6876  0.061343021  0.062370228            2 
 1374000    1.0281495   -4.2586508     1014.595   0.06153536   0.06235632            3 
 1375000    1.0379469   -4.2691021    1010.4076  0.061236825  0.062341855            6 
 1376000    1.0515358   -4.2538487    1013.1404  0.061357823  0.062328096            2 
 1377000    1.0346727   -4.2065312    1016.7499  0.061531704  0.062314571            2 
 1378000    1.0428319   -4.2793257    1011.2371  0.061153669  0.062300658            2 
 1379000    1.0382216   -4.2493542    1018.8632  0.061570169  0.062287182            1 
 1380000    1.0155871    -4.268008    1015.7272  0.061336181  0.062273592            4 
 1381000    1.0611483   -4.2750281    1016.1287  0.061315997  0.062259839           11 
 1382000    1.0422807   -4.2829816    1018.7515   0.06142978  0.062246586            1 
 1383000     1.024346   -4.2908375    1016.4952  0.061249412  0.062233347            5 
 1384000    1.0183135   -4.2610653    1019.5746   0.06139057   0.06222014            3 
 1385000    1.0193063   -4.2617858    1023.0789  0.061557092  0.062207138            4 
 1386000    1.0304859   -4.2715902    1018.9921  0.061266959  0.062194025            5 
 1387000     1.036841   -4.2739137    1025.1746  0.061594244  0.062180987            2 
 1388000   0.99696886   -4.2367103    1022.8428  0.061409872  0.062167953            3 
 1389000    1.0135631   -4.2519849    1024.3815  0.061457976  0.062154984            2 
 1390000    1.0443535   -4.2717435    1025.1385  0.061459143  0.062142219            3 
 1391000    1.0338373   -4.2894751    1025.0626  0.061410413  0.062129126            3 
 1392000    1.0232015   -4.2618325     1026.742  0.061466832   0.06211568            5 
 1393000    1.0373881   -4.2807007    1027.8024  0.061486148   0.06210277            3 
 1394000    1.0512943   -4.2377053    1027.2399   0.06140841  0.062089822            4 
 1395000    1.0117465   -4.2463136    1028.2773  0.061426364  0.062076846            4 
 1396000    1.0286341   -4.2767863     1024.971  0.061184993  0.062063386            5 
 1397000    1.0059261   -4.2353863    1026.6923  0.061243872  0.062050166            2 
 1398000    1.0386538   -4.2678342    1030.6267  0.061434588  0.062037231            3 
 1399000    1.0489709   -4.2458595    1031.9291  0.061468256  0.062024032            4 
 1400000    1.0428023   -4.2640005    1026.8411  0.061121492  0.062011256            2 
 1401000     1.030936   -4.2648417    1026.8194  0.061076578  0.061998045            9 
 1402000    1.0058707   -4.2755905    1029.4735  0.061190767  0.061984601            3 
 1403000    1.0241697   -4.2817751    1030.5087   0.06120864   0.06197122            3 
 1404000    1.0134778   -4.2769939    1026.3374  0.060917465  0.061957868            2 
 1405000    1.0336168   -4.2590563    1031.6343  0.061188274  0.061944377            4 
 1406000    1.0257381   -4.2549652    1033.9283   0.06128072  0.061931248            5 
 1407000    1.0126844   -4.2582057    1034.4673   0.06126909  0.061917754            4 
 1408000    1.0436591   -4.2783648    1034.4164  0.061222564  0.061904248            2 
 1409000    1.0324732   -4.2915535    1030.7822  0.060964168  0.061890656            5 
 1410000    1.0158321   -4.2323813    1030.0174  0.060875735  0.061877147            1 
 1411000    1.0237759   -4.2660257    1031.9896  0.060949067  0.061863919            4 
 1412000    1.0324482   -4.2723927    1035.4007  0.061107216  0.061850248            3 
 1413000    1.0069257   -4.2427828    1037.1584  0.061167635  0.061837047            5 
 1414000    1.0137646   -4.2769489    1036.2984  0.061073689  0.061824241            3 
 1415000   0.99059457   -4.2649803    1036.0757  0.061017413   0.06181143            3 
 1416000    1.0252718   -4.2895858    1035.7832  0.060957109  0.061798573            5 
 1417000    1.0102058   -4.2751927    1040.6322   0.06119926  0.061785718            3 
 1418000    1.0220235   -4.2845487    1038.0288  0.061003103  0.061772797            4 
 1419000     1.029677   -4.2683959    1039.1645  0.061026809  0.061759586            3 
 1420000    1.0050648   -4.2794154    1040.1263  0.061040277  0.061746643            5 
 1421000    1.0522098   -4.2649506    1041.3885  0.061071342   0.06173395            3 
 1422000    1.0386362   -4.2723929    1040.7404  0.060990415  0.061720962            2 
 1423000    1.0470797   -4.2548134    1041.1184  0.060969688  0.061708032            4 
 1424000    1.0430451   -4.2387561    1042.2992  0.060995974  0.061694974            2 
 1425000    1.0185491   -4.2668314    1038.4736   0.06072945  0.061682091            3 
 1426000    1.0231565   -4.3007112    1043.3313   0.06097074  0.061669125            3 
 1427000    1.0243804   -4.2794879     1043.691  0.060949018  0.061655659            5 
 1428000    1.0334042   -4.2653321    1048.1504  0.061166573  0.061642887            2 
 1429000    1.0474565   -4.2446387     1048.085  0.061119957  0.061630067            1 
 1430000    1.0019924   -4.2923558     1047.398  0.061037178   0.06161718            3 
 1431000    1.0371148   -4.2904251     1049.132  0.061095506  0.061604115            3 
 1432000   0.98571323    -4.299392    1046.6506   0.06090844  0.061591249            2 
 1433000    1.0176054   -4.2802235    1045.5538  0.060802152  0.061578075            4 
 1434000    1.0119506   -4.2723991    1048.2961  0.060919114  0.061565185            1 
 1435000    1.0225949   -4.2698412    1051.0004  0.061033703  0.061552677            2 
 1436000    1.0206937   -4.2431787    1050.7511  0.060976736  0.061539878            3 
 1437000    1.0199445   -4.2554221    1051.6345  0.060985532  0.061527232            4 
 1438000    1.0136957    -4.281159    1050.6035  0.060883375  0.061514401            3 
 1439000    1.0126414   -4.2530708    1052.8884  0.060973385    0.0615012            2 
 1440000    1.0173109   -4.2732574    1051.2199  0.060834486  0.061488232            2 
 1441000    1.0110293   -4.2738262    1052.2408  0.060851305  0.061475626            3 
 1442000    1.0266249   -4.2621535    1050.0624  0.060683216  0.061462946            7 
 1443000    1.0307093    -4.289002    1047.3054  0.060481945  0.061450107            4 
 1444000    1.0285707    -4.284961    1051.2853  0.060669744  0.061436768            2 
 1445000    1.0048665   -4.2831824    1052.8227   0.06071642   0.06142365            2 
 1446000    1.0348425   -4.2768527    1052.0113  0.060627667  0.061410371            5 
 1447000    1.0204037   -4.2989827    1051.2948  0.060544504  0.061396865            2 
 1448000    1.0315897   -4.2622325    1054.7687  0.060702617  0.061383706            5 
 1449000    1.0184066   -4.2897358    1055.2615  0.060689065  0.061370491            3 
 1450000    1.0274027    -4.292881    1058.4387  0.060829808  0.061357628            3 
 1451000    1.0385859   -4.2858269     1054.667  0.060571273  0.061344221            4 
 1452000    1.0454573   -4.2728126     1057.331  0.060682449  0.061330826            4 
 1453000     1.007449   -4.2809306    1054.7381  0.060491975  0.061317692            6 
 1454000    1.0018383   -4.3038954    1054.8953   0.06045938  0.061304477            6 
 1455000    1.0190116   -4.2823688    1057.1759  0.060548446  0.061291453            3 
 1456000    1.0144958   -4.3110604    1056.7456  0.060482236  0.061278272            3 
 1457000    1.0057027    -4.268589    1059.8519  0.060618386  0.061264893            4 
 1458000    1.0264184   -4.2681782    1056.4112  0.060380157  0.061251801            2 
 1459000   0.99757691   -4.2901444    1059.0261  0.060488128  0.061238758            2 
 1460000   0.99977843   -4.2648238    1057.8914  0.060381927  0.061225469            2 
 1461000   0.99820414   -4.3209508    1057.0462   0.06029239  0.061212014            3 
 1462000    1.0029233   -4.2918935     1060.152  0.060428179  0.061198771            3 
 1463000    1.0337278   -4.2923125    1058.4454  0.060289667  0.061185353            3 
 1464000    1.0068708   -4.2725524    1062.1162  0.060457435  0.061172256            7 
 1465000    1.0303231   -4.2705623    1064.5975  0.060557308  0.061158863            2 
 1466000    1.0025403   -4.2758349     1066.341   0.06061511  0.061145477            1 
 1467000    1.0127784   -4.2847491    1064.3595  0.060461228  0.061132065            2 
 1468000   0.99735441    -4.269538    1060.3761  0.060193919  0.061118754            3 
 1469000    1.0126967   -4.2777437    1061.5084  0.060217175  0.061105193            4 
 1470000    1.0008392   -4.2673703    1060.2329  0.060103905  0.061091562            2 
 1471000    1.0246719   -4.2859644    1062.5966   0.06019695  0.061078106            4 
 1472000    1.0492055   -4.2908948    1063.1322   0.06018638  0.061064305            3 
 1473000    1.0138996   -4.2545021    1067.0313  0.060366105  0.061050608            6 
 1474000    1.0117629   -4.3060509    1063.8223  0.060143729  0.061036803            3 
 1475000    1.0042473   -4.2688447    1068.3948  0.060361291  0.061023331            2 
 1476000   0.99063582   -4.2961669    1060.2113  0.059858364  0.061009478            2 
 1477000   0.99774339   -4.2713761    1067.6695  0.060238629  0.060995708            3 
 1478000    1.0160884   -4.2906585     1064.242  0.060004622  0.060982312            3 
 1479000    1.0398113   -4.2944579     1068.614  0.060210391  0.060969141            2 
 1480000    1.0115544    -4.294989    1070.0825  0.060252396  0.060955825            3 
 1481000    1.0323934   -4.2968036    1066.9559   0.06003578  0.060942481            3 
 1482000    1.0086859   -4.3036731    1067.7583   0.06004039  0.060929116            2 
 1483000    1.0156832   -4.3250027    1068.4389  0.060038147  0.060915681            5 
 1484000    1.0229601   -4.2868252     1069.223  0.060041721  0.060902387            4 
 1485000    1.0308596   -4.2944516    1068.8933   0.05998279  0.060889325            5 
 1486000    1.0144805   -4.3119379     1071.075  0.060064769  0.060876434            3 
 1487000    1.0203647   -4.3084073    1073.1243  0.060139221  0.060863629            2 
 1488000    1.0001525   -4.3032381    1076.4008  0.060282303  0.060850905            8 
 1489000    1.0401936   -4.2819094    1076.6926  0.060258147  0.060838092            3 
 1490000    1.0280591   -4.2866385    1076.2129  0.060190881  0.060825393            3 
 1491000   0.99582013   -4.2739522    1078.5411  0.060280632  0.060812657            5 
 1492000    1.0179512   -4.2962955    1078.1468   0.06021821  0.060799906            9 
 1493000    1.0415378   -4.2755803    1079.1514  0.060233948  0.060787077            2 
 1494000      1.00266   -4.3002504    1078.3911  0.060151222  0.060774227            2 
 1495000    1.0310864   -4.3112488    1079.0405  0.060147187  0.060761566            6 
 1496000     1.004639   -4.3158426     1081.592   0.06024911  0.060748864            5 
 1497000    1.0163676   -4.2952522    1079.6571  0.060101151  0.060736013            6 
 1498000   0.99710693   -4.2641349    1081.1034  0.060141489  0.060723094            1 
 1499000    1.0296481   -4.3019322    1079.1003  0.059990012  0.060710129            1 
 1500000    1.0221866   -4.2802094    1082.4072  0.060133734  0.060697432            2 
 1501000    1.0242443    -4.274885    1085.8215  0.060283226  0.060684807            2 
 1502000    1.0237682   -4.2880107    1084.1721  0.060151583  0.060672445            3 
 1503000    1.0316366   -4.2860948    1082.7396  0.060032133  0.060660234            3 
 1504000    1.0332035    -4.277794    1089.2911  0.060355225  0.060648048            3 
 1505000   0.99383456   -4.2978062    1085.0962  0.060082845  0.060635665            1 
 1506000    1.0127621   -4.3240218    1086.2087  0.060104512  0.060622935            2 
 1507000    1.0138391   -4.3066247    1080.9434  0.059773467  0.060610237            4 
 1508000    1.0137418   -4.2910857    1089.1675  0.060188301  0.060597246            3 
 1509000    0.9992881   -4.2833052    1085.8345  0.059964352  0.060584649            3 
 1510000   0.99443233    -4.295182    1086.4261  0.059957292  0.060571991            2 
 1511000   0.99449975   -4.3240379    1083.4379  0.059752809  0.060559145            2 
 1512000     1.022037   -4.2909036    1082.1371  0.059641594  0.060545799            7 
 1513000   0.97418242    -4.298002    1086.4238  0.059838279  0.060532993            4 
 1514000    1.0130571   -4.2973476    1085.5036  0.059748108  0.060520102            3 
 1515000   0.99627718   -4.3019705    1087.0663  0.059794627  0.060506963            2 
 1516000    1.0198937   -4.3135533    1088.5176   0.05983496  0.060493794            3 
 1517000    1.0107234   -4.3180769    1084.3946  0.059569028  0.060480552            3 
 1518000    1.0118117   -4.3020897     1088.009  0.059728207  0.060467457            3 
 1519000    1.0186631   -4.2814656    1088.1122  0.059694546  0.060454186            2 
 1520000    1.0153294   -4.3239256    1086.6097  0.059572898  0.060440698            3 
 1521000   0.99838518   -4.3121604    1086.5794  0.059532072  0.060427219            3 
 1522000   0.98725451   -4.2986711    1090.9354  0.059731461  0.060414033            6 
 1523000    1.0219673   -4.2827737    1087.2063  0.059488196  0.060401222            3 
 1524000   0.99879495    -4.344864    1086.6891  0.059420883  0.060388205            1 
 1525000    1.0223124   -4.2801483    1091.9947   0.05967184  0.060375005            3 
 1526000    1.0147128   -4.3095418    1094.1524  0.059750569   0.06036209            2 
 1527000    1.0063011   -4.3024558    1094.9598  0.059755498  0.060348773            2 
 1528000   0.97818507   -4.2938713    1089.7128  0.059430233  0.060335778            2 
 1529000   0.99431502   -4.3307678    1093.7297  0.059610297  0.060322651            4 
 1530000    1.0067505   -4.3099961    1093.9223  0.059581823  0.060309463            3 
 1531000     1.016992   -4.3262371    1091.7316  0.059423669  0.060296164            5 
 1532000    1.0229629   -4.2851111    1095.3017  0.059579073  0.060283197            2 
 1533000    1.0045827   -4.3076961    1096.8643   0.05962515  0.060270009            2 
 1534000      1.02022    -4.317992    1094.5419   0.05946012  0.060257048            2 
 1535000   0.99843442   -4.2944363    1101.4312  0.059795395  0.060244499            6 
 1536000    1.0060796   -4.2939471    1100.3224   0.05969631  0.060231693            4 
 1537000    1.0161234   -4.3105271    1098.4198  0.059554314  0.060218349            3 
 1538000    1.0179123   -4.3124551    1098.4661  0.059518104  0.060205136            1 
 1539000    1.0020274    -4.288162     1099.508  0.059535845  0.060191877            4 
 1540000    1.0173211   -4.3231614    1093.3364  0.059163223  0.060178773            1 
 1541000    1.0069109   -4.2779431      1101.64  0.059573871  0.060165551            2 
 1542000   0.99266704   -4.2950293    1101.8784  0.059548119  0.060152606            2 
 1543000    1.0211689   -4.2966658    1104.1982  0.059634814  0.060139677            5 
 1544000   0.99877057   -4.3151953    1100.3883  0.059390561   0.06012662            2 
 1545000    1.0064246    -4.310177    1104.5358  0.059575826  0.060113428            2 
 1546000   0.99281989   -4.3110514    1099.5211  0.059266985  0.060100152            1 
 1547000    1.0013185   -4.3182926    1102.1882  0.059372343  0.060087003            3 
 1548000   0.96990854   -4.3067476    1105.4208  0.059508011  0.060073882            6 
 1549000   0.98713671   -4.3077404    1101.2429  0.059244829  0.060060962            3 
 1550000    1.0062393   -4.3028318    1106.0826  0.059466807  0.060048381            4 
 1551000   0.99492375   -4.2760272    1107.5631  0.059508009  0.060035527            3 
 1552000    1.0018205   -4.3026226    1104.9408  0.059328866  0.060022452            2 
 1553000    1.0052472   -4.3237145     1104.337  0.059258261  0.060009655            2 
 1554000   0.99577024   -4.2942249    1106.7407  0.059349031  0.059996502            3 
 1555000    1.0136971   -4.3157719    1105.1688  0.059226625  0.059983407            6 
 1556000    1.0164355   -4.3014638    1109.3107  0.059410382  0.059970614            3 
 1557000    1.0203445    -4.287946    1111.4731  0.059487966  0.059957741            2 
 1558000      1.00803   -4.3129343    1110.7238  0.059409704  0.059944762            4 
 1559000   0.99976857   -4.3167918    1109.1855  0.059289369  0.059931553            2 
 1560000   0.99635427    -4.308647    1109.8513  0.059286928   0.05991873            4 
 1561000    1.0197127   -4.2995918    1109.4063   0.05922519  0.059906127            1 
 1562000    1.0135224   -4.3022207    1106.8441   0.05905058  0.059893239            4 
 1563000   0.99193514   -4.3133599    1114.2203  0.059406074  0.059880728            4 
 1564000   0.99277214   -4.2914255    1113.9035  0.059351207  0.059868121            2 
 1565000   0.99177812   -4.3188075    1112.5945  0.059243583  0.059855791            3 
 1566000    1.0207318   -4.3366659    1111.8203  0.059164553  0.059843228            3 
 1567000     1.003883   -4.2862024    1116.4877  0.059375011  0.059831065            5 
 1568000    1.0138666   -4.3232729    1115.0253  0.059259424  0.059819017            4 
 1569000   0.99795793   -4.3005494    1116.8122  0.059316559   0.05980684            2 
 1570000    1.0041546   -4.3181955    1118.0959  0.059346914  0.059794737            5 
 1571000    1.0093157    -4.325365    1121.2184   0.05947477  0.059782526            3 
 1572000   0.99603069   -4.2850434    1119.7276  0.059357912  0.059770719            2 
 1573000    1.0084145   -4.3249297     1123.544  0.059522355  0.059758663            3 
 1574000    1.0085467   -4.2953347     1127.713  0.059705262  0.059746837            3 
 1575000    1.0022867   -4.3188191    1123.0845  0.059422459  0.059734907            3 
 1576000   0.99777081   -4.3568018    1121.9286  0.059323635  0.059722895            4 
 1577000     1.006209   -4.3207679    1126.3927  0.059521915  0.059710987            2 
 1578000   0.99252151   -4.2920011    1125.9267  0.059459582  0.059699083            1 
 1579000   0.99773048   -4.3127103    1122.7817   0.05925595  0.059687268            4 
 1580000    1.0003047    -4.327439     1125.893   0.05938254  0.059675399            3 
 1581000    1.0057963   -4.3171583    1125.7514  0.059337518  0.059663853            2 
 1582000   0.99454907   -4.3213925    1125.0287  0.059261941  0.059652197            3 
 1583000    1.0076407   -4.3105627    1126.0399  0.059277739  0.059640398            2 
 1584000    1.0171484   -4.3450469    1128.1741  0.059352592  0.059628492            5 
 1585000   0.99189249   -4.3000067    1132.7542  0.059555952  0.059616617            3 
 1586000   0.97778051   -4.2883974    1132.8207  0.059521893  0.059604689            3 
 1587000   0.98977085   -4.3118465     1129.106  0.059289332  0.059592996            3 
 1588000   0.98865713    -4.308542    1129.4062  0.059267748  0.059581297            2 
 1589000    1.0050601   -4.3332358    1129.7618    0.0592491  0.059569518            2 
 1590000    1.0063211   -4.3072627    1129.2302  0.059183972  0.059557971            3 
 1591000    1.0132185   -4.3380067    1135.2496  0.059462058  0.059546376            3 
 1592000   0.99856673    -4.336813    1133.2666  0.059320905   0.05953481            3 
 1593000    0.9940928   -4.2687793    1136.2082  0.059437552  0.059523245            2 
 1594000   0.99431203   -4.2937797    1136.9851  0.059440876  0.059511976            2 
 1595000    0.9996261   -4.2770471    1138.6769  0.059492003  0.059500672            3 
 1596000    1.0060084   -4.3017419    1140.5314  0.059551555  0.059489491            3 
 1597000   0.98943566   -4.3308604    1137.6486  0.059363839    0.0594785            2 
 1598000   0.97493994   -4.3378825    1134.0135  0.059137122  0.059467282            3 
 1599000   0.97934812   -4.2628546    1147.0779  0.059781005  0.059456236            3 
 1600000   0.98423904   -4.3267604     1140.179  0.059384322  0.059445214            3 
 1601000     0.974558   -4.3343304    1140.3231  0.059354733  0.059433802            4 
 1602000    1.0022906   -4.2987275    1138.7722  0.059237004  0.059422622            3 
 1603000    1.0037009   -4.3474223    1136.4664  0.059080185   0.05941117            5 
 1604000    1.0032993   -4.2871292    1140.3295  0.059244054  0.059400252            9 
 1605000     0.982758   -4.3293717    1140.8043  0.059231793  0.059389416            5 
 1606000    1.0110626   -4.3122496    1142.0678  0.059260473  0.059378108            4 
 1607000    1.0000695   -4.3345913    1141.6507  0.059201963    0.0593671            2 
 1608000   0.98607298   -4.3212432    1142.2374  0.059195551  0.059356087            4 
 1609000   0.99354144   -4.3300482    1145.0725  0.059305599  0.059345248            4 
 1610000   0.99233029   -4.3239793    1148.0545   0.05942311  0.059334322            2 
 1611000   0.97526072   -4.3268451    1146.0856   0.05928438  0.059323367            4 
 1612000   0.99548902   -4.3032951    1143.7055  0.059124558  0.059312461            4 
 1613000   0.98382167    -4.326305    1143.2817  0.059066009  0.059301511            3 
 1614000    1.0009624   -4.3311023    1144.7161  0.059103474  0.059290143            3 
 1615000    0.9972595   -4.3032238    1145.1394  0.059088722  0.059279204           11 
 1616000    1.0054144   -4.3280689    1143.7287  0.058979411  0.059268255            9 
 1617000   0.99203245   -4.2947678     1150.744  0.059304473  0.059257369            3 
 1618000   0.97598779   -4.3571508    1147.6564  0.059108798    0.0592464            3 
 1619000    1.0037146   -4.3553037    1146.1379  0.058994129  0.059235431            2 
 1620000   0.98199126   -4.3697452    1147.3121  0.059018111  0.059224435            3 
 1621000    1.0041501   -4.3169648    1151.9925  0.059222318  0.059213492            3 
 1622000   0.98700516   -4.2938396     1150.113   0.05908924  0.059202462            4 
 1623000   0.99538181   -4.3033531    1152.0544  0.059152513  0.059191566            3 
 1624000     1.009116   -4.3315769     1153.734  0.059202278  0.059180493            2 
 1625000   0.99550775   -4.3147406    1155.9657  0.059280291   0.05916965            3 
 1626000   0.98679519   -4.3175969    1156.5903  0.059275847  0.059159045            2 
 1627000    1.0031963    -4.330539     1149.832  0.058893261  0.059148348            5 
 1628000    1.0071064   -4.3601787    1151.8521  0.058960486  0.059137708            2 
 1629000    1.0039097   -4.3343971     1151.743  0.058918714  0.059126873            2 
 1630000   0.97253073   -4.3614833    1154.1508  0.059005664   0.05911558            2 
 1631000   0.99111791   -4.2771288    1150.9035  0.058803572  0.059104401            6 
 1632000   0.99601069   -4.3216822    1154.0252  0.058926941  0.059093139            2 
 1633000   0.98417258   -4.3247671    1155.3097  0.058956405   0.05908214            3 
 1634000   0.99704728   -4.3491866    1155.8299  0.058946854   0.05907115            4 
 1635000    1.0049309   -4.2936021    1159.1436  0.059079695  0.059060542            1 
 1636000    1.0014747   -4.3275467    1163.5302  0.059267021  0.059049847            6 
 1637000   0.99625238   -4.3151035    1162.5256   0.05917968  0.059039092            2 
 1638000   0.99717977    -4.317146     1155.441  0.058783122  0.059028199            5 
 1639000   0.97208287   -4.3291579    1158.8537  0.058920769  0.059017306            2 
 1640000   0.97237775   -4.3151027     1163.277  0.059109605  0.059006476            2 
 1641000    1.0030997   -4.3060924    1165.3051  0.059176576  0.058995875            3 
 1642000   0.99049186   -4.3669779    1159.0609  0.058823635  0.058985085            5 
 1643000   0.99460312   -4.3293419     1163.588  0.059017446  0.058974131            4 
 1644000   0.98769475   -4.3122874    1160.0085  0.058800109  0.058963197            3 
 1645000   0.98378076   -4.3188584    1160.0593  0.058766937  0.058952298            4 
 1646000   0.99696105   -4.3493827    1159.6471  0.058710362  0.058941178            2 
 1647000    1.0043902   -4.3095848    1166.4574  0.059019299   0.05893042            2 
 1648000   0.98958893   -4.3307786     1160.393   0.05867683  0.058919725            3 
 1649000   0.99948311   -4.3730907    1162.9986  0.058772922  0.058908749            2 
 1650000   0.98242284   -4.3419692    1167.3808  0.058958629  0.058897963            2 
 1651000   0.98812036   -4.3398693    1165.0841  0.058806991  0.058886899            3 
 1652000   0.95876223   -4.3491247    1165.2234  0.058778419  0.058875969            8 
 1653000   0.98601128   -4.3386638     1165.316  0.058747528  0.058865167            2 
 1654000    1.0248815    -4.290637     1169.548   0.05892523  0.058854346            7 
 1655000   0.99640105   -4.3544196     1159.515  0.058384441  0.058843387            4 
 1656000   0.99478507    -4.317362    1168.3897  0.058795776  0.058832126            3 
 1657000    1.0028733   -4.3203221    1167.7124  0.058726235  0.058820935            3 
 1658000    0.9946343   -4.3193559    1167.2241  0.058666268  0.058809918            2 
 1659000   0.98721396   -4.3291377    1169.3461  0.058737498  0.058798927            4 
 1660000    1.0061705   -4.2933868    1171.2256  0.058796465  0.058788136            4 
 1661000   0.99409702   -4.3334272    1172.8403  0.058842076  0.058777463            4 
 1662000   0.99063623   -4.3690768    1171.5892  0.058743944  0.058766831            4 
 1663000   0.96191839   -4.3378024    1170.0723  0.058632605  0.058755877            2 
 1664000   0.99976507   -4.3309188    1175.0362  0.058845964  0.058745253            2 
 1665000   0.97663977   -4.3521435    1171.8128  0.058649287  0.058734611            5 
 1666000   0.96325858   -4.3342448    1175.3958  0.058793307  0.058724035            3 
 1667000   0.97700757   -4.3347465    1174.7543  0.058725968   0.05871336            4 
 1668000   0.95727514   -4.2931748    1180.1754  0.058961603  0.058702751            3 
 1669000   0.99310939     -4.36253    1176.1772  0.058726642  0.058692038            4 
 1670000   0.98253448   -4.3494784    1176.7535  0.058720237  0.058681239            4 
 1671000   0.96425574   -4.3693513    1173.0953  0.058502656  0.058670426            4 
 1672000   0.98759958   -4.3270526    1175.7859  0.058601767  0.058659537            2 
 1673000   0.98138737    -4.311717    1177.5262  0.058653426  0.058649086            6 
 1674000   0.98782386   -4.3089156    1183.9266  0.058937006   0.05863853            2 
 1675000   0.99191145   -4.3563081    1174.9021  0.058452843  0.058627597            5 
 1676000    1.0164905   -4.3417845    1177.5142  0.058547842  0.058616659            5 
 1677000   0.99484632    -4.348466    1180.0847  0.058640664  0.058605849            4 
 1678000   0.99327659    -4.330502    1182.0126   0.05870146  0.058594984            5 
 1679000   0.97413811   -4.3477061    1177.8995  0.058462353  0.058584149            2 
 1680000   0.97890892   -4.3482453    1182.0714  0.058634494    0.0585738            4 
 1681000      1.00491   -4.3354929    1177.8647  0.058391072  0.058563367            4 
 1682000   0.98571129   -4.3397347    1178.9155  0.058408418  0.058552703            3 
 1683000   0.98240314   -4.3505745    1182.4324   0.05854785  0.058542004            3 
 1684000   0.99171852   -4.3366476    1186.3169  0.058705312  0.058531783            4 
 1685000    1.0036899   -4.3417026    1185.6242  0.058636211  0.058521158            3 
 1686000   0.95938817   -4.3372916    1186.2222  0.058630988  0.058510544            2 
 1687000    0.9774347   -4.3510197    1183.0816  0.058441098  0.058500189            2 
 1688000     1.012471   -4.3510972    1186.4962  0.058575049  0.058489442            2 
 1689000    0.9571763   -4.3312365    1187.6177  0.058595705  0.058479181            3 
 1690000   0.97697845   -4.3360029     1186.938  0.058527513  0.058468657            3 
 1691000   0.96396606   -4.3677145     1185.525  0.058423271   0.05845814            3 
 1692000   0.97448086   -4.3438871    1184.2961  0.058328215   0.05844745            2 
 1693000   0.96554816   -4.3473945    1192.4046  0.058692884  0.058437002            2 
 1694000   0.99033188   -4.3391302    1185.6224  0.058324597  0.058426347            3 
 1695000   0.98377503   -4.3411064    1189.5966  0.058485576  0.058415702            4 
 1696000   0.98532393   -4.3051368    1190.2075   0.05848111    0.0584053            3 
 1697000   0.99154111   -4.3530132    1187.7872  0.058327795  0.058394377            2 
 1698000   0.98942826   -4.3425864    1192.2794   0.05851391  0.058383547            4 
 1699000    0.9861477   -4.3354392    1191.2549  0.058429217  0.058372786            2 
 1700000   0.96429885   -4.3262508    1189.1424  0.058291295  0.058361839            5 
 1701000   0.98509212   -4.3201567    1193.6046  0.058475634  0.058351115            4 
 1702000   0.96658744   -4.3311988    1188.1138  0.058172436  0.058340622            2 
 1703000   0.98523845   -4.3535028     1192.882  0.058371598  0.058329616            4 
 1704000   0.98613524   -4.3725837     1189.444  0.058169208  0.058318591            5 
 1705000   0.97532385   -4.3343991    1191.5993  0.058240437  0.058307435            3 
 1706000   0.97550957   -4.3532787    1191.8515  0.058218618  0.058296589            2 
 1707000   0.97067752   -4.3824663    1189.7721  0.058082997  0.058286084            5 
 1708000   0.98708373   -4.3537514    1196.2479  0.058364945  0.058275254            4 
 1709000   0.96847406   -4.3390273    1195.6577  0.058302013  0.058264392            5 
 1710000   0.97592204   -4.3415082    1196.5556  0.058311678  0.058253703            7 
 1711000   0.96063668   -4.3619662    1195.0322  0.058203401  0.058243075            3 
 1712000   0.98917417   -4.3593672    1196.4152  0.058236721  0.058232224            3 
 1713000   0.96511795   -4.3258015     1197.619  0.058261286  0.058221629            3 
 1714000   0.95770228   -4.3680856    1193.0755  0.058006395  0.058210642            6 
 1715000     0.987246   -4.3703784    1191.4544  0.057893797  0.058199458            3 
 1716000   0.98219905   -4.3590234    1199.5002  0.058250785  0.058188286            2 
 1717000   0.99015576   -4.3338543    1196.3274  0.058062872  0.058177262            5 
 1718000   0.96008322   -4.3700416    1191.3206  0.057786216  0.058166141            4 
 1719000   0.98557243   -4.3581228    1198.1591  0.058084116  0.058155247            4 
 1720000   0.97021386   -4.3766231    1191.1134  0.057708982  0.058144036            3 
 1721000   0.98721213   -4.3388499    1196.5163  0.057937064  0.058132544            2 
 1722000   0.99080198   -4.3586191    1194.4192  0.057801937  0.058121338            5 
 1723000   0.96699022   -4.3379909    1200.0189   0.05803922  0.058110058            5 
 1724000   0.96224316   -4.3667141    1198.9516  0.057953962  0.058098618            3 
 1725000   0.99055106   -4.3217355    1200.7935  0.058009347  0.058087288            3 
 1726000   0.97479182   -4.3383559    1200.1476  0.057944552  0.058076087            6 
 1727000   0.98834123   -4.3722391    1200.2798  0.057917383  0.058064843            8 
 1728000   0.94661227   -4.3727316    1202.4425  0.057988162  0.058053402            3 
 1729000   0.97851021   -4.3240897     1204.318  0.058045018  0.058042182            4 
 1730000   0.97988698   -4.3724697    1202.9226  0.057944249  0.058031122            5 
 1731000   0.96900262    -4.360468    1205.3688  0.058028539  0.058020005            5 
 1732000    0.9815563   -4.3445758    1204.7007  0.057962889  0.058009144            2 
 1733000   0.98885708   -4.3519435    1207.3304  0.058055898  0.057998407            7 
 1734000    0.9715701   -4.3487222    1205.7197  0.057945005  0.057987832            3 
 1735000   0.97417778   -4.3516379    1206.7764  0.057962364  0.057977363            4 
 1736000   0.98008008   -4.3519932    1209.0673  0.058038943  0.057966857            2 
 1737000   0.97517168   -4.3771049    1207.7136  0.057940587   0.05795648            6 
 1738000   0.98500904    -4.348222    1211.7524  0.058100901  0.057945958            5 
 1739000   0.95747126   -4.3815228    1210.3651   0.05800101  0.057935504            4 
 1740000   0.96686479   -4.3707595    1212.0717   0.05804941  0.057924923            6 
 1741000   0.98161578   -4.3547713    1206.9091  0.057768959  0.057914269            2 
 1742000   0.99910456   -4.3505761    1210.8885  0.057926164   0.05790376            2 
 1743000    0.9715258   -4.3208529    1211.5197  0.057923108  0.057893145            3 
 1744000    0.9930342    -4.402407    1205.7304  0.057613264  0.057882428            4 
 1745000   0.95379579   -4.3352349    1209.0624   0.05773937  0.057871711            3 
 1746000   0.97929268   -4.3534284    1213.3045  0.057908768  0.057861099            3 
 1747000   0.96279299   -4.3356007    1214.9652  0.057954838  0.057850507            2 
 1748000   0.97691227    -4.367248    1211.0782  0.057736377  0.057839714            5 
 1749000   0.98034293   -4.3464564    1215.7053   0.05792383  0.057829034            2 
 1750000   0.96991077   -4.3496227    1215.8422  0.057897246  0.057818334            4 
 1751000   0.98200081   -4.3745645    1211.1565  0.057641181  0.057807462            4 
 1752000    0.9751996    -4.365719    1212.1097  0.057653618  0.057796611            3 
 1753000   0.96493249   -4.3529493    1219.3532  0.057965069  0.057785944            8 
 1754000   0.96551927   -4.3505083    1214.2636  0.057690213  0.057775486            2 
 1755000   0.98817603   -4.3416457    1222.1773  0.058033109  0.057764918            2 
 1756000   0.98502115   -4.3574407    1214.5755   0.05763931  0.057754655            3 
 1757000   0.95495943   -4.3654305    1217.9462  0.057766374  0.057744048            2 
 1758000   0.96745079    -4.369622    1218.3443  0.057752383   0.05773352            4 
 1759000   0.96553456   -4.3536709    1221.4571  0.057867021  0.057723234            6 
 1760000   0.97172557   -4.3531379    1219.7506  0.057753344  0.057712347            4 
 1761000   0.97577887   -4.3418927    1223.4242  0.057894386  0.057701656            3 
 1762000   0.96583518   -4.3553446    1215.9157  0.057506416  0.057690985            4 
 1763000   0.98604749   -4.3689709    1224.4061  0.057875122  0.057680372            3 
 1764000   0.99435678   -4.3679686    1227.1589  0.057972361  0.057669741            3 
 1765000    0.9678383   -4.3751983    1223.2589   0.05775538  0.057659335            2 
 1766000    0.9754991    -4.355734    1224.5573   0.05778394   0.05764892            2 
 1767000    0.9694224   -4.3615181    1224.8021  0.057762785  0.057638468            2 
 1768000   0.95642827   -4.3737217    1221.9545  0.057595895  0.057627931            3 
 1769000   0.95287728   -4.3474541      1224.87  0.057700678   0.05761698            4 
 1770000   0.98942961    -4.341929    1223.8631  0.057620672  0.057606474            4 
 1771000   0.94751697   -4.3716461    1225.5774  0.057668801   0.05759624            4 
 1772000   0.96491401   -4.3673317    1229.3892  0.057815518  0.057585885            2 
 1773000   0.94915398   -4.3929179    1223.9533  0.057527417  0.057575584            2 
 1774000   0.96550234   -4.3974477    1226.3636  0.057608212  0.057565118            2 
 1775000   0.95841526   -4.3745558    1225.7473  0.057546822   0.05755495            2 
 1776000   0.97562832   -4.3859452    1227.9916  0.057619726  0.057544837            1 
 1777000   0.95602917   -4.3623796    1233.5252  0.057846802  0.057534682            3 
 1778000   0.96835739   -4.3578765    1231.6431  0.057726053  0.057524602            2 
 1779000   0.96533411   -4.3648565     1231.947  0.057707842  0.057514554            3 
 1780000   0.95528199    -4.354001    1233.4494  0.057745759  0.057504472            4 
 1781000   0.97274631   -4.3883838    1231.1296  0.057604793  0.057494501            4 
 1782000   0.95946208   -4.3743478    1240.0849  0.057991249  0.057484558            3 
 1783000   0.98671282   -4.3841997    1228.3357  0.057409594  0.057474561            3 
 1784000     0.963792    -4.361592    1234.6154  0.057670747  0.057464643            4 
 1785000   0.99343575   -4.3488011    1241.9065  0.057978828   0.05745515            3 
 1786000   0.96133813   -4.3446811    1239.1775  0.057819034  0.057445681            5 
 1787000   0.98997219   -4.3737588    1238.1104  0.057736917   0.05743615            5 
 1788000   0.98042534   -4.3877927    1238.7311  0.057733554  0.057426467            5 
 1789000    0.9805686   -4.3734408    1240.4073  0.057779361  0.057416757            1 
 1790000   0.95023822   -4.3787039    1236.4952  0.057564952  0.057407145            2 
 1791000    0.9604803   -4.3863315    1236.9125  0.057552229  0.057397332            2 
 1792000   0.96798287   -4.3780844    1242.2743  0.057769454    0.0573877            4 
 1793000   0.97810481   -4.3667039    1241.8622  0.057718081  0.057377983            3 
 1794000   0.96166807   -4.3987323    1241.3626  0.057662697  0.057368216            2 
 1795000     0.951374   -4.3895294    1238.0926  0.057478764  0.057358465            5 
 1796000   0.98059413   -4.3628865    1245.1131  0.057772509   0.05734857            2 
 1797000   0.97566916    -4.352491    1243.7755  0.057678329  0.057338794            3 
 1798000   0.93670562   -4.3570596    1245.1717  0.057710959  0.057329083            3 
 1799000   0.94565012   -4.3900338    1236.2587  0.057266014  0.057319273            5 
 1800000   0.96544847   -4.3738453    1244.2715   0.05760516  0.057309226            3 
 1801000   0.96710756   -4.4110664    1243.1598  0.057521736  0.057299291            8 
 1802000   0.94802904   -4.3663716    1242.1016  0.057440882  0.057289635            3 
 1803000   0.96041956   -4.3845184    1241.7895  0.057394596  0.057279912            2 
 1804000   0.95988727   -4.3470628    1246.6931  0.057589298  0.057270194            4 
 1805000   0.95527623   -4.3696318    1247.9138  0.057613749  0.057260455            1 
 1806000   0.98067366   -4.3821694    1243.7837  0.057391274  0.057250613            4 
 1807000   0.96810059   -4.3662346    1249.0831  0.057603908   0.05724072            2 
 1808000   0.97631596   -4.3943011    1249.1224  0.057573856  0.057230704            3 
 1809000   0.97715228   -4.3545014    1246.9433  0.057441647  0.057220634            5 
 1810000   0.97154807   -4.3909377    1248.3017  0.057472452  0.057210719            5 
 1811000   0.95245019   -4.3585795    1247.0691  0.057384001  0.057200854            5 
 1812000   0.95366373   -4.4035578    1245.4695  0.057278765  0.057191196            3 
 1813000   0.97576807   -4.3957372    1248.9154   0.05740556  0.057181493            7 
 1814000   0.94451515   -4.4045948    1249.2197  0.057387897  0.057171803            5 
 1815000   0.95413851   -4.3672792    1251.6121  0.057466122  0.057162121            5 
 1816000   0.94355223   -4.3921761     1253.447  0.057518679  0.057152421            3 
 1817000   0.97757267   -4.3612792    1254.6286  0.057541211  0.057142818            1 
 1818000   0.96620062   -4.3705358    1254.8877   0.05752144  0.057133085            2 
 1819000   0.94338931   -4.3944165    1253.1641  0.057410851  0.057123415            2 
 1820000   0.96420799   -4.3983934    1251.3628  0.057296829  0.057113524            5 
 1821000   0.96129232   -4.3918787    1251.9298  0.057291314  0.057103502            3 
 1822000   0.96289013   -4.3894718    1254.5927  0.057381664  0.057093974            3 
 1823000    0.9681396   -4.3805008    1254.8307  0.057361067  0.057084274            5 
 1824000    0.9750535   -4.3870826    1260.4429  0.057586022  0.057074807            2 
 1825000    0.9515627   -4.3799376    1256.4768  0.057373372  0.057064984            9 
 1826000   0.98134944   -4.3876986    1253.9592  0.057227053   0.05705529            3 
 1827000   0.98484038    -4.375267    1255.1742  0.057251149  0.057045416            3 
 1828000    0.9505599   -4.3794479     1253.595  0.057147839   0.05703577            7 
 1829000   0.95743703   -4.4005688    1256.4637  0.057247298  0.057026186            4 
 1830000   0.94521251   -4.3854567    1258.7032  0.057317995  0.057016317            3 
 1831000   0.96686812   -4.3822644    1261.8073  0.057427965  0.057006518            2 
 1832000   0.97141386   -4.4106319    1259.8215  0.057306293  0.056996845            4 
 1833000   0.97800869   -4.3821117    1260.3113  0.057297295   0.05698685            4 
 1834000   0.95374049   -4.4111505    1258.4419   0.05718111  0.056976933            5 
 1835000   0.94211903   -4.3980136    1259.7472  0.057209229  0.056966974            4 
 1836000   0.92706354   -4.4116634    1261.2429  0.057245958  0.056956939            2 
 1837000    0.9651626   -4.4087026    1258.2146  0.057077416  0.056947072            3 
 1838000   0.97607576   -4.4025747    1258.2894  0.057049755  0.056937229            3 
 1839000   0.93866721   -4.3794068    1259.2541  0.057062447  0.056927109            4 
 1840000   0.94599798   -4.4003885    1266.7832  0.057372425   0.05691723            4 
 1841000    0.9542951   -4.3678034     1263.322  0.057184592  0.056907296            6 
 1842000   0.96830678   -4.3655799    1265.4205  0.057248485  0.056897366            4 
 1843000   0.97022533   -4.3880068     1269.571  0.057405093  0.056887454            2 
 1844000   0.95901826   -4.3679346    1264.5239  0.057145874  0.056877539            2 
 1845000   0.96443349   -4.3733261    1261.6091  0.056983248  0.056867695            3 
 1846000   0.96648998   -4.3783613    1264.0144  0.057060962  0.056857612            8 
 1847000   0.95011554   -4.3932942     1267.248   0.05717596  0.056847711            4 
 1848000   0.93916001   -4.3792409    1263.9743  0.056997397  0.056837653            5 
 1849000   0.93783327   -4.3497479    1268.8032  0.057184207  0.056828032            5 
 1850000   0.93452856   -4.3873233    1266.9039  0.057067743  0.056818252            4 
 1851000    0.9622647   -4.3750375    1265.3623  0.056967508  0.056808598            3 
 1852000   0.94476569   -4.3666091    1268.1522  0.057062283  0.056798842            2 
 1853000   0.96202794   -4.3862123    1268.2516  0.057035961  0.056789227            2 
 1854000   0.95102088   -4.4012689    1268.9349  0.057035907  0.056779471            3 
 1855000   0.94506877   -4.3907343    1268.6377  0.056991809  0.056769775            4 
 1856000   0.95596528   -4.3714272    1270.4786  0.057043757  0.056760078            6 
 1857000   0.94782465   -4.3841078    1272.8298  0.057118553  0.056750489            5 
 1858000   0.94786046   -4.4082667    1272.6762  0.057080919  0.056741117            2 
 1859000   0.97322811   -4.3964824    1270.7271  0.056962844  0.056731505            4 
 1860000   0.93467726   -4.3886897     1272.439  0.057008916   0.05672176            4 
 1861000   0.96765581   -4.4093041    1270.5144  0.056892099  0.056712292            2 
 1862000   0.95226374   -4.3842912    1277.4955  0.057173984   0.05670276            3 
 1863000   0.96418221   -4.3711522    1275.9617  0.057074686  0.056693242            3 
 1864000   0.95065744   -4.4006553    1273.9846  0.056955676  0.056683551            6 
 1865000   0.94654255   -4.3847263    1274.5749  0.056951514  0.056673825            7 
 1866000   0.95671101   -4.3686565    1275.1837  0.056948184  0.056664011            3 
 1867000    0.9392986   -4.4248996    1274.9177  0.056905806  0.056654499            4 
 1868000   0.92449468   -4.3966986    1277.9796  0.057011938  0.056644911            4 
 1869000   0.94918212   -4.4112127    1274.1361  0.056810065  0.056635318            4 
 1870000   0.96880813   -4.4042292    1274.7984  0.056809197  0.056625641            4 
 1871000   0.96714038    -4.373123    1280.0524  0.057012847   0.05661617            4 
 1872000   0.94951819   -4.3972493    1276.2992  0.056815313  0.056606652            5 
 1873000   0.96792356   -4.3980414    1277.6998  0.056847297  0.056597249            4 
 1874000   0.94348997   -4.3923799     1278.001  0.056830355  0.056587498            1 
 1875000    0.9493462   -4.4370493    1275.0388  0.056668392  0.056577959            2 
 1876000   0.97410575   -4.4164274    1281.0466  0.056905055  0.056568071            5 
 1877000   0.95352119   -4.3693239    1284.6167  0.057033238  0.056558391            3 
 1878000   0.94697893   -4.4232318     1277.934  0.056706338  0.056548648            5 
 1879000   0.96531504   -4.4073264    1281.4388  0.056831595  0.056538904            2 
 1880000   0.95324516    -4.406424    1277.6721  0.056634402  0.056529293            2 
 1881000   0.94785712   -4.4204613    1282.1591  0.056803081  0.056519565            3 
 1882000   0.95569921   -4.3844354    1283.0935  0.056814272  0.056509931            7 
 1883000   0.94253424   -4.3929483    1283.3219  0.056794208  0.056500281            2 
 1884000     0.949679   -4.4159423    1281.1759  0.056669141  0.056490592            3 
 1885000   0.95310183   -4.4200457    1279.9561  0.056585151  0.056480633            3 
 1886000   0.94959115   -4.3759511    1285.7039  0.056809114  0.056470779            5 
 1887000   0.95522372   -4.3788656    1288.9175  0.056920926  0.056461156            3 
 1888000    0.9391175    -4.415365    1283.4944  0.056651411  0.056451222            3 
 1889000   0.93190639   -4.4218026    1283.7811  0.056634069  0.056441272            4 
 1890000   0.94773556     -4.39061    1281.8783  0.056520206  0.056431386            3 
 1891000   0.95160127   -4.3600577    1290.8054  0.056883723  0.056421524            4 
 1892000   0.92830389   -4.4399404    1284.7279  0.056585972  0.056411276            4 
 1893000   0.95070177    -4.392655    1287.0153  0.056656774  0.056401198            2 
 1894000   0.94952183   -4.4306713    1285.9598  0.056580422  0.056391358            4 
 1895000   0.93744776   -4.4205152    1285.3199  0.056522421  0.056381503            4 
 1896000   0.95831464   -4.4265645    1283.6194  0.056417869  0.056371245            3 
 1897000   0.94460644   -4.3745539    1287.6425   0.05656486  0.056361324            3 
 1898000   0.95447388   -4.3922579    1290.4607  0.056658795  0.056351168            3 
 1899000   0.94901586   -4.4398929    1285.8182  0.056425234  0.056341418            3 
 1900000   0.94963832   -4.3857097    1290.9805  0.056621951  0.056331518            3 
 1901000   0.92912641   -4.4065478    1289.7695  0.056539079  0.056321864            4 
 1902000   0.97989032   -4.3948192    1289.9573  0.056517583  0.056312179            3 
 1903000   0.93978434   -4.4086797    1293.9136  0.056661131  0.056302335            4 
 1904000   0.93807977   -4.4192752    1292.9824  0.056590618  0.056292547            6 
 1905000    0.9547957   -4.4192258     1298.257  0.056791646  0.056282961            4 
 1906000   0.94214809   -4.3871087    1294.1509  0.056582325   0.05627319            4 
 1907000   0.93710717   -4.4105539    1290.8209  0.056407136  0.056263573            4 
 1908000   0.95805296   -4.3962466    1297.0671  0.056650378  0.056253766            7 
 1909000   0.95620164   -4.3932292    1294.4773   0.05650765  0.056244366            3 
 1910000    0.9539109   -4.4252552    1294.7565  0.056490249  0.056234917            3 
 1911000    0.9594118    -4.390405    1298.0736  0.056605337  0.056225379            3 
 1912000   0.95000555   -4.4122836    1294.5984  0.056424268  0.056216003            2 
 1913000   0.93755979   -4.4424053    1290.2219  0.056204125  0.056206199            5 
 1914000   0.93438171   -4.4296684    1291.4787  0.056229478  0.056196323            2 
 1915000    0.9447118   -4.4154394    1297.9157  0.056480233  0.056186593            3 
 1916000   0.95607972   -4.4001939    1301.4019  0.056602379  0.056176943            2 
 1917000   0.97281885   -4.4280285    1298.5819  0.056450266  0.056167286            4 
 1918000    0.9322234   -4.3792664    1304.0272  0.056657421  0.056157399            4 
 1919000   0.95132427   -4.3964579    1297.9573  0.056364307  0.056147496            5 
 1920000   0.93501664   -4.4098874    1295.6327  0.056234056  0.056137535            1 
 1921000   0.93533207   -4.4288047    1296.8453  0.056257389  0.056127677            5 
 1922000   0.93807047   -4.3913452    1302.0665  0.056454495  0.056117796            2 
 1923000   0.94844458   -4.4017975    1301.7129  0.056409815  0.056108088            2 
 1924000   0.95056403   -4.3881737    1303.9119  0.056475741  0.056098394            7 
 1925000   0.94337352   -4.3836678    1302.7547  0.056396306  0.056088831            5 
 1926000    0.9540458   -4.4042612    1301.4056  0.056308653  0.056079401            3 
 1927000     0.938752   -4.4284304    1301.1981   0.05627046  0.056069833            2 
 1928000   0.94236105   -4.4153832    1304.5289  0.056385239  0.056060031            6 
 1929000   0.94218618    -4.389257    1305.7026  0.056406712  0.056050454            3 
 1930000   0.94431051   -4.4051342    1305.8445  0.056383612  0.056040801            5 
 1931000   0.91841061   -4.3842518    1308.3473  0.056462426   0.05603116            3 
 1932000   0.93434218   -4.4216696    1303.4329  0.056221226  0.056021452            4 
 1933000    0.9677797   -4.4218179    1306.2986  0.056315683  0.056011924            4 
 1934000   0.96030995   -4.4523237    1303.9426  0.056185048  0.056002475           10 
 1935000   0.94190249    -4.418335    1308.0803  0.056334209  0.055992757            7 
 1936000   0.96363635   -4.4136203    1304.7429  0.056161455    0.0559832            3 
 1937000   0.91734019   -4.4193828    1307.7071  0.056259985  0.055973496            2 
 1938000   0.95330635   -4.3851409    1310.9659  0.056371084  0.055963867            2 
 1939000   0.95155131   -4.4120018    1307.9882  0.056214037  0.055954121            4 
 1940000   0.96001135   -4.4264525    1304.2383   0.05602398  0.055944454            4 
 1941000   0.92191192   -4.4298483    1307.2896  0.056126119  0.055934814            6 
 1942000   0.94231044   -4.4003912    1315.9115  0.056467193  0.055925315            4 
 1943000   0.94606461   -4.3996161    1314.4178  0.056374069  0.055915981            4 
 1944000   0.92535313   -4.4180094    1312.8987  0.056279949  0.055906768            8 
 1945000   0.95041213   -4.4265914    1315.8684  0.056378253  0.055897663            6 
 1946000   0.94819215   -4.4277371    1307.1063  0.055974064   0.05588832            2 
 1947000   0.94140557     -4.42439    1315.1795  0.056290855  0.055879014            7 
 1948000    0.9423416   -4.3851538    1315.7557  0.056286606  0.055869885            5 
 1949000   0.92865194   -4.4140642     1314.963  0.056223834  0.055860401            2 
 1950000   0.93983517   -4.4122605    1318.2282   0.05633454  0.055851052            5 
 1951000   0.94760905   -4.4170466    1315.3329  0.056181997  0.055841654            2 
 1952000   0.92148357   -4.4013091    1318.3149  0.056280518  0.055832304            5 
 1953000   0.94461977   -4.4031868     1319.852  0.056317289   0.05582325            2 
 1954000   0.96141573   -4.4170659    1315.1302  0.056087093   0.05581391            7 
 1955000   0.92713952   -4.3895045    1318.2725  0.056192351  0.055804586            3 
 1956000   0.94426592   -4.4043935    1317.8215  0.056144406  0.055795201            6 
 1957000    0.9416553   -4.4266152    1319.7346   0.05619718  0.055785843            3 
 1958000   0.91686738   -4.4354593    1318.0774  0.056097949  0.055776583            3 
 1959000   0.96332675   -4.4112773    1317.5606  0.056047327  0.055767472            3 
 1960000   0.94216004    -4.428844    1321.8266   0.05620011  0.055758326            7 
 1961000   0.94326687   -4.3942249    1320.9765  0.056135325  0.055749046            3 
 1962000   0.94091218   -4.4159706    1322.5222  0.056172365  0.055739859            4 
 1963000    0.9473288    -4.433602    1322.4347  0.056140035  0.055730897            3 
 1964000    0.9319619   -4.4348533    1322.8616  0.056129567  0.055721754            3 
 1965000    0.9181574    -4.405016    1326.4486   0.05625312  0.055712913            3 
 1966000   0.92072584   -4.4289623    1324.5617  0.056144529  0.055703847            6 
 1967000   0.91584369   -4.4429122    1321.8306  0.056000278  0.055694435            3 
 1968000   0.93740117   -4.4275874    1322.8699  0.056015831  0.055685158            3 
 1969000   0.94066824   -4.4174636    1330.4994  0.056310284  0.055675981            4 
 1970000   0.92885515   -4.4097338    1331.1223  0.056308048  0.055666846            4 
 1971000   0.93513926   -4.3999916    1326.5946  0.056088051  0.055657682            8 
 1972000   0.92656962   -4.3905826     1329.097  0.056165356  0.055648381            3 
 1973000    0.9345215    -4.443853    1323.7603  0.055911485  0.055638939            2 
 1974000   0.92276872   -4.4275941    1327.5803  0.056044423  0.055629522            5 
 1975000   0.91314568   -4.3706604    1330.2672  0.056129416   0.05561997            4 
 1976000    0.9254976   -4.4232571    1328.0353  0.056006885  0.055610464            2 
 1977000   0.92195193    -4.415397     1325.009  0.055850996  0.055600816            4 
 1978000   0.90241245   -4.3978985    1326.5612  0.055888155  0.055591075            8 
 1979000   0.94959264   -4.4449708    1323.7362  0.055740955  0.055581485            5 
 1980000   0.94994606    -4.413001    1329.3649  0.055949703   0.05557181            4 
 1981000   0.92706294   -4.4000757    1326.3207    0.0557934  0.055562199            3 
 1982000   0.93455298   -4.4441656    1323.5217  0.055647565   0.05555247            2 
 1983000    0.9322878   -4.4218999    1333.2028  0.056026341  0.055542923            3 
 1984000   0.93254754   -4.4271934    1326.0924  0.055699446  0.055533292            5 
 1985000   0.93777006    -4.415157    1329.6528  0.055820857  0.055523562           10 
 1986000   0.94151582   -4.4347788    1324.9246  0.055594351  0.055514028            4 
 1987000   0.91992438   -4.4333801    1330.6123  0.055804913  0.055504279            3 
 1988000   0.94377666   -4.4211293    1327.4187   0.05564297  0.055494573            6 
 1989000    0.9432312   -4.4156593    1333.0828  0.055852305  0.055484897            4 
 1990000   0.91654532    -4.415848    1332.8434  0.055814214  0.055475294            4 
 1991000   0.93621723   -4.4531013      1332.67  0.055778921  0.055465846            4 
 1992000   0.96049442   -4.4211211    1335.0743  0.055851501  0.055456461            3 
 1993000   0.91571669    -4.414978    1334.2405  0.055788614  0.055446998            2 
 1994000   0.92634888   -4.4251572    1332.7299  0.055697505  0.055437542            3 
 1995000    0.9171589   -4.4162646    1333.6597  0.055708426  0.055428098            2 
 1996000   0.93571058   -4.4216221    1334.0386  0.055696334  0.055418689            2 
 1997000   0.93947424   -4.4205227    1334.2151  0.055675811   0.05540931            3 
 1998000   0.92335711   -4.4163993    1337.8657  0.055800203  0.055400112            3 
 1999000   0.92582781   -4.4365944    1339.0429  0.055821363  0.055390755            3 
 2000000   0.90933209   -4.4559568     1332.749  0.055531208  0.055381084            7 
 2001000    0.9295433   -4.4261633    1332.2966  0.055484615  0.055371583            3 
 2002000   0.93221764   -4.4454976    1332.7523  0.055475868  0.055361928            2 
 2003000    0.9335689   -4.4292571    1335.4806  0.055561682   0.05535199            6 
 2004000   0.93274951     -4.44434    1335.5887  0.055538454    0.0553423            4 
 2005000   0.92053147   -4.4330494    1335.4238  0.055503899  0.055332461            4 
 2006000   0.92252358    -4.429058    1338.0889  0.055586942  0.055322867           10 
 2007000   0.93898117   -4.4468236    1336.8722  0.055508727  0.055313033            4 
 2008000   0.94325475   -4.4230887    1334.6408   0.05538848  0.055303489            2 
 2009000   0.93781419   -4.4292409    1340.5578  0.055606347  0.055293771            9 
 2010000   0.93895771   -4.4483895    1337.7847   0.05546371  0.055284132            3 
 2011000   0.94072582   -4.4320397    1335.7963  0.055353733  0.055274386            3 
 2012000   0.93927228   -4.4254608     1341.278  0.055553263  0.055264513            2 
 2013000   0.93126018   -4.4269472    1340.1179  0.055477642  0.055254836            3 
 2014000    0.9227098   -4.4328204    1344.2156  0.055619644  0.055245162            4 
 2015000    0.9210071   -4.4337204    1347.6979  0.055736057  0.055235214            2 
 2016000   0.93444745   -4.4514759    1336.4386  0.055242999  0.055225526            5 
 2017000   0.92447832   -4.4422316    1337.8864  0.055275425   0.05521578            4 
 2018000   0.92827002   -4.4387622    1341.9633   0.05541639  0.055205943            4 
 2019000   0.91220118   -4.4098466    1347.7709  0.055628648  0.055196131            5 
 2020000   0.93133578   -4.4553838    1343.9305  0.055442676  0.055186411            4 
 2021000   0.93210949   -4.4464454    1344.8338  0.055452492  0.055176556            4 
 2022000   0.94134517   -4.4483415    1346.4428  0.055491379  0.055166997            4 
 2023000    0.9493523   -4.4721749    1346.9623  0.055485346  0.055157256            5 
 2024000   0.94449857   -4.4477465    1345.6806  0.055405163  0.055147514            2 
 2025000   0.94344458   -4.4030594    1344.3139  0.055321558  0.055137815            3 
 2026000   0.91484765   -4.4379607    1346.1353  0.055369172  0.055128041            7 
 2027000   0.92551625   -4.4045993    1346.1859  0.055343936  0.055118257            4 
 2028000   0.94724804    -4.449732    1347.6417  0.055376466  0.055108536            4 
 2029000   0.93488994   -4.4622713     1343.757  0.055189627  0.055098576            4 
 2030000   0.91389613   -4.4188743     1351.246  0.055469868  0.055088816            2 
 2031000   0.92003785   -4.4294044    1347.4638  0.055287371  0.055079037            2 
 2032000   0.95080581   -4.4191366    1345.2313  0.055168606  0.055069197            2 
 2033000   0.92590451   -4.4403955    1344.9855  0.055131395  0.055059266            3 
 2034000   0.92181329   -4.4589079    1347.0386  0.055188404  0.055049295            5 
 2035000   0.90642799   -4.4291632    1351.6065   0.05534834  0.055039199            8 
 2036000   0.91911795    -4.416945    1350.0135  0.055255956  0.055029485            4 
 2037000   0.93126151   -4.4543692    1348.5557  0.055169191    0.0550196            4 
 2038000   0.91929107   -4.4340699    1351.5561  0.055264806  0.055009477            4 
 2039000   0.93289221   -4.4410171    1348.7275  0.055122098   0.05499971            3 
 2040000   0.92879371   -4.4312755    1351.2412  0.055197761  0.054989888            5 
 2041000   0.92720921   -4.4650281    1351.4781  0.055180388  0.054979994            4 
 2042000   0.93269206    -4.437327      1350.82  0.055126509  0.054970008            4 
 2043000     0.934567   -4.4132179     1356.928  0.055348672  0.054960273            4 
 2044000   0.91191752   -4.4480029    1353.9858  0.055201637  0.054950502            9 
 2045000   0.91677667   -4.4352738    1355.7401  0.055246134  0.054940613            7 
 2046000   0.90596184   -4.4401203    1359.6575  0.055378687  0.054930916            8 
 2047000   0.93065873   -4.4498013    1352.9911  0.055080242  0.054921216            7 
 2048000   0.91747529   -4.4683578    1354.9424  0.055132749  0.054911285            5 
 2049000   0.90667399   -4.4421495    1355.9756  0.055147859  0.054901813            4 
 2050000   0.92963152   -4.4322765     1358.288  0.055214961   0.05489211            4 
 2051000   0.92469437   -4.4664119    1356.9009  0.055131681  0.054882562            2 
 2052000   0.91828075   -4.4573836    1354.2362  0.054996598  0.054872764            5 
 2053000   0.95260883    -4.452496    1358.2745  0.055133726  0.054862911            2 
 2054000    0.9338263   -4.4430604    1354.2138  0.054942139  0.054852958            3 
 2055000   0.91885562    -4.467501    1358.8798  0.055104613  0.054843328            7 
 2056000   0.92004237   -4.4359778     1358.581  0.055065704  0.054833765            5 
 2057000   0.91165744   -4.4487866    1363.2972  0.055229993  0.054824185            6 
 2058000   0.92496521   -4.4380264    1360.5198  0.055090694  0.054814544            3 
 2059000   0.92092856   -4.4665451    1357.9255   0.05495894  0.054804656            3 
 2060000   0.93074493   -4.4315672     1361.938   0.05509458   0.05479488            3 
 2061000   0.90961007    -4.445125    1358.9267  0.054946091  0.054785229            3 
 2062000   0.91727403   -4.4507662    1365.5766  0.055188192  0.054775293            4 
 2063000   0.91895756   -4.4609376    1356.3033  0.054786851    0.0547654            3 
 2064000   0.92997149   -4.4426626    1364.1802  0.055078335  0.054755532            3 
 2065000   0.92387992   -4.4301042    1362.6803  0.054991135  0.054745633            2 
 2066000   0.92255923   -4.4482802      1360.58  0.054879799  0.054735569            3 
 2067000   0.91816902   -4.4528041    1360.8243  0.054863098  0.054725551            3 
 2068000    0.9364176   -4.4702316     1357.091  0.054686131   0.05471535            3 
 2069000   0.92521058   -4.4578392     1362.677  0.054884686  0.054705238            3 
 2070000    0.9224154   -4.4600203    1360.4725  0.054769423  0.054695103            1 
 2071000   0.91828547   -4.4599119    1362.7462   0.05483447  0.054685014            4 
 2072000    0.9185335   -4.4397951    1361.5044  0.054758061  0.054675066            2 
 2073000    0.9002236   -4.4473451    1366.2491   0.05492238  0.054664952            4 
 2074000   0.90830621   -4.4926348    1358.4861  0.054583981  0.054654778            3 
 2075000   0.92236732   -4.4436438    1369.9223  0.055016961   0.05464463            4 
 2076000   0.92486658   -4.4484443    1366.4495  0.054851054  0.054634521            7 
 2077000   0.93345164   -4.4761968    1360.7183    0.0545947  0.054624424            4 
 2078000   0.94353793   -4.4631633    1368.3321   0.05487376  0.054614466            5 
 2079000   0.91476161    -4.432231    1366.8899  0.054789556  0.054604633            3 
 2080000   0.92320272   -4.4500608    1365.7903  0.054719164  0.054594748            4 
 2081000     0.929551   -4.4355464    1370.0098  0.054861837  0.054585028            3 
 2082000   0.91890765   -4.4294756     1368.589  0.054778619  0.054575215            5 
 2083000   0.91156712   -4.4507487    1370.5312  0.054830021  0.054565347            3 
 2084000   0.92503468   -4.4665158    1364.2798  0.054553735   0.05455526            7 
 2085000   0.93130001    -4.453738    1371.7451  0.054825944  0.054545552            4 
 2086000   0.91423771   -4.4616069    1374.9887  0.054929238  0.054535882            3 
 2087000   0.91282359   -4.4433392    1375.4468  0.054921212  0.054526266            2 
 2088000   0.92661748    -4.413221    1376.2802  0.054928168   0.05451641            4 
 2089000   0.92158717   -4.4509602    1372.7263  0.054760105  0.054506573            4 
 2090000   0.90363982   -4.4684211    1367.4308  0.054522761  0.054496778            5 
 2091000   0.90199721   -4.4932131    1374.3483   0.05477237  0.054486821            3 
 2092000   0.91651627   -4.4590431    1374.9061  0.054768407  0.054477171            4 
 2093000   0.89939948    -4.438386    1378.0316  0.054866681  0.054467717            2 
 2094000   0.92975205   -4.4628867    1375.2559  0.054730017  0.054457865            4 
 2095000   0.91440621     -4.47872     1375.489  0.054713166  0.054448093            8 
 2096000   0.90797771   -4.4865673    1369.3569   0.05444326   0.05443826            6 
 2097000   0.90600813   -4.4630574    1374.6029  0.054625771  0.054428169            3 
 2098000   0.91287985   -4.4633448    1371.2018  0.054464643  0.054418203            7 
 2099000   0.93163341   -4.4709487    1375.9603  0.054627613  0.054408229            6 
 2100000   0.90763666   -4.4428533    1375.9499  0.054601186  0.054398326            4 
 2101000   0.91934047   -4.4389068    1377.3899  0.054632316  0.054388377            3 
 2102000    0.9255497   -4.4770909    1374.8454  0.054505446  0.054378233            7 
 2103000   0.91463601   -4.4663513    1372.6894  0.054394094  0.054368142            5 
 2104000   0.90474823   -4.4661488     1374.103  0.054424231  0.054357986            3 
 2105000    0.9421959   -4.4513035    1377.6178   0.05453752  0.054348087            2 
 2106000   0.91385474    -4.465638     1372.718  0.054317742  0.054338067            2 
 2107000   0.91309025   -4.4518313    1378.3656   0.05451533  0.054327997            3 
 2108000   0.91676214   -4.4753807    1377.4439  0.054453031  0.054318171            3 
 2109000   0.91199289   -4.4588722    1377.6303  0.054434577  0.054308385            7 
 2110000   0.90933312   -4.4455347     1379.601  0.054486612   0.05429852            7 
 2111000   0.91577329   -4.4489291      1380.43  0.054493524  0.054288572            7 
 2112000   0.93192104   -4.4495356    1380.3135  0.054463126  0.054278885            4 
 2113000   0.91298657   -4.4727329     1379.277  0.054396476  0.054269256            3 
 2114000    0.9053563   -4.4622976     1385.859  0.054630205  0.054259526            4 
 2115000    0.9234119   -4.4485167    1388.0909  0.054692313  0.054249797            2 
 2116000   0.90879449    -4.463372    1382.6333  0.054451533  0.054240187            4 
 2117000   0.91755486   -4.5086652    1378.5438  0.054264834  0.054230187            3 
 2118000   0.89461538   -4.4769135    1383.6969  0.054441962  0.054220259            6 
 2119000   0.91017815   -4.4502859    1385.4636  0.054485748  0.054210358            2 
 2120000   0.92206063   -4.4815978    1383.0123  0.054363689  0.054200489            2 
 2121000   0.91237841   -4.4655136    1385.0691   0.05441887  0.054190581            3 
 2122000   0.90988331   -4.4734302    1384.9336  0.054387903  0.054180681            5 
 2123000   0.91762299   -4.4720068     1385.628  0.054389544  0.054170792            6 
 2124000   0.91499558   -4.4683514    1386.3058  0.054390527  0.054160874            4 
 2125000   0.87944332   -4.4864819     1385.532  0.054334589  0.054150822            6 
 2126000   0.92051051   -4.4650101    1383.1593  0.054216026  0.054140964            5 
 2127000   0.90349086   -4.4510569    1388.7106   0.05440803  0.054130953            3 
 2128000   0.90937314   -4.4740522    1384.8676  0.054231969  0.054120919            4 
 2129000   0.91248695   -4.4648813    1385.7599  0.054241424  0.054111192            3 
 2130000   0.91147836   -4.4595009    1386.3061  0.054237327  0.054101326            2 
 2131000   0.89270514   -4.4757543    1389.9465  0.054354234  0.054091461            5 
 2132000   0.89942876   -4.4754181    1385.0901   0.05413892  0.054081682            2 
 2133000   0.92139003   -4.4649524    1388.7441  0.054256296  0.054071984            3 
 2134000    0.9003039    -4.502361    1390.4514   0.05429754   0.05406238            4 
 2135000   0.92542955   -4.4654549    1391.6443  0.054318671  0.054052662            4 
 2136000   0.90124565   -4.4513409    1393.4962  0.054365487  0.054042918            3 
 2137000   0.88603258   -4.4731743    1387.0849  0.054090036  0.054033074            2 
 2138000   0.90849869   -4.4905692    1388.0377  0.054101873    0.0540233            6 
 2139000    0.9004123   -4.4675335    1395.0312  0.054349042  0.054013624            5 
 2140000   0.91259376    -4.474463    1393.9805   0.05428273  0.054003829            5 
 2141000   0.89061478   -4.4745514    1392.1536  0.054186268   0.05399414            6 
 2142000   0.91800937    -4.460159    1394.6577  0.054258392  0.053984315            4 
 2143000   0.91131547   -4.5028295    1391.8989  0.054125795  0.053974586            2 
 2144000   0.89972855   -4.4392174    1395.3066  0.054232999  0.053964968            2 
 2145000   0.90908667   -4.4809879    1393.5245   0.05413848  0.053955112            4 
 2146000   0.89641784   -4.4723105    1392.1913  0.054061481  0.053945279            3 
 2147000   0.88305063   -4.4747443    1395.3855   0.05416028   0.05393542            6 
 2148000   0.90652188   -4.4457134    1396.8492  0.054191851  0.053925593            3 
 2149000   0.91067962   -4.4671205     1393.666    0.0540432  0.053915871            4 
 2150000   0.88263984   -4.4766192    1396.2255  0.054117267  0.053905971            4 
 2151000   0.91365609   -4.4574221    1399.0584   0.05420186  0.053896051            3 
 2152000   0.89343074   -4.4301901    1399.1031  0.054178403    0.0538863            4 
 2153000   0.91060889   -4.4878583    1395.4331  0.054011189  0.053876372            2 
 2154000    0.9128266   -4.4597447    1398.9727  0.054123055  0.053866491            4 
 2155000   0.91738124   -4.4357263    1395.7927  0.053974969  0.053856715            4 
 2156000   0.90255551   -4.4619281    1399.5565  0.054095411  0.053847046            3 
 2157000    0.9238862   -4.4714741    1405.9388  0.054316907  0.053837354            2 
 2158000   0.92390348   -4.4656346     1399.637  0.054048386  0.053827489            3 
 2159000   0.89289645   -4.4807495    1402.6396  0.054139245  0.053817621            3 
 2160000   0.90741221   -4.4528553    1402.0013  0.054089555  0.053808091            3 
 2161000    0.8981753    -4.474667    1398.4495  0.053927559  0.053798318            4 
 2162000   0.93823949    -4.474061    1402.3416  0.054052637  0.053788676            4 
 2163000    0.8879486   -4.4938742    1401.3459  0.053989285  0.053779037            6 
 2164000   0.90462171   -4.4836951    1401.6955    0.0539778    0.0537694            3 
 2165000   0.89926316   -4.4934261    1401.4334   0.05394278  0.053759816            4 
 2166000   0.91438595   -4.4876761    1408.6173  0.054194265  0.053750236            6 
 2167000   0.89056112   -4.4841873    1407.1747  0.054113778  0.053740625            4 
 2168000   0.90847557   -4.4699384    1406.7385  0.054072053   0.05373103            3 
 2169000   0.91567184   -4.4844747    1405.7552  0.054009345  0.053721522            5 
 2170000   0.90742122   -4.4689449    1407.1229  0.054036979  0.053711927            3 
 2171000   0.90422734   -4.4551823    1413.5297  0.054258011  0.053702478            5 
 2172000   0.90765059   -4.4758124    1408.5385  0.054041532  0.053693005            6 
 2173000   0.88005393   -4.4566533    1404.9458  0.053878883  0.053683475            5 
 2174000   0.90783549   -4.5023039    1408.1314  0.053976209  0.053673905           10 
 2175000   0.88471625   -4.4725479    1405.0322   0.05383265  0.053664175            3 
 2176000   0.88883746   -4.4799304    1404.0116  0.053768825  0.053654494            5 
 2177000   0.90261482   -4.4988387    1403.9933  0.053743428   0.05364457            3 
 2178000   0.88191243   -4.4710142    1412.3351  0.054037919  0.053634631            4 
 2179000   0.93546049   -4.4536628    1404.5229  0.053714352  0.053625021            4 
 2180000    0.9109844   -4.4780699     1410.611   0.05392244  0.053615424            6 
 2181000   0.92835962   -4.4835062    1408.0087  0.053798285  0.053605617            6 
 2182000   0.91753946   -4.4809942    1411.8832  0.053921599  0.053595884            4 
 2183000   0.89227116   -4.5147672     1404.885  0.053629753  0.053586248            2 
 2184000   0.89248864   -4.4775266    1411.1806  0.053845415  0.053576412            6 
 2185000    0.9106369   -4.4787779    1412.6212  0.053875712   0.05356676            4 
 2186000   0.89687827   -4.4674099     1411.817   0.05382041  0.053557358            4 
 2187000   0.88914405   -4.4891559    1412.5449  0.053823536  0.053547779            3 
 2188000   0.89605146   -4.4933457    1414.9428  0.053890263  0.053538016            3 
 2189000   0.87670769   -4.4798715    1409.8325  0.053671103  0.053528297            4 
 2190000   0.91417203   -4.4816478       1409.9  0.053649163  0.053518701            3 
 2191000   0.90928798   -4.4680395    1416.4233  0.053872785  0.053509027            3 
 2192000   0.91073396   -4.4556151    1413.0756  0.053720941  0.053499533            8 
 2193000   0.89484619   -4.4689271    1415.7594  0.053798426  0.053489862            5 
 2194000   0.90614074   -4.4766437    1414.7824  0.053736798  0.053480264            2 
 2195000   0.90929499   -4.4869011    1413.8305  0.053676176  0.053470583            2 
 2196000   0.90611601   -4.4576816    1416.3621  0.053747802   0.05346102            2 
 2197000   0.87836892   -4.5049015    1418.3919  0.053800332  0.053451456            6 
 2198000   0.89360151   -4.4920901    1419.2137  0.053807011   0.05344186            4 
 2199000   0.90619193   -4.5067142    1419.3188  0.053786523  0.053432239            5 
 2200000   0.89849401   -4.4868959    1420.0711  0.053790573  0.053422548            5 
 2201000   0.92087853   -4.4957383    1421.6685  0.053826611  0.053412992            4 
 2202000   0.90749333    -4.520921    1417.0919   0.05362897   0.05340338            3 
 2203000   0.89750934   -4.4995509    1418.8759  0.053672112  0.053393743            4 
 2204000     0.895518   -4.4778808    1421.1103  0.053732242   0.05338433            2 
 2205000   0.89681908   -4.4645229    1421.5477  0.053724402   0.05337479            4 
 2206000   0.90962745   -4.4800522    1422.5889  0.053739379  0.053365129            2 
 2207000   0.92043331   -4.4912513    1419.8969  0.053613386  0.053355579            3 
 2208000   0.89572105   -4.4829421    1415.9544  0.053440307  0.053346217            4 
 2209000   0.89815295    -4.509893    1420.7102  0.053595524  0.053336689            2 
 2210000   0.89329272   -4.4851291    1420.2622  0.053554383  0.053327035            2 
 2211000   0.90215075   -4.4979871    1422.0852  0.053598868  0.053317386            3 
 2212000   0.89871804   -4.5189391    1421.9243  0.053568577  0.053307805            5 
 2213000   0.90683371    -4.515398    1419.4687  0.053451902  0.053298384            4 
 2214000   0.89933031   -4.5156714    1422.3829  0.053537448  0.053288926            7 
 2215000   0.90305577   -4.4996505    1424.3867  0.053588665  0.053279497            2 
 2216000    0.8857914   -4.4950572    1425.2607  0.053597349  0.053270108            2 
 2217000    0.9129455   -4.4749996    1427.2437  0.053647711  0.053260655            3 
 2218000   0.90928843   -4.4948187    1426.4636  0.053594215  0.053250975            4 
 2219000   0.90562929   -4.4894131     1424.556  0.053498423  0.053241358            3 
 2220000   0.90469276    -4.494639    1422.6427  0.053402502  0.053231691            6 
 2221000   0.89960827   -4.4852768    1430.2536  0.053664024  0.053222085            3 
 2222000   0.89722173   -4.4828911    1431.8137  0.053698384  0.053212548            2 
 2223000   0.88155642   -4.4909045    1428.4839  0.053549404    0.0532028            3 
 2224000   0.89295065   -4.4759162    1427.2543  0.053479252  0.053193261            7 
 2225000   0.89297487   -4.5167979    1426.6463  0.053432444  0.053183672            3 
 2226000   0.89453214   -4.4983338     1431.586  0.053593367  0.053174235            3 
 2227000   0.90079681   -4.4748829     1430.211   0.05351785  0.053164792            4 
 2228000   0.91340214   -4.4996584    1425.5533  0.053319617  0.053155298            4 
 2229000   0.90916656   -4.5080661    1428.5423  0.053407445  0.053145722            2 
 2230000   0.87631835    -4.472087    1432.4535  0.053529652  0.053136207            2 
 2231000   0.89969186   -4.4964946    1425.3153   0.05323903  0.053126671            3 
 2232000   0.89633449   -4.5126293    1429.4266  0.053368676  0.053117032            5 
 2233000   0.88917887   -4.5347358    1432.2408  0.053449798  0.053107464            2 
 2234000   0.89369881   -4.4687554     1435.256  0.053538347  0.053097826            5 
 2235000   0.89247741   -4.4953633    1434.3538  0.053480755  0.053088394            3 
 2236000   0.88089539   -4.5162249    1431.2545  0.053341326  0.053078878            3 
 2237000    0.8945682   -4.4822028    1432.1813  0.053352009  0.053069323            3 
 2238000   0.89861527   -4.4987104    1432.4419   0.05333787  0.053059992            3 
 2239000   0.89453109    -4.523901    1433.5065  0.053353674  0.053050348            4 
 2240000   0.88513874   -4.4870222    1431.1455  0.053242021  0.053040853            5 
 2241000    0.8737364   -4.4904841    1436.7343  0.053426086  0.053031279            7 
 2242000   0.87696254    -4.513977    1435.2151  0.053345787  0.053021652            5 
 2243000   0.89906394    -4.500694    1439.9415  0.053497605  0.053012249            3 
 2244000   0.90977098   -4.4941488    1438.5344  0.053421511  0.053002775            5 
 2245000   0.90587727   -4.5130409    1434.7833  0.053258473  0.052992912            5 
 2246000   0.88684508   -4.5369847     1431.711  0.053120772   0.05298323            5 
 2247000   0.88946275   -4.4844358     1438.088  0.053333632  0.052973684            5 
 2248000   0.89014146   -4.4935277    1433.1798  0.053127957  0.052964078            8 
 2249000   0.88304304   -4.5157532    1432.9988  0.053097627  0.052954276            9 
 2250000   0.87736833   -4.5037025    1434.5896  0.053132947  0.052944596            6 
 2251000   0.89391273   -4.4883474    1432.7284  0.053040443  0.052934948            4 
 2252000   0.89850632   -4.4967512    1433.8114  0.053056964  0.052925397            6 
 2253000   0.89390463   -4.5182788    1435.6979  0.053103191  0.052915723            6 
 2254000   0.88211912   -4.5017021    1440.8754  0.053271053  0.052905898            2 
 2255000   0.89097191    -4.497245    1441.0247  0.053252944   0.05289638            3 
 2256000    0.8976961    -4.514148    1440.9915  0.053228116   0.05288676            3 
 2257000    0.8975752   -4.5107676       1439.3  0.053142077  0.052877051            6 
 2258000   0.89833968   -4.5253675    1439.4559  0.053124296  0.052867425            6 
 2259000   0.88244936   -4.5091396    1439.4905  0.053102054  0.052857719            3 
 2260000   0.90763127   -4.5130202    1439.6453  0.053084267  0.052847877            3 
 2261000   0.88893157   -4.5116226    1438.5192  0.053019284  0.052838118            2 
 2262000   0.87964546   -4.4985105    1440.6259  0.053073458  0.052828271            2 
 2263000   0.89337044    -4.541348    1435.0148  0.052843379  0.052818252            4 
 2264000   0.89405123   -4.5058006     1440.502   0.05302201    0.0528083            3 
 2265000   0.88870115   -4.5040933    1441.4647  0.053034023  0.052798347            5 
 2266000   0.89448556   -4.4891832    1442.6015  0.053052424  0.052788618            4 
 2267000   0.88526492   -4.5143774    1440.0454  0.052935059   0.05277883            5 
 2268000   0.90018226   -4.5092156    1437.6477  0.052823624  0.052768871            4 
 2269000   0.87742629    -4.522997    1442.2221  0.052968346  0.052758894            7 
 2270000   0.89149038   -4.4899068    1441.9731   0.05293587  0.052749006            5 
 2271000   0.89031113   -4.4962967    1442.0118  0.052913981  0.052739145           10 
 2272000   0.89761806   -4.4914203     1448.779    0.0531389  0.052729483            3 
 2273000   0.89375321   -4.5124559    1445.1686  0.052983158  0.052719696            3 
 2274000   0.91992871   -4.5205193    1442.3235  0.052855596  0.052709897            4 
 2275000   0.90548362   -4.5038017    1442.1128  0.052824643  0.052700171            5 
 2276000   0.88966574   -4.5227164    1442.0721  0.052799944  0.052690252            3 
 2277000   0.89468928   -4.5161958    1444.4411  0.052863458  0.052680403            6 
 2278000    0.9000881   -4.5028989    1444.0351  0.052825398  0.052670553            5 
 2279000   0.90117274   -4.5023334    1446.3239  0.052885913  0.052660684            5 
 2280000    0.8669488    -4.531601    1444.9646  0.052813034  0.052650933            6 
 2281000   0.88878326   -4.5256403    1447.4676  0.052881325    0.0526413            6 
 2282000    0.8775867   -4.5173382    1444.0363  0.052732847  0.052631586            3 
 2283000   0.89326835   -4.5233637    1450.0663  0.052929853  0.052621876            3 
 2284000   0.89471693   -4.5371337    1447.3765  0.052808543  0.052612001            4 
 2285000   0.88170502   -4.5030392    1456.4256   0.05311545  0.052602262            6 
 2286000   0.87427764   -4.5019117    1450.1688  0.052864129  0.052592736            6 
 2287000   0.90462299   -4.5041282    1448.4388  0.052777977  0.052583028            4 
 2288000   0.88820342   -4.5579935    1442.8777  0.052552363   0.05257325            6 
 2289000   0.88933915   -4.5100791    1448.0255  0.052716814  0.052563638            4 
 2290000   0.88429745   -4.5098213    1452.1711  0.052844655  0.052553875            3 
 2291000   0.91058735   -4.5153461    1448.1889  0.052676739  0.052544308            4 
 2292000   0.89514992   -4.5074556    1451.1542  0.052761568  0.052534719            7 
 2293000   0.89609965   -4.5203459    1455.4407   0.05289434  0.052525301            5 
 2294000   0.89103683    -4.533504    1455.0084  0.052855579   0.05251572            8 
 2295000   0.89286221    -4.504435     1454.912  0.052829049  0.052506014            4 
 2296000   0.87098711   -4.5117056    1456.7234  0.052871783  0.052496464            3 
 2297000   0.87624219   -4.5185635    1450.4884  0.052622567  0.052486849            5 
 2298000   0.87194053   -4.5080213    1450.9943  0.052618011  0.052477042            2 
 2299000   0.86747281   -4.5410728    1452.7858  0.052660061  0.052467355            3 
 2300000   0.88309053   -4.5140656    1453.6408  0.052668143  0.052457645            4 
 2301000    0.8899906   -4.4948733    1458.7596  0.052830637  0.052447886            2 
 2302000   0.89808894   -4.5233959    1457.2581  0.052753333   0.05243835            3 
 2303000   0.90479688   -4.5227675    1454.1892  0.052619381  0.052428647            2 
 2304000   0.89036126   -4.5219878     1453.231  0.052561886  0.052418947            5 
 2305000   0.87357607   -4.4948154    1455.5235  0.052621963  0.052409348            3 
 2306000   0.88616566   -4.5263658    1457.5796  0.052673445  0.052399879            8 
 2307000   0.88500574   -4.5055566     1457.456  0.052646151  0.052390231            8 
 2308000   0.90305334   -4.5394822    1454.7281  0.052524846   0.05238063            6 
 2309000   0.91863289   -4.5199707    1463.8396  0.052830938  0.052371031            3 
 2310000   0.86747098   -4.5121224    1461.3783  0.052719274  0.052361488            5 
 2311000   0.87202182   -4.5259886    1455.8238   0.05249617  0.052351923            4 
 2312000   0.89085999   -4.4955223    1456.3543  0.052492587   0.05234229            4 
 2313000   0.88707243   -4.5429835    1463.1347  0.052714178  0.052332832            4 
 2314000     0.872971   -4.5098412    1461.9443  0.052648529  0.052323316            4 
 2315000   0.89756861   -4.5333788    1463.0736  0.052666435  0.052313723            3 
 2316000   0.87057037   -4.5141133    1463.0106  0.052641429  0.052304087            6 
 2317000   0.86775708    -4.557099    1458.3958  0.052452733  0.052294574            5 
 2318000   0.87521375   -4.5270484    1463.3143  0.052606928  0.052284673            4 
 2319000   0.89039352   -4.5307755    1465.8372  0.052674902  0.052275056            3 
 2320000   0.89522631   -4.5616019    1459.7446  0.052433353  0.052265461            9 
 2321000   0.86849322   -4.5132766    1464.6732  0.052587721  0.052255676            2 
 2322000   0.86822686   -4.5258243    1462.8615  0.052500054  0.052246118            2 
 2323000   0.86082447   -4.5185212    1459.8551  0.052369605  0.052236414            2 
 2324000   0.87521528   -4.5382843    1461.2461  0.052396949  0.052226717            3 
 2325000   0.87017844   -4.5259183    1459.8405  0.052324034  0.052217018            5 
 2326000   0.88742074   -4.5124618    1465.6455  0.052509511  0.052207245            2 
 2327000   0.87662056   -4.4981497    1467.9711  0.052570231  0.052197607            4 
 2328000   0.87226129   -4.5156858    1463.3677  0.052382866  0.052188094            3 
 2329000   0.88805395   -4.5351496    1467.5385  0.052509606  0.052178498            3 
 2330000   0.87177473    -4.523222    1468.2482  0.052512454  0.052168851            2 
 2331000   0.87759183   -4.5071692    1467.7616  0.052472529  0.052159198            5 
 2332000   0.86948462   -4.5324844     1467.737  0.052449151  0.052149628            3 
 2333000   0.87601951   -4.5018372     1469.789  0.052499965  0.052140048            4 
 2334000    0.8859495   -4.5353001    1466.2534  0.052351237  0.052130407            4 
 2335000   0.88104717   -4.5162116    1467.0451  0.052357071  0.052120509            4 
 2336000   0.86997742   -4.5324071    1470.0412  0.052441539  0.052110713            3 
 2337000   0.85920565   -4.5196841    1473.5656  0.052544772  0.052101008           10 
 2338000   0.87767124   -4.5426818    1466.7603  0.052279738  0.052091097            5 
 2339000   0.87917623   -4.5250563    1463.6931  0.052148109  0.052081144            8 
 2340000   0.87647012   -4.5150387    1468.7217  0.052304903  0.052071237            4 
 2341000   0.89758434   -4.5228185    1465.0931  0.052153393  0.052061342            3 
 2342000   0.88696097   -4.5395444    1464.8433  0.052122235  0.052051361            6 
 2343000   0.89124198   -4.5201734    1464.8067  0.052098688  0.052041431            4 
 2344000   0.89732106   -4.5507419     1466.696  0.052143629  0.052031373            4 
 2345000    0.8729318   -4.5231507    1467.9953  0.052167567  0.052021265            5 
 2346000   0.85250435   -4.5254374    1469.1098  0.052184919  0.052011133            2 
 2347000   0.89110782   -4.5317497    1469.1906  0.052165552  0.052000959            2 
 2348000    0.8818774   -4.5481478    1467.1239  0.052069985  0.051990906            4 
 2349000   0.88712459   -4.5386349    1468.4976  0.052096553  0.051980835            4 
 2350000   0.87521147   -4.5117655    1470.9679  0.052161981  0.051970866            2 
 2351000   0.87848813   -4.5093302     1468.906  0.052066711  0.051960682            3 
 2352000   0.86305448   -4.5323509     1462.889  0.051831383  0.051950591            3 
 2353000   0.86433129   -4.5388011    1467.2774  0.051964776  0.051940362            6 
 2354000   0.85120727     -4.52273    1471.3513  0.052086919  0.051930209            5 
 2355000    0.8466092   -4.5421707    1471.1448  0.052057495   0.05192018            2 
 2356000   0.88317896    -4.527767     1473.831  0.052130413  0.051910098            4 
 2357000   0.88492628   -4.5498814    1466.6819  0.051855532  0.051899909            3 
 2358000   0.86821627   -4.5608869    1464.4755  0.051755567   0.05188955            6 
 2359000   0.84643063   -4.5402216    1466.7731  0.051814792  0.051879234            4 
 2360000   0.88443441   -4.5319448    1469.7507  0.051897978  0.051868905            4 
 2361000   0.87086792   -4.5421923    1467.5257  0.051797462  0.051858633           10 
 2362000   0.87533032   -4.5214177    1465.9801  0.051721003  0.051848341            5 
 2363000   0.87558952   -4.5282125    1474.7011  0.052006669  0.051838102            5 
 2364000   0.86510898   -4.5369956    1468.5943  0.051769398  0.051827733            5 
 2365000   0.88665659   -4.5000353    1469.9538  0.051795414   0.05181743            6 
 2366000    0.8726243   -4.5182109    1471.1756  0.051816553  0.051807079            2 
 2367000   0.87181024   -4.5497559    1467.3909  0.051661419  0.051796864            2 
 2368000   0.86507493   -4.5593897    1470.7868  0.051759107  0.051786487            4 
 2369000   0.89328171   -4.5387812    1473.4276  0.051830153  0.051776114            3 
 2370000   0.88584989   -4.5411036    1473.0367  0.051794538  0.051765819            4 
 2371000    0.8697681   -4.5692371     1471.713  0.051726172  0.051755413            6 
 2372000   0.87132402   -4.5579608    1470.4744  0.051660848   0.05174491            4 
 2373000   0.88185795   -4.5332106    1469.1731   0.05159338   0.05173446            5 
 2374000   0.87943658   -4.5494127     1468.638  0.051552865  0.051724106            4 
 2375000   0.88448287   -4.5406427    1474.4637  0.051735567  0.051713652            5 
 2376000    0.8652816   -4.5283033    1473.1948  0.051669291  0.051703282            4 
 2377000   0.87750275   -4.5634673    1469.2053  0.051507687  0.051692671            4 
 2378000   0.86802684   -4.5511915    1472.1517  0.051589281  0.051682208            5 
 2379000   0.86797656   -4.5430525    1470.7465  0.051518374   0.05167171            3 
 2380000   0.87224099   -4.5383372     1471.848  0.051535293  0.051661027            6 
 2381000   0.87920471   -4.5445376    1470.0178  0.051449594    0.0516505            4 
 2382000   0.86965999   -4.5358022    1469.6102  0.051413734  0.051639968            7 
 2383000   0.88163106    -4.532971    1473.9387  0.051543527  0.051629517            5 
 2384000   0.87199376   -4.5234471    1475.2451  0.051567572   0.05161901            5 
 2385000   0.85248272   -4.5684292    1475.3989  0.051551326  0.051608511           15 
 2386000   0.86890499   -4.5857397    1469.5642  0.051325934  0.051598019            4 
 2387000    0.8785675   -4.5566828    1475.1889    0.0515008  0.051587682            3 
 2388000   0.86021589   -4.5968433    1469.3308  0.051274803  0.051577279            5 
 2389000    0.8889075   -4.5678873    1477.8858   0.05155176  0.051566701            4 
 2390000   0.87473215   -4.5436376    1472.9223  0.051357124  0.051556062            4 
 2391000   0.86949097   -4.5405024    1478.5068  0.051530281  0.051545467            7 
 2392000   0.87201057    -4.543473    1472.8491  0.051311631  0.051534852            5 
 2393000   0.88827849   -4.5514396    1473.8931  0.051326547  0.051524178            6 
 2394000   0.86442698   -4.5424368    1481.4287  0.051567416   0.05151367            5 
 2395000    0.8724201   -4.5832214    1471.0154  0.051183555   0.05150306            4 
 2396000   0.86216477   -4.5427609    1478.8126  0.051433381   0.05149251            5 
 2397000    0.8577235   -4.5295628    1480.3905   0.05146678   0.05148201            5 
 2398000   0.86650262    -4.543954     1477.173  0.051333506  0.051471432            4 
 2399000   0.86540801   -4.5363075    1482.4307  0.051494745  0.051460859            5 
 2400000   0.87629605   -4.5310806    1478.3914  0.051333034  0.051450412            4 
 2401000   0.84701229   -4.5396466    1479.2008  0.051339747  0.051439873            4 
 2402000   0.85671391   -4.5337924    1481.6064  0.051401831  0.051429337            4 
 2403000   0.85900216   -4.5471046    1478.3615   0.05126791  0.051418949            3 
 2404000   0.85426866   -4.5624775    1483.6089  0.051428485  0.051408588            6 
 2405000   0.86458141   -4.5493314    1482.5217  0.051369428   0.05139817            3 
 2406000   0.84949188   -4.5501719    1483.7593  0.051390944  0.051387797           10 
 2407000   0.86127136   -4.5439413    1483.9455  0.051376037  0.051377376            3 
 2408000   0.86764626   -4.5544842    1487.0877  0.051463445  0.051366931            2 
 2409000   0.86254161   -4.5588645    1484.7875  0.051362511  0.051356615            5 
 2410000   0.88045223   -4.5637958    1482.5153   0.05126263  0.051346311            5 
 2411000   0.88031267   -4.5549983    1485.0642  0.051329471  0.051335929            5 
 2412000   0.86706883   -4.5153766    1489.9415  0.051476698  0.051325647            3 
 2413000   0.84718874   -4.5338788    1484.8503  0.051279538  0.051315392            3 
 2414000   0.85457855   -4.5519219    1487.3559  0.051344792  0.051305133            4 
 2415000   0.84694912   -4.5706228    1483.8263  0.051201735  0.051294773            5 
 2416000   0.85590861   -4.5506017    1484.6356  0.051208456  0.051284448            5 
 2417000   0.88120101   -4.5627903    1487.9421  0.051301271  0.051274116            3 
 2418000    0.8855981   -4.5443069    1494.1025  0.051492367   0.05126381            3 
 2419000   0.88382737   -4.5703538    1483.3781  0.051101631  0.051253416            3 
 2420000   0.86301512   -4.5435783    1487.4152  0.051219531  0.051243059            7 
 2421000   0.88636723   -4.5703535    1486.0491  0.051151351  0.051232586            5 
 2422000   0.86390238   -4.5790559    1487.1624   0.05116854  0.051222242            4 
 2423000   0.87474233   -4.5715436    1492.7067  0.051338103   0.05121193            5 
 2424000   0.87883023   -4.5524268    1486.2143  0.051093725  0.051201685            7 
 2425000   0.87757574     -4.57165    1486.7597  0.051091399   0.05119143            5 
 2426000    0.8723115   -4.5407361    1495.1737  0.051359359  0.051181216            6 
 2427000   0.86709762    -4.562961    1493.2081  0.051270708  0.051170976            4 
 2428000   0.86310132   -4.5309062    1491.1406  0.051178632  0.051160797            5 
 2429000   0.86656192   -4.5459699    1495.7601  0.051316047  0.051150817            7 
 2430000   0.86479676   -4.5583333    1493.6698  0.051223243  0.051140731            2 
 2431000   0.86747013   -4.5758428    1491.1481  0.051115731  0.051130449            4 
 2432000   0.88152769   -4.5435903    1496.3034  0.051271361  0.051120399            6 
 2433000   0.87354496   -4.5784268    1494.9525  0.051204016  0.051110237            4 
 2434000   0.84461702   -4.5297613    1493.4574  0.051131794  0.051100204            4 
 2435000   0.85608973   -4.5801286    1495.6267  0.051185035  0.051090107            9 
 2436000     0.861749   -4.5735691    1493.8864   0.05110449  0.051079928            4 
 2437000   0.86301409   -4.5580138    1495.6703  0.051144517  0.051069707            4 
 2438000   0.84910136   -4.5663957    1497.5642  0.051188274  0.051059745            2 
 2439000   0.86551574   -4.5540689    1500.1309  0.051254983   0.05104962            8 
 2440000   0.87591509   -4.5719946    1496.3121  0.051103554  0.051039516            8 
 2441000   0.85543002   -4.5415585    1497.7329  0.051131125  0.051029308            3 
 2442000   0.85906171   -4.5615757    1495.8499  0.051045929  0.051019072            3 
 2443000    0.8722467   -4.5587559    1492.6096  0.050914506  0.051008877            6 
 2444000   0.87255398   -4.5650789    1502.2091  0.051220988  0.050998643            5 
 2445000   0.85239836   -4.5763661    1494.5901  0.050940359  0.050988465            7 
 2446000   0.85920467   -4.5604948    1502.5618  0.051191121  0.050978131            5 
 2447000   0.86968828   -4.5692001    1492.3301  0.050821759  0.050967911            4 
 2448000   0.85070734   -4.5717783    1497.0207  0.050960671  0.050957498            6 
 2449000   0.85881316   -4.5789833    1496.5983  0.050925491  0.050947116            4 
 2450000   0.85381686   -4.5587892    1497.8048  0.050945743  0.050936635            5 
 2451000    0.8352888   -4.5461585    1499.4851  0.050982086  0.050926311            4 
 2452000    0.8627895    -4.560066    1497.8939  0.050907215  0.050915979            5 
 2453000   0.86018634   -4.5870507    1494.4747  0.050770305  0.050905667            5 
 2454000   0.85701574   -4.5536112    1497.9197  0.050866603  0.050895259            3 
 2455000   0.86636886   -4.5732248    1500.5901  0.050936528  0.050885079            6 
 2456000   0.86523246   -4.5859619    1497.6354  0.050815533  0.050874561            2 
 2457000   0.85107143   -4.5496249    1506.8292  0.051106675  0.050864228            2 
 2458000    0.8661215   -4.5942688    1496.5905  0.050738761  0.050853818            5 
 2459000   0.86996596   -4.5567595       1498.3  0.050776061  0.050843444            5 
 2460000   0.85324624   -4.5608129    1499.7567  0.050804766  0.050832974            5 
 2461000    0.8464353   -4.5668477    1502.5054  0.050877199  0.050822618            8 
 2462000   0.86726815   -4.5867089    1503.3882  0.050886412  0.050812233            5 
 2463000   0.86367471   -4.5634174    1501.3533  0.050796904   0.05080184            3 
 2464000   0.83884686   -4.5731726    1503.5918  0.050851997  0.050791589            5 
 2465000   0.85892505   -4.5665069    1499.2611   0.05068496  0.050781055            4 
 2466000   0.85269732   -4.5567252    1502.2896  0.050766748  0.050770824            3 
 2467000   0.86512146   -4.5752905    1504.2648  0.050812891  0.050760526            3 
 2468000    0.8664911   -4.5685067    1503.2679   0.05075864  0.050750181            9 
 2469000   0.85145654   -4.5461089    1503.2353  0.050736983  0.050739884            4 
 2470000   0.84913159   -4.5803874    1506.3248  0.050820673  0.050729545            2 
 2471000    0.8552209   -4.5829133    1505.2236   0.05076297  0.050719408            4 
 2472000   0.85977991    -4.557107    1506.0206  0.050769304   0.05070917            8 
 2473000   0.86024373   -4.5826489    1509.8657  0.050878344  0.050698904            2 
 2474000   0.85246761   -4.5815394     1503.352  0.050638372  0.050688764            5 
 2475000   0.87415498   -4.6080793    1505.3002  0.050683509  0.050678544            3 
 2476000   0.86641264   -4.5650165    1506.2503  0.050695015  0.050668336            6 
 2477000   0.87525066   -4.5656656     1510.802  0.050827681  0.050658164            3 
 2478000   0.83793644   -4.5496879    1505.6867  0.050635148  0.050648058            9 
 2479000   0.84962601   -4.5488238    1510.9958  0.050793189  0.050637948            5 
 2480000   0.85881668   -4.5886608    1505.9189  0.050602113  0.050627792            3 
 2481000   0.85572382   -4.5820046    1510.8791  0.050748324  0.050617632            5 
 2482000   0.84754862   -4.5646879    1516.5224  0.050917353  0.050607557            7 
 2483000   0.84883383   -4.5806479    1510.7787  0.050704079  0.050597484            4 
 2484000    0.8490805   -4.5606406    1510.9515  0.050689462  0.050587248            3 
 2485000   0.83861637   -4.5590636    1510.9078    0.0506676  0.050576998            5 
 2486000   0.84002301   -4.5559548    1513.9088  0.050747814  0.050566981            3 
 2487000   0.85004984   -4.5803505    1515.0893  0.050766966  0.050556875            5 
 2488000   0.84234634   -4.5697136    1513.5394  0.050694649  0.050546664            4 
 2489000   0.85401845   -4.5752672      1510.41  0.050569507  0.050536483           13 
 2490000    0.8489098   -4.5593471    1510.0103   0.05053582  0.050526231            8 
 2491000    0.8500248   -4.5502812    1519.5066  0.050833219  0.050516216            4 
 2492000   0.88193376   -4.5907896    1514.6245   0.05064956  0.050506132            3 
 2493000   0.85618848   -4.5838095    1508.8678  0.050436818  0.050496014           11 
 2494000   0.85299346   -4.5772294    1514.1304  0.050592436  0.050485874            5 
 2495000   0.85330803   -4.5829458    1517.1981  0.050674619  0.050475808            4 
 2496000   0.85447799   -4.5417421    1520.3236  0.050758666  0.050465761            5 
 2497000   0.87606952   -4.5714678    1514.9639   0.05055947  0.050455703            5 
 2498000   0.83060691   -4.5682339    1513.0949   0.05047688  0.050445677            5 
 2499000    0.8544356   -4.5855171     1515.797  0.050546786   0.05043575            5 
 2500000   0.86387831   -4.5788243    1518.6867  0.050622889   0.05042579           12 
 2501000    0.8577512   -4.5687101     1522.943   0.05074447  0.050415801            5 
 2502000   0.84406141   -4.5834328    1515.1525  0.050464712  0.050405727           10 
 2503000    0.8653489   -4.5654202    1513.9907   0.05040587   0.05039555            5 
 2504000   0.85308423   -4.5754996     1514.795  0.050412506  0.050385471            6 
 2505000   0.82829524   -4.5863148    1518.3494  0.050510626  0.050375258            2 
 2506000   0.83938646    -4.602819    1518.6623  0.050500874  0.050365133            3 
 2507000   0.86478909   -4.5879804    1518.5423  0.050476743  0.050355188            4 
 2508000   0.84902185   -4.6121806    1515.0397  0.050340233  0.050345003            5 
 2509000   0.83807002   -4.5904688    1522.9262  0.050582111   0.05033498            4 
 2510000   0.84683986   -4.5880355    1517.4149   0.05037898  0.050324902           10 
 2511000   0.87155174   -4.5706727    1523.2588  0.050552861   0.05031483            5 
 2512000   0.84441815   -4.5903467    1515.6892  0.050281621  0.050304804            4 
 2513000   0.86120806   -4.5896821    1522.4144  0.050484628  0.050294774            5 
 2514000   0.86445499   -4.6029684    1525.8579   0.05057869  0.050284781            5 
 2515000   0.86350507   -4.5628315    1521.4084  0.050411148  0.050274889            3 
 2516000   0.85489387   -4.5819212    1524.8829  0.050506192  0.050264961            3 
 2517000   0.85062996   -4.6072716    1520.8329  0.050352036  0.050255072            7 
 2518000   0.83705467   -4.5643818    1522.3258  0.050381449  0.050245077            5 
 2519000   0.85992528   -4.5963591    1517.2381  0.050193137  0.050235112            2 
 2520000   0.84436023   -4.5867555     1522.803  0.050357243  0.050225081            4 
 2521000    0.8290268   -4.5911028     1527.332  0.050486974  0.050215016            3 
 2522000   0.85387182   -4.6220145    1527.9844  0.050488514  0.050205115            7 
 2523000   0.86615266   -4.5991381    1524.2044  0.050343652  0.050195003            5 
 2524000   0.84229616   -4.5690577    1526.2686  0.050391859  0.050185106            2 
 2525000   0.86152725   -4.5810176    1529.1509  0.050467028   0.05017519            8 
 2526000   0.84019511   -4.6145448    1519.4665  0.050127557  0.050165232            6 
 2527000   0.84562981   -4.5737468     1532.715  0.050544618  0.050155315            4 
 2528000   0.83182022   -4.5777659    1529.3415  0.050413419  0.050145371            6 
 2529000    0.8590355   -4.6003901    1527.1398  0.050320938  0.050135518            2 
 2530000   0.84664893   -4.5636368    1526.4562  0.050278531  0.050125646            5 
 2531000   0.86617078   -4.5984661    1529.5782  0.050361457  0.050115764            7 
 2532000   0.84901397   -4.5704619     1530.744  0.050379937  0.050105818            4 
 2533000   0.86358863   -4.5721507    1528.2807  0.050279008  0.050095968            8 
 2534000   0.84918902   -4.5699481    1528.8256  0.050277084  0.050086104            8 
 2535000   0.83842145   -4.5737861    1526.9429  0.050195362  0.050076198            3 
 2536000   0.84262953   -4.5743003    1529.0216  0.050243876  0.050066341            8 
 2537000   0.84983785   -4.5703462    1529.3748  0.050235673  0.050056385            6 
 2538000   0.84890252   -4.5833291    1529.4118  0.050217092  0.050046476            5 
 2539000   0.84216939   -4.5856184    1534.0564  0.050349757  0.050036573            4 
 2540000   0.85534264    -4.582612    1528.7639  0.050156297  0.050026672           13 
 2541000   0.86339187   -4.6041595    1528.5424  0.050129292  0.050016655            3 
 2542000   0.85240239   -4.5804879    1522.3199  0.049905584  0.050006614            3 
 2543000   0.81750116   -4.6126661     1528.084  0.050074847  0.049996704            8 
 2544000   0.83977664   -4.5500965    1532.4518  0.050198238  0.049986783            3 
 2545000    0.8456187   -4.5820839    1534.7999    0.0502554  0.049976978            4 
 2546000   0.84431409    -4.604951    1532.9655   0.05017562  0.049967065            5 
 2547000   0.84690216   -4.5986944      1531.58  0.050110588   0.04995713            3 
 2548000   0.85817869   -4.6103673    1529.3076  0.050016602  0.049947117            3 
 2549000   0.85728919   -4.5904474    1532.2842  0.050094292  0.049937206            9 
 2550000   0.83736152   -4.5679419    1535.2753  0.050172395  0.049927457            3 
 2551000   0.83950488   -4.5982085    1530.9476  0.050011356  0.049917649            7 
 2552000   0.84799999   -4.5917569    1537.7277  0.050213155  0.049907762            4 
 2553000   0.84112683   -4.5951465    1535.0614  0.050106456  0.049897914            4 
 2554000   0.83364534   -4.6066445     1537.191  0.050156324  0.049887982            6 
 2555000   0.83859632    -4.586395    1532.2585  0.049975816  0.049878169            8 
 2556000   0.83489447   -4.5527198     1540.397  0.050221603  0.049868234            4 
 2557000   0.84223885   -4.5746076    1533.6622  0.049982474   0.04985844            3 
 2558000   0.82075619   -4.5824749    1535.6975  0.050029239  0.049848583            5 
 2559000   0.84040595   -4.5410265    1537.3511  0.050063538  0.049838808            4 
 2560000    0.8136173    -4.580399    1539.8902  0.050126634  0.049828919            5 
 2561000   0.84607323   -4.5924829    1530.2603  0.049793711   0.04981906            3 
 2562000   0.85492639   -4.6135678    1539.0533  0.050060283  0.049809203            5 
 2563000   0.82924841   -4.6216744    1536.4417  0.049955837  0.049799164            7 
 2564000    0.8319979   -4.5849111    1543.3909  0.050162212  0.049789262            5 
 2565000   0.83861473   -4.6151322    1542.1547   0.05010249  0.049779413            5 
 2566000    0.8344127   -4.5905302    1541.9575  0.050076561  0.049769588            4 
 2567000   0.83553542   -4.5799132     1540.007  0.049993734  0.049759826            3 
 2568000   0.84635487   -4.5914892    1540.0868  0.049976856   0.04975002            9 
 2569000   0.84684667   -4.6009166    1536.8384  0.049852031  0.049740126            3 
 2570000   0.84081224   -4.5954104     1536.058  0.049807327  0.049730236            8 
 2571000   0.84731755   -4.6169785    1538.7958  0.049876697  0.049720286            8 
 2572000   0.83353432    -4.587962    1539.5199  0.049880765  0.049710474            2 
 2573000   0.82680354   -4.5994988    1543.3772  0.049986307  0.049700643            3 
 2574000   0.84373022   -4.5973434    1542.4236  0.049936013  0.049690827            1 
 2575000   0.82571412   -4.5849255    1544.4253  0.049981402  0.049681065            3 
 2576000   0.84820732   -4.5824027    1544.4367  0.049962368   0.04967126            9 
 2577000    0.8401734   -4.6011508    1542.4167  0.049877658  0.049661368            8 
 2578000   0.84189033    -4.592743    1536.5887  0.049669921  0.049651422            7 
 2579000   0.85156657   -4.6185508    1534.8125  0.049593269  0.049641359           10 
 2580000   0.84035444   -4.6081319    1540.7079  0.049764467  0.049631434            7 
 2581000   0.84956581   -4.5875614    1540.6334   0.04974278  0.049621471            3 
 2582000   0.83319406   -4.6259225    1540.4494  0.049717577  0.049611429            6 
 2583000   0.83037618   -4.6091887    1540.6792  0.049705744  0.049601397            4 
 2584000   0.87061333   -4.6108304    1539.4626  0.049647271  0.049591428            3 
 2585000   0.85539745   -4.6141258    1540.1916  0.049651566  0.049581355           10 
 2586000   0.83751463   -4.6346238    1539.5502  0.049611698   0.04957128            5 
 2587000   0.83598699   -4.6159266    1540.9262  0.049636846  0.049561194            3 
 2588000   0.83745891   -4.6170756    1543.4607  0.049699275  0.049551143            2 
 2589000   0.82583792   -4.6331322    1544.6479  0.049718294  0.049541135            3 
 2590000   0.84248501   -4.5953099    1545.3715  0.049722376  0.049530938            5 
 2591000   0.83645755   -4.5961363    1544.2798  0.049668075  0.049520846            3 
 2592000   0.87365326   -4.6204553    1544.6735  0.049661572  0.049510771            3 
 2593000   0.83875417   -4.6151418    1545.5294  0.049669926  0.049500737            2 
 2594000   0.83739097    -4.619924    1544.2902  0.049610969   0.04949056            6 
 2595000   0.82857626   -4.6023992    1539.9986  0.049454032  0.049480393            5 
 2596000   0.83873278   -4.6379359    1542.8089  0.049525196   0.04947017            5 
 2597000   0.84126209   -4.6029145    1542.0153  0.049480661  0.049460032            6 
 2598000   0.84627888    -4.584782    1546.1528  0.049594328  0.049449942            3 
 2599000   0.83746565   -4.6072153    1545.9584  0.049569015  0.049439759            6 
 2600000   0.83463232   -4.6430326    1537.5469  0.049280348  0.049429433            2 
 2601000   0.82272194   -4.6096459     1548.138   0.04960073  0.049419226            9 
 2602000   0.82453274   -4.6185314    1541.9477  0.049383415  0.049409023            5 
 2603000   0.83506197   -4.6033115    1546.2196  0.049501204  0.049398888            4 
 2604000   0.83244334   -4.5942658    1548.2833  0.049548236  0.049388732            5 
 2605000   0.83067797   -4.5838866    1546.9303  0.049485934  0.049378573            4 
 2606000   0.85150234   -4.6136149    1548.2959  0.049510615  0.049368357            2 
 2607000   0.84502922   -4.6385794    1544.2815  0.049363301  0.049358116            6 
 2608000   0.83815015   -4.6201073    1542.5552  0.049289211  0.049347895            7 
 2609000   0.84587031   -4.6204479    1547.7728  0.049436976  0.049337925            2 
 2610000   0.82906442   -4.6293801    1545.4402  0.049343555  0.049327784            6 
 2611000    0.8564638   -4.6059793    1555.2368  0.049637328  0.049317665            5 
 2612000   0.83609176   -4.5974886    1547.1587  0.049360602  0.049307652            5 
 2613000   0.83673253   -4.6107345     1549.055  0.049402186  0.049297485            6 
 2614000    0.8317981   -4.6214262    1548.3428  0.049360584  0.049287395            8 
 2615000   0.83404286   -4.6301089    1542.4927  0.049155282  0.049277172            4 
 2616000   0.84533095   -4.6175933    1550.6346  0.049395851  0.049267029            4 
 2617000   0.83739219   -4.5805719    1552.2652  0.049428902  0.049256958            6 
 2618000   0.81275657   -4.6062328    1554.3023  0.049474862  0.049246904            6 
 2619000   0.84436451   -4.5974294    1548.6278  0.049275418  0.049236874            6 
 2620000     0.849818   -4.6264948    1548.9699  0.049267492  0.049226859            6 
 2621000   0.84296765    -4.604501    1549.7671  0.049274041  0.049216747            5 
 2622000   0.82361673   -4.6144179     1553.578  0.049376366  0.049206711            6 
 2623000   0.82944232   -4.6102543    1555.3598  0.049414149  0.049196731            3 
 2624000   0.83868212   -4.6249585    1551.2581  0.049265057  0.049186706            3 
 2625000   0.83795131   -4.6237161    1553.3197  0.049311736  0.049176663            5 
 2626000   0.84434101   -4.6552171    1550.5829  0.049206109  0.049166769            5 
 2627000   0.82373157   -4.6339968     1553.046  0.049265513   0.04915669            9 
 2628000   0.84260398   -4.6122763    1555.0956  0.049311757  0.049146612            8 
 2629000   0.84412522   -4.6035042    1553.5947  0.049245427  0.049136736            3 
 2630000   0.82968835   -4.6502058    1559.8886  0.049426129  0.049126892            5 
 2631000   0.83156525   -4.5998896    1560.0833  0.049413508  0.049116956            3 
 2632000   0.82745799    -4.625542    1554.9879  0.049233406  0.049107076            6 
 2633000   0.84381741   -4.6369316    1560.9224  0.049402532  0.049097221           10 
 2634000   0.82750294   -4.5969174    1560.5383  0.049371624  0.049087447            6 
 2635000   0.83727163   -4.6249981    1563.5339  0.049447626  0.049077714            4 
 2636000   0.81164005    -4.634232    1558.7754  0.049278432   0.04906791            7 
 2637000   0.81595156   -4.6200051    1562.8475  0.049388431  0.049058153            4 
 2638000   0.85224649   -4.6300721    1558.8888  0.049244656  0.049048416            9 
 2639000   0.82806137   -4.6189559    1561.4806  0.049307836  0.049038585            4 
 2640000   0.81335096   -4.6286833    1562.2131  0.049312283  0.049028868            5 
 2641000   0.80666102   -4.6171165    1558.3255  0.049170941  0.049019181            4 
 2642000    0.8361278   -4.6360166    1561.0917  0.049239582  0.049009498            8 
 2643000   0.82711509    -4.626244    1556.1327  0.049064595  0.048999695            3 
 2644000   0.82373504   -4.6108384    1560.7708  0.049192222  0.048989935            2 
 2645000   0.82854927   -4.6193882    1564.4479  0.049289473  0.048980207            3 
 2646000   0.82287734   -4.6488544    1563.6363  0.049245285  0.048970384            4 
 2647000   0.81997288   -4.6136608     1559.887  0.049108645  0.048960571            4 
 2648000   0.83451108   -4.6360159    1565.1491    0.0492557  0.048950782            6 
 2649000   0.85267967   -4.6414838    1559.9229  0.049072696  0.048941097            4 
 2650000   0.81908202    -4.616386    1567.3309  0.049287135  0.048931204            7 
 2651000   0.82797749   -4.6227987    1564.6619  0.049184643   0.04892155            5 
 2652000   0.81376996   -4.6140989    1567.3579  0.049250813  0.048911824            4 
 2653000   0.82708218   -4.6152105    1562.8901  0.049091912  0.048902236            2 
 2654000   0.83788853   -4.6393521    1569.1716  0.049270648  0.048892514            5 
 2655000   0.82805787   -4.6102172    1567.8552  0.049210774  0.048882977            5 
 2656000    0.8585455   -4.6374902    1566.0218   0.04913472  0.048873478           10 
 2657000    0.8300062   -4.6226475    1561.5947  0.048977376   0.04886391            6 
 2658000    0.8256602   -4.6538965    1564.6378  0.049054358  0.048854245            4 
 2659000    0.8120852   -4.6045878    1562.5196  0.048969525   0.04884457            4 
 2660000   0.83261773   -4.6148757    1566.4947  0.049075649  0.048834973            3 
 2661000   0.83417276   -4.6003815    1571.1088  0.049201705  0.048825242            3 
 2662000   0.82661983   -4.6241848    1566.7712  0.049047434  0.048815544            8 
 2663000   0.81923396   -4.6708128    1564.0314  0.048943277  0.048805999            4 
 2664000   0.81958249    -4.621508    1567.4246  0.049031051  0.048796206            8 
 2665000   0.81890488   -4.6256236    1568.9126  0.049059179  0.048786495            6 
 2666000   0.82515801    -4.645567    1570.4708  0.049089484    0.0487767            9 
 2667000   0.82000249     -4.59647     1569.906  0.049053432  0.048767037            5 
 2668000   0.81099684   -4.6039914    1576.4965  0.049240896  0.048757476            2 
 2669000   0.83220382   -4.6134819    1567.3734  0.048937598  0.048747903            7 
 2670000   0.82266069   -4.6104611     1570.918  0.049029901  0.048738312            7 
 2671000   0.82439993   -4.6474584    1567.1943  0.048895367  0.048728654            5 
 2672000   0.83297147   -4.6137755    1572.7207  0.049049424  0.048718985            6 
 2673000   0.82196357   -4.6400356    1573.2556   0.04904775  0.048709431            4 
 2674000   0.83507084   -4.6134244     1571.061  0.048961012  0.048699826            4 
 2675000   0.83762507    -4.632831    1570.4329  0.048923144  0.048690129            5 
 2676000   0.83857793   -4.6614499    1571.0481  0.048924019  0.048680519            4 
 2677000   0.81575605   -4.6141381    1578.0431  0.049123492  0.048670838            5 
 2678000   0.82810231   -4.6345133    1573.0961  0.048951209  0.048661314            4 
 2679000   0.80426844   -4.6411476    1573.7379  0.048952903  0.048651737            6 
 2680000   0.82872419   -4.6312266    1573.0504  0.048913258  0.048642032            5 
 2681000   0.82926111   -4.6667214    1574.2653  0.048932775  0.048632331            6 
 2682000   0.80932386   -4.6340495    1572.3747  0.048855788  0.048622541            4 
 2683000   0.82496109   -4.6619531    1575.1854  0.048924879  0.048612992            7 
 2684000   0.82948304   -4.6491407    1575.0107  0.048901227   0.04860328            6 
 2685000    0.8482394   -4.6531947    1572.7161  0.048811796  0.048593664            4 
 2686000    0.8307806   -4.6132107    1579.4718   0.04900322  0.048584096            6 
 2687000   0.80700112   -4.6578063    1576.1761  0.048882772    0.0485746            4 
 2688000   0.81833841   -4.6316766    1578.7868  0.048945522  0.048565061            6 
 2689000   0.80300533   -4.6042427    1577.7477  0.048895118  0.048555602            4 
 2690000   0.82354884   -4.6313721    1578.4937  0.048900052  0.048546166            8 
 2691000   0.81622734   -4.6290894    1579.5721  0.048915278  0.048536649            5 
 2692000   0.81467142   -4.6304665    1582.2662  0.048980503  0.048527162            6 
 2693000   0.82678841   -4.6357045    1576.7018  0.048790129  0.048517469            5 
 2694000   0.82021357   -4.6407592    1579.0021  0.048843174  0.048507799            8 
 2695000   0.81092139   -4.6296625    1578.9268  0.048822723  0.048498214            6 
 2696000    0.8121966   -4.6178335     1576.872  0.048741097  0.048488713            5 
 2697000   0.81667442    -4.621024    1584.4402  0.048956873  0.048479299            4 
 2698000   0.83029452   -4.6064187    1585.2095  0.048962486  0.048469783            5 
 2699000   0.81404351   -4.6658173    1581.9494  0.048843689  0.048460209            6 
 2700000   0.81374096   -4.6561456    1578.5801  0.048721607  0.048450731            7 
 2701000   0.81818992   -4.6655536    1583.5061  0.048855549   0.04844116            6 
 2702000   0.81780571   -4.6568893    1584.6179  0.048871759  0.048431685            4 
 2703000   0.83019447   -4.6224949    1583.5814  0.048821723  0.048422277            9 
 2704000     0.800305   -4.6303874    1584.3325  0.048826816  0.048412738            3 
 2705000   0.83235119   -4.6267871    1583.2637  0.048775837  0.048403289            3 
 2706000   0.82209287   -4.6526983    1583.6558  0.048769889  0.048393743            5 
 2707000   0.82056265   -4.6678352    1579.1603   0.04861348  0.048384081            6 
 2708000   0.82651192   -4.6486814    1584.9404  0.048773401  0.048374398            4 
 2709000   0.81749721   -4.6509143    1578.2861  0.048550698  0.048364811            9 
 2710000    0.8289011     -4.63451    1582.2525  0.048654751  0.048355192            7 
 2711000   0.81528911   -4.6466913    1583.4733  0.048674331  0.048345694            5 
 2712000   0.80792496   -4.6279906    1585.3173  0.048713043  0.048336216            5 
 2713000   0.81752958   -4.6440064    1586.6504  0.048736036   0.04832668            7 
 2714000   0.80313235   -4.6600956    1579.7295  0.048505574   0.04831706            3 
 2715000   0.81956616   -4.6310904    1579.2433  0.048472785  0.048307408            3 
 2716000   0.82018346   -4.6154655    1587.1689  0.048698113  0.048297861            4 
 2717000   0.82431941   -4.6441511    1582.8118  0.048546554  0.048288317           10 
 2718000   0.81181186   -4.6230191    1582.3952  0.048515918  0.048278605            7 
 2719000   0.84066138   -4.6367794    1585.9122  0.048605865  0.048269063            4 
 2720000   0.81229025   -4.6471495    1588.5549  0.048668962  0.048259464            6 
 2721000   0.83051722    -4.647064    1582.5595  0.048467461  0.048249897            3 
 2722000   0.83791334   -4.6413576    1586.8588  0.048581277  0.048240239           12 
 2723000   0.83257465   -4.6365261    1586.6573  0.048557269  0.048230688            8 
 2724000   0.81636696   -4.6560692    1587.3793   0.04856153  0.048221075            5 
 2725000   0.81027081   -4.6225002    1583.6657  0.048430143  0.048211371            3 
 2726000   0.80277557    -4.658116    1582.1873  0.048367185  0.048201711            4 
 2727000   0.81776067   -4.6704838    1584.7332  0.048427246  0.048192055            6 
 2728000   0.79860461   -4.6293598    1584.2768  0.048395551   0.04818247            5 
 2729000    0.8317011   -4.6412394    1583.0361  0.048339932  0.048172767            6 
 2730000   0.83041674   -4.6587958    1587.4765   0.04845777  0.048163031           10 
 2731000   0.81153823   -4.6536124    1584.9865  0.048364047  0.048153297            7 
 2732000   0.79997635   -4.6538509    1588.1732  0.048443545  0.048143486            4 
 2733000   0.79836618   -4.6411277    1585.5847  0.048346893  0.048133721            6 
 2734000   0.82257826   -4.6501465    1580.9358  0.048187509  0.048124033            7 
 2735000   0.82355305   -4.6469262    1585.9228   0.04832184  0.048114186            4 
 2736000   0.83033192   -4.6581838    1588.0177  0.048367985  0.048104309            9 
 2737000   0.80308362   -4.6629743    1585.9117  0.048286194  0.048094512            4 
 2738000   0.82169142   -4.6171945    1588.2575  0.048339954   0.04808472            3 
 2739000   0.81999048   -4.6377395    1587.6856  0.048304904  0.048074933            6 
 2740000   0.82278629   -4.6680817    1583.8902  0.048171843  0.048065182            5 
 2741000   0.82348846   -4.6697274    1580.1738  0.048041282  0.048055314            5 
 2742000   0.81217782   -4.6484774    1582.8328  0.048104572  0.048045365            4 
 2743000   0.82702613   -4.6374246    1585.4284  0.048165888  0.048035486            4 
 2744000   0.81668024       -4.648    1589.8979  0.048284072  0.048025761            7 
 2745000   0.80740466   -4.6619335    1586.7911  0.048172163  0.048015906            6 
 2746000   0.80809556   -4.6589847    1589.7378  0.048244047  0.048005979            4 
 2747000   0.81386887   -4.6573837    1584.6106  0.048070945  0.047995959            4 
 2748000   0.81699894    -4.663363    1584.4474  0.048048503  0.047986029            4 
 2749000   0.80528722   -4.6440616    1587.1425  0.048112722  0.047976038            3 
 2750000   0.80696041   -4.6641001      1585.98  0.048059999  0.047966046            4 
 2751000   0.79992535   -4.6628283    1585.6714  0.048033181  0.047956055            3 
 2752000   0.82612215   -4.6346943    1588.8489  0.048111945  0.047945966            3 
 2753000    0.8034601   -4.6552974    1585.6457   0.04799751  0.047935988            8 
 2754000     0.818853   -4.6451209    1590.1128   0.04811525  0.047925864            7 
 2755000   0.81879704   -4.6760353     1589.633  0.048083274  0.047915886            5 
 2756000   0.79806353   -4.6318462    1591.2414  0.048114461  0.047905917            6 
 2757000   0.81162019   -4.6329799    1587.9676  0.047998052  0.047895975            4 
 2758000   0.81147544    -4.680236    1588.0407  0.047982858  0.047886028            4 
 2759000   0.81090677   -4.6746898    1584.6806  0.047863978  0.047875971            5 
 2760000   0.81454543   -4.6449857    1592.2902  0.048076395  0.047866046            4 
 2761000   0.82840461   -4.6494492    1589.6142  0.047978216  0.047856028            5 
 2762000   0.81047824   -4.6643381    1586.6805   0.04787233  0.047846087            5 
 2763000   0.80561825    -4.665044     1589.612  0.047943419  0.047836128            4 
 2764000   0.81675572   -4.6679456    1589.6581  0.047927465  0.047826052            3 
 2765000   0.79537218   -4.6696129    1589.6305  0.047909297  0.047816135            5 
 2766000   0.82021916   -4.6798655    1593.0912  0.047996241  0.047806038           11 
 2767000   0.80896267    -4.667726    1589.4913  0.047870478  0.047796061            3 
 2768000   0.81758441   -4.6513795    1591.2055  0.047904789     0.047786            6 
 2769000   0.79358032   -4.6856027    1590.4315  0.047864196  0.047775812           16 
 2770000   0.80320515   -4.6580804    1591.2686    0.0478721  0.047765693            3 
 2771000   0.79322199   -4.6705505    1589.7435   0.04780896   0.04775564            5 
 2772000   0.80463424   -4.6401681    1588.9061  0.047766538  0.047745534            2 
 2773000   0.81240642   -4.6610598    1591.4017  0.047824308  0.047735508            4 
 2774000   0.82260673   -4.6447437    1589.8169  0.047759459  0.047725441            3 
 2775000   0.80291746   -4.6523558    1594.8754  0.047894158  0.047715351            3 
 2776000   0.81262142   -4.6655047    1594.7302  0.047872546  0.047705201            4 
 2777000   0.80894333   -4.6665053    1596.1249  0.047897158  0.047695116            4 
 2778000   0.80861345   -4.6354914     1594.547  0.047832584  0.047685092            4 
 2779000   0.80553636   -4.6519693    1591.3666  0.047720001  0.047675071            7 
 2780000   0.80225276   -4.6730466    1587.3789  0.047583301  0.047664897            6 
 2781000     0.819655   -4.6831105    1589.7543  0.047637368  0.047654705            5 
 2782000   0.81755113   -4.6521413    1599.4761  0.047911457  0.047644524            8 
 2783000   0.80016431   -4.6673646    1594.0282  0.047731112  0.047634459            8 
 2784000   0.80509355   -4.6978106    1594.2608  0.047720928  0.047624407            4 
 2785000   0.82865741   -4.6654284     1595.453  0.047739467  0.047614341            5 
 2786000   0.81067072   -4.6522108      1594.86  0.047704594  0.047604427           11 
 2787000   0.81523936   -4.6648926     1598.462  0.047795179   0.04759445           12 
 2788000   0.80418131   -4.6746174    1593.9284  0.047642527  0.047584507            7 
 2789000   0.80924148    -4.645276    1602.4542   0.04788019  0.047574504            6 
 2790000   0.81279893   -4.6464346     1598.095  0.047732825  0.047564645            5 
 2791000   0.79533875   -4.6547103    1605.7023   0.04794286  0.047554731            5 
 2792000   0.81474065   -4.6688165    1597.6933  0.047686642  0.047544733           10 
 2793000   0.80693516   -4.6559587    1597.1635  0.047653763  0.047534751            2 
 2794000   0.78759314   -4.6424771    1602.9368  0.047808899   0.04752482            5 
 2795000   0.79434293    -4.669243    1600.1014  0.047707257  0.047514893            4 
 2796000   0.81678136   -4.6710822    1595.6754   0.04755828  0.047504968            8 
 2797000    0.8034755   -4.6901054    1600.3475  0.047680476  0.047495036            2 
 2798000   0.80133593   -4.6624949    1600.4494   0.04766647  0.047485077            5 
 2799000   0.81649635   -4.7075733    1603.8476  0.047750612  0.047475179            7 
 2800000   0.80913033   -4.6553526    1604.2999   0.04774702  0.047465255            5 
 2801000   0.82268722   -4.6567588    1598.6076  0.047560621   0.04745532           12 
 2802000   0.79848484   -4.6619323    1601.8542  0.047640204  0.047445507            9 
 2803000   0.80853077   -4.6693118    1598.0879  0.047511234  0.047435584            4 
 2804000   0.79283578   -4.6897775    1598.0215  0.047492318  0.047425672            6 
 2805000    0.7924252   -4.6927698    1598.1323  0.047478677   0.04741564            9 
 2806000   0.80846112   -4.6620695    1602.6959  0.047597289  0.047405711            5 
 2807000   0.79749921   -4.6590397    1604.4703  0.047633011  0.047395792            4 
 2808000   0.80553233   -4.6409962    1601.5009  0.047527922  0.047385822            4 
 2809000   0.81114411   -4.6597688    1597.1969  0.047383318  0.047375822            4 
 2810000   0.80116495   -4.6346649    1603.2949  0.047547298  0.047365877            5 
 2811000   0.80696655    -4.659268    1603.4311  0.047534421  0.047355977            5 
 2812000   0.80846219   -4.6821305    1600.2556  0.047423411  0.047345928            5 
 2813000   0.80428513   -4.6886288    1599.0276  0.047370174  0.047335846            3 
 2814000   0.79320309   -4.6699266    1605.2085   0.04753638  0.047325826            6 
 2815000   0.79778045   -4.6911842    1605.5999  0.047531082  0.047315755            7 
 2816000   0.80115285   -4.6615687     1600.616  0.047366714  0.047305771            4 
 2817000   0.82893301   -4.6767715    1600.7853  0.047354909  0.047295802            3 
 2818000   0.80578485   -4.6571384    1602.8128  0.047398059  0.047285946            9 
 2819000   0.81169393   -4.6777528    1597.8117  0.047233408  0.047275933            5 
 2820000   0.80719092   -4.6851535    1602.1052  0.047343534  0.047265939            8 
 2821000   0.78169351   -4.6864302    1602.1747  0.047328805  0.047255906            7 
 2822000   0.81141263   -4.6551351    1604.8419  0.047390796  0.047245818            4 
 2823000   0.78687534   -4.6801146    1606.4616  0.047421819  0.047235679            5 
 2824000   0.79977147   -4.6750233    1601.2524  0.047251311  0.047225664            5 
 2825000   0.78324099   -4.6970648    1603.1836  0.047291552  0.047215497            5 
 2826000   0.78707087   -4.6681574    1599.0521  0.047152988  0.047205326            6 
 2827000   0.78677312   -4.6702803    1611.0231  0.047489185  0.047195137            7 
 2828000    0.7936747   -4.6475778    1603.8911  0.047262231  0.047184945            5 
 2829000   0.78667702    -4.679637    1608.7545  0.047388786  0.047174678            6 
 2830000   0.78714393   -4.6846361    1599.9866  0.047113857  0.047164504            5 
 2831000   0.80487833   -4.7029614    1598.8143  0.047062708  0.047154187            4 
 2832000   0.80670762   -4.6766176    1604.5746  0.047215589  0.047144004            6 
 2833000   0.79646896   -4.6849802    1602.6531  0.047142401  0.047133703            7 
 2834000   0.78831229   -4.6817282    1602.7065  0.047127337  0.047123414            4 
 2835000   0.80551809   -4.6903456    1597.4862  0.046957268  0.047113112            6 
 2836000   0.78776993   -4.6828148    1602.2189  0.047079774  0.047102789            8 
 2837000   0.79548438   -4.7001477    1600.3411  0.047008023  0.047092588           12 
 2838000   0.78301638   -4.6674715    1601.0432  0.047012075   0.04708228            3 
 2839000   0.77554098    -4.707883    1598.6926  0.046926517  0.047072128            2 
 2840000   0.79954222   -4.6746436    1609.4481  0.047225591  0.047061928            6 
 2841000   0.80550078   -4.7169803    1598.7586  0.046895417  0.047051725           11 
 2842000   0.79947439   -4.6556155     1605.636  0.047080577  0.047041585           11 
 2843000   0.77839055   -4.6851158    1608.4777  0.047147311  0.047031403            5 
 2844000   0.76772806   -4.6641766     1603.085  0.046972719  0.047021256            7 
 2845000   0.79649895   -4.6850284    1604.6201  0.047001174  0.047011055           12 
 2846000    0.8055546   -4.6654562    1608.8253   0.04710779  0.047000874            9 
 2847000   0.80099314   -4.6735849    1609.5038  0.047111104   0.04699071            5 
 2848000   0.79087788   -4.6800353    1608.5756  0.047067403  0.046980504            9 
 2849000   0.78629038   -4.7058517    1602.0313  0.046859463  0.046970281            3 
 2850000   0.77885912    -4.690293    1605.4382  0.046942637  0.046959917            5 
 2851000    0.7976968   -4.6831623    1609.7501  0.047052206   0.04694959            2 
 2852000   0.79940229   -4.7151898    1605.6642  0.046916321  0.046939178            5 
 2853000   0.78381168   -4.6807879    1608.9878  0.046996956  0.046928938            8 
 2854000   0.78786703   -4.7119396    1607.5257  0.046937797  0.046918673            2 
 2855000    0.8009349   -4.7045487    1605.8331  0.046871952  0.046908287            6 
 2856000   0.80948564   -4.6685164    1609.4037  0.046959726  0.046897951            6 
 2857000   0.79145319   -4.6805394    1607.2413  0.046880216  0.046887723            5 
 2858000   0.76899221   -4.6759311    1608.5386   0.04690164  0.046877429            6 
 2859000    0.8132291   -4.6952099    1607.9616  0.046868415  0.046867167            6 
 2860000    0.8050221    -4.714989    1607.8559  0.046848948  0.046856764            9 
 2861000   0.80494487   -4.6815632    1605.4343  0.046762038  0.046846304            6 
 2862000   0.79605966   -4.6942934    1606.9658  0.046790291  0.046835876            6 
 2863000   0.76572462   -4.7175877    1604.7702  0.046710041  0.046825422            5 
 2864000   0.78280491   -4.6884734    1608.8255  0.046811729  0.046815016            5 
 2865000   0.79447351   -4.6511822    1609.8925  0.046826427  0.046804744            4 
 2866000   0.79901757   -4.6935517    1609.5867  0.046801196  0.046794492            4 
 2867000   0.79876716   -4.6709377    1610.3772  0.046807848  0.046784126            5 
 2868000   0.79908786   -4.6873018    1612.7648  0.046860902  0.046773785            6 
 2869000   0.80732684   -4.6874942    1604.4108  0.046601918  0.046763349            5 
 2870000   0.77328764   -4.6907014    1609.6865  0.046738865  0.046752959            4 
 2871000   0.78426177   -4.6947601    1609.7638  0.046724829  0.046742571            7 
 2872000   0.80402565   -4.6965934    1605.0475  0.046571714   0.04673202            6 
 2873000   0.77782336   -4.7099461     1604.738  0.046546525  0.046721481            4 
 2874000   0.79816221   -4.6856561    1608.2825  0.046633104  0.046710983           11 
 2875000    0.7759398   -4.7014899    1604.3386  0.046502568  0.046700542            5 
 2876000   0.78415282   -4.6834584    1608.7761  0.046614977  0.046690174            3 
 2877000   0.80036381   -4.7022825    1613.8671  0.046746236  0.046679869            6 
 2878000   0.79828077   -4.6844152    1606.5109  0.046516993  0.046669589            5 
 2879000   0.79737503   -4.6908397     1617.677  0.046824041   0.04665937            3 
 2880000   0.79131048   -4.7057082    1615.7568  0.046752224  0.046649082            8 
 2881000   0.78639984   -4.7090452    1615.0858  0.046716587  0.046638829            9 
 2882000   0.80866492   -4.6919569    1615.5398  0.046713504  0.046628633            6 
 2883000   0.80309739   -4.6661639    1612.0223  0.046595628  0.046618341            3 
 2884000   0.76821157    -4.707072    1607.3335  0.046443987  0.046608051            2 
 2885000   0.79396437    -4.683967    1615.1955  0.046654982   0.04659774            8 
 2886000   0.79900407   -4.6998786    1618.3645  0.046730322   0.04658758            7 
 2887000   0.79069176   -4.7062274    1608.5498  0.046430834  0.046577248            5 
 2888000   0.78262459   -4.6788476    1610.7372  0.046477874   0.04656698           13 
 2889000   0.77790799   -4.7184294     1615.464  0.046598131  0.046556799            4 
 2890000   0.78921844   -4.7078027    1617.4052  0.046637983  0.046546552            5 
 2891000    0.7851856   -4.6990585    1617.7111  0.046630668  0.046536275            7 
 2892000   0.78644907   -4.7006448    1615.2998  0.046545061  0.046526088            3 
 2893000   0.79436018   -4.6902153    1615.1572  0.046524863  0.046515972            6 
 2894000   0.79632446   -4.7079783    1620.3457  0.046658192  0.046505838           10 
 2895000   0.79106197   -4.7023359    1619.8694  0.046628366  0.046495648            5 
 2896000   0.78946896   -4.6994936    1619.0017  0.046587295  0.046485489           13 
 2897000   0.78738951   -4.7058445    1618.7333  0.046563493  0.046475245            3 
 2898000   0.78808207   -4.6858479    1616.0487  0.046470229  0.046465086            4 
 2899000   0.78343233   -4.7067157    1618.5403  0.046525822  0.046454948            9 
 2900000   0.77742248   -4.6753943    1618.2359  0.046501033  0.046444715           10 
 2901000   0.78616879    -4.689506    1620.2079  0.046541649  0.046434586            9 
 2902000   0.77160301   -4.6816254    1618.7001  0.046482314   0.04642446            3 
 2903000   0.79276414   -4.6964154    1619.6857  0.046494594   0.04641426            5 
 2904000   0.80109264   -4.6925741    1620.1796  0.046492756  0.046403962            4 
 2905000   0.79297976   -4.6889397    1626.8006  0.046666684  0.046393752            4 
 2906000   0.77363235   -4.6891126    1619.0908  0.046429538  0.046383618            5 
 2907000   0.77075016   -4.6864678    1620.3178  0.046448738  0.046373363            4 
 2908000   0.78358337   -4.6825208    1623.7076  0.046529906  0.046363295            6 
 2909000   0.77774826   -4.7027432    1617.1059  0.046324794  0.046353136            5 
 2910000   0.79513216   -4.7005044    1616.2489  0.046284333  0.046342963            7 
 2911000   0.78961035   -4.6996964     1621.006  0.046404615  0.046332702            4 
 2912000   0.78973754   -4.6822489    1620.9717  0.046387698  0.046322515           12 
 2913000   0.78156864   -4.6980761    1620.8145  0.046367277  0.046312299            4 
 2914000   0.76665219   -4.7047191    1619.8316  0.046323254   0.04630213            5 
 2915000   0.80843751   -4.7078562    1613.8499  0.046136361  0.046291917            5 
 2916000   0.79692989   -4.7209855    1616.9112  0.046208023  0.046281641            8 
 2917000   0.78525506   -4.7095678     1617.689  0.046214405  0.046271362            5 
 2918000    0.7931835    -4.722743    1621.0768  0.046295316  0.046261087            6 
 2919000   0.76933362   -4.6995635    1620.4969    0.0462629  0.046250815            5 
 2920000   0.80364043   -4.7001326    1620.1079  0.046235955  0.046240627            5 
 2921000   0.78714628   -4.7285882    1617.5334  0.046146678  0.046230303           13 
 2922000   0.78565612   -4.6756407    1621.6957  0.046249592  0.046220037            9 
 2923000   0.78903311   -4.7113601    1622.2273  0.046248926  0.046209972            2 
 2924000   0.79703626   -4.7028666      1622.62    0.0462443  0.046199835            8 
 2925000   0.77894495   -4.6998798    1624.6007  0.046284921   0.04618978            5 
 2926000   0.77569462   -4.7127772    1623.8918  0.046248911  0.046179719            9 
 2927000   0.75591988   -4.7241019    1626.7122  0.046313408  0.046169565            5 
 2928000   0.77271954   -4.7073097    1627.8185  0.046329078  0.046159501            6 
 2929000   0.77373347   -4.6885674    1627.0019  0.046290027  0.046149365            9 
 2930000   0.78840316   -4.7302033    1623.6141  0.046177876  0.046139166            5 
 2931000   0.77301002   -4.7134219    1629.3952  0.046326488  0.046129022            5 
 2932000   0.77880025   -4.6916222     1629.572  0.046315713  0.046118938            6 
 2933000   0.78133898   -4.7121602    1622.5398  0.046100119  0.046108908           10 
 2934000   0.79589576   -4.6894974    1623.7267  0.046118118  0.046098835            7 
 2935000   0.78212934   -4.6965163    1624.2267  0.046116601  0.046088683            6 
 2936000   0.75907474   -4.7088366    1625.0531   0.04612435  0.046078432            4 
 2937000   0.78158422   -4.7341724    1619.8516  0.045961059  0.046068178            4 
 2938000   0.79664107    -4.707021    1629.2881  0.046213073   0.04605805            6 
 2939000   0.78710535   -4.7242101    1631.3159  0.046254847  0.046048017            6 
 2940000   0.78648215   -4.6978506    1627.1142  0.046120016  0.046037857            9 
 2941000   0.77584633   -4.6875695    1628.5607  0.046145322  0.046027819            4 
 2942000   0.77746322   -4.7090919    1629.1329  0.046145844  0.046017789            9 
 2943000   0.77533893   -4.7053526    1631.5509  0.046198634  0.046007706            7 
 2944000   0.77139146   -4.7225499    1626.7366  0.046046664  0.045997656            8 
 2945000   0.76867738   -4.7006583     1623.301  0.045933814  0.045987474            6 
 2946000    0.7964983   -4.7254383    1627.5486  0.046038373  0.045977299            6 
 2947000   0.79031834   -4.7325254    1629.4599  0.046076798  0.045967094            6 
 2948000   0.79489705   -4.7271299    1631.6238  0.046122338  0.045956908            4 
 2949000   0.78031393   -4.7169623    1627.4494  0.045988736  0.045946783           11 
 2950000   0.79236328   -4.6643148    1629.7775  0.046038912  0.045936611            5 
 2951000   0.78172065   -4.7049305     1632.661  0.046104739  0.045926604            6 
 2952000   0.77732505   -4.7440231    1631.3836  0.046053061  0.045916561            9 
 2953000   0.78229458     -4.73613    1625.8636   0.04588169  0.045906461            6 
 2954000   0.77605084   -4.7152586    1632.3599  0.046049422  0.045896429            4 
 2955000   0.78526775   -4.6998192    1632.2008   0.04602935  0.045886371            4 
 2956000   0.78171748   -4.7243036    1629.7129  0.045943642  0.045876373            5 
 2957000   0.77628368    -4.711243    1632.5292  0.046007474  0.045866326           10 
 2958000   0.78374575   -4.6954066    1634.5551  0.046048994  0.045856299           12 
 2959000   0.79252651   -4.7272634    1627.5326   0.04583566  0.045846199            7 
 2960000   0.77655715   -4.7307625    1630.7132  0.045909719  0.045836089            6 
 2961000   0.78791951   -4.7137719    1632.6483  0.045948673  0.045826028            4 
 2962000   0.76755851   -4.7281854    1625.4517  0.045730692  0.045815826            7 
 2963000   0.76571865   -4.7181137    1630.9298  0.045869328  0.045805657            5 
 2964000   0.77574947   -4.7508934    1633.1965  0.045917581  0.045795559            6 
 2965000   0.78944684   -4.7299438    1632.5652  0.045884352  0.045785485            6 
 2966000    0.7812902   -4.7172769    1632.3711  0.045863426  0.045775471            4 
 2967000   0.76953848     -4.72569    1631.4402  0.045821824   0.04576536            8 
 2968000   0.76784867   -4.7079323    1631.9694  0.045821244   0.04575528           10 
 2969000   0.77225441   -4.7341641    1632.9748  0.045834028  0.045745133            8 
 2970000   0.78775526    -4.737913    1634.3865  0.045858208  0.045735045            5 
 2971000   0.78590716    -4.708389    1629.3613   0.04570182  0.045724906            4 
 2972000   0.78207963   -4.7232645    1635.2673  0.045852043  0.045714884            5 
 2973000   0.77179121   -4.7427642     1634.296  0.045809394  0.045704876            2 
 2974000   0.77380027   -4.7211991    1638.1841  0.045902939  0.045694856            6 
 2975000   0.78274474   -4.7387218    1634.1508  0.045774533  0.045684867            6 
 2976000   0.77182525   -4.7237377    1636.4352  0.045823119  0.045674722            3 
 2977000   0.76223842    -4.749075    1633.8809  0.045736226  0.045664661            6 
 2978000   0.78478143   -4.7430165    1635.2532  0.045759269   0.04565454            5 
 2979000   0.77957909    -4.715501    1637.1398  0.045796683  0.045644514            9 
 2980000   0.77656215   -4.7131044    1634.8088  0.045716129  0.045634592            6 
 2981000    0.7905898   -4.7163546    1637.8934  0.045787023  0.045624601           15 
 2982000   0.77071524   -4.7292903     1637.613  0.045763834  0.045614578            7 
 2983000   0.76407654   -4.7285872     1635.624  0.045692927  0.045604656            3 
 2984000   0.76008659   -4.7082392    1633.4055  0.045615659  0.045594645            9 
 2985000   0.78433492   -4.7154239    1636.1215    0.0456762  0.045584703            6 
 2986000   0.76868546   -4.7371917    1640.0162  0.045769598  0.045574845            4 
 2987000    0.7559068   -4.7348308    1638.7929  0.045720145  0.045564914            6 
 2988000    0.7613312   -4.7435185    1635.5865   0.04561542  0.045554924            7 
 2989000   0.78383452   -4.7306585    1635.0264  0.045584544  0.045545038           11 
 2990000   0.77843561    -4.746053    1637.0906  0.045626828  0.045535137           13 
 2991000   0.79348651    -4.732257    1640.1613  0.045697128  0.045525247            6 
 2992000   0.78030378   -4.7319352    1632.5225  0.045469099  0.045515294            5 
 2993000   0.76688703   -4.7314949    1644.3257  0.045782538  0.045505398            8 
 2994000   0.77177085   -4.7326997    1638.7286  0.045611461  0.045495543            8 
 2995000   0.75682129   -4.7318846     1642.881  0.045711771  0.045485657            2 
 2996000   0.76562639   -4.7289986    1640.6721  0.045635073  0.045475781           10 
 2997000   0.76937322   -4.7166728    1643.6095  0.045701521  0.045465899            5 
 2998000   0.75422494    -4.727691    1638.1008  0.045533154  0.045456103            9 
 2999000   0.77961729     -4.73008    1643.4493  0.045666593  0.045446242            6 
 3000000   0.75419051   -4.7175063    1648.1448  0.045781801  0.045436553            6 
 3001000   0.77762548   -4.7420199     1644.146  0.045655503  0.045426707            4 
 3002000   0.76916154   -4.7366477    1643.3782  0.045618981  0.045416957            5 
 3003000   0.78180771    -4.745797    1642.3232  0.045574513  0.045407135            6 
 3004000   0.77720918   -4.7611274    1637.5964  0.045428219   0.04539724            6 
 3005000   0.78439039   -4.7381672    1645.1083  0.045621418   0.04538741           12 
 3006000   0.76163383   -4.7434622    1647.9851  0.045685991  0.045377638            4 
 3007000   0.75757764   -4.7187993    1648.8618  0.045695094  0.045367841            6 
 3008000    0.7878898   -4.7466639    1644.0361  0.045546214   0.04535808            5 
 3009000   0.76249518   -4.7231621     1647.198  0.045618644  0.045348353            5 
 3010000   0.75708958   -4.7432118    1644.1436  0.045518925  0.045338536            4 
 3011000   0.75520974   -4.7576774    1646.9954  0.045582736  0.045328767            7 
 3012000   0.74894916   -4.7458523    1648.3137  0.045604075  0.045318964           13 
 3013000   0.76707284   -4.7334809    1648.4995   0.04559408  0.045309204            8 
 3014000   0.79488121   -4.7391216    1650.1184  0.045623711  0.045299411            6 
 3015000   0.76783861   -4.7513795    1649.0985  0.045580389  0.045289591            5 
 3016000   0.77200688   -4.7510138    1644.2066  0.045430112   0.04527982            7 
 3017000   0.76480779   -4.7539625    1651.1407  0.045606583  0.045270065            4 
 3018000   0.77875312    -4.719947     1649.586  0.045548541  0.045260326            6 
 3019000   0.77251662   -4.7434666    1647.6512  0.045480048  0.045250657            5 
 3020000   0.77047833   -4.6971614    1649.4641  0.045515014  0.045240984            6 
 3021000    0.7758689   -4.7364373    1650.9311  0.045540413  0.045231279            7 
 3022000   0.77801322   -4.7374434    1653.6146  0.045599344  0.045221535            7 
 3023000   0.74642325   -4.7509986    1650.5002  0.045498408  0.045211786            8 
 3024000   0.77187367   -4.7613019    1648.6621  0.045432707  0.045202027            6 
 3025000   0.77783281   -4.7390594    1651.0298  0.045482915  0.045192225            5 
 3026000   0.79129661   -4.7464592    1653.0259  0.045522855  0.045182516            7 
 3027000   0.77759613   -4.7373771    1652.1366  0.045483333  0.045172928            5 
 3028000   0.75719306   -4.7375058     1651.671  0.045455498  0.045163291            5 
 3029000   0.74953966   -4.7305407    1654.1285  0.045508102  0.045153725            4 
 3030000   0.76444871   -4.7480319     1652.559  0.045449917   0.04514411            8 
 3031000   0.79216141   -4.7425637    1653.2235  0.045453191   0.04513444            8 
 3032000   0.76308816   -4.7592712    1653.6333  0.045449465  0.045124816            9 
 3033000   0.77834648   -4.7282853    1656.0889  0.045501947   0.04511523            6 
 3034000   0.77893197   -4.7607142    1648.8481  0.045288073  0.045105692            8 
 3035000   0.77025151   -4.7332312    1657.4542  0.045509452  0.045096131           15 
 3036000   0.74812954   -4.7467954    1653.9293  0.045397708  0.045086524            9 
 3037000   0.74831774   -4.7459952    1656.1492  0.045443672  0.045076959            4 
 3038000   0.76667998   -4.7342443    1656.0493  0.045425974  0.045067421            3 
 3039000    0.7623805   -4.7314689     1655.233  0.045388641  0.045057834            8 
 3040000   0.75597091   -4.7148909    1659.2134  0.045482823  0.045048239            4 
 3041000   0.75995361   -4.7374985    1658.6801  0.045453254  0.045038699            5 
 3042000   0.75466289    -4.741999    1654.1048  0.045312973  0.045029073            4 
 3043000   0.76219456   -4.7583651    1654.2046  0.045300816  0.045019352            7 
 3044000   0.77074379   -4.7389344    1654.9244   0.04530564  0.045009692            9 
 3045000   0.75105058   -4.7415657    1657.0189  0.045348081  0.045000046            3 
 3046000   0.75229701   -4.7696962    1653.4774  0.045236304  0.044990412            6 
 3047000   0.75937441   -4.7542226     1657.288  0.045325676  0.044980773           10 
 3048000   0.76495299   -4.7361338    1657.9472  0.045328829  0.044971173            4 
 3049000   0.76865908   -4.7394238    1660.2978  0.045378206   0.04496146            7 
 3050000   0.76443173    -4.766253    1654.9642  0.045217602  0.044951737            4 
 3051000    0.7819218   -4.7503379    1653.6454  0.045166759  0.044942006            6 
 3052000   0.76480926   -4.7582676    1649.3935  0.045035864  0.044932178            6 
 3053000   0.76260339   -4.7349392    1652.7213  0.045111947  0.044922406            5 
 3054000     0.761037   -4.7297552     1651.414  0.045061504  0.044912681           10 
 3055000   0.77230707   -4.7305948    1652.3085  0.045071153  0.044902886            9 
 3056000   0.77434257   -4.7482814    1652.1862   0.04505307  0.044893146            8 
 3057000   0.76704196   -4.7620397    1654.2727  0.045095211  0.044883411            3 
 3058000   0.75410961   -4.7369268    1652.6293  0.045035679  0.044873619            8 
 3059000    0.7678131   -4.7366874    1653.1963  0.045036403  0.044863803            8 
 3060000   0.75622684   -4.7529509     1652.412  0.045000328  0.044853975            3 
 3061000   0.73894864   -4.7618122    1653.3818  0.045012027  0.044844215            5 
 3062000   0.74720948   -4.7435074    1655.5721  0.045056936  0.044834303            6 
 3063000   0.75811034   -4.7574515    1654.6132  0.045016138  0.044824256            8 
 3064000   0.75613863   -4.7625985    1650.5048  0.044889709  0.044814267            9 
 3065000    0.7558217   -4.7468789    1651.6546  0.044906323  0.044804369            6 
 3066000   0.76507648   -4.7375122    1661.1008  0.045148423   0.04479452            6 
 3067000   0.74806231   -4.7354753    1657.0424  0.045023431  0.044784587            3 
 3068000   0.75383292   -4.7640576    1651.1311  0.044848194  0.044774668            6 
 3069000   0.75516382   -4.7624572    1654.4676  0.044924178  0.044764738            5 
 3070000   0.76100283   -4.7627317    1656.8161  0.044973293   0.04475477           11 
 3071000   0.77022091   -4.7604777    1659.7647  0.045038659   0.04474488            4 
 3072000   0.75270002    -4.757712    1654.0336  0.044868533  0.044734974           11 
 3073000   0.76144452   -4.7553937     1659.398  0.044999404  0.044725037            3 
 3074000   0.75872293   -4.7327617    1654.7253  0.044858091  0.044715122            6 
 3075000   0.76307741   -4.7581521    1654.9357  0.044849205   0.04470532            9 
 3076000   0.76836267   -4.7614743    1650.6372  0.044718172  0.044695442            6 
 3077000   0.77114898   -4.7474645    1656.3565  0.044858534  0.044685699            4 
 3078000   0.75358078   -4.7602551    1661.8847   0.04499363  0.044675934            5 
 3079000   0.76376257   -4.7413482    1659.4273  0.044912507  0.044666175            6 
 3080000   0.77952643   -4.7610417    1658.4996  0.044872824  0.044656499            5 
 3081000    0.7728915   -4.7645145    1660.0463  0.044900095  0.044646742            7 
 3082000    0.7542343   -4.7709895    1654.2869    0.0447298  0.044636908           11 
 3083000   0.75783829   -4.7389085    1657.7476  0.044808833  0.044627053           12 
 3084000   0.73965309   -4.7508275    1660.1653  0.044859634  0.044617315            6 
 3085000   0.76188294   -4.7415937    1663.6826  0.044940102  0.044607632            3 
 3086000   0.73972403   -4.7446601    1659.2972  0.044807118  0.044597784           11 
 3087000   0.75575874    -4.729514    1660.5872  0.044827428  0.044588068            5 
 3088000   0.76975978   -4.7213223    1663.0255   0.04487871  0.044578388           11 
 3089000   0.76064605    -4.755587    1657.8309  0.044724045  0.044568618            9 
 3090000   0.74720092   -4.7545845    1664.4676  0.044888555  0.044558777            5 
 3091000   0.75201753   -4.7682199     1660.503  0.044767147   0.04454892            7 
 3092000    0.7795448   -4.7524117     1666.551   0.04491567  0.044539189            6 
 3093000   0.74716047   -4.7687589    1659.1276  0.044701142   0.04452949           10 
 3094000   0.74836622   -4.7420933    1667.4702  0.044911392  0.044519721            5 
 3095000   0.75074577   -4.7487234    1666.1241  0.044860639  0.044510003            4 
 3096000   0.76523162   -4.7415574     1663.981  0.044788464  0.044500236           12 
 3097000   0.76661133   -4.7579318    1666.5987  0.044844437  0.044490554            4 
 3098000   0.74928831   -4.7573361    1663.2129  0.044738887  0.044480833            7 
 3099000    0.7485869   -4.7754617    1664.7651  0.044766191   0.04447117            6 
 3100000   0.77442286   -4.7806548    1663.5144  0.044718129  0.044461386            5 
 3101000   0.73965636   -4.7709237     1663.815  0.044711785  0.044451612           13 
 3102000   0.75225713   -4.7424537    1664.9522  0.044727923  0.044441812            7 
 3103000   0.74542406   -4.7736095    1659.6309  0.044570602  0.044432026            7 
 3104000     0.771901    -4.787382    1664.6885  0.044692023  0.044422289            6 
 3105000   0.75883395   -4.7298829    1664.9356  0.044684262  0.044412564            5 
 3106000   0.76364465   -4.7408939    1665.7901  0.044692801   0.04440294            5 
 3107000   0.75576774   -4.7746249      1667.82  0.044732862  0.044393297            5 
 3108000    0.7578952   -4.7772054    1667.0925  0.044698961   0.04438358            7 
 3109000   0.76216081   -4.7728928    1666.9252    0.0446801  0.044373879            5 
 3110000    0.7594693   -4.7595324    1666.4509  0.044653026  0.044364219            8 
 3111000    0.7289154   -4.7947474    1665.9255  0.044624597  0.044354517            8 
 3112000   0.76216989   -4.7686776    1662.1006  0.044507834  0.044344738            3 
 3113000   0.74832044   -4.7570302      1669.72  0.044697506  0.044335074            6 
 3114000   0.73364362   -4.7725495    1668.7156  0.044656272  0.044325404           11 
 3115000   0.74889422   -4.7611586     1666.437  0.044580979  0.044315786            8 
 3116000    0.7462279   -4.7578566    1672.2511  0.044722163  0.044306131            4 
 3117000    0.7432361   -4.7660364    1660.2158   0.04438605  0.044296472            6 
 3118000   0.76052926   -4.7739485    1668.8508  0.044602599  0.044286673           10 
 3119000   0.72330087   -4.8119072    1664.4426  0.044470519  0.044276893            6 
 3120000   0.75150964    -4.779539    1667.1873  0.044529576  0.044267086            5 
 3121000   0.75928667   -4.7664629    1667.6792  0.044528441   0.04425732            6 
 3122000   0.75891025   -4.7708751    1667.3412  0.044505158   0.04424756            5 
 3123000   0.75167015   -4.7540811    1670.5236  0.044575824  0.044237841            5 
 3124000   0.76184707   -4.7961357    1663.0483  0.044362152  0.044228155            5 
 3125000   0.76661328   -4.7691612    1665.6352  0.044416938  0.044218392            5 
 3126000   0.75632187    -4.769732    1667.5766  0.044454485  0.044208597            8 
 3127000   0.75413966   -4.7881105    1670.7365  0.044524477  0.044198929            7 
 3128000   0.74150637   -4.7766341     1665.065  0.044359149  0.044189192            7 
 3129000   0.75194954   -4.7531656    1673.4874  0.044569282  0.044179548            5 
 3130000   0.75049385   -4.7720936    1671.4168  0.044499914  0.044169877            3 
 3131000    0.7609264   -4.7834985    1668.8513  0.044417419  0.044160207            8 
 3132000   0.75162623   -4.7689097    1673.8183  0.044535395  0.044150563            5 
 3133000   0.73910982   -4.7733734    1670.0249  0.044420281   0.04414094            3 
 3134000   0.74447863   -4.7927933    1670.3459  0.044414642  0.044131282            8 
 3135000   0.75837943   -4.7931362    1669.0086  0.044364928  0.044121593            8 
 3136000    0.7435521   -4.7864682    1667.7984  0.044318624  0.044111858           11 
 3137000   0.76653454   -4.7988179    1671.2887  0.044397213  0.044102161           13 
 3138000   0.75194142   -4.7644066    1666.5849  0.044258151  0.044092433            5 
 3139000   0.76211851    -4.778623    1669.1252   0.04431149  0.044082761            7 
 3140000   0.73512595   -4.7768896    1666.4733  0.044226999  0.044073056            6 
 3141000   0.75977258   -4.7672113    1671.1993  0.044338302  0.044063393           10 
 3142000   0.75165957   -4.7928548    1669.9474  0.044290987  0.044053716            8 
 3143000   0.75704657   -4.7592239    1673.4253  0.044369108  0.044044087            3 
 3144000   0.73932053   -4.7699284    1670.9737  0.044290016  0.044034457            7 
 3145000   0.75263211   -4.7731062    1675.2819  0.044390087  0.044024856            8 
 3146000   0.73556841   -4.7830557    1670.9916  0.044262334  0.044015201            5 
 3147000   0.76397615   -4.7870602     1671.215  0.044254184  0.044005431            6 
 3148000   0.74674048   -4.7858782    1673.1882  0.044292362   0.04399576            6 
 3149000   0.76829342      -4.7484    1674.6212  0.044316217  0.043986065           15 
 3150000   0.73715123   -4.7854727    1670.0549  0.044181347  0.043976401            5 
 3151000   0.73560547   -4.7768895    1671.6323  0.044209043  0.043966754            5 
 3152000   0.76083925   -4.7816567    1673.5591  0.044245957  0.043957121           19 
 3153000   0.75810918   -4.7968281    1674.8498  0.044266038  0.043947421            5 
 3154000   0.73909679   -4.8089295    1674.5596  0.044244336  0.043937668           13 
 3155000   0.74268935   -4.7827392    1675.9433  0.044266861   0.04392797            6 
 3156000   0.74826728    -4.795217    1670.7757  0.044116385  0.043918326            5 
 3157000   0.74324362    -4.761497    1673.3216  0.044169613  0.043908645            5 
 3158000   0.75471399    -4.779178    1678.2366  0.044285324  0.043899044            4 
 3159000   0.73975268   -4.7568198    1671.5947  0.044096092  0.043889466            5 
 3160000   0.75470369   -4.7638853    1678.8366  0.044273118  0.043879824            6 
 3161000   0.73934656   -4.7927906    1677.1353  0.044214259  0.043870244            5 
 3162000   0.75685523   -4.7641108     1679.733  0.044268738  0.043860673            5 
 3163000   0.74147747   -4.7802784    1678.1233  0.044212333  0.043851029            5 
 3164000   0.74968248   -4.7999444    1669.3911   0.04396837  0.043841363            5 
 3165000   0.73461478   -4.7632917      1677.49  0.044167719  0.043831751            6 
 3166000   0.74721062   -4.7792882    1671.4931  0.043995924  0.043822138           11 
 3167000   0.74315058   -4.8056662    1672.1311  0.043998818  0.043812346            7 
 3168000    0.7273298     -4.79202    1676.9756  0.044112364  0.043802508            6 
 3169000   0.74234608   -4.7841271    1675.0883  0.044048813  0.043792714            8 
 3170000   0.74706062   -4.7845724    1673.6082   0.04399601  0.043782971            5 
 3171000   0.72983411    -4.771162    1672.4125  0.043950712  0.043773243           13 
 3172000   0.75508921   -4.8106571    1676.8027  0.044052193  0.043763486            4 
 3173000   0.75532248   -4.7800243    1676.0464  0.044018446   0.04375375            6 
 3174000   0.75483566   -4.7756121    1671.7798   0.04389256  0.043743984            7 
 3175000     0.734094   -4.8043204    1672.6396  0.043901302  0.043734222            4 
 3176000   0.73912707    -4.798178     1671.976  0.043870067   0.04372441            5 
 3177000   0.75054657   -4.7834464    1673.3025  0.043891053  0.043714668            8 
 3178000   0.73647808   -4.7922445    1677.8926  0.043997604  0.043704951            7 
 3179000   0.74345037    -4.800455    1675.7743  0.043928234  0.043695185            5 
 3180000   0.74698759   -4.7884706    1675.8746  0.043917049  0.043685347           10 
 3181000   0.71317795   -4.7848164    1679.2367  0.043991321   0.04367555           10 
 3182000   0.74701854   -4.7914207    1674.5311   0.04385426   0.04366564            3 
 3183000   0.73211061   -4.7927965    1673.8193  0.043821849  0.043655787            7 
 3184000   0.73386729   -4.8168874    1678.3119  0.043925666  0.043646009            4 
 3185000   0.76284776   -4.7902201    1676.2411  0.043857695  0.043636153            3 
 3186000   0.72642137   -4.8067472    1676.0093  0.043837867  0.043626325            4 
 3187000   0.73561721   -4.7918978     1671.888  0.043716348  0.043616427            8 
 3188000   0.73987668   -4.7986411    1673.6584  0.043748914  0.043606648            4 
 3189000   0.74236706   -4.7969476    1678.3168  0.043856924  0.043596886            6 
 3190000   0.74553038   -4.7793855    1675.1506  0.043760464  0.043587115            6 
 3191000   0.73906111   -4.8007427    1676.1031  0.043771626  0.043577289            6 
 3192000   0.74223572   -4.7989114    1679.1305  0.043836948  0.043567442            6 
 3193000   0.73924695   -4.7893263    1676.3825    0.0437515    0.0435576            5 
 3194000   0.73844318   -4.8116317     1676.887  0.043750965   0.04354783            5 
 3195000   0.73626124   -4.8179511    1673.3559  0.043645172  0.043537962            4 
 3196000   0.74227743   -4.7648428    1678.8721  0.043775348  0.043528129           16 
 3197000     0.758954   -4.7826668     1678.551  0.043753284  0.043518405            9 
 3198000   0.73078224    -4.780725    1679.6728  0.043768835  0.043508632            8 
 3199000   0.75282217   -4.7874804    1674.6152  0.043623402  0.043498871            5 
 3200000   0.73996414   -4.7808558    1680.1624  0.043754228  0.043489138           15 
 3201000   0.73801885   -4.7961114    1677.0907  0.043660594  0.043479438            3 
 3202000   0.72506188   -4.8009197    1682.2715  0.043781789  0.043469639            4 
 3203000   0.74563557   -4.8134212    1675.4928  0.043591759  0.043459753            5 
 3204000   0.72874857   -4.8163759     1677.239  0.043623569   0.04344993            7 
 3205000   0.72342738   -4.8078695    1673.0577  0.043501239  0.043440067           13 
 3206000   0.74671605    -4.794799    1683.7532  0.043765678  0.043430259            5 
 3207000   0.75162327   -4.8026677    1679.5452  0.043642689  0.043420521            8 
 3208000   0.72105702   -4.7979371    1678.4639  0.043600995  0.043410753           11 
 3209000   0.74760646   -4.8210545    1674.7545   0.04349108  0.043401005            9 
 3210000   0.72414834   -4.7814518    1677.7226  0.043554584  0.043391274            5 
 3211000   0.71804832   -4.7989896    1683.8678  0.043700504  0.043381556            4 
 3212000   0.74457401   -4.7787865    1679.6137  0.043576528   0.04337177            8 
 3213000   0.74806825   -4.7955842     1686.679  0.043746215  0.043362111            4 
 3214000   0.74473111   -4.7922765    1680.7874  0.043579843  0.043352334            3 
 3215000   0.74025043   -4.7735823    1686.3791  0.043711227  0.043342608            4 
 3216000   0.73773829   -4.7981061    1679.5691  0.043521173  0.043332946            3 
 3217000    0.7490197   -4.8181986    1682.3451  0.043579555  0.043323254            6 
 3218000   0.76025458   -4.7944277    1683.8214  0.043604242  0.043313619            7 
 3219000   0.73034654   -4.7700064     1685.663  0.043638371  0.043303938            2 
 3220000   0.73124501   -4.8106622    1688.7168   0.04370385  0.043294216            6 
 3221000   0.72597617   -4.7983875    1682.2416  0.043522756  0.043284541           11 
 3222000    0.7357506   -4.7803811    1687.5065   0.04364542  0.043274838            3 
 3223000   0.73690549   -4.8111212     1684.084  0.043543387  0.043265132            2 
 3224000   0.72092343   -4.7769197    1685.0645  0.043555224  0.043255406           10 
 3225000   0.75342895   -4.8134682    1680.0521  0.043412198  0.043245658            7 
 3226000    0.7264735   -4.8158404    1679.7048   0.04338977  0.043235901            6 
 3227000   0.72864893   -4.8338785    1676.8312  0.043302117  0.043226087           12 
 3228000   0.73858116   -4.8023959    1679.7651  0.043364443  0.043216195           19 
 3229000   0.73446011   -4.8098755    1681.4916  0.043395571  0.043206365            4 
 3230000   0.73845787   -4.7684133    1686.1412  0.043502096  0.043196599           10 
 3231000   0.73108049   -4.8048812    1682.3993   0.04339212  0.043186886           11 
 3232000   0.72552404   -4.8056027     1686.618  0.043487469  0.043177164           12 
 3233000    0.7351491   -4.8028696    1686.6342  0.043474435    0.0431674            9 
 3234000   0.73017205   -4.7795097    1688.3468  0.043505122  0.043157747           11 
 3235000   0.72609352   -4.8048937    1687.5061  0.043470019  0.043148099            6 
 3236000   0.73900115    -4.780903     1683.739  0.043359574  0.043138374            9 
 3237000   0.74306868   -4.7940609    1687.9715   0.04345514  0.043128648           10 
 3238000   0.73986655   -4.7968203    1686.6199  0.043406936  0.043118915           17 
 3239000   0.74140319   -4.8135713    1680.9587  0.043247883  0.043109156            6 
 3240000   0.73265611   -4.8300601    1685.1519  0.043342383  0.043099403           12 
 3241000   0.72557275   -4.8402841    1681.3427  0.043231069  0.043089542            5 
 3242000   0.75626927   -4.7986189    1685.4563   0.04332347   0.04307975           27 
 3243000   0.74602232   -4.8195207    1684.7307  0.043291467  0.043069911            9 
 3244000   0.72486547    -4.805414    1683.5335  0.043247368  0.043060095            5 
 3245000   0.73242601   -4.8217731    1685.0466  0.043272898  0.043050351            5 
 3246000   0.74717173   -4.8020489    1686.2673  0.043290904  0.043040596           14 
 3247000   0.72478736   -4.8339359    1683.6795  0.043211156  0.043030813            4 
 3248000   0.73822023   -4.8224373    1687.2162  0.043288593  0.043020922            7 
 3249000   0.73766122   -4.8220454    1687.9639  0.043294448  0.043011148            7 
 3250000   0.73408457   -4.8089333    1688.1953  0.043287058   0.04300145            9 
 3251000   0.73978243   -4.8329562    1686.1943  0.043222453  0.042991695            4 
 3252000     0.740716   -4.8181759    1683.7095  0.043145488  0.042981871            8 
 3253000   0.72645151   -4.8143039    1684.7559  0.043159031   0.04297201           17 
 3254000   0.72888568   -4.8123249    1687.0085  0.043203454   0.04296219            6 
 3255000   0.74232917   -4.7956892    1688.3206  0.043223773  0.042952396            4 
 3256000   0.71901892   -4.7925988    1688.0325  0.043203126  0.042942636            6 
 3257000   0.72397958    -4.814089    1684.5735  0.043101358  0.042932844            7 
 3258000   0.72856277   -4.8139632    1687.8003  0.043170665  0.042923033            5 
 3259000   0.73117939    -4.808505     1681.944  0.043007672  0.042913249            5 
 3260000   0.75058797   -4.8333829    1687.9619  0.043148311  0.042903406            4 
 3261000   0.72916262   -4.8291908    1686.4029  0.043095239  0.042893497            6 
 3262000   0.73202372   -4.7919234    1686.2911  0.043079172  0.042883607            8 
 3263000   0.73127399   -4.8266972    1689.7222  0.043153596  0.042873808            4 
 3264000   0.73268385    -4.802239    1685.8568  0.043041688  0.042863949           14 
 3265000   0.72363976   -4.8141457    1682.7194  0.042948428  0.042854032            5 
 3266000   0.73136131   -4.8276428    1692.8759  0.043194424  0.042844228            5 
 3267000   0.73462875   -4.8353194    1686.9293  0.043029521  0.042834284            7 
 3268000   0.71449062   -4.8352819    1683.1959  0.042921153  0.042824315            5 
 3269000   0.73462733   -4.8118574    1686.5701  0.042994039  0.042814354           11 
 3270000   0.72743368   -4.7936333    1691.3848  0.043103589  0.042804562            6 
 3271000   0.72301807    -4.803203    1687.0654  0.042980367  0.042794706            9 
 3272000   0.73870978   -4.8382403    1688.0505   0.04299232  0.042784806           16 
 3273000   0.72733587   -4.8158809    1685.9273  0.042925128  0.042774949            7 
 3274000    0.7328693   -4.8069711    1686.0718  0.042915695  0.042765091            5 
 3275000   0.74539588   -4.8213671    1684.0846  0.042852024  0.042755293            3 
 3276000   0.72348061   -4.8444289    1685.2036  0.042867409  0.042745449            4 
 3277000    0.7378788   -4.8149757    1685.9913   0.04287436  0.042735598            5 
 3278000    0.7332045   -4.8285387    1684.7179  0.042828906  0.042725731           12 
 3279000   0.72686198    -4.837268    1687.0907  0.042876148   0.04271589            7 
 3280000   0.73329619   -4.8099917    1688.3963  0.042896246  0.042706014            7 
 3281000   0.72523698   -4.8190291    1694.0485  0.043026731  0.042696137            6 
 3282000    0.7243367   -4.8125919    1692.5468  0.042975493  0.042686329            9 
 3283000   0.73875635   -4.8041043    1689.7971  0.042892607  0.042676546            8 
 3284000   0.72744215   -4.8158806    1689.6658  0.042876212  0.042666711            6 
 3285000   0.73119297   -4.8382742    1685.8556  0.042766503  0.042656827            6 
 3286000   0.71998537   -4.8002269     1693.474  0.042946692   0.04264698            4 
 3287000   0.71421104   -4.8580967    1689.5771  0.042834831  0.042637185            5 
 3288000   0.72505022   -4.8365386    1688.3526  0.042790768  0.042627326            5 
 3289000   0.72425095   -4.8371106    1688.2902  0.042776177  0.042617445            5 
 3290000   0.71406757   -4.8498907    1686.1966  0.042710146  0.042607523           10 
 3291000   0.70786428   -4.8112106    1688.1785  0.042747353   0.04259768           12 
 3292000   0.71558793   -4.8341725    1687.8691  0.042726536  0.042587854            6 
 3293000   0.71561789   -4.8460485    1686.6109  0.042681721  0.042577935            6 
 3294000   0.72064562   -4.8235817    1689.9718   0.04275379  0.042567989            9 
 3295000   0.71920006   -4.8043287    1692.3178  0.042800147  0.042558181            5 
 3296000   0.72092844   -4.8201067    1691.2759  0.042760818  0.042548307            9 
 3297000   0.72320722     -4.85119    1689.1033  0.042692935  0.042538412            4 
 3298000      0.73056   -4.8517919    1687.7685  0.042646264  0.042528546            9 
 3299000   0.72678546   -4.8693293    1687.2575  0.042620429   0.04251863           17 
 3300000   0.72736014   -4.8320711    1690.5452  0.042690536  0.042508757            8 
 3301000   0.73559494    -4.825653    1693.5698  0.042753958  0.042498897            6 
 3302000   0.73553127   -4.8183282    1692.9378  0.042725061  0.042489081            7 
 3303000   0.71750083   -4.8287815    1690.7319  0.042656472  0.042479222            6 
 3304000   0.72574434   -4.8295153    1692.5947  0.042690545  0.042469369           11 
 3305000   0.73077617   -4.8337569    1688.3908  0.042571628  0.042459551           10 
 3306000    0.7153888   -4.8224815    1692.2904  0.042657048  0.042449717            5 
 3307000   0.70929835   -4.8085013    1693.4714   0.04267391  0.042439856            3 
 3308000   0.72596044    -4.833398    1694.6519  0.042690747   0.04243004            5 
 3309000   0.71184169   -4.7986954    1695.8555  0.042708158  0.042420211            9 
 3310000   0.73872323   -4.7996181    1690.6309  0.042563717  0.042410394            4 
 3311000   0.71591717   -4.8267347    1692.5511  0.042599193  0.042400552            7 
 3312000   0.71800768   -4.8430313    1695.1886  0.042652692  0.042390728            7 
 3313000   0.72410336   -4.8320318    1689.3234  0.042492287  0.042380882            7 
 3314000   0.72402943   -4.8315725    1690.0588  0.042497958  0.042371024            9 
 3315000   0.73090138   -4.8649518    1687.1071  0.042410938  0.042361065           10 
 3316000   0.73636069   -4.8507993    1688.3897  0.042430382   0.04235115           10 
 3317000   0.70860572   -4.8170689    1690.4264  0.042468758  0.042341274            7 
 3318000   0.71568803   -4.8519641    1689.3025  0.042427731  0.042331472           11 
 3319000      0.73415   -4.8391844    1689.4181  0.042417848  0.042321669            4 
 3320000   0.72663688   -4.8326108    1696.0329  0.042571108  0.042311912           11 
 3321000   0.71615303   -4.8497745    1693.7896  0.042501997  0.042302057            7 
 3322000   0.71927801   -4.8224854    1694.6993  0.042512024  0.042292177            5 
 3323000    0.7145371   -4.8168926    1695.4745  0.042518669  0.042282429            4 
 3324000   0.72806709   -4.8538305    1694.2722  0.042475737  0.042272559            5 
 3325000    0.7114634   -4.8264025    1693.2083  0.042436299    0.0422627            3 
 3326000   0.72413495   -4.8280558    1693.4728  0.042430166  0.042252923            9 
 3327000   0.71545535   -4.8299285    1694.5109  0.042443415  0.042243108            5 
 3328000   0.72340765   -4.8384625     1690.009  0.042317933  0.042233291            3 
 3329000   0.71110484   -4.8430723     1693.514   0.04239296  0.042223451            5 
 3330000   0.71721436   -4.8286912    1695.9025  0.042440001   0.04221363            4 
 3331000   0.73040801   -4.8347313    1689.4462  0.042265741   0.04220382            8 
 3332000   0.73334934   -4.8554903    1697.8376  0.042462926  0.042193954           11 
 3333000   0.70665502   -4.8381356    1696.6216  0.042419783  0.042184184            7 
 3334000   0.71612018   -4.8108227    1698.2256   0.04244715  0.042174399            9 
 3335000   0.70031367   -4.8751023      1697.22  0.042409295    0.0421646            5 
 3336000   0.71167754   -4.8495404    1696.8981  0.042388542  0.042154739           10 
 3337000   0.72033799   -4.8400767    1699.6755  0.042445197  0.042144912            5 
 3338000   0.71383867   -4.8314612    1696.3471  0.042349389  0.042135117           12 
 3339000     0.719815   -4.8444632    1694.5065  0.042290768  0.042125331            4 
 3340000   0.71968778    -4.846159    1695.5456  0.042304033  0.042115611            7 
 3341000   0.71463543   -4.8674856    1693.4916  0.042240137  0.042105766            6 
 3342000   0.70756522   -4.8368006    1695.4488  0.042276301  0.042095933           15 
 3343000   0.70763103   -4.8586035    1693.6422   0.04221862  0.042086193           10 
 3344000   0.72124035   -4.7961688    1703.2686  0.042445889  0.042076426            7 
 3345000   0.72714459   -4.8341806    1698.9841  0.042326461  0.042066673            6 
 3346000   0.69851763    -4.834879    1696.2395  0.042245456  0.042056864            5 
 3347000   0.70822279   -4.8386421    1697.4841  0.042263822  0.042047052            5 
 3348000   0.72316865   -4.8298395    1699.7796  0.042308333  0.042037264           20 
 3349000   0.73607152    -4.831584    1698.0922  0.042253713  0.042027507            9 
 3350000   0.72576997   -4.8581763    1698.6667   0.04225539  0.042017694           13 
 3351000   0.71931935   -4.8321537    1702.0284  0.042326381  0.042007886            4 
 3352000   0.73017312   -4.8502322    1696.2855   0.04217098   0.04199813            6 
 3353000   0.71181389   -4.8489995     1695.163  0.042130504  0.041988361           12 
 3354000   0.71849577   -4.8514086    1700.0625  0.042239677  0.041978608            5 
 3355000   0.71017704   -4.8486327    1701.0846  0.042252473  0.041968804            6 
 3356000   0.70888347   -4.8474168    1694.7963  0.042083739  0.041959028            4 
 3357000   0.71802839   -4.8728681    1695.6389  0.042092117  0.041949157            6 
 3358000    0.7121904   -4.8447999    1698.0249  0.042138796  0.041939284            7 
 3359000   0.72367457   -4.8405282      1700.47  0.042186911  0.041929469            6 
 3360000   0.72495555   -4.8508358    1702.1882   0.04221697  0.041919691            7 
 3361000   0.70514309   -4.8448891    1703.7012  0.042241923  0.041909902           12 
 3362000   0.71103867   -4.8179531     1700.614  0.042152836  0.041900147           13 
 3363000   0.70043681   -4.8125599    1700.2397  0.042131026  0.041890416            8 
 3364000    0.7094371   -4.8524121    1698.7801  0.042082344  0.041880604            4 
 3365000   0.71142427   -4.8485498    1703.9244  0.042197237  0.041870804           10 
 3366000   0.71545053   -4.8509484    1697.8944  0.042035412  0.041861066            7 
 3367000   0.71095997   -4.8460162    1700.3193  0.042082944   0.04185132            6 
 3368000   0.70763044   -4.8286135    1706.8782  0.042232736  0.041841482            6 
 3369000   0.70321056   -4.8354733    1700.6483  0.042066101  0.041831747            4 
 3370000   0.70694522   -4.8445055    1706.0408  0.042186963  0.041821918            8 
 3371000   0.71179301   -4.8465734    1697.3162  0.041958771   0.04181215            5 
 3372000   0.71666186   -4.8568502    1698.2924  0.041970453  0.041802346            5 
 3373000   0.71503954   -4.8561222    1705.7285  0.042141726  0.041792646           10 
 3374000   0.70814018   -4.8480162    1703.1884  0.042066499  0.041782943            6 
 3375000   0.70811218   -4.8627096    1697.7154  0.041918898  0.041773174            7 
 3376000   0.73009214   -4.8451036    1704.1463  0.042065224  0.041763476            5 
 3377000   0.69734872   -4.8525292    1698.1179  0.041904005  0.041753776            6 
 3378000   0.71782236   -4.8695819    1700.8924  0.041960045  0.041744044            9 
 3379000   0.70170104   -4.8828659    1700.1269  0.041928749  0.041734222            7 
 3380000   0.69894361   -4.8479015    1705.8564  0.042057604  0.041724438            5 
 3381000   0.71570119   -4.8421225    1701.7035  0.041942805  0.041714744           15 
 3382000   0.71469882   -4.8260605    1704.3591  0.041995839  0.041705107            5 
 3383000   0.70362013   -4.8171143    1704.5769  0.041988789  0.041695367            6 
 3384000   0.72019889   -4.8455613    1703.3218  0.041945473  0.041685635            8 
 3385000   0.71385241   -4.8772718    1698.9853  0.041826324   0.04167582            5 
 3386000   0.70798162   -4.8839845    1702.2556  0.041894459  0.041665991           10 
 3387000   0.71396508   -4.8454991    1699.8876  0.041823827  0.041656187            7 
 3388000   0.68819016   -4.8360603      1703.12  0.041890988  0.041646464            9 
 3389000   0.70912661   -4.8537694    1703.9749  0.041899648  0.041636724           12 
 3390000   0.71838085   -4.8768045    1706.0021  0.041937122  0.041627014           10 
 3391000   0.70752957   -4.8538301     1701.056  0.041803205    0.0416172            4 
 3392000   0.71011297   -4.8553389    1702.0874  0.041816219  0.041607458            8 
 3393000   0.70330624   -4.8909425    1699.2326  0.041733781  0.041597647            5 
 3394000   0.71913735   -4.8596079    1705.2625  0.041869537  0.041587908            9 
 3395000   0.70834762   -4.8702706      1706.22  0.041880706  0.041578222           10 
 3396000   0.69181475     -4.84211    1707.1036  0.041890057  0.041568454            8 
 3397000   0.70745086   -4.8475771    1701.8775  0.041749521  0.041558727           11 
 3398000   0.72288015   -4.8619604    1700.9207   0.04171377  0.041548948            6 
 3399000   0.71438794   -4.8727644    1704.1293  0.041780163  0.041539125            6 
 3400000   0.70954456   -4.8465438    1707.0555  0.041839596  0.041529439            6 
 3401000   0.69836504   -4.8486707    1699.0436  0.041630982   0.04151972           20 
 3402000   0.71725934   -4.8588342    1703.1518  0.041719377  0.041509988            5 
 3403000   0.68734904   -4.8542276    1705.8205  0.041772469  0.041500259            5 
 3404000   0.70921481   -4.8828901    1703.7985  0.041710696  0.041490544           11 
 3405000   0.71705652    -4.865962    1707.2063  0.041781847  0.041480838           10 
 3406000   0.70424789    -4.828204    1707.7339   0.04178249   0.04147108            4 
 3407000    0.6916685   -4.8495329    1704.6556  0.041694933  0.041461326            6 
 3408000   0.69610577   -4.8716957     1700.574  0.041582893  0.041451606            4 
 3409000   0.69551648   -4.8604761    1710.6274  0.041816452  0.041441879            6 
 3410000   0.70856164   -4.8480273    1706.7103  0.041708462  0.041432076            4 
 3411000   0.71907669   -4.8549009    1705.3532  0.041663081  0.041422369            5 
 3412000   0.71321283   -4.8870563    1701.0769  0.041546427  0.041412624            7 
 3413000   0.71315548   -4.8515028     1706.749  0.041672746  0.041402828            9 
 3414000   0.71880811   -4.8615031      1710.06  0.041741358  0.041393095            7 
 3415000   0.71928787   -4.8459358    1705.3645  0.041614557  0.041383437            7 
 3416000   0.70351548   -4.8691714    1704.1777  0.041573421  0.041373714            7 
 3417000   0.70060641   -4.8672128    1705.1189  0.041584209  0.041363953            6 
 3418000   0.72146865    -4.853883    1709.5874  0.041680988    0.0413542           11 
 3419000   0.70517719   -4.8653797    1708.2222  0.041635521   0.04134447            5 
 3420000    0.7149931   -4.8881712    1701.8081  0.041467059  0.041334663            6 
 3421000   0.69719802     -4.88061    1710.6228  0.041669658   0.04132487            4 
 3422000   0.70297746   -4.8857663    1707.6736  0.041585662  0.041315122           10 
 3423000   0.71243251   -4.8699857    1707.1284  0.041560239  0.041305332           10 
 3424000   0.69876365   -4.8423638    1713.7427  0.041709081  0.041295637            4 
 3425000   0.71896517   -4.8547381    1710.0991   0.04160825   0.04128599            7 
 3426000   0.69215312   -4.8810422    1703.5759  0.041437438  0.041276292            9 
 3427000    0.6906858    -4.858524    1713.5929  0.041668926  0.041266508            7 
 3428000   0.70082407   -4.8802872    1709.4917  0.041557073  0.041256799           12 
 3429000   0.71249885   -4.8617292    1705.6252  0.041450988  0.041247063            4 
 3430000    0.7029783   -4.8367023    1710.4373  0.041555814  0.041237451            4 
 3431000   0.70206175   -4.8531805     1714.317  0.041637935  0.041227818            3 
 3432000   0.70257408   -4.8612455    1709.3609  0.041505462  0.041218186            4 
 3433000   0.71986844   -4.8827707    1706.1915  0.041416436  0.041208553            7 
 3434000   0.70816278   -4.8708928    1709.4179   0.04148267  0.041198874            7 
 3435000   0.70096095   -4.8836521    1704.8896  0.041360736   0.04118922           10 
 3436000   0.69802023   -4.8755291    1707.6567   0.04141581  0.041179488            4 
 3437000    0.7114099   -4.8681088    1712.8777  0.041530349  0.041169811           18 
 3438000   0.71225944   -4.8989178    1707.6356  0.041391206  0.041160052            9 
 3439000   0.71589819   -4.8891815    1706.3981  0.041349182  0.041150305           19 
 3440000   0.71217583   -4.8904322    1712.4254  0.041483174  0.041140629            9 
 3441000   0.69636224   -4.8852822    1708.9096  0.041385973    0.0411309           10 
 3442000   0.71317191   -4.8590305    1709.4849  0.041387877  0.041121186            7 
 3443000   0.69946038   -4.8644073     1708.663  0.041355964  0.041111476            7 
 3444000   0.70921683   -4.8640177     1710.837  0.041396558  0.041101804            4 
 3445000    0.7031924   -4.9002024    1707.9121   0.04131379  0.041092076           11 
 3446000   0.70537311   -4.8724971    1708.8298  0.041323994  0.041082344            9 
 3447000   0.70713442    -4.878293    1707.8734  0.041288883  0.041072597            9 
 3448000   0.69655185   -4.8884351    1706.9688  0.041255047   0.04106287           23 
 3449000   0.70217048   -4.8725813    1711.8025  0.041359874  0.041053168            6 
 3450000   0.71385642   -4.9173684    1707.1767  0.041236151  0.041043441            5 
 3451000   0.68949435   -4.8631201    1711.0185  0.041316973  0.041033715           17 
 3452000   0.69835857   -4.8657733    1710.5642  0.041294036  0.041024013           10 
 3453000   0.70528849   -4.9017409    1705.5664  0.041161463  0.041014267           12 
 3454000    0.7012188   -4.9036028    1707.8544  0.041204749   0.04100444           11 
 3455000   0.70027525   -4.8576036    1708.5664  0.041209996  0.040994685           16 
 3456000   0.68665884   -4.8814399    1704.6584  0.041103838  0.040984937            6 
 3457000   0.70013953   -4.8941617    1710.0915  0.041222916  0.040975133           11 
 3458000   0.70842436   -4.8591904    1713.7105  0.041298211  0.040965452            5 
 3459000   0.69501353   -4.8617683    1709.5266  0.041185472  0.040955723            4 
 3460000   0.70635338   -4.8800606    1710.7229  0.041202383  0.040945986           10 
 3461000   0.70048066    -4.875444    1707.4042  0.041110571  0.040936187           12 
 3462000   0.67281082   -4.8952932    1712.9715  0.041232705  0.040926354            7 
 3463000   0.71642214   -4.9019995    1706.7401  0.041070846   0.04091661           19 
 3464000   0.70699463   -4.8507269    1714.4075  0.041243445  0.040906949            8 
 3465000   0.70574934   -4.8920293    1711.8039  0.041168924  0.040897268            5 
 3466000   0.68726344   -4.8782224    1707.6032   0.04105605  0.040887547           23 
 3467000   0.69762631   -4.9028017    1711.6293  0.041140979  0.040877861           11 
 3468000   0.70344593   -4.8551029    1712.4081  0.041147829  0.040868204           33 
 3469000   0.71553934   -4.9015676    1713.0208  0.041150687  0.040858531            9 
 3470000   0.68715105   -4.8904233    1712.0059  0.041114454  0.040848848            5 
 3471000   0.68170643   -4.8612829    1713.8195  0.041146153  0.040839234            5 
 3472000    0.6994472   -4.8967822    1708.8206   0.04101432  0.040829556            6 
 3473000    0.6921263   -4.8699194    1715.9785  0.041174262  0.040819901            6 
 3474000    0.6934848    -4.887067    1715.1811  0.041143282  0.040810269            6 
 3475000   0.69755343   -4.8809112    1710.6229  0.041022132  0.040800552            7 
 3476000   0.71151275   -4.8760838     1719.538  0.041224059   0.04079088            4 
 3477000   0.71367957   -4.8825583    1709.7759  0.040978235  0.040781183            7 
 3478000   0.70918733   -4.9025026    1715.1497   0.04109521  0.040771501            6 
 3479000   0.69666756   -4.9009552    1711.7416  0.041001762  0.040761823           10 
 3480000   0.69620777   -4.8664741    1714.2664  0.041050441  0.040752133            5 
 3481000   0.68040495   -4.8596937    1716.3552  0.041088653  0.040742549           12 
 3482000    0.6965275   -4.8649664    1711.6288  0.040963737  0.040732882            7 
 3483000   0.70476056   -4.8596916    1711.5835  0.040950892  0.040723219           11 
 3484000   0.69941954   -4.8941225    1716.8315  0.041064664  0.040713536            6 
 3485000   0.68512317   -4.8762492    1717.7944  0.041075907  0.040703865            6 
 3486000   0.68139938   -4.8800725    1714.5402  0.040986332  0.040694219            4 
 3487000   0.70657878    -4.888093    1713.2272  0.040943198    0.0406845            4 
 3488000   0.69787689   -4.8815323    1710.8311  0.040874214  0.040674792           10 
 3489000   0.70109123   -4.8856776    1718.5226  0.041046208    0.0406651            9 
 3490000   0.70504192   -4.8967403    1713.8949  0.040923947  0.040655425            3 
 3491000   0.67261573    -4.879089     1715.201  0.040943402   0.04064578           10 
 3492000   0.68564822   -4.8801172     1718.411  0.041008281  0.040636051            8 
 3493000   0.67581573   -4.8765494    1717.5719  0.040976522  0.040626404            7 
 3494000   0.68430439    -4.878509     1720.157  0.041026451  0.040616784           10 
 3495000   0.70585629   -4.8920781     1716.628  0.040930567  0.040607191            7 
 3496000   0.68668345   -4.8964837    1717.4829  0.040939239  0.040597565           14 
 3497000   0.71761473   -4.8951236    1716.6153  0.040906856  0.040587995            8 
 3498000   0.70866782   -4.8912354    1717.9332  0.040926557   0.04057839            4 
 3499000   0.69388612   -4.9151142    1715.7896  0.040863809  0.040568777            8 
 3500000    0.6912489   -4.8803026    1713.7275  0.040803036  0.040559224           11 
 3501000   0.67879383   -4.8986737    1713.8789  0.040794986  0.040549634           24 
 3502000   0.68202668    -4.891355    1719.8358  0.040925086  0.040540053            8 
 3503000   0.68585204   -4.9193187    1717.7019   0.04086264  0.040530459            8 
 3504000   0.70054641    -4.873316    1719.6528  0.040897375  0.040520903           13 
 3505000   0.69239802   -4.8678738    1721.1843  0.040922119  0.040511343            5 
 3506000   0.70393057   -4.8928283    1718.6714  0.040850719   0.04050179            9 
 3507000   0.70562834   -4.8876665    1717.1145  0.040802075   0.04049221           11 
 3508000   0.68651728   -4.9182135    1715.2911  0.040747129  0.040482537            5 
 3509000   0.68439986   -4.9020233    1719.0752  0.040825383  0.040472882            9 
 3510000   0.69564049   -4.8799109     1722.473   0.04089442  0.040463298            8 
 3511000   0.68131836   -4.9069959    1719.0831  0.040802314  0.040453679            7 
 3512000   0.68462169   -4.9103175    1716.6671   0.04073337  0.040444089            6 
 3513000   0.68641157    -4.916575    1717.2547  0.040735712   0.04043443            5 
 3514000   0.70212206   -4.9001061    1718.2159  0.040746914   0.04042482           14 
 3515000   0.68816973   -4.8981709    1719.4492  0.040764562  0.040415257           14 
 3516000   0.67879347   -4.8728729    1721.8241  0.040809255  0.040405613            7 
 3517000   0.69482287   -4.8909998    1720.4561  0.040765237  0.040395994            7 
 3518000   0.68423313   -4.8856458    1722.0474  0.040791345   0.04038636            9 
 3519000   0.70517652   -4.8990037    1717.4699  0.040671352  0.040376769           12 
 3520000    0.6844907   -4.9031271    1713.4125  0.040563743  0.040367177           11 
 3521000   0.68433808   -4.9221924    1718.3208  0.040668389   0.04035759           15 
 3522000   0.67717936   -4.8775024    1720.9579   0.04071924  0.040347994            8 
 3523000   0.68081395   -4.8993343    1721.0571  0.040710026  0.040338386            6 
 3524000   0.68347939   -4.9125784    1715.0824  0.040557188   0.04032878            6 
 3525000   0.67513935   -4.9066973    1719.9093  0.040659795  0.040319214            9 
 3526000   0.68217242   -4.8887716    1720.2903  0.040657268  0.040309671            3 
 3527000   0.69364083   -4.8964685    1722.5696  0.040699594  0.040300128            8 
 3528000   0.68311254   -4.8886833    1724.9833  0.040745071  0.040290656            8 
 3529000   0.69495104   -4.9074943    1721.3838  0.040648527  0.040281136           13 
 3530000   0.67838756   -4.9027431    1719.6324  0.040595667  0.040271576           15 
 3531000   0.68339611   -4.9223373    1718.6502  0.040560989  0.040261985            7 
 3532000   0.70358978   -4.8906079    1726.2068  0.040727794  0.040252411            8 
 3533000   0.69109157   -4.9149987    1716.5952  0.040489556  0.040242811            5 
 3534000   0.69143843   -4.9041093    1718.5282   0.04052368  0.040233232            8 
 3535000   0.70731954   -4.9209222    1722.7397  0.040611498  0.040223609           12 
 3536000   0.69157606   -4.9027164    1720.0967  0.040537723   0.04021397            7 
 3537000   0.67936798    -4.918066    1714.9879  0.040405896   0.04020435            6 
 3538000   0.68386253   -4.9020327    1718.3483  0.040473626  0.040194711            6 
 3539000   0.68538092   -4.8849077    1721.8538  0.040544736  0.040185174           18 
 3540000   0.68247299   -4.9162166    1724.0672  0.040585386   0.04017569            6 
 3541000   0.68655961   -4.9178519    1725.4392  0.040606214  0.040166222            6 
 3542000   0.68897668   -4.8854322    1727.7205  0.040648422  0.040156678            5 
 3543000   0.66041438   -4.9071935    1723.8447  0.040545788  0.040147158            9 
 3544000   0.67172627   -4.8979696    1722.9947  0.040514361  0.040137651            7 
 3545000   0.69997109   -4.8962316    1725.1761   0.04055421  0.040128178            7 
 3546000   0.67837269   -4.9090369    1722.0139   0.04046846   0.04011872            8 
 3547000   0.68599252   -4.9134127    1721.1708  0.040437243  0.040109191            7 
 3548000   0.68565624    -4.900903    1722.9859  0.040468478  0.040099662            5 
 3549000   0.67688057   -4.9228878    1719.6925  0.040379744  0.040090185            5 
 3550000   0.67951395   -4.9103019    1720.2864   0.04038231  0.040080627           14 
 3551000    0.6709689   -4.8888594    1729.9852  0.040598544  0.040071063            7 
 3552000    0.6873772   -4.9263872    1724.6392  0.040461692  0.040061567            6 
 3553000   0.67543188   -4.9058577    1723.3753  0.040420662  0.040052063            9 
 3554000   0.69218354   -4.9124121    1723.6893  0.040416651  0.040042553            8 
 3555000   0.68199242   -4.9140058    1723.6171  0.040403589  0.040033049           17 
 3556000   0.68916813   -4.9194734     1725.722  0.040441554  0.040023643            7 
 3557000   0.68659616   -4.9100586    1724.8951  0.040410812  0.040014259            5 
 3558000   0.68535339   -4.9425737    1729.2141  0.040500611  0.040004884            7 
 3559000   0.67168063    -4.889518     1729.525  0.040496512  0.039995465            5 
 3560000   0.68761395   -4.9147808    1725.9128  0.040400581  0.039986078            8 
 3561000   0.69256876    -4.929345    1726.7689   0.04040927   0.03997665            5 
 3562000   0.68056975   -4.9036066    1726.4722  0.040390983  0.039967257            7 
 3563000   0.69002542   -4.9387497    1720.9757  0.040251093  0.039957835            6 
 3564000   0.68327435   -4.9200464    1727.0464  0.040381743  0.039948397            9 
 3565000   0.66960455   -4.9036304     1724.432  0.040309304  0.039938968            6 
 3566000   0.68583516   -4.9130941    1728.7813  0.040399637  0.039929597            7 
 3567000    0.6701715   -4.9210276    1725.4074  0.040309491   0.03992013           19 
 3568000   0.67774335   -4.9390552    1722.1431  0.040221952  0.039910689            8 
 3569000   0.66476716   -4.9325589    1729.5815  0.040384362  0.039901241           15 
 3570000   0.68716031   -4.9295788    1723.2938   0.04022628  0.039891829            4 
 3571000   0.68710852   -4.9340595    1727.2781  0.040307992  0.039882443            6 
 3572000   0.67973099   -4.9234179    1727.4575  0.040300894   0.03987312            7 
 3573000   0.67750904   -4.9248866    1726.5624  0.040268737  0.039863787            5 
 3574000    0.6771063   -4.9333727    1722.9231  0.040172615  0.039854353            7 
 3575000   0.68952686   -4.9348264    1723.0206  0.040163649  0.039844902           12 
 3576000   0.68653382    -4.940278    1730.6387  0.040329947  0.039835445           12 
 3577000    0.6800346   -4.9231041    1727.5321  0.040246299  0.039826092           10 
 3578000   0.67325408   -4.9188288    1730.8657   0.04031269  0.039816751           14 
 3579000   0.67890941   -4.9199396    1730.5068  0.040293071  0.039807438           11 
 3580000    0.6751289   -4.9106366    1734.0114  0.040363393  0.039798081            7 
 3581000   0.68099755   -4.9123351    1733.4044  0.040337997  0.039788729           14 
 3582000   0.66394688   -4.9268181    1728.7136  0.040217606  0.039779396            8 
 3583000   0.68045897   -4.9140599    1731.3824  0.040268452   0.03977005           12 
 3584000   0.68334164   -4.9174615    1731.9923  0.040271399   0.03976071           15 
 3585000   0.68792195    -4.932515    1733.5125  0.040295502   0.03975135            5 
 3586000   0.67586821   -4.9059781    1733.2292  0.040277682  0.039742075            5 
 3587000   0.67170631   -4.9418741    1730.0596  0.040192816  0.039732763            6 
 3588000   0.67403333   -4.9251188      1728.56  0.040146787  0.039723434           12 
 3589000   0.68437217   -4.9287512    1732.1969  0.040220045   0.03971405            6 
 3590000   0.67473674   -4.9213221    1728.9743  0.040134038  0.039704691            6 
 3591000   0.68076326   -4.9509479    1732.8538  0.040212889  0.039695362            4 
 3592000   0.66843212   -4.9338261     1729.706  0.040128665  0.039686044           14 
 3593000   0.68797531   -4.9060602    1735.8636  0.040260311  0.039676751            5 
 3594000   0.69152982   -4.9287919     1730.484  0.040124373  0.039667447           14 
 3595000    0.6796747   -4.9343619    1730.3582  0.040110297  0.039658113            7 
 3596000   0.68456621   -4.9581328    1725.0933  0.039977134  0.039648757           11 
 3597000   0.66506315   -4.9384798    1731.3517  0.040111012   0.03963947           13 
 3598000    0.6579443   -4.9440382    1732.1312  0.040117917  0.039630131           13 
 3599000   0.67238089   -4.8941022    1737.9188  0.040240779  0.039620842            7 
 3600000   0.67225472   -4.9236176     1733.098  0.040118008  0.039611563            8 
 3601000   0.67497471   -4.9151052    1735.4306  0.040160848  0.039602246            7 
 3602000     0.684288   -4.9250193     1730.323  0.040031533  0.039592921           21 
 3603000   0.66430704    -4.942438    1730.7738  0.040030849   0.03958359            5 
 3604000   0.67015135   -4.9312152    1731.6417  0.040039811  0.039574275           10 
 3605000   0.67106448   -4.9408939    1727.0618  0.039922834  0.039565019            5 
 3606000   0.69001169   -4.9324701    1730.6463  0.039994598  0.039555652            6 
 3607000   0.66863227   -4.9353749    1730.9023  0.039989426  0.039546319            7 
 3608000   0.66486112   -4.9285712    1732.8979  0.040024433  0.039536996            7 
 3609000   0.67075371   -4.9325412    1733.7172  0.040032262  0.039527682            6 
 3610000   0.67656818    -4.919997    1732.9455  0.040003359  0.039518355           10 
 3611000   0.67003113   -4.9451007    1734.6883  0.040032501  0.039509077           12 
 3612000   0.67706003   -4.9451402    1730.4456  0.039923532  0.039499749            7 
 3613000    0.6714307   -4.9340988    1733.5194   0.03998338  0.039490455            5 
 3614000   0.68542085   -4.9239343    1734.6681  0.039998803  0.039481152            8 
 3615000   0.68024227   -4.9339838    1731.9757  0.039925674  0.039471835           11 
 3616000   0.66651134   -4.9338756    1733.7053  0.039954491  0.039462459           10 
 3617000   0.66696127   -4.9397756    1730.1262  0.039860984  0.039453123           16 
 3618000    0.6740744   -4.9101139    1735.4767  0.039973205   0.03944382           13 
 3619000   0.66407046   -4.9294524    1735.1669  0.039955028  0.039434543            5 
 3620000   0.68063901   -4.9249307       1735.2  0.039944751  0.039425265            6 
 3621000   0.67767144   -4.9248898    1734.1551  0.039909672  0.039415987           20 
 3622000   0.67405661   -4.9288804    1737.6636  0.039979376  0.039406668            5 
 3623000   0.67453368   -4.9205991    1734.8991  0.039904753  0.039397424            5 
 3624000   0.66665126   -4.9399658    1741.0227  0.040034555  0.039388194            8 
 3625000   0.66252238   -4.9064651     1736.412  0.039917518  0.039378938            8 
 3626000   0.66038111   -4.9602889    1734.9219  0.039872264  0.039369692           11 
 3627000   0.67803917    -4.944377    1733.6964  0.039833112  0.039360416            6 
 3628000    0.6546617    -4.943851    1732.0836  0.039785089  0.039351105           13 
 3629000   0.66566692   -4.9331359    1734.6214    0.0398324  0.039341767           12 
 3630000   0.67548827   -4.9405625    1737.1298  0.039879012  0.039332479            8 
 3631000   0.66944327   -4.9255948    1732.1571  0.039753904  0.039323211            9 
 3632000   0.67322914   -4.9476173    1739.2225  0.039905069  0.039313959            7 
 3633000   0.67515696   -4.9527609    1739.9047  0.039909732   0.03930467           12 
 3634000   0.66144095   -4.9837503    1734.7335  0.039780166  0.039295327            5 
 3635000   0.67378844   -4.9423887    1733.0619    0.0397309  0.039285982            9 
 3636000   0.66425819   -4.9272171    1741.4528  0.039912284  0.039276767            7 
 3637000    0.6643039   -4.9341527    1738.4957  0.039833555  0.039267591            4 
 3638000    0.6732687   -4.9122061    1735.1122  0.039745101   0.03925839            5 
 3639000   0.66942956   -4.9609557    1739.0001  0.039823214  0.039249247            9 
 3640000   0.67197395   -4.9220176    1738.4274  0.039799162  0.039240025            5 
 3641000   0.65991021   -4.9553642     1735.797  0.039728027  0.039230827            8 
 3642000   0.67055431   -4.9576062     1737.654  0.039759609  0.039221515           10 
 3643000   0.67697938   -4.9323435    1737.9556  0.039755595  0.039212299           15 
 3644000   0.66515546   -4.9295912    1733.7084  0.039647558   0.03920312            9 
 3645000   0.66462716   -4.9445014    1736.9815  0.039711512  0.039193935            5 
 3646000   0.65559197   -4.9303033    1740.1644  0.039773368  0.039184723            6 
 3647000   0.66639657   -4.9375095    1735.3143  0.039651639  0.039175494           10 
 3648000   0.66921995   -4.9492731    1734.6221  0.039624956  0.039166157            9 
 3649000    0.6629402   -4.9336735    1732.4556   0.03956462  0.039156829           16 
 3650000   0.67584737   -4.9367937    1739.2804  0.039709599  0.039147543           13 
 3651000    0.6675122   -4.9330135    1734.7906  0.039596242    0.0391383            8 
 3652000   0.65913061   -4.9454807    1736.4371  0.039622971  0.039129083           12 
 3653000   0.66944397   -4.9305734    1738.9389  0.039669196  0.039119838            6 
 3654000   0.67540918   -4.9507993     1734.713  0.039561964  0.039110553           14 
 3655000   0.66437811   -4.9321573    1738.0062  0.039626224  0.039101309            4 
 3656000    0.6470375   -4.9439181    1740.0521   0.03966202   0.03909202            9 
 3657000   0.65300416   -4.9289951      1737.41  0.039590967  0.039082807            4 
 3658000   0.65587365    -4.952908    1734.3196  0.039509742  0.039073547            7 
 3659000   0.65914634   -4.9582826    1735.0595  0.039515794  0.039064255            9 
 3660000   0.66309445    -4.971214    1734.5361  0.039493081  0.039054945            9 
 3661000   0.66363532   -4.9475228    1734.7666  0.039487539  0.039045719            5 
 3662000   0.65224447   -4.9548365    1741.1556  0.039622146  0.039036421            9 
 3663000   0.66995523   -4.9625102    1738.1354  0.039542621  0.039027109           11 
 3664000   0.66739662   -4.9364535    1740.3477  0.039582143  0.039017845            8 
 3665000   0.67525679   -4.9343941    1743.1112  0.039634179  0.039008556           15 
 3666000   0.66621661   -4.9490265    1737.8713  0.039504258  0.038999262            4 
 3667000   0.66516011   -4.9601736    1735.3358  0.039435865  0.038990007           34 
 3668000   0.67227856   -4.9528549    1738.0951  0.039487802  0.038980769           10 
 3669000   0.67291397   -4.9512361    1742.8274  0.039584525  0.038971565            3 
 3670000   0.64635854   -4.9727288    1735.1816  0.039400126  0.038962266           13 
 3671000   0.65655315   -4.9690727    1739.6359  0.039490509  0.038952945           10 
 3672000   0.66811073   -4.9553506    1737.1214   0.03942269  0.038943679           32 
 3673000    0.6501474   -4.9642479    1737.7056  0.039425211  0.038934357            6 
 3674000   0.65157692   -4.9528132    1734.5636  0.039343213   0.03892502           11 
 3675000   0.66876794   -4.9446154    1737.9683  0.039409711   0.03891573           30 
 3676000    0.6609418   -4.9393605    1739.2946  0.039429059  0.038906465           14 
 3677000    0.6709158   -4.9552048    1737.0334  0.039367088  0.038897154            9 
 3678000   0.64927779   -4.9555493    1736.6818  0.039348418  0.038887829            6 
 3679000   0.65912037   -4.9426916    1737.1485  0.039348294  0.038878533            4 
 3680000   0.65339018     -4.94117    1739.8126  0.039397929  0.038869242            8 
 3681000   0.65639106   -4.9389223    1740.2013  0.039396027  0.038859958            7 
 3682000   0.65504138   -4.9340602    1737.8443  0.039331982  0.038850694           11 
 3683000   0.65957898   -4.9571672    1738.2982  0.039331574  0.038841469            4 
 3684000   0.67330818   -4.9263614    1740.5647  0.039372166  0.038832181           11 
 3685000   0.64334879     -4.95137    1742.2262  0.039399056   0.03882291           13 
 3686000   0.66398675   -4.9678807    1737.9798  0.039292362  0.038813615            9 
 3687000   0.66012659   -4.9286642    1740.7722   0.03934482  0.038804291            7 
 3688000   0.65467667    -4.948835    1740.8317  0.039335496  0.038795011            7 
 3689000   0.67832814   -4.9460649    1741.2378  0.039334008  0.038785729           10 
 3690000    0.6575838   -4.9572658     1740.165  0.039299119  0.038776523           11 
 3691000   0.65417782   -4.9504077     1740.236  0.039290076  0.038767268            6 
 3692000   0.66476418   -4.9481714    1740.3086  0.039281072   0.03875804           10 
 3693000    0.6648635   -4.9607472    1740.8509  0.039282671  0.038748808            8 
 3694000   0.64743153   -4.9508972    1742.3724  0.039306361  0.038739622           15 
 3695000   0.65334163   -4.9721186    1738.1667  0.039200872  0.038730404            8 
 3696000   0.66623117   -4.9705419    1735.8403  0.039137812  0.038721165           12 
 3697000   0.66394785   -4.9572469    1738.9683  0.039197734  0.038711934           12 
 3698000   0.65179736    -4.973412    1741.5875  0.039246158  0.038702749            8 
 3699000   0.66292427   -4.9679065    1743.4219  0.039276874  0.038693555            5 
 3700000   0.65079051   -4.9559514    1741.9768  0.039233713  0.038684325            6 
 3701000    0.6638956   -4.9474469    1744.4488  0.039278771   0.03867509           16 
 3702000   0.66504106   -4.9672759    1741.8522  0.039209711  0.038665911            5 
 3703000   0.66742099   -4.9488132    1740.6988  0.039173167  0.038656708           11 
 3704000   0.67011288   -4.9423001    1744.7082  0.039252795  0.038647463           12 
 3705000   0.65310608   -4.9533822    1741.9729  0.039180677  0.038638187            7 
 3706000   0.66319468   -4.9847328    1741.4998  0.039159467  0.038628981            9 
 3707000   0.66256864   -4.9578903    1741.2867  0.039144112  0.038619756            7 
 3708000   0.66913787   -4.9645878    1742.0471  0.039150645  0.038610613            6 
 3709000   0.67196219   -4.9518982    1740.0668  0.039095597  0.038601459           10 
 3710000   0.65489509   -4.9680083    1743.5607  0.039163538  0.038592305            9 
 3711000    0.6726586   -4.9517762    1743.7503  0.039157242  0.038583116            9 
 3712000   0.65436765   -4.9500431    1747.2153  0.039224481  0.038573983            9 
 3713000    0.6700196   -4.9460536    1743.6732   0.03913442  0.038564826           16 
 3714000   0.66580878   -4.9329181    1742.6432  0.039100772  0.038555689            5 
 3715000   0.65182829   -4.9466373    1743.4269  0.039107826   0.03854649            8 
 3716000   0.65842069   -4.9615899    1740.0212  0.039020928  0.038537337            7 
 3717000   0.66630477   -4.9504437    1742.3244  0.039062066  0.038528164            7 
 3718000   0.64282156   -4.9646281    1745.1992  0.039115994  0.038519025            9 
 3719000   0.65851058   -4.9601702    1745.6747  0.039116131  0.038509875            6 
 3720000   0.64343436   -4.9617444    1738.6247  0.038947685  0.038500724           10 
 3721000   0.65625442   -4.9847428    1741.1338  0.038993412  0.038491497            5 
 3722000   0.66530439     -5.00673    1736.7468  0.038884713  0.038482217           10 
 3723000   0.65573063   -4.9662992    1742.4207  0.039001269   0.03847295            6 
 3724000   0.65734674   -4.9678926     1742.182  0.038985455  0.038463681            7 
 3725000   0.66745447   -4.9835911    1740.4422  0.038936068  0.038454422           12 
 3726000    0.6610698   -4.9536874    1741.6612   0.03895288  0.038445115            8 
 3727000   0.64770207   -4.9723919    1743.5612  0.038984912  0.038435886           18 
 3728000   0.65852068   -4.9510121     1741.227  0.038922276  0.038426639           15 
 3729000   0.64869618   -5.0078062    1736.5953  0.038808333  0.038417382           10 
 3730000   0.64853448   -4.9660884    1742.1314  0.038921613  0.038408109           10 
 3731000   0.65323463   -4.9405958    1749.7302  0.039080903  0.038398934           12 
 3732000   0.65089225   -4.9690973    1743.3476  0.038927911  0.038389738           12 
 3733000   0.66519629   -4.9736321    1744.9212  0.038952613  0.038380511           10 
 3734000   0.65237963   -4.9706789    1741.7933  0.038872373  0.038371275            9 
 3735000   0.65084004   -4.9933401    1744.6325  0.038925313  0.038362052           11 
 3736000   0.65888302   -4.9968965      1742.41  0.038865319  0.038352774           22 
 3737000   0.65602983   -4.9635484    1742.3417  0.038853396  0.038343518           11 
 3738000   0.66588469   -4.9747994    1746.1253  0.038927353  0.038334281            4 
 3739000    0.6471336   -4.9897262    1742.1641  0.038828656  0.038325079            6 
 3740000   0.63496182   -5.0027709    1742.0098  0.038814835  0.038315886           13 
 3741000    0.6389564   -4.9768952    1741.6598  0.038796663  0.038306682           14 
 3742000   0.65121004   -4.9737412    1741.3921  0.038780334  0.038297466            9 
 3743000   0.65893644    -4.996172    1745.7107  0.038866122    0.0382883           10 
 3744000   0.64533945   -4.9664149    1749.4659  0.038939324  0.038279127            8 
 3745000   0.65052088   -4.9832232    1742.1885  0.038766989  0.038269938           10 
 3746000    0.6721702    -4.955133    1746.8932    0.0388613   0.03826077            9 
 3747000   0.64987369   -4.9897294    1742.0048  0.038742211  0.038251564            8 
 3748000   0.63744891   -4.9599005    1745.4037  0.038807447  0.038242372            9 
 3749000   0.66318258   -4.9639285    1741.9364  0.038720024  0.038233214            5 
 3750000   0.66016398   -5.0089635    1744.8311  0.038774025  0.038224103           12 
 3751000    0.6621108   -4.9719138    1750.1796  0.038882511  0.038214952           11 
 3752000   0.63533349   -4.9630174    1747.3758  0.038809874  0.038205805            9 
 3753000   0.64126875   -4.9626469     1748.241  0.038818744  0.038196697            8 
 3754000   0.66719114   -4.9677695    1749.0824  0.038827082  0.038187606           14 
 3755000   0.65243315   -4.9934053     1746.368  0.038756502  0.038178433            9 
 3756000   0.65700395   -4.9663308    1743.3697  0.038679661  0.038169262            4 
 3757000    0.6408365   -4.9958108    1744.7551  0.038700095  0.038160122           17 
 3758000   0.65139497   -4.9874215    1746.0573  0.038718674  0.038150965            4 
 3759000   0.64669899   -4.9668517    1748.4444  0.038761292  0.038141792            4 
 3760000    0.6347891     -4.98269    1745.2142  0.038679393  0.038132614            6 
 3761000   0.65474403   -4.9603974    1749.1578  0.038756487  0.038123453           10 
 3762000   0.63406809   -4.9804263    1746.4162  0.038685455  0.038114297           10 
 3763000   0.65394795   -4.9686323    1749.2429  0.038737775  0.038105149            8 
 3764000   0.65274363   -4.9585197    1744.4696  0.038621802  0.038096064            6 
 3765000   0.64132974    -4.973495    1745.9176  0.038643595  0.038086918           17 
 3766000   0.65336591   -4.9709126    1745.4981   0.03862405  0.038077799            7 
 3767000   0.64832771   -4.9613518    1747.2995  0.038653648  0.038068657           11 
 3768000   0.66366196   -4.9759368    1744.6568  0.038584944  0.038059503            6 
 3769000   0.65308999   -5.0021298    1747.6465  0.038640809   0.03805039            5 
 3770000   0.65314026   -4.9719483    1743.4622  0.038538068  0.038041257           10 
 3771000   0.63925673   -5.0018492    1742.9465  0.038516452  0.038032124            8 
 3772000   0.64885495   -4.9748809    1745.8428  0.038570228   0.03802299           10 
 3773000   0.65737083   -4.9748936    1749.3783  0.038638093  0.038013902            5 
 3774000    0.6580751   -4.9805534    1750.2021  0.038646046  0.038004775            8 
 3775000   0.64073634   -4.9800273    1748.6817  0.038602246  0.037995622            4 
 3776000   0.65171846   -4.9962258    1750.0546   0.03862232  0.037986459            6 
 3777000   0.64484091   -4.9973467    1748.5423  0.038578729  0.037977327            7 
 3778000   0.64907003   -4.9795398    1750.4078  0.038609667  0.037968237           15 
 3779000   0.65371494   -4.9903292    1747.8526  0.038543102  0.037959096           13 
 3780000   0.65684873   -4.9889531    1751.7077  0.038617895  0.037950022            8 
 3781000   0.66062028   -4.9806311    1750.2707   0.03857601  0.037940959            8 
 3782000   0.64155009    -4.978716    1748.8194  0.038533832   0.03793194           16 
 3783000   0.66005715   -5.0083493    1748.9544  0.038526618  0.037922813           12 
 3784000   0.65136442   -4.9891078    1747.6674  0.038488096  0.037913761            5 
 3785000   0.65687792   -4.9705758    1754.2499  0.038622851  0.037904734            9 
 3786000   0.64579812   -4.9903144    1751.3354  0.038548498  0.037895694           12 
 3787000   0.64175053   -4.9808777     1747.001   0.03844294  0.037886654           14 
 3788000   0.64315919    -4.977478    1750.0537   0.03849995  0.037877605           10 
 3789000    0.6477201   -4.9825899    1752.4195  0.038541821  0.037868591            8 
 3790000   0.65367683    -4.974107    1750.5562  0.038490682  0.037859528           11 
 3791000   0.65568137   -4.9684828    1752.4748  0.038522702  0.037850504            5 
 3792000   0.63911654   -4.9971904    1746.0122  0.038370521  0.037841431            5 
 3793000   0.66383451   -4.9790867    1750.4612  0.038458152  0.037832378           19 
 3794000   0.64668999   -4.9715745    1750.0107   0.03843812  0.037823358           10 
 3795000   0.64058461   -5.0082012    1748.1747  0.038387674   0.03781436           10 
 3796000   0.65046365   -4.9932209    1749.3899  0.038404238  0.037805302            7 
 3797000   0.64246122   -4.9766729    1753.5602  0.038485651  0.037796264           12 
 3798000   0.65116301   -5.0024215    1748.8123  0.038371343  0.037787161           10 
 3799000   0.65123043   -4.9853969    1750.5321  0.038398966  0.037778054           15 
 3800000   0.63005664    -4.988145    1748.0437  0.038334291  0.037768976           17 
 3801000   0.63865647   -4.9850074    1750.5181  0.038378455  0.037759947            7 
 3802000   0.63955743   -4.9939993    1750.8373  0.038375358  0.037750883            7 
 3803000   0.62377134   -4.9774737    1750.0915  0.038348924   0.03774185           11 
 3804000   0.65453887   -4.9977736    1749.1017  0.038317159  0.037732827            7 
 3805000   0.63024278   -4.9886856    1754.8369  0.038432697  0.037723797            4 
 3806000   0.64217886   -5.0076095     1747.325  0.038258122  0.037714754            7 
 3807000   0.63730101   -4.9802553    1749.3038  0.038291388  0.037705672           20 
 3808000    0.6628389    -4.982413    1752.6938  0.038355519  0.037696623            7 
 3809000   0.63333587   -4.9691866    1752.8076   0.03834794  0.037687638            9 
 3810000   0.65264122   -4.9875136    1752.0271  0.038320804  0.037678571            6 
 3811000   0.63625282   -5.0037221    1751.8893  0.038307734  0.037669501           13 
 3812000   0.65199545   -5.0133628    1753.1139  0.038324455  0.037660501            6 
 3813000   0.63294861   -5.0351528     1755.673  0.038370334  0.037651443           11 
 3814000   0.64305308   -5.0042623    1751.8239  0.038276173  0.037642455           11 
 3815000   0.64587519   -5.0090804    1751.3049  0.038254804  0.037633457            7 
 3816000   0.65287816   -4.9986384    1753.2401  0.038287039  0.037624481            7 
 3817000   0.63204379   -4.9939161    1753.0569  0.038273009  0.037615452           10 
 3818000   0.63563169   -5.0079336    1755.1317   0.03830827  0.037606436           10 
 3819000   0.65074575   -4.9972291    1748.3824  0.038150965  0.037597395           13 
 3820000   0.64511557   -4.9843202    1757.7847  0.038346088  0.037588368           12 
 3821000   0.63909984   -5.0024369    1751.3016   0.03819466  0.037579422            7 
 3822000   0.63296731   -4.9885224    1757.2963  0.038315374  0.037570469            9 
 3823000   0.63857457    -4.988656    1753.6859  0.038226652  0.037561508           10 
 3824000   0.66263754   -5.0228486    1753.0209  0.038202165  0.037552548           10 
 3825000   0.64444459   -4.9903047    1756.2614  0.038262776  0.037543538           17 
 3826000   0.65127446   -5.0238968    1753.6553  0.038196011  0.037534548           18 
 3827000   0.64983463   -5.0097912    1753.7573  0.038188253  0.037525557           11 
 3828000   0.63630042   -4.9862588    1755.6316  0.038219079  0.037516589            4 
 3829000   0.63437854    -5.024765    1752.2847  0.038136255  0.037507582            4 
 3830000   0.66345779   -5.0170469    1753.9327  0.038162157  0.037498645           11 
 3831000   0.63055127    -5.002884    1757.0724   0.03822049  0.037489696            5 
 3832000   0.63188669   -5.0052693    1753.0979  0.038124085   0.03748078            9 
 3833000   0.62875395   -5.0023299     1758.965  0.038241694  0.037471829           12 
 3834000   0.65913097   -5.0325824    1753.1075  0.038104406  0.037462866           13 
 3835000   0.63715829   -5.0172518    1754.1252  0.038116584  0.037453887           11 
 3836000   0.64452793   -5.0135197    1750.9409  0.038037471  0.037444915           10 
 3837000   0.64077439   -5.0198557    1757.8324   0.03817723  0.037435958            7 
 3838000   0.63237649   -4.9940212    1752.2917   0.03804698  0.037427075           11 
 3839000   0.64980854   -5.0087249    1756.3693  0.038125583  0.037418218           14 
 3840000   0.64104819   -4.9918538    1760.7864  0.038211511   0.03740931           27 
 3841000   0.64115127   -4.9994033    1756.3184  0.038104625  0.037400386           11 
 3842000   0.63506023   -4.9989592    1757.4806  0.038119916  0.037391479           10 
 3843000   0.63369451   -5.0096639    1757.5036  0.038110495  0.037382523           19 
 3844000    0.6378308   -5.0222242    1752.2425  0.037986526  0.037373546            9 
 3845000    0.6447739   -5.0282662     1755.467  0.038046533  0.037364586           10 
 3846000   0.63329158   -4.9960053    1756.6272  0.038061778  0.037355613           23 
 3847000    0.6353235      -5.0155    1759.9231  0.038123279   0.03734669            8 
 3848000   0.64335205   -4.9986114    1755.8811  0.038025838  0.037337824           16 
 3849000   0.63466848   -4.9902572    1758.2977   0.03806828  0.037328969           11 
 3850000   0.63602435   -5.0064367    1758.0912  0.038053922   0.03732004            9 
 3851000   0.61913418   -5.0178396    1757.4338  0.038029814  0.037311096           10 
 3852000   0.62847742   -5.0102305    1757.3038  0.038017129  0.037302107            8 
 3853000   0.62278494   -5.0066241    1756.4076  0.037987879  0.037293104            9 
 3854000   0.62944801   -4.9958226    1757.9957  0.038012362  0.037284136           10 
 3855000   0.63450811   -5.0221945     1756.158  0.037962775  0.037275179            9 
 3856000   0.62545844   -5.0278987    1755.3578  0.037935638  0.037266164            7 
 3857000   0.62333094   -5.0255195    1749.7802  0.037805294   0.03725715            9 
 3858000   0.62774237   -5.0037333    1755.7304  0.037924019  0.037248122           15 
 3859000   0.63141648   -5.0089577    1756.7964  0.037937212  0.037239144           13 
 3860000   0.63475671   -5.0307159    1752.4827  0.037834254  0.037230138           21 
 3861000   0.62175187   -5.0388553    1756.4436  0.037909947  0.037221108           17 
 3862000   0.62647185   -5.0167059    1752.5274  0.037815626  0.037212087           17 
 3863000   0.64107382   -5.0111044    1752.5434  0.037806184  0.037203079            5 
 3864000   0.63295222   -5.0026052    1756.8924  0.037890192  0.037194081           15 
 3865000   0.63676263   -5.0401388    1753.6179  0.037809786  0.037185097            9 
 3866000   0.62696112   -4.9982122    1753.9897  0.037808021  0.037176159           13 
 3867000   0.61660124   -5.0268678    1753.8731  0.037795731  0.037167187           11 
 3868000   0.62916739   -5.0134648    1757.3769  0.037861446  0.037158211            9 
 3869000    0.6366067   -5.0222374    1757.5975  0.037856411  0.037149221           11 
 3870000   0.63900132   -5.0129538    1756.6713  0.037826687  0.037140251           13 
 3871000   0.62695631   -5.0469685     1754.485  0.037769848  0.037131243            9 
 3872000   0.63118272   -5.0143988    1759.7842  0.037874142  0.037122259            6 
 3873000   0.62379122   -5.0261759    1756.4436  0.037792485  0.037113294            6 
 3874000   0.62414161   -5.0239857    1761.8396  0.037898803  0.037104321            6 
 3875000    0.6390716   -5.0153622    1761.1625  0.037874463  0.037095385           18 
 3876000   0.64931151   -5.0021366     1756.401  0.037762319  0.037086484            7 
 3877000   0.62357989   -5.0254644    1761.1621  0.037854915  0.037077578           18 
 3878000   0.62017851   -5.0208209    1756.4725   0.03774438  0.037068591           16 
 3879000   0.61922193   -5.0157441    1753.1937  0.037664211  0.037059637           11 
 3880000    0.6341086   -5.0359152    1757.2561  0.037741755  0.037050729            8 
 3881000   0.62700765   -5.0047762    1758.7713  0.037764564   0.03704181           24 
 3882000   0.64413857   -4.9997608    1761.2615  0.037808292  0.037032881           11 
 3883000   0.63337609   -5.0011139    1754.6365  0.037656375  0.037023925           10 
 3884000   0.61942054   -5.0111155    1756.9005  0.037695257  0.037015019            8 
 3885000   0.63304523   -5.0051671    1759.0884  0.037732485  0.037006072            8 
 3886000   0.61651467   -5.0241366    1751.5871  0.037561913  0.036997125            8 
 3887000   0.63050907   -4.9898956    1764.6907  0.037833178  0.036988217            9 
 3888000   0.62989384    -5.020882    1761.8809  0.037763222  0.036979368            9 
 3889000   0.63000985   -5.0374968    1753.7455  0.037579187  0.036970394           12 
 3890000   0.64358236   -5.0224727    1756.6779  0.037632346  0.036961426            8 
 3891000   0.64098592   -5.0244372    1757.1795  0.037633417  0.036952467            8 
 3892000   0.63030634   -5.0206261    1757.7288  0.037635508  0.036943523           10 
 3893000    0.6285357   -5.0213993    1753.8472  0.037542752  0.036934566            8 
 3894000   0.61266818   -5.0244857    1758.8073  0.037639258  0.036925648           12 
 3895000   0.63119943   -5.0212132    1757.6011   0.03760379  0.036916734            8 
 3896000   0.61860448   -5.0351712    1758.9805  0.037623642  0.036907809           15 
 3897000   0.63762949   -5.0286583    1754.8228  0.037525079  0.036898853            9 
 3898000   0.63302004   -5.0234539    1760.6154   0.03763929  0.036889899            8 
 3899000   0.62598661   -5.0360278    1762.4262  0.037668338  0.036880966           18 
 3900000   0.63145701   -5.0312356    1757.6459  0.037556535  0.036872052           18 
 3901000   0.62966952   -5.0287871    1759.9412  0.037595941  0.036863178           11 
 3902000   0.63692191   -5.0174979    1757.3969  0.037531969  0.036854274           13 
 3903000   0.63209032   -5.0445233    1757.2893  0.037520056  0.036845328           14 
 3904000   0.62459329   -5.0529923    1756.7899  0.037499784  0.036836467            8 
 3905000   0.63251547   -5.0452422    1761.1536  0.037583304   0.03682758            6 
 3906000   0.62223896   -5.0612295    1759.6949   0.03754256   0.03681866           11 
 3907000   0.63588141    -5.020651    1759.8426  0.037536101   0.03680976           10 
 3908000   0.62663335   -5.0508021    1759.6342  0.037522053  0.036800854            9 
 3909000   0.61284282   -5.0251921    1761.0445   0.03754252  0.036791932           21 
 3910000   0.62600749   -5.0316754    1759.1567  0.037492683   0.03678307           13 
 3911000   0.62119155   -5.0442969    1759.8496  0.037497861  0.036774214            6 
 3912000   0.62809174   -5.0435828    1754.9334  0.037383551  0.036765316            8 
 3913000   0.62287416   -5.0196001    1762.6165  0.037537621  0.036756442           16 
 3914000   0.62948553   -5.0505554    1755.5385  0.037377331  0.036747584            5 
 3915000   0.62499912   -5.0407585     1755.291  0.037362517  0.036738728            8 
 3916000   0.61153962   -5.0401048    1763.6928  0.037531767  0.036729873           20 
 3917000   0.62421815   -5.0494068    1757.6494  0.037393614  0.036720994            5 
 3918000    0.6236306   -5.0611977    1757.4199  0.037379188  0.036712054           23 
 3919000   0.61032456   -5.0312437    1759.9407  0.037423252  0.036703185           17 
 3920000   0.61815251   -5.0249079    1761.3303  0.037443247  0.036694334            9 
 3921000   0.61879633   -5.0308781    1762.3452  0.037455267  0.036685514           25 
 3922000    0.6320966   -5.0615158    1762.9512  0.037458593  0.036676701            7 
 3923000   0.62655894     -5.05727    1759.8631  0.037383447  0.036667887           12 
 3924000   0.62237078   -5.0321653    1760.0201  0.037377253  0.036659062           10 
 3925000   0.61491631   -5.0214396    1764.7083  0.037467268  0.036650284           13 
 3926000   0.63064756   -5.0347637    1761.4558  0.037388686   0.03664149           13 
 3927000   0.61278744   -5.0276934    1763.9813  0.037432759  0.036632693           11 
 3928000   0.62271265   -5.0152562    1763.5129  0.037413291  0.036623945           22 
 3929000   0.63011032   -5.0346151    1760.3088   0.03733581   0.03661523            7 
 3930000   0.63367488   -5.0301806    1770.9402  0.037551744  0.036606494           27 
 3931000   0.62349988   -5.0124104    1761.8246  0.037348949  0.036597746            7 
 3932000   0.61464093   -5.0456415    1765.7591  0.037422837  0.036588977           10 
 3933000   0.62728941   -5.0314086    1760.5241  0.037302401   0.03658022            9 
 3934000   0.61693181   -5.0402537     1760.786  0.037298466  0.036571507            7 
 3935000   0.61696138   -5.0335197    1765.8843  0.037396957  0.036562761            9 
 3936000    0.6334808    -5.009353    1768.3117  0.037438849  0.036554056            7 
 3937000   0.62774178   -5.0425788    1766.8977  0.037399409  0.036545283           13 
 3938000   0.62364669   -5.0400077    1763.8892  0.037326248  0.036536508           18 
 3939000   0.62468447   -5.0315026    1759.8359  0.037231022  0.036527762           13 
 3940000   0.61479561   -5.0295598    1766.1238  0.037354565  0.036519001           32 
 3941000   0.61892764   -5.0307305    1763.6688  0.037293174  0.036510275           11 
 3942000   0.62869009   -5.0372252    1765.2714  0.037317592  0.036501522           11 
 3943000    0.6104218   -5.0336794    1764.9467  0.037301267  0.036492786           15 
 3944000   0.61158888   -5.0456369    1764.6505   0.03728555  0.036484063            9 
 3945000    0.6308632    -5.033015    1762.2153  0.037224657  0.036475318            9 
 3946000   0.62713139   -5.0476935    1765.1181  0.037276528  0.036466601            9 
 3947000   0.62196528   -5.0449897    1767.8798  0.037325391  0.036457908            6 
 3948000   0.62446176   -5.0396762    1763.9014  0.037231961  0.036449149            9 
 3949000   0.61379045   -5.0354114    1763.3475  0.037210844  0.036440435           18 
 3950000     0.613266   -5.0656684    1765.9134  0.037255557  0.036431688           11 
 3951000   0.62274423    -5.048894    1770.5098  0.037343074  0.036422927            6 
 3952000   0.61665577   -5.0219565    1764.0529  0.037197472  0.036414226           10 
 3953000   0.61961683   -5.0303018    1770.1554  0.037316709  0.036405537           14 
 3954000   0.63483006   -5.0493307     1762.538  0.037146729  0.036396821           18 
 3955000   0.62167988   -5.0446963    1765.9277  0.037208758  0.036388103            6 
 3956000   0.62735735   -5.0480494    1768.4822  0.037253164  0.036379396            7 
 3957000   0.62618118   -5.0459789    1768.6151  0.037246548  0.036370656            7 
 3958000   0.61245138   -5.0401615     1770.599  0.037278908  0.036361927            7 
 3959000   0.61384783   -5.0274602    1767.7067  0.037208611  0.036353263            9 
 3960000   0.62200311   -5.0510589    1766.7881  0.037179884  0.036344555           14 
 3961000   0.62205216   -5.0706291     1764.656  0.037125642  0.036335812           31 
 3962000   0.62035644   -5.0489157    1763.8624   0.03709958  0.036327146           11 
 3963000   0.61449125   -5.0617082    1762.8455  0.037068835  0.036318467            9 
 3964000   0.61281873   -5.0414589    1767.4797  0.037156905  0.036309767            7 
 3965000   0.61433777   -5.0499905    1763.8904  0.037072097  0.036301016           45 
 3966000   0.62374134    -5.070467    1764.6244  0.037078174  0.036292226           25 
 3967000   0.61320197   -5.0632494    1767.9067  0.037137776  0.036283449           14 
 3968000   0.62074555   -5.0644199    1767.0988   0.03711145  0.036274698           12 
 3969000   0.61291651   -5.0682533     1763.339  0.037023158   0.03626595            7 
 3970000   0.61254069   -5.0351645    1767.1302  0.037093413  0.036257182           11 
 3971000   0.62381005   -5.0629376    1764.5023  0.037028925  0.036248453            6 
 3972000   0.60833032   -5.0620583    1767.0827  0.037073739  0.036239722            6 
 3973000   0.61755652   -5.0569449    1761.0575  0.036938029  0.036230967           19 
 3974000   0.61480528   -5.0368915    1766.2607  0.037037843  0.036222211           14 
 3975000   0.61689203   -5.0458607    1767.9702  0.037064365  0.036213494           12 
 3976000   0.62425476   -5.0654388    1765.2432  0.036997887  0.036204734           16 
 3977000   0.61774225   -5.0446109    1765.6899  0.036997944  0.036196002           17 
 3978000   0.63368235   -5.0755918    1766.5854  0.037007404  0.036187273            9 
 3979000    0.6107537   -5.0559078     1766.098  0.036987895  0.036178568           10 
 3980000   0.62423211   -5.0344652    1764.4163  0.036943391  0.036169878           46 
 3981000   0.61332442   -5.0578397    1768.4132  0.037017776  0.036161163           22 
 3982000   0.62083793   -5.0422174    1765.6667  0.036951003  0.036152468            5 
 3983000   0.61932859   -5.0315601    1769.3301  0.037018371   0.03614384           17 
 3984000   0.61589642   -5.0531978    1768.0384  0.036982062  0.036135177            9 
 3985000   0.60000719   -5.0498564    1765.9953  0.036930056  0.036126518            6 
 3986000   0.61069413   -5.0510668    1766.2426  0.036925962  0.036117804           14 
 3987000   0.60857298   -5.0496388    1767.8039  0.036949334  0.036109094           24 
 3988000   0.61469104   -5.0576146    1766.3515  0.036909719  0.036100318           19 
 3989000    0.6248831    -5.065381    1765.6773  0.036886382  0.036091592            9 
 3990000   0.61383282   -5.0718673    1763.3388  0.036828295  0.036082924           12 
 3991000   0.61523987   -5.0515806    1773.2978  0.037027015  0.036074236           13 
 3992000    0.6096109   -5.0494321    1770.8882  0.036967439  0.036065561            9 
 3993000   0.60179534   -5.0583174    1764.7058  0.036829156  0.036056822           11 
 3994000   0.61725495   -5.0591926    1765.0021  0.036826116   0.03604811            7 
 3995000   0.62149954   -5.0755933    1763.6727  0.036789168  0.036039348           15 
 3996000   0.62362234   -5.0883044     1763.316  0.036772522   0.03603061            8 
 3997000   0.60771724   -5.0965463    1763.6176  0.036769611  0.036021807           12 
 3998000   0.60780684   -5.0816198    1766.2404  0.036815083  0.036013031            8 
 3999000   0.60986171   -5.0530698    1764.4212  0.036767967   0.03600432           12 
 4000000   0.61600754   -5.0721337    1763.0015  0.036729198   0.03599554           31 
 4001000   0.59822471   -5.0683625     1764.743  0.036756289  0.035986787           21 
 4002000   0.60833341   -5.0898745    1766.1892   0.03677722  0.035978041           13 
 4003000   0.60503701    -5.051528      1763.48  0.036711633  0.035969327            9 
 4004000   0.60854516   -5.0655319    1764.3631  0.036720843  0.035960589           13 
 4005000   0.60764137   -5.0671288     1766.451  0.036755119  0.035951898            9 
 4006000   0.61630221   -5.0666559    1772.7062  0.036876066  0.035943195            8 
 4007000   0.60950162   -5.0679062    1766.3815  0.036735327  0.035934506           18 
 4008000   0.61073135   -5.0792191    1763.9706  0.036676035  0.035925822           10 
 4009000   0.60864161   -5.0690277    1765.3167  0.036694868  0.035917076           14 
 4010000    0.6130051   -5.0472765    1769.1586  0.036765558  0.035908379           19 
 4011000   0.61049263   -5.0697035    1768.8098  0.036749143  0.035899728            9 
 4012000   0.61479184   -5.0670211    1767.6637  0.036716178     0.035891           14 
 4013000   0.61104748   -5.0668548     1762.536  0.036600549  0.035882286           10 
 4014000   0.59736468   -5.0769634    1769.2593   0.03673101  0.035873605            3 
 4015000   0.59357069   -5.0668398    1771.2573  0.036763331  0.035864897            5 
 4016000   0.59738096   -5.1005277    1764.2191  0.036608133  0.035856188            7 
 4017000   0.61954547   -5.0741759    1765.6779  0.036629282   0.03584744           11 
 4018000   0.60719457   -5.0601108    1766.9979  0.036647543  0.035838703           10 
 4019000    0.6089032   -5.0674442    1769.4266  0.036688783  0.035830017           12 
 4020000   0.61194667    -5.057217    1765.7758  0.036603976  0.035821266           13 
 4021000   0.60308133   -5.0838561    1768.1278  0.036643616  0.035812536            7 
 4022000   0.60838414   -5.0731443    1769.6646  0.036666348  0.035803799           23 
 4023000   0.59987109   -5.0519636     1766.856  0.036599055  0.035795089           13 
 4024000   0.60684936   -5.0693631    1764.7098  0.036545514  0.035786407            9 
 4025000   0.61014605   -5.0806389    1763.9207  0.036520097  0.035777674           11 
 4026000   0.60320761   -5.0663105    1771.2753  0.036663257  0.035768913           11 
 4027000   0.62179067   -5.0668839    1767.1468  0.036568719  0.035760169           18 
 4028000   0.61372019   -5.0641805    1769.0261   0.03659852  0.035751416           14 
 4029000   0.60775741   -5.0503257    1768.4807  0.036578157  0.035742689           16 
 4030000   0.59430404   -5.0624196    1767.7929  0.036554857  0.035733972           11 
 4031000   0.60326676   -5.0728873    1763.8085  0.036463419  0.035725217           19 
 4032000   0.60309131   -5.0625125     1769.431  0.036570581  0.035716486            6 
 4033000   0.61540033   -5.0752559    1767.5562  0.036522774  0.035707751           11 
 4034000    0.6061731   -5.0723328     1769.044  0.036544455  0.035699004           15 
 4035000   0.60163886   -5.0734927    1770.6027  0.036567589  0.035690258           10 
 4036000   0.61208424   -5.0990017    1766.4756  0.036473315   0.03568155            7 
 4037000   0.60569802   -5.0547737    1767.2733  0.036480746  0.035672828           10 
 4038000   0.60691854   -5.0720907    1771.1733  0.036552198  0.035664108           12 
 4039000   0.60780239   -5.0712853    1770.0022  0.036518986  0.035655418           14 
 4040000   0.60741893   -5.0885153     1764.073  0.036387644   0.03564672           13 
 4041000   0.60257772   -5.0803296    1767.1803  0.036442719  0.035637974           16 
 4042000    0.6108532   -5.0718026    1762.9943    0.0363474  0.035629271           14 
 4043000   0.60534611   -5.0998738    1767.0268  0.036421526  0.035620569           24 
 4044000   0.59570318   -5.0835658    1763.0238  0.036330033  0.035611813            7 
 4045000   0.60262911   -5.0810929    1764.4154  0.036349719  0.035603133           12 
 4046000   0.60146305   -5.0621736    1774.1806  0.036541864  0.035594446            6 
 4047000   0.60767489   -5.0833028    1771.2825   0.03647316  0.035585782           16 
 4048000    0.6052183   -5.1158537    1765.6898  0.036349016  0.035577097           12 
 4049000   0.60412457   -5.0941211     1767.463  0.036376533  0.035568392            7 
 4050000   0.61380936   -5.0790272    1768.4958  0.036388801   0.03555979           14 
 4051000    0.6035879    -5.090698    1766.7022  0.036342924  0.035551167           12 
 4052000   0.61112673    -5.075306    1772.0709  0.036444366   0.03554251            7 
 4053000   0.59362873    -5.068234    1770.6861  0.036406903  0.035533888           15 
 4054000    0.5974338    -5.072768     1768.703  0.036357157  0.035525243           17 
 4055000   0.59675603   -5.0791568    1772.3331  0.036422793  0.035516564           33 
 4056000   0.60935877   -5.0882222    1771.3763  0.036394155  0.035507893           14 
 4057000   0.61757068   -5.0613832    1772.2013  0.036402131  0.035499214            9 
 4058000   0.59275456   -5.0973275    1764.9816    0.0362449  0.035490548           20 
 4059000   0.61369813   -5.0852808     1769.869  0.036336311  0.035481885           10 
 4060000   0.61149304   -5.0799513    1769.8002  0.036325948  0.035473252           12 
 4061000   0.60389245   -5.0643957    1773.1331  0.036385396  0.035464634            6 
 4062000   0.59908125    -5.060139     1767.779  0.036266596  0.035455986            9 
 4063000   0.59752074   -5.0700056    1766.2863  0.036227055  0.035447329            9 
 4064000   0.60968943   -5.0619152    1773.7316  0.036370809  0.035438697            6 
 4065000    0.5966314   -5.0617735    1770.1328  0.036288085  0.035430097           15 
 4066000   0.61834651   -5.0974405    1769.1285  0.036258578  0.035421455           22 
 4067000   0.60174427   -5.1154378    1769.7797  0.036263006  0.035412798           25 
 4068000   0.59575528   -5.0895368    1771.9656   0.03629887   0.03540415           10 
 4069000   0.60343559   -5.0808799    1767.1301  0.036190917  0.035395516           13 
 4070000   0.60302871   -5.0777283    1772.9687  0.036301569  0.035386898            9 
 4071000   0.60822674   -5.0872374    1769.6134  0.036223971  0.035378286           11 
 4072000   0.59976888    -5.090503    1768.5318  0.036192939  0.035369691           20 
 4073000    0.6171853   -5.0614131    1771.9375  0.036253733  0.035361136           34 
 4074000   0.59107459   -5.0815726    1768.6372  0.036177328  0.035352506           18 
 4075000    0.5914042   -5.0880676    1773.4126  0.036266107  0.035343916           10 
 4076000   0.59980175   -5.0804613    1770.2608   0.03619277  0.035335314            9 
 4077000   0.59265516   -5.0906453    1770.7323  0.036193531  0.035326692           11 
 4078000   0.60728743   -5.0854282    1769.2138  0.036153626   0.03531808            8 
 4079000   0.59514102   -5.1011959    1774.1534  0.036245677  0.035309465            8 
 4080000    0.6056019   -5.0764281    1770.1307   0.03615463  0.035300894           14 
 4081000   0.59342024   -5.1042041    1769.3986  0.036130822  0.035292299            9 
 4082000   0.59063813     -5.10212    1769.7764  0.036129684  0.035283638            7 
 4083000   0.59911173   -5.0727523    1772.9722   0.03618606  0.035275026           14 
 4084000   0.59970535   -5.0869389    1770.9563  0.036136065  0.035266504            8 
 4085000   0.59972661   -5.0882921    1774.9012  0.036207695  0.035257934           25 
 4086000    0.5917352   -5.1080459    1769.0707  0.036079921  0.035249347           24 
 4087000   0.59110483   -5.1119795    1771.0967  0.036112403  0.035240754           16 
 4088000   0.60594711    -5.111507    1770.0299  0.036081823  0.035232114           10 
 4089000   0.58771604   -5.1158364    1773.6998   0.03614779  0.035223497           16 
 4090000   0.59288861    -5.090349    1770.8845  0.036081591   0.03521486            7 
 4091000   0.60397819   -5.1056171    1768.7262  0.036028808  0.035206244           12 
 4092000   0.59109624   -5.1166468     1771.603  0.036078588  0.035197619           13 
 4093000   0.59649113   -5.1204403    1772.6639  0.036091372  0.035188961           11 
 4094000   0.60166416      -5.0971    1769.9485  0.036027285  0.035180332           12 
 4095000   0.59062034   -5.1070827     1771.183   0.03604361  0.035171712           11 
 4096000   0.58243341   -5.0911659     1767.504   0.03595996  0.035163102           21 
 4097000   0.59903547   -5.0916951     1769.695   0.03599575  0.035154492           35 
 4098000   0.59562415   -5.0720665    1770.7348   0.03600811  0.035145925           31 
 4099000   0.60530821   -5.0897439    1769.5613  0.035975468  0.035137309           41 
 4100000    0.5939759   -5.1020446    1769.6678  0.035968859  0.035128689            9 
 4101000   0.60048539   -5.0909423    1771.8613  0.036004658  0.035120064           23 
 4102000   0.59402419   -5.0903717    1773.8956  0.036037208  0.035111411            6 
 4103000   0.59095996   -5.0849445    1773.6644  0.036023731  0.035102821            7 
 4104000   0.60199831   -5.0759545    1772.2521  0.035986275  0.035094226            7 
 4105000   0.59781131   -5.1028151    1771.8048  0.035968428   0.03508557           11 
 4106000   0.60044011   -5.1278742    1767.8837  0.035880089  0.035076925            9 
 4107000   0.58408796   -5.0982223    1771.9348   0.03595355  0.035068314           13 
 4108000   0.59786387   -5.0848506    1771.1045  0.035927956  0.035059693            7 
 4109000   0.59017709     -5.11011     1767.737  0.035850917  0.035051072           20 
 4110000   0.58639352   -5.0918335    1768.1247  0.035850055  0.035042398            9 
 4111000   0.59816591   -5.1026001    1768.1765  0.035842384  0.035033702           11 
 4112000   0.58788506   -5.1107529     1767.369  0.035817303  0.035025043           11 
 4113000    0.5892046   -5.1050924    1767.6436  0.035814159  0.035016415           15 
 4114000   0.59956196   -5.0923524    1771.9395   0.03589247  0.035007756            9 
 4115000   0.57812883   -5.1093445    1775.9055  0.035964064  0.034999158            6 
 4116000   0.60881138   -5.1022258    1777.1719  0.035980966  0.034990569            6 
 4117000   0.59668407   -5.0953794    1771.6631  0.035860721  0.034981972           14 
 4118000   0.60538069   -5.1213472    1768.8077   0.03579423  0.034973392           23 
 4119000   0.59289157   -5.0967198    1770.2799  0.035815326  0.034964785           20 
 4120000   0.59436672   -5.1075742    1770.6002  0.035813111  0.034956168           10 
 4121000    0.5893232   -5.0999875    1771.9833  0.035832388  0.034947544           11 
 4122000   0.59475119   -5.1198082    1768.7113  0.035757546  0.034938919           15 
 4123000   0.59270688   -5.1034748    1770.8208  0.035791512   0.03493033           14 
 4124000   0.59519708   -5.1041399    1770.8059   0.03578253  0.034921704           12 
 4125000   0.58434472   -5.1230797    1769.1301  0.035740002  0.034913091            6 
 4126000    0.5935093   -5.1182341    1769.4184  0.035737163  0.034904474           24 
 4127000   0.58923133   -5.1137507    1775.0797  0.035842817   0.03489587            6 
 4128000   0.60588002   -5.1013547    1770.0975  0.035733558  0.034887218            8 
 4129000   0.60187493   -5.1171792    1770.9162  0.035741426  0.034878553           19 
 4130000   0.59402962    -5.136337    1769.6785    0.0357078  0.034869884            9 
 4131000   0.59662845   -5.0876121    1773.2012  0.035770217   0.03486126           19 
 4132000   0.58554508   -5.0995885    1769.1096  0.035679042  0.034852655           13 
 4133000   0.59029783   -5.0957672    1772.4762  0.035738289  0.034844023           16 
 4134000   0.60156908   -5.1092138    1771.8898  0.035717825  0.034835422            7 
 4135000   0.60384047   -5.0981587    1773.7706  0.035747091  0.034826835           11 
 4136000   0.57243879   -5.1287377    1770.4398  0.035671337  0.034818256           13 
 4137000   0.58154713   -5.0970902    1770.6191  0.035666327  0.034809709            6 
 4138000   0.59153702   -5.1177505    1768.7448   0.03561996   0.03480114           16 
 4139000   0.59953956   -5.1130648    1767.9931  0.035596221  0.034792563           17 
 4140000   0.60067184   -5.1019575    1772.2874  0.035674062  0.034784015           27 
 4141000   0.59026205   -5.1073744    1769.9894  0.035619202  0.034775413           14 
 4142000   0.58930725   -5.1024337    1774.4332  0.035700008  0.034766825            4 
 4143000   0.58679042   -5.1230192    1771.4229  0.035630841  0.034758253           13 
 4144000   0.59086001   -5.1149465    1776.5179    0.0357247   0.03474968            9 
 4145000   0.59265485   -5.1283295    1776.1871  0.035709431  0.034741133            5 
 4146000   0.58492876   -5.1200257    1773.4298  0.035645396  0.034732571           19 
 4147000   0.58182305   -5.1135504    1770.8543  0.035585047  0.034724035           12 
 4148000   0.59021765   -5.1120681    1774.9869  0.035659492  0.034715494           14 
 4149000   0.58053012   -5.1384973    1771.0155  0.035571131  0.034706896            7 
 4150000   0.58350814    -5.104271    1775.3177   0.03564895  0.034698328           18 
 4151000   0.57772454   -5.0924116    1776.2873  0.035659827  0.034689829           23 
 4152000   0.59150555   -5.1091319     1776.689    0.0356593  0.034681344           25 
 4153000   0.59048951   -5.1170396    1769.5626  0.035507718  0.034672815           25 
 4154000   0.58493708   -5.1201633    1770.2553  0.035513066  0.034664245           25 
 4155000   0.58560782   -5.1384997    1771.4446  0.035528371  0.034655677            9 
 4156000   0.57952049   -5.1206951    1774.9812  0.035590737  0.034647117           18 
 4157000   0.59575439   -5.1094227    1772.9332   0.03554112   0.03463861           18 
 4158000   0.59576659   -5.1094912    1772.5259  0.035524409  0.034630069           24 
 4159000   0.57534178    -5.107819    1776.7187  0.035599877  0.034621555           11 
 4160000   0.59282737   -5.1128021    1772.7935   0.03551269  0.034613074            9 
 4161000   0.59233584   -5.1071638    1775.4016  0.035556388  0.034604567            8 
 4162000   0.58821379   -5.1224848    1773.6257  0.035512288  0.034596035           17 
 4163000   0.58462912   -5.1312112    1773.7472  0.035506189  0.034587497           10 
 4164000   0.57072967   -5.1342351    1772.5481  0.035473666  0.034578976           21 
 4165000   0.59516891   -5.1352819    1773.3313  0.035480818  0.034570412           14 
 4166000   0.58038228   -5.1156167    1772.2246  0.035450164  0.034561844           10 
 4167000   0.58205075   -5.1363408    1770.0094  0.035397356    0.0345533           13 
 4168000   0.57867378   -5.1076191    1775.6699  0.035502037  0.034544738            6 
 4169000   0.58970891   -5.1026089    1773.7719  0.035455583  0.034536204            6 
 4170000   0.58652494   -5.1059048     1774.284  0.035457314   0.03452771           10 
 4171000   0.60054594   -5.1135339    1774.6671  0.035456467  0.034519216           16 
 4172000   0.58144928   -5.1112877    1777.0244  0.035495054  0.034510768           31 
 4173000   0.57021957   -5.1227509      1775.04  0.035446921  0.034502294           10 
 4174000   0.58285569   -5.1025201    1776.8471  0.035474508  0.034493808            7 
 4175000   0.58901599   -5.1085359    1778.0876   0.03549077  0.034485337           15 
 4176000   0.56875799   -5.1115588    1775.1704  0.035424058  0.034476863           25 
 4177000   0.58716418    -5.134963    1771.7679  0.035347696  0.034468325           21 
 4178000   0.59772827   -5.1348177    1776.0465  0.035424575  0.034459806           38 
 4179000   0.59355901    -5.116097     1775.273  0.035400674  0.034451299           36 
 4180000   0.59264844   -5.1232457    1774.5771  0.035378332  0.034442814           11 
 4181000   0.59137646   -5.1345331    1770.1243  0.035281119  0.034434316           28 
 4182000   0.57992277   -5.1152755    1771.6614  0.035303313  0.034425812           24 
 4183000   0.58258553   -5.1485085    1772.1064  0.035303737  0.034417318           14 
 4184000   0.57354257   -5.1150623     1774.348  0.035339946  0.034408853           10 
 4185000   0.57690606   -5.1176531    1778.4679  0.035413537  0.034400419           10 
 4186000   0.58843202   -5.1290874      1775.23  0.035340619  0.034391971            7 
 4187000   0.58248471   -5.1369484    1773.7527  0.035302777  0.034383477           17 
 4188000   0.58996942   -5.1407002    1774.2608  0.035304457  0.034375015           14 
 4189000   0.58528533   -5.1211838    1776.0923  0.035332463  0.034366549           19 
 4190000    0.5869273   -5.1362239    1776.5485  0.035333106  0.034358097           23 
 4191000   0.58588565   -5.1274053      1775.78  0.035309393  0.034349629           10 
 4192000   0.58203617   -5.1415636    1770.0162  0.035186391  0.034341126           10 
 4193000   0.59000114   -5.1447929    1773.9946  0.035257068  0.034332637           15 
 4194000   0.59966579   -5.1280304    1773.2688   0.03523424  0.034324149           13 
 4195000   0.58269065   -5.1294226    1773.7995  0.035236383  0.034315689            7 
 4196000   0.58264542   -5.1112824    1774.4661  0.035241224  0.034307236            9 
 4197000    0.5770382   -5.1242694    1776.2734  0.035268711  0.034298786           23 
 4198000   0.59112995   -5.1474433    1774.4268  0.035223655  0.034290302           21 
 4199000   0.57736121   -5.1436377    1774.4066  0.035214866  0.034281796           22 
 4200000   0.57898748   -5.1250774    1772.0223  0.035159172  0.034273312           16 
 4201000   0.59224493   -5.1485053    1773.9932  0.035189898  0.034264856           14 
 4202000   0.57878675   -5.1356934    1772.6445  0.035154777  0.034256381           14 
 4203000   0.57583601   -5.1321365    1775.4256  0.035201554  0.034247902           43 
 4204000   0.57584116    -5.140133    1772.6934  0.035139023  0.034239419           10 
 4205000   0.56746494   -5.1437099    1777.5086  0.035226091  0.034230924           25 
 4206000   0.57287209   -5.1455198    1775.4735  0.035177396   0.03422242           28 
 4207000   0.57166237   -5.1584595    1771.3181  0.035086723  0.034213932            7 
 4208000   0.59430024   -5.1442522    1770.7286   0.03506671  0.034205432           20 
 4209000   0.58568917   -5.1588112    1770.9534  0.035062829   0.03419694           14 
 4210000   0.57358943   -5.1446886    1775.0631  0.035135849  0.034188483           24 
 4211000    0.5975559   -5.1457648    1770.6944  0.035041052  0.034180021           36 
 4212000   0.58270854   -5.1545667    1772.4583  0.035067631  0.034171532           23 
 4213000    0.5836114   -5.1383526    1775.5943  0.035121337  0.034163075           10 
 4214000   0.58380528   -5.1497315    1777.0978  0.035142735  0.034154655           13 
 4215000   0.57876686   -5.1451107    1774.1323  0.035075768   0.03414622           14 
 4216000   0.57883925    -5.145383    1773.6371   0.03505766  0.034137775           13 
 4217000   0.58835047   -5.1691184    1775.4294  0.035084763  0.034129332           11 
 4218000   0.56653017   -5.1547256    1773.1698  0.035031803  0.034120879           18 
 4219000   0.58784089   -5.1441496    1776.6478  0.035092198  0.034112433           11 
 4220000    0.5810174   -5.1487537    1776.6816   0.03508455  0.034103991           19 
 4221000   0.58267946   -5.1491952    1775.5856    0.0350546  0.034095555            7 
 4222000   0.55950364   -5.1271995    1774.0687  0.035016356   0.03408714           19 
 4223000   0.58100697   -5.1368275    1778.1596  0.035088791  0.034078711            8 
 4224000   0.57902545   -5.1378396    1772.5498  0.034969811  0.034070313           11 
 4225000   0.56935947   -5.1294526    1777.7952  0.035064994  0.034061912            7 
 4226000   0.58606551    -5.136111    1775.2958  0.035007411  0.034053498           17 
 4227000   0.58623854   -5.1453992    1779.5591  0.035083177  0.034045092           12 
 4228000   0.58142153    -5.131675    1777.1686  0.035027763  0.034036683           11 
 4229000   0.57253281   -5.1199579     1774.449  0.034965891  0.034028275           23 
 4230000   0.57755909   -5.1493641     1777.406  0.035015878  0.034019829           58 
 4231000   0.58271449   -5.1470532     1768.819  0.034838475  0.034011371           17 
 4232000   0.57820852   -5.1541114    1778.8088  0.035026953  0.034002945           32 
 4233000   0.57069069   -5.1586146    1775.4446  0.034952449  0.033994521           10 
 4234000   0.58235282   -5.1449999    1779.9019  0.035031923  0.033986102           22 
 4235000   0.57147863   -5.1226817    1775.5717  0.034938443  0.033977684           11 
 4236000   0.57751758   -5.1415558    1771.9274  0.034858503  0.033969244           21 
 4237000    0.5821136   -5.1404735    1779.4523  0.034998275  0.033960869           26 
 4238000   0.57745013   -5.1416777    1775.8966    0.0349201  0.033952441           23 
 4239000   0.57856125   -5.1379546    1777.0611  0.034934754   0.03394403           31 
 4240000   0.57179374   -5.1536526    1776.6111  0.034917671  0.033935607            5 
 4241000   0.56597321   -5.1559758    1773.4131  0.034846599  0.033927193           18 
 4242000   0.57055027    -5.169332     1776.266  0.034894428   0.03391877            7 
 4243000   0.57104601   -5.1541549    1776.5288  0.034891365  0.033910382           19 
 4244000   0.55882405   -5.1432347    1777.5738  0.034903664  0.033901978           12 
 4245000   0.57276954   -5.1307222    1776.6222  0.034876761  0.033893569            7 
 4246000   0.56942805   -5.1335727    1776.7437  0.034870932   0.03388517           16 
 4247000   0.58924831   -5.1641316     1776.584  0.034859588  0.033876794           24 
 4248000   0.55688524   -5.1448393    1773.9862   0.03480042  0.033868366           10 
 4249000   0.57596482   -5.1530938    1779.3145   0.03489673  0.033859944           32 
 4250000   0.57516168   -5.1509387    1778.8091   0.03487861   0.03385153           36 
 4251000   0.56668234   -5.1645972    1774.4432  0.034784819  0.033843095           15 
 4252000   0.56172702   -5.1560159    1778.2693  0.034851625  0.033834713           14 
 4253000    0.5734593   -5.1573106    1774.9788  0.034778957  0.033826311           26 
 4254000   0.58249747   -5.1538153    1775.9372  0.034789556  0.033817908           16 
 4255000   0.58587519   -5.1600884    1776.1916  0.034786361    0.0338095           25 
 4256000   0.55849917   -5.1718498    1776.9394  0.034792829  0.033801072           40 
 4257000   0.57410169   -5.1452746    1774.1282  0.034729626  0.033792661           21 
 4258000    0.5775779    -5.170671    1778.7647   0.03481221  0.033784214           14 
 4259000   0.57810841   -5.1582021    1773.6414  0.034703792  0.033775824           31 
 4260000   0.57799478   -5.1355514    1775.9873  0.034741536  0.033767433           24 
 4261000   0.57093443   -5.1390031    1776.8291  0.034749846  0.033759067           27 
 4262000   0.57126089   -5.1609437     1779.596  0.034795791  0.033750694           12 
 4263000   0.55646762   -5.1580826    1777.7691  0.034751918  0.033742309           16 
 4264000    0.5536375   -5.1368848    1775.0899  0.034691407  0.033733933           22 
 4265000   0.57900594   -5.1374554    1779.0961   0.03476155  0.033725546           26 
 4266000   0.55703426   -5.1575866    1776.8393  0.034709316  0.033717201           13 
 4267000   0.56034705   -5.1333874    1784.0853  0.034842694  0.033708894           11 
 4268000   0.55630853   -5.1371822    1778.7986  0.034731307   0.03370059           10 
 4269000    0.5646139   -5.1547482    1779.0594  0.034728262  0.033692264           18 
 4270000   0.56214654   -5.1748506    1776.7056  0.034674192  0.033683898           12 
 4271000   0.57487766   -5.1612358    1775.9207  0.034650759  0.033675507           18 
 4272000   0.58016177   -5.1364678      1781.97  0.034760651  0.033667172           25 
 4273000    0.5689709   -5.1564079    1779.7599  0.034709414  0.033658852            8 
 4274000   0.57116059   -5.1535764      1777.81  0.034663273  0.033650535           20 
 4275000   0.56148193   -5.1528143    1773.1366  0.034564067  0.033642171           16 
 4276000   0.56630069   -5.1601837    1781.1863  0.034712861  0.033633811           10 
 4277000   0.57461459   -5.1395948    1777.2948  0.034628922  0.033625472           13 
 4278000   0.55640231   -5.1563971     1775.699  0.034589743  0.033617097           11 
 4279000   0.57002902   -5.1761476    1778.7366  0.034640816  0.033608705           24 
 4280000   0.56540197   -5.1725194    1778.5764  0.034629602   0.03360027           41 
 4281000    0.5626875   -5.1769531    1775.8355   0.03456816   0.03359188           29 
 4282000   0.57247327   -5.1646299    1774.9845  0.034543525  0.033583477           25 
 4283000   0.57279332    -5.162506    1776.2577  0.034560233  0.033575071           16 
 4284000     0.566301    -5.162396    1780.2584  0.034629987  0.033566732           13 
 4285000   0.56599244    -5.146302    1781.8333  0.034652534  0.033558416           16 
 4286000    0.5715227   -5.1651304    1775.1991  0.034515459  0.033550069           40 
 4287000   0.56645466   -5.1514662    1778.4112  0.034569848  0.033541705           12 
 4288000    0.5637517    -5.164139    1777.6608  0.034547202  0.033533375            8 
 4289000   0.57084208   -5.1619133    1777.3287  0.034532694  0.033525034           26 
 4290000   0.56169056    -5.145038    1782.0551  0.034616456  0.033516725           27 
 4291000   0.56749653   -5.1462565    1781.5596  0.034598764   0.03350838           11 
 4292000   0.57305054   -5.1519831    1780.0897  0.034562164  0.033500089           30 
 4293000    0.5760062   -5.1587887    1778.9271  0.034531546  0.033491762           19 
 4294000   0.56779417   -5.1587491    1779.7723  0.034539906  0.033483428           25 
 4295000   0.58317165   -5.1616569    1773.3888   0.03440801  0.033475096           32 
 4296000   0.56526428   -5.1588416    1777.3778  0.034477378  0.033466759           13 
 4297000   0.55385681   -5.1791129    1773.9041  0.034401988  0.033458369           21 
 4298000   0.57363782   -5.1734219    1776.6745  0.034447699  0.033449962           16 
 4299000   0.56835776   -5.1603782    1775.3292  0.034413607  0.033441583            8 
 4300000   0.56879724   -5.1815146    1772.3403  0.034347681  0.033433187           24 
 4301000   0.55508854   -5.1743756     1777.013  0.034430228  0.033424794           17 
 4302000   0.56380561   -5.1691745    1778.6998  0.034454901  0.033416394           31 
 4303000   0.57933051   -5.1609802    1781.4831  0.034500796  0.033408035           16 
 4304000   0.56342275   -5.1512449    1778.1253  0.034427768  0.033399699           23 
 4305000   0.57063563   -5.1708072    1777.5453  0.034408542  0.033391351           15 
 4306000   0.55838908    -5.167357    1778.3134  0.034415416  0.033383023           18 
 4307000   0.55902023   -5.1796396    1774.6816  0.034337156  0.033374677           21 
 4308000   0.55263219   -5.1854406    1774.7196  0.034329921  0.033366309           18 
 4309000   0.55109923   -5.1700765     1780.477  0.034433298  0.033357956           43 
 4310000   0.56578881   -5.1880516    1771.0724  0.034243472  0.033349584           17 
 4311000   0.57573871   -5.1722247    1774.2062  0.034296107  0.033341229           12 
 4312000   0.55637677   -5.1557196    1774.1834  0.034287713  0.033332888           21 
 4313000   0.56163221   -5.1569698    1781.3449  0.034418133  0.033324536           11 
 4314000   0.56173061   -5.1682196    1775.9083  0.034305137  0.033316216           15 
 4315000   0.55443535   -5.1745728    1779.3959  0.034364541  0.033307901           10 
 4316000   0.57453337   -5.1878571    1777.3251  0.034316596  0.033299563           19 
 4317000   0.55323059   -5.1768662    1778.6247  0.034333732  0.033291215           11 
 4318000   0.57280085   -5.1884992    1774.8871  0.034253649  0.033282888           12 
 4319000   0.55975843   -5.1797401    1780.9129  0.034361984  0.033274526           15 
 4320000   0.55185784   -5.1603643    1777.0875  0.034280238  0.033266182            9 
 4321000   0.55782178   -5.1735356    1774.5521  0.034223407   0.03325783           13 
 4322000   0.55042324   -5.1708192    1778.4577  0.034290793  0.033249499           10 
 4323000    0.5571763    -5.177729    1773.6066  0.034189348  0.033241164            6 
 4324000   0.55960564   -5.1887361    1776.9892  0.034246631  0.033232766            7 
 4325000   0.56146169   -5.1883023    1773.9384  0.034179931  0.033224389           15 
 4326000   0.56355272   -5.1665778     1779.491  0.034278992  0.033216032           12 
 4327000   0.55510453   -5.1949083    1780.3271  0.034287172  0.033207709           12 
 4328000   0.55386094    -5.178535    1778.8882  0.034251543  0.033199382           12 
 4329000   0.56400669   -5.1907815    1777.8525  0.034223696  0.033191042           14 
 4330000   0.57030517   -5.1768224    1778.0811  0.034220191  0.033182734           15 
 4331000   0.56191608   -5.1654408    1777.3905  0.034199002  0.033174415           15 
 4332000   0.55476738    -5.165438    1778.9642  0.034221379  0.033166144           12 
 4333000   0.56056068   -5.1795367    1774.1162  0.034120243  0.033157868           11 
 4334000   0.55602553   -5.1896368    1774.2624  0.034115182  0.033149592           14 
 4335000    0.5640783   -5.1825119    1779.8173  0.034214096  0.033141285           17 
 4336000   0.56723008    -5.203292    1778.1729  0.034174603  0.033133005           22 
 4337000   0.56521902   -5.1869892    1777.6537  0.034156746  0.033124708           10 
 4338000   0.55735435   -5.1829869    1784.3792   0.03427807  0.033116432           38 
 4339000   0.55698974   -5.1670428    1779.1131  0.034169031  0.033108153           26 
 4340000   0.55164027   -5.1600319    1779.3137  0.034165009  0.033099924           23 
 4341000   0.55399836   -5.1636204    1780.0198  0.034170694  0.033091685           21 
 4342000   0.56165475   -5.1778538    1782.1039  0.034202823  0.033083451           32 
 4343000   0.55980797   -5.1471731    1779.9049  0.034152753   0.03307522           48 
 4344000   0.55074397   -5.1618349    1777.3398  0.034095684  0.033067005           10 
 4345000   0.56027298   -5.1868854    1781.7852  0.034173096  0.033058775           29 
 4346000   0.55527328   -5.1574208    1777.4213  0.034081555  0.033050519           10 
 4347000   0.55381233   -5.1864812    1776.3963  0.034054066  0.033042244            7 
 4348000   0.55475419    -5.165633    1779.9585  0.034114508  0.033033987           22 
 4349000   0.56173235    -5.166939    1778.0364  0.034069832  0.033025719           10 
 4350000   0.55301281   -5.1844915    1775.0553   0.03400489  0.033017444           30 
 4351000   0.54871493   -5.1762411    1774.9948  0.033995916   0.03300912           11 
 4352000   0.55996537   -5.1755483    1774.9593  0.033987425  0.033000794           21 
 4353000   0.54996945   -5.1970417    1779.1652  0.034060135  0.032992476           18 
 4354000   0.56522008   -5.1857165    1777.5507  0.034021412   0.03298416           17 
 4355000   0.56453926   -5.1855916     1780.455  0.034069174  0.032975846           16 
 4356000   0.55152061   -5.1835283    1775.0787    0.0339585  0.032967575            8 
 4357000   0.55248672    -5.210185    1778.5327  0.034016768  0.032959272           16 
 4358000   0.55498724   -5.1921733    1779.5811  0.034029011  0.032950984           22 
 4359000   0.55264363   -5.1946406    1775.6571  0.033946187   0.03294268           11 
 4360000   0.56402272   -5.2003971    1779.8612  0.034018753  0.032934384           19 
 4361000   0.55013549   -5.1761562    1777.6173  0.033968075  0.032926092           24 
 4362000   0.54298488   -5.2047342    1777.9407  0.033966466  0.032917803           15 
 4363000   0.55653651    -5.210297    1772.8926  0.033862262  0.032909498           23 
 4364000   0.54780623    -5.186073    1777.4934  0.033942358  0.032901211           40 
 4365000   0.55715851   -5.2038717    1777.6382  0.033937347  0.032892915           46 
 4366000   0.55798601   -5.1836622    1779.5141  0.033965379  0.032884645           32 
 4367000   0.55302842   -5.1877783    1778.3947  0.033936239  0.032876353           21 
 4368000   0.54990159   -5.2010146    1778.9554  0.033939168  0.032868099           14 
 4369000   0.55536557   -5.2104999    1777.3823  0.033901395  0.032859822            7 
 4370000   0.55112579   -5.1872881    1776.7788  0.033882129  0.032851539           18 
 4371000   0.53759023   -5.1836931    1776.7611  0.033874038  0.032843269           14 
 4372000   0.54741773    -5.197289    1772.2629  0.033780552  0.032835007           15 
 4373000   0.55886344    -5.185128     1777.952  0.033881241  0.032826719           22 
 4374000   0.56810846    -5.204332    1777.6422  0.033867593  0.032818421           18 
 4375000   0.54081161   -5.2126392    1773.2098  0.033775425  0.032810094           21 
 4376000   0.54527889   -5.2104892    1774.7452  0.033796946  0.032801766           28 
 4377000   0.54182559   -5.2164248    1779.9139   0.03388763  0.032793439           15 
 4378000   0.54324822   -5.1968933    1774.3339  0.033773677  0.032785148           13 
 4379000   0.54521484   -5.1920935    1780.5807  0.033884842  0.032776876           26 
 4380000   0.55313738   -5.2169531    1778.0126  0.033828247  0.032768584           29 
 4381000    0.5523348   -5.1953311    1774.9904  0.033763037  0.032760274           28 
 4382000   0.54338172   -5.1869844    1776.4563   0.03378321  0.032751986           40 
 4383000   0.55636057   -5.2023384    1778.8914  0.033821801  0.032743688           30 
 4384000   0.55792794   -5.1874514    1775.6397  0.033752276  0.032735402           18 
 4385000    0.5503029   -5.1876819     1776.994  0.033770316  0.032727161           26 
 4386000   0.55077715   -5.2026337    1777.1178  0.033764967  0.032718888           13 
 4387000   0.53074521   -5.2027625    1777.9338  0.033772772  0.032710611           14 
 4388000   0.55651844   -5.2067783    1775.8495  0.033725492  0.032702301           10 
 4389000    0.5482184   -5.1965463    1774.8041  0.033697959  0.032693995           24 
 4390000   0.55926352   -5.1945186    1775.4642  0.033702813  0.032685694           23 
 4391000   0.55728165   -5.2064296    1775.4438   0.03369475  0.032677397           20 
 4392000   0.54060129   -5.2042332    1776.5031  0.033707178  0.032669083           10 
 4393000   0.54546431   -5.1929343    1776.4016  0.033697579  0.032660748           13 
 4394000   0.54325874   -5.1926828    1775.2509  0.033668088  0.032652451           39 
 4395000   0.54025974   -5.1935411    1778.8505  0.033728678  0.032644152           39 
 4396000    0.5501757   -5.2060946    1777.3247  0.033692083  0.032635891           17 
 4397000   0.55008494   -5.2124314    1778.5241   0.03370715  0.032627641            7 
 4398000   0.54254041   -5.2190639    1773.9398  0.033612623  0.032619375           21 
 4399000   0.54834584   -5.2094908    1774.4984  0.033615564  0.032611133           21 
 4400000    0.5520806   -5.2133734    1780.3368  0.033718501  0.032602885           31 
 4401000   0.55573964   -5.1935254    1777.3175  0.033653667  0.032594618           24 
 4402000   0.54486409   -5.1998044    1775.8658  0.033618541  0.032586362           22 
 4403000   0.54441989   -5.2034343     1773.739  0.033570653  0.032578114           15 
 4404000   0.54788688   -5.1912041    1778.5344   0.03365377  0.032569866           14 
 4405000    0.5477349   -5.2111324    1774.1972  0.033564078  0.032561609           16 
 4406000    0.5669261   -5.2012387    1775.4275  0.033579729  0.032553358           35 
 4407000   0.55571476   -5.1881541     1779.008  0.033639815  0.032545132           25 
 4408000   0.54820593   -5.2074141    1780.8659  0.033667308   0.03253691           33 
 4409000   0.55296018   -5.2072431    1779.6656  0.033636985  0.032528641           21 
 4410000   0.53787918   -5.2079459    1775.6392  0.033553274  0.032520385           32 
 4411000   0.54782721   -5.1968086    1777.0221  0.033571793  0.032512117           17 
 4412000   0.55361316   -5.2127523    1778.9429  0.033600463  0.032503843           18 
 4413000   0.54639017   -5.2119924    1778.9458  0.033592904  0.032495603           17 
 4414000   0.54955062   -5.2192473    1774.9667  0.033510169  0.032487326           12 
 4415000   0.54065802    -5.214539    1776.8387  0.033537915  0.032479065           25 
 4416000    0.5399241   -5.2298756    1776.4976  0.033523884  0.032470814           29 
 4417000   0.55724083   -5.2246231    1774.5303  0.033479176  0.032462567           15 
 4418000   0.55822286    -5.206765    1776.4725  0.033508233  0.032454317           28 
 4419000   0.54561882   -5.2221746    1777.6544  0.033522938  0.032446091           19 
 4420000   0.54763504   -5.2012078    1776.1696  0.033487361  0.032437879           23 
 4421000   0.55816767   -5.2222032     1776.328  0.033482772  0.032429668           51 
 4422000   0.54033524   -5.1947457    1775.0414  0.033450954  0.032421434           12 
 4423000   0.54919234   -5.2211367    1774.9241   0.03344118  0.032413203           19 
 4424000   0.53523146    -5.234964    1775.8886   0.03345179   0.03240494           38 
 4425000   0.54490219   -5.1961832     1776.632   0.03345823  0.032396699           16 
 4426000   0.54058758   -5.2010664    1778.4723   0.03348532  0.032388468           14 
 4427000   0.55129518   -5.2293485    1777.5704  0.033460779  0.032380238            6 
 4428000   0.53964429   -5.2043631    1772.6308  0.033360261  0.032372006           17 
 4429000   0.55611868   -5.1948954    1771.3008  0.033327704  0.032363759           17 
 4430000   0.54518912    -5.213577    1775.8726  0.033406181  0.032355548           24 
 4431000   0.52893351   -5.2101963     1777.478  0.033428835  0.032347366           13 
 4432000   0.55137171   -5.2151897    1775.1867  0.033378209  0.032339165           34 
 4433000   0.53794837   -5.2091859    1778.4163  0.033431392  0.032330971           45 
 4434000    0.5362685   -5.2170071    1778.2663  0.033421032  0.032322742            8 
 4435000   0.53675639   -5.2089814    1778.9276  0.033425923  0.032314519           10 
 4436000   0.55636169   -5.2055399    1779.6649  0.033432237  0.032306312           18 
 4437000   0.53692632   -5.2120072    1774.9674  0.033336477  0.032298111            7 
 4438000   0.53820259   -5.2111727    1774.2116  0.033314774  0.032289901           21 
 4439000   0.55296547    -5.213762    1774.4352  0.033311466  0.032281671           15 
 4440000   0.53373775   -5.2118969    1776.3112  0.033339174  0.032273419           29 
 4441000   0.55218263    -5.222583    1777.5686  0.033355262  0.032265197           11 
 4442000   0.55277944   -5.2207144    1775.2119  0.033303541  0.032256942           26 
 4443000   0.54579746   -5.2160732     1778.381  0.033355485  0.032248726           17 
 4444000   0.54612334   -5.2233005    1776.1567  0.033306269   0.03224052           25 
 4445000   0.55377765   -5.2303428    1775.6197  0.033288707  0.032232283           39 
 4446000   0.53484879   -5.2106238    1776.0596  0.033289465  0.032224062           22 
 4447000   0.51810587   -5.2220646    1779.3433  0.033343514  0.032215829           18 
 4448000   0.53689259   -5.2018057    1779.5018  0.033338987  0.032207614           33 
 4449000    0.5397832   -5.2088547    1777.7259  0.033298231  0.032199403           18 
 4450000   0.52874456    -5.211042    1778.1348  0.033298405  0.032191184           27 
 4451000   0.53806113    -5.219378    1776.5407  0.033261078  0.032182991           22 
 4452000   0.54636896   -5.2437228    1772.9629  0.033186638  0.032174797           14 
 4453000   0.53529063   -5.2139703    1778.1067  0.033275446  0.032166592           32 
 4454000   0.55301279   -5.2087545    1772.0747  0.033155117  0.032158384           23 
 4455000   0.53193258    -5.218948    1771.0617  0.033128726  0.032150191           16 
 4456000   0.53300033   -5.2245186    1774.7327  0.033189945  0.032141987           37 
 4457000   0.54638958   -5.2121884    1777.4972  0.033234187   0.03213379           14 
 4458000   0.53590163   -5.2356623    1776.3273  0.033204862  0.032125585           29 
 4459000   0.54142132   -5.2259348    1776.3499  0.033197837  0.032117373           18 
 4460000   0.53833384   -5.2346006    1774.8086  0.033161596  0.032109144           21 
 4461000   0.53330444     -5.25472    1774.2839   0.03314436   0.03210092           16 
 4462000   0.54322363   -5.2276532    1775.3474  0.033156794  0.032092676           28 
 4463000   0.52826787   -5.2145087    1774.8801  0.033140641  0.032084459           12 
 4464000   0.54255452    -5.240301    1775.7702  0.033149832  0.032076248           15 
 4465000   0.53844877   -5.2435242    1773.1642  0.033093769  0.032068042           16 
 4466000   0.54866686    -5.232917    1776.6083  0.033150625  0.032059833           11 
 4467000   0.52986957   -5.2329085    1775.0101   0.03311339   0.03205165           31 
 4468000   0.52725043    -5.218454     1777.653  0.033155271  0.032043431           40 
 4469000    0.5501312   -5.2449146    1775.9988  0.033117007  0.032035213           57 
 4470000   0.54249388   -5.2304146    1773.1663  0.033056791  0.032027013           65 
 4471000   0.52747303    -5.228005    1772.8509  0.033043519  0.032018807           19 
 4472000    0.5389519   -5.2575878    1775.4739  0.033085009  0.032010608           21 
 4473000   0.53414377   -5.2328285    1776.6143  0.033098858  0.032002425           10 
 4474000   0.52730266   -5.2421115    1774.6077  0.033054085  0.031994238           20 
 4475000   0.52904665    -5.233305     1777.814  0.033106406  0.031986025            7 
 4476000   0.53380702   -5.2436705    1771.5594  0.032982562  0.031977838           18 
 4477000   0.53554543   -5.2276171    1779.5437  0.033123813   0.03196965           10 
 4478000   0.53706624   -5.2398419    1773.4281  0.033002608  0.031961451           19 
 4479000    0.5375963   -5.2388656    1776.0219  0.033043498  0.031953275           39 
 4480000   0.54236762    -5.258432     1775.662  0.033029426  0.031945072           33 
 4481000    0.5368634   -5.2458587    1774.1676  0.032994264  0.031936877           40 
 4482000   0.53517219    -5.236811    1771.7969  0.032942825  0.031928669           34 
 4483000   0.55219026   -5.2346277    1773.5831  0.032968679  0.031920453           21 
 4484000   0.53889038   -5.2477043    1772.4593  0.032940442  0.031912252           15 
 4485000   0.52204121    -5.245164    1777.2729  0.033022536  0.031904054           45 
 4486000   0.53905575   -5.2499505    1776.3778  0.032998546  0.031895853           33 
 4487000   0.53634875   -5.2536735    1778.3099  0.033027077  0.031887647           29 
 4488000   0.53140021   -5.2321281    1776.3551   0.03298342  0.031879438           24 
 4489000   0.53019989   -5.2454469    1776.4049  0.032976997  0.031871255           23 
 4490000    0.5309315   -5.2458778    1773.4621  0.032915036  0.031863049           16 
 4491000   0.53710795    -5.232465    1774.7127  0.032930911  0.031854846           50 
 4492000   0.53995321   -5.2462961    1772.3377  0.032879522  0.031846631           14 
 4493000   0.53622248   -5.2650893    1772.7095  0.032879099   0.03183841           12 
 4494000   0.53568038   -5.2645546    1777.5029  0.032960668  0.031830217           45 
 4495000   0.53042922   -5.2365425    1774.8062   0.03290334  0.031822026           38 
 4496000   0.52871252    -5.241333    1770.8536   0.03282276  0.031813855           27 
 4497000    0.5338166   -5.2343899    1773.7819  0.032869725  0.031805696           27 
 4498000   0.52932735   -5.2325771    1780.3903  0.032984851  0.031797511           35 
 4499000   0.53207086   -5.2365312    1774.6449  0.032871099  0.031789336           48 
 4500000   0.52803698    -5.240223    1772.2773  0.032819951  0.031781143           13 
 4501000   0.52588105   -5.2323204    1775.8674  0.032879127  0.031772955           37 
 4502000   0.52581742   -5.2508987    1772.5071  0.032809623  0.031764765           32 
 4503000   0.52542808   -5.2596709    1773.5394  0.032821442  0.031756544           33 
 4504000   0.54532135   -5.2577801    1770.1056  0.032750621  0.031748337           17 
 4505000   0.52370169   -5.2441538    1775.4394  0.032842017  0.031740119           14 
 4506000   0.52234248   -5.2496212    1771.2031  0.032756382  0.031731911           33 
 4507000   0.52274825   -5.2633134    1776.1649  0.032840857  0.031723728           43 
 4508000   0.51892248   -5.2525056    1776.4017  0.032837949  0.031715549           36 
 4509000   0.52436958   -5.2495837    1770.7766  0.032726706  0.031707346           28 
 4510000   0.53183799   -5.2563459    1777.7144  0.032847642  0.031699143           18 
 4511000   0.53733589   -5.2403151    1774.1039  0.032773662  0.031690941            8 
 4512000   0.53496487   -5.2444669    1777.1398   0.03282247  0.031682767           22 
 4513000   0.53472781   -5.2483852    1773.5178  0.032748316  0.031674608           20 
 4514000   0.52746706    -5.249101    1773.6245  0.032743032  0.031666444           13 
 4515000   0.52251558   -5.2359315    1772.7848   0.03272028  0.031658262           33 
 4516000   0.52957432   -5.2589706    1775.4946  0.032763039   0.03165007           10 
 4517000   0.53772135   -5.2467755    1771.2452  0.032677389  0.031641869           24 
 4518000   0.52240129   -5.2462908    1769.9446  0.032646167  0.031633643           17 
 4519000   0.54036096   -5.2580338    1772.9426  0.032694227  0.031625449           19 
 4520000   0.54067401   -5.2504761     1776.346  0.032749742  0.031617254           11 
 4521000   0.52691256   -5.2253614    1776.4245  0.032743946    0.0316091           19 
 4522000      0.52698   -5.2657249    1773.0238  0.032674035  0.031600958           42 
 4523000   0.54265565   -5.2279016    1774.9695  0.032702659  0.031592813           21 
 4524000   0.52815555   -5.2500611    1775.2656  0.032700885  0.031584654           45 
 4525000   0.52517502    -5.261524    1768.8208  0.032574969  0.031576476           54 
 4526000   0.53251209   -5.2487157    1773.8989  0.032661269  0.031568294           75 
 4527000   0.54181546   -5.2541762    1778.1213  0.032731781  0.031560132           16 
 4528000   0.51915275   -5.2441974    1769.7387   0.03257028  0.031551971           14 
 4529000   0.53059625   -5.2514022    1770.8557  0.032583641  0.031543808           30 
 4530000    0.5248705   -5.2438088    1773.5634  0.032626258  0.031535611           24 
 4531000   0.52670607   -5.2357549    1772.1361  0.032592808  0.031527438           26 
 4532000   0.53118398   -5.2374015    1778.5004  0.032702641  0.031519293           16 
 4533000   0.51888102    -5.227533    1778.1443   0.03268888  0.031511177           14 
 4534000   0.51678975   -5.2410558    1777.7911  0.032675179  0.031503061           78 
 4535000   0.53519233   -5.2502224     1775.084  0.032618229  0.031494926           23 
 4536000   0.52617815   -5.2459279    1771.1026  0.032537894  0.031486751           20 
 4537000   0.52655066   -5.2424363    1775.4951  0.032611401   0.03147861           34 
 4538000   0.52648677     -5.25285    1776.4826  0.032622349  0.031470433           27 
 4539000   0.52363649   -5.2304761    1773.3225  0.032557144  0.031462294           35 
 4540000   0.53179426   -5.2388393    1777.8111  0.032632363  0.031454174           17 
 4541000   0.51461103   -5.2598756    1773.9964   0.03255517  0.031446049           13 
 4542000    0.5175325   -5.2543114    1772.0757  0.032512764  0.031437904           11 
 4543000   0.52435769   -5.2352429    1772.4874  0.032513159  0.031429772           16 
 4544000   0.53969802   -5.2491847     1776.539  0.032580308  0.031421637           25 
 4545000    0.5325001   -5.2546079    1771.1796  0.032474873  0.031413485           43 
 4546000    0.5104784   -5.2271609    1771.5163  0.032473903   0.03140535            8 
 4547000   0.53189772   -5.2624241     1775.693  0.032543306  0.031397221           34 
 4548000   0.52180554   -5.2613809    1775.8081   0.03253826  0.031389069           21 
 4549000   0.52081178   -5.2409512    1774.7511  0.032511744  0.031380934           49 
 4550000   0.52560108   -5.2623038    1771.9154  0.032452664  0.031372794           23 
 4551000   0.51736886   -5.2438928    1771.1407  0.032431346  0.031364635           62 
 4552000    0.5172654   -5.2523439    1768.5659  0.032377085  0.031356476           70 
 4553000   0.52701685   -5.2645645    1770.0237  0.032396656  0.031348306           29 
 4554000   0.53159914   -5.2697561    1766.3675  0.032322637  0.031340132           27 
 4555000   0.51801947   -5.2721021    1772.0667  0.032419809  0.031331943           29 
 4556000   0.51932122   -5.2641072    1768.7336  0.032351727  0.031323744           45 
 4557000   0.50981887   -5.2660647    1770.8018  0.032382449  0.031315553           41 
 4558000   0.52140553   -5.2583816    1769.2286  0.032346582  0.031307369           51 
 4559000   0.52105602   -5.2628743    1775.4104  0.032452482  0.031299208           75 
 4560000   0.52812838    -5.265325    1771.0869  0.032366354  0.031291057           37 
 4561000   0.51335129   -5.2504455    1775.7562   0.03244457  0.031282892           48 
 4562000   0.52084518   -5.2543865    1773.3063  0.032392707  0.031274744           57 
 4563000   0.50474589   -5.2639952    1775.6493  0.032428397  0.031266609           41 
 4564000   0.53250711   -5.2425153    1774.0316  0.032391754  0.031258502           74 
 4565000   0.53339639   -5.2520132    1774.6267  0.032395522  0.031250384           62 
 4566000   0.52301228   -5.2495227    1775.0156  0.032395525  0.031242284           58 
 4567000   0.51337209   -5.2521531    1771.6392  0.032326822  0.031234159           30 
 4568000   0.51281773   -5.2529921    1770.7194  0.032302966  0.031226032           81 
 4569000   0.52213773   -5.2676952    1773.2025  0.032341186  0.031217933           29 
 4570000   0.50777585    -5.248263    1764.5438  0.032176219  0.031209801           59 
 4571000   0.51643261   -5.2716857    1769.0732  0.032251753   0.03120164           20 
 4572000   0.50644332   -5.2602262    1770.2803  0.032266702  0.031193493           30 
 4573000   0.51988943   -5.2585121    1769.1113  0.032238342  0.031185366           31 
 4574000   0.51266496   -5.2558241    1771.4704  0.032274275   0.03117723           21 
 4575000   0.53212055   -5.2465901    1768.6272  0.032215432  0.031169091           18 
 4576000   0.51982199    -5.248143    1774.3728  0.032313024  0.031160953           19 
 4577000   0.52214425   -5.2762567     1768.395  0.032197128  0.031152833           36 
 4578000   0.52780661   -5.2771829    1771.7573  0.032251298  0.031144696           56 
 4579000   0.52357548   -5.2541098    1773.4501  0.032275062  0.031136556           45 
 4580000   0.51225828   -5.2668782    1771.6152  0.032234628  0.031128407           69 
 4581000   0.51906257   -5.2958911    1770.7874  0.032212534  0.031120249           69 
 4582000    0.5199804   -5.2831038    1769.1622  0.032175945  0.031112049           90 
 4583000   0.51790585   -5.2761719    1773.0394  0.032239426  0.031103846           76 
 4584000   0.52564449   -5.2938976    1765.6195  0.032097504  0.031095668           78 
 4585000   0.52515945   -5.2701877    1770.0258  0.032170589  0.031087488           76 
 4586000   0.51638704   -5.2942119    1765.7118  0.032085184   0.03107933           74 
 4587000   0.51775392   -5.2771293    1767.5671  0.032111894  0.031071177           86 
 4588000   0.52370271    -5.274202    1771.8819  0.032183267  0.031063013           70 
 4589000    0.5109085   -5.2847317    1768.5528  0.032115798  0.031054847           80 
 4590000   0.51489337   -5.2784204    1770.1175  0.032137209  0.031046685           60 
 4591000   0.52532615   -5.2627301    1773.7068   0.03219536  0.031038543           46 
 4592000   0.51952588   -5.2910747    1771.2791  0.032144293   0.03103038           89 
 4593000   0.52371384   -5.2654584    1768.4694  0.032086316  0.031022212           81 
 4594000   0.52385819   -5.2797167    1768.9039  0.032087213  0.031014042           50 
 4595000   0.51182942   -5.2877577     1770.144   0.03210272  0.031005852           58 
 4596000   0.51737978   -5.2770116     1767.901  0.032055067   0.03099769           30 
 4597000   0.51350731    -5.274283    1766.2561  0.032018274  0.030989531           28 
 4598000   0.51272803   -5.2809378    1766.5346  0.032016358  0.030981359           46 
 4599000     0.512376   -5.2787679      1765.72  0.031994636  0.030973206           11 
 4600000   0.51469368   -5.2893835    1769.2668  0.032051934  0.030965063           13 
 4601000   0.51288344   -5.2703353    1767.4226  0.032011567  0.030956941           13 
 4602000   0.51046947   -5.2888351    1766.5501  0.031988812   0.03094881           13 
 4603000   0.53528452   -5.2805098    1769.8546  0.032041686  0.030940694           22 
 4604000   0.51553258   -5.2749837    1772.3505  0.032079903  0.030932597            9 
 4605000   0.51415876   -5.2729702    1774.0694  0.032104042  0.030924489           16 
 4606000    0.5197861   -5.2662799    1769.5994    0.0320162  0.030916383           17 
 4607000   0.50995459   -5.2814324    1772.4139   0.03206016  0.030908276           29 
 4608000   0.51162751   -5.2582721    1772.1619  0.032048646  0.030900195           27 
 4609000   0.52042939   -5.2828468    1772.9886  0.032056639  0.030892129           10 
 4610000   0.51901769   -5.2822962    1770.9664  0.032013131  0.030884053           33 
 4611000   0.51272568   -5.2632405    1772.2072  0.032028612  0.030875977           22 
 4612000   0.50556064   -5.2638364     1772.649  0.032029651  0.030867896           30 
 4613000   0.51636827   -5.2755135    1773.4631  0.032037415  0.030859816           45 
 4614000    0.5111947   -5.2937419    1770.5532  0.031977914  0.030851728           41 
 4615000   0.52758394   -5.2719228    1772.5978  0.032007905  0.030843664           33 
 4616000   0.50731445   -5.2767475    1768.8514  0.031933338  0.030835588           23 
 4617000   0.51941968   -5.3040366    1769.3619  0.031935634  0.030827484           24 
 4618000   0.51956701   -5.2935704    1771.9581  0.031975568  0.030819376           30 
 4619000   0.51525181   -5.2911987    1772.9638   0.03198679  0.030811285           44 
 4620000   0.51055659   -5.2821963    1770.9588  0.031943701  0.030803206           43 
 4621000   0.51848441   -5.2984643    1769.1416  0.031904017  0.030795123           31 
 4622000   0.51907776   -5.2868625    1770.8547  0.031928002  0.030787034           28 
 4623000   0.51684919   -5.2872992    1770.3233  0.031911516   0.03077895           17 
 4624000   0.51170036   -5.2920581    1773.1448  0.031955464  0.030770879           22 
 4625000   0.51509362    -5.281484    1769.8674  0.031889502  0.030762798           30 
 4626000    0.5076416   -5.3067703    1772.5045  0.031930113  0.030754688           75 
 4627000   0.49508926   -5.2940003    1769.2004  0.031863705  0.030746591           52 
 4628000   0.50906877   -5.3019359    1770.3336  0.031877225  0.030738493           59 
 4629000    0.5177001    -5.266472    1769.7576  0.031859971  0.030730426           47 
 4630000   0.51101675   -5.2688388    1769.8973  0.031855603  0.030722374           57 
 4631000   0.51004128    -5.272313    1774.7836  0.031936652  0.030714343           45 
 4632000   0.51374278   -5.2782872    1772.6163  0.031890764  0.030706338           56 
 4633000    0.5047724   -5.2590958     1771.724  0.031867832  0.030698298           17 
 4634000   0.50505562   -5.2662958    1772.1796  0.031869149   0.03069027           53 
 4635000    0.5044995   -5.2916487    1771.4719  0.031849549  0.030682249           47 
 4636000   0.51839378   -5.2992697    1770.5002  0.031825213  0.030674207           32 
 4637000   0.50975222   -5.2839263    1771.7381  0.031840595  0.030666171           21 
 4638000   0.50554593   -5.2857226    1771.6308  0.031831803  0.030658122           20 
 4639000   0.50089092   -5.2860282    1769.7585  0.031791308  0.030650079            9 
 4640000    0.5300874   -5.2684607     1772.187  0.031828072  0.030642054           26 
 4641000   0.51795154   -5.2831379    1769.1483  0.031766651  0.030634013           27 
 4642000   0.52114654   -5.2770735    1770.0797  0.031776528   0.03062598           29 
 4643000   0.53064195   -5.2808207    1773.9904  0.031839874  0.030617976           25 
 4644000     0.513046   -5.2818707    1769.9158  0.031759902  0.030609952           14 
 4645000   0.50772386   -5.3024306    1775.1436  0.031846853    0.0306019           17 
 4646000     0.511301   -5.2876357     1769.314  0.031735435  0.030593851           33 
 4647000   0.49895641   -5.2819904    1774.3196   0.03181837  0.030585815           24 
 4648000   0.50809148    -5.275061    1768.0526  0.031699165  0.030577797           21 
 4649000   0.51014152   -5.2741098    1775.5105  0.031826029  0.030569794           33 
 4650000   0.49959605   -5.2900521    1771.9976  0.031756229  0.030561777           29 
 4651000    0.5079924   -5.2973796    1767.1549  0.031662633  0.030553761           59 
 4652000   0.51659051   -5.2749045    1768.2189  0.031674888   0.03054574           58 
 4653000   0.50762125   -5.3060762    1765.2077   0.03161415  0.030537693          130 
 4654000   0.50705216   -5.3128179    1766.8445  0.031636666  0.030529638           61 
 4655000   0.50322588   -5.3026182    1764.2177  0.031582845  0.030521584           70 
 4656000   0.50813169   -5.3087519    1767.7129  0.031638618  0.030513539           88 
 4657000   0.51406803   -5.3115569    1764.9585  0.031582536  0.030505495           50 
 4658000   0.50761354   -5.3005001    1765.8048  0.031590897  0.030497451           40 
 4659000    0.5120955   -5.2830286    1772.3532  0.031701245  0.030489401          104 
 4660000   0.50111643   -5.2807322    1767.2295  0.031602816  0.030481357           53 
 4661000   0.49938543   -5.2903373    1769.9333  0.031644377  0.030473335           59 
 4662000   0.50862916   -5.2794029    1772.2285  0.031678616  0.030465325           46 
 4663000   0.50817672   -5.3100234    1770.0468  0.031632834  0.030457335           53 
 4664000    0.5079745   -5.3108503    1772.9122  0.031677248  0.030449342           15 
 4665000   0.49780734   -5.3040802    1768.5118  0.031591851  0.030441315           57 
 4666000   0.49484523   -5.3026086    1769.1966   0.03159731   0.03043329           96 
 4667000   0.49676644   -5.3157409    1766.0099  0.031533639  0.030425264           51 
 4668000   0.50410866   -5.3074023    1768.2269  0.031566461  0.030417247           55 
 4669000   0.50666337   -5.3004464    1766.2424   0.03152428  0.030409226           40 
 4670000   0.49751734   -5.3047792    1766.8868  0.031529029  0.030401212           29 
 4671000   0.51657742   -5.2971737    1766.9902  0.031524125  0.030393192           65 
 4672000   0.51070069    -5.301858    1771.3395  0.031594954  0.030385191           35 
 4673000   0.49624221   -5.2965478    1770.3146  0.031569916  0.030377204           13 
 4674000   0.50227175   -5.3049654    1767.5984  0.031514735  0.030369213           30 
 4675000   0.49762009    -5.281525    1768.6625  0.031526961  0.030361224           55 
 4676000   0.51159275   -5.3038699    1769.9276  0.031542765  0.030353237           62 
 4677000   0.49394481   -5.3191854    1766.6122  0.031476948  0.030345255           51 
 4678000   0.50854736   -5.2968688     1770.481  0.031539138  0.030337256           42 
 4679000   0.50634931   -5.3079621    1767.4865  0.031479064  0.030329288           38 
 4680000   0.50056258   -5.3210103    1770.3113  0.031522637  0.030321297           52 
 4681000   0.50910967   -5.3022491    1768.5203  0.031484018  0.030313323           42 
 4682000   0.50352621   -5.3003985     1772.047  0.031540064  0.030305339           36 
 4683000   0.49360501   -5.3069158    1769.4888  0.031487807  0.030297368           48 
 4684000   0.49799243   -5.3075138    1768.2621  0.031459259  0.030289396           52 
 4685000   0.49107614   -5.3053602    1769.9837  0.031483168  0.030281416           66 
 4686000   0.50050731   -5.3144833    1768.5143  0.031450318  0.030273429           40 
 4687000   0.49995206   -5.3141487    1766.9192  0.031415249  0.030265446           29 
 4688000   0.50767809   -5.3090895    1768.2877  0.031432873  0.030257474           54 
 4689000   0.49984051   -5.3090498    1771.3995  0.031481473  0.030249488           55 
 4690000   0.49425363   -5.3060748    1771.3477  0.031473839  0.030241512           45 
 4691000   0.51720382    -5.310127    1766.7959   0.03138627  0.030233531           67 
 4692000    0.4949184   -5.3117042    1768.3437  0.031407071  0.030225533           35 
 4693000   0.50191623   -5.3211025    1765.5775  0.031351259  0.030217549           63 
 4694000   0.50191212   -5.3140003    1768.8743  0.031403109  0.030209564           78 
 4695000   0.50750861   -5.3152809      1767.72  0.031375932  0.030201573           60 
 4696000    0.5031211   -5.3153956    1769.1497  0.031394622  0.030193577           38 
 4697000   0.50016042   -5.3228906    1767.6436  0.031361217  0.030185601           71 
 4698000   0.49524636    -5.320401    1767.8186  0.031357645  0.030177623           50 
 4699000   0.49538643   -5.3086474    1769.4534  0.031379964  0.030169635           59 
 4700000   0.51079449   -5.3377314    1767.1132  0.031331794   0.03016164           71 
 4701000   0.49573977   -5.3181071    1766.4376  0.031313153  0.030153636           83 
 4702000    0.5029981   -5.3301275    1767.6785  0.031328485  0.030145642           74 
 4703000     0.509758    -5.311053    1769.4556  0.031353314  0.030137647           77 
 4704000    0.4969985   -5.3019166    1768.1643  0.031323772  0.030129697           50 
 4705000    0.5195269   -5.3105062     1770.882   0.03136525  0.030121728          152 
 4706000    0.4894582   -5.3068638    1770.2887  0.031348079  0.030113773           82 
 4707000   0.49737536   -5.3236044    1768.6554  0.031312502  0.030105798           48 
 4708000   0.50638408   -5.3139769    1766.9192  0.031275121   0.03009784           76 
 4709000   0.49589911   -5.3205793    1767.6557  0.031281513  0.030089878           39 
 4710000   0.50440414   -5.3187994    1765.5052  0.031236823  0.030081907          127 
 4711000   0.50291907   -5.3363429    1768.4017  0.031281428  0.030073959           48 
 4712000   0.50577121   -5.3074752     1766.488  0.031240946  0.030066006           55 
 4713000    0.4898405   -5.3196138    1765.5677  0.031218044  0.030058045           84 
 4714000   0.49348451   -5.3267671    1765.9791  0.031218694  0.030050083           46 
 4715000   0.49201166   -5.3177702     1767.554  0.031239908  0.030042099           78 
 4716000   0.49100897    -5.335389    1769.5906  0.031269271  0.030034131           56 
 4717000   0.49261645   -5.3178083    1767.5024  0.031225751  0.030026166           27 
 4718000   0.50876615   -5.3180264    1766.7308  0.031205504  0.030018212          120 
 4719000   0.50849721   -5.3314299      1766.41  0.031193226  0.030010244          108 
 4720000   0.49742304   -5.3278753    1766.9096  0.031195438   0.03000227           46 
 4721000   0.49552883   -5.3060124    1771.9555  0.031277898  0.029994336          133 
 4722000   0.49606845    -5.314721    1767.5442  0.031193424  0.029986405          116 
 4723000   0.49701876   -5.3199326    1770.4083  0.031237354  0.029978467          100 
 4724000   0.51346388   -5.3126165    1768.0573   0.03118927   0.02997054           52 
 4725000   0.49053514   -5.3211927    1767.4158  0.031171355  0.029962616          113 
 4726000   0.49980756   -5.3316198    1769.5056  0.031201609  0.029954672          172 
 4727000   0.49885074   -5.3262438    1769.7734  0.031199729  0.029946755          118 
 4728000   0.50253753   -5.3298626    1766.2049  0.031130233  0.029938817          126 
 4729000   0.49387084   -5.3058588    1768.3213  0.031160944  0.029930872          129 
 4730000   0.50685941   -5.3297827    1767.7484  0.031144264  0.029922948           83 
 4731000   0.50029887   -5.3264822    1766.5979  0.031117416  0.029915015          100 
 4732000   0.49266507   -5.3087053    1766.9075  0.031116292  0.029907081           72 
 4733000   0.48839432    -5.317481    1766.4712  0.031102035  0.029899157          162 
 4734000   0.50012185   -5.3182144    1768.4115   0.03112962  0.029891214           92 
 4735000   0.49052144   -5.3268342    1766.5576  0.031090418  0.029883287           67 
 4736000   0.49775873   -5.3363047    1768.3548  0.031115478  0.029875368          132 
 4737000   0.48758147   -5.3337889    1764.5245  0.031041525  0.029867445           53 
 4738000    0.4978187    -5.318189    1765.9727  0.031060445  0.029859515           56 
 4739000   0.49454976   -5.3360252    1768.8841  0.031105087   0.02985159           90 
 4740000   0.49632944   -5.3391405    1769.1718  0.031103583  0.029843671           53 
 4741000   0.49751981   -5.3589698    1765.9107  0.031039702  0.029835751          116 
 4742000    0.4881246   -5.3323097    1766.4353  0.031042375  0.029827818           66 
 4743000     0.489359   -5.3310463    1766.4318  0.031035768  0.029819879           33 
 4744000   0.49742747   -5.3454793    1765.2434   0.03100835  0.029811951           67 
 4745000   0.48533365   -5.3346444    1762.9662  0.030961823  0.029804026           41 
 4746000   0.49679166   -5.3410135    1763.9511  0.030972593  0.029796096           31 
 4747000   0.48418689   -5.3353119    1766.2293  0.031006063   0.02978818           44 
 4748000   0.49824135   -5.3402972    1766.9607  0.031012368  0.029780251           48 
 4749000   0.49148662   -5.3361025    1768.5732  0.031034134  0.029772333           49 
 4750000   0.48872642   -5.3253883    1766.5367  0.030991871  0.029764428           33 
 4751000   0.49336838   -5.3228964    1765.6802  0.030970325  0.029756507           62 
 4752000   0.49043361   -5.3358192    1765.5802  0.030962055   0.02974858           66 
 4753000   0.48414307   -5.3347766    1765.6105  0.030956071  0.029740651           60 
 4754000   0.49933106   -5.3363272    1768.5235  0.031000623  0.029732751           34 
 4755000   0.48336122   -5.3344483    1766.5503  0.030959522  0.029724874           33 
 4756000   0.49890734   -5.3227646    1766.2577  0.030947885   0.02971699           23 
 4757000   0.48751087   -5.3355244    1767.5164   0.03096343  0.029709104           33 
 4758000    0.4938431   -5.3315764    1768.9077  0.030981289  0.029701218           29 
 4759000   0.49601089   -5.3377044    1765.9564  0.030923099  0.029693344           46 
 4760000    0.4837433   -5.3439576    1768.1105  0.030954315   0.02968545           79 
 4761000   0.48083622   -5.3432914    1770.2121  0.030984599  0.029677566           33 
 4762000   0.49369431    -5.314497    1766.0006  0.030904392  0.029669696           24 
 4763000   0.49772343   -5.3125544    1768.7374  0.030945786  0.029661829           39 
 4764000   0.49164039   -5.3355216    1772.5483  0.031005952  0.029653946           46 
 4765000   0.48734875   -5.3402528    1764.9192  0.030866023  0.029646096           34 
 4766000   0.49276707   -5.3083713    1767.1512  0.030898573  0.029638232           39 
 4767000   0.48723455   -5.3194346    1766.2025  0.030875508  0.029630354           56 
 4768000   0.48328532    -5.316367    1767.1526  0.030885638  0.029622485           58 
 4769000   0.49443609   -5.3351382    1769.1506  0.030914073  0.029614622           43 
 4770000   0.48816185   -5.3243223    1766.8452  0.030867317  0.029606756           31 
 4771000   0.47783966   -5.3479874    1765.4789  0.030836981  0.029598891           49 
 4772000   0.50241455   -5.3317002    1770.5929  0.030919826  0.029591042           23 
 4773000   0.49472159   -5.3422555    1765.6754  0.030827492  0.029583187           67 
 4774000   0.48769486   -5.3383113    1769.1002  0.030880816  0.029575342           21 
 4775000   0.48572008   -5.3232347    1771.0135   0.03090774  0.029567494           61 
 4776000    0.4984251   -5.3351343    1769.6252  0.030877044  0.029559662           50 
 4777000   0.48470383   -5.3249564     1769.362   0.03086599  0.029551847           41 
 4778000   0.49403569   -5.3253689    1769.2533  0.030857633  0.029544022           15 
 4779000   0.48670779   -5.3431795    1768.1649  0.030832198  0.029536192           47 
 4780000   0.49008482   -5.3335635     1765.813  0.030784745  0.029528361           64 
 4781000   0.48773307   -5.3445679    1769.3455  0.030839878  0.029520507           35 
 4782000   0.48584119   -5.3333095    1766.2997  0.030780351  0.029512667           22 
 4783000   0.49103843   -5.3414621    1768.5445  0.030813027  0.029504823           14 
 4784000   0.48997819   -5.3615609    1768.9828  0.030814221  0.029496965           38 
 4785000   0.49031795   -5.3556869     1768.676  0.030802438  0.029489118           58 
 4786000   0.48304903   -5.3445984    1767.3288  0.030772545  0.029481285           27 
 4787000    0.4787873   -5.3640133    1768.1754  0.030780854  0.029473449           46 
 4788000   0.49468635   -5.3317052    1767.9634  0.030770737  0.029465621           77 
 4789000   0.49783733   -5.3330454    1767.8669  0.030762631  0.029457825           62 
 4790000   0.48610477   -5.3411339    1767.9644  0.030757906  0.029450046           45 
 4791000   0.48455118   -5.3334661    1769.1682  0.030772424  0.029442275           52 
 4792000   0.48586875   -5.3357011    1765.5629  0.030703306  0.029434496           94 
 4793000   0.48198159   -5.3409653     1766.371   0.03071095  0.029426717           62 
 4794000    0.4951497   -5.3511966    1769.9525    0.0307668  0.029418947           75 
 4795000   0.47871849   -5.3357678    1770.9667   0.03077801  0.029411165           34 
 4796000   0.48820796   -5.3499948    1768.0965  0.030721722  0.029403368           30 
 4797000   0.47994859   -5.3343985    1767.0991   0.03069799  0.029395557           35 
 4798000   0.47837577   -5.3375348    1766.9923  0.030689736  0.029387758          102 
 4799000   0.49382533   -5.3342125    1767.1488   0.03068606  0.029379958           49 
 4800000   0.49062167   -5.3228336    1769.2803  0.030716672  0.029372153          109 
 4801000   0.48331388   -5.3510301    1765.6478  0.030647223  0.029364358           53 
 4802000   0.50359877   -5.3282294    1768.5879  0.030691863  0.029356557           96 
 4803000   0.47915513   -5.3524406    1765.9079  0.030638974  0.029348747           44 
 4804000   0.48080328   -5.3337428    1764.0738   0.03060078  0.029340952           36 
 4805000    0.4857728   -5.3328626     1768.177  0.030665573  0.029333144           73 
 4806000   0.48595288   -5.3522597     1767.314  0.030644229  0.029325345           69 
 4807000   0.47550031   -5.3628722     1763.451  0.030570886  0.029317521           72 
 4808000   0.46923587   -5.3502392    1767.0782  0.030627395  0.029309709           86 
 4809000   0.47000562   -5.3379559    1766.5165  0.030611294  0.029301913           74 
 4810000   0.47354013   -5.3599996    1763.1077  0.030545871  0.029294108          113 
 4811000   0.48372799   -5.3666123    1767.1562  0.030609648  0.029286288          153 
 4812000   0.48258924   -5.3650793    1767.7423  0.030613437  0.029278475          132 
 4813000   0.48521619   -5.3349225    1766.0209  0.030577271  0.029270678          151 
 4814000   0.49694568   -5.3579865    1769.2292  0.030626458  0.029262884          118 
 4815000   0.47688511   -5.3523743    1769.3161  0.030621601  0.029255059          137 
 4816000   0.47794041   -5.3518994    1764.4441   0.03053094  0.029247264          144 
 4817000   0.47450809   -5.3620152    1765.0364  0.030534848  0.029239479           66 
 4818000   0.47180568   -5.3368992    1765.9301  0.030543969  0.029231674          142 
 4819000   0.47804438   -5.3628745    1766.7726    0.0305522  0.029223884          133 
 4820000   0.48384827   -5.3576431    1764.4356  0.030505457  0.029216092          174 
 4821000    0.4893179   -5.3432797    1762.3492  0.030463064  0.029208263          121 
 4822000   0.48585702   -5.3586051    1761.8965  0.030448923  0.029200451          125 
 4823000   0.48634455   -5.3732267    1767.5442  0.030540193  0.029192623           74 
 4824000   0.48765437   -5.3688136    1764.1085  0.030474511  0.029184816          141 
 4825000   0.48437599   -5.3526336    1762.6073  0.030442268  0.029177006           67 
 4826000   0.48196713   -5.3566789    1763.2084   0.03044634  0.029169195           80 
 4827000   0.47887178   -5.3693388    1766.1081  0.030490091  0.029161379          147 
 4828000   0.48426521   -5.3672731    1765.3298  0.030470343  0.029153603          191 
 4829000   0.47406714   -5.3592117    1764.1408  0.030443516  0.029145809          135 
 4830000   0.48388237   -5.3534785    1763.1514  0.030420142  0.029138036          114 
 4831000    0.4804245   -5.3544014    1768.0886   0.03049901  0.029130266           90 
 4832000   0.47523576   -5.3599681    1765.0881  0.030440951   0.02912247           72 
 4833000   0.47344172   -5.3682296     1764.927  0.030431875  0.029114672          134 
 4834000   0.48823413   -5.3536958    1763.1772  0.030395415  0.029106881           34 
 4835000   0.47459817   -5.3704963    1761.2001  0.030355052  0.029099095           97 
 4836000   0.48272574   -5.3714256    1761.6063  0.030355774  0.029091319           66 
 4837000   0.48541822   -5.3575388    1765.3227  0.030413526  0.029083545           62 
 4838000   0.47038946   -5.3532635    1765.5045   0.03041037   0.02907576          143 
 4839000   0.47602362   -5.3609473    1763.3693  0.030367316   0.02906796           86 
 4840000   0.47784618     -5.36158    1766.2371  0.030410419  0.029060184           60 
 4841000   0.48015746    -5.356493     1762.998  0.030348379  0.029052391           56 
 4842000   0.46960394   -5.3602871    1766.2283  0.030397705  0.029044604           69 
 4843000   0.48870382   -5.3500703    1765.4768  0.030378498   0.02903685           67 
 4844000   0.47943601   -5.3796643    1765.5394  0.030373304  0.029029079           75 
 4845000   0.48787314   -5.3688411     1762.442  0.030313759   0.02902132           43 
 4846000   0.46495303   -5.3601852    1763.7787  0.030330491   0.02901355           26 
 4847000   0.47657678    -5.363279    1762.2914  0.030298663  0.029005793          116 
 4848000   0.47921344   -5.3605811    1764.6032   0.03033215  0.028998052           85 
 4849000    0.4704744   -5.3531566    1765.2394  0.030336828  0.028990297           95 
 4850000   0.47866345   -5.3624932      1761.64  0.030268729  0.028982556          123 
 4851000   0.47935361   -5.3593266    1763.5304  0.030294963  0.028974788          101 
 4852000   0.47301573   -5.3597233    1765.6628  0.030325343  0.028967031           46 
 4853000   0.48557185   -5.3739837    1766.7579    0.0303379  0.028959259           60 
 4854000   0.48259472    -5.370469    1764.4912  0.030292735  0.028951489           51 
 4855000   0.47310513   -5.3902839    1763.2362  0.030264954  0.028943702           63 
 4856000   0.47556025   -5.3734955     1759.995  0.030203099   0.02893593           78 
 4857000   0.48557025   -5.3858069    1763.3508  0.030254457  0.028928149           97 
 4858000   0.46847596   -5.3675472    1765.1089  0.030278388  0.028920383           78 
 4859000   0.46816187   -5.3690962    1762.6492  0.030229973  0.028912624          157 
 4860000   0.47737526   -5.3763106    1764.3769  0.030253376  0.028904847          139 
 4861000   0.46868217   -5.3739583    1761.9779  0.030206026  0.028897074           99 
 4862000   0.47528573   -5.3692716    1763.0521  0.030218225   0.02888931          150 
 4863000   0.47299775   -5.3654354    1762.9794  0.030210764  0.028881571           64 
 4864000   0.46550589   -5.3681629    1760.9397  0.030169608  0.028873827           54 
 4865000   0.48469637   -5.3602327    1766.0336  0.030250661  0.028866096           36 
 4866000   0.47338062   -5.3646292    1762.5811  0.030185319  0.028858363           24 
 4867000   0.46980008   -5.3872051    1764.2526  0.030207736  0.028850633           34 
 4868000   0.46362208   -5.3655612    1764.3095  0.030202504  0.028842884           24 
 4869000   0.46746912   -5.3802456    1762.4679  0.030164782  0.028835133           41 
 4870000   0.47182903   -5.3676147    1762.6651  0.030161962  0.028827384           38 
 4871000   0.46855369   -5.3756888    1763.3389  0.030167298  0.028819635           53 
 4872000   0.47348569   -5.3714272    1761.1144  0.030123058  0.028811905           33 
 4873000   0.47027378   -5.3698929    1766.3386  0.030206214  0.028804183           60 
 4874000   0.46855057   -5.3714977    1767.1332  0.030213603  0.028796459           32 
 4875000   0.46399225   -5.3770212    1760.7847  0.030098884  0.028788731           73 
 4876000   0.47675425   -5.3812462     1762.009  0.030113634  0.028780987           49 
 4877000   0.47292149   -5.3922132    1761.9038  0.030105662  0.028773237           44 
 4878000   0.45856114   -5.3833275    1761.2956  0.030089101  0.028765508           67 
 4879000   0.48468641   -5.3788726    1761.2621  0.030082362   0.02875777           65 
 4880000   0.47563539   -5.3745436    1765.2658  0.030144566  0.028750043          101 
 4881000   0.46785269   -5.3712259    1759.5243  0.030040366  0.028742307           47 
 4882000   0.46461912   -5.3849707    1761.3921  0.030066095  0.028734555          133 
 4883000   0.47704286   -5.3522771     1763.391  0.030094051  0.028726826           64 
 4884000   0.48640002   -5.3618913    1763.4898  0.030089575  0.028719114           94 
 4885000   0.47287142   -5.3927093    1761.2567  0.030045321  0.028711373           60 
 4886000   0.46987663    -5.391751    1761.4045  0.030041693  0.028703628          160 
 4887000   0.46850885   -5.3861327    1762.2618  0.030050164  0.028695896           64 
 4888000    0.4758431   -5.3695603    1761.6595  0.030033748   0.02868818          114 
 4889000    0.4736628   -5.3832808    1759.6511  0.029993372  0.028680484           63 
 4890000   0.46872444   -5.3791706    1762.6259  0.030037933  0.028672792          145 
 4891000   0.47222304   -5.3890284      1764.33  0.030060827  0.028665091          118 
 4892000    0.4806076   -5.3719749     1763.162  0.030034785  0.028657389          124 
 4893000   0.47149147   -5.3814493    1766.4246  0.030084212  0.028649681          103 
 4894000   0.47835497   -5.3852372    1761.6502  0.029996768   0.02864197          154 
 4895000    0.4699515   -5.3840985    1760.1356  0.029964855  0.028634256          278 
 4896000   0.47230055   -5.3939592    1760.5824  0.029966339   0.02862654          364 
 4897000   0.46326178   -5.3713807    1761.6549  0.029978472  0.028618838          115 
 4898000   0.47275499   -5.3755944    1764.8249  0.030026285  0.028611132           91 
 4899000   0.47363118   -5.3782949    1758.3093  0.029909323  0.028603436          103 
 4900000   0.46650515   -5.3655205    1760.7418  0.029944588  0.028595751           93 
 4901000   0.46739741   -5.3758488    1762.1761  0.029962866  0.028588069          212 
 4902000   0.47671458   -5.3742763    1766.7079  0.030033793  0.028580395           78 
 4903000   0.47058693   -5.3804194    1761.1664  0.029933483  0.028572723           69 
 4904000   0.47306924   -5.3763345     1764.317  0.029980916  0.028565056           53 
 4905000   0.46065672   -5.3883896    1759.0546  0.029885398   0.02855738           80 
 4906000   0.47601091   -5.3881628    1762.0448    0.0299301  0.028549693          131 
 4907000   0.47770165   -5.3865286    1762.3255  0.029928767  0.028542031          171 
 4908000   0.47521144   -5.3812376    1760.7676  0.029896217  0.028534343          105 
 4909000   0.46617522   -5.3756176    1760.6244  0.029887696   0.02852668           64 
 4910000   0.46097344   -5.3896425    1763.5373  0.029931046  0.028519005          101 
 4911000   0.47210569   -5.3792482    1761.0119  0.029882099  0.028511324           60 
 4912000   0.46369414   -5.3861006    1759.6117  0.029852262  0.028503642          121 
 4913000   0.46198991   -5.3831032      1760.59   0.02986278   0.02849595          137 
 4914000   0.47462833   -5.3747449     1757.391  0.029802452  0.028488266          178 
 4915000   0.46300809   -5.3912581    1761.8915  0.029872694  0.028480596          119 
 4916000   0.47084594    -5.374224    1762.4991  0.029876917  0.028472928          120 
 4917000   0.46878428   -5.3984027      1759.94  0.029827469  0.028465249          136 
 4918000   0.46385618   -5.4031043    1759.2047  0.029808945   0.02845759          119 
 4919000   0.46487705   -5.3984863    1758.4981  0.029790915  0.028449918          123 
 4920000   0.46110871   -5.4048413    1757.2125  0.029763084  0.028442232          110 
 4921000   0.46317074   -5.4004591    1759.0874  0.029788787  0.028434551           69 
 4922000   0.46634769   -5.3970271    1763.6105  0.029859313  0.028426875          191 
 4923000    0.4624125   -5.4036898    1759.5157  0.029783933  0.028419213           96 
 4924000    0.4603699     -5.38798     1762.576  0.029829678  0.028411556           72 
 4925000   0.46595524   -5.3970221    1761.5181  0.029805721  0.028403896           89 
 4926000   0.45955055   -5.3868655    1760.9675  0.029790356  0.028396248          101 
 4927000   0.46552434   -5.4000218    1760.1454  0.029770405  0.028388604           53 
 4928000    0.4710243   -5.3892358    1761.6214  0.029789323  0.028380957          104 
 4929000    0.4661928   -5.3830578    1766.0976  0.029858957  0.028373312           44 
 4930000   0.45544403   -5.3843992    1758.7071  0.029727978  0.028365685           46 
 4931000   0.45862635   -5.3946432    1758.6938  0.029721724  0.028358048           58 
 4932000   0.46192652   -5.3971402     1761.838  0.029768822  0.028350394           96 
 4933000   0.45562582   -5.3948425    1761.0818  0.029750013  0.028342745           57 
 4934000   0.46308172    -5.392474    1759.1799  0.029711862  0.028335116           62 
 4935000   0.44854191   -5.4108326    1762.3805  0.029759887  0.028327482           64 
 4936000   0.46517309   -5.3897351    1761.0764  0.029731841  0.028319833           61 
 4937000   0.46236178   -5.3976967    1761.6405  0.029735341  0.028312207           43 
 4938000   0.46452609   -5.4034427    1759.5716  0.029694404  0.028304586           43 
 4939000     0.455046   -5.3944719    1761.7742  0.029725554  0.028296958           39 
 4940000   0.46598208   -5.4076711    1763.8476  0.029754514   0.02828934           70 
 4941000   0.45773579   -5.3849215    1758.8856  0.029664804  0.028281739           42 
 4942000   0.45564073   -5.4074586     1761.554  0.029703797   0.02827412           60 
 4943000   0.46365494   -5.3796031    1761.4327  0.029695742  0.028266506           52 
 4944000    0.4611916   -5.3953633    1759.8863  0.029663671  0.028258896           76 
 4945000   0.45152274   -5.4038862    1763.9023   0.02972535  0.028251298          125 
 4946000   0.45790888   -5.3771319    1762.3786  0.029693669  0.028243716           64 
 4947000   0.45557391   -5.3953779    1757.1372  0.029599373  0.028236116          102 
 4948000   0.46125838   -5.3820203    1763.8325  0.029706152  0.028228509           51 
 4949000    0.4634732   -5.4032047    1758.1745  0.029604878  0.028220901           73 
 4950000   0.46360575   -5.4151669    1760.4055  0.029636455  0.028213277           99 
 4951000   0.44513323   -5.4171505    1760.1521  0.029626205  0.028205661          135 
 4952000   0.45696453    -5.399882     1758.562  0.029593463  0.028198043          115 
 4953000    0.4540687   -5.3931074    1758.5289  0.029586932  0.028190427          100 
 4954000   0.45011994   -5.4035513    1757.8854  0.029570136  0.028182803           93 
 4955000   0.46258203   -5.3951129    1758.6178  0.029576485  0.028175183           68 
 4956000   0.46369394   -5.4201232    1762.9633  0.029643586  0.028167546           93 
 4957000   0.45623865   -5.4118072     1759.389  0.029577516   0.02815992          122 
 4958000   0.45352481   -5.3923773    1759.5751  0.029574679  0.028152286          113 
 4959000   0.45837192   -5.4126138     1757.475  0.029533424  0.028144648          205 
 4960000   0.47188288   -5.3952734     1758.818  0.029550034  0.028137033          168 
 4961000   0.45535394   -5.3922494    1758.5803  0.029540084  0.028129437          107 
 4962000    0.4529783   -5.3974663    1759.8378   0.02955525  0.028121843          162 
 4963000   0.45486908   -5.3951229    1760.7084  0.029563914  0.028114242          213 
 4964000   0.45181361   -5.4103461    1757.5191  0.029504417  0.028106639          150 
 4965000   0.45563215   -5.4103127     1762.745  0.029586186  0.028099042          234 
 4966000   0.45302134   -5.3948709    1755.4512  0.029457833  0.028091432          172 
 4967000   0.46292331   -5.4122476    1757.7764  0.029490914  0.028083812          123 
 4968000    0.4636473   -5.3927635    1757.7091  0.029483847  0.028076191          180 
 4969000   0.45517497    -5.403503    1758.7813  0.029495896  0.028068593          155 
 4970000   0.44256643   -5.4124286    1758.5029  0.029485293  0.028060982          148 
 4971000   0.45174332   -5.4077712    1759.9127  0.029502996  0.028053367           98 
 4972000   0.46046673   -5.4074226    1758.2684  0.029469503  0.028045752          151 
 4973000   0.46309924   -5.4226245    1757.9194  0.029457728  0.028038132           96 
 4974000    0.4481518   -5.4040558    1755.8951  0.029417892  0.028030523          169 
 4975000   0.46038783   -5.4092035    1758.3077   0.02945239  0.028022923          220 
 4976000   0.45112065   -5.4117047     1759.768  0.029470927  0.028015333          243 
 4977000   0.45669761   -5.4110723    1756.7629   0.02941469  0.028007742          182 
 4978000   0.46060469   -5.4118055    1759.4354  0.029453519  0.028000165          157 
 4979000   0.45066522   -5.3998251     1764.021  0.029524352  0.027992587          218 
 4980000   0.44547979   -5.4037543    1760.6559  0.029462114  0.027985016          154 
 4981000   0.45798017   -5.3957021     1760.455  0.029452837  0.027977441          203 
 4982000   0.44846368   -5.4141951     1758.883  0.029420631  0.027969862          368 
 4983000   0.45772451   -5.4033815    1759.6199  0.029427051  0.027962279          337 
 4984000   0.44706022   -5.4199474    1758.8191  0.029407756  0.027954702          222 
 4985000   0.45993068     -5.39339     1761.652  0.029449214  0.027947134          110 
 4986000   0.45130995   -5.4162921    1757.9666  0.029381713  0.027939569          166 
 4987000   0.46543269   -5.4222413    1757.7308   0.02937188  0.027932011          275 
 4988000   0.45722769   -5.4088785     1760.189  0.029407059  0.027924468           83 
 4989000    0.4520666   -5.4101572    1761.5733  0.029424289  0.027916906          216 
 4990000    0.4527326   -5.4128414    1754.9559  0.029307881  0.027909339          181 
 4991000   0.45420478   -5.4083933    1756.2566  0.029323726  0.027901783          115 
 4992000    0.4613452   -5.4019468    1757.9445  0.029346029  0.027894253          188 
 4993000   0.44718117   -5.4307218    1758.7061  0.029352862  0.027886696          286 
 4994000   0.44573307   -5.4285077    1757.3877  0.029324985  0.027879131          198 
 4995000   0.45748616   -5.4298484    1759.1928  0.029349229  0.027871568          233 
 4996000   0.45554448    -5.425528    1755.5206  0.029282103  0.027863997          218 
 4997000   0.44487292   -5.4146033    1757.9484  0.029316731  0.027856441          352 
 4998000   0.45281236   -5.4256887    1757.8937  0.029309953  0.027848876          322 
 4999000   0.43969941   -5.4264906    1754.7102   0.02925102  0.027841304          342 
 5000000   0.45766701   -5.4276595    1757.6574   0.02929429  0.027833745          139 
 5001000   0.45533473   -5.4216732    1756.1221   0.02926285   0.02782618          132 
 5002000   0.45978624    -5.430444    1758.4421  0.029295649  0.027818625          264 
 5003000    0.4448752   -5.4187613    1760.4647  0.029323484  0.027811062          206 
 5004000   0.44355608   -5.4304712    1756.9203  0.029258597  0.027803495          291 
 5005000   0.44740849    -5.421671     1755.412  0.029227639  0.027795925          219 
 5006000   0.46074543   -5.4337128    1759.6534  0.029292405  0.027788367          290 
 5007000   0.45751985   -5.4254819    1754.2615  0.029196816   0.02778081          146 
 5008000   0.44639909   -5.4332829    1755.0297  0.029203769  0.027773252          254 
 5009000   0.45269747   -5.4225412    1754.9942  0.029197348  0.027765705          283 
 5010000   0.44536887   -5.4388886    1758.5227  0.029250211  0.027758176          353 
 5011000   0.44719903   -5.4194184    1756.9962  0.029218989  0.027750637          256 
 5012000   0.45922115   -5.4189806    1753.0594  0.029147702  0.027743088          249 
Loop time of 12774.4 on 48 procs for 5000000 steps with 4000 atoms

Performance: 67635.480 tau/day, 391.409 timesteps/s
99.4% CPU use with 48 MPI tasks x no OpenMP threads

MPI task timing breakdown:
Section |  min time  |  avg time  |  max time  |%varavg| %total
---------------------------------------------------------------
Pair    | 911.97     | 961.83     | 1028.9     |  94.3 |  7.53
Neigh   | 86.555     | 89.008     | 92.79      |  13.8 |  0.70
Comm    | 801.3      | 870.44     | 929.33     | 115.3 |  6.81
Output  | 19.602     | 19.606     | 19.693     |   0.3 |  0.15
Modify  | 10686      | 10714      | 10746      |  15.3 | 83.87
Other   |            | 119.5      |            |       |  0.94

Nlocal:        83.3333 ave          90 max          74 min
Histogram: 1 2 2 5 7 6 9 6 8 2
Nghost:        2320.83 ave        2343 max        2300 min
Histogram: 4 2 5 6 9 5 6 7 3 1
Neighs:        15742.5 ave       17625 max       13568 min
Histogram: 2 2 2 7 6 12 7 5 2 3
FullNghs:      31483.8 ave       34029 max       27792 min
Histogram: 1 3 1 6 6 5 8 10 4 4

Total # of neighbors = 1511224
Ave neighs/atom = 377.80600
Neighbor list builds = 269509
Dangerous builds = 0

#clear
#
#next RN
#
#jump SELF
Total wall time: 3:32:57
