
units lj                  # Use reduced LJ style units
atom_style atomic         # Uncharged point particles
atom_modify map hash      # Needed for indexing of clusters etc
                          # Used to be able to find where atoms are in relation to each other.

lattice fcc 1.0 spacing 1 1 1
Lattice spacing in x,y,z = 1.5874011 1.5874011 1.5874011
region box block 0 10 0 10 0 10 units lattice
create_box 2 box
Created orthogonal box = (0.0000000 0.0000000 0.0000000) to (15.874011 15.874011 15.874011)
  3 by 4 by 4 MPI processor grid
create_atoms 1 box
Created 4000 atoms
  using lattice units in orthogonal box = (0.0000000 0.0000000 0.0000000) to (15.874011 15.874011 15.874011)
  create_atoms CPU = 0.002 seconds
set type 1 type/fraction 2 0.61 78393
Setting atom values ...
  2454 settings made for type/fraction
mass 1 1.0
mass 2 1.0
pair_style lj/cut  3.5
pair_modify tail  yes
pair_coeff 1  1  1.0  1.0   # Intearaction between 1 and 1 set with epsilon = 1 and sigma = 1
pair_coeff 1  2  1.5  0.8
pair_coeff 2  2  0.5  0.88

write_data data.0
System init for write_data ...
Neighbor list info ...
  update every 1 steps, delay 10 steps, check yes
  max neighbors/atom: 2000, page size: 100000
  master list distance cutoff = 3.8
  ghost atom cutoff = 3.8
  binsize = 1.9, bins = 9 9 9
  1 neighbor lists, perpetual/occasional/extra = 1 0 0
  (1) pair lj/cut, perpetual
      attributes: half, newton on
      pair build: half/bin/atomonly/newton
      stencil: half/bin/3d
      bin: standard
WARNING: Not all mixed pair coeffs generated from mixing. Use write_data with 'pair ij' option to store all pair coeffs. (../write_data.cpp:312)


#############################
#   M E L T   S Y S T E M   #
#############################

velocity all create 2.4 9580093 mom yes dist gaussian # Assign velocities
                                                    # Temperature 2.4, random number seed, zero linear momentum
                                                                                # Gaussian distribution

timestep 0.002   # simulation timestep
thermo 1000       # output thermodynamic data every 1000 steps bf 100

# Define a fix  in this case with index 1 applied to all
# particles in the simulation. This fix is for simulations
# in the anisotropic NPT ensemble. Note that we use the MTK
# correction.
fix 1 all npt temp 2.4 2.4 0.1 iso 5.68 5.68 0.5 mtk yes tchain 5 pchain 5 # Use NPT ensemble
                                                                         # Set temperature and pressure and damping
                                                                         # Numbers of thermostats in chain and in barostat
run 10000          # run for 10000 steps
Per MPI rank memory allocation (min/avg/max) = 3.642 | 3.644 | 3.648 Mbytes
Step Temp E_pair E_mol TotEng Press Volume 
       0          2.4   -4.6675525            0   -1.0684525   -4.0420614         4000 
    1000    2.3811995   -4.4270805            0  -0.85617421    5.6206144    3603.8299 
    2000    2.3756362   -4.4215636            0  -0.85900016    5.9406595    3588.9492 
    3000     2.394692   -4.3978908            0  -0.80675076     5.639739    3628.4632 
    4000    2.4365518   -4.4095118            0  -0.75559791    5.6723689    3612.3276 
    5000    2.3442333   -4.4062495            0  -0.89077871    5.3281674    3637.3029 
    6000    2.3755482   -4.3875161            0  -0.82508463    5.9134134    3601.4202 
    7000    2.3946485   -4.4342345            0  -0.84315975    5.1053521    3648.8714 
    8000    2.4219489   -4.3976105            0  -0.76559536     5.690292    3621.5162 
    9000    2.3389758    -4.350695            0  -0.84310848    5.3542413    3666.0071 
   10000    2.4072594   -4.4517731            0  -0.84178665    5.7614581    3574.6067 
Loop time of 2.83216 on 48 procs for 10000 steps with 4000 atoms

Performance: 610134.701 tau/day, 3530.872 timesteps/s
99.5% CPU use with 48 MPI tasks x no OpenMP threads

MPI task timing breakdown:
Section |  min time  |  avg time  |  max time  |%varavg| %total
---------------------------------------------------------------
Pair    | 1.2039     | 1.2708     | 1.386      |   2.9 | 44.87
Neigh   | 0.21449    | 0.22275    | 0.23731    |   0.8 |  7.87
Comm    | 0.8734     | 0.98281    | 1.0868     |   3.8 | 34.70
Output  | 0.00024833 | 0.00026019 | 0.00056774 |   0.0 |  0.01
Modify  | 0.29891    | 0.33999    | 0.39368    |   4.4 | 12.00
Other   |            | 0.01558    |            |       |  0.55

Nlocal:        83.3333 ave          93 max          76 min
Histogram: 5 4 7 5 9 3 6 6 2 1
Nghost:        1770.35 ave        1798 max        1742 min
Histogram: 3 2 6 7 6 5 7 5 3 4
Neighs:        10674.3 ave       12307 max        9431 min
Histogram: 4 6 3 9 7 5 10 3 0 1

Total # of neighbors = 512367
Ave neighs/atom = 128.09175
Neighbor list builds = 902
Dangerous builds = 192

# Equilibrate just above the melting temperature to avoid step fn in T

fix 1 all npt temp 1.25 1.25 0.1 iso 5.68 5.68 0.5 mtk yes tchain 5 pchain 5
run 2000
Per MPI rank memory allocation (min/avg/max) = 3.644 | 3.646 | 3.650 Mbytes
Step Temp E_pair E_mol TotEng Press Volume 
   10000    2.4072594   -4.4517731            0  -0.84178665    5.7614581    3574.6067 
   11000    1.2496772   -6.4538632            0    -4.579816    5.7138025    2767.3748 
   12000    1.2351076   -6.5051357            0   -4.6529375    5.8358607    2747.7552 
Loop time of 0.675766 on 48 procs for 2000 steps with 4000 atoms

Performance: 511419.333 tau/day, 2959.603 timesteps/s
99.7% CPU use with 48 MPI tasks x no OpenMP threads

MPI task timing breakdown:
Section |  min time  |  avg time  |  max time  |%varavg| %total
---------------------------------------------------------------
Pair    | 0.29384    | 0.32417    | 0.40014    |   2.7 | 47.97
Neigh   | 0.04054    | 0.0434     | 0.051356   |   0.7 |  6.42
Comm    | 0.17984    | 0.25958    | 0.29786    |   3.3 | 38.41
Output  | 5.1036e-05 | 5.4819e-05 | 0.00017002 |   0.0 |  0.01
Modify  | 0.037177   | 0.043591   | 0.05028    |   2.0 |  6.45
Other   |            | 0.004969   |            |       |  0.74

Nlocal:        83.3333 ave          90 max          77 min
Histogram: 3 3 1 10 8 6 8 6 2 1
Nghost:        2118.62 ave        2140 max        2104 min
Histogram: 1 4 12 10 4 9 5 2 0 1
Neighs:        13894.8 ave       15615 max       12132 min
Histogram: 3 0 3 7 10 12 6 3 2 2

Total # of neighbors = 666950
Ave neighs/atom = 166.73750
Neighbor list builds = 142
Dangerous builds = 7

#############################
# L I N E A R  Q U E N C H  #
#############################

# Define solid atoms. This closely follows ten Wolde  Ruiz-Montero and Frenkel  Faraday Discuss  1996  104  93-110
# Compute components of the per-atom q6 vector
compute q6 all orientorder/atom degrees 1 6 components 6 nnn NULL cutoff 1.3 # compute the Q6 parameter.
                                                                             # Use all neighbours within 1.3 unit cell.

# get number of connections
compute coord_number all coord/atom orientorder q6 0.5

# An atom is solid if it has 8 or more connections (of a possible 14)
variable is_solid atom c_coord_number>=8
group solid dynamic all var is_solid    # Must be dynamic to update
dynamic group solid defined

# do clustering
compute cluster solid cluster/atom 1.3 # Create a cluster where all atoms within are solid and max 1.3 units from another member

# define chunks one chunk per cluster
compute clus_chunks solid chunk/atom c_cluster nchunk every compress yes  # Says which atoms are in which chunk

# count the size of each chunk
compute size_chunks solid property/chunk clus_chunks count


# Find the maximum entry in the vector of chunk sizes
variable max_n equal max(c_size_chunks)


# Thermo style which includes this variable
# thermo_style custom step temp pe vol v_max_n

thermo ${N}  # Print the thermo information every 100 steps
thermo 1000  

# Reset the npt fix at a lower temperature (below freezing)
fix 1  all npt temp  ${temp} ${temp}  0.1  iso  5.68  5.68  0.5  mtk yes tchain  5  pchain  5
fix 1  all npt temp  0.45 ${temp}  0.1  iso  5.68  5.68  0.5  mtk yes tchain  5  pchain  5
fix 1  all npt temp  0.45 0.45  0.1  iso  5.68  5.68  0.5  mtk yes tchain  5  pchain  5

dump dmp2 all dcd ${N} traj.dcd
dump dmp2 all dcd 1000 traj.dcd


compute msd all msd com yes
variable twopoint equal c_msd[4]/6/(step*dt+1.0e-6)
fix 9 all vector 10 c_msd[4]
variable fit equal slope(f_9)/6/(10*dt)
thermo_style custom step temp pe c_msd[4] v_twopoint v_fit v_max_n

fix 1 all npt temp 1.25 ${temp} 0.1 iso 5.68 5.68 0.5 mtk yes tchain 5 pchain 5
fix 1 all npt temp 1.25 0.45 0.1 iso 5.68 5.68 0.5 mtk yes tchain 5 pchain 5
run 2000000 # 5000000  # Run for this many steps
Neighbor list info ...
  update every 1 steps, delay 10 steps, check yes
  max neighbors/atom: 2000, page size: 100000
  master list distance cutoff = 3.8
  ghost atom cutoff = 3.8
  binsize = 1.9, bins = 8 8 8
  4 neighbor lists, perpetual/occasional/extra = 1 3 0
  (1) pair lj/cut, perpetual
      attributes: half, newton on
      pair build: half/bin/atomonly/newton
      stencil: half/bin/3d
      bin: standard
  (2) compute orientorder/atom, occasional
      attributes: full, newton on
      pair build: full/bin/atomonly
      stencil: full/bin/3d
      bin: standard
  (3) compute coord/atom, occasional
      attributes: full, newton on
      pair build: full/bin/atomonly
      stencil: full/bin/3d
      bin: standard
  (4) compute cluster/atom, occasional
      attributes: full, newton on
      pair build: full/bin/atomonly
      stencil: full/bin/3d
      bin: standard
Per MPI rank memory allocation (min/avg/max) = 9.847 | 9.853 | 9.856 Mbytes
Step Temp PotEng c_msd[4] v_twopoint v_fit v_max_n 
   12000    1.2351076   -6.5051357            0            0 8.3333333e+20            1 
   13000    1.2429304   -6.5724744   0.51345501 0.0032913781  0.042406829            1 
   14000    1.2511757   -6.5378409   0.98078473 0.0058380042  0.039628434            5 
   15000    1.2441292   -6.6416188    1.4125668 0.0078475933  0.039003635            2 
   16000     1.265373   -6.5591318    1.8979368 0.0098850871  0.038614674            2 
   17000    1.2471356   -6.5318685    2.4110203  0.011818727  0.039070466            1 
   18000    1.2333316   -6.5381211    2.8360087   0.01312967  0.039301672            3 
   19000    1.2294921    -6.543499    3.2671529  0.014329618  0.038924166            2 
   20000    1.2352918    -6.572761    3.7072262  0.015446775  0.038602916            2 
   21000    1.2297682    -6.582298     4.216734  0.016733071  0.038533057            3 
   22000    1.2349266   -6.5074577    4.7175437  0.017869483  0.038676339            6 
   23000    1.2605886   -6.6126548    5.1879815  0.018797034  0.038846994            4 
   24000    1.2553741   -6.5396354    5.6391836  0.019580498  0.038893703            3 
   25000    1.2558082   -6.5421704    6.1295642   0.02043188   0.03897656            2 
   26000    1.2225981   -6.5317513     6.598419  0.021148778  0.039017438            2 
   27000     1.240858   -6.6077772    7.0388803  0.021724939  0.039056471            2 
   28000    1.2428885   -6.5981988    7.3683113  0.021929497   0.03894763            2 
   29000    1.2374255   -6.5857424    7.8173579  0.022463672   0.03876267            3 
   30000    1.2536942   -6.5387773    8.2304491  0.022862358  0.038531112            6 
   31000    1.2419234   -6.5691651    8.5752584   0.02305177  0.038235715            2 
   32000    1.2257114   -6.5428803     9.080284  0.023646572  0.037962492            4 
   33000    1.2167198   -6.5224724     9.435127  0.023826078  0.037770759            2 
   34000    1.2711029   -6.5527274    9.9279688  0.024333256  0.037591019            2 
   35000    1.2495872   -6.5906011    10.292232  0.024505313    0.0374309            3 
   36000    1.2422585   -6.5813845    10.728882  0.024835375  0.037294498            5 
   37000    1.2355004   -6.5944096    11.125063  0.025056447  0.037172241            4 
   38000    1.2401524    -6.590397    11.453121  0.025116494  0.036998542            3 
   39000    1.2396045    -6.590817    11.891935  0.025410117  0.036806311            3 
   40000    1.2302607   -6.5836196    12.201752  0.025420317  0.036589901            3 
   41000    1.2376971   -6.5538698    12.523379  0.025454022  0.036338197            4 
   42000    1.2077527   -6.5815672    13.064346  0.025921321  0.036152023            2 
   43000    1.2380656   -6.5632067    13.605512  0.026367271  0.036050904            1 
   44000    1.2076858   -6.6203348    14.032921  0.026577502  0.036000894            2 
   45000    1.2343123   -6.5841405    14.488419  0.026830405   0.03598694            5 
   46000    1.2339744   -6.6032256    14.965945  0.027112218  0.035973253            4 
   47000    1.2116478   -6.5282454    15.530147  0.027535722  0.036004663            2 
   48000    1.2303397   -6.6031936    15.820359  0.027465901  0.036007563            2 
   49000    1.2205845    -6.605767    16.238163  0.027615923  0.035995788            3 
   50000    1.2062407   -6.6011911    16.712098  0.027853497  0.035987731            2 
   51000    1.2343305   -6.6008444     17.19564  0.028097451  0.035994622            4 
   52000    1.2065689   -6.6205359    17.548205  0.028122123  0.035995928            2 
   53000    1.2196117   -6.5765518    17.920594  0.028177035  0.035984598            2 
   54000    1.2085161   -6.6108539    18.376712  0.028359123  0.035965954            3 
   55000    1.2821442   -6.5505487    18.838533  0.028543231  0.035948094            2 
   56000    1.2561534   -6.6017804    19.132452   0.02847091  0.035937787            2 
   57000     1.239575   -6.5999507    19.651166  0.028729775  0.035909171            2 
   58000    1.2291865   -6.6222092    20.112396   0.02889712  0.035903567            3 
   59000    1.2385617   -6.6079266    20.460846  0.028899499  0.035887325            3 
   60000    1.2156679   -6.6688317    20.827941  0.028927695  0.035869167            2 
   61000    1.2396774   -6.5993139    21.325592  0.029133323  0.035853154            1 
   62000    1.2265231   -6.5543591    21.797574  0.029297814  0.035843338            2 
   63000    1.2258734   -6.5905595    22.301696  0.029499597  0.035836963            3 
   64000    1.2328076   -6.6320284    22.664854  0.029511529   0.03583911            7 
   65000    1.2313589   -6.6536842    22.992189  0.029477165  0.035834579            3 
   66000    1.1905062   -6.6179115    23.397434  0.029542214  0.035822386            2 
   67000    1.2372892   -6.6250859    23.823831  0.029631631  0.035812277            1 
   68000    1.2099723   -6.5739089    24.403409  0.029906138  0.035815195            1 
   69000    1.2190316    -6.625403    24.781074  0.029928833  0.035812521            3 
   70000    1.2202566   -6.6187605    25.344255  0.030171732  0.035825158            3 
   71000    1.2041935   -6.6078551    25.952193   0.03046032  0.035851565            2 
   72000    1.2301331   -6.5909721    26.330666  0.030475308  0.035879744            2 
   73000    1.2488243   -6.5746282     26.65996  0.030433744  0.035887882            4 
   74000    1.1902788   -6.5953099    26.815982  0.030198177  0.035871465            2 
   75000    1.2181635   -6.6163826    27.207915  0.030231017    0.0358517            3 
   76000     1.229221   -6.6467573    27.630515  0.030296617  0.035827836            4 
   77000    1.2157284   -6.6257489    28.036786  0.030342842  0.035811395            8 
   78000    1.2030399   -6.5987364    28.437548  0.030381995  0.035789898            1 
   79000    1.2194968   -6.5829558    29.075658  0.030670525  0.035770045            3 
   80000    1.1992786   -6.6270966    29.230074  0.030447993  0.035742152            3 
   81000    1.2027498   -6.6397599    29.645675  0.030499665  0.035717342            3 
   82000    1.2029913   -6.5775138    30.326814  0.030819933  0.035705531            3 
   83000    1.2762951   -6.6493776    30.639123  0.030762172  0.035698567            2 
   84000    1.2263417   -6.6356711    31.158722   0.03091143  0.035696513            4 
   85000    1.2103432   -6.6371512    31.727386   0.03110528  0.035703348            1 
   86000    1.2123443   -6.6010887     32.21553  0.031216598  0.035713409            3 
   87000    1.2138489   -6.6288596    32.751235  0.031370915  0.035736179            2 
   88000    1.2106088    -6.616792    33.283311  0.031518287  0.035765178            3 
   89000    1.2398882   -6.6407982    33.802199  0.031649999   0.03579978            2 
   90000    1.2342084    -6.614962    34.304637  0.031763552  0.035833604            2 
   91000    1.2034696   -6.6190693    34.661383  0.031741193  0.035863601            3 
   92000     1.219468   -6.6526444    34.921537  0.031631826  0.035891447            1 
   93000    1.2162113   -6.6340547    35.518152  0.031826301  0.035917737            2 
   94000      1.21079   -6.6664672      35.9654   0.03188422  0.035928222            1 
   95000    1.2218644   -6.6075237    36.220457   0.03177233  0.035936321            3 
   96000    1.2236188   -6.6543541    36.731648  0.031885111  0.035949718            2 
   97000    1.2153913   -6.6273998    37.019931  0.031804064  0.035957329            3 
   98000     1.212744   -6.6769517    37.333508   0.03174618  0.035960532            3 
   99000     1.205954   -6.6556595    37.755783  0.031780962  0.035958713            3 
  100000    1.2039298   -6.6272736    38.131887  0.031776572  0.035948241            5 
  101000    1.2011777   -6.6306276    38.326213  0.031622288  0.035936683            3 
  102000    1.2098118   -6.7050401    38.490976  0.031446876  0.035914343            3 
  103000    1.2197272   -6.6670133    39.039507  0.031585361  0.035889223            2 
  104000    1.2171181   -6.6229772    39.432036  0.031596183  0.035866945            2 
  105000    1.2019181   -6.6456971    39.834484   0.03161467  0.035841719            5 
  106000      1.21385   -6.6216504    40.363285  0.031732142  0.035816169            1 
  107000    1.2013786   -6.6460093    40.759224  0.031743944  0.035795908            3 
  108000    1.2083934   -6.6600317    41.267438  0.031842159  0.035781554            1 
  109000    1.2521161    -6.617352    41.663461  0.031852799   0.03576189            3 
  110000    1.2065823   -6.6513915    42.034233  0.031844116  0.035748721            2 
  111000    1.1918863   -6.6454791    42.591802  0.031975827  0.035732932            3 
  112000    1.1879193   -6.6308096    43.036012  0.032020842  0.035713206            2 
  113000    1.2200835   -6.6085203    43.372662  0.031985739  0.035691766            2 
  114000    1.2106021    -6.609796    43.802915  0.032019675  0.035676778            3 
  115000    1.2234063   -6.6192616      44.2753   0.03208355  0.035663626            1 
  116000    1.2109651   -6.6065631     44.64538   0.03207283  0.035652298            1 
  117000     1.185361   -6.6667264    44.965443  0.032026669  0.035637742            2 
  118000    1.2024087   -6.6430296    45.402692  0.032064048  0.035621179            3 
  119000    1.1964968   -6.6426348    45.714762  0.032013139  0.035608427            3 
  120000    1.2256987   -6.6826408    45.809256  0.031811983  0.035585234            1 
  121000    1.2347737   -6.6413924    46.483558   0.03201347  0.035564941            4 
  122000    1.2027938   -6.6753242    47.040613  0.032131566  0.035550893            2 
  123000    1.1944742   -6.6739466    47.191403  0.031972495  0.035532035            1 
  124000    1.1919835   -6.6867415    47.660977  0.032030226  0.035512692            3 
  125000    1.2193881   -6.6830121    48.394294  0.032262862  0.035495056            2 
  126000    1.1913124   -6.6576014    48.760099  0.032248743  0.035487051            1 
  127000    1.2257877    -6.640141    49.003553  0.032154562  0.035479643            3 
  128000    1.1916739   -6.6475273    49.531173  0.032246858  0.035468431            2 
  129000    1.1984304   -6.6361623    50.210832  0.032435938  0.035454723            2 
  130000    1.1840872   -6.6659773    50.348201  0.032274488  0.035442099            2 
  131000    1.2013954   -6.7264644    50.611787  0.032195793  0.035426857            3 
  132000    1.2384312    -6.669155    50.960514  0.032172041  0.035412163            3 
  133000    1.1939092   -6.6985145     51.18952  0.032073634  0.035393545            3 
  134000    1.2035594    -6.662935    51.918841  0.032287836  0.035377571            3 
  135000    1.1943951    -6.688967    52.127779  0.032177641  0.035362016            3 
  136000    1.2077019   -6.6770631    52.800556  0.032353282   0.03534442            2 
  137000    1.1928082   -6.6407692     53.17807  0.032346758   0.03532923            4 
  138000    1.2079205   -6.7013507    53.549439  0.032336617  0.035318605            2 
  139000    1.2171395   -6.6989651    53.814513  0.032262897  0.035304215            4 
  140000     1.212317    -6.663299    54.328579   0.03233844  0.035287847            4 
  141000    1.1806442   -6.7127913    54.749334  0.032357763   0.03527276            2 
  142000    1.1769852   -6.6680004    55.107484  0.032340072  0.035256931            4 
  143000    1.1747419   -6.6649839    55.479837  0.032330907  0.035244158            4 
  144000    1.2222707   -6.6493818    55.942221  0.032373971  0.035233481            2 
  145000    1.2243338   -6.6431193    56.438078  0.032435677  0.035223428            2 
  146000    1.2086702   -6.6803065    56.512673  0.032256092  0.035207811            2 
  147000    1.2122708   -6.7202166    57.211995  0.032433103  0.035190505            6 
  148000    1.2324147   -6.7020085    57.946191   0.03262736  0.035182361            3 
  149000    1.2151535   -6.6561051    58.193575  0.032546742  0.035177391            2 
  150000    1.1960496   -6.6849918    58.515541  0.032508634  0.035169277            3 
  151000    1.1854622   -6.7253403    58.993044  0.032556867  0.035160195            3 
  152000    1.1820314   -6.6664136    58.974164  0.032332327  0.035147428            4 
  153000    1.1983331   -6.6907765    59.357681  0.032329891  0.035128968            5 
  154000    1.1893009   -6.6686404    59.851522  0.032387187  0.035106439            1 
  155000    1.1792202   -6.6476813    60.316651  0.032428307  0.035087404            3 
  156000    1.1771969   -6.6702732    60.621048  0.032383038  0.035068153            3 
  157000    1.1947341   -6.6797247    60.871199  0.032309553  0.035048508            2 
  158000    1.2163671   -6.6705669    61.225677  0.032292023  0.035026242            2 
  159000    1.1939044     -6.67905    61.492359    0.0322287  0.035002285            2 
  160000    1.1933726   -6.6927018    61.703996  0.032137498  0.034977612            8 
  161000    1.1988594   -6.6948004    61.877867  0.032027881  0.034949239            4 
  162000    1.1759145   -6.7017545     62.54633  0.032174038  0.034919946            3 
  163000    1.1896491   -6.6828109    62.691222  0.032050727  0.034892335            1 
  164000      1.18716   -6.7107874    63.191582  0.032109543  0.034865555            2 
  165000    1.1764341   -6.6833653    63.658474  0.032150744  0.034838109            3 
  166000     1.191268   -6.7142472    64.047292  0.032152255  0.034811776            3 
  167000    1.1880713   -6.6993067    64.455732  0.032163539  0.034783545            3 
  168000    1.2005294   -6.6873346    64.623538  0.032055326  0.034758235            1 
  169000    1.1636895   -6.7600069    64.691897  0.031899357  0.034730139            2 
  170000    1.1801082   -6.7088791    65.325623  0.032022364  0.034702252            3 
  171000    1.1714747   -6.7228302    65.705917  0.032020427  0.034675634            7 
  172000    1.1987359   -6.6888621    66.253078   0.03209936  0.034651319            2 
  173000    1.1817345   -6.7080695     66.55764   0.03206052  0.034625922            2 
  174000    1.1676513    -6.719646    66.717118  0.031952643  0.034599226            3 
  175000    1.1990151   -6.7501399    67.032236  0.031920112  0.034570237            2 
  176000     1.172472   -6.6923551    67.232038  0.031833351  0.034538978            2 
  177000    1.1775516   -6.7057893    67.563431  0.031809525  0.034507963            2 
  178000    1.2042374   -6.7171925    67.636896  0.031665213   0.03447298            3 
  179000    1.1769567   -6.7319408    68.328615  0.031810342   0.03443755            2 
  180000    1.1911435   -6.7329517    68.526917  0.031725425  0.034405701            4 
  181000    1.1647235   -6.7546796    68.775744  0.031664707  0.034370171            1 
  182000    1.2052064   -6.7375673    69.365172   0.03176061  0.034338682            3 
  183000    1.1669755   -6.7441092    69.867803  0.031815939  0.034309117            3 
  184000    1.1878607   -6.7445623    69.995687  0.031700945  0.034279165            6 
  185000    1.1744097   -6.7455818    70.406018  0.031714423  0.034249564            3 
  186000    1.2087633   -6.7062694    70.655403  0.031655646    0.0342181            3 
  187000    1.1955461   -6.7401515    70.943341  0.031614679  0.034183669            2 
  188000    1.1975748   -6.7200891    71.174697  0.031549068  0.034148037            3 
  189000    1.1824253    -6.724161    71.548208  0.031546829  0.034114254            7 
  190000    1.1677923   -6.7452363    72.061482  0.031605913  0.034079761            2 
  191000    1.1994266   -6.7104793    72.500659   0.03163205  0.034046969            2 
  192000    1.1692766   -6.7523352     72.68777  0.031548511  0.034013588            3 
  193000    1.1772599    -6.731515    72.892908  0.031473622  0.033978706            3 
  194000    1.1878459   -6.7521423    73.439988  0.031546386   0.03394406            4 
  195000    1.1882239   -6.7327085     73.72477  0.031506312  0.033910589            2 
  196000    1.1645205   -6.7712723    74.073738  0.031493936  0.033879549            2 
  197000    1.2164997   -6.7513748    74.446926  0.031491931  0.033848373            2 
  198000    1.1815628   -6.7716111    74.392955  0.031310166  0.033817142            2 
  199000     1.183925   -6.8017032    74.734442   0.03129583  0.033784337            1 
  200000    1.1721298   -6.7394117    75.370146  0.031404227  0.033750558            5 
  201000    1.1651067   -6.7324893    75.740715  0.031401623  0.033717475            5 
  202000    1.1702257   -6.7408466    76.249157  0.031455923   0.03368452            3 
  203000    1.1619364   -6.7514528    76.523045  0.031413401  0.033652369            2 
  204000    1.1654771   -6.8109386    76.679565  0.031323352  0.033621135            3 
  205000    1.1746981   -6.7328881    77.692505  0.031582319  0.033590579            2 
  206000     1.185342   -6.7583866    77.618037  0.031398882  0.033560393            3 
  207000    1.1547262   -6.7195529    78.017227  0.031407901  0.033530937            3 
  208000      1.15961   -6.7230475    78.506136  0.031452779  0.033502222            3 
  209000    1.1658787   -6.7128851    78.693307  0.031376917  0.033475125            2 
  210000    1.1553244   -6.7472822    79.042803  0.031366191  0.033445262            6 
  211000     1.161777   -6.7283574    79.372334  0.031347683  0.033416662            3 
  212000    1.1512489   -6.7443988    79.803142   0.03136916  0.033389364            2 
  213000    1.2053356   -6.7312326    80.338158  0.031431204  0.033363599            1 
  214000    1.1728051   -6.7683362    80.478724  0.031339067  0.033336173            4 
  215000    1.1573868   -6.8047403    80.752334  0.031299354  0.033309572            4 
  216000    1.1582732   -6.7724341    81.136271  0.031302574  0.033283565            3 
  217000    1.1737204    -6.755203    81.349613  0.031240251  0.033256764            3 
  218000    1.1562917   -6.7537725    81.893738  0.031304946   0.03322948            2 
  219000    1.1774549   -6.7521471    82.348642    0.0313351  0.033203234            5 
  220000    1.1638643   -6.7177166    82.531968  0.031262109  0.033178804            3 
  221000    1.1564644   -6.7154763    82.502035  0.031109365  0.033150363            3 
  222000    1.1728228   -6.8101248    82.657698  0.031027664  0.033119345            5 
  223000    1.1462428   -6.7961751    83.069363  0.031042363  0.033090087            5 
  224000     1.149498   -6.8177958    83.087384  0.030910485  0.033059175            2 
  225000    1.1785911   -6.7617529    83.737141  0.031013756  0.033028325            2 
  226000    1.1583748   -6.7472013    84.463584  0.031144389  0.032999108            5 
  227000     1.175464   -6.7511514    84.617639  0.031063744  0.032970462            5 
  228000    1.1722969   -6.8054046    85.033527  0.031079506  0.032940978            5 
  229000    1.1734551   -6.7838182    85.481544  0.031106821  0.032912734            3 
  230000    1.1679571   -6.7411786    85.925087  0.031132278   0.03288544            2 
  231000    1.1854188   -6.7641152    86.125855  0.031069933  0.032859505            4 
  232000    1.1523961   -6.7746142    86.379308   0.03102705  0.032833096            2 
  233000    1.1522732   -6.7877584    87.285681  0.031218055  0.032808637            3 
  234000    1.1531185   -6.7647375    87.373392   0.03111588  0.032785777            5 
  235000    1.1526527   -6.7198873    87.715612  0.031104827  0.032760358            3 
  236000    1.1807835   -6.7882416    88.118542  0.031115304  0.032736693            5 
  237000    1.1702414   -6.8152553    88.164182  0.031000064  0.032712789            4 
  238000    1.1584017   -6.7711868    88.631539  0.031033452  0.032688797            6 
  239000    1.1716203   -6.7402306    89.079905  0.031059939   0.03266542            4 
  240000    1.1564198    -6.807459    89.174411  0.030963337  0.032640949            4 
  241000    1.1538933   -6.7631814    89.702314  0.031017397   0.03261773            3 
  242000    1.1483487   -6.7782738    89.938382  0.030970517  0.032593219            2 
  243000    1.1882309    -6.810316    90.088538   0.03089456  0.032567127            3 
  244000    1.1441506   -6.7799815    90.370398  0.030864207  0.032542603            3 
  245000    1.1489445   -6.7516843    90.616158  0.030821822  0.032516577            2 
  246000    1.1587947   -6.8282574     90.82938   0.03076876  0.032491774            2 
  247000    1.1468892   -6.7767347     91.60014  0.030904231  0.032467442            3 
  248000    1.1593771   -6.7657415    92.370699  0.031038541  0.032445035            2 
  249000    1.1620836   -6.7444625    92.644987  0.031005685  0.032424075            2 
  250000    1.1445847   -6.7965343    92.718757  0.030906252  0.032402848            3 
  251000    1.1679585   -6.7978141    92.890419  0.030840112  0.032379876            4 
  252000    1.1753884   -6.7846832    93.439538  0.030899318  0.032357393            3 
  253000     1.173574   -6.8053543    93.525717  0.030805572  0.032335549            2 
  254000    1.1514088   -6.8223476    93.835689  0.030785987  0.032312456            3 
  255000    1.1638053   -6.7549687    94.646068  0.030930088  0.032291109            3 
  256000    1.1487407   -6.7378387    94.756571  0.030845238  0.032271016            2 
  257000    1.1642436   -6.7910441    95.124555  0.030844538  0.032249008            8 
  258000    1.1578827   -6.8215967    95.446441  0.030828954  0.032227714            3 
  259000    1.1628564   -6.8215481    95.678886  0.030784712  0.032204647            4 
  260000    1.1556742   -6.7916768     96.09102  0.030798404  0.032183144            2 
  261000    1.1633102   -6.7937007    96.328107  0.030756101  0.032161549            3 
  262000      1.14946   -6.8114046    96.221253  0.030604724  0.032139116            2 
  263000    1.1380003   -6.7577083    97.129591   0.03077617  0.032115868            2 
  264000    1.1727595   -6.7904129      97.2565  0.030699653  0.032094388            4 
  265000    1.1467334   -6.8242281     97.29728  0.030596629  0.032071913           13 
  266000    1.1525634   -6.8138249     97.91383  0.030674759  0.032049733            4 
  267000    1.1513074   -6.8063455    98.676878  0.030798027  0.032028306            5 
  268000    1.1431787   -6.7732111    98.567427  0.030649075  0.032006289            3 
  269000    1.1556538   -6.7801331    99.282178  0.030756561  0.031987161            2 
  270000    1.1339824   -6.8163865     99.42676  0.030687271  0.031967203            2 
  271000    1.1443241   -6.8063639    99.903104  0.030720512  0.031948731            3 
  272000    1.1470715   -6.8385686    100.11216  0.030671618  0.031929948            2 
  273000    1.1469117   -6.8148169    100.98634  0.030826111   0.03191125            2 
  274000    1.1468073   -6.8079664    101.19082  0.030775796   0.03189336            2 
  275000    1.1599478   -6.8381495     101.7791  0.030842151   0.03187563            3 
  276000    1.1448614   -6.8399102    101.32846  0.030594341  0.031857266            2 
  277000     1.154308   -6.8059223    101.80591   0.03062753  0.031837883            6 
  278000    1.1567916   -6.8535942    102.35024  0.030680526  0.031818267            3 
  279000     1.119333   -6.8323746    102.29998  0.030555551  0.031798126            2 
  280000    1.1349219   -6.8062925    102.97593  0.030647599  0.031778657            3 
  281000    1.1631338   -6.8320596    102.93049  0.030525055  0.031758806            6 
  282000    1.1557636   -6.8550659    102.92024  0.030413782  0.031737439            4 
  283000    1.1628953   -6.8717155    103.24475  0.030401871  0.031715281            4 
  284000    1.1246671   -6.7898895    103.96625  0.030506528  0.031694173            2 
  285000    1.1132559   -6.8260491    103.92511   0.03038746  0.031672738            2 
  286000    1.1334435   -6.8453801    104.52378  0.030455646   0.03165062            3 
  287000    1.1592832    -6.901719     104.2729  0.030276684  0.031628334            4 
  288000    1.1277195   -6.8327514    104.69941  0.030294968  0.031606077            2 
  289000    1.1320017   -6.8609888    105.34975  0.030377668  0.031584158            2 
  290000    1.1090154   -6.7903395     105.6302  0.030353505  0.031561266            3 
  291000    1.1599227   -6.8190715     105.9595    0.0303435  0.031539479            2 
  292000    1.1541107   -6.8162861     106.3738  0.030357819  0.031518247            2 
  293000    1.1553296   -6.8351135    106.36677  0.030252208  0.031498483            3 
  294000    1.1340254   -6.8671556    106.81228   0.03027559  0.031477919            3 
  295000    1.1457937   -6.8380661    107.31685  0.030315494  0.031456338            2 
  296000    1.1428867   -6.8325314    107.61101  0.030295891  0.031435702            3 
  297000    1.1172997   -6.8304241    108.04344  0.030315219   0.03141539            5 
  298000    1.1368075   -6.8610056    107.83243  0.030154483   0.03139595            2 
  299000    1.1065128   -6.8670771    108.21745   0.03016094  0.031375041            5 
  300000     1.141978   -6.8338028    108.57041  0.030158447  0.031352985            3 
  301000    1.1056503   -6.8514525    108.84336   0.03013382  0.031330807            3 
  302000    1.1363611   -6.8314125    109.25052  0.030146391  0.031309453            5 
  303000    1.1577904   -6.8306389    109.35994   0.03007699  0.031287614            2 
  304000    1.1341846    -6.860124    109.60037   0.03004396  0.031266208            2 
  305000    1.1412284   -6.8790045    110.05615  0.030069987  0.031245066            3 
  306000    1.1204254   -6.9007734    110.15323  0.029998157  0.031223298            4 
  307000    1.1088887   -6.8710545    110.86665  0.030094096  0.031202207            1 
  308000    1.1241178   -6.8375737    111.21954  0.030091866  0.031182473            4 
  309000    1.1225117   -6.8497559    111.42013   0.03004858  0.031162362            4 
  310000    1.1273963   -6.8832924    111.87641  0.030074303  0.031141891            2 
  311000    1.1201141   -6.8921546    111.86851  0.029975485  0.031120508            3 
  312000    1.1289752   -6.8860561    112.06485  0.029931851  0.031098582            5 
  313000    1.1021439   -6.8442822    112.79236  0.030029914  0.031077127            5 
  314000     1.140041    -6.880924     112.5881   0.02988007  0.031055766            3 
  315000    1.1507192   -6.8592197    113.30239  0.029974177  0.031035556            3 
  316000    1.1380965   -6.8390868    114.01921  0.030068358  0.031016072            4 
  317000    1.0943484   -6.8655098    114.20949  0.030023525  0.030997095            4 
  318000    1.1182208   -6.8638616     114.2748  0.029946226  0.030978108            7 
  319000    1.1289567   -6.8792574    114.47912  0.029905727  0.030958934            4 
  320000    1.1374646   -6.8859692     115.3162   0.03003026  0.030940144            2 
  321000    1.1460528   -6.8890778    115.18604  0.029902917  0.030922307            3 
  322000    1.1263805   -6.8790731    115.73358  0.029951755  0.030903383            3 
  323000    1.1433229   -6.9026075    115.70203  0.029850884  0.030883841            4 
  324000     1.101674   -6.8235925    116.28944  0.029909835   0.03086392            4 
  325000     1.105348   -6.8452605    116.59274  0.029895574  0.030843492            3 
  326000    1.1097804   -6.8730598    116.89539  0.029881236  0.030823324            2 
  327000    1.1213923   -6.8259594    117.19892  0.029867207   0.03080449            3 
  328000    1.1276732   -6.8458619    117.35674  0.029816244  0.030785077            1 
  329000    1.1264588   -6.8759455    117.52976  0.029769444  0.030764752            2 
  330000     1.093359   -6.8996997    117.79667  0.029746634  0.030745099            6 
  331000    1.1247472   -6.9281246    117.71474  0.029636138  0.030724401            4 
  332000    1.1176067   -6.8823372    118.44468   0.02973009  0.030704433            5 
  333000    1.1496052   -6.8771992    118.63993  0.029689671  0.030684617            4 
  334000    1.1280514   -6.9038155     119.0245  0.029696731  0.030664313            2 
  335000    1.1411923   -6.8858273    118.92034  0.029582173  0.030643574            3 
  336000    1.1161509   -6.8823809    119.05453  0.029527414  0.030622058            2 
  337000    1.1287015   -6.8767582    119.54972  0.029562246  0.030601328            9 
  338000    1.1016315   -6.9323542      119.933  0.029569281  0.030580587            6 
  339000    1.1230341   -6.9136569     120.2134  0.029550984  0.030560591           10 
  340000    1.1148436    -6.893179      120.831  0.029615441   0.03054033            2 
  341000    1.1120921   -6.8833106    120.79933  0.029520852  0.030520854            3 
  342000     1.108739   -6.8414553    121.25153   0.02954472  0.030500444            1 
  343000     1.121186   -6.8496187    121.92452   0.02962209  0.030480679            3 
  344000     1.123516   -6.8471825    122.48822  0.029672533  0.030461459            2 
  345000    1.0902771   -6.8996685    122.31591  0.029544906  0.030441665            2 
  346000    1.1106297   -6.8269532    123.13611  0.029657059  0.030422138            4 
  347000    1.1258476   -6.8850416    123.20663  0.029588528  0.030403539            4 
  348000    1.1119371   -6.9011867    123.36818   0.02954219  0.030384763            7 
  349000    1.1128504    -6.907548     123.4378  0.029474164  0.030365088            5 
  350000    1.1313438   -6.8949127    124.15474  0.029560653  0.030345545            5 
  351000      1.10599   -6.8876539    124.31752   0.02951508  0.030327333            2 
  352000    1.1291538   -6.8984392    124.33238  0.029434748  0.030307896            3 
  353000    1.1067679   -6.8736408    124.43635   0.02937591  0.030287777            7 
  354000    1.1126323   -6.8629682    125.15367  0.029461788  0.030269384            3 
  355000    1.0985857   -6.8664724    125.71714  0.029511066  0.030250904            2 
  356000    1.1036663   -6.9228741    125.21722  0.029311147  0.030232285            4 
  357000     1.104984   -6.9246618    126.24229  0.029468321   0.03021401            3 
  358000    1.0953582   -6.9136137    125.80171  0.029283453  0.030196003            4 
  359000    1.0995543   -6.9025355    126.91101  0.029459379  0.030177694            2 
  360000    1.0895122   -6.9397563    126.67212  0.029322249  0.030159634            3 
  361000    1.1017293   -6.9050189    126.82926    0.0292773  0.030141107            6 
  362000     1.124512   -6.9803734    126.71115  0.029169234  0.030121665            6 
  363000    1.0988981    -6.895063    127.51602  0.029273651  0.030101831            2 
  364000    1.0875275   -6.9187804    128.01495  0.029307451  0.030083218            3 
  365000    1.0988096   -6.8678888    128.26355  0.029283915  0.030064338            2 
  366000    1.0879365   -6.8966004    128.43138  0.029242117   0.03004576            3 
  367000    1.0800331   -6.9250065    128.80531  0.029247345  0.030027173            3 
  368000    1.1029539   -6.8805658    128.79926  0.029166498   0.03000752            3 
  369000    1.1151426   -6.9089231    129.22654  0.029183952  0.029988096            4 
  370000    1.0815157   -6.9316621    129.52402  0.029172078  0.029969616            4 
  371000    1.0828112    -6.894961    130.20183  0.029245694  0.029951271            5 
  372000    1.0883256   -6.9270359     130.4305  0.029218301  0.029933346            2 
  373000    1.0874274   -6.9356527    130.47865  0.029150725  0.029914929            5 
  374000    1.0991721   -6.9231732      130.926  0.029172459  0.029896853            2 
  375000    1.1142429   -6.8973507    131.33324  0.029185164  0.029878984            4 
  376000    1.1018001   -6.8665527    131.66777  0.029181686  0.029860567            1 
  377000    1.1179808   -6.8675737    131.40665  0.029046562  0.029841306            2 
  378000    1.0935842   -6.9073986    131.38514  0.028964979  0.029821488            4 
  379000    1.1000247   -6.9543594    131.29398  0.028868508  0.029800619            3 
  380000    1.0960599    -6.892105    132.16759   0.02898412  0.029780866            5 
  381000    1.1101856    -6.945984    131.83715  0.028835772  0.029760064            1 
  382000    1.0728854   -6.9207284    132.59083  0.028924701  0.029738584            5 
  383000    1.1124517    -6.879399    133.07052  0.028953551   0.02971815            4 
  384000    1.0989603   -6.8844129    133.49459   0.02897018  0.029698902            7 
  385000    1.0993433   -6.8989259    133.51507  0.028899365  0.029680215            3 
  386000    1.1144866   -6.9020349    133.61658  0.028846411  0.029660795            5 
  387000     1.097781   -6.9044283    134.13668  0.028883867  0.029641049            7 
  388000    1.0863325   -6.9443054    133.86032  0.028750069   0.02962104            6 
  389000    1.1229875   -6.9163706    134.75033  0.028866824  0.029601694            5 
  390000    1.0871093   -6.9086527    135.04337  0.028855421  0.029582422            6 
  391000     1.091767   -6.9405813    135.15133  0.028804631  0.029562912            2 
  392000    1.0932242   -6.9728711    135.36033  0.028775579  0.029543309            4 
  393000    1.1130124   -6.9402876    135.81367  0.028798489    0.0295236            2 
  394000    1.0895349   -6.9009003    136.86587  0.028947942  0.029505124            4 
  395000    1.1390184   -6.9462301    136.34588  0.028764953  0.029487234            3 
  396000    1.1185605   -6.9793355    136.38459  0.028700461  0.029468863            2 
  397000    1.0756238   -6.9825094    137.18114  0.028795369  0.029451162            4 
  398000    1.0932961   -6.9272072    137.95127   0.02888427   0.02943417            8 
  399000    1.0809034   -6.9478224    137.54849  0.028727755  0.029416739            1 
  400000    1.1079852   -6.9788118    137.80706  0.028709804  0.029398886            4 
  401000    1.1233474   -6.9727339    138.19949  0.028719761  0.029382132            5 
  402000    1.1289033   -6.9573169    139.04562  0.028823719  0.029365379            3 
  403000    1.1113772   -6.9605864    138.90252  0.028722605  0.029349332            2 
  404000    1.0958008   -6.9551355    139.17719  0.028708165  0.029332439            3 
  405000    1.0758013   -6.9522139    139.52718  0.028709296   0.02931553            2 
  406000    1.0975731   -6.9515789    140.32044  0.028801405  0.029298299            3 
  407000     1.089776    -6.956123    140.56472  0.028780655  0.029281098            2 
  408000     1.079196   -6.9723069    140.66267   0.02873012   0.02926482            4 
  409000    1.1141854   -6.9751833    141.06497  0.028741843   0.02924898            2 
  410000    1.0746892     -6.95554    141.15903  0.028690861  0.029233606            3 
  411000     1.083086   -6.9387531    141.79356  0.028749708  0.029218248            5 
  412000    1.1123943     -6.95794    141.97169  0.028715957  0.029202744            8 
  413000     1.097324    -6.943428    141.98795  0.028649706   0.02918647            4 
  414000     1.078705   -6.9562694    141.76546   0.02853572  0.029169319            8 
  415000    1.0943541   -6.9755258    141.74938  0.028463731  0.029151341            5 
  416000    1.0972008   -6.9655705     142.6946  0.028584655  0.029133715            2 
  417000    1.1176789   -6.9898495    142.61134  0.028499469  0.029115858            5 
  418000    1.1124674   -6.9577647    142.93402  0.028495619  0.029098193            3 
  419000    1.0997269   -6.9970612    143.20074  0.028480657  0.029080127            4 
  420000    1.0558596   -6.9872247    142.77487  0.028328348  0.029061626            4 
  421000    1.0949894   -6.9764029    143.24325  0.028353771  0.029043015            2 
  422000    1.0970645   -6.9330427    144.00733  0.028437467  0.029024564            2 
  423000     1.083588   -6.9377265    144.33134  0.028434069  0.029006769            3 
  424000    1.0863231   -6.9504649    144.75369  0.028450019  0.028988988            3 
  425000     1.087576   -6.9585947    144.88475  0.028408775  0.028971935            3 
  426000     1.073456   -6.9623907    145.03226  0.028370943  0.028954497            3 
  427000    1.0811548   -6.9661475    145.42218  0.028380598  0.028936702            5 
  428000    1.0507496   -7.0066135    145.77052  0.028382111  0.028919678            2 
  429000     1.113992   -6.9953914    145.94867  0.028350558  0.028902265            3 
  430000    1.0928041   -6.9749778    146.58455  0.028407859  0.028885165            2 
  431000     1.085649   -6.9740941    146.74488  0.028372947  0.028868456            5 
  432000    1.0757186   -6.9971293     146.4595  0.028252219  0.028851264            4 
  433000    1.0548081   -6.9686592    147.13189  0.028316375  0.028834293            2 
  434000    1.0758497   -7.0062033    146.82019  0.028191281  0.028817586            3 
  435000    1.1089066   -6.9614286    147.41737  0.028240876  0.028800565            2 
  436000    1.0907378   -6.9980735    147.71522  0.028233032  0.028783544            4 
  437000    1.0550334   -6.9888414    148.11492  0.028244645  0.028766445            3 
  438000    1.0569662   -6.9630789    148.45486  0.028244837  0.028749083            8 
  439000    1.0783846   -6.9635035    148.49366  0.028187863  0.028731097            5 
  440000    1.0885554   -7.0240627     148.2811  0.028083542  0.028712555            4 
  441000    1.0823601   -7.0147834    148.06291   0.02797863   0.02869389            5 
  442000    1.0755408   -6.9993998    148.61024  0.028018523  0.028675509            4 
  443000    1.0631443   -7.0055383    149.29536  0.028084154  0.028657448            2 
  444000    1.0426856   -6.9754561    149.27607  0.028017281  0.028639143            3 
  445000    1.0828482   -7.0273471    149.22392  0.027944554  0.028620824            3 
  446000    1.0720108   -7.0579527    149.51969  0.027937162  0.028602331            3 
  447000    1.0622181   -7.0261708    149.54543  0.027879462  0.028582975            6 
  448000    1.0758468   -7.0329535    149.77463  0.027859864   0.02856375            5 
  449000    1.0797338    -7.042606    150.08403   0.02785524  0.028544079            6 
  450000    1.0704692   -7.0293799    150.68901  0.027905372  0.028525039            4 
  451000    1.1015856   -6.9994541    151.01585  0.027903889  0.028506124            2 
  452000    1.0608016   -6.9733311    151.65655  0.027960279  0.028487348            3 
  453000    1.0833506   -6.9858783    152.18117  0.027995064   0.02846861            6 
  454000    1.0681154   -6.9778867    151.86718  0.027875767  0.028450562            2 
  455000    1.0780443   -7.0243333     152.4143  0.027914707  0.028432326            9 
  456000    1.0769309   -6.9598605    153.00796   0.02796198  0.028414341            1 
  457000    1.0621321   -7.0612307    152.39182  0.027788443  0.028396304            3 
  458000      1.10353   -6.9723756     153.2564  0.027885079  0.028378228            5 
  459000     1.062381   -7.0024478    153.11255  0.027798211  0.028360354            6 
  460000    1.0667373   -7.0764357    152.48444  0.027623992  0.028341692            2 
  461000    1.0442055   -7.0345114    153.49598  0.027746924  0.028323318            3 
  462000    1.0982932    -7.075574    153.73662   0.02773027  0.028304818            4 
  463000    1.0689355   -7.0627741    154.21207  0.027755953  0.028287355            4 
  464000    1.0555079   -7.0055036    154.67392  0.027779081  0.028270098            5 
  465000    1.0916059   -7.0441064    154.27107  0.027647144  0.028253066            6 
  466000    1.0643925   -7.0348181    155.34281  0.027779473  0.028235603            7 
  467000    1.0784362   -7.0500584    155.30609  0.027713436  0.028218235            7 
  468000     1.074732    -7.020236    155.88532  0.027757357  0.028201513            3 
  469000    1.0694429   -7.0059616    156.08744  0.027734087  0.028184814            4 
  470000    1.0672963   -7.0297671    156.58901  0.027764008   0.02816809            3 
  471000    1.0675941   -7.0219325     156.4788  0.027685563  0.028151068            5 
  472000    1.0612681   -7.0399504    156.59414  0.027647271  0.028134572            7 
  473000    1.0619031   -7.0076941    156.83006  0.027630384  0.028117275            3 
  474000    1.0541857   -7.0635754    156.63608  0.027537988  0.028099568            2 
  475000    1.0581573    -7.023274    156.95907  0.027536678  0.028081553            4 
  476000    1.0731119   -7.0374983    157.03982  0.027492966    0.0280639            3 
  477000    1.0794059   -7.0183911    157.81444  0.027570657  0.028045831            6 
  478000    1.0701703   -7.0255304    157.21942  0.027409243  0.028027848            5 
  479000    1.0476971   -7.0608268    157.47397  0.027396306  0.028009802            9 
  480000    1.0727421   -7.0052784    158.31743  0.027485664  0.027991795            8 
  481000    1.0536263   -7.0558312    157.89605  0.027355517  0.027973894            2 
  482000    1.0735587   -7.0478066    158.24415  0.027358947   0.02795585            8 
  483000    1.0462778   -7.0324409    159.09856  0.027449716  0.027937948            3 
  484000    1.0822477   -7.0519736    158.95499  0.027368284  0.027919838            2 
  485000    1.0646857   -7.0628297    159.24035  0.027360885  0.027901271            8 
  486000    1.0518445   -7.0413316    159.22663  0.027302234  0.027882816            3 
  487000     1.059589   -7.0493879     160.0683  0.027390196  0.027864588            3 
  488000    1.0447473   -7.0446168    160.07846  0.027335803   0.02784606            3 
  489000    1.0528671   -7.0456538     160.0551  0.027275919  0.027827484            3 
  490000    1.0579115   -7.0348041     160.4687  0.027290595  0.027809563            3 
  491000    1.0477778   -7.0693704    160.37657  0.027219377  0.027791795            2 
  492000    1.0882655   -7.0496145    160.91795  0.027255751  0.027773662            2 
  493000    1.0423635   -7.0522011    161.48203  0.027295814  0.027756014            3 
  494000    1.0544673   -7.0331561     161.8329  0.027299748  0.027738388            5 
  495000    1.0483314    -7.027577    162.36503  0.027334181  0.027721183            3 
  496000    1.0564534   -7.0789571    161.21195  0.027085342  0.027703551            3 
  497000    1.0803016   -7.0693213     161.9036  0.027146814   0.02768554            4 
  498000     1.084944   -7.0276276    162.98043  0.027272495   0.02766843            4 
  499000    1.0596636   -7.0320658    163.14397  0.027245151  0.027651153            6 
  500000    1.0665134   -7.0332098    163.55967  0.027259945  0.027634022            3 
  501000    1.0537888    -7.013503    164.23248  0.027317444  0.027617521            6 
  502000    1.0284802   -7.0474873    164.05754  0.027233988  0.027600863            9 
  503000    1.0404633   -7.0567122    164.45579  0.027245823  0.027584055            3 
  504000    1.0558725   -7.0770973    164.73056  0.027237195  0.027568066            4 
  505000    1.0445959   -7.0758585    164.56949  0.027156682  0.027551633            2 
  506000    1.0345404   -7.0493018    165.02277  0.027177663  0.027535051            2 
  507000    1.0540168   -7.0471669    165.05778  0.027129813  0.027518761            3 
  508000    1.0464949   -7.1232296    165.12111  0.027086797  0.027502016            5 
  509000    1.0714206   -7.1094578    165.19528  0.027045724  0.027484727            3 
  510000    1.0454002   -7.0642001    165.58112  0.027055738  0.027467445            4 
  511000    1.0605612   -7.0351778    166.42698  0.027140735  0.027450881            7 
  512000    1.0463025   -7.0590934     166.2211  0.027054215  0.027433951            5 
  513000     1.044479   -7.0547837    166.14948  0.026989844   0.02741721            5 
  514000    1.0407659   -7.0815505    166.39499  0.026977138  0.027399619            3 
  515000     1.056944   -7.0623559    166.80704  0.026991431  0.027381949            3 
  516000    1.0718125   -7.1110187    167.22274  0.027006257  0.027364399            7 
  517000    1.0448406   -7.1090048    166.73834  0.026875942  0.027346847            4 
  518000    1.0492789   -7.0559595    167.61457  0.026965021  0.027329525            4 
  519000    1.0417361    -7.083794    167.24172  0.026853199  0.027312383            3 
  520000    1.0367626   -7.1149548    167.18897  0.026793105   0.02729454            4 
  521000    1.0351523   -7.1332937    167.64277  0.026814262  0.027276625            2 
  522000    1.0498172   -7.1289484    167.62925  0.026760735  0.027258673            3 
  523000    1.0354634   -7.0838968     167.9364  0.026758508  0.027240816            3 
  524000    1.0281801   -7.1143107    167.89247  0.026700456  0.027222687            2 
  525000    1.0348855   -7.1133545    168.24602  0.026705717  0.027204719            2 
  526000      1.04807   -7.1205885    168.32254  0.026667068   0.02718627           12 
  527000    1.0602824   -7.0951665    168.42219  0.026632225  0.027167612            2 
  528000    1.0359253   -7.0801761    168.77422  0.026637346  0.027149281            2 
  529000    1.0441429   -7.1144908    167.97529  0.026461136  0.027130215            5 
  530000    1.0548804   -7.0806679    169.11296  0.026590088  0.027111286            2 
  531000    1.0472243   -7.0666942    169.75092  0.026640132  0.027093207            4 
  532000    1.0379432   -7.0543183     169.3933  0.026534038  0.027074632            3 
  533000    1.0406625    -7.076215    169.67869  0.026528876  0.027055386            4 
  534000    1.0361595   -7.1013605    169.35741   0.02642906  0.027036194            4 
  535000    1.0491657    -7.040147    170.24781   0.02651835   0.02701678            7 
  536000    1.0364349   -7.1126033    169.59464  0.026367325  0.026997224            3 
  537000    1.0362835   -7.0887053    170.07324  0.026392495  0.026977282            3 
  538000     1.030504   -7.0768327    170.21262  0.026365027  0.026957619            5 
  539000    1.0538717   -7.0912131    170.32652  0.026333723  0.026937893            4 
  540000    1.0493003   -7.1502498    170.46144  0.026305778  0.026918151            3 
  541000    1.0536414   -7.1201149    170.97866  0.026336824  0.026898236            4 
  542000    1.0326022   -7.1585309    170.77608  0.026257085  0.026878089            3 
  543000    1.0507061   -7.1627743    170.90912  0.026229147  0.026858519            3 
  544000    1.0496451   -7.1382681    171.38658  0.026254071   0.02683861            4 
  545000   0.99977518   -7.0948097     171.5756  0.026234801  0.026819055            5 
  546000    1.0140622   -7.1474222    171.73692  0.026211373  0.026799646            4 
  547000    1.0373979   -7.1396482    171.61778  0.026145305  0.026779717            3 
  548000    1.0324585   -7.0679665    172.15378  0.026179102  0.026759547            2 
  549000    1.0474704   -7.1261784    172.80318  0.026229991   0.02673999            3 
  550000    1.0414264   -7.1051361    172.82078  0.026184967  0.026720813            2 
  551000    1.0233115   -7.1290865    172.69665   0.02611867  0.026701424            3 
  552000    1.0307978   -7.1464129    172.94678  0.026109116  0.026682527            8 
  553000    1.0237146   -7.1243433    173.53458  0.026150479    0.0266639            4 
  554000    1.0221013   -7.1242878    173.76274  0.026137596  0.026644865            4 
  555000    1.0177079   -7.0795554    174.12654  0.026145125  0.026625745            3 
  556000    1.0400637   -7.1281025     173.9522  0.026071972  0.026607131            3 
  557000    1.0023022   -7.1106268    174.67001  0.026132556  0.026588246            3 
  558000     1.020437   -7.1247524    174.57226  0.026071127  0.026569595            5 
  559000     1.056834   -7.0951992    175.23554  0.026123366  0.026551078            4 
  560000    1.0258392   -7.1163661    174.71954  0.025999932  0.026532274            5 
  561000    1.0384069   -7.0895376    175.44012  0.026060624  0.026513408            6 
  562000    1.0527435   -7.1074142    175.03665  0.025954426  0.026494466            6 
  563000    1.0145903   -7.1253688     175.6575  0.026000223  0.026475318            9 
  564000    1.0296099   -7.1440505    175.09905  0.025871609  0.026456051            3 
  565000    1.0121789   -7.1188227     175.5644  0.025894455   0.02643695            4 
  566000    1.0032825   -7.1180823    176.07408  0.025923746  0.026417943            5 
  567000     1.017085   -7.1023102    176.20464  0.025897214  0.026399117            3 
  568000    1.0438989   -7.1338922    176.67385  0.025920459  0.026380051            3 
  569000    1.0101166    -7.142172    177.03058   0.02592715  0.026360789            4 
  570000    1.0332793   -7.1362317    177.17356  0.025902567  0.026341703            2 
  571000    1.0358707   -7.1800079    176.60743  0.025774581  0.026322745            4 
  572000     1.009524   -7.1459263    177.07951  0.025798298  0.026303576            4 
  573000    1.0255943    -7.124489    177.00387  0.025742274  0.026284398            3 
  574000    1.0259376   -7.1416371     177.6942  0.025797649  0.026265366            4 
  575000    1.0434813   -7.1408245    178.21473  0.025828222  0.026246297            2 
  576000    1.0341038   -7.1541985     178.5527  0.025832277    0.0262277            7 
  577000    1.0429239   -7.1691547     178.5555  0.025787912  0.026209185           10 
  578000    1.0421827   -7.2010751    177.91832   0.02565143  0.026190436            8 
  579000     1.013773   -7.1581781     178.5797  0.025702317  0.026171535            4 
  580000    1.0182093   -7.1505628    178.59281  0.025659886  0.026152475            5 
  581000    1.0047185   -7.1179336    179.84858  0.025795837  0.026133772            3 
  582000    1.0110991   -7.1187239    179.23002  0.025662947  0.026115083            6 
  583000    1.0222478   -7.1503172    179.89786  0.025714388  0.026096362            4 
  584000      1.03347    -7.167391    179.50119  0.025613754  0.026077402            4 
  585000    1.0079755   -7.1727381    178.93101  0.025488748  0.026057966            7 
  586000    1.0127777   -7.1426824    180.14859  0.025618401  0.026039069            7 
  587000    1.0306047   -7.1495141    180.45629  0.025618439  0.026020233            3 
  588000    1.0005384   -7.1329187    181.00476  0.025652602  0.026001862            4 
  589000    1.0234963    -7.177052    180.93003  0.025598476  0.025983624            4 
  590000    1.0200653   -7.1987273    180.72244  0.025525769  0.025965523            3 
  591000    1.0218538   -7.1727036    181.16007  0.025544285  0.025947731            3 
  592000    1.0110779   -7.1735582    182.00507  0.025620083  0.025929693            6 
  593000    1.0023485   -7.1612841    181.65128  0.025527161  0.025911856            6 
  594000    1.0206792   -7.1883364     181.5908  0.025475702  0.025894177            4 
  595000    1.0182384    -7.174782    182.38232  0.025543742  0.025876523            4 
  596000    1.0238394   -7.1529686    182.98385   0.02558499  0.025858726            6 
  597000   0.99682176   -7.1558284    183.12815  0.025562277  0.025840872            3 
  598000    1.0168615   -7.1747153    183.38972  0.025555982  0.025823418            5 
  599000    1.0035485   -7.1629062    183.01761  0.025461548  0.025805667            4 
  600000     1.023361   -7.1903364    183.06434  0.025425603  0.025787868            4 
  601000    1.0052543   -7.1809018    183.19158   0.02540094  0.025769963            7 
  602000    1.0199609   -7.1736828    183.49862  0.025401249  0.025752034            6 
  603000     1.002431   -7.1582689    183.44355  0.025351513  0.025734006            3 
  604000    1.0267385   -7.1379733    183.69877  0.025344753  0.025715661            4 
  605000    1.0345934   -7.1846736    183.16776  0.025229719  0.025697227            2 
  606000      1.00759   -7.1966319    183.41152  0.025221607  0.025678635            2 
  607000    1.0094751   -7.1870076    183.83259  0.025237863  0.025660617            7 
  608000    1.0263001   -7.1725021    184.13066  0.025237207  0.025641958            6 
  609000    1.0237922   -7.2064352    184.19695  0.025204837  0.025623567            6 
  610000    1.0325327   -7.1821038    184.61161  0.025220166  0.025605195            7 
  611000    1.0189905   -7.1877469    184.67248  0.025187191  0.025587067            3 
  612000    1.0063835   -7.2113278    184.63917  0.025141499  0.025568401            3 
  613000    1.0013393   -7.1571777    185.29697  0.025189909  0.025550126            7 
  614000   0.98414354   -7.2164574    185.07661  0.025118976  0.025531576            3 
  615000    1.0119011   -7.1807044    184.94833  0.025060749  0.025513203            2 
  616000    1.0202322   -7.2266254    184.89409  0.025012729  0.025494265           10 
  617000   0.98784195   -7.2218875    184.86266  0.024967944  0.025474849            4 
  618000   0.99695766   -7.2595365    184.27929  0.024848879  0.025455452            7 
  619000    1.0229301   -7.1795531     185.7428  0.025005762  0.025436194            5 
  620000   0.99330456    -7.191312    185.82065  0.024975894  0.025417183            5 
  621000   0.99547214   -7.2282065     185.7849  0.024930877  0.025398245            5 
  622000   0.98696736   -7.2219571    185.98092  0.024917058  0.025379223            4 
  623000    1.0007973   -7.2182945    186.63477  0.024964523  0.025360233            2 
  624000     1.005673   -7.2166463    186.64807  0.024926291  0.025341519            4 
  625000    1.0184363   -7.2274614    186.81287  0.024908383  0.025323169            4 
  626000   0.99291103   -7.2262683    186.66202  0.024848511  0.025304648            4 
  627000     1.014559   -7.1776206    187.77723  0.024957101  0.025286112            5 
  628000    1.0148494   -7.1722739    188.10497  0.024960851  0.025268219            4 
  629000    1.0096208   -7.1728917    188.40426  0.024960818  0.025250359            3 
  630000    1.0105909   -7.1908938    188.62478  0.024950368  0.025232421            5 
  631000    1.0182801   -7.2422802    187.84862  0.024808323  0.025214496           12 
  632000    1.0115503   -7.2060837    188.65512  0.024875411  0.025196245            5 
  633000    0.9906272   -7.1906398    188.99942   0.02488144  0.025178108            5 
  634000    1.0328867   -7.1834532    188.96699  0.024837932  0.025159891            4 
  635000    0.9831066   -7.1711004    189.10605  0.024817066  0.025141829            2 
  636000   0.99784074   -7.2283719    189.13234  0.024781491  0.025123626            7 
  637000    1.0035345   -7.1898357    189.30562  0.024765257  0.025105417            7 
  638000    1.0005246   -7.2062111    188.89389  0.024672661  0.025087551            7 
  639000   0.99588959   -7.2146155    189.30779  0.024688027  0.025069284            6 
  640000    1.0110023   -7.2526574    188.78274  0.024581086  0.025050483            2 
  641000    1.0001338   -7.1993385    189.48277  0.024633745   0.02503174            3 
  642000   0.99625717   -7.2273162    189.25869  0.024566288  0.025012837            6 
  643000   0.99592207   -7.2514678    189.30519   0.02453411  0.024993654            2 
  644000   0.97092691   -7.1891886    189.91964  0.024575523  0.024974733            6 
  645000    0.9904609   -7.1989466    190.18114  0.024571207  0.024955896            2 
  646000    1.0006971   -7.2447671    190.03825  0.024514739  0.024937036            2 
  647000    1.0001827   -7.2181698    190.49879  0.024536166  0.024918308            4 
  648000   0.98550067   -7.2498462     190.0789  0.024444303   0.02489933            7 
  649000   0.99719436   -7.2135363    191.43001  0.024580125   0.02488062            5 
  650000   0.99393721   -7.1994995    191.14379  0.024505614  0.024862329            7 
  651000   0.99154422   -7.2025173    191.38142   0.02449839  0.024843972            5 
  652000    1.0045939   -7.2788921    190.78867  0.024385055  0.024825135            3 
  653000   0.99632633   -7.2197824    191.82896   0.02448047  0.024806167            5 
  654000   0.99717466   -7.2058458    191.24987  0.024369249  0.024787291            4 
  655000   0.99783204   -7.2404537    191.30868  0.024339526  0.024768251            2 
  656000    1.0030547   -7.1935868    192.89823  0.024504348  0.024749917            9 
  657000   0.99779698   -7.2597524    191.96342   0.02434848   0.02473149            9 
  658000   0.99895714   -7.2478201    192.66395  0.024400197  0.024713177            7 
  659000   0.97365238   -7.1964839     192.7779   0.02437758   0.02469467            6 
  660000   0.98488296   -7.2383747    192.78281  0.024341264  0.024676116            5 
  661000   0.99168765   -7.2218618    192.92709  0.024322628  0.024657653            6 
  662000    0.9942603   -7.2560799    192.87032  0.024278741  0.024639063            5 
  663000    0.9947366   -7.2588467    193.09556  0.024270432  0.024620394            8 
  664000    0.9868818   -7.2799392    192.80813  0.024197807  0.024601609            4 
  665000   0.99822248   -7.2702548    192.76926  0.024156549  0.024582926            4 
  666000   0.97929454   -7.2513418    193.52274  0.024214557  0.024564618            7 
  667000     0.985848   -7.2297008    194.01019  0.024239154  0.024546355            4 
  668000    1.0030594   -7.2859488    193.18293  0.024099667  0.024528333            4 
  669000    0.9772359   -7.2744204    194.01387  0.024167149  0.024509859            2 
  670000   0.98591529   -7.3172719    193.41094  0.024056088  0.024491109            3 
  671000   0.98986491   -7.2255006    194.41002  0.024144315  0.024472873            9 
  672000   0.98305423   -7.2686556    194.38327  0.024105068  0.024454937            6 
  673000   0.99052904   -7.2418667    194.64093  0.024101155  0.024437044            6 
  674000   0.95699869   -7.2451341     194.7564  0.024079673  0.024419013            3 
  675000   0.97432189   -7.2407995    196.28512  0.024232731  0.024401245            5 
  676000    1.0126856   -7.2633666    195.61343  0.024114082  0.024383676            3 
  677000   0.98098821   -7.2464131    196.37062  0.024171667  0.024366037            6 
  678000   0.97410758   -7.3387681    195.16808   0.02398821  0.024348206           10 
  679000   0.97712283    -7.245452    196.50893  0.024117444  0.024330352            4 
  680000     0.975474   -7.2945358    195.88537  0.024005559  0.024312588            6 
  681000   0.97101572   -7.2943712    196.52944  0.024049124  0.024294797            4 
  682000   0.96844538   -7.2667192    196.87355  0.024055908  0.024276943            2 
  683000   0.99174967   -7.2350912    197.12952  0.024051918  0.024259285            6 
  684000   0.96817819   -7.2578554    196.47398  0.023936889  0.024241746            3 
  685000    0.9809546   -7.3059418    197.25271   0.02399668   0.02422427            5 
  686000   0.97919037   -7.2338716     197.6477  0.024009682  0.024206845            4 
  687000   0.98924255   -7.2563683    198.01038  0.024018727   0.02418953            2 
  688000   0.95723535    -7.255277    197.03569  0.023865757   0.02417215            3 
  689000    0.9720972   -7.2854635    197.91235  0.023937149  0.024154726            5 
  690000   0.97510477   -7.2201571    198.31645  0.023951263  0.024137363            4 
  691000   0.96868932   -7.2240237    198.34264  0.023919758  0.024119888            5 
  692000    1.0060988   -7.2848395    197.55046  0.023789795  0.024102053            5 
  693000   0.98841128   -7.3143324    197.81565  0.023787355  0.024084229            7 
  694000    1.0016136    -7.262337    198.75783  0.023866214  0.024066292            3 
  695000   0.95928926   -7.2728193    198.67811  0.023822316  0.024048619            6 
  696000   0.94511591   -7.3171258    198.65904  0.023785805  0.024030722            9 
  697000   0.96931302   -7.2788114    198.82666   0.02377172  0.024012601            8 
  698000    1.0029928   -7.2855198    198.82679  0.023737677  0.023994694           18 
  699000   0.97463049   -7.2737584    198.87432  0.023709385  0.023976653            3 
  700000   0.98479068   -7.3118242    198.73118  0.023658473  0.023958628            7 
  701000   0.98559187   -7.2963181     199.1928  0.023679601  0.023940632            3 
  702000   0.96996883   -7.2663468    199.81211  0.023719386  0.023922674            3 
  703000   0.97791817   -7.3031876    199.60596   0.02366121  0.023904841            5 
  704000   0.95628488   -7.3177337    199.09688  0.023567339   0.02388663            4 
  705000   0.96282602   -7.2913829    199.24415  0.023551318  0.023868066            6 
  706000   0.96072245   -7.2998252    199.32407  0.023527393  0.023849678           10 
  707000   0.96054975    -7.289829    199.92405  0.023564834   0.02383122            2 
  708000   0.95337251   -7.2688779    199.87565  0.023525854  0.023812978            6 
  709000   0.96869835   -7.2824502    200.55136  0.023572092  0.023794861            4 
  710000   0.97501407   -7.3231821    199.30384  0.023392469  0.023776599            9 
  711000   0.95146449    -7.276218    200.69973  0.023523176  0.023758545            7 
  712000    0.9425708   -7.2898429    200.36126  0.023450522  0.023740406            7 
  713000   0.96704397   -7.2834537    200.43768  0.023426564  0.023722138            4 
  714000    0.9758474   -7.3109308    200.24057  0.023370748  0.023703709            5 
  715000   0.96691587   -7.3115203    200.73342  0.023395503  0.023685145            5 
  716000   0.97148597   -7.2974945    200.28195  0.023310282  0.023666746            4 
  717000   0.97788006   -7.3195034    201.18671  0.023382928  0.023648511            6 
  718000    0.9807767   -7.2774025    201.56893  0.023394722  0.023630338            5 
  719000   0.95140467   -7.3344318    201.37651  0.023339883  0.023612131            5 
  720000   0.95529478   -7.3097748    201.78422  0.023354655  0.023593842            2 
  721000   0.95924311   -7.3784619    201.08258  0.023241167  0.023575699            7 
  722000    0.9311082   -7.3322989     201.4719  0.023253912  0.023557334            4 
  723000   0.95244937   -7.3615501    201.08214  0.023176825  0.023538895            8 
  724000   0.96762987   -7.3530802    201.86021  0.023234371   0.02352039            4 
  725000   0.97546288    -7.334067     201.7395  0.023188449  0.023502058            3 
  726000   0.95339457    -7.328264    202.35248  0.023226868  0.023483773            6 
  727000   0.93683658   -7.3322313     202.1714  0.023174163  0.023465675            4 
  728000   0.94925161   -7.3404185    202.26469  0.023153009  0.023447428            6 
  729000   0.96466052   -7.3053205    203.02959  0.023208687  0.023429315            4 
  730000   0.96103711   -7.3387487    202.99164  0.023172561  0.023411349            5 
  731000   0.97982033   -7.3508794    202.52597  0.023087776  0.023393111            5 
  732000   0.96599794   -7.3672357    202.70597  0.023076727  0.023375146            5 
  733000    0.9659273   -7.3551157    202.97827  0.023076202  0.023356981            5 
  734000   0.95954691   -7.3599512    202.92421  0.023038626   0.02333855            4 
  735000   0.96633248   -7.3558129    203.15146  0.023033046  0.023320455            8 
  736000   0.96724607   -7.3675688     202.8277  0.022965093  0.023302327            9 
  737000     0.945772    -7.369924    203.70938  0.023033625  0.023284312            2 
  738000   0.95444179   -7.3374485    203.65573  0.022996356  0.023266246            5 
  739000   0.97306044   -7.3529508    203.72332  0.022972859  0.023248141            4 
  740000   0.96260385   -7.3360613     203.7188  0.022941306  0.023230139            4 
  741000   0.97176194   -7.3687843     203.3931  0.022873718  0.023211963            4 
  742000   0.94911829   -7.3658393    203.33039  0.022835848  0.023193509            3 
  743000   0.96872782   -7.3631449    203.90964   0.02287008  0.023174889            4 
  744000    0.9629789   -7.3713296    203.24377  0.022764759   0.02315611            8 
  745000   0.96778166   -7.3537922    204.22223   0.02284365  0.023137317            7 
  746000   0.94153003   -7.3447513    204.41846  0.022834948   0.02311865            3 
  747000    0.9584892   -7.4168097    203.66994  0.022720877  0.023099876            6 
  748000   0.94930048   -7.3782387    204.31491  0.022762356  0.023081128            6 
  749000   0.93908419   -7.4026003    203.62715  0.022655446  0.023062216            4 
  750000   0.94051142   -7.3736591     204.1686    0.0226854  0.023043329            4 
  751000   0.95314922   -7.3609578    204.36471  0.022676954  0.023024307            9 
  752000   0.97038899   -7.3660825    204.19115  0.022627566  0.023005273            4 
  753000   0.92683351   -7.3995157    204.76411  0.022660924  0.022986378            6 
  754000   0.94563216   -7.3690967    205.19213  0.022678175  0.022967518            6 
  755000   0.95751991    -7.369557    204.77028  0.022601576  0.022948487            5 
  756000   0.95333766   -7.3622629    205.23263  0.022622644   0.02292971            5 
  757000   0.94665943   -7.3806424    205.28941   0.02259901  0.022911122            4 
  758000   0.93849572   -7.3598598    205.11381  0.022549891  0.022892248           13 
  759000   0.93556543   -7.3334287    205.76486  0.022591662  0.022873454            3 
  760000   0.91690798   -7.3640479    205.08207  0.022487069  0.022854694            5 
  761000   0.94585582   -7.3683548    205.50465  0.022503794  0.022835939            4 
  762000    0.9393983   -7.4031703     205.5035  0.022474136  0.022817158            3 
  763000   0.95647176    -7.378836    205.66864  0.022462717  0.022798224            6 
  764000   0.94005486   -7.3960191    205.59947  0.022425772  0.022779377            2 
  765000   0.95453455   -7.3789138    206.24037  0.022466271  0.022760554            4 
  766000   0.95159065   -7.3734724    205.46747  0.022352858  0.022741899            4 
  767000    0.9383541   -7.4012559    206.29056  0.022413142  0.022723288            3 
  768000   0.94473085   -7.3782122     206.6598  0.022424024  0.022704671           11 
  769000    0.9750265   -7.3609199    206.73784   0.02240332  0.022686158            2 
  770000   0.96863682   -7.3468311    206.80099  0.022381059  0.022667596            8 
  771000   0.93209995   -7.3855884    206.90333  0.022363092   0.02264895            8 
  772000   0.96584665   -7.3724799    206.56512  0.022297617  0.022630098            6 
  773000    0.9213025   -7.3928678    207.11753  0.022328324  0.022611495           11 
  774000   0.93443465   -7.3756666    206.83952  0.022269543  0.022592762            8 
  775000   0.94160169   -7.3809447    207.12096   0.02227107  0.022574204            4 
  776000   0.94213803   -7.3646798    207.18458  0.022249203   0.02255548            5 
  777000   0.94186678    -7.347716    207.56641   0.02226152  0.022536781            7 
  778000   0.95004512   -7.3761771    207.46309  0.022221839  0.022518205            6 
  779000   0.94103077   -7.4081535    207.80216  0.022229585  0.022499587            6 
  780000   0.95466657   -7.3965526    208.48558    0.0222741  0.022481189            7 
  781000   0.93747452   -7.3980332    207.99643  0.022193387  0.022462951            6 
  782000    0.9301694   -7.3831883    208.26589  0.022193722   0.02244458            9 
  783000    0.9330439   -7.4216029    207.30781   0.02206341  0.022426122            4 
  784000   0.93248353   -7.4012028    208.56687  0.022169098  0.022407673           11 
  785000   0.94003869   -7.3953613    208.46842  0.022130406  0.022389192           13 
  786000   0.93580888   -7.4208409    208.62241  0.022118576    0.0223709            5 
  787000   0.95117739   -7.4046597    208.98007  0.022128343  0.022352572            9 
  788000    0.9518562   -7.4106419    208.58535  0.022058519  0.022334328            3 
  789000   0.94383493   -7.3932166    209.86853  0.022166089   0.02231629            7 
  790000   0.94660055   -7.3755727    209.17502  0.022064876  0.022298359            8 
  791000   0.95188359    -7.426108    209.40981  0.022061716  0.022280573            3 
  792000   0.94099581   -7.4026698     209.0102  0.021991814  0.022262588            6 
  793000   0.94855181   -7.3942269    209.90128  0.022057722  0.022244542            5 
  794000   0.93822857     -7.37668    209.75045  0.022014111   0.02222647            4 
  795000    0.9593052   -7.4076216     209.8103  0.021992694  0.022208624            6 
  796000   0.93845796   -7.3785915    210.12702  0.021998223  0.022190744            4 
  797000   0.93379034   -7.4188283     209.7161  0.021927656  0.022172735           13 
  798000   0.92758282   -7.4457385    209.69963  0.021898457  0.022154364           10 
  799000   0.90186423   -7.4009174    210.27167  0.021930712  0.022136039           20 
  800000   0.93361792   -7.3857668    210.19569  0.021895385  0.022117774            8 
  801000   0.94116229   -7.4160509     210.9368  0.021945152  0.022099825            4 
  802000   0.96259496   -7.4424766    210.23787  0.021845165     0.022082            5 
  803000   0.94783402   -7.3847506    211.33016  0.021931316  0.022064096            5 
  804000   0.92619821   -7.3547589    211.36428  0.021907575   0.02204654            4 
  805000   0.94396601   -7.4288271    210.78389  0.021820278  0.022028661            7 
  806000   0.93174311    -7.419979    210.86599  0.021801695  0.022010586            2 
  807000   0.95022939   -7.4246521    210.79997  0.021767861  0.021992445            4 
  808000   0.92509534   -7.4523792    210.37918  0.021697523  0.021974303            4 
  809000   0.91112173   -7.4402551     210.9454  0.021729027  0.021955836            4 
  810000   0.91823149   -7.4281981    210.86885  0.021694326  0.021937635            6 
  811000   0.93597559   -7.4175834    210.61172  0.021641155  0.021919434            6 
  812000   0.90992603   -7.4888389    210.89829  0.021643913   0.02190117            4 
  813000   0.92989195   -7.4464758    211.62674  0.021691957  0.021882877            5 
  814000   0.94290198   -7.4647473    211.05538  0.021606816   0.02186468            3 
  815000   0.93238424   -7.4397984    212.03989   0.02168097  0.021846503            7 
  816000   0.94590055   -7.4660293    211.31883  0.021580762  0.021828216            3 
  817000    0.9294976   -7.4887458    210.65731  0.021486873  0.021809836            5 
  818000   0.91695354   -7.4807564    211.57055  0.021553642  0.021791453            9 
  819000   0.94701444   -7.4647272    211.85166  0.021555928  0.021772972           11 
  820000   0.90816802   -7.4790291    211.62591  0.021506698  0.021754679            6 
  821000   0.93177968   -7.4423094    212.17401  0.021536136  0.021736494            5 
  822000   0.92058658   -7.4287051    212.44993  0.021537908  0.021718487            6 
  823000   0.92105195   -7.4466217    212.81405  0.021548608  0.021700432            4 
  824000   0.92560347   -7.4032081    212.62701  0.021503541  0.021682524            5 
  825000    0.9223149   -7.4423678    212.14806  0.021429097  0.021664266            3 
  826000    0.9213936   -7.4392884    212.43338  0.021431939  0.021645983            4 
  827000   0.94594914   -7.4814023    212.09223  0.021371648   0.02162763            5 
  828000   0.93707865   -7.4255133    213.16219  0.021453521  0.021609399            4 
  829000   0.91976695   -7.4504561    212.77644  0.021388866   0.02159134            9 
  830000   0.93889355   -7.4112393    213.03709  0.021389266  0.021573236           13 
  831000   0.92098504   -7.4428444    212.84671  0.021344435  0.021555185           10 
  832000   0.91970391   -7.4639636    212.76773  0.021310871  0.021536874           18 
  833000    0.9380648   -7.4762046    212.70968   0.02127948  0.021518519           17 
  834000   0.89832482    -7.465168    213.15525  0.021298487  0.021500157            8 
  835000   0.93042135     -7.43235    213.26736  0.021284168  0.021481875           14 
  836000   0.91711409   -7.4831944    212.28354   0.02116064   0.02146348            4 
  837000   0.90831382   -7.4835742    213.36914  0.021243443  0.021444969            5 
  838000   0.92650586   -7.5037573    212.69497  0.021151051  0.021426527            6 
  839000   0.91275368   -7.4582601    213.51825  0.021207613  0.021407945            5 
  840000   0.89996736   -7.4730288      213.247  0.021155457  0.021389645           11 
  841000    0.9151403   -7.4867313    213.27388  0.021132965  0.021371208            3 
  842000   0.91180739   -7.4565681    213.97446  0.021177203  0.021352756            5 
  843000   0.90762084   -7.4790482    213.57957  0.021113045  0.021334527           10 
  844000   0.93877184   -7.4663585    213.94003  0.021123621  0.021316317            4 
  845000   0.91896275   -7.4432643    213.89638  0.021094317  0.021298156            3 
  846000   0.91571543    -7.459768    213.56411  0.021036653  0.021279714            9 
  847000   0.92784348   -7.4540273     214.2143  0.021075787  0.021261458            5 
  848000   0.91111704    -7.475298    214.49097  0.021078122  0.021243213            9 
  849000   0.91908512   -7.4156715    214.56525  0.021060586  0.021225149            2 
  850000   0.90276853   -7.5093962    213.93008  0.020973537  0.021207082            7 
  851000   0.90224164   -7.5086426    214.25971   0.02098117  0.021188782            6 
  852000   0.92548982   -7.4780228    213.66318  0.020898198  0.021170334            5 
  853000   0.91600767   -7.5006793    214.19739  0.020925888  0.021151924            9 
  854000   0.92533351   -7.4789261    214.05175  0.020887173  0.021133553            7 
  855000   0.92682607    -7.478658    214.86312  0.020941824  0.021115181            6 
  856000   0.89977778   -7.4974699    214.69117   0.02090062  0.021096881            8 
  857000   0.90528159   -7.5457064    214.04685  0.020813579  0.021078576           11 
  858000    0.9100142   -7.4814371    214.90155  0.020872333  0.021060289            9 
  859000   0.91935819    -7.486673    214.44367  0.020803616  0.021042157           10 
  860000   0.91686824    -7.519021     214.4276  0.020777868  0.021023998            4 
  861000   0.91296888   -7.4941647     215.1302  0.020821738  0.021005876            5 
  862000   0.89942632   -7.4660604    215.85933  0.020868071  0.020987906            3 
  863000   0.90134836   -7.5183034    215.32467  0.020792263  0.020969775           12 
  864000   0.91014104   -7.4859008    215.24729  0.020760734  0.020951534            7 
  865000   0.89982112   -7.5200765    215.85424  0.020795206  0.020933384           15 
  866000   0.89896647   -7.4683554    216.18672  0.020803187   0.02091548            3 
  867000     0.926597   -7.5246878    214.89762  0.020655288  0.020897333            6 
  868000   0.90401499   -7.5305344    215.01867  0.020643113  0.020879157           11 
  869000   0.90354083   -7.4937226    215.96233  0.020709851  0.020860898            4 
  870000   0.90104934   -7.5170439    216.22325  0.020711039     0.020843            8 
  871000    0.8955139   -7.5060273      216.649  0.020727995  0.020825131            4 
  872000   0.90202517   -7.4979203    216.39666  0.020680109  0.020807481            6 
  873000   0.90739896   -7.4760753    216.58763   0.02067465   0.02078978            6 
  874000   0.91515162   -7.5032052    216.71295  0.020662943  0.020771944            7 
  875000   0.90634399   -7.5416561    216.84507  0.020651912  0.020754235           10 
  876000   0.91284409   -7.4948016    217.43117  0.020684092  0.020736581           13 
  877000   0.90803598   -7.5124896    217.49527  0.020666597  0.020719206            6 
  878000   0.88296162   -7.4879332    218.02468  0.020693307  0.020701825           12 
  879000   0.90884727   -7.4924272    217.14115  0.020586002  0.020684336            5 
  880000   0.92302727   -7.5112652    218.45563  0.020687086  0.020666961            9 
  881000   0.92288741   -7.5443999    216.87887   0.02051446  0.020649296            6 
  882000    0.8908042   -7.5522087    217.26274  0.020527469  0.020631705           10 
  883000   0.91782126   -7.5489776    217.42995  0.020520003  0.020614109           12 
  884000   0.90671676    -7.567134    216.96079  0.020452564  0.020596327            6 
  885000   0.87961846   -7.5708717    217.50122  0.020480341  0.020578503           11 
  886000   0.92089585   -7.5562021    217.17393  0.020426442  0.020560715            9 
  887000    0.9073685   -7.5229135    217.68165  0.020451113  0.020543047            5 
  888000   0.89272864   -7.5461189    217.16647  0.020379736   0.02052551            8 
  889000   0.88761658   -7.5241571    217.72824  0.020409472  0.020507783            8 
  890000   0.89774795   -7.5480324    217.54309  0.020369204  0.020490024            5 
  891000   0.87727458   -7.5126965    218.26775  0.020414118  0.020472297           18 
  892000   0.90601937   -7.5300218    218.12412  0.020377814  0.020454807           16 
  893000   0.88572844   -7.5238344    217.99907  0.020343325  0.020437411            8 
  894000   0.90421279    -7.536839    218.77749  0.020393129  0.020419946           12 
  895000   0.91004041   -7.5523638    217.82209  0.020281387  0.020402365            3 
  896000   0.88033219   -7.5487907    217.68432  0.020245938  0.020384621            3 
  897000   0.89502711   -7.5768779    217.79697  0.020233832  0.020367056            5 
  898000    0.8945596   -7.5460708    218.33393  0.020261129  0.020349572           23 
  899000   0.89062774   -7.5538115    218.32374  0.020237648   0.02033207            7 
  900000   0.88212773   -7.5591039    218.54841  0.020235964  0.020314594            5 
  901000   0.88196042   -7.5436289    218.40674  0.020200401  0.020297163            7 
  902000     0.888612   -7.5373285    218.91168  0.020224656  0.020279821            8 
  903000   0.91006523   -7.5519182    218.77298  0.020189459  0.020262485            6 
  904000   0.91409176   -7.5243488    219.57213  0.020240794  0.020245259            5 
  905000   0.90600129   -7.5431156    219.24302  0.020188123   0.02022792            6 
  906000   0.89793225   -7.5321141    219.53039  0.020192273  0.020210701            4 
  907000   0.89482827   -7.5165733    219.75397  0.020190552  0.020193631            5 
  908000   0.88676119   -7.5382944    219.12009   0.02011014  0.020176475            4 
  909000   0.90000666   -7.5453421     219.0944  0.020085662  0.020159252            9 
  910000   0.89087722   -7.5713644    219.09057  0.020063239  0.020141845            4 
  911000   0.88311787   -7.5580534    219.67164  0.020094369  0.020124354           17 
  912000   0.89549378   -7.5781848    218.68511  0.019982192  0.020107011           14 
  913000   0.88989469   -7.5478931    219.23594  0.020010583  0.020089702            6 
  914000   0.88922527   -7.5482343      219.057  0.019972374  0.020072224            3 
  915000   0.90525428   -7.5528241    219.83021  0.020020966  0.020054855            6 
  916000   0.90806077   -7.5378762    219.60508  0.019978628  0.020037693            8 
  917000   0.87671209   -7.5423385    220.11084  0.020002802  0.020020514            9 
  918000   0.88882903   -7.5595799    219.89226  0.019961171   0.02000331           11 
  919000   0.87732943   -7.5699245    220.41227  0.019986604  0.019986137            8 
  920000   0.88306528   -7.5793831    220.09221  0.019935889  0.019969051           20 
  921000   0.88976747   -7.5618259    220.99729  0.019996136  0.019951999           10 
  922000   0.88345436   -7.5145045    221.42028  0.020012679   0.01993516            7 
  923000   0.91528822   -7.5590617    221.15344  0.019966905  0.019918348            4 
  924000   0.88852574    -7.587384    220.70161  0.019904546  0.019901531            8 
  925000   0.87538453   -7.5610913     221.3363  0.019940207  0.019884692            5 
  926000   0.87073944   -7.6278819    220.95364  0.019884237  0.019867822            7 
  927000   0.85870256   -7.5838266    221.38997  0.019902011  0.019851056           10 
  928000   0.87588274   -7.5724949    221.85144  0.019922004  0.019834296           10 
  929000   0.89636678   -7.5886933    221.23218  0.019845011   0.01981764           17 
  930000   0.88921277    -7.566339     221.6029  0.019856891  0.019801133           10 
  931000    0.8825146   -7.5808994    221.48418  0.019824936  0.019784508            7 
  932000   0.87914304   -7.5819998    221.67213   0.01982047  0.019767885           12 
  933000   0.89650061   -7.5605031    221.86012  0.019816016  0.019751355           15 
  934000   0.89797936   -7.5919193     221.8821  0.019796761  0.019734906            3 
  935000   0.89282825   -7.5808619    222.41378  0.019822975  0.019718411            8 
  936000   0.88043623   -7.5726426    222.00674  0.019765557  0.019701921            5 
  937000   0.90483068   -7.5402665    222.62131   0.01979912   0.01968559            6 
  938000   0.87572843   -7.6090184    222.23952  0.019744094  0.019669136            5 
  939000   0.87933083   -7.6075074    222.33986  0.019731972  0.019652647            9 
  940000   0.88106937   -7.5688667    222.26133  0.019704019  0.019636111            9 
  941000   0.85773341   -7.6071878    222.08441  0.019667412  0.019619613            5 
  942000   0.87998586      -7.5914    222.53607  0.019686489  0.019603033            7 
  943000   0.85828626   -7.6191733    222.56922  0.019668542  0.019586401           10 
  944000   0.88221574   -7.5564756    223.22146  0.019705284  0.019569743           10 
  945000   0.85269949   -7.6141867    221.85151  0.019563626  0.019553148            9 
  946000   0.85602979   -7.5961025    222.29536  0.019582044  0.019536414           17 
  947000   0.88893277   -7.5765445    222.83627  0.019608964  0.019519736            6 
  948000   0.88344042   -7.5989258    222.44261  0.019553676  0.019503108            8 
  949000   0.87088232   -7.5490327    223.63442  0.019637725  0.019486564            4 
  950000   0.87536242   -7.6307748    222.10874  0.019483222  0.019470036           15 
  951000    0.8644663   -7.6224666    222.81407  0.019524542   0.01945342           12 
  952000   0.87060675   -7.6052536    223.15124  0.019533547  0.019436823           16 
  953000   0.89654454   -7.5934626    223.17628  0.019515239  0.019420254            6 
  954000   0.86258624   -7.6451006    222.48369  0.019434285  0.019403715           17 
  955000   0.86704336   -7.6264274    223.11763  0.019469252  0.019387057           10 
  956000    0.8700492   -7.6225264    222.83787  0.019424501  0.019370346           21 
  957000   0.87714896   -7.6370841    223.34652  0.019448495  0.019353727            5 
  958000   0.89136701   -7.5950177    223.05406  0.019402754  0.019337266            8 
  959000   0.88655631   -7.6123232    222.96761   0.01937501  0.019320732            8 
  960000   0.85171983   -7.6485578    223.59808  0.019409555  0.019304112           21 
  961000   0.85595047   -7.5922582    223.53731  0.019384089  0.019287552            7 
  962000   0.87060788   -7.5756498    223.90083  0.019395429  0.019271139           14 
  963000   0.85010124   -7.6235181    223.43826   0.01933526  0.019254827           15 
  964000   0.85998459    -7.638872    223.07896  0.019284142  0.019238379            6 
  965000   0.88570667   -7.6061049    223.90584  0.019335565  0.019222057            4 
  966000    0.8723947   -7.6284176    223.47197   0.01927812  0.019205669            6 
  967000   0.85324338   -7.6293057    223.89078  0.019294276  0.019189343           16 
  968000   0.86511161    -7.601429    223.98095  0.019282106  0.019172845            9 
  969000   0.86297695    -7.634094     223.9585  0.019260277  0.019156458            8 
  970000   0.89212778   -7.6266922    224.00795  0.019244669  0.019140035           11 
  971000   0.85657334   -7.6406068    224.23749  0.019244549   0.01912364            6 
  972000   0.86383545   -7.6430789    224.03224  0.019207154  0.019107349            8 
  973000   0.87311891   -7.6672139    223.89292  0.019175481   0.01909102           12 
  974000   0.86471923   -7.6460644    224.05088  0.019169308  0.019074596           11 
  975000   0.87349622   -7.6701504    224.07954  0.019152097  0.019058212           11 
  976000    0.8644284   -7.6578391    224.05056      0.01913  0.019041803           11 
  977000   0.86221424   -7.6432379    224.24424  0.019126939  0.019025515           10 
  978000   0.86254142   -7.6350068    224.73042  0.019148809  0.019009125           16 
  979000   0.86176469   -7.6706037    224.47134  0.019107196    0.0189928           10 
  980000   0.85810069   -7.6734684    223.80209   0.01903079    0.0189764           19 
  981000    0.8622425   -7.6516818    224.88969  0.019103779  0.018960065            9 
  982000   0.88811551   -7.6949475     224.5964  0.019059436  0.018943731            7 
  983000   0.88972088    -7.647722    224.98157    0.0190727  0.018927519            9 
  984000   0.85430733   -7.6768207    224.81537  0.019039242  0.018911306            9 
  985000   0.85358042    -7.646075    224.15268  0.018963848  0.018894995           11 
  986000   0.86027196   -7.6512769      224.635  0.018985379  0.018878798           13 
  987000   0.85797681   -7.6433117    224.97077  0.018994493  0.018862509            7 
  988000   0.85057407   -7.6673542     225.1109  0.018987087  0.018846318           21 
  989000   0.85687886   -7.6214707      225.645  0.019012892  0.018830184           13 
  990000   0.87870504   -7.6814338    225.59549   0.01898952  0.018814118           13 
  991000   0.86030291   -7.6670794    224.84109  0.018906919   0.01879783           15 
  992000   0.85578326   -7.6755206    225.25553  0.018922676  0.018781491           11 
  993000   0.84782874   -7.6485611    225.20766  0.018899602   0.01876522           10 
  994000   0.87592501   -7.6461152     225.1087  0.018872292  0.018749037           11 
  995000   0.83548404   -7.6731978    225.09301  0.018852011  0.018732842            8 
  996000   0.86181099   -7.6593076    225.12199  0.018835508  0.018716567            8 
  997000   0.85113175   -7.6822259    225.05264  0.018810819   0.01870035            4 
  998000   0.84914416   -7.6697117    225.95962  0.018867704  0.018684218            7 
  999000   0.85116873   -7.6433808     225.9171   0.01884527  0.018668074            5 
 1000000   0.85174917   -7.6350809    225.98479  0.018832066  0.018652072            6 
 1001000   0.86511544   -7.6522454    225.64039  0.018784581  0.018636097            7 
 1002000   0.86477396   -7.6751692    225.58932  0.018761587  0.018620014           14 
 1003000   0.86622124   -7.6794837    225.59703  0.018743522  0.018603986           10 
 1004000   0.85039986   -7.7244494      225.489  0.018715886  0.018587847            6 
 1005000   0.85784499   -7.6811015    226.26823  0.018761876  0.018571748            4 
 1006000   0.83301398   -7.6492687    226.35214  0.018750177  0.018555627           12 
 1007000   0.85798145   -7.6791221    225.70636  0.018678116  0.018539559           17 
 1008000   0.84730529   -7.6539361    226.44517  0.018720665  0.018523543           11 
 1009000   0.87311676   -7.6585822    226.43923  0.018701621  0.018507533            6 
 1010000   0.86276291   -7.6413166    226.04811  0.018650834  0.018491551            8 
 1011000   0.86310556   -7.6163525    226.92189  0.018704409  0.018475735           10 
 1012000   0.84562236   -7.6488211    225.60552   0.01857753  0.018459779           10 
 1013000   0.85304105   -7.6591705    226.08957   0.01859901  0.018443685            9 
 1014000   0.84283277   -7.6847662    226.01301  0.018574377  0.018427766            9 
 1015000     0.837555   -7.6789691    226.63804  0.018607392  0.018411746            7 
 1016000   0.85219172   -7.6850014    226.20478  0.018553541  0.018395727           21 
 1017000   0.81729801    -7.691108    226.05239  0.018522811  0.018379646           31 
 1018000   0.85240829   -7.6934708    226.43848  0.018536221  0.018363575            4 
 1019000   0.85414207   -7.7017164    226.06229  0.018487266  0.018347494           10 
 1020000   0.83526277   -7.6398094    227.20732   0.01856269  0.018331474            7 
 1021000   0.84560282   -7.6796309    226.70688  0.018503663  0.018315611            5 
 1022000   0.83786686    -7.659912    226.56554  0.018474033  0.018299772           14 
 1023000   0.86644879   -7.6573645     226.8097  0.018475863  0.018283843           12 
 1024000   0.87167959   -7.6648254    226.63734  0.018443794  0.018268018           12 
 1025000   0.83740053   -7.7036472    226.53252  0.018417278  0.018252113           10 
 1026000    0.8503017   -7.6909384     226.5425  0.018400138  0.018236219            8 
 1027000   0.84561057   -7.6719191    227.12291  0.018429318  0.018220415           16 
 1028000   0.84230253    -7.668134    226.84205  0.018388623  0.018204543           10 
 1029000   0.84502982   -7.6711163     226.4481  0.018338848  0.018188564           16 
 1030000   0.86013447   -7.6859856    227.19697  0.018381632  0.018172629            5 
 1031000   0.83891375    -7.693858    227.13852  0.018359079  0.018156665           11 
 1032000   0.85096166   -7.6934023    226.49934  0.018289675  0.018140574            6 
 1033000   0.84081083   -7.6770702    226.80552   0.01829667  0.018124564            8 
 1034000   0.83470316   -7.6510783    227.29386  0.018318332  0.018108661            4 
 1035000   0.84485759   -7.6667872    227.18224  0.018291645   0.01809283            5 
 1036000   0.84192294   -7.6729411     226.8358  0.018246123  0.018076994            4 
 1037000   0.84419663   -7.6833667    226.75278  0.018221857  0.018061104            9 
 1038000   0.81989641   -7.7457273    226.59696  0.018191792  0.018045142            8 
 1039000   0.83710977   -7.6940854    226.63518  0.018177349  0.018029119           21 
 1040000   0.83765478   -7.7089187    226.46053  0.018145875  0.018013117           25 
 1041000   0.84227903   -7.7321078    226.58662  0.018138538  0.017997099           20 
 1042000    0.8526857   -7.7485613    226.16141  0.018087125  0.017980956           12 
 1043000   0.84695597   -7.7204585    226.91356  0.018129878  0.017964887            7 
 1044000   0.83993057   -7.7344082    226.86351  0.018108517  0.017948964           14 
 1045000   0.84089129   -7.7222589    226.80209  0.018086291  0.017932965           10 
 1046000   0.83034223   -7.7616735     226.4244   0.01803891  0.017916935           19 
 1047000   0.82223404   -7.7501208    226.98789  0.018066531   0.01790087           22 
 1048000   0.82084897   -7.7488813    227.32114   0.01807579   0.01788474           14 
 1049000   0.82638547   -7.7572285    226.44148  0.017988678  0.017868643            8 
 1050000   0.85536105   -7.7493511    227.19815  0.018031599  0.017852541            9 
 1051000   0.82695503   -7.7197155    226.97935  0.017997094  0.017836374            6 
 1052000   0.84520035   -7.7793939     227.2761  0.018003493    0.0178203           11 
 1053000   0.84292548   -7.7040623    227.20959  0.017981132  0.017804352           12 
 1054000    0.8245141   -7.7417816    227.43613  0.017981984  0.017788358            7 
 1055000   0.80826078   -7.7744446    227.16259  0.017943333  0.017772366           12 
 1056000   0.83180708   -7.7559765    227.31489  0.017938359  0.017756354           11 
 1057000   0.82771591   -7.7791345    227.21504  0.017913516  0.017740408           18 
 1058000   0.84159403   -7.7552557    227.42127  0.017912828   0.01772452            8 
 1059000   0.84222652   -7.7445107    227.70178  0.017917987  0.017708672            6 
 1060000   0.82850535   -7.7503703    227.42558  0.017879369  0.017692835           21 
 1061000    0.8235234   -7.7699822    227.46179  0.017865362   0.01767702            9 
 1062000   0.83257038   -7.7599605    227.98105  0.017889285  0.017661186           11 
 1063000   0.82784769   -7.7324819     227.9264  0.017868171  0.017645379           21 
 1064000    0.8303188   -7.7802178    227.26957  0.017799935  0.017629605           25 
 1065000   0.82798967   -7.7623905    227.40954  0.017794174  0.017613794           16 
 1066000   0.81352815   -7.7684474     227.8359  0.017810812  0.017598024            8 
 1067000   0.82966022   -7.7901752    227.60918  0.017776412  0.017582128            7 
 1068000   0.83346889   -7.7904035    227.05756  0.017716726  0.017566252            9 
 1069000   0.82857164   -7.8223428    227.53294  0.017737211  0.017550356           16 
 1070000    0.8324907   -7.8039832    227.37007   0.01770795  0.017534429           18 
 1071000   0.85009205   -7.7825807    227.32457  0.017687875  0.017518563           24 
 1072000   0.82757728   -7.8077686    227.49749  0.017684818  0.017502804           43 
 1073000   0.81798107   -7.8165293    227.74072  0.017687226  0.017487026           25 
 1074000   0.82387731   -7.7689589    227.66851  0.017665155  0.017471329           16 
 1075000   0.82679601   -7.7700778    228.45226  0.017709478  0.017455578           17 
 1076000   0.81487528   -7.7858285    227.67108  0.017632518  0.017439925           30 
 1077000   0.80322389   -7.7611257     227.8148  0.017627267  0.017424136           13 
 1078000   0.80725313   -7.7553741    227.56456  0.017591571   0.01740835            9 
 1079000     0.830062   -7.7922127    227.97621   0.01760706  0.017392545           14 
 1080000   0.83244139   -7.7967632    227.58478  0.017560554  0.017376675           30 
 1081000   0.82021444   -7.8206654    227.67404   0.01755119  0.017360759           12 
 1082000   0.81630114   -7.7948412    227.73797  0.017539893  0.017344799           10 
 1083000   0.83053448   -7.7908631    227.27611  0.017488159  0.017328882           24 
 1084000   0.81478227   -7.8089915    227.28357  0.017472599   0.01731293           17 
 1085000   0.82010759   -7.7931013    227.41915  0.017466909  0.017296991           18 
 1086000   0.78640463   -7.8271249    227.38833   0.01744846  0.017280997           15 
 1087000   0.81240575    -7.825581    227.63629  0.017451418  0.017265071           18 
 1088000   0.79570008   -7.8640562    227.05428  0.017390799  0.017249073           14 
 1089000   0.81736056   -7.8219654    227.80017  0.017431908  0.017233216           10 
 1090000   0.80546202   -7.8255438    227.76078  0.017412904  0.017217411           25 
 1091000   0.83210262   -7.8458328    227.68234  0.017390952  0.017201593           18 
 1092000   0.82215987   -7.8213188    227.87961   0.01739008  0.017185744           18 
 1093000   0.82287859   -7.8139941    227.41112  0.017338451  0.017169959           13 
 1094000   0.80056184    -7.858066    227.54633  0.017332902  0.017154095           15 
 1095000   0.82548415   -7.8630123    227.66804  0.017326335  0.017138297            8 
 1096000   0.80979898   -7.8216578    227.77105  0.017318358  0.017122559           10 
 1097000    0.8128642   -7.8154334    228.17097  0.017332951  0.017106822           25 
 1098000   0.79316872   -7.8291652    227.87845  0.017294965  0.017091088           29 
 1099000    0.8177585    -7.831434    228.06997   0.01729375  0.017075357           38 
 1100000   0.81104701   -7.8522854     227.9519  0.017269083  0.017059676           34 
 1101000    0.8042432   -7.8008764     228.0043  0.017257364   0.01704391           47 
 1102000    0.8051359   -7.8563748     228.1332  0.017251452   0.01702817           43 
 1103000   0.80323958   -7.8761538    227.83148  0.017213016  0.017012364           60 
 1104000   0.80462035   -7.8566965    227.56451  0.017177273  0.016996724           70 
 1105000   0.80196779   -7.8346301    228.30996  0.017217946  0.016981026           49 
 1106000   0.82064712   -7.8288463    228.05343   0.01718305  0.016965397           44 
 1107000   0.80482986   -7.8265681    228.71487  0.017217319  0.016949723           14 
 1108000   0.81218722   -7.7988834    228.48519  0.017184506  0.016934184           34 
 1109000   0.80640184   -7.8312263    228.76724  0.017190205  0.016918583           58 
 1110000   0.82830743   -7.8608321    227.72082  0.017096157  0.016902923           45 
 1111000   0.80688793   -7.8589947    227.75651  0.017083447  0.016887232           67 
 1112000   0.81026091   -7.8272729    227.74137  0.017066949  0.016871573           52 
 1113000   0.81244741   -7.8526544    228.57679  0.017114165  0.016855893           44 
 1114000   0.81071591   -7.8298912    228.49842   0.01709294  0.016840213           55 
 1115000   0.81630595   -7.8685407    228.18034  0.017053837  0.016824588           60 
 1116000    0.8229277   -7.8837103    227.67416  0.017000758   0.01680892           36 
 1117000   0.81513296   -7.9033322    227.87523   0.01700054  0.016793254           44 
 1118000   0.81639161     -7.86964    227.88781  0.016986271  0.016777689           49 
 1119000   0.80585892   -7.8833061    228.55872  0.017021054  0.016762125           37 
 1120000    0.8230725   -7.8598672    228.40236  0.016994223  0.016746549           35 
 1121000   0.80542668   -7.8888521      228.109  0.016957256  0.016730969           53 
 1122000   0.81820266   -7.8473597    227.75414  0.016915786  0.016715304           66 
 1123000   0.80780187    -7.877632    228.08875  0.016925553  0.016699651           56 
 1124000   0.82010022   -7.8647036    228.59157  0.016947774  0.016684015           49 
 1125000   0.80919396   -7.8297836    228.47746  0.016924256  0.016668553           61 
 1126000    0.7844359   -7.8489871    228.35951  0.016900496  0.016653072           23 
 1127000   0.79584616   -7.8474469     228.8414  0.016921133  0.016637635           69 
 1128000   0.79960814   -7.8525921    228.29711  0.016865921  0.016622172           80 
 1129000   0.80893146   -7.8628739    228.68902   0.01687991  0.016606616           41 
 1130000   0.80432949   -7.8950176    227.69832  0.016791911  0.016590923           81 
 1131000   0.77425858   -7.8763221    228.07396  0.016804742  0.016575301           60 
 1132000   0.80874933   -7.8982691    227.94716  0.016780562  0.016559701           32 
 1133000   0.81820273    -7.854078    227.92901  0.016764416  0.016544066           72 
 1134000   0.81333557   -7.9053435    227.59958  0.016725425  0.016528385           57 
 1135000   0.79417455   -7.8825638    227.74056   0.01672104  0.016512781           48 
 1136000   0.79695929   -7.9192426    227.84258  0.016713804   0.01649725           41 
 1137000   0.79309597   -7.8958022    228.07246  0.016715953  0.016481628           50 
 1138000   0.79943799   -7.8785075    228.79846  0.016754427  0.016466111           45 
 1139000   0.79251339   -7.8955963    228.07094  0.016686489  0.016450632           60 
 1140000    0.7889716   -7.8875156    228.39893  0.016695828  0.016435196           29 
 1141000   0.79227215    -7.872694    228.65612  0.016699979  0.016419767           19 
 1142000   0.79348119   -7.9237661    227.84226  0.016625968  0.016404303           44 
 1143000     0.805755   -7.8871125    228.40423  0.016652394   0.01638887           45 
 1144000   0.79377492   -7.8880707     228.5809  0.016650706  0.016373471           43 
 1145000   0.80693401   -7.9012675    227.83542  0.016581909  0.016357972           28 
 1146000   0.80603494   -7.9086731    228.61005  0.016623767  0.016342508           37 
 1147000   0.80796981   -7.9149043    228.09125  0.016571582  0.016327002           28 
 1148000   0.80756493   -7.9183115    228.07396  0.016555892  0.016311482           25 
 1149000    0.7929656   -7.8983172    228.46842  0.016570091  0.016295986           25 
 1150000   0.78625312   -7.8951995    228.49364   0.01655751  0.016280514           28 
 1151000   0.77820711   -7.9146489    228.06393  0.016512013  0.016265029           25 
 1152000   0.80608288   -7.9249059    228.05744  0.016497211  0.016249509           34 
 1153000   0.78142582   -7.9239939    228.13891  0.016488791  0.016234079           31 
 1154000   0.78621036   -7.8956033     228.3359  0.016488728  0.016218691           53 
 1155000   0.79731871   -7.8744499    228.85291  0.016511754  0.016203331           65 
 1156000    0.7914841   -7.9079753    228.58667  0.016478278  0.016188003           48 
 1157000   0.79485466   -7.8848586    229.14155  0.016504001  0.016172628           37 
 1158000   0.78809301   -7.8955778    228.80011  0.016465177  0.016157324           29 
 1159000   0.77835185   -7.8817921    229.21842  0.016481048  0.016141999           34 
 1160000    0.7810205   -7.8967995    228.43488  0.016410552  0.016126722           52 
 1161000   0.77921979   -7.8824771    228.45654  0.016397971  0.016111386           32 
 1162000   0.78243924   -7.9075877    227.60659  0.016322905  0.016096111           29 
 1163000   0.79950858   -7.9216794    228.05414  0.016340939  0.016080806           23 
 1164000   0.80646285   -7.8662754    229.20986  0.016409641  0.016065542           15 
 1165000   0.79709393   -7.9199916    228.60063  0.016351976   0.01605033           15 
 1166000   0.77637674   -7.9151121    228.70644  0.016345515  0.016035095           27 
 1167000   0.78341788   -7.9068219    229.02798  0.016354469  0.016019865           29 
 1168000   0.79501211   -7.9269824    228.78849  0.016323379  0.016004614           50 
 1169000   0.77448894   -7.9100428    228.67856   0.01630158  0.015989402           38 
 1170000    0.7909233   -7.9580605    228.00461  0.016239644  0.015974211           14 
 1171000   0.80253171   -7.9223373    228.64606  0.016271424  0.015959021           15 
 1172000   0.77415335   -7.9436679    228.54287  0.016250204  0.015943808           27 
 1173000   0.78811581   -7.9240242    228.57708  0.016238781  0.015928587           28 
 1174000   0.79900902   -7.9206736    228.63582  0.016229118  0.015913345           26 
 1175000   0.78096655   -7.9230325    228.68113   0.01621852  0.015898182           28 
 1176000   0.78621538   -7.9550322    228.42913  0.016186871  0.015883113           17 
 1177000   0.78569487   -7.9330942    228.97443  0.016211727  0.015868017           24 
 1178000   0.79219235   -7.8969969     228.8494   0.01618912  0.015852992           31 
 1179000   0.79212999   -7.9231468    229.17698  0.016198543  0.015838003           14 
 1180000   0.78726535   -7.9023211    229.20301  0.016186653  0.015822983           13 
 1181000   0.77038575    -7.936284    228.95314  0.016155316  0.015807964           11 
 1182000    0.7834333   -7.9089665    229.02721   0.01614687   0.01579292           23 
 1183000   0.76152755   -7.9381609    228.41536  0.016090121  0.015777939           26 
 1184000   0.80205774   -7.8943762     229.6842  0.016165836  0.015762958           16 
 1185000   0.78037198   -7.9365519    228.38451  0.016060795  0.015747952           12 
 1186000   0.78748396   -7.9397817    228.58923  0.016061638  0.015732992           12 
 1187000   0.76692469   -7.9385876    228.62982  0.016050956  0.015717976           24 
 1188000   0.77454197   -7.9629547    228.86492  0.016053937  0.015703025           30 
 1189000   0.78236503    -7.957707    228.62205  0.016023413  0.015688056           11 
 1190000   0.78187571   -7.9522039    228.51751  0.016002627  0.015673117           28 
 1191000   0.77066581   -7.9477497    228.37664  0.015979334  0.015658153           14 
 1192000   0.77068813   -7.9612233    228.75235  0.015992194  0.015643188           26 
 1193000   0.76628263   -7.9349086    229.19819  0.016009932  0.015628229           24 
 1194000   0.76326547   -7.9561624    228.45499  0.015944653   0.01561326           27 
 1195000    0.7723304    -7.984987    228.29374  0.015920065  0.015598295           41 
 1196000    0.7624725    -7.958613    228.55843  0.015925197  0.015583362           19 
 1197000   0.77620012   -7.9710699    228.41902  0.015902187  0.015568366           44 
 1198000   0.76795287   -7.9784907    228.27202  0.015878688  0.015553355           28 
 1199000   0.76701846   -7.9750439    228.82169  0.015903648  0.015538342           34 
 1200000   0.76474011    -7.956175     228.5145  0.015869062   0.01552339           28 
 1201000   0.78411993   -7.9448046    228.59831  0.015861664  0.015508453           32 
 1202000   0.78367445   -7.9719572    228.47694  0.015840054  0.015493517           45 
 1203000    0.7879454   -7.9602757    228.65027  0.015838894   0.01547852           19 
 1204000   0.78558349   -7.9570156    228.94292  0.015845994  0.015463491           18 
 1205000   0.77256074   -7.9703902    228.44642  0.015798508  0.015448506           26 
 1206000   0.75680454   -7.9909151    228.01612  0.015755674  0.015433513           33 
 1207000    0.7757295   -7.9728439    227.88818  0.015733787  0.015418487           28 
 1208000   0.75163843   -7.9662371    228.15792  0.015739371  0.015403438           12 
 1209000   0.77819351   -7.9614137    228.74378  0.015766734  0.015388493           19 
 1210000   0.77295257   -7.9943969    228.00429  0.015702775  0.015373562           15 
 1211000   0.77921078   -7.9918663    228.63447  0.015733173   0.01535861           27 
 1212000   0.77729631   -7.9514742      229.035  0.015747731  0.015343785           29 
 1213000   0.76205172   -7.9954154    227.77875  0.015648444  0.015328887           11 
 1214000   0.76661922   -7.9647457    228.11165  0.015658406  0.015313976           23 
 1215000   0.77016197   -7.9882002    228.53886  0.015674819  0.015299163           15 
 1216000   0.75557207   -7.9893537    228.46429  0.015656818  0.015284364           25 
 1217000   0.76335112   -7.9587277    228.67767  0.015658564  0.015269545           42 
 1218000   0.77629051   -7.9951716    228.43091  0.015628825  0.015254701           42 
 1219000   0.77386438   -8.0093984    228.59009  0.015626886  0.015239898           21 
 1220000   0.77469822   -8.0093159    228.37018  0.015599056  0.015225058           31 
 1221000   0.76958807   -7.9872553    228.25936  0.015578717  0.015210249           28 
 1222000   0.76927566   -8.0079882    228.27376   0.01556695  0.015195428           23 
 1223000   0.76368473   -8.0088551    228.24013   0.01555193  0.015180652           50 
 1224000   0.77953652   -7.9905535    228.12428  0.015531337   0.01516583           21 
 1225000   0.77140132   -8.0120304     227.9721  0.015508306  0.015151026           34 
 1226000   0.77213094   -7.9899181    228.22968  0.015513165  0.015136237           38 
 1227000   0.76978467   -8.0005947    228.41457  0.015513079  0.015121459           37 
 1228000   0.76453012   -8.0194216     228.3768  0.015497883  0.015106708           48 
 1229000   0.76511327   -8.0125595    228.55701  0.015497492  0.015091967           29 
 1230000   0.76717145   -8.0432247    227.83643  0.015436073  0.015077207           48 
 1231000   0.75560701   -8.0543312    227.52606  0.015402523  0.015062441           64 
 1232000   0.76041784   -8.0159902    228.01371  0.015423005   0.01504769           54 
 1233000   0.76156572   -8.0242309    228.05148  0.015413049  0.015032876           32 
 1234000   0.76958378   -8.0418816    227.76257  0.015381049  0.015018134           40 
 1235000   0.75231835    -8.009211    228.22259  0.015399635  0.015003394           61 
 1236000   0.76804883   -8.0497947    228.20906  0.015386263  0.014988697           68 
 1237000   0.77198316   -8.0418187    227.94437  0.015355993  0.014974001           68 
 1238000   0.76135436   -8.0364341    228.25897  0.015364766  0.014959255           40 
 1239000   0.76888234   -8.0521048    228.21909  0.015349683  0.014944567           60 
 1240000   0.75979362   -8.0522114    227.68879  0.015301666  0.014929874           44 
 1241000   0.74877099   -8.0445741    228.30926     0.015331  0.014915193           23 
 1242000   0.76128334   -8.0303843    227.88726  0.015290342  0.014900489           36 
 1243000   0.77424237   -8.0302282    227.79478  0.015271841  0.014885824           35 
 1244000   0.76318675   -8.0496174    228.74751  0.015323386  0.014871178           22 
 1245000   0.73877646   -8.0609093    227.71855  0.015242206   0.01485656           17 
 1246000   0.77279025   -8.0307546    228.19252  0.015261672  0.014841938           36 
 1247000   0.75806799   -8.0385306     227.7987  0.015223115  0.014827348           46 
 1248000   0.74970775   -8.0433669    228.13765   0.01523355  0.014812788           28 
 1249000   0.74758582   -8.0637837    228.24512  0.015228524  0.014798246           23 
 1250000   0.75775369   -8.0637151    227.53228  0.015168818  0.014783673           68 
 1251000   0.74453539   -8.0578091    227.83856  0.015177095  0.014769108           19 
 1252000   0.76163322   -8.0602886    228.04055  0.015178418  0.014754553           28 
 1253000   0.76493336   -8.0332748    228.38829  0.015189431  0.014740039           30 
 1254000   0.74614706   -8.0503693    228.40827  0.015178647  0.014725516           29 
 1255000   0.74572515   -8.0482025    227.78695  0.015125295   0.01471101           33 
 1256000   0.76512812   -8.0866023    227.59263   0.01510036  0.014696492           17 
 1257000   0.75344235   -8.0730039    227.89979  0.015108711  0.014681996           26 
 1258000   0.75127851    -8.050532    227.91642  0.015097802  0.014667471           40 
 1259000   0.76798307   -8.0843029    227.96849  0.015089257  0.014652942           74 
 1260000   0.76079442   -8.0613761    228.09833  0.015085869  0.014638444           44 
 1261000   0.74937667   -8.0968827    227.93668  0.015063222  0.014623993           36 
 1262000   0.73036105   -8.0791887    227.52636  0.015024191  0.014609526           25 
 1263000   0.75117035   -8.0304269     227.9837  0.015042472  0.014595125           44 
 1264000   0.74837607   -8.0418821    227.91915  0.015026315  0.014580747           36 
 1265000   0.73539992   -8.0398108    227.80068  0.015006632  0.014566403           13 
 1266000   0.74026398   -8.0926988    228.30933   0.01502826  0.014552036           50 
 1267000   0.75867581   -8.0489596    228.06616  0.015000405  0.014537696           29 
 1268000   0.73203393   -8.0763166    228.18247  0.014996219  0.014523386           58 
 1269000    0.7617298   -8.0825428     228.0746  0.014977318   0.01450908           52 
 1270000   0.74157214    -8.088297     228.1381  0.014969692  0.014494776           64 
 1271000   0.74569473   -8.0611881    228.29899  0.014968463   0.01448043           47 
 1272000   0.74405433   -8.0738343     227.7238  0.014919012  0.014466097           22 
 1273000   0.74922577    -8.067803    228.12205  0.014933363   0.01445178           25 
 1274000   0.73745443   -8.0681828    228.11079  0.014920905  0.014437483           18 
 1275000   0.75550885   -8.0673952     228.2503   0.01491832   0.01442322           30 
 1276000   0.74659506   -8.0673208    227.60752   0.01486465  0.014408964           65 
 1277000   0.73072655   -8.0744309    228.03831  0.014881122  0.014394752           39 
 1278000   0.74238453   -8.1012549    227.68018  0.014846125  0.014380504           25 
 1279000   0.73496196   -8.0876499    227.68976  0.014835142  0.014366257           35 
 1280000   0.74114027   -8.0839795    228.41487   0.01487076  0.014352037           28 
 1281000   0.74613416   -8.0595278     228.3607  0.014855627  0.014337815           27 
 1282000    0.7468269    -8.098609     228.0276  0.014822387  0.014323621           66 
 1283000   0.72635322   -8.0800286    228.18152  0.014820831  0.014309375           35 
 1284000   0.72708212   -8.0893551    227.54078  0.014767704  0.014295179           19 
 1285000   0.73115215   -8.0809091    227.68388  0.014765491  0.014280977           36 
 1286000   0.73624253   -8.0783681    227.84599  0.014764515   0.01426683           24 
 1287000   0.74884617   -8.0805321    228.14736  0.014772556  0.014252678           44 
 1288000   0.73231555   -8.0820611    227.78265   0.01473749  0.014238561           46 
 1289000   0.73613103   -8.0759206    227.59831  0.014714139  0.014224424           52 
 1290000   0.72940579   -8.0886689    227.90869  0.014722784  0.014210307           46 
 1291000     0.739775   -8.0833038    227.92382  0.014712356  0.014196209           49 
 1292000   0.74213717   -8.1204012    227.43193  0.014669242  0.014182117           44 
 1293000   0.74406162   -8.1063527    227.76601  0.014679428  0.014168055           44 
 1294000   0.73108676   -8.0836365    227.88624  0.014675827  0.014154053           48 
 1295000   0.73795717   -8.1027954     227.5607  0.014643546  0.014140046           45 
 1296000    0.7371685   -8.0618075    227.68827  0.014640449  0.014126039           36 
 1297000   0.74826081   -8.0852062    227.43889  0.014613138  0.014112015           71 
 1298000   0.74892474   -8.1022428    227.86425  0.014629189  0.014097968           51 
 1299000   0.74403449    -8.110699    227.68369  0.014606344   0.01408393          101 
 1300000   0.72648001   -8.1223223    227.96295   0.01461301   0.01406992           60 
 1301000   0.73210925    -8.126162    227.17975  0.014551611  0.014055933           50 
 1302000   0.76313247   -8.1108129    227.47538  0.014559356  0.014041908           77 
 1303000   0.72981252   -8.1356493    227.58117  0.014554948  0.014027922           58 
 1304000   0.73052503   -8.1322932    227.22821   0.01452123   0.01401396           32 
 1305000   0.72837632   -8.1240839    227.41607  0.014522099  0.013999978           59 
 1306000   0.73635179   -8.1115092    227.92704  0.014543584  0.013986013           80 
 1307000   0.73256622   -8.1380235    227.59726  0.014511429  0.013972058           51 
 1308000   0.72552522   -8.1262314    227.85532  0.014516776  0.013958116           68 
 1309000   0.71850241   -8.1289666    227.50706  0.014483515  0.013944201           69 
 1310000   0.73946019   -8.1427325    227.46711  0.014469918  0.013930315           75 
 1311000    0.7360227   -8.1355963    227.83848  0.014482487  0.013916406           54 
 1312000   0.74701479   -8.1294635    227.62025  0.014457587   0.01390253           64 
 1313000   0.72850373   -8.1261443    227.54475  0.014441784  0.013888627           79 
 1314000   0.74140512   -8.1436049    227.02998  0.014398147  0.013874751           56 
 1315000   0.73868875   -8.1148162    227.83382  0.014438138  0.013860888           51 
 1316000   0.75151943   -8.1450993    227.22675  0.014388726  0.013847072          107 
 1317000   0.72264035     -8.12384     227.5036  0.014395318  0.013833249           68 
 1318000   0.72324518   -8.1118782    227.45919  0.014381587  0.013819467           69 
 1319000   0.70961917   -8.1285735    227.86815  0.014396522  0.013805715           77 
 1320000   0.72657149   -8.1668293    227.34788   0.01435277  0.013791992           81 
 1321000   0.74903248    -8.131572    227.66453  0.014361881  0.013778287           86 
 1322000   0.72678979   -8.1542834    228.19238   0.01438429  0.013764607           78 
 1323000    0.7303107     -8.14301     227.5605  0.014333617  0.013750894          105 
 1324000   0.72320304   -8.1465751    227.43536  0.014314915  0.013737195          100 
 1325000   0.72784327   -8.1389265    227.74017  0.014323281  0.013723477          101 
 1326000    0.7311961   -8.1315043    227.13948  0.014274728  0.013709802           73 
 1327000   0.73451256   -8.1389824    227.49399  0.014286234  0.013696128           90 
 1328000   0.70842696   -8.1471244    227.84693  0.014297624  0.013682446           76 
 1329000   0.72681626   -8.1490211    227.38197  0.014257711  0.013668799           89 
 1330000   0.72622614    -8.135862     227.4777  0.014252989  0.013655151          115 
 1331000   0.71478464    -8.121239    227.67392  0.014254565  0.013641547          101 
 1332000   0.73388344   -8.1517055    227.28355  0.014219441  0.013627917           95 
 1333000   0.71764113   -8.1588077    227.61287  0.014229362  0.013614307           70 
 1334000    0.7149899   -8.1300177    227.39756  0.014205245  0.013600701           53 
 1335000    0.7146419   -8.1550896    227.59297  0.014206802  0.013587127          102 
 1336000    0.7106953   -8.1409584    226.94021  0.014155452  0.013573589           75 
 1337000   0.73276831   -8.1457214    227.00973  0.014149198  0.013560017           77 
 1338000   0.73426428   -8.1400466    226.79129  0.014125018  0.013546432           51 
 1339000   0.71559272   -8.1421885    227.21008  0.014140533  0.013532866           57 
 1340000    0.7007223   -8.1619933    227.01421  0.014117799  0.013519352          112 
 1341000   0.70660479   -8.1618987    227.42569  0.014132842   0.01350582          105 
 1342000   0.70758441   -8.1592541    227.35735  0.014118067  0.013492301           79 
 1343000   0.71442115    -8.171757    226.89676  0.014078975  0.013478822           87 
 1344000   0.72313916   -8.1606557    227.67553  0.014116787   0.01346533           99 
 1345000   0.72045635   -8.1587538    227.24288  0.014079485  0.013451829           92 
 1346000   0.69108374   -8.1729816    226.93781  0.014050137  0.013438356          106 
 1347000   0.71683272   -8.1475907    227.49727  0.014074318  0.013424913           97 
 1348000     0.713192   -8.1458508    227.35646  0.014055172   0.01341147           99 
 1349000   0.73527041   -8.1472162    227.27347  0.014039626  0.013398099           90 
 1350000   0.69135265   -8.1692732    227.26042  0.014028421  0.013384713          112 
 1351000   0.71908448   -8.1432487    227.65009  0.014042073  0.013371348          107 
 1352000   0.72124256   -8.1574617     227.4577  0.014019829  0.013357979           91 
 1353000   0.71786581   -8.1374195    227.45636  0.014009384  0.013344623           93 
 1354000   0.70284805    -8.164235    227.01795  0.013972055  0.013331298          107 
 1355000   0.71963111   -8.1634118    227.36607  0.013983153   0.01331798           89 
 1356000   0.71592443   -8.1771868    226.98993  0.013949725  0.013304705          144 
 1357000   0.70110808   -8.1513652    227.22368    0.0139538  0.013291435          115 
 1358000     0.702103   -8.1693126    227.42676  0.013955987  0.013278189          101 
 1359000   0.71361909   -8.1770818    227.10227   0.01392582  0.013264941          135 
 1360000   0.72369168   -8.1584743    227.33309  0.013929724  0.013251699          113 
 1361000   0.70412952    -8.174642    227.30913  0.013918022   0.01323843          111 
 1362000   0.70430818    -8.144578    226.99542  0.013888609  0.013225164           74 
 1363000   0.70521086   -8.1796541    226.97521  0.013877183  0.013211923          102 
 1364000   0.72074626    -8.184012     227.3704  0.013891154  0.013198701          142 
 1365000   0.69634529   -8.1751144    227.35446  0.013880004  0.013185547          161 
 1366000   0.71166545   -8.1467613    227.13055  0.013856183  0.013172384          112 
 1367000   0.70985495   -8.1751363    227.27055  0.013854581  0.013159247          110 
 1368000     0.712217   -8.1961846    227.02015    0.0138292  0.013146136          121 
 1369000   0.70391681   -8.1782356    227.14113  0.013826463   0.01313303          113 
 1370000   0.72470635   -8.1683188     227.5704  0.013842481  0.013119931          183 
 1371000   0.70534043   -8.1836596    226.80817  0.013786054   0.01310681          137 
 1372000   0.71019504   -8.1840189    226.62078  0.013764625  0.013093703          128 
 1373000   0.69071859   -8.2005367    227.11572   0.01378464  0.013080588          126 
 1374000   0.72558072    -8.199965    226.83397  0.013757519  0.013067459          197 
 1375000   0.69466736   -8.2031815    227.07279  0.013761987  0.013054333          198 
 1376000   0.72193116   -8.1934795    226.87958  0.013740285  0.013041249          185 
 1377000   0.69486107    -8.192282    227.03886  0.013739945  0.013028194          193 
 1378000   0.70204912   -8.1906142    227.13134  0.013735568  0.013015165          136 
 1379000   0.70880175   -8.1772806    226.73212  0.013701481   0.01300219          174 
 1380000   0.71421707   -8.1910747    226.81571  0.013696601  0.012989194          302 
 1381000   0.70581128   -8.1894646    226.70679   0.01368011  0.012976189          238 
 1382000   0.71684067   -8.1982102    226.99462  0.013687567  0.012963208          154 
 1383000   0.70171698   -8.2297799    226.87988  0.013670757   0.01295023          158 
 1384000   0.70607375   -8.1896719    227.00167  0.013668212  0.012937287          155 
 1385000   0.70203587   -8.1841611    227.31946  0.013677465   0.01292437          145 
 1386000    0.7007837   -8.2093944    227.05058   0.01365143  0.012911455          159 
 1387000   0.68962525   -8.2148965    226.85152  0.013629628  0.012898556          210 
 1388000     0.707817   -8.1910846    227.47018  0.013656951  0.012885625          187 
 1389000   0.69245377   -8.2055517     226.7134  0.013601716   0.01287271          222 
 1390000   0.71281206   -8.2042611    226.72166  0.013592426  0.012859788          188 
 1391000   0.68904326   -8.2094018    226.74945  0.013584319  0.012846899          147 
 1392000   0.69712588   -8.2042629     226.7416   0.01357409  0.012833985          232 
 1393000   0.70282022   -8.1873126    226.80943  0.013568403  0.012821102          202 
 1394000   0.69517822   -8.1975898    226.60019  0.013546162  0.012808261          215 
 1395000   0.70538796   -8.2115168    227.12195   0.01356762  0.012795453          135 
 1396000   0.69304726   -8.1981985    227.45741  0.013577925  0.012782635          104 
 1397000   0.70032318   -8.2008808    226.81882  0.013530113   0.01276983          206 
 1398000   0.68520419   -8.2075537    226.99787  0.013531108   0.01275704          163 
 1399000   0.68929757   -8.2190584    226.85661  0.013513022  0.012744269          143 
 1400000   0.68962787   -8.2298917    226.44872  0.013479091   0.01273151          134 
 1401000   0.69709805   -8.2137254    226.88831  0.013495617  0.012718766          137 
 1402000   0.69681023   -8.2008597     226.7352   0.01347689  0.012706055          205 
 1403000   0.69167458   -8.2086947    227.20941  0.013495451  0.012693356          130 
 1404000   0.69236606   -8.1972719    226.85975  0.013465085  0.012680643          174 
 1405000   0.68880559   -8.2216875     226.5258  0.013435694  0.012667988          173 
 1406000   0.68391035    -8.215983    226.62083   0.01343177  0.012655328          238 
 1407000   0.68973268   -8.1912508    226.78805  0.013432128  0.012642662          182 
 1408000   0.69153336   -8.2228676    226.51779  0.013406593   0.01263003          138 
 1409000   0.68643516   -8.2137281    227.01314  0.013426375  0.012617423          215 
 1410000   0.71795331   -8.2442932    226.87759  0.013408841  0.012604803          202 
 1411000   0.69440519   -8.2405888    226.70465  0.013389124  0.012592173          187 
 1412000   0.68646823   -8.2395447    226.60391  0.013373697  0.012579578          185 
 1413000   0.69918638   -8.2417898    226.83619  0.013377931  0.012567015          240 
 1414000    0.7004676   -8.2309116    226.59962  0.013354527  0.012554465          203 
 1415000   0.68627168   -8.2242076     226.3205  0.013328651   0.01254192          177 
 1416000   0.68574524   -8.2105142    226.35043     0.013321  0.012529405          231 
 1417000   0.69053949   -8.2423507    226.42577   0.01331603  0.012516905          199 
 1418000   0.69253988   -8.2172306    226.71817  0.013323823  0.012504383          230 
 1419000   0.67767602   -8.2138184    226.87174  0.013323452  0.012491901          208 
 1420000   0.69185469   -8.1972304    226.53678  0.013294412  0.012479449          222 
 1421000   0.68077801   -8.2335807    226.75891  0.013298083  0.012467006          224 
 1422000   0.67261191    -8.217546    226.32468  0.013263284  0.012454589          195 
 1423000   0.68604167   -8.2342677    226.50297  0.013264404  0.012442167          181 
 1424000   0.70031048   -8.2419625    226.91169  0.013279008  0.012429725          186 
 1425000   0.69724529   -8.2387679    226.63831  0.013253702  0.012417306          195 
 1426000   0.69187523   -8.2560806    226.54595  0.013239011  0.012404903          222 
 1427000   0.67432545   -8.2647407    226.65787  0.013236269  0.012392501          222 
 1428000   0.67934732   -8.2388248    226.47119  0.013216106  0.012380122          215 
 1429000   0.67536079   -8.2221947    226.70635  0.013220571   0.01236777          143 
 1430000    0.6838495   -8.2075135    226.65056  0.013208075  0.012355429          214 
 1431000   0.67558759   -8.2466149    226.45777  0.013187617  0.012343097          126 
 1432000   0.68070231   -8.2195284    226.60785  0.013187142  0.012330776          158 
 1433000   0.68761675   -8.2401356    226.00708  0.013143003  0.012318479          188 
 1434000   0.68178528   -8.2115985    226.58978    0.0131677   0.01230622          188 
 1435000   0.67767076   -8.2454075    226.47087  0.013151619   0.01229399          166 
 1436000   0.67174701    -8.238526    226.80883  0.013162072   0.01228173          136 
 1437000   0.68397812   -8.2455948    226.97614  0.013162616  0.012269496          205 
 1438000   0.67189303    -8.272833    226.64235  0.013134118  0.012257252          167 
 1439000   0.68104228   -8.2328054    226.41741  0.013111965  0.012245016          210 
 1440000   0.69504761   -8.2537881    226.67677  0.013117869  0.012232842          162 
 1441000   0.68528941   -8.2511085    226.44681  0.013095467  0.012220628          191 
 1442000    0.6743468   -8.2673056    225.78185  0.013047957  0.012208415          139 
 1443000   0.68597582   -8.2683609     226.8654   0.01310149  0.012196224          218 
 1444000   0.67018707   -8.2481455    226.82186  0.013089904  0.012184051          162 
 1445000   0.67272447   -8.2546622    226.33786  0.013052933  0.012171888          214 
 1446000   0.66371967   -8.2680721    226.27217   0.01304012  0.012159727          207 
 1447000   0.67265573   -8.2589523    226.44932  0.013041311  0.012147578          218 
 1448000   0.67400324    -8.268483    226.67115  0.013045071  0.012135477          276 
 1449000   0.68280915   -8.2635277    226.39462  0.013020165  0.012123355          146 
 1450000   0.67238573   -8.2309078    226.56179  0.013020793  0.012111269          204 
 1451000    0.6795077   -8.2521654    226.49131  0.013007771  0.012099174          216 
 1452000   0.67215539   -8.2860931     225.9301  0.012966604  0.012087085          158 
 1453000   0.67784008   -8.2951928    226.02661  0.012963215  0.012075015          210 
 1454000    0.6754432   -8.2695987    226.62405   0.01298854  0.012062963          215 
 1455000   0.66812657   -8.2325224    226.64119  0.012980595   0.01205093          213 
 1456000   0.67347954   -8.2640953     226.2127  0.012947155  0.012038925          217 
 1457000   0.67537152   -8.2811395    226.31649  0.012944205  0.012026944          184 
 1458000   0.67313339   -8.2999881    226.58567  0.012950713  0.012015002          191 
 1459000   0.67154117   -8.2593189    226.57727  0.012941357  0.012003032          212 
 1460000   0.65360717   -8.2615036    226.10401   0.01290548  0.011991093          179 
 1461000   0.66723585   -8.2417145    226.79636  0.012936138  0.011979154          105 
 1462000    0.6609766   -8.2640541    226.38759  0.012903989  0.011967234          147 
 1463000   0.68044088    -8.250277    226.11995  0.012879924  0.011955338          192 
 1464000   0.66212869   -8.2507437    226.53304   0.01289464  0.011943443          113 
 1465000     0.675926   -8.2722369      226.571  0.012887998   0.01193157          198 
 1466000   0.66353974   -8.2880069    226.30526    0.0128641  0.011919692          220 
 1467000   0.66952569   -8.2998734    225.81635  0.012827559  0.011907809          259 
 1468000   0.67812869   -8.2779301    226.10435   0.01283517  0.011895924          269 
 1469000   0.66633572   -8.2689855    226.36877  0.012841432  0.011884062          214 
 1470000   0.67693554   -8.3047728    225.79375  0.012800099  0.011872192          214 
 1471000   0.65386366   -8.2708749    226.10218   0.01280887  0.011860359          197 
 1472000    0.6643655   -8.2912418    225.87812  0.012787484   0.01184854          222 
 1473000   0.68143371   -8.2734805    226.24027  0.012799291  0.011836743          216 
 1474000   0.67363652     -8.28148    226.27154  0.012792376   0.01182495          148 
 1475000   0.66022819   -8.2833185    226.54222  0.012798996  0.011813163          156 
 1476000   0.64672842   -8.2954795     225.8304  0.012750136   0.01180139          212 
 1477000   0.66426481   -8.2720667    226.38777   0.01277295  0.011789642          185 
 1478000   0.68155902   -8.2738095    226.12411  0.012749443  0.011777917          185 
 1479000   0.65968645   -8.2642493    226.26213  0.012748599  0.011766188          190 
 1480000   0.65848995   -8.2988028    225.65842  0.012705992  0.011754486          242 
 1481000   0.65248303   -8.2800031    226.03218  0.012718444  0.011742758          205 
 1482000   0.66335578   -8.2655525    226.34971  0.012727716  0.011731078          191 
 1483000   0.65222229   -8.2972588    226.03367  0.012701375  0.011719409          221 
 1484000   0.66898247   -8.2944567    225.95876   0.01268861  0.011707746          227 
 1485000   0.66680462   -8.2899313    225.51997  0.012655441  0.011696087          220 
 1486000   0.67154462   -8.3015388    226.05516  0.012676938  0.011684458          187 
 1487000   0.67773866   -8.2796777     225.5108  0.012637906  0.011672833          189 
 1488000   0.66541169   -8.2779899    225.80297  0.012645776  0.011661228          186 
 1489000   0.65879855   -8.2851409    225.92262  0.012643979  0.011649616          204 
 1490000   0.65828223    -8.289526    225.59332  0.012617076  0.011638017          186 
 1491000   0.66835682   -8.3092727    225.76246  0.012618068  0.011626429          216 
 1492000   0.65665946   -8.3020822    225.70282  0.012606279  0.011614849          187 
 1493000   0.66586798   -8.2783853    226.09168   0.01261954  0.011603275          139 
 1494000   0.65912946   -8.3315435    226.08201  0.012610554  0.011591751          221 
 1495000   0.67962231   -8.2903018    225.67366  0.012579357  0.011580228          147 
 1496000   0.64951357   -8.2665626    225.53476  0.012563211  0.011568715          201 
 1497000   0.65273774   -8.2997396    225.72877  0.012565619  0.011557195          182 
 1498000   0.65433466   -8.3093644    225.72121   0.01255681  0.011545722          180 
 1499000   0.65882563    -8.296915    225.79804  0.012552704  0.011534269          159 
 1500000   0.65890647   -8.2944599    225.81406  0.012545226  0.011522829          165 
 1501000    0.6440585   -8.2904581    225.92208  0.012542865  0.011511403          139 
 1502000   0.65404793    -8.301938    226.12639  0.012545849   0.01149998          152 
 1503000   0.64481974    -8.305628    225.85899  0.012522676  0.011488573          146 
 1504000   0.64197558    -8.290862    225.60428  0.012500237  0.011477188          236 
 1505000   0.65119597   -8.3146592    225.79843  0.012502681  0.011465818          266 
 1506000   0.64949675   -8.3012409    225.79649  0.012494272  0.011454452          142 
 1507000   0.64173315   -8.2887024    226.20451  0.012508544  0.011443094          173 
 1508000   0.63422034   -8.3248208    225.84344  0.012480296  0.011431739          205 
 1509000   0.65216302    -8.306824    225.51482  0.012453878  0.011420419          164 
 1510000    0.6490155   -8.3119785    225.89361  0.012466535   0.01140912          110 
 1511000   0.66157994   -8.3022484    226.27197  0.012479151  0.011397827          269 
 1512000   0.65596321   -8.3259495    225.63548  0.012435818  0.011386524          179 
 1513000   0.64500688   -8.3147437    225.73067  0.012432841  0.011375245          190 
 1514000   0.66309334   -8.3144347    225.29539  0.012400671  0.011363972          311 
 1515000   0.64855887   -8.3096483    225.37717  0.012396984  0.011352704          164 
 1516000   0.65354054   -8.3204397    225.44677  0.012392633  0.011341457          249 
 1517000   0.65020197   -8.2981507    225.70389  0.012398588  0.011330226          183 
 1518000   0.64822092   -8.3060397    225.78336  0.012394783  0.011318997          302 
 1519000   0.65053532   -8.3297386    225.37498  0.012364219  0.011307783          362 
 1520000   0.64029383   -8.3097215    226.10093  0.012395884  0.011296585          318 
 1521000   0.64729574   -8.3105802    226.09806  0.012387577  0.011285403          299 
 1522000   0.63646849   -8.3223477    225.62002  0.012353264  0.011274232          214 
 1523000   0.64317652   -8.3532977    225.22529  0.012323555  0.011263059          354 
 1524000   0.64510001   -8.3223433    225.52658  0.012331944  0.011251904          290 
 1525000   0.65780853   -8.3221801    225.95981   0.01234753  0.011240782          174 
 1526000   0.63947363   -8.3234502    225.60345  0.012319979  0.011229681          307 
 1527000   0.63798274   -8.3158915    225.86796  0.012326346  0.011218571          376 
 1528000   0.65624634    -8.326051    225.43307  0.012294561  0.011207498          338 
 1529000    0.6439089   -8.3647733    225.22856  0.012275374  0.011196407          313 
 1530000   0.64450289   -8.3353917    225.34458   0.01227367  0.011185333          259 
 1531000   0.63797671   -8.3506631    225.61643   0.01228045  0.011174261          217 
 1532000   0.63353551   -8.3535075    225.69218  0.012276555  0.011163216          336 
 1533000   0.66502248    -8.341994    225.79221  0.012273984  0.011152196          347 
 1534000   0.64292604   -8.3275341    226.00658  0.012277628  0.011141166          277 
 1535000   0.63968376   -8.3404648    225.54929  0.012244804  0.011130158          445 
 1536000   0.63942926   -8.3514715    225.36159  0.012226649  0.011119163          249 
 1537000   0.65705747   -8.3572499    225.50251  0.012226334  0.011108187          293 
 1538000   0.63587382   -8.3428402    225.97461  0.012243964  0.011097229          190 
 1539000   0.62732908   -8.3568225    225.49598  0.012210092  0.011086278          235 
 1540000   0.63824852   -8.3809273    224.83803   0.01216656   0.01107531          314 
 1541000   0.62459542   -8.3323392    225.61959  0.012200929  0.011064384          198 
 1542000   0.62692934   -8.3339274    225.65225  0.012194782  0.011053476          407 
 1543000   0.63326021   -8.3474338    225.19177   0.01216201   0.01104256          323 
 1544000   0.62323056   -8.3532334    225.47163  0.012169237  0.011031669          421 
 1545000    0.6460403   -8.3416577    225.58198  0.012167313  0.011020778          226 
 1546000   0.64007714   -8.3515744    225.56077  0.012158299  0.011009919          203 
 1547000   0.63559544   -8.3363743    225.36938   0.01214013  0.010999055          312 
 1548000   0.64767643   -8.3422515    225.72448  0.012151404  0.010988205          332 
 1549000   0.62280573   -8.3670952    225.40081  0.012126146  0.010977356          218 
 1550000    0.6438871   -8.3631742    225.49567  0.012123423  0.010966536          404 
 1551000    0.6273451   -8.3498759    225.30462  0.012105342  0.010955704          206 
 1552000   0.64661652   -8.3587346    225.29711  0.012097139  0.010944891          439 
 1553000   0.64045636    -8.359458    225.52448   0.01210155   0.01093409          398 
 1554000   0.64511879   -8.3804125    225.43976  0.012089219  0.010923313          371 
 1555000   0.62132357   -8.3535569    225.46937  0.012083031   0.01091254          229 
 1556000   0.64526585   -8.3641803    225.28937  0.012065626  0.010901786          247 
 1557000   0.63973749   -8.3685703    225.44536  0.012066225  0.010891046          200 
 1558000   0.62717245   -8.3484982    225.46135  0.012059336  0.010880324          168 
 1559000   0.61916208   -8.3750407    225.22119  0.012038764    0.0108696          179 
 1560000   0.62493293   -8.3702283    225.33814  0.012037294  0.010858903          421 
 1561000     0.640445   -8.3639687    225.15814  0.012019973  0.010848228          291 
 1562000   0.62559893   -8.3760952    225.46842  0.012028832  0.010837541          430 
 1563000   0.63702827   -8.3578982    225.15782  0.012004576  0.010826868          290 
 1564000   0.63433418   -8.3753632    225.84069  0.012033285  0.010816205          328 
 1565000   0.62863373   -8.3919429    224.90026   0.01197552  0.010805548          362 
 1566000   0.64439937   -8.3846781     224.8807  0.011966832  0.010794902          199 
 1567000   0.63065668   -8.3928576    225.34526    0.0119839  0.010784266          196 
 1568000   0.63477831   -8.3756702    224.88858  0.011951987  0.010773629          418 
 1569000   0.63315138   -8.3806587    225.14094  0.011957772   0.01076302          169 
 1570000   0.63774046   -8.3513096    225.34526  0.011961001  0.010752449          170 
 1571000     0.627769   -8.3638815    225.27918  0.011949882  0.010741874          521 
 1572000   0.61038668   -8.3733513    225.40375  0.011948884  0.010731306          213 
 1573000   0.63039062   -8.3760353     225.0655  0.011923368  0.010720777          296 
 1574000   0.62398236   -8.3663864    225.16422   0.01192102  0.010710245          377 
 1575000   0.61332668    -8.356263    224.73302  0.011890636  0.010699726          472 
 1576000   0.62533897   -8.3673284    225.30883  0.011913538  0.010689209          378 
 1577000   0.62296432   -8.3670347       225.43  0.011912386  0.010678722          371 
 1578000   0.62041287   -8.3789613    224.63054  0.011862618  0.010668233          227 
 1579000   0.61406856   -8.3818001    225.02827  0.011876096  0.010657757          341 
 1580000   0.61519024   -8.3720678    225.14046  0.011874497    0.0106473          378 
 1581000   0.62890229   -8.3848221    225.10104  0.011864909  0.010636849          218 
 1582000   0.62047448   -8.3736665    225.17764  0.011861443  0.010626407          436 
 1583000   0.62354298   -8.3897772    224.79242  0.011833671  0.010615997          449 
 1584000   0.62524839   -8.3906752    224.73301  0.011823075  0.010605585          302 
 1585000   0.62024779   -8.3624633    225.02828   0.01183114  0.010595191          384 
 1586000   0.62112809   -8.3884696    225.22785  0.011834166  0.010584813          370 
 1587000   0.60960743   -8.3866923    225.21814  0.011826199  0.010574443          250 
 1588000   0.61581829   -8.3742363     225.0844  0.011811734  0.010564088          323 
 1589000   0.61016219   -8.3616591    225.21845   0.01181133  0.010553755          191 
 1590000   0.62160969   -8.3922281    224.76484  0.011780128  0.010543416          380 
 1591000   0.62776059   -8.3800852    225.28017  0.011799716  0.010533096          410 
 1592000   0.61398286   -8.4016789    224.87815   0.01177126  0.010522794          430 
 1593000   0.62194322   -8.3759981    224.86861  0.011763372  0.010512492          376 
 1594000   0.62344409   -8.4203258    224.47594  0.011735463  0.010502199          351 
 1595000    0.6147713   -8.3876675    225.05898  0.011758567  0.010491923          397 
 1596000   0.61051318   -8.3792096    225.40945    0.0117695  0.010481669          418 
 1597000   0.61478502   -8.4044603     224.7599  0.011728235  0.010471417          205 
 1598000   0.61038499    -8.382624     224.6855  0.011717016  0.010461162          479 
 1599000   0.61649143   -8.3978636     225.0583  0.011729117  0.010450941          463 
 1600000   0.59832292   -8.3646045     225.4332  0.011741313   0.01044071          420 
 1601000   0.60687794   -8.4015032    225.13176  0.011718289  0.010430505          503 
 1602000   0.60645691    -8.409335    224.43415  0.011674685  0.010420294          376 
 1603000   0.60791544   -8.4056018    224.62503  0.011677326  0.010410091          182 
 1604000   0.62134293    -8.390903    224.79083  0.011678659  0.010399908          432 
 1605000   0.59934287   -8.3873119    225.54592  0.011710588  0.010389741          188 
 1606000    0.6066711   -8.4184348    224.81419  0.011665327  0.010379578          227 
 1607000   0.61502614   -8.4083487    224.64163   0.01164912  0.010369425          193 
 1608000   0.60553678   -8.4127718    224.81105  0.011650655  0.010359278          313 
 1609000   0.62650332   -8.4141751     224.6195  0.011633494  0.010349157          422 
 1610000   0.61466908   -8.4157503    224.81426  0.011636349  0.010339057          234 
 1611000   0.60287184   -8.4030792    224.56323  0.011616141  0.010328949          404 
 1612000   0.60966397   -8.4239394    224.33594  0.011597185  0.010318854          363 
 1613000   0.60586299   -8.4006717    224.61007  0.011604157   0.01030877          528 
 1614000   0.59900275   -8.3970994    224.83365  0.011608511  0.010298699          225 
 1615000   0.59477279   -8.4304718    224.75234  0.011597128  0.010288641          374 
 1616000   0.62253399   -8.4105314    224.51113  0.011577513  0.010278601          252 
 1617000   0.60894943   -8.4344718    224.87058  0.011588877  0.010268561          391 
 1618000   0.60624067   -8.3995538    224.66616  0.011571186   0.01025854          498 
 1619000   0.60829706   -8.4102252    224.46685  0.011553781  0.010248538          201 
 1620000   0.61932651   -8.3961342    225.11319  0.011579897  0.010238537          391 
 1621000   0.61610147   -8.4014938    224.82294  0.011557832  0.010228543          506 
 1622000   0.60802248   -8.4108975    224.55948   0.01153717   0.01021857          580 
 1623000   0.61408635   -8.4201801    224.62913  0.011533638  0.010208597          553 
 1624000   0.59427575    -8.422032    224.41198  0.011515393  0.010198648          521 
 1625000     0.603604   -8.4122657    224.99735  0.011538326  0.010188704          451 
 1626000   0.60530622   -8.4328526    224.77335   0.01151975  0.010178784          345 
 1627000   0.61533179   -8.4259949    224.70487  0.011509162  0.010168879          480 
 1628000   0.60268375   -8.4202169    224.56613   0.01149499   0.01015897          497 
 1629000    0.5996608   -8.4230702    224.53152  0.011486163  0.010149082          609 
 1630000   0.61750336   -8.4263073    224.76997  0.011491307  0.010139196          559 
 1631000   0.60494069   -8.4081096    224.32642  0.011461599  0.010129331          283 
 1632000   0.60621711   -8.4291881    224.99341  0.011488634  0.010119473          331 
 1633000   0.59979103   -8.4399366    224.37566  0.011450075  0.010109632          627 
 1634000   0.60999784   -8.4387479    225.02653  0.011476261  0.010099792          610 
 1635000   0.60642931   -8.4206523    224.22806  0.011428545  0.010089967          548 
 1636000   0.59889756   -8.4458379    224.99572  0.011460662  0.010080141          566 
 1637000   0.58008334   -8.4392803     224.4462  0.011425687  0.010070329          568 
 1638000   0.60054652   -8.4339079    224.04196  0.011398146  0.010060528          518 
 1639000   0.60610149    -8.442308     224.6456  0.011421883  0.010050754          487 
 1640000   0.59578588   -8.4464673    224.56751  0.011410951  0.010040985          581 
 1641000   0.59302952     -8.42885    224.99647  0.011425781  0.010031239          418 
 1642000   0.60137337   -8.4409746    224.44504  0.011390836  0.010021494          500 
 1643000   0.59953246   -8.4205608     224.6879  0.011396221  0.010011763          541 
 1644000   0.60079006   -8.4305745    224.45356  0.011377411  0.010002043          571 
 1645000   0.60789978   -8.4276769    224.42803  0.011369201 0.0099923233          480 
 1646000   0.59409319   -8.4465717    224.52691    0.0113673 0.0099826306          543 
 1647000   0.58835624   -8.4244464    224.40448  0.011354204 0.0099729344          323 
 1648000   0.59938836   -8.4453001     224.5032  0.011352306 0.0099632601          543 
 1649000   0.59191334    -8.426134    224.16348  0.011328253 0.0099535916          584 
 1650000   0.59976661   -8.4312556    224.16784  0.011321608 0.0099439512          432 
 1651000   0.59469257   -8.4379561    224.45547  0.011329269 0.0099343064          602 
 1652000   0.59264396   -8.4407528    224.36172  0.011317681 0.0099246801          431 
 1653000   0.58830381   -8.4493483    224.12015  0.011298657 0.0099150493          541 
 1654000   0.60123143   -8.4481886    223.95551   0.01128353 0.0099054326          592 
 1655000   0.58750008   -8.4345749    224.21484   0.01128977 0.0098958345          554 
 1656000   0.59929612   -8.4646893    224.21554  0.011282988   0.00988623          610 
 1657000   0.59790384    -8.444313    224.24734  0.011277778 0.0098766593          566 
 1658000   0.59699551   -8.4561551    224.92442  0.011305007 0.0098671047          462 
 1659000   0.59034824   -8.4312705    224.49759  0.011276752 0.0098575495          545 
 1660000   0.59456615   -8.4558339    224.43011  0.011266572 0.0098480129          414 
 1661000   0.60288312     -8.42355    224.59597   0.01126811 0.0098384965          317 
 1662000   0.57674382   -8.4700099    223.83505  0.011223177 0.0098289682          517 
 1663000    0.5838062   -8.4406255    224.38033  0.011243753 0.0098194548          479 
 1664000   0.59471142   -8.4452461    224.14413  0.011225167 0.0098099558          462 
 1665000   0.59605099   -8.4677306    224.25167  0.011223807 0.0098004603          431 
 1666000   0.60211901   -8.4329654    223.91298  0.011200129 0.0097909855          635 
 1667000   0.57662771   -8.4638821    224.24464   0.01120999 0.0097815127          465 
 1668000   0.58727983    -8.475107    224.07537  0.011194813 0.0097720561          334 
 1669000   0.58048808   -8.4530262    223.82634  0.011175671 0.0097626077          585 
 1670000   0.58949654   -8.4696269    223.97393  0.011176344 0.0097531532          558 
 1671000   0.59401163   -8.4612577    224.38416  0.011190114 0.0097437257          548 
 1672000   0.57000475   -8.4524358    224.23729  0.011176101 0.0097343135          523 
 1673000   0.58825939   -8.4529939    223.84778  0.011150019 0.0097249178          556 
 1674000   0.57622238   -8.4543789    224.47499  0.011174581 0.0097155412          456 
 1675000   0.59339573    -8.462284    224.43987  0.011166163 0.0097061676          549 
 1676000   0.57415682   -8.4648405    223.85402  0.011130371 0.0096968086          520 
 1677000   0.58888713   -8.4612915    223.82502  0.011122293  0.009687448          573 
 1678000   0.58226354   -8.4567189    223.93732  0.011121242 0.0096781075          552 
 1679000   0.59541591   -8.4481751    223.85346  0.011110456 0.0096687847          515 
 1680000   0.57504232   -8.4810848    224.13827   0.01111797  0.009659468          289 
 1681000   0.59111984   -8.4511276    224.09657  0.011109288 0.0096501525          536 
 1682000   0.58406137   -8.4843052    223.92044  0.011093957 0.0096408552          516 
 1683000   0.58848233   -8.4525935    223.95056  0.011088857 0.0096315528          596 
 1684000   0.58092301    -8.481723    223.66557   0.01106817 0.0096222731          598 
 1685000   0.57139853   -8.4744699    224.10408  0.011083288  0.009613002          603 
 1686000   0.57446434   -8.4708943    224.09415  0.011076224 0.0096037387          616 
 1687000   0.57085509   -8.4685123    224.12035  0.011070952 0.0095944878          550 
 1688000   0.57589873    -8.458014    223.78222    0.0110477 0.0095852402          534 
 1689000   0.58808242   -8.4734696    224.01267   0.01105253 0.0095760088          604 
 1690000   0.58018396   -8.4556002    224.22823  0.011056619 0.0095667976          520 
 1691000    0.5780419   -8.4581247    224.03293  0.011040456 0.0095575905          567 
 1692000   0.57912752   -8.4709975    224.10526  0.011037493 0.0095484014          611 
 1693000   0.56499023    -8.465625    224.04295  0.011027907 0.0095392285          643 
 1694000   0.57389269   -8.4631466    224.19437  0.011028846 0.0095300662          566 
 1695000   0.59016731   -8.4689957    223.83782  0.011004809 0.0095209043          386 
 1696000   0.59417287   -8.4495384     224.1629  0.011014294 0.0095117653          382 
 1697000   0.57695223   -8.4656003    224.30669  0.011014864 0.0095026425          635 
 1698000   0.59102951    -8.486461     223.9605  0.010991387 0.0094935205          556 
 1699000   0.57744767   -8.4628296    224.10267  0.010991891 0.0094844026          555 
 1700000   0.56826924   -8.4814058     223.9553  0.010978201 0.0094753046          488 
 1701000   0.56437053   -8.4900485    223.54056  0.010951429 0.0094662191          510 
 1702000   0.57253378   -8.4937737    224.04291   0.01096959 0.0094571432          371 
 1703000   0.57165597   -8.4787631    224.08652  0.010965283 0.0094480738          533 
 1704000   0.57154264   -8.5045138    223.45667  0.010928045 0.0094390186          549 
 1705000   0.56780103   -8.4805732    223.97838  0.010947135 0.0094299668          394 
 1706000   0.56625587   -8.4788631    223.72945  0.010928559 0.0094209319          411 
 1707000   0.57160125   -8.4674314     224.0416  0.010937395 0.0094119149          601 
 1708000   0.57434533   -8.4978848    223.95213  0.010926626 0.0094029065          261 
 1709000   0.56664367   -8.4718762     223.8271  0.010914136 0.0093939152          199 
 1710000    0.5706066   -8.4989233    224.03555  0.010917912  0.009384928          376 
 1711000   0.57378536   -8.4806541    223.81817  0.010900944 0.0093759452          618 
 1712000   0.57513401   -8.5152911     223.5467  0.010881362 0.0093669724          523 
 1713000   0.57012769   -8.4820306    223.70629  0.010882773 0.0093580175          326 
 1714000   0.57611853   -8.5012879     223.7174  0.010876964 0.0093490786          548 
 1715000   0.57155354   -8.4941918    223.70992  0.010870259 0.0093401509          512 
 1716000   0.57296392   -8.4711568    224.05956  0.010880903 0.0093312258          471 
 1717000   0.57138897   -8.4812073    223.98422   0.01087091  0.009322318          246 
 1718000   0.57452819   -8.4898488     223.5462  0.010843335 0.0093134148          614 
 1719000   0.56815721   -8.4772233    223.77161  0.010847955 0.0093045255          348 
 1720000   0.55595464   -8.4844992    223.72722  0.010839497 0.0092956544          291 
 1721000   0.56282626    -8.480551    224.13087  0.010852744 0.0092867894          603 
 1722000   0.56105325   -8.5051719    224.03726  0.010841912 0.0092779326          480 
 1723000    0.5622088   -8.4972816    223.55883   0.01081248 0.0092690849          588 
 1724000   0.55629145   -8.5005072    223.80547   0.01081813 0.0092602442          513 
 1725000   0.57173624   -8.4977021    223.58311  0.010801116 0.0092514112          574 
 1726000   0.57012874   -8.4873639    223.81187  0.010805903 0.0092425914          597 
 1727000   0.55419763   -8.4939231    223.88814  0.010803327 0.0092337936          506 
 1728000   0.57051864   -8.4994145    223.92795  0.010798995 0.0092250014          552 
 1729000    0.5737158   -8.5020936    223.62381   0.01077809 0.0092162092          546 
 1730000   0.55366907   -8.5079959    223.81762  0.010781196 0.0092074248          573 
 1731000   0.56593716   -8.4909441    223.57063  0.010763077  0.009198653          610 
 1732000   0.55497748   -8.5086699    223.57064  0.010756863 0.0091898912          599 
 1733000   0.56807979   -8.4944268    223.71147  0.010757428 0.0091811508          574 
 1734000   0.57051057   -8.4962996    223.51168  0.010741623 0.0091724205          578 
 1735000   0.57340102   -8.4941234    223.54504  0.010737034 0.0091636964          296 
 1736000   0.56175984   -8.5068667    223.79925  0.010743052 0.0091549843          357 
 1737000   0.56973838   -8.4942258    224.06151  0.010749449 0.0091462918          556 
 1738000   0.56498843   -8.4840865    223.92937  0.010736928 0.0091376022          486 
 1739000   0.56960469   -8.5156104    223.33523  0.010702283 0.0091289162          418 
 1740000   0.55826114   -8.5139801    223.38007  0.010698279 0.0091202436          570 
 1741000   0.55566565   -8.5002833     223.4986  0.010697808 0.0091115802          509 
 1742000   0.55721651   -8.5007371    224.21346  0.010725864 0.0091029346          532 
 1743000   0.56077921   -8.4952821    223.85831   0.01070273 0.0090942995          424 
 1744000    0.5524826   -8.5172704    223.61813  0.010685117 0.0090856679          532 
 1745000   0.56036842    -8.505403    223.63464  0.010679782 0.0090770531          523 
 1746000   0.55433945   -8.5029166    223.29839  0.010657617 0.0090684483          239 
 1747000   0.55681404   -8.5254016    223.33669  0.010653343 0.0090598529          603 
 1748000    0.5646013   -8.5177905    223.31103  0.010646025  0.009051259          319 
 1749000   0.55914881   -8.5005988    223.45223  0.010646666 0.0090426821          423 
 1750000   0.54770661   -8.5122751    223.67828  0.010651347 0.0090341254          629 
 1751000    0.5694074   -8.5325549    223.30668  0.010627579 0.0090255727          610 
 1752000   0.56554836   -8.5126325    223.61558  0.010636205 0.0090170193          626 
 1753000   0.54071384   -8.5188197    223.17996  0.010609429  0.009008481          543 
 1754000   0.55107381   -8.5097981    223.47738  0.010617511 0.0089999555          350 
 1755000   0.54744454   -8.4960531    223.93608  0.010633242 0.0089914283          550 
 1756000   0.55207409   -8.5008882    223.52461   0.01060766 0.0089829168          577 
 1757000   0.54497345   -8.5106624    223.44306  0.010597755 0.0089744231          575 
 1758000   0.55253958   -8.5058775    223.45624  0.010592351 0.0089659516          396 
 1759000   0.55065785   -8.5199174    223.95884   0.01061014 0.0089574768          585 
 1760000   0.55902058   -8.5074093    223.56509  0.010585468 0.0089490181          526 
 1761000   0.55496924   -8.5092959    223.46031  0.010574499  0.008940566          558 
 1762000    0.5364709   -8.5122521    223.16033   0.01055431 0.0089321241          679 
 1763000   0.55078008   -8.5064496    223.38822  0.010559095 0.0089236894          368 
 1764000   0.55190288   -8.5216836    223.30053  0.010548967 0.0089152603          468 
 1765000   0.54400668   -8.5122842    223.47472  0.010551214 0.0089068451          563 
 1766000   0.54529915   -8.5128392    223.72495  0.010557047 0.0088984585          588 
 1767000   0.54596671   -8.4984627    223.30514  0.010531274 0.0088900714          549 
 1768000   0.54760595   -8.4946135    223.15529  0.010518255 0.0088817027          338 
 1769000   0.54326779    -8.518225    223.52888  0.010529908 0.0088733379          400 
 1770000     0.534129     -8.53308    223.17966  0.010507517 0.0088649886          375 
 1771000   0.52862717   -8.5084667    223.67375  0.010524833 0.0088566375          596 
 1772000   0.54127106   -8.5292562    223.50597  0.010511003 0.0088483034          469 
 1773000   0.54078093   -8.5070612    223.35551  0.010498003  0.008839978          241 
 1774000   0.55246946   -8.5237457    223.19201  0.010484405 0.0088316597          588 
 1775000   0.54949299   -8.5421503    223.06918  0.010472732 0.0088233524          355 
 1776000   0.55428801   -8.5237471    223.13192  0.010469778 0.0088150571          663 
 1777000   0.54661031   -8.5240377    223.31461  0.010472454  0.008806769          614 
 1778000   0.54033857   -8.5342538    223.39124  0.010470156  0.008798489          580 
 1779000   0.54599961   -8.5278055    223.14692  0.010452826 0.0087902188          412 
 1780000   0.54081482   -8.5304941    223.19616  0.010449258 0.0087819566          605 
 1781000   0.53696584   -8.5165841    223.02292  0.010435285 0.0087737057          376 
 1782000   0.54353109   -8.5371025    223.25092  0.010440091 0.0087654635          268 
 1783000    0.5389209   -8.5281102    223.99244  0.010468893 0.0087572304          608 
 1784000    0.5363878   -8.5231603    223.31239  0.010431259 0.0087490165          350 
 1785000   0.52587961   -8.5250536    223.32361  0.010425939 0.0087408027          612 
 1786000   0.54417745   -8.5361136    223.14524  0.010411778  0.008732602          593 
 1787000   0.53822529   -8.5482564    223.64581  0.010429295 0.0087244143          393 
 1788000   0.53552007   -8.5319492    223.55095  0.010419041 0.0087162378          603 
 1789000   0.54188771   -8.5358797    223.34471  0.010403611 0.0087080702          641 
 1790000   0.53800749   -8.5359225    223.30044  0.010395737 0.0086999157          508 
 1791000   0.53679373   -8.5560823    223.30231   0.01039002  0.008691761          319 
 1792000   0.54139263   -8.5312733    223.04689  0.010372344 0.0086836245          626 
 1793000   0.52533896   -8.5401386    223.19694  0.010373533 0.0086754959          348 
 1794000   0.53963102   -8.5394371    223.41168  0.010377726 0.0086673729          303 
 1795000   0.53955707   -8.5281449    223.07012  0.010356087 0.0086592592          416 
 1796000   0.52444599   -8.5361004    223.32127  0.010361974  0.008651159          545 
 1797000   0.52303741   -8.5514229      223.295   0.01035499 0.0086430794          592 
 1798000   0.53206673   -8.5392442    223.30387  0.010349642 0.0086349975          581 
 1799000   0.53277967   -8.5434559    223.31805  0.010344546 0.0086269282          463 
 1800000   0.53686246   -8.5460103    223.20321  0.010333482 0.0086188686          432 
 1801000   0.52610997   -8.5388658    223.03874  0.010320134 0.0086108049          379 
 1802000   0.53208621   -8.5486333    222.78149  0.010302511 0.0086027564          381 
 1803000    0.5286167   -8.5494204    223.12133  0.010312504 0.0085947177          365 
 1804000   0.53325869    -8.537423     222.9873  0.010300596 0.0085866911          320 
 1805000   0.54602485   -8.5315526    223.33887   0.01031112 0.0085786804          570 
 1806000    0.5313051   -8.5546887    223.16528  0.010297401 0.0085706781          633 
 1807000   0.52663938   -8.5516571     223.2513  0.010295669 0.0085626779          315 
 1808000    0.5274231   -8.5208838    223.23597  0.010289269 0.0085546979          512 
 1809000   0.53723905   -8.5460711    223.11647  0.010278076 0.0085467222          411 
 1810000   0.53257188   -8.5554686    223.03601  0.010268693 0.0085387504          403 
 1811000   0.53356947   -8.5633138    223.16063  0.010268757 0.0085308033          571 
 1812000   0.53145219   -8.5395798    223.15054  0.010262626 0.0085228543          675 
 1813000   0.52679431   -8.5420752    223.31065  0.010264325 0.0085149187          586 
 1814000   0.52818588   -8.5614175    222.98988   0.01024393 0.0085069863          575 
 1815000   0.52968902   -8.5388329    222.92568  0.010235339 0.0084990743          378 
 1816000   0.53926982   -8.5581746    223.02105  0.010234079 0.0084911678          539 
 1817000   0.52656446   -8.5608058    222.57326  0.010207909 0.0084832696          598 
 1818000   0.52808406   -8.5467383    222.76317     0.010211 0.0084753771          404 
 1819000   0.53026877   -8.5571847    222.90859  0.010212048    0.0084675          623 
 1820000   0.53303817   -8.5661664    222.85857  0.010204147 0.0084596352          421 
 1821000   0.53385663   -8.5596185    222.92165   0.01020143 0.0084517802          179 
 1822000   0.52770266    -8.552202    223.13808   0.01020573 0.0084439261          312 
 1823000   0.52806544   -8.5707457    222.89159  0.010188864 0.0084360858          612 
 1824000   0.52367528   -8.5606502     222.9559  0.010186216 0.0084282514          604 
 1825000   0.52770193   -8.5507904    223.01267  0.010183227 0.0084204356          366 
 1826000   0.52687244   -8.5692597    223.49957  0.010199871 0.0084126344          275 
 1827000   0.52060775   -8.5550296    223.34357  0.010187173 0.0084048407          617 
 1828000   0.52381233   -8.5549018    222.90636  0.010161669 0.0083970496          561 
 1829000   0.52757318   -8.5644013    223.16889  0.010168074 0.0083892656          579 
 1830000   0.53094515   -8.5493977    222.88029  0.010149376 0.0083814919          618 
 1831000    0.5319898   -8.5682478    223.18877  0.010157872  0.008373722          545 
 1832000   0.51946057   -8.5544087    222.81298  0.010135234 0.0083659516          710 
 1833000   0.53010221    -8.546596    222.78951  0.010128638 0.0083582004          386 
 1834000   0.51197079   -8.5713124    222.46304   0.01010828 0.0083504553          440 
 1835000   0.52547735    -8.553752     223.3704  0.010143978 0.0083427228          665 
 1836000   0.51443737   -8.5628641    222.75495  0.010110519  0.008334999          576 
 1837000   0.51434618   -8.5660485    222.82195  0.010108054 0.0083272844          575 
 1838000   0.51817861   -8.5702726    222.67243  0.010095776 0.0083195674          624 
 1839000   0.52859264   -8.5686741    223.21172  0.010114724 0.0083118701          643 
 1840000   0.52032984   -8.5772417    222.79139   0.01009019 0.0083041887          615 
 1841000   0.51713607   -8.5713742    222.59005  0.010075595 0.0082964994          597 
 1842000   0.51626744   -8.5709333    222.75277  0.010077487 0.0082888326          591 
 1843000   0.51587911   -8.5648959    222.93537  0.010080275 0.0082811696          571 
 1844000   0.51207572   -8.5726925    222.62205   0.01006065 0.0082735158          584 
 1845000   0.52506454   -8.5587857    223.05811  0.010074892 0.0082658703          521 
 1846000   0.51889336    -8.565408    222.71144  0.010053785 0.0082582307          575 
 1847000   0.52587837   -8.5863297    222.83437  0.010053888 0.0082506001          589 
 1848000   0.50602803   -8.5817387    222.79853  0.010046831 0.0082429805          630 
 1849000    0.5141929   -8.5827696    222.63643  0.010034092 0.0082353748          635 
 1850000   0.51252701   -8.5869475    223.10364  0.010049714 0.0082277794          636 
 1851000   0.51450812     -8.56906    222.85829  0.010033238  0.008220196          642 
 1852000   0.52254794   -8.5819124    222.91232  0.010030252 0.0082126092          634 
 1853000   0.50308171   -8.5790173    222.80547  0.010020034 0.0082050321          602 
 1854000   0.50801894    -8.584198    222.43089 0.0099977928 0.0081974623          637 
 1855000   0.50835025   -8.5890696    222.40779 0.0099913653 0.0081899026          651 
 1856000    0.5192518   -8.5802223    222.55675 0.0099926702 0.0081823521          621 
 1857000   0.52350442   -8.5743005    222.70847 0.0099940976 0.0081748107          663 
 1858000     0.515762   -8.5696944     222.7947  0.009992586 0.0081672773          616 
 1859000   0.50749917   -8.5677438    222.51178 0.0099745282 0.0081597527          650 
 1860000   0.51384733   -8.5810384     222.5891   0.00997263 0.0081522279          641 
 1861000   0.51458923   -8.5872424    222.59674 0.0099676134 0.0081447285          412 
 1862000   0.51978739   -8.5732144    222.88923 0.0099753506 0.0081372372          543 
 1863000   0.51549888   -8.5813039    222.78119 0.0099651634 0.0081297584          628 
 1864000   0.50995317   -8.5843459    222.72332 0.0099572299 0.0081222804          665 
 1865000   0.50313094   -8.5834079    222.66256  0.009949176 0.0081148116          626 
 1866000   0.51216154   -8.5727343     222.3734 0.0099309305 0.0081073545          626 
 1867000   0.50746863   -8.5727545    222.50118 0.0099313151 0.0080999144          602 
 1868000   0.49713041   -8.5851673    222.44105 0.0099233159 0.0080924671          391 
 1869000   0.50560977   -8.5996268    222.55117 0.0099229165 0.0080850275          737 
 1870000   0.49978977   -8.5885503    222.51606 0.0099160453 0.0080776063          365 
 1871000   0.50523451   -8.5846431    222.50726 0.0099103537 0.0080701958          684 
 1872000    0.5137873   -8.5994104     222.5236 0.0099057868 0.0080627929          556 
 1873000   0.50321839   -8.5862501    222.69275 0.0099080243 0.0080554018          645 
 1874000   0.50777387   -8.5985648    222.42457 0.0098908116 0.0080480061          457 
 1875000   0.50803774   -8.5912833    222.40614 0.0098847174 0.0080406256          657 
 1876000   0.50170596   -8.5861529    222.34425 0.0098766992 0.0080332529          642 
 1877000    0.4919771   -8.5880907    222.56367 0.0098811787 0.0080258889          617 
 1878000   0.50564376   -8.5951326      222.487 0.0098725149 0.0080185324          739 
 1879000   0.50858703    -8.603906    222.40183 0.0098634836 0.0080111931          678 
 1880000   0.49973551   -8.6006864    222.16404 0.0098476968 0.0080038506          620 
 1881000   0.50974334   -8.5957374    222.53121 0.0098587279 0.0079965189          680 
 1882000   0.49486884   -8.6037553    222.63671 0.0098581612 0.0079892025          605 
 1883000   0.49412253   -8.6056373     222.0679 0.0098277528  0.007981882          633 
 1884000     0.501792    -8.583605    222.43482 0.0098387659 0.0079745766          746 
 1885000   0.49341346   -8.5932234    222.33759 0.0098292479 0.0079672792          622 
 1886000    0.4952394   -8.6032651    222.61869  0.009836457 0.0079599949          681 
 1887000   0.49748849   -8.6077579    222.46262 0.0098243517 0.0079527172          537 
 1888000   0.48993812   -8.5957485    222.00307 0.0097988643 0.0079454448          619 
 1889000   0.49591485   -8.5952048    222.07175  0.009796707 0.0079381796          605 
 1890000   0.48452751   -8.6239927    222.28184 0.0098007866 0.0079309265          643 
 1891000   0.50352032   -8.5918069    222.58761 0.0098090785 0.0079236699          642 
 1892000   0.50583752   -8.6100782    222.54076 0.0098018307 0.0079164306          659 
 1893000   0.49393955   -8.6091085    221.99121 0.0097724604 0.0079092002          695 
 1894000   0.48724926   -8.5919169    222.56587 0.0097925851 0.0079019828          579 
 1895000    0.4944415   -8.6041594    221.93868 0.0097598365 0.0078947685          692 
 1896000   0.49279369   -8.6073499    222.31997 0.0097714473 0.0078875651          624 
 1897000   0.49216169   -8.6147423      222.237 0.0097626515 0.0078803648          654 
 1898000    0.4910355   -8.6037294    222.29447 0.0097600311 0.0078731799          673 
 1899000   0.49653094     -8.60262    222.51725 0.0097646679 0.0078660018          584 
 1900000   0.49314017   -8.6225002    222.24726 0.0097476868  0.007858835          610 
 1901000   0.48690252   -8.6229341    222.56467 0.0097564736 0.0078516713          614 
 1902000   0.49605948   -8.6155944    222.33208 0.0097411533  0.007844518          622 
 1903000   0.49765708   -8.6189437    222.44289 0.0097408869 0.0078373787          544 
 1904000    0.4836667   -8.6264094    222.40469  0.009734099 0.0078302423          606 
 1905000   0.49295613   -8.6318399     222.5449 0.0097351225 0.0078231123          642 
 1906000   0.48453104   -8.6068783    222.35055 0.0097215174 0.0078159935          638 
 1907000   0.49371961   -8.6165205    222.31757 0.0097149784 0.0078088947          626 
 1908000    0.4898483   -8.6194113    222.48017 0.0097169885 0.0078017959          645 
 1909000   0.48320961   -8.6161858    222.63065 0.0097184673 0.0077947019          285 
 1910000   0.49788779   -8.6251301     222.1043 0.0096904145 0.0077876205          610 
 1911000    0.4900744   -8.6157645    222.23259 0.0096909381 0.0077805496          382 
 1912000   0.48655416   -8.6088911    222.12264 0.0096810775 0.0077734799          552 
 1913000   0.48217554   -8.6110383    222.00139 0.0096707351 0.0077664234          586 
 1914000   0.50189934   -8.6304511    222.11288 0.0096705365 0.0077593774          572 
 1915000   0.49216961   -8.6178931    222.37524 0.0096769032 0.0077523351          511 
 1916000   0.47792105   -8.6307435     222.1066 0.0096601689 0.0077452963          613 
 1917000   0.48963566   -8.6285974    222.17931 0.0096582901 0.0077382708          576 
 1918000   0.49485421   -8.6203694    222.30258 0.0096586107 0.0077312555          424 
 1919000   0.48431202   -8.6277095    222.22329 0.0096501342 0.0077242407          598 
 1920000    0.4773466   -8.6358384    221.83627 0.0096283104 0.0077172317          337 
 1921000   0.48557832   -8.6278858    222.06071 0.0096330342 0.0077102346          345 
 1922000   0.49468758    -8.623662    222.19694 0.0096339292  0.007703253          576 
 1923000   0.48007985   -8.6108865    221.66474 0.0096058563 0.0076962718          410 
 1924000    0.4787801   -8.6126297    222.01829 0.0096161769  0.007689298          638 
 1925000    0.4942116    -8.622675    221.77207 0.0096005224 0.0076823424          225 
 1926000   0.48670093   -8.6249059    221.95218 0.0096033306  0.007675393          306 
 1927000   0.49728866   -8.6305894    222.13062 0.0096060638 0.0076684477          584 
 1928000   0.48619452    -8.606441    221.82276 0.0095877747 0.0076615191          461 
 1929000   0.49522181   -8.6223621     222.2758 0.0096023759 0.0076545899          615 
 1930000   0.48230838     -8.62824    222.19577 0.0095939451 0.0076476777          631 
 1931000   0.48057422   -8.6265877    222.09118 0.0095844632 0.0076407738          607 
 1932000   0.48568159   -8.6340604    222.25928  0.009586753 0.0076338625          647 
 1933000   0.48769726   -8.6217829     221.9047 0.0095665073 0.0076269674          428 
 1934000   0.48409943   -8.6334308    221.87505 0.0095602833 0.0076200773          600 
 1935000   0.47242608   -8.6358411     221.8314 0.0095534624 0.0076131952          654 
 1936000   0.48240568   -8.6492826    221.98079 0.0095549582  0.007606329          628 
 1937000     0.471624   -8.6488074    222.01412 0.0095514593 0.0075994644          617 
 1938000   0.48011403   -8.6298709     222.0779 0.0095492734 0.0075926093          622 
 1939000   0.46689165   -8.6360351     222.0295 0.0095422684 0.0075857589          673 
 1940000    0.4757683   -8.6452393    221.83359 0.0095289343 0.0075789237          434 
 1941000   0.48207412   -8.6319666    221.78063 0.0095217513 0.0075721007          434 
 1942000   0.48538165   -8.6203273    222.00493 0.0095264731 0.0075652828          407 
 1943000   0.48290045   -8.6255251    222.26285  0.009532632 0.0075584701          368 
 1944000   0.47258697   -8.6276795    222.05734 0.0095189188 0.0075516624          616 
 1945000   0.46998499   -8.6005279    221.89217 0.0095069483 0.0075448637          288 
 1946000     0.483828   -8.6208645    221.82913 0.0094993634 0.0075380816          217 
 1947000   0.48089059   -8.6485077    221.89164 0.0094971597 0.0075313082          671 
 1948000   0.49173444   -8.6375895    221.77568 0.0094873237 0.0075245454          421 
 1949000   0.47155339   -8.6402615    221.86103 0.0094861054 0.0075177833          353 
 1950000   0.47493317   -8.6332336    222.07728 0.0094904819 0.0075110348          435 
 1951000    0.4693411   -8.6283523    222.44955 0.0095015185 0.0075042983          517 
 1952000   0.46902425   -8.6407188    221.64293  0.009462215 0.0074975563          629 
 1953000   0.46933116   -8.6358466    222.07856 0.0094759582 0.0074908258          595 
 1954000   0.47525388   -8.6375046    221.93686 0.0094650658 0.0074841029          680 
 1955000     0.471447   -8.6451135    221.62841 0.0094470765 0.0074773892          623 
 1956000   0.47809597   -8.6535816    222.00029 0.0094580902 0.0074706751          610 
 1957000   0.47894695   -8.6406435    221.51101 0.0094324225 0.0074639795          678 
 1958000   0.48201722   -8.6643922    221.66101 0.0094339892 0.0074572921          444 
 1959000   0.47294961   -8.6314586     221.9877 0.0094430704  0.007450608          612 
 1960000     0.466896    -8.631471    221.82639 0.0094313943 0.0074439329          486 
 1961000   0.48033723   -8.6456748    222.04893 0.0094360416 0.0074372625          651 
 1962000   0.46301164   -8.6481879    221.83319 0.0094220688 0.0074305958          490 
 1963000   0.46941901   -8.6616215    221.72253 0.0094125712 0.0074239395          589 
 1964000   0.47933445   -8.6488787    222.10657 0.0094240738 0.0074172912          570 
 1965000   0.47555749    -8.649792    221.83533 0.0094077747 0.0074106544          596 
 1966000   0.46927848   -8.6581433    221.64033 0.0093947239 0.0074040223          670 
 1967000   0.46143032   -8.6432616    221.72521 0.0093935441 0.0073973959          619 
 1968000   0.46288754   -8.6560006    221.68488 0.0093870629 0.0073907764          634 
 1969000   0.46519173   -8.6366795    221.80423 0.0093873469 0.0073841652          671 
 1970000    0.4562028   -8.6510619    222.01726  0.009391593  0.007377564          418 
 1971000   0.46426737   -8.6488348    221.97101 0.0093848728 0.0073709715          380 
 1972000   0.47056036     -8.64283    221.93563 0.0093786187 0.0073643864          713 
 1973000   0.46674494   -8.6658304    221.65564 0.0093620391 0.0073578074          405 
 1974000   0.46903255   -8.6640749    221.66122 0.0093575321 0.0073512368          415 
 1975000    0.4616848   -8.6630623    221.60898 0.0093505897 0.0073446741          402 
 1976000   0.45397288   -8.6678667    221.62198  0.009346406 0.0073381159          573 
 1977000   0.46012187   -8.6516285    221.59654 0.0093406062   0.00733157          459 
 1978000   0.47973565   -8.6583549    221.66976 0.0093389685 0.0073250334          421 
 1979000   0.47336707   -8.6793328     221.2017 0.0093145402 0.0073184985          612 
 1980000   0.46188736   -8.6642888     221.5632 0.0093250504 0.0073119775          625 
 1981000   0.45830299   -8.6569566    221.75627 0.0093284651 0.0073054592          490 
 1982000   0.46384826   -8.6590052    221.40861 0.0093091412 0.0072989422          686 
 1983000   0.46294918   -8.6565933    221.66808 0.0093153503 0.0072924509          470 
 1984000   0.44994387   -8.6684561    221.58756 0.0093072733 0.0072859606          707 
 1985000   0.46094187   -8.6547515    221.36033  0.009293045 0.0072794732          621 
 1986000   0.45756602   -8.6460305    221.64428 0.0093002802 0.0072729939          634 
 1987000   0.45906739   -8.6700654    221.67382 0.0092968386 0.0072665274          444 
 1988000   0.46686918   -8.6617511    221.44883 0.0092827308 0.0072600713          644 
 1989000   0.46487772   -8.6611369    221.73406 0.0092900141 0.0072536185          651 
 1990000   0.46030267    -8.674593    221.58794 0.0092792269 0.0072471737          631 
 1991000    0.4657424   -8.6852067    221.50983 0.0092712973 0.0072407362          248 
 1992000   0.46204327   -8.6683512    221.82323 0.0092797538 0.0072343074          681 
 1993000    0.4589802   -8.6794726    221.99523 0.0092822894 0.0072278836          639 
 1994000   0.46304858   -8.6696102    221.49034 0.0092565339 0.0072214637          582 
 1995000   0.45740802   -8.6917197     221.7887 0.0092643567 0.0072150547          653 
 1996000    0.4645558   -8.6627141    221.71029 0.0092564415 0.0072086521          635 
 1997000   0.46165337   -8.6698928    221.36659 0.0092374641 0.0072022603          688 
 1998000   0.44364398   -8.6760546    221.38677 0.0092336825 0.0071958645          397 
 1999000   0.46095369   -8.6811969    221.40713  0.009229912 0.0071894779          624 
 2000000   0.46115646   -8.6641104    221.69409 0.0092372539 0.0071831078          419 
 2001000   0.45294185   -8.6818355    221.51339 0.0092251119 0.0071767446          616 
 2002000    0.4481926   -8.6656535     221.3592 0.0092140859 0.0071703823          596 
 2003000   0.46204357   -8.6842289    221.65421 0.0092217594 0.0071640303          427 
 2004000   0.44903456   -8.6821478     221.5902 0.0092144961 0.0071576811          624 
 2005000   0.45216013   -8.6781922     221.6536 0.0092125354 0.0071513452          610 
 2006000    0.4519442   -8.6899359    221.73421 0.0092112917 0.0071450121          647 
 2007000   0.46361213   -8.6831365    221.70141 0.0092053401 0.0071386891          653 
 2008000   0.43920797    -8.678549    221.22064 0.0091808033 0.0071323699          633 
 2009000   0.45114319   -8.6781896    221.45165  0.009185816 0.0071260643          392 
 2010000   0.44814771   -8.6732198    221.37615 0.0091781158 0.0071197653          706 
 2011000   0.44836882   -8.6808158    221.42885 0.0091757356 0.0071134718          384 
 2012000   0.44717474   -8.6707721     221.6581   0.00918067 0.0071071865          623 
Loop time of 5250.3 on 48 procs for 2000000 steps with 4000 atoms

Performance: 65824.853 tau/day, 380.931 timesteps/s
99.4% CPU use with 48 MPI tasks x no OpenMP threads

MPI task timing breakdown:
Section |  min time  |  avg time  |  max time  |%varavg| %total
---------------------------------------------------------------
Pair    | 372.19     | 404.31     | 428.38     |  62.1 |  7.70
Neigh   | 36.76      | 38.21      | 39.714     |  11.0 |  0.73
Comm    | 342.78     | 363.74     | 397.67     |  65.2 |  6.93
Output  | 4.995      | 4.997      | 5.0468     |   0.3 |  0.10
Modify  | 4376.7     | 4390.9     | 4401.5     |   9.5 | 83.63
Other   |            | 48.14      |            |       |  0.92

Nlocal:        83.3333 ave          90 max          78 min
Histogram: 5 3 8 5 6 9 4 2 4 2
Nghost:        2427.46 ave        2447 max        2410 min
Histogram: 3 4 7 3 8 6 9 5 2 1
Neighs:        16763.0 ave       19221 max       14560 min
Histogram: 5 5 2 4 10 6 6 4 2 4
FullNghs:      33526.5 ave       36233 max       31343 min
Histogram: 5 1 10 5 10 4 4 4 3 2

Total # of neighbors = 1609272
Ave neighs/atom = 402.31800
Neighbor list builds = 106521
Dangerous builds = 0

#clear
#
#next RN
#
#jump SELF
Total wall time: 1:27:34
