
units lj                  # Use reduced LJ style units
atom_style atomic         # Uncharged point particles
atom_modify map hash      # Needed for indexing of clusters etc
                          # Used to be able to find where atoms are in relation to each other.

lattice fcc 1.0 spacing 1 1 1
Lattice spacing in x,y,z = 1.5874011 1.5874011 1.5874011
region box block 0 10 0 10 0 10 units lattice
create_box 2 box
Created orthogonal box = (0.0000000 0.0000000 0.0000000) to (15.874011 15.874011 15.874011)
  3 by 4 by 4 MPI processor grid
create_atoms 1 box
Created 4000 atoms
  using lattice units in orthogonal box = (0.0000000 0.0000000 0.0000000) to (15.874011 15.874011 15.874011)
  create_atoms CPU = 0.003 seconds
set type 1 type/fraction 2 0.88 78393
Setting atom values ...
  3511 settings made for type/fraction
mass 1 1.0
mass 2 1.0
pair_style lj/cut  3.5
pair_modify tail  yes
pair_coeff 1  1  1.0  1.0   # Intearaction between 1 and 1 set with epsilon = 1 and sigma = 1
pair_coeff 1  2  1.5  0.8
pair_coeff 2  2  0.5  0.88

write_data data.0
System init for write_data ...
Neighbor list info ...
  update every 1 steps, delay 10 steps, check yes
  max neighbors/atom: 2000, page size: 100000
  master list distance cutoff = 3.8
  ghost atom cutoff = 3.8
  binsize = 1.9, bins = 9 9 9
  1 neighbor lists, perpetual/occasional/extra = 1 0 0
  (1) pair lj/cut, perpetual
      attributes: half, newton on
      pair build: half/bin/atomonly/newton
      stencil: half/bin/3d
      bin: standard
WARNING: Not all mixed pair coeffs generated from mixing. Use write_data with 'pair ij' option to store all pair coeffs. (../write_data.cpp:312)


#############################
#   M E L T   S Y S T E M   #
#############################

velocity all create 2.4 5300450 mom yes dist gaussian # Assign velocities
                                                    # Temperature 2.4, random number seed, zero linear momentum
                                                                                # Gaussian distribution

timestep 0.002   # simulation timestep
thermo 1000       # output thermodynamic data every 1000 steps bf 100

# Define a fix  in this case with index 1 applied to all
# particles in the simulation. This fix is for simulations
# in the anisotropic NPT ensemble. Note that we use the MTK
# correction.
fix 1 all npt temp 2.4 2.4 0.1 iso 5.68 5.68 0.5 mtk yes tchain 5 pchain 5 # Use NPT ensemble
                                                                         # Set temperature and pressure and damping
                                                                         # Numbers of thermostats in chain and in barostat
run 10000          # run for 10000 steps
Per MPI rank memory allocation (min/avg/max) = 3.642 | 3.644 | 3.648 Mbytes
Step Temp E_pair E_mol TotEng Press Volume 
       0          2.4   -3.2921436            0   0.30695645   -2.7369977         4000 
    1000    2.4117312   -2.4389749            0    1.1777175    5.5983335    3934.9816 
    2000    2.4442062   -2.3915763            0    1.2738164    5.7084373    3968.0317 
    3000    2.4258203   -2.4112167            0    1.2266041    5.6601563    3953.5921 
    4000    2.4004911   -2.3876456            0    1.2121909    5.8069273    3940.1693 
    5000    2.4246988   -2.3828412            0    1.2532978    5.6618475    3975.6359 
    6000    2.4064755   -2.4137977            0    1.1950131    5.2856826    4008.3462 
    7000    2.4036185   -2.3715952            0    1.2329312     5.840995    3953.0304 
    8000    2.3982921   -2.3684805            0    1.2280582    5.4101686    4015.6527 
    9000     2.425487   -2.3966749            0     1.240646    5.8356147    3946.3213 
   10000    2.4009222   -2.4170509            0     1.183432    5.4782052    3969.8021 
Loop time of 2.4989 on 48 procs for 10000 steps with 4000 atoms

Performance: 691503.313 tau/day, 4001.755 timesteps/s
99.6% CPU use with 48 MPI tasks x no OpenMP threads

MPI task timing breakdown:
Section |  min time  |  avg time  |  max time  |%varavg| %total
---------------------------------------------------------------
Pair    | 1.0877     | 1.1675     | 1.248      |   3.1 | 46.72
Neigh   | 0.20676    | 0.21807    | 0.23204    |   1.0 |  8.73
Comm    | 0.76198    | 0.85065    | 0.94161    |   4.1 | 34.04
Output  | 0.00025849 | 0.00026247 | 0.00032857 |   0.0 |  0.01
Modify  | 0.22237    | 0.24712    | 0.26889    |   2.6 |  9.89
Other   |            | 0.01531    |            |       |  0.61

Nlocal:        83.3333 ave          96 max          69 min
Histogram: 1 3 3 4 7 12 8 9 0 1
Nghost:        1649.04 ave        1674 max        1613 min
Histogram: 2 2 1 4 4 9 12 8 3 3
Neighs:        9614.73 ave       11512 max        7678 min
Histogram: 1 2 6 3 8 12 9 5 1 1

Total # of neighbors = 461507
Ave neighs/atom = 115.37675
Neighbor list builds = 911
Dangerous builds = 220

# Equilibrate just above the melting temperature to avoid step fn in T

fix 1 all npt temp 1.25 1.25 0.1 iso 5.68 5.68 0.5 mtk yes tchain 5 pchain 5
run 2000
Per MPI rank memory allocation (min/avg/max) = 3.643 | 3.645 | 3.649 Mbytes
Step Temp E_pair E_mol TotEng Press Volume 
   10000    2.4009222   -2.4170509            0     1.183432    5.4782052    3969.8021 
   11000    1.2760397   -3.5784328            0   -1.6648518    5.8256697     3057.379 
   12000    1.2434119    -3.561974            0   -1.6973225    5.9609798    3043.6539 
Loop time of 0.618423 on 48 procs for 2000 steps with 4000 atoms

Performance: 558840.648 tau/day, 3234.032 timesteps/s
99.6% CPU use with 48 MPI tasks x no OpenMP threads

MPI task timing breakdown:
Section |  min time  |  avg time  |  max time  |%varavg| %total
---------------------------------------------------------------
Pair    | 0.27179    | 0.2982     | 0.32435    |   2.2 | 48.22
Neigh   | 0.040892   | 0.043382   | 0.045817   |   0.5 |  7.01
Comm    | 0.1978     | 0.22676    | 0.25229    |   2.8 | 36.67
Output  | 5.1985e-05 | 5.3295e-05 | 6.8831e-05 |   0.0 |  0.01
Modify  | 0.041413   | 0.045207   | 0.048678   |   0.9 |  7.31
Other   |            | 0.004816   |            |       |  0.78

Nlocal:        83.3333 ave          95 max          74 min
Histogram: 4 2 2 11 11 8 6 2 1 1
Nghost:        1973.02 ave        1998 max        1943 min
Histogram: 2 1 7 4 7 5 5 9 6 2
Neighs:        12549.6 ave       14995 max       10506 min
Histogram: 1 4 3 8 12 14 3 1 1 1

Total # of neighbors = 602381
Ave neighs/atom = 150.59525
Neighbor list builds = 147
Dangerous builds = 14

#############################
# L I N E A R  Q U E N C H  #
#############################

# Define solid atoms. This closely follows ten Wolde  Ruiz-Montero and Frenkel  Faraday Discuss  1996  104  93-110
# Compute components of the per-atom q6 vector
compute q6 all orientorder/atom degrees 1 6 components 6 nnn NULL cutoff 1.3 # compute the Q6 parameter.
                                                                             # Use all neighbours within 1.3 unit cell.

# get number of connections
compute coord_number all coord/atom orientorder q6 0.5

# An atom is solid if it has 8 or more connections (of a possible 14)
variable is_solid atom c_coord_number>=8
group solid dynamic all var is_solid    # Must be dynamic to update
dynamic group solid defined

# do clustering
compute cluster solid cluster/atom 1.3 # Create a cluster where all atoms within are solid and max 1.3 units from another member

# define chunks one chunk per cluster
compute clus_chunks solid chunk/atom c_cluster nchunk every compress yes  # Says which atoms are in which chunk

# count the size of each chunk
compute size_chunks solid property/chunk clus_chunks count


# Find the maximum entry in the vector of chunk sizes
variable max_n equal max(c_size_chunks)


# Thermo style which includes this variable
# thermo_style custom step temp pe vol v_max_n

thermo ${N}  # Print the thermo information every 100 steps
thermo 1000  

# Reset the npt fix at a lower temperature (below freezing)
fix 1  all npt temp  ${temp} ${temp}  0.1  iso  5.68  5.68  0.5  mtk yes tchain  5  pchain  5
fix 1  all npt temp  0.45 ${temp}  0.1  iso  5.68  5.68  0.5  mtk yes tchain  5  pchain  5
fix 1  all npt temp  0.45 0.45  0.1  iso  5.68  5.68  0.5  mtk yes tchain  5  pchain  5

dump dmp2 all dcd ${N} traj.dcd
dump dmp2 all dcd 1000 traj.dcd


compute msd all msd com yes
variable twopoint equal c_msd[4]/6/(step*dt+1.0e-6)
fix 9 all vector 10 c_msd[4]
variable fit equal slope(f_9)/6/(10*dt)
thermo_style custom step temp pe c_msd[4] v_twopoint v_fit v_max_n

fix 1 all npt temp 1.25 ${temp} 0.1 iso 5.68 5.68 0.5 mtk yes tchain 5 pchain 5
fix 1 all npt temp 1.25 0.45 0.1 iso 5.68 5.68 0.5 mtk yes tchain 5 pchain 5
run 5000000 # 5000000  # Run for this many steps
Neighbor list info ...
  update every 1 steps, delay 10 steps, check yes
  max neighbors/atom: 2000, page size: 100000
  master list distance cutoff = 3.8
  ghost atom cutoff = 3.8
  binsize = 1.9, bins = 8 8 8
  4 neighbor lists, perpetual/occasional/extra = 1 3 0
  (1) pair lj/cut, perpetual
      attributes: half, newton on
      pair build: half/bin/atomonly/newton
      stencil: half/bin/3d
      bin: standard
  (2) compute orientorder/atom, occasional
      attributes: full, newton on
      pair build: full/bin/atomonly
      stencil: full/bin/3d
      bin: standard
  (3) compute coord/atom, occasional
      attributes: full, newton on
      pair build: full/bin/atomonly
      stencil: full/bin/3d
      bin: standard
  (4) compute cluster/atom, occasional
      attributes: full, newton on
      pair build: full/bin/atomonly
      stencil: full/bin/3d
      bin: standard
Per MPI rank memory allocation (min/avg/max) = 9.826 | 9.831 | 9.836 Mbytes
Step Temp PotEng c_msd[4] v_twopoint v_fit v_max_n 
   12000    1.2434119    -3.561974 2.5251438e-30 1.753572e-32 8.3333333e+20            2 
   13000    1.2466859   -3.5395776   0.92817429  0.005949835   0.07928403            1 
   14000    1.2777305   -3.5806123    1.9032093  0.011328627  0.079896875            1 
   15000    1.2424475   -3.5861793     2.882205   0.01601225  0.081400672            2 
   16000    1.2513758   -3.6203663    3.9337258  0.020488155  0.081842425            1 
   17000    1.2378738   -3.5819537    5.0096819  0.024557263  0.083430071            3 
   18000    1.2226073   -3.5650738    6.1399703  0.028425788  0.084911077            2 
   19000    1.2637285   -3.5613138     7.268881  0.031881056  0.086524521            1 
   20000    1.2511478   -3.5637719    8.3246846  0.034686185  0.087721593            1 
   21000    1.2451747   -3.5846884    9.4248232  0.037400091  0.088319645            2 
   22000    1.2401248   -3.5849489    10.421421  0.039475078  0.088681553            1 
   23000    1.2299236   -3.5772145    11.315105  0.040996758  0.088345488            2 
   24000    1.2444884   -3.5791033      12.3685  0.042946178  0.087968033            3 
   25000    1.2859626   -3.5818867     13.55683  0.045189431  0.087858903            5 
   26000    1.2297225   -3.5597373     14.55506  0.046650833  0.087920303            1 
   27000    1.2475941   -3.5586255    15.737777  0.048573385  0.087945057            1 
   28000    1.2702768   -3.5994445    16.799068  0.049997224  0.088063587            2 
   29000    1.2591081   -3.5989468    17.748516  0.051001483  0.088122637            2 
   30000    1.2653966   -3.5453121    18.981003  0.052725008  0.088280916            1 
   31000    1.2650735   -3.5863423    19.946144  0.053618666  0.088268383            2 
   32000    1.2357987    -3.630053    20.796452  0.054157426  0.088167804            1 
   33000    1.2865919   -3.5556238    21.896566  0.055294357    0.0880441            2 
   34000    1.2469384   -3.5890534    22.871644   0.05605795  0.087863773            2 
   35000    1.2310866    -3.545778    23.989035   0.05711675  0.087761212            1 
   36000    1.2591476   -3.5724906    25.113371  0.058132803  0.087761355            3 
   37000    1.2280941   -3.5719441    26.305821  0.059247344  0.087916913            2 
   38000     1.249553   -3.5881501    27.577312  0.060476561  0.088106742            1 
   39000    1.2409586   -3.5725529    28.754186  0.061440568  0.088320468            1 
   40000    1.2443583   -3.5374113     30.04519  0.062594146  0.088623972            2 
   41000    1.2532939   -3.5901845    31.102943  0.063217363  0.088963087            1 
   42000    1.2491647    -3.577681    32.301058  0.064089399  0.089243192            3 
   43000    1.2337931   -3.6014907    33.501348  0.064925093  0.089555827            1 
   44000    1.2421204   -3.5758401    34.793381  0.065896554  0.089851081            2 
   45000    1.2530656   -3.5619712    35.429703   0.06561056  0.090014384            1 
   46000    1.2388398     -3.56068     36.64583  0.066387372  0.090086921            1 
   47000    1.2460813   -3.5521428    37.789363  0.067002416  0.090189558            2 
   48000    1.2440279   -3.6245287    38.601901  0.067017188  0.090328564            1 
   49000    1.2462309    -3.600371    39.998724   0.06802504  0.090427569            2 
   50000    1.2565781   -3.5776572    40.852759  0.068087932  0.090521729            1 
   51000    1.2561358   -3.5518915    41.822968  0.068338182  0.090512284            1 
   52000    1.2576916   -3.5632212    42.924574  0.068789381  0.090476854            1 
   53000    1.2656967   -3.5955485    43.727274  0.068753576  0.090427829            2 
   54000    1.2191586   -3.5626864     44.57934  0.068795277  0.090308112            2 
   55000    1.2241878   -3.6016874    45.068878  0.068286179  0.090137603            1 
   56000    1.2356685   -3.5562528    46.390823  0.069033962  0.089933654            1 
   57000    1.2333927   -3.6102089    47.238769  0.069062527  0.089774355            3 
   58000    1.1928526   -3.5733184    48.257289  0.069335185  0.089585781            1 
   59000    1.2652316   -3.5782267    49.164682  0.069441641  0.089389496       -1e+20 
   60000    1.2272721   -3.5745038    50.235155  0.069771048  0.089173123            2 
   61000    1.2495951   -3.5889247    51.054353  0.069746384  0.088985057            2 
   62000    1.2319369   -3.6165505    52.006541  0.069901264    0.0887854            1 
   63000    1.2333995   -3.5899188    53.087689   0.07022181   0.08859539            3 
   64000    1.2015733   -3.5434257    54.397557  0.070830152  0.088448399            1 
   65000    1.2424924   -3.5755825    55.921601   0.07169436  0.088358807            1 
   66000    1.2573513    -3.607269    56.704919   0.07159712  0.088297946            2 
   67000    1.2220322   -3.5607611    58.249926  0.072450156  0.088252603            1 
   68000    1.2216753   -3.5690507    59.109489  0.072438099  0.088242714            1 
   69000    1.2046118   -3.6150199    60.074864  0.072554183  0.088248182            5 
   70000    1.2353376   -3.5972909    61.682148  0.073431129  0.088264823            2 
   71000     1.232417   -3.5587348    62.284383  0.073103736  0.088271958            2 
   72000    1.2293313   -3.5920196    63.408674  0.073389668  0.088259465            1 
   73000    1.2451449   -3.6040434    64.816216  0.073991113  0.088289128            4 
   74000    1.2292575   -3.5726103    65.813467  0.074114265  0.088320337            2 
   75000    1.2251792   -3.6131644    66.775461  0.074194957  0.088343511            1 
   76000    1.2475058   -3.6011382    67.357844  0.073857285  0.088329939            2 
   77000    1.2311903    -3.580489    69.073029   0.07475436  0.088331983            2 
   78000    1.2498866   -3.5823589    69.940982  0.074723271  0.088335843            1 
   79000    1.2462729   -3.6148923    70.493966  0.074360723  0.088323356            2 
   80000    1.2125523   -3.5958312    71.714752  0.074702866  0.088274784            1 
   81000     1.235263    -3.567936    72.158386  0.074237022  0.088210188            2 
   82000    1.2613443   -3.5646862     73.07506  0.074263272  0.088122681            2 
   83000    1.2194414   -3.6161394    74.466282  0.074765342  0.088038989            2 
   84000    1.2394399   -3.5607191    75.273193  0.074675787  0.087967395            2 
   85000    1.2138535   -3.5996515    76.087734  0.074595818  0.087912266            3 
   86000    1.2256073   -3.5483776    77.895028  0.075479678  0.087888651            1 
   87000    1.2481722   -3.5792137    79.190913  0.075853364  0.087884826            2 
   88000    1.2269145    -3.556275    80.249981  0.075994299  0.087871625            2 
   89000    1.2386615   -3.5881199    80.973238  0.075817638  0.087855653            1 
   90000    1.2285106   -3.5970255    82.094778  0.076013683   0.08783219            2 
   91000    1.2513281   -3.5791798    83.497343  0.076462768  0.087823487            2 
   92000    1.2470137   -3.6272763    84.225308   0.07629104  0.087808222            2 
   93000    1.2160634    -3.577097    85.366333   0.07649313  0.087801623            3 
   94000    1.2448807   -3.5940097    86.187962  0.076407767  0.087798804            2 
   95000    1.2643477   -3.5797548    88.011845  0.077203373  0.087798443            1 
   96000    1.2224891    -3.612078    88.420383  0.076753804  0.087809438            1 
   97000    1.2386773   -3.5851744    89.678246  0.077043166  0.087820366            4 
   98000     1.210562   -3.6233374    90.784917  0.077198058  0.087833615            1 
   99000     1.206746   -3.6241833    91.404731  0.076940009   0.08782842            2 
  100000    1.2510463   -3.5983484    92.351287  0.076959405  0.087807465            4 
  101000    1.2222596   -3.5772965    93.434164  0.077090894  0.087783464            3 
  102000      1.22951   -3.5923821    94.063399  0.076849182  0.087742905            1 
  103000    1.2209063   -3.6045946     94.63683  0.076567014  0.087677609            1 
  104000    1.2345398   -3.5589013    96.301492  0.077164656  0.087614641            2 
  105000    1.2591148   -3.5961926    97.507222  0.077386684   0.08757845            2 
  106000    1.2268161   -3.5757174    98.333048  0.077305855  0.087541082            2 
  107000     1.202572   -3.5909994    98.994502  0.077098522  0.087496996            1 
  108000    1.2222588   -3.5837691    99.964969  0.077133463  0.087447337            1 
  109000    1.2502426   -3.6110557    100.51393  0.076845513  0.087392017            2 
  110000    1.2059785   -3.5948072    101.45144  0.076857154  0.087325259            3 
  111000    1.2322937   -3.5853088    102.57055  0.077004914  0.087267404            2 
  112000    1.2219361   -3.5802658    103.39306  0.076929362  0.087214028            1 
  113000    1.2581452   -3.5776247    104.94941  0.077396318  0.087142931            2 
  114000    1.2162612   -3.5998729    105.63725  0.077220212  0.087083324            1 
  115000    1.2310964   -3.5994838    106.28167  0.077015705  0.087027556            3 
  116000    1.2359272   -3.5759122     107.7106  0.077378302  0.086982938            2 
  117000     1.239296   -3.6243229    109.17237    0.0777581  0.086944586            1 
  118000    1.2412289   -3.6161277    109.89489  0.077609387  0.086909578            1 
  119000    1.2394224   -3.6030292    111.14194   0.07783049  0.086875506            2 
  120000    1.2397684   -3.6272518    112.27084  0.077965861   0.08683039            2 
  121000    1.2090151   -3.6333131    113.44627  0.078131041  0.086804703            1 
  122000    1.2364071   -3.6204581    114.30196  0.078075112  0.086775402            2 
  123000    1.2530528   -3.6058671    115.08622  0.077971694  0.086738815            3 
  124000     1.221736   -3.5867911     116.2482  0.078123789    0.0866967            2 
  125000    1.2261534   -3.6246944      116.502  0.077668002  0.086642451            3 
  126000    1.2173095    -3.586366    117.80923  0.077916155  0.086587889            1 
  127000    1.2242375    -3.567653    118.69726  0.077885344  0.086531761            4 
  128000    1.2322045   -3.5904581    119.66463  0.077906659  0.086484966            2 
  129000    1.2088135   -3.5725052     120.9134   0.07810943  0.086441476            4 
  130000    1.2512705   -3.5620945    121.94357  0.078168953  0.086399563            3 
  131000    1.2256475   -3.6217702    122.27927  0.077785792  0.086358686            3 
  132000    1.2290395   -3.5869976    123.15585  0.077749908  0.086309529            3 
  133000    1.2509695   -3.5746134    125.03423   0.07834225  0.086264519            1 
  134000     1.182878   -3.6102815    125.80076  0.078234305  0.086220002            1 
  135000    1.2386472   -3.6268212    126.68153  0.078198478  0.086171647            4 
  136000    1.2376936   -3.5660457    128.17632  0.078539408  0.086122516            2 
  137000    1.2261039   -3.6304819    128.24922  0.078010472  0.086079482            2 
  138000    1.2389717   -3.6248794     129.1885  0.078012381  0.086038753            1 
  139000    1.2090848    -3.597539    130.23718  0.078079844  0.085992105            3 
  140000     1.231949   -3.5998045    131.76588  0.078432072  0.085946601            2 
  141000    1.2108391   -3.5901131    133.29424  0.078779101  0.085916996            1 
  142000    1.2633413   -3.6155013    133.92817  0.078596344  0.085883211            2 
  143000    1.2164133   -3.6060904    135.12266  0.078742811  0.085854392            1 
  144000    1.2506345   -3.5566578    136.33766  0.078899109  0.085827246            2 
  145000    1.2101155   -3.5981608    136.20207   0.07827705   0.08579936            5 
  146000    1.2441907   -3.5956997    137.44618  0.078451014  0.085759202            2 
  147000    1.2244721   -3.5718824    139.20497   0.07891438  0.085720706            3 
  148000    1.2485291   -3.6000931    140.31322  0.079005194  0.085694267            2 
  149000    1.2222476   -3.6079347    141.31792  0.079036865  0.085677231            2 
  150000     1.234986   -3.5807596    142.48246   0.07915692  0.085662311            2 
  151000    1.2194036   -3.5993395    143.64071  0.079271917  0.085654232            3 
  152000    1.2252653   -3.6014421    144.23152  0.079074297  0.085644202            2 
  153000    1.1933398   -3.5840789    145.91076  0.079472092  0.085636852            2 
  154000    1.2545575   -3.5943173    147.74659  0.079949451  0.085635753            1 
  155000    1.2456165   -3.6069179    148.13629  0.079643167  0.085638151            2 
  156000    1.2430382   -3.5791469    149.09061   0.07964242  0.085645721            1 
  157000    1.2468753   -3.5933698    150.91408  0.080103016  0.085667135            1 
  158000    1.2242592   -3.6219272    151.85923   0.08009453   0.08568397            2 
  159000    1.2389241   -3.5919151    153.72321  0.080567721  0.085700958            1 
  160000    1.2226589   -3.6268319    153.90724   0.08016002  0.085718205            2 
  161000     1.240765   -3.5642605    155.55703  0.080516061  0.085741301            1 
  162000    1.2295244   -3.5968613    156.75703   0.08063633  0.085767234            1 
  163000    1.2174561   -3.6047332     157.6464   0.08059632  0.085788677            1 
  164000    1.2262142   -3.6123567    158.24534   0.08040922   0.08581317            1 
  165000    1.2231656   -3.6276699     158.4038  0.080001918  0.085834413            3 
  166000    1.2036592   -3.6151877    161.01274  0.080829691  0.085858972            2 
  167000    1.2294632   -3.6034951    161.87141  0.080774156  0.085876039            4 
  168000    1.2282108   -3.6070546    162.24161  0.080476988  0.085890349            1 
  169000    1.2562323   -3.5743325    163.98757  0.080861721  0.085910143            2 
  170000    1.2116832   -3.5947997    164.98937  0.080877143  0.085922614            2 
  171000    1.2277207   -3.6339807    165.13021  0.080472813  0.085928814            1 
  172000    1.2268064   -3.5786231    166.22703  0.080536352  0.085933113            3 
  173000    1.2387605    -3.619236    167.13709  0.080509197  0.085943307            1 
  174000    1.2038201   -3.6004431    168.78591  0.080836162  0.085956452            1 
  175000     1.191761    -3.585764    169.44929  0.080690136  0.085965933            2 
  176000    1.2031146   -3.6206947    170.32744   0.08064746  0.085968694            3 
  177000    1.2050142    -3.577583    171.15652  0.080582166  0.085970847            3 
  178000    1.2374762   -3.6222248    172.65813  0.080832457  0.085977434            4 
  179000    1.2253924   -3.6008555    173.46205  0.080755143  0.085983083            3 
  180000    1.2194067   -3.6131993    173.92124  0.080519094  0.085992932            1 
  181000    1.2573566   -3.5859221    175.99882  0.081030766  0.086004953            3 
  182000    1.2441965   -3.6261195    176.31002   0.08072803  0.086017397            1 
  183000     1.204132   -3.5748561    177.30904  0.080741819  0.086023479            3 
  184000    1.2372924   -3.6172468    178.27698  0.080741384   0.08603171            1 
  185000    1.2081767   -3.6403797    179.36654  0.080795739  0.086039306            2 
  186000    1.2006895   -3.6049522    181.41761  0.081280293  0.086047039            3 
  187000    1.2101747   -3.5874339    181.05079   0.08068217  0.086050773            2 
  188000    1.2020515   -3.5991831    182.37177  0.080838549  0.086055411            1 
  189000    1.1956581   -3.6190674    183.44872  0.080885679  0.086057603            1 
  190000     1.239694   -3.6112291    183.92426  0.080668535  0.086051514            1 
  191000    1.2328585   -3.5953819    184.64689   0.08056147  0.086043394            1 
  192000    1.2147934   -3.6451714    185.88729  0.080680249  0.086030685            3 
  193000    1.2547443   -3.5844311    188.56561  0.081418656  0.086022593            1 
  194000    1.2240251   -3.6059604    189.33983  0.081331542   0.08602483            3 
  195000    1.1982686   -3.6149334    189.17023   0.08084198  0.086023219            3 
  196000    1.2322419   -3.6298017    190.01747  0.080789742  0.086016231            4 
  197000    1.2235041    -3.608807    191.05926  0.080820328  0.086006368            5 
  198000    1.2000721   -3.6318601    192.22466  0.080902636  0.085996674            2 
  199000    1.2281832   -3.6335851    193.03083  0.080833683  0.085991438            2 
  200000    1.2065377   -3.6114365    193.82439  0.080760161  0.085983875            2 
  201000    1.2241413   -3.6183848    195.41293  0.081016969  0.085978039            3 
  202000    1.2250477   -3.6347992    195.47337  0.080640831  0.085969608            2 
  203000    1.2033014    -3.616537    197.53167  0.081088535  0.085963919            2 
  204000     1.233056   -3.6186986     199.0809  0.081323895  0.085952617            1 
  205000    1.2094958   -3.6541636    197.51574  0.080290952  0.085938017            2 
  206000    1.1973914   -3.5909455    199.18698  0.080577256  0.085914514            3 
  207000    1.2348799   -3.6476216    199.59884  0.080353802  0.085891823            3 
  208000    1.2138922   -3.6165459    200.87693  0.080479538  0.085868849            1 
  209000    1.2311027   -3.6080177    202.49453  0.080739446  0.085849395            3 
  210000    1.2297303   -3.5992949    203.17105  0.080623432  0.085821516            3 
  211000    1.2205246   -3.6670551    202.95623   0.08015649  0.085794113            1 
  212000    1.2166568   -3.5995448    204.94796  0.080561304  0.085765675            3 
  213000    1.2146754   -3.5736411    205.32615  0.080331044  0.085734978            1 
  214000    1.2260512   -3.6185275    205.71962  0.080108884  0.085701806            2 
  215000    1.2315508   -3.6184619    206.91413  0.080199274  0.085671361            2 
  216000    1.2378464   -3.6351376    207.54034  0.080069576   0.08563396            5 
  217000    1.2251428   -3.6213363    209.25179  0.080357831  0.085599431            1 
  218000    1.2413483   -3.6402081    210.32089  0.080397893  0.085562672            3 
  219000    1.2206027   -3.6198777    211.67382  0.080545595  0.085532057            3 
  220000     1.205269   -3.6331943    211.76657  0.080214611   0.08550673            3 
  221000    1.2136109    -3.605956    213.51572  0.080511206  0.085482469            1 
  222000    1.2098132   -3.6116041    214.10813  0.080370921  0.085455765            3 
  223000    1.2396268   -3.5990482    214.55024  0.080175727  0.085427535            2 
  224000    1.2118074   -3.6249208    215.79032  0.080279135  0.085395173            2 
  225000    1.2285711   -3.6309755    217.34212   0.08049708  0.085363401            2 
  226000    1.1977015   -3.6486733    216.31607  0.079762564  0.085325529            3 
  227000    1.2075386   -3.5686569    218.70868  0.080289532  0.085289132            1 
  228000    1.2091214   -3.6370292    218.62308  0.079906095  0.085250455            1 
  229000    1.2283748    -3.629759    219.81893  0.079992332  0.085214973            4 
  230000    1.2087852   -3.6181885    221.40389  0.080218802    0.0851811            3 
  231000    1.2021704    -3.571337    221.55878   0.07992741  0.085147375            1 
  232000    1.2398613   -3.5903477    224.55433  0.080658881  0.085114179            3 
  233000    1.2180834   -3.6148267    223.31732  0.079870287  0.085080471            5 
  234000    1.2368339   -3.6016524    224.77102  0.080046659  0.085050143            3 
  235000    1.2118994   -3.6135737    226.23539  0.080225317  0.085026594            2 
  236000    1.2251579   -3.6339059    228.35738  0.080634668   0.08500426            1 
  237000    1.2298809   -3.6427394     227.9795  0.080161568  0.084980384            4 
  238000    1.2052437   -3.6187004    229.92573  0.080506209  0.084958577            3 
  239000    1.2122931   -3.6150496    229.35103   0.07996898  0.084931572            5 
  240000    1.1993095   -3.5949457    230.92708  0.080183014  0.084902164            2 
  241000    1.2273128   -3.6134668     231.6855  0.080112551  0.084871779            2 
  242000    1.2110072   -3.6128861    232.61973  0.080103212  0.084838411            1 
  243000    1.2071943   -3.6157794    234.99385   0.08058774   0.08481008            1 
  244000    1.1989108   -3.6198912    234.75533  0.080175999  0.084785004            1 
  245000    1.2195712   -3.6264776    236.90585  0.080580222  0.084759383            2 
  246000    1.2087481   -3.5656611    237.61053  0.080491373  0.084739215            1 
  247000    1.1917852   -3.6218704    238.86703  0.080589416  0.084717562            1 
  248000    1.2057307   -3.6142006    239.69765  0.080543567  0.084694725            2 
  249000    1.2358564   -3.6187457     240.0176  0.080327175    0.0846743            1 
  250000    1.2225758   -3.6227699    240.82126  0.080273753  0.084652786       -1e+20 
  251000    1.2087876    -3.616666     243.0237  0.080685158  0.084633021            2 
  252000    1.1852423   -3.6611562    243.60688   0.08055783  0.084620215            3 
  253000    1.1912566   -3.6159299    245.49935  0.080862765  0.084604874            1 
  254000    1.1962218   -3.6454578    246.02643  0.080717331  0.084595845            2 
  255000    1.2272438    -3.649381    247.73998  0.080960776  0.084592018            2 
  256000    1.1820138   -3.6287824    248.17089  0.080784793  0.084585242            3 
  257000    1.2249457   -3.6374706    250.03884  0.081076148  0.084583051            3 
  258000    1.1956065   -3.6644449    250.95154  0.081056698  0.084583141            1 
  259000     1.219498   -3.6162826    253.05205   0.08141958  0.084586264            2 
  260000     1.239167   -3.6054875    253.27981  0.081179425  0.084587963            2 
  261000    1.1988527   -3.6362845    254.89325  0.081383541  0.084587925            2 
  262000    1.2065594   -3.6331806    255.18435  0.081165505  0.084584929            2 
  263000    1.2264492   -3.6367008     256.4752  0.081265908   0.08458201            3 
  264000    1.2173714   -3.6423519    258.08616  0.081466591  0.084578787            2 
  265000    1.1993111   -3.6490315    258.23411  0.081205694  0.084573984            3 
  266000    1.2160119   -3.5997535    259.00032  0.081140452  0.084565988            2 
  267000    1.2154262   -3.6065593    259.44426  0.080975113  0.084559908            1 
  268000    1.2033663   -3.6375973    259.97461  0.080837877  0.084548624            2 
  269000    1.2066216   -3.6175642    261.09715  0.080885115  0.084534378            3 
  270000    1.2097086   -3.6488728    260.51588  0.080406137  0.084519557            2 
  271000    1.1908074   -3.6275284    261.15333  0.080305451  0.084503512            2 
  272000    1.2120354   -3.6304993    263.45823  0.080716369  0.084481541            3 
  273000    1.2033131   -3.6259219     265.6793  0.081098688  0.084463503            2 
  274000    1.2254383   -3.6050877    265.58853  0.080775101  0.084444553            1 
  275000      1.19158    -3.618122    266.62318  0.080794902  0.084428931            2 
  276000    1.2135627   -3.6240132    267.60889  0.080799786  0.084413215            2 
  277000    1.2188318   -3.6011502    268.35213  0.080731687  0.084397678            2 
  278000    1.2291475    -3.630522    269.25482  0.080711878  0.084380542            1 
  279000    1.2072362   -3.6235062    269.82505  0.080592907  0.084362417            1 
  280000    1.2074145   -3.6217835    270.15585  0.080403526   0.08434604            2 
  281000    1.1992403   -3.6391511     271.7483  0.080589649  0.084329549            2 
  282000    1.1820359   -3.6415465    272.67665  0.080578206  0.084313081            3 
  283000    1.1966794   -3.6004428    275.90943  0.081245416  0.084299135            2 
  284000    1.2097206    -3.634786    274.62469  0.080582361  0.084284522            5 
  285000    1.2124903   -3.6285246    275.87648  0.080665636  0.084266913            1 
  286000    1.2037099   -3.6481775    277.53169  0.080865878  0.084252179            3 
  287000    1.2186097   -3.6211136    277.70735  0.080635119  0.084235656            1 
  288000    1.1759861   -3.6476932    278.49403  0.080582764  0.084220578            1 
  289000    1.2176375   -3.6650525    280.20125  0.080796208  0.084203736            1 
  290000    1.1930037    -3.634553    281.36038  0.080850684   0.08418973            3 
  291000      1.20085   -3.6308383    281.82061  0.080704643  0.084177511            2 
  292000    1.1878894   -3.6247283      284.209  0.081109875   0.08416432            1 
  293000    1.2008526   -3.6638079    282.50524  0.080348476  0.084151885            3 
  294000    1.1897112   -3.6490201       285.16  0.080827664  0.084137293            1 
  295000    1.2009598   -3.6328955    285.77848  0.080728383  0.084123619            1 
  296000    1.2236226   -3.6233537    286.94122     0.080783  0.084109256            2 
  297000    1.2131095   -3.6645833     287.1339  0.080565068   0.08409316            1 
  298000    1.2067789   -3.6307455    288.53616  0.080686844  0.084079192            2 
  299000    1.1871003   -3.6471207    289.30971  0.080632584  0.084065561            2 
  300000    1.1860923   -3.6260329    291.49254  0.080970151   0.08405436            2 
  301000    1.2142559   -3.6343959    292.92951  0.081098978  0.084043969            2 
  302000    1.1912824   -3.6456603    294.03718  0.081136086  0.084037452            1 
  303000    1.2351399   -3.6196149    296.21765     0.081468   0.08403377            1 
  304000    1.2132501   -3.6249086    295.57409    0.0810236  0.084025893            1 
  305000    1.2123507   -3.6398747    297.11738  0.081179611  0.084015783            2 
  306000    1.1978574   -3.6300677    297.25664  0.080952243  0.084006724            7 
  307000    1.1893491   -3.6735877    297.33446   0.08070968  0.083992997            6 
  308000    1.1766557   -3.6329604    298.36295  0.080725907  0.083980564            2 
  309000    1.2319363   -3.6465075    300.78327  0.081117386  0.083970086            2 
  310000    1.2039222   -3.6453175    301.24266  0.080979208  0.083961294            1 
  311000    1.1838524    -3.631879    302.27986  0.080996747  0.083949432            2 
  312000    1.2223901   -3.6540211    301.88776  0.080632415  0.083935694            1 
  313000    1.2057179   -3.6440565    304.33397  0.081026082  0.083923301            3 
  314000    1.1924804   -3.6212382    303.75869  0.080615364  0.083909359            1 
  315000    1.1883871    -3.625818    304.52933  0.080563315  0.083889686            3 
  316000    1.2023782   -3.6340763    306.22824  0.080756393   0.08387143            2 
  317000    1.2140126   -3.6502381    306.20707  0.080496074  0.083854409            1 
  318000     1.172884   -3.6367992    308.19928   0.08076501  0.083835976            3 
  319000    1.1860905   -3.6418375    307.65715  0.080370206  0.083817468            1 
  320000    1.2086319   -3.6297228    309.02705  0.080475795  0.083798398            3 
  321000    1.2016862   -3.6713509     308.7861   0.08016254  0.083779289            2 
  322000    1.1895544   -3.6509451    310.83593  0.080444082  0.083758429            3 
  323000     1.189944   -3.6842271    309.91548  0.079957554  0.083736656            2 
  324000    1.2105184   -3.6284962    313.11778  0.080534407  0.083713648            1 
  325000    1.2270139   -3.6563936    312.88216  0.080226194  0.083692298            4 
  326000     1.204455   -3.6696932    314.06306  0.080281967   0.08367309            3 
  327000     1.233183   -3.6860648    313.91393  0.079998453  0.083653344            1 
  328000    1.2199012   -3.6422609    316.70796  0.080464421  0.083634823            5 
  329000    1.2449028   -3.6417695    317.74855  0.080483421   0.08361785            1 
  330000    1.1817396   -3.6458321    317.92921  0.080285154  0.083600889            2 
  331000    1.2134627   -3.6453339    318.97599  0.080306141  0.083581672            2 
  332000    1.1916957   -3.6246271    321.55851  0.080712476  0.083563688            2 
  333000    1.2030272   -3.6375204     321.8006  0.080530681  0.083546394            3 
  334000    1.2063493   -3.6372234    323.13609  0.080622776  0.083528147            2 
  335000    1.1748403   -3.6517915    322.76498  0.080289796  0.083509811            2 
  336000    1.1741907   -3.6448009    324.76938  0.080547961  0.083491602            2 
  337000    1.2074623    -3.628165    325.74254   0.08054959  0.083472853            3 
  338000    1.2204811   -3.6546502      325.845  0.080336539  0.083456802            3 
  339000    1.2381661   -3.6161737    328.15802  0.080668146  0.083438566            2 
  340000    1.1763314   -3.6452883     328.4686  0.080507009  0.083420073            2 
  341000    1.1968508   -3.6382309    330.15617  0.080683326  0.083404903            4 
  342000    1.1988286   -3.6529452    331.16894  0.080694186  0.083390757            5 
  343000    1.1966597   -3.6441034    332.77956  0.080850234  0.083380435            2 
  344000    1.1984183   -3.6490765     332.8975  0.080643775  0.083367066            2 
  345000    1.1901862   -3.6335099    331.92822  0.080175899  0.083350136            1 
  346000    1.2118349   -3.6246443    334.42754  0.080546131  0.083335121            4 
  347000     1.197314   -3.6611443    333.91736  0.080191488  0.083320612           10 
  348000    1.2002168   -3.6306716    336.09816  0.080483276  0.083302532            1 
  349000    1.2111652   -3.6473314    337.33429  0.080547825  0.083284368            1 
  350000    1.1974158   -3.6511862    337.00112  0.080238362  0.083266672            2 
  351000    1.1718763   -3.6417365    338.41882  0.080346348  0.083249798            4 
  352000    1.2058305   -3.6191309    339.21867  0.080307449  0.083231593            2 
  353000    1.2150865    -3.664415    340.04579  0.080275209  0.083214628            2 
  354000    1.1840377   -3.6367637    339.70326  0.079967811  0.083197484            3 
  355000    1.2072512   -3.6373627    341.40317  0.080141589  0.083179066            2 
  356000    1.2142093   -3.6708587    342.22186  0.080108113  0.083157571            2 
  357000    1.1988082    -3.627834    344.15121  0.080334083  0.083135972            1 
  358000    1.1976312   -3.6108772    343.88988  0.080048855  0.083116153            2 
  359000    1.1972055   -3.6483536    343.40723  0.079713843  0.083094859            2 
  360000    1.1903811   -3.6484866    345.05046  0.079872792  0.083072696            2 
  361000    1.2133942   -3.6466626    345.50938  0.079757473  0.083046947            2 
  362000    1.2062539   -3.6347378    347.07298  0.079897095  0.083025531            2 
  363000    1.1893468   -3.6611459    349.59688  0.080256401  0.083003395            1 
  364000    1.1986699   -3.6395179    350.23495  0.080181993  0.082983815            2 
  365000    1.1886058   -3.6485727    349.84801  0.079873974  0.082961851            4 
  366000    1.1961597   -3.6558437    350.44574  0.079791835  0.082939337            4 
  367000    1.1915253   -3.6487025    351.47656  0.079808483  0.082918804            3 
  368000    1.2031071   -3.6232793    353.07657  0.079953934  0.082898874            2 
  369000    1.2089721   -3.6524063    355.51667  0.080288317  0.082879143            1 
  370000    1.2028136   -3.6437752    355.21063  0.080002394  0.082860281            3 
  371000    1.1810088   -3.6764136    357.30498  0.080257183  0.082844905            5 
  372000    1.1757799   -3.6595446    356.37732  0.079833629  0.082828288            1 
  373000    1.1853326   -3.6563336    360.32437  0.080501424  0.082814071            2 
  374000    1.1727757   -3.6778251    360.37125  0.080296624  0.082800196            2 
  375000    1.1814154   -3.6608786     361.4509  0.080322422  0.082784639            3 
  376000    1.2015454    -3.638511    361.79695  0.080185495  0.082766939            1 
  377000    1.1878559   -3.6762073    363.37514  0.080321649  0.082748646            2 
  378000    1.1842464   -3.6500809    362.72256  0.079965291  0.082732197            3 
  379000    1.1659425   -3.6428313    363.07284  0.079831319  0.082716196            2 
  380000    1.1847792    -3.679357    363.27624  0.079665843  0.082697959            2 
  381000    1.2127769   -3.6914713    366.14566  0.080084352  0.082678402            3 
  382000    1.2136922   -3.6571018    365.99476  0.079841788  0.082658787            1 
  383000    1.2023225   -3.6496151      365.989  0.079632072  0.082637721            4 
  384000    1.1829504   -3.6615913    366.48625  0.079532606  0.082615671            4 
  385000      1.17215   -3.6381523    368.19529   0.07969595   0.08259578            1 
  386000    1.1899108   -3.6549314    368.15093  0.079479907  0.082575423            2 
  387000    1.1955072   -3.6423246    370.46046  0.079771846  0.082553243            3 
  388000    1.2084036   -3.6126437    371.66181  0.079824271  0.082532282            3 
  389000    1.1998894   -3.6354217    371.58619  0.079602867  0.082515662            1 
  390000    1.1871541   -3.6628653    373.18707  0.079740827  0.082495616            2 
  391000    1.1867242   -3.6173985    375.97101  0.080130223  0.082477772            3 
  392000    1.1893849    -3.639821    375.11572  0.079743988  0.082461021            3 
  393000    1.1828419   -3.6670449    376.66531  0.079869659  0.082446963            1 
  394000     1.206813   -3.6189579    381.50593  0.080690763  0.082435301            3 
  395000    1.1986786   -3.6495498    379.83355   0.08013366  0.082423316            2 
  396000    1.1824277   -3.6861255    380.87316  0.080150076  0.082409661            1 
  397000    1.1733121   -3.6648256     382.4131  0.080271432   0.08240007            3 
  398000    1.1883395    -3.646077    383.26216   0.08024752  0.082391318            1 
  399000     1.200157   -3.6610007    384.54884   0.08031513  0.082381738            2 
  400000     1.173325   -3.6743655     385.4879  0.080309979  0.082372198            1 
  401000    1.1908646   -3.6637863    386.88292   0.08039961  0.082362522            7 
  402000    1.1882533   -3.6374232    387.23512   0.08027262  0.082353207            5 
  403000    1.2046192    -3.647572    390.90005  0.080831275  0.082347568            2 
  404000    1.1964465   -3.6681455    389.67054  0.080377587  0.082342553            2 
  405000    1.2078167   -3.6641976    391.00288  0.080453267  0.082335442            2 
  406000    1.1927467    -3.685787    391.28084   0.08031216  0.082329898            3 
  407000    1.1605951   -3.6661866    393.17464  0.080502588  0.082324154            2 
  408000    1.1996383   -3.6740599     393.5502  0.080381986  0.082316816            1 
  409000    1.2165261   -3.6618339    394.99352  0.080479528  0.082310464            2 
  410000    1.2190056   -3.6724387    394.81194  0.080246329  0.082304641            3 
  411000    1.1814504   -3.6728787    398.41902  0.080782446  0.082299267            3 
  412000    1.1688001   -3.6800369    399.01495  0.080706907  0.082294532            1 
  413000     1.185782   -3.6581376    399.61063  0.080631685  0.082290176            1 
  414000    1.1883328   -3.6496471     400.4144  0.080598713  0.082285387            2 
  415000    1.1894353   -3.6345106    400.14796  0.080350995  0.082280935            2 
  416000    1.1784892   -3.6508799    401.15311  0.080359196    0.0822735            1 
  417000    1.1711901   -3.6427377    403.60342  0.080656158  0.082267342            3 
  418000    1.1667362   -3.6862465    403.01009  0.080344915  0.082259297            3 
  419000    1.1719473   -3.6448669    404.22222  0.080394235  0.082252629            2 
  420000    1.1621091   -3.6653931    406.24619  0.080604404  0.082245922            1 
  421000    1.1773642   -3.6644266    406.32429  0.080428403  0.082239379            2 
  422000    1.2039671   -3.6541895    407.78074  0.080525422  0.082232094            3 
  423000    1.1666311   -3.6490109     408.4739  0.080471612  0.082225632            1 
  424000    1.1847429    -3.669727    411.37265  0.080851543  0.082218786            1 
  425000    1.1948097   -3.6428702    411.28118  0.080643369  0.082213038            3 
  426000    1.1867091   -3.6757132    413.17809  0.080825135  0.082205771            1 
  427000    1.1742387   -3.6717303    412.34492  0.080473247  0.082200476            2 
  428000    1.1535871   -3.5876807    414.70457  0.080744659  0.082194655            2 
  429000    1.1810311   -3.6648133    413.96517  0.080412815  0.082190518            1 
  430000     1.172811   -3.6629785    414.44806  0.080319391  0.082184402            2 
  431000    1.1885615    -3.685657    415.61391  0.080358452  0.082180665            1 
  432000    1.1912403    -3.673934     415.7109  0.080191145  0.082176093            1 
  433000    1.1906976   -3.7019428     416.6479  0.080186278  0.082168917            1 
  434000    1.1895691   -3.6669569    419.16712  0.080485239     0.082161            2 
  435000    1.2047805   -3.6677874    419.38374  0.080341713  0.082154047            2 
  436000      1.17436   -3.6990627    420.01861  0.080278787  0.082145788            1 
  437000    1.2181083   -3.6488295    421.65137  0.080406441  0.082136887            2 
  438000    1.2118402   -3.7048383    420.45374  0.079995003  0.082128433            2 
  439000    1.1873605   -3.6755325    424.43646  0.080568804  0.082118499            2 
  440000    1.1790145   -3.6470642    424.81913  0.080458168  0.082110296            2 
  441000     1.221098   -3.6263494    423.64132   0.08005316  0.082099561            3 
  442000    1.1825639   -3.6995356    424.09926  0.079958382  0.082090268            1 
  443000    1.1880608   -3.6368219    429.08465  0.080715698  0.082080531            4 
  444000    1.1865074   -3.6752152    427.30645   0.08020016  0.082071643            5 
  445000    1.1835657   -3.6487093    430.37479   0.08059453  0.082065497            2 
  446000    1.1701351   -3.6355744      431.271  0.080581279  0.082056713            3 
  447000    1.1490524    -3.676348    428.84405  0.079948555   0.08204779            4 
  448000    1.2009491   -3.6900781    430.31158  0.080043077  0.082038919            2 
  449000    1.1850047   -3.6838728    431.37012   0.08006127  0.082028698            2 
  450000    1.1678674   -3.6419561    432.31335  0.080058027  0.082018179            2 
  451000    1.1794424   -3.6246843    435.03094  0.080382657  0.082007704            2 
  452000    1.1650491   -3.7023365    434.10544  0.080034189  0.081998184            2 
  453000      1.19244   -3.6409607    435.63728  0.080139308  0.081988793            2 
  454000    1.1729342   -3.6840114    436.17992  0.080062394  0.081979978            2 
  455000    1.1858859   -3.6650968    438.75361  0.080357803  0.081970882            2 
  456000    1.1734882   -3.6860924    438.66976  0.080166258  0.081962288            2 
  457000    1.1863264    -3.688319    439.71834  0.080182046  0.081954294            3 
  458000    1.1647428   -3.6713109    441.12257  0.080262476  0.081946231            3 
  459000    1.1844004   -3.6494609    441.33946  0.080126989   0.08193826            1 
  460000     1.180981   -3.6725278    441.39402  0.079962685  0.081929123            1 
  461000    1.1846892   -3.6786303     441.8549  0.079872541  0.081919993            2 
  462000    1.1860916   -3.6903666    444.15316  0.080114207  0.081913245            1 
  463000    1.1677872   -3.6785169    445.29319  0.080146363  0.081906059            3 
  464000    1.1771344   -3.6955012    446.11716  0.080121616  0.081898352            2 
  465000    1.1546336   -3.6521799    447.59104  0.080213449  0.081892014            1 
  466000    1.1850453   -3.6812614    450.07191  0.080484963  0.081883845            1 
  467000     1.197702   -3.6946253    448.22759   0.07998351  0.081876102            2 
  468000    1.1695901   -3.6534524    450.15031   0.08015497  0.081867618            1 
  469000    1.1846381   -3.6832182    451.15037  0.080161757  0.081859262            4 
  470000    1.1791654    -3.684446    452.13953  0.080166583  0.081850754            1 
  471000    1.1875241   -3.6781906    453.37917  0.080215705  0.081842502            1 
  472000    1.1732733   -3.6410413    454.91043  0.080316107  0.081833827            2 
  473000    1.1673945   -3.6676062    455.36012  0.080225532  0.081825908            1 
  474000    1.1564016   -3.6556165    454.03641   0.07982356  0.081816232            5 
  475000    1.1462422   -3.6685371     455.6676  0.079941684  0.081808062            3 
  476000    1.1965862   -3.6358283    457.96554  0.080176041  0.081797664            2 
  477000    1.1862828   -3.6904748    457.91996  0.079999992   0.08178746            3 
  478000    1.1877203    -3.645693    458.58889  0.079949248  0.081777426            2 
  479000     1.165356   -3.6739511     458.6993  0.079801548  0.081764626            2 
  480000    1.1543665   -3.6861848    460.68495  0.079980027  0.081752048            3 
  481000    1.1618899   -3.6879659    459.45729  0.079601055  0.081740296            3 
  482000    1.1586705   -3.7199064    459.25057  0.079400168  0.081728454            2 
  483000    1.1714441   -3.6659457    466.48128  0.080483313  0.081716989            3 
  484000    1.1527003   -3.7036531    461.08232  0.079387451  0.081705755            3 
  485000    1.1742564   -3.6487732    464.72255  0.079849235  0.081693926            1 
  486000    1.1595433   -3.6939762     466.9404  0.080065226  0.081681547            2 
  487000    1.1737471   -3.6957272     466.3211   0.07979485  0.081669808            3 
  488000    1.1951315   -3.6850662    468.46822  0.079997989  0.081661159            2 
  489000    1.1782942   -3.6892077    469.23669  0.079965352   0.08165125            4 
  490000    1.1825213   -3.6842418    468.79816  0.079727578  0.081641217            1 
  491000    1.1606324   -3.7034644    471.39857  0.080006547  0.081631283            1 
  492000    1.1591083   -3.7011137    472.19314  0.079978512  0.081621385            4 
  493000    1.1838556   -3.6451874    473.42948  0.080025267  0.081611143            4 
  494000    1.1774033   -3.6760695    474.10685  0.079977539  0.081600435            3 
  495000    1.1667833    -3.684821      473.555  0.079723063  0.081589901            1 
  496000    1.1862742   -3.6177601    476.56024  0.080067245  0.081578366            2 
  497000    1.1731102   -3.6830375    475.19295  0.079676887  0.081565967            3 
  498000    1.1638572   -3.6704898    476.77373  0.079781414  0.081552326            2 
  499000    1.1656292   -3.6761604     477.1117  0.079677973  0.081540732            1 
  500000    1.1759174   -3.6792496    479.56572  0.079927621  0.081528688            1 
  501000    1.1816689   -3.6561239    480.00176  0.079840612  0.081516791            2 
  502000    1.1682725   -3.7062798    480.23831  0.079720835  0.081505737            4 
  503000    1.1743035   -3.6713052    481.40314  0.079755325  0.081494288            2 
  504000    1.1736711   -3.6990881    485.19531  0.080224093  0.081484217            6 
  505000    1.1584986   -3.7248235    482.21897  0.079574088   0.08147351            1 
  506000    1.1675644    -3.692374    482.85693  0.079521892  0.081461247            1 
  507000     1.155484    -3.675992    484.50315  0.079635626  0.081449501            3 
  508000    1.1635354   -3.6759462    482.24574  0.079108552   0.08143678            3 
  509000     1.177942   -3.6474095    489.40941  0.080125968  0.081425552            4 
  510000    1.1575542   -3.6993005    486.34163  0.079467587   0.08141402            5 
  511000    1.1744609    -3.668336     488.8904  0.079727724  0.081402347            2 
  512000    1.1643584   -3.6825123    489.18585  0.079620093  0.081391391            1 
  513000    1.1605849    -3.695683     490.8365  0.079733025  0.081379035            4 
  514000    1.1877028   -3.6753197    489.50331  0.079361756  0.081368166            1 
  515000    1.1702601   -3.6878526    492.82016  0.079744363  0.081355358            2 
  516000    1.1673838   -3.6732252     490.8075  0.079264778  0.081343338            2 
  517000    1.1451081   -3.6930677    492.36251  0.079362106   0.08133139            2 
  518000    1.1712274   -3.6981082     494.5717  0.079564301   0.08132025            2 
  519000    1.1863093   -3.6753899    497.04474  0.079808083  0.081307511            1 
  520000    1.1770671   -3.6924082    495.15191  0.079351267  0.081295481            2 
  521000    1.1593464   -3.6758142    499.22614  0.079850631  0.081282085            2 
  522000    1.1554821   -3.6944842    497.72452  0.079457938  0.081268375            1 
  523000    1.1679345   -3.6939839    498.67591  0.079457601   0.08125701            2 
  524000    1.1660553   -3.6557919    500.30665  0.079565307  0.081245688            3 
  525000    1.1894636   -3.6553112    499.56163  0.079295496  0.081233797            4 
  526000    1.1905794   -3.7277597    499.37323  0.079114897  0.081220391            1 
  527000    1.1583332   -3.6872234    502.79092  0.079505206  0.081206713            1 
  528000    1.1984202   -3.6888154    500.76417  0.079034749  0.081192834            2 
  529000    1.1812072   -3.6880374    504.07091  0.079406255   0.08117824            6 
  530000    1.1506436   -3.6677257    504.25783  0.079285822   0.08116361            3 
  531000    1.1811458   -3.6961756     504.8094  0.079223069  0.081148918            1 
  532000    1.1885255   -3.6893233    505.79871  0.079229121  0.081135658            4 
  533000    1.1771356   -3.6716834    509.39891  0.079643356  0.081123153            2 
  534000    1.1905125   -3.6802159     511.9102  0.079886111   0.08111012            2 
  535000    1.1681215   -3.6796225    510.86587  0.079574124   0.08109923            2 
  536000    1.1893993    -3.691443    510.08331  0.079303998  0.081089311            3 
  537000    1.1780939   -3.6714983    511.75001  0.079414961  0.081077055            2 
  538000    1.1618218    -3.691229    511.28858  0.079195876  0.081067069            1 
  539000    1.1776108   -3.6749346    514.56915  0.079556146  0.081055554            3 
  540000    1.1706336   -3.6801016    515.60061  0.079567995  0.081044801            1 
  541000    1.1801703   -3.6713022    517.46706  0.079708419  0.081033432            2 
  542000    1.1358846    -3.653945    517.23587  0.079525811  0.081023608            3 
  543000    1.1649791    -3.659331    520.29951  0.079849526  0.081014328            5 
  544000    1.1437032   -3.6747986    518.86776  0.079483419  0.081005052            1 
  545000    1.1533216   -3.6683479    518.46287  0.079275668  0.080994942            2 
  546000    1.2019541   -3.6853918     519.1171  0.079230327  0.080983886            1 
  547000    1.1607948   -3.6906746    521.53647  0.079454064  0.080972135            2 
  548000    1.1895521   -3.6790614    522.26602  0.079420015  0.080960479            2 
  549000    1.1664522   -3.6894558    522.62816  0.079330321  0.080948898            1 
  550000      1.17207   -3.6768798    521.88745  0.079073856   0.08093591            2 
  551000    1.1575232   -3.6853094    524.16327  0.079274541  0.080924316            6 
  552000    1.1732949   -3.6687883    524.16013  0.079130454  0.080912242            5 
  553000    1.1554965   -3.6404168    525.29067  0.079157727  0.080900597            3 
  554000    1.1521457   -3.7156466    527.20797  0.079303244  0.080889701            2 
  555000    1.1463694    -3.729608    525.01901  0.078831684  0.080878676            1 
  556000     1.157051   -3.7147999    527.63601  0.079082136  0.080867783            2 
  557000    1.1691331   -3.6883758    531.34874  0.079495622  0.080858022            2 
  558000    1.1501223   -3.7044372    529.55667  0.079085524   0.08084767            1 
  559000    1.1883196   -3.7187425    533.28104  0.079499261   0.08083504            4 
  560000    1.1622934   -3.7194307     531.5164  0.079094703  0.080823429            2 
  561000    1.1503308   -3.6985289    536.07508   0.07963088  0.080812738            3 
  562000    1.1385793   -3.6927186    534.24934  0.079218466  0.080801567            2 
  563000    1.1536704   -3.7271306    534.63769  0.079135241  0.080790778            1 
  564000    1.1413312   -3.6867585    534.29152  0.078943783  0.080777983            1 
  565000    1.1571169   -3.6821905    536.27201  0.079096167  0.080767013            2 
  566000    1.1935516   -3.7433967    538.09136  0.079224287  0.080754712            1 
  567000    1.1372378   -3.7172585     537.2813  0.078965505  0.080741374            2 
  568000    1.1925332   -3.6912666    537.82374  0.078906064  0.080728513            2 
  569000    1.1728767   -3.7211144    536.90473  0.078632795  0.080714933            3 
  570000    1.1479986   -3.6776637    540.12081   0.07896503  0.080700875            1 
  571000     1.154093   -3.6889719    538.65255  0.078612456  0.080687067            3 
  572000    1.1588135   -3.7303448    537.44883  0.078299654  0.080672347            2 
  573000    1.1694877   -3.7420009    539.60004  0.078475864  0.080656336            2 
  574000    1.1646623   -3.6884769    542.87972  0.078815291  0.080640895            2 
  575000    1.1493556   -3.7029248    541.91071  0.078537783  0.080626122            2 
  576000    1.1655353   -3.6683279    545.48736  0.078918888  0.080613448            1 
  577000    1.1566756   -3.7118282    544.43722  0.078630448  0.080600449            1 
  578000    1.1614634   -3.7327998    544.41586  0.078491329  0.080585309            2 
  579000    1.1539116   -3.6914202    546.06863  0.078593642  0.080570934            3 
  580000    1.1624011   -3.6853667    547.94511  0.078727746  0.080555779            2 
  581000    1.1653435   -3.6901405    550.35251  0.078937537  0.080542126            1 
  582000     1.170509   -3.6900199    551.30811  0.078938732  0.080528017            1 
  583000    1.1895902   -3.7099863    549.41437  0.078532643  0.080511433            4 
  584000    1.1718876   -3.7106129    550.48361  0.078550743   0.08049512            2 
  585000    1.1436522   -3.7266899    548.97677  0.078201819  0.080477874            2 
  586000    1.1426094   -3.6974385    550.72549  0.078317049  0.080461138            4 
  587000    1.1342439   -3.7235184    550.35655  0.078131254  0.080443644            2 
  588000    1.1461616   -3.6803094    554.26374  0.078552117  0.080427268            4 
  589000    1.1829725   -3.6768881     555.9588  0.078658573    0.0804106            2 
  590000    1.1851972    -3.702479    554.41673  0.078307447  0.080395408            1 
  591000     1.150391   -3.7189226     554.8219  0.078232078  0.080379917            1 
  592000    1.1470471   -3.6979516    559.58753  0.078770768  0.080365306            2 
  593000    1.1519891   -3.7256139    558.09897  0.078428747  0.080350058            1 
  594000    1.1462072   -3.6887434    559.90345  0.078549866  0.080334121            4 
  595000    1.1312935   -3.6728573    559.83662   0.07840849  0.080319609            2 
  596000    1.1599036   -3.7032494    562.13242  0.078597933  0.080305446            2 
  597000    1.1772415   -3.6875702     562.8671   0.07856883   0.08029238            4 
  598000    1.1586244    -3.708706    560.25665  0.078073669   0.08027776            2 
  599000    1.1678501    -3.705346    564.31956  0.078508564   0.08026259            2 
  600000    1.1539652   -3.7186118    562.70793  0.078153879  0.080248758            4 
  601000    1.1379329   -3.7152365    566.55827  0.078557719  0.080234156            2 
  602000    1.1582911    -3.706989    566.60232  0.078433323  0.080218954            1 
  603000      1.16114   -3.7147448    564.85429  0.078061676   0.08020244            1 
  604000    1.1432427   -3.7283832    568.10193  0.078380509  0.080185399            1 
  605000    1.1711028   -3.7140925    569.45351  0.078437123  0.080169903            1 
  606000    1.1553141   -3.6709463    572.71022   0.07875553  0.080155337            2 
  607000    1.1559202   -3.6833118    573.76181  0.078770154  0.080141538            1 
  608000    1.1439965    -3.674618    573.05696  0.078543991  0.080128373            4 
  609000    1.1544127   -3.7131595    573.00035  0.078407273  0.080115683            4 
  610000    1.1389174   -3.7312318    573.78308  0.078385667  0.080101428            4 
  611000    1.1720679   -3.7080269    576.64332   0.07864748  0.080088333            1 
  612000     1.146462   -3.6831751    577.94346  0.078696005  0.080076378            2 
  613000    1.1604159   -3.7137063    576.37565  0.078354493  0.080063019            2 
  614000    1.1691332   -3.7171207    576.02068  0.078178702  0.080050049            1 
  615000    1.1270994   -3.7100894    577.49794  0.078251754  0.080036116            3 
  616000    1.1670248   -3.7035256    580.31966  0.078506447  0.080022579            2 
  617000    1.1390784   -3.7179018    579.90366  0.078323023  0.080010178            1 
  618000    1.1633403   -3.7295422    582.40251  0.078533241  0.079998477       -1e+20 
  619000    1.1336901   -3.7110815    582.04072  0.078357662  0.079985601            4 
  620000     1.173234   -3.7048391    585.13909  0.078647727  0.079972619            1 
  621000    1.1519139   -3.7268734    583.09665     0.078247   0.07995971            2 
  622000    1.1633802   -3.6945916    586.41022  0.078565141  0.079946516            6 
  623000    1.1428286   -3.6850265    586.88659  0.078502755  0.079934041            2 
  624000    1.1183565   -3.7387779    584.91086  0.078113096  0.079921523            1 
  625000    1.1508606   -3.7184936    590.10745  0.078680993  0.079908825            2 
  626000    1.1714105   -3.7036743    591.46369  0.078735848  0.079896127            1 
  627000    1.1625072    -3.686273      590.506  0.078482988  0.079885061            6 
  628000    1.1666917   -3.7309918    590.01403  0.078292732  0.079871351            3 
  629000    1.1622885   -3.7244594    594.02674  0.078699886  0.079860012            4 
  630000    1.1505031   -3.7282687    591.91716  0.078295921  0.079846483            2 
  631000    1.1758547   -3.7060056    591.24342   0.07808286  0.079833411            2 
  632000    1.1528549   -3.7484731    591.89774  0.078045587  0.079819798            1 
  633000    1.1493306   -3.7316481    594.50748  0.078265861  0.079806872            3 
  634000    1.1609675   -3.7311151    597.26528    0.0785049  0.079792777            1 
  635000    1.1533427   -3.6995411    598.15691  0.078498282  0.079781075            1 
  636000     1.162898   -3.7242114    599.19757  0.078511212   0.07976894            2 
  637000    1.1634094   -3.7293854    599.02544  0.078365442  0.079756957            4 
  638000    1.1570737    -3.732159    600.62538  0.078451591  0.079744818            2 
  639000    1.1431034   -3.7288249    601.06504  0.078386156   0.07973404            5 
  640000    1.1463853   -3.7091941    603.42746  0.078571284  0.079722259            2 
  641000    1.1612324   -3.7084119    602.90077  0.078380236  0.079710623            1 
  642000    1.1384244   -3.7117149    603.83338  0.078379204  0.079698895            1 
  643000    1.1574326   -3.7623117    603.20097  0.078175346   0.07968748            1 
  644000    1.1564643   -3.7177985    605.27292  0.078322065  0.079675179            2 
  645000    1.1248309   -3.7331542     604.5759  0.078110581   0.07966172            1 
  646000    1.1325126   -3.6992852    604.07219  0.077924689  0.079646499            1 
  647000    1.1618279   -3.6921243    606.43504  0.078108583  0.079631885            2 
  648000    1.1390537   -3.7090059    606.36963  0.077979633  0.079616474            2 
  649000    1.1191227   -3.6999258    609.09947  0.078209999  0.079600966            2 
  650000    1.1496699   -3.7069032    608.83394  0.078055633  0.079587558            2 
  651000    1.1453681   -3.7456021    607.71126   0.07779202  0.079572454            3 
  652000    1.1711453   -3.7180466    610.00355  0.077965689  0.079557972            2 
  653000    1.1377499   -3.7099645    610.95348  0.077967519  0.079543482            6 
  654000    1.1533117   -3.6703797    612.03847  0.077986553  0.079530082            1 
  655000    1.1372122   -3.7195174    614.93462  0.078235956  0.079516803            4 
  656000    1.1599236   -3.7033845    617.92567  0.078496655  0.079503892            6 
  657000    1.1374457    -3.733998    614.61319  0.077957025  0.079490317            2 
  658000    1.1714126   -3.7243701    617.12315  0.078156427  0.079477443            4 
  659000    1.1519438   -3.7330126    619.01229  0.078276719  0.079464754            2 
  660000    1.1391827   -3.7159943    620.19456  0.078307393  0.079452501            2 
  661000    1.1354379   -3.7038541     618.7206  0.078003102  0.079439068            1 
  662000    1.1492401   -3.7529409    617.41875  0.077721394  0.079425152            3 
  663000    1.1421235   -3.6886195    619.33052  0.077844459  0.079411484            1 
  664000    1.1559903   -3.7146747    618.25424  0.077592148  0.079396556            3 
  665000    1.1388537   -3.7376361    619.86809  0.077677706  0.079382455            3 
  666000    1.1252469   -3.7338861    620.46446  0.077635693  0.079368516            1 
  667000    1.1455724   -3.7103637    622.33438  0.077752921  0.079354147            2 
  668000    1.1610379   -3.6838188    623.52726  0.077785336   0.07933871            2 
  669000    1.1416955    -3.700598    627.33971   0.07814396  0.079324251            2 
  670000     1.144336   -3.7387073    624.19648  0.077636379  0.079310238            7 
  671000     1.117974   -3.7263587     628.3653  0.078038413  0.079296097            1 
  672000    1.1339068   -3.7100612    627.59994  0.077827373  0.079283647            1 
  673000    1.1400429   -3.7652805    627.10015  0.077649845    0.0792698            1 
  674000    1.1725882   -3.7366625     630.5381  0.077959706  0.079256393            4 
  675000    1.1560428   -3.7064944    631.11628  0.077915589  0.079242682            3 
  676000    1.1750888   -3.7161136    630.13017  0.077678769  0.079229532            2 
  677000    1.1486356    -3.728055    630.87287   0.07765545  0.079215454            2 
  678000    1.1643727    -3.714015    631.80304  0.077655241  0.079201949            3 
  679000    1.1420301   -3.7226414    633.62029  0.077763903  0.079188902            3 
  680000    1.1235578   -3.7066427    634.23123  0.077724415  0.079174536            3 
  681000    1.1552092   -3.7226953    633.66078  0.077540478  0.079160146            1 
  682000    1.1459425   -3.7345731    633.61188  0.077420807  0.079146111            3 
  683000    1.1285202   -3.7332105    633.22186  0.077259866  0.079132531            2 
  684000    1.1423335   -3.7021117    638.62308  0.077804957  0.079118138            2 
  685000    1.1307907   -3.7223964    637.19988  0.077518233  0.079103163            2 
  686000    1.1336835   -3.7302397    640.02291  0.077748167   0.07908732            2 
  687000     1.127794   -3.7266358    637.91901  0.077379793  0.079072763            2 
  688000    1.1437699   -3.7260083    640.71307  0.077605749  0.079059262            4 
  689000    1.1614041   -3.6982578    642.31475  0.077686835  0.079045272            4 
  690000    1.1531702   -3.7695762    640.52405  0.077357977  0.079030896            2 
  691000     1.153881   -3.7157974    644.81981  0.077764087  0.079017478            1 
  692000    1.1374646   -3.7245375    645.62864  0.077749114  0.079003865            2 
  693000    1.1676847   -3.7416831    644.19754  0.077464832  0.078989962            3 
  694000    1.1289029   -3.7204798    642.14358  0.077106578  0.078976392            4 
  695000     1.131108   -3.7338874    645.75466  0.077428616  0.078963086            1 
  696000    1.1409207   -3.7189061    646.54964  0.077412552  0.078948975            1 
  697000    1.1502432   -3.7444695    647.73875  0.077443657  0.078935032            3 
  698000    1.1593365   -3.7021266    649.60089  0.077555025  0.078920553            2 
  699000    1.1442202   -3.7182279     648.0377  0.077257713  0.078907447            2 
  700000    1.1492921   -3.7439516    650.52628  0.077443605   0.07889322            1 
  701000    1.1470994   -3.7678132    650.46446   0.07732578  0.078879311            2 
  702000    1.1135492   -3.7253538    652.09096  0.077408709  0.078865458            2 
  703000      1.12784   -3.7429127    649.73881  0.077019773  0.078851634            1 
  704000    1.1268241   -3.7461983    653.09182  0.077307271  0.078838979            1 
  705000    1.1429811   -3.7383307    653.86698   0.07728924  0.078825155            2 
  706000    1.1655808   -3.6910832    658.15562   0.07768598  0.078812744            4 
  707000    1.1457803   -3.7116461    656.04478  0.077327296  0.078799489            2 
  708000    1.1332466   -3.7211533    657.11939  0.077344561  0.078784907            2 
  709000    1.1358151   -3.7216662    656.43928  0.077155534  0.078771882            2 
  710000    1.1241704   -3.7305597    659.42004  0.077396719  0.078759211            1 
  711000    1.1352877   -3.7366539    663.46596  0.077762068  0.078746365            3 
  712000     1.134834    -3.719592    663.05359  0.077604587  0.078733769            3 
  713000    1.1113158   -3.7229434    662.40227   0.07741962  0.078721789            4 
  714000     1.154025   -3.7149414    663.32299   0.07741865  0.078710015            2 
  715000    1.1509327   -3.6944976    667.26808  0.077770172   0.07869766            1 
  716000    1.1515462   -3.7257463    669.35407  0.077904338  0.078684905            2 
  717000    1.1460057   -3.7079522    663.57845  0.077124413  0.078671304            2 
  718000    1.1370109    -3.727548    667.23879  0.077441828  0.078657655            3 
  719000    1.1462073   -3.7168678    664.83534  0.077055556  0.078644019            1 
  720000    1.1296355   -3.7085221    665.32967  0.077005748  0.078629883            3 
  721000    1.1746907   -3.7348037    669.93092  0.077430758  0.078615379            3 
  722000    1.1540722   -3.7205185    668.89889  0.077204396  0.078600792            1 
  723000     1.124711   -3.7409724    665.74697  0.076734321  0.078584918            2 
  724000    1.1270232   -3.7349209     670.9626   0.07722866  0.078569605            2 
  725000    1.1387601   -3.7352729    669.86476   0.07699595  0.078553857            2 
  726000     1.159183   -3.7445301    670.36381  0.076947178  0.078537989            2 
  727000     1.142029    -3.720368    673.42488  0.077192215  0.078523145            2 
  728000    1.1416319   -3.7227813    671.27063  0.076839586  0.078507895            7 
  729000    1.1429432   -3.7256949    673.05442  0.076938091  0.078491981            6 
  730000    1.1403086    -3.716127    674.14848  0.076957588  0.078476401            3 
  731000    1.1309812   -3.7445462    673.78682  0.076811083  0.078462045            2 
  732000    1.1033615   -3.7313507    677.86468  0.077170387  0.078447359            3 
  733000     1.147627   -3.7431745    676.52664  0.076912987  0.078432105            1 
  734000    1.1491112   -3.7439196    676.84763  0.076844645  0.078417006            2 
  735000    1.1318462   -3.7189653    677.28321   0.07678948  0.078402595            3 
  736000    1.1405697   -3.7583769    676.43292  0.076588872  0.078386831            5 
  737000    1.1318329    -3.717505    681.47895  0.077055512  0.078371525            2 
  738000    1.1558013   -3.7224123    683.68691  0.077200419  0.078357513            1 
  739000    1.1478126   -3.7688034    683.36369  0.077059505  0.078344266            2 
  740000    1.1462473   -3.7340206    682.83666   0.07689602  0.078330514            3 
  741000    1.1141828   -3.7136185    687.36749  0.077301787  0.078317646            4 
  742000     1.136839   -3.7338048    685.17124  0.076950948  0.078304596            3 
  743000    1.1238398   -3.7286407    688.42145  0.077211917  0.078291606            3 
  744000    1.1398652   -3.7458329    686.79614  0.076926091  0.078278202            2 
  745000    1.1319996   -3.7748106    687.68499  0.076922258  0.078264841            2 
  746000    1.1310246   -3.7306431     687.8018  0.076832194  0.078250878            2 
  747000    1.1526132   -3.7283674    689.80916  0.076953275  0.078238985            2 
  748000    1.1438203   -3.7235618    690.87447  0.076969081  0.078225685            2 
  749000    1.1130352   -3.7535032    691.53289  0.076939574  0.078212747            3 
  750000    1.1264413   -3.7756404    691.51219  0.076834688  0.078199064            2 
  751000    1.1437796   -3.7202744    692.91904  0.076888486  0.078185129            2 
  752000    1.1097321   -3.7469349    690.99887  0.076573456  0.078170284            2 
  753000    1.1366886    -3.755518    690.98133  0.076469824  0.078154937            2 
  754000    1.1266247   -3.7693662    693.64394  0.076662681  0.078139254            3 
  755000    1.1167364   -3.7222248     695.4545  0.076760983  0.078124144            2 
  756000    1.1396591   -3.7441882    695.34277  0.076647131  0.078108975            1 
  757000    1.1305287   -3.7287673    694.83979  0.076490509  0.078093218            4 
  758000    1.1364226   -3.7467225    697.40762  0.076671901  0.078077605            2 
  759000    1.1137432   -3.7399583    699.22327  0.076770232  0.078063286            2 
  760000    1.1023358    -3.729049    699.38072  0.076686483  0.078048118            3 
  761000    1.1303953   -3.7282434    701.73607  0.076843634  0.078033029            2 
  762000    1.1005528   -3.7433495    702.17556  0.076790853  0.078018246            2 
  763000    1.1113121   -3.7575477    701.14195  0.076577321  0.078003351            2 
  764000    1.1350308   -3.7327962    704.98045  0.076895774     0.077988            3 
  765000     1.137597   -3.7184459    705.27677  0.076827535  0.077974418            3 
  766000    1.1320994   -3.7596408    705.84347  0.076788889  0.077960715            2 
  767000    1.1353744   -3.7338705    706.69359  0.076781138  0.077947257            4 
  768000    1.1230965   -3.7428215    706.58111  0.076668957  0.077933159            1 
  769000    1.1080816   -3.7203403    706.94272  0.076608444  0.077919775            2 
  770000     1.125832   -3.7242188    709.20535  0.076753825  0.077907398            4 
  771000    1.1162305   -3.7488435    711.90861  0.076946456  0.077895208            2 
  772000    1.1373329   -3.7642246    709.92854  0.076633046  0.077882302            2 
  773000    1.1247479   -3.7297069    712.99703  0.076864708  0.077869687            3 
  774000     1.130411   -3.7462005    710.32708  0.076477937  0.077857228            3 
  775000    1.1485067   -3.7448676    711.87961  0.076546195   0.07784393            2 
  776000    1.1242449   -3.7715217    712.58245  0.076523029  0.077831914            2 
  777000    1.1271767   -3.7412378    714.12456  0.076589935  0.077819162            2 
  778000    1.1275643   -3.7587336    713.20135  0.076392603  0.077806352            8 
  779000    1.1303494   -3.7525202    715.17403  0.076505566  0.077791562            2 
  780000    1.1124457   -3.7571845     716.4542  0.076544252  0.077778462            2 
  781000    1.1332995   -3.7776916    717.32925  0.076539613  0.077765312            1 
  782000     1.132227   -3.7259783    720.61629  0.076792017  0.077752587            1 
  783000    1.1267741   -3.7557371     718.8385  0.076504736  0.077740045            1 
  784000    1.1447263    -3.737852    719.29042  0.076455189  0.077727548            3 
  785000    1.1097897   -3.7445035    722.94111  0.076745341  0.077714835            2 
  786000    1.1323626   -3.7288909    721.25903  0.076469362  0.077701569            2 
  787000    1.1315532   -3.7629228     721.6915   0.07641799  0.077687973            5 
  788000    1.1365654   -3.7421263    725.63298  0.076737836  0.077674046            2 
  789000    1.1368209   -3.7280649    722.74343  0.076335385  0.077659397            2 
  790000    1.1324746   -3.7763372     725.0424  0.076481266  0.077645218            2 
  791000    1.1166377   -3.7701406    723.20778  0.076191295  0.077629973            2 
  792000    1.1339241   -3.7841985    721.51458  0.075916938  0.077615027            2 
  793000    1.1284123    -3.728367    729.61813  0.076672775  0.077600892            2 
  794000    1.1103516   -3.7475203    726.04566  0.076201266  0.077587023            4 
  795000    1.1529383   -3.7644042    729.08677   0.07642419  0.077572842            6 
  796000     1.105579   -3.7428884    727.71295  0.076184354  0.077558519            4 
  797000    1.1126857   -3.7217917    729.88075  0.076315428  0.077543425            2 
  798000    1.1087519   -3.7307807    729.37132  0.076166596  0.077529182            4 
  799000    1.1250813   -3.7469191    732.56008  0.076403847  0.077514845            2 
  800000    1.1327883   -3.7409881    733.46586  0.076402693  0.077501277            1 
  801000    1.1096646   -3.7050074    733.86487  0.076348821  0.077487801            3 
  802000    1.1347639   -3.7786557    732.36242  0.076097509  0.077473438            2 
  803000     1.106389   -3.7531687    736.04874  0.076385298  0.077458658            3 
  804000    1.1246712   -3.7579271    736.43168  0.076329983  0.077444281            3 
  805000    1.1169262   -3.7714761    733.24865  0.075905657  0.077429712            2 
  806000    1.1435666   -3.7579871    732.24478  0.075707691  0.077414968            3 
  807000    1.1127812   -3.7296128    737.25801  0.076131558  0.077401099            1 
  808000    1.1079852   -3.7623462    739.53931  0.076272619  0.077386596            4 
  809000    1.0994036   -3.7608798     739.5109  0.076175412   0.07737179            2 
  810000    1.1124896   -3.7766443    739.22005  0.076051446  0.077356289            2 
  811000    1.1467906   -3.7323749    743.63514  0.076411337  0.077341694            2 
  812000    1.1587877   -3.7339896    737.93133  0.075731869  0.077326923            2 
  813000    1.1093168    -3.760518    741.60445  0.076015216  0.077311663            3 
  814000    1.1270523   -3.7916181     740.3267  0.075791021  0.077296486            2 
  815000    1.1225064   -3.7576636    743.26368  0.075998332  0.077281294            2 
  816000    1.1142668   -3.7356376    742.93478  0.075871608  0.077266501            2 
  817000    1.1549616   -3.7922752    744.40284  0.075928482  0.077250987            2 
  818000    1.1246282    -3.759189    745.75767  0.075973682  0.077235381            1 
  819000    1.1058322   -3.7477544    745.00375  0.075804207  0.077219995            7 
  820000    1.1097065   -3.7646641    744.94396  0.075705687  0.077204701            2 
  821000    1.1061253   -3.7366804    749.10521  0.076035852  0.077189702            3 
  822000    1.1422425    -3.764347    747.68092  0.075798958  0.077174706            1 
  823000    1.1265531   -3.7905165    747.43376   0.07568183  0.077158951            2 
  824000        1.122   -3.7776738    750.33014  0.075882903  0.077143707            2 
  825000    1.1170333   -3.7654453    748.77055  0.075633389  0.077128948            5 
  826000    1.1262859    -3.743601    748.79094   0.07554388  0.077113344            1 
  827000    1.1292462   -3.7467223    752.18539  0.075794578  0.077097699            3 
  828000    1.1203778   -3.7683635    752.23314  0.075707844  0.077082309            2 
  829000    1.1130403    -3.772763    752.96635  0.075690224  0.077066906            4 
  830000    1.1472563   -3.7431005    751.71992  0.075473888  0.077050406            1 
  831000    1.1296318   -3.7606767    754.81704  0.075693646  0.077034814            3 
  832000    1.1303588   -3.7276311    754.61044  0.075581975   0.07701887            4 
  833000    1.0836436   -3.7860711      754.073  0.075437475  0.077003198            2 
  834000     1.098253   -3.7572645    754.68052  0.075407726  0.076986935            2 
  835000    1.1259692   -3.7671051     753.8298  0.075232515   0.07697058            2 
  836000    1.1354963   -3.7651365    757.49586   0.07550796  0.076954958            4 
  837000    1.1336124   -3.7705258    758.22914  0.075490754   0.07693965            2 
  838000    1.1254971   -3.7740822    756.40501  0.075219273  0.076923474            2 
  839000     1.116298   -3.7702606    758.81319  0.075368811  0.076906697            3 
  840000    1.1250956   -3.7491551    760.58014  0.075454379  0.076889825            6 
  841000     1.101329   -3.7335269    760.13474  0.075320525  0.076873794            1 
  842000    1.0933162   -3.7343599    762.19819  0.075435292  0.076856664            4 
  843000    1.1009757   -3.7382877    761.31421  0.075258423  0.076839359            4 
  844000    1.1333405    -3.792473    763.87374  0.075421972  0.076822864            1 
  845000    1.1318865   -3.7637601    760.51043  0.075001028  0.076805939            3 
  846000    1.1147858   -3.7449112    767.53911  0.075604719   0.07678999            3 
  847000    1.1338298   -3.7441822    767.79192  0.075540331  0.076773206            1 
  848000    1.1246794   -3.7654696    769.01729  0.075571668  0.076757484            4 
  849000    1.1050219    -3.770942     771.0566  0.075682823   0.07674124            1 
  850000    1.0944473   -3.7566825    768.62729  0.075355616  0.076725314            5 
  851000    1.1467664   -3.7010713    773.11819  0.075706834  0.076710041            2 
  852000     1.094108   -3.7506733    772.69845  0.075576922  0.076695493            2 
  853000    1.1248407   -3.7742318    771.31635  0.075353297  0.076680378            3 
  854000    1.1239257   -3.7800732     771.9122  0.075323204  0.076663847            2 
  855000    1.1016975   -3.7668291    774.67232  0.075504125  0.076648153            4 
  856000    1.1238383   -3.7743136    773.33344  0.075285576  0.076630916            2 
  857000    1.1180982   -3.7702213    772.21785   0.07508925  0.076614369            1 
  858000     1.115979   -3.7822095    774.57188  0.075230369  0.076597623            3 
  859000    1.0977179   -3.7431492    778.78169  0.075551192  0.076581364            3 
  860000    1.1427843   -3.7602721    774.40819  0.075039553  0.076564826            1 
  861000    1.1110783   -3.7533691    774.39387  0.074951014  0.076548558            2 
  862000    1.0971239   -3.7567626     778.5884  0.075269567  0.076532571            2 
  863000    1.1066342   -3.7459517    782.15234  0.075526491  0.076516033            3 
  864000    1.1138535   -3.7534986    777.27324  0.074968484   0.07650014            4 
  865000    1.1138895   -3.7240346    778.93342  0.075041755  0.076483923            1 
  866000    1.1111515   -3.7725691    778.22283  0.074886723  0.076467838            5 
  867000    1.1135685    -3.775743    778.62032  0.074838555  0.076451002            1 
  868000    1.1357797   -3.7662379    776.52181  0.074550865  0.076434362            2 
  869000    1.0987573   -3.7520871    777.68806  0.074576914  0.076416991            4 
  870000     1.099333   -3.7938163    780.84691  0.074793765  0.076399855            1 
  871000    1.1042554   -3.7911482    778.92014   0.07452355  0.076381881            2 
  872000    1.1335573    -3.755038    783.95769  0.074919504   0.07636425            3 
  873000    1.1515646   -3.7591158    783.11493  0.074753239  0.076346882            3 
  874000    1.1358935   -3.7615923     784.3743  0.074787786  0.076328603            2 
  875000    1.1137887   -3.8004129    780.94009  0.074375247  0.076309929            3 
  876000    1.1172352   -3.7448227    787.96932  0.074959029  0.076292493            2 
  877000    1.1625025   -3.7803558    789.43014  0.075012366  0.076274906            3 
  878000     1.098271   -3.7550769    789.92398  0.074973802  0.076257317            5 
  879000    1.1056188   -3.7705896     788.2047  0.074725512  0.076239718            2 
  880000      1.11825   -3.8029444    785.09582  0.074346195  0.076221316            1 
  881000    1.0935921   -3.7721886    789.57073  0.074685086  0.076204301            2 
  882000    1.1115779   -3.7863837    791.12337  0.074747106  0.076187872            2 
  883000    1.1082955   -3.7422581    794.42328  0.074973884  0.076171217            2 
  884000    1.1078067   -3.7736318    795.41762  0.074982808  0.076155607            1 
  885000    1.1159781   -3.7597045    794.89539  0.074848907  0.076138911            2 
  886000     1.103915   -3.7727967     794.3599  0.074714061  0.076121998            1 
  887000    1.1112169   -3.7863795    795.82645  0.074767611  0.076105559            3 
  888000    1.1196357   -3.7685088    798.60542  0.074944202  0.076088786            3 
  889000    1.1221166   -3.7747583    793.60795  0.074391446  0.076071999            3 
  890000    1.0990803   -3.7725756    795.39789  0.074475458  0.076054921            2 
  891000    1.1220122   -3.7582993    795.85666   0.07443478   0.07603741            1 
  892000    1.0844649   -3.7848318     795.1657  0.074286781  0.076020253            2 
  893000    1.0894184   -3.7274609    801.02819  0.074750671  0.076003371            1 
  894000    1.1033739   -3.7587538    800.29524  0.074598736  0.075986452            2 
  895000    1.1329057   -3.7956965    801.73609  0.074649543  0.075969791            3 
  896000    1.0967526     -3.80009    802.13846  0.074603651  0.075953486            1 
  897000    1.1093449   -3.7629077    803.55255  0.074651854  0.075938076            5 
  898000    1.1046248   -3.7735276    801.30379   0.07436004  0.075922771            2 
  899000    1.0890537   -3.7666761    805.25042  0.074643161  0.075907386            5 
  900000      1.11006   -3.7590332    806.11292  0.074640085   0.07589172            4 
  901000    1.0700069   -3.7990196    805.54664  0.074504868  0.075875931            2 
  902000    1.0839847   -3.7763697    808.28402  0.074675169  0.075860176            2 
  903000    1.1240108   -3.7568157     813.2618  0.075051845  0.075845625            4 
  904000    1.1166541   -3.7483575     812.3568  0.074885398  0.075831184            5 
  905000    1.1160221   -3.7825036    809.79913  0.074567139  0.075816819            2 
  906000    1.0836732   -3.7382318    815.42072  0.075001906  0.075803147            2 
  907000    1.1021384   -3.8099673    812.70243  0.074669462  0.075789636            1 
  908000     1.109389   -3.7792422    815.48843  0.074842917  0.075775375            2 
  909000     1.105754   -3.7726364    813.26048  0.074556333  0.075761013            2 
  910000    1.1296683   -3.7570513    815.06707  0.074639842  0.075746365            3 
  911000    1.1185847   -3.7816785    815.93044  0.074636886  0.075731696            2 
  912000    1.1147838   -3.7888664    817.50383  0.074698815  0.075718054            1 
  913000    1.1075712   -3.7867382    818.04373  0.074666277  0.075704044            1 
  914000    1.1173871     -3.80953    817.94597  0.074575672  0.075689271            3 
  915000      1.12297   -3.7222321    817.99774  0.074498884  0.075674695            1 
  916000    1.0866974   -3.7496491    825.42618  0.075093357  0.075660306            2 
  917000    1.1184877   -3.7921689    822.64368  0.074758605  0.075646318            2 
  918000    1.1115973   -3.7795781    820.47029  0.074479874  0.075631458            3 
  919000    1.0752441   -3.7523721    821.71731  0.074511907  0.075616652            1 
  920000    1.0930744   -3.7791419    823.41311  0.074584521  0.075602251            2 
  921000    1.0844814   -3.7807455    826.63281  0.074794861  0.075587999            6 
  922000    1.0991673   -3.7806353     827.1591  0.074761307  0.075572945            2 
  923000    1.0965952   -3.7797823    830.21678  0.074956372  0.075558898            1 
  924000    1.1081092   -3.7940387    823.14925  0.074237848   0.07554532            3 
  925000    1.1236851   -3.7623081    827.02973  0.074507182  0.075531784            3 
  926000     1.106434   -3.7722708    830.77444  0.074763718  0.075518629            1 
  927000    1.1001949    -3.798673     833.1572  0.074897267  0.075506259            1 
  928000    1.1000449   -3.7421469    836.17873  0.075087889  0.075494361            2 
  929000    1.0754324   -3.7802336    834.18663  0.074828366  0.075483077            6 
  930000    1.0935201   -3.8000539    833.35606  0.074673482  0.075470235            3 
  931000    1.1012323   -3.8084297    835.82846  0.074814577  0.075457116            2 
  932000    1.1159224   -3.7823886     832.4965  0.074436383  0.075443616            6 
  933000    1.0831418   -3.7960728    834.37656  0.074524523  0.075431105            2 
  934000    1.1171959   -3.7801895    839.84795    0.0749329  0.075418179            3 
  935000    1.1119457   -3.7920812      835.795  0.074491533  0.075405627            2 
  936000    1.0889423   -3.7716441    838.22304  0.074628119  0.075393299            1 
  937000    1.0859862    -3.764886    841.10126  0.074804452  0.075381016            2 
  938000    1.1019115    -3.804976    836.01369  0.074272716  0.075367707            1 
  939000    1.1041553    -3.776511    840.98867  0.074635132   0.07535384            1 
  940000    1.0953322   -3.7828608    839.39517  0.074414465  0.075340276            1 
  941000    1.0987894   -3.7675633    839.88353  0.074378634  0.075325752            1 
  942000    1.1122879   -3.7749394     839.8136  0.074293489  0.075312344            2 
  943000    1.0967903   -3.7680129    842.01234  0.074409009  0.075297914            2 
  944000    1.1135086   -3.7662919    844.25117  0.074527822  0.075283653            3 
  945000    1.1053577   -3.7910253    844.72584  0.074490815  0.075269509            3 
  946000    1.0912439   -3.7805578    843.35476  0.074291293  0.075254982            3 
  947000    1.1104039   -3.7661348     845.2563  0.074380174   0.07523993            4 
  948000    1.0947407   -3.7696127    845.29855  0.074305428  0.075224917            3 
  949000    1.1185934   -3.7909145      841.796  0.073919564   0.07520997            4 
  950000     1.093872   -3.7795361    843.34581  0.073977703  0.075194832            3 
  951000    1.0900592   -3.7435109    847.06457  0.074225777  0.075180807            2 
  952000    1.1183076    -3.826404      843.124  0.073802871  0.075166786            2 
  953000    1.1170353   -3.7644469      849.319  0.074267139  0.075152045            1 
  954000    1.0638591   -3.7967082    848.32642  0.074102588  0.075136678            2 
  955000    1.0930921   -3.8100492    851.01934  0.074259977  0.075121391            2 
  956000    1.0885738   -3.7908312    852.85863  0.074342628  0.075107215            3 
  957000    1.0830427   -3.8022179    850.74557  0.074080945  0.075093426            2 
  958000    1.0945724   -3.7685121    851.64592  0.074081935  0.075079103            2 
  959000    1.0797977    -3.787231    855.49694  0.074339324   0.07506438            1 
  960000    1.1061902   -3.7763483    855.31176  0.074245812  0.075049907            1 
  961000    1.0719268   -3.7715751    850.25283  0.073729867  0.075034519            2 
  962000     1.096927   -3.7820276    854.37196  0.074010045  0.075019342            2 
  963000    1.0934091   -3.8045043    855.26531  0.074010498  0.075004464            2 
  964000    1.0867203   -3.7695412    857.85546   0.07415763  0.074989066            3 
  965000    1.0818318   -3.7747892    854.20915  0.073765902   0.07497383            4 
  966000     1.113691   -3.7797999    855.67763  0.073816221  0.074958561            2 
  967000    1.0809866   -3.7849162    856.61344  0.073820531   0.07494289            2 
  968000    1.0841305   -3.7838204    858.32809  0.073891881  0.074927144            3 
  969000     1.093273   -3.8043218    859.36393  0.073904707  0.074911621            2 
  970000    1.0964345   -3.7934394    858.82193  0.073781952  0.074896137            3 
  971000    1.0706651   -3.7955655     860.5069  0.073850575  0.074881377            3 
  972000    1.0846035   -3.7971879     859.6906  0.073704613  0.074865992            1 
  973000    1.0873259   -3.7834841    861.83996  0.073812947  0.074851094            2 
  974000    1.0941482   -3.7931425    862.80753  0.073819946  0.074835824            2 
  975000    1.1102253   -3.7936437    860.51872  0.073548609  0.074821077            4 
  976000    1.1021014   -3.7918118    864.53629  0.073816281  0.074806151            2 
  977000    1.1061145   -3.7713902    864.22645    0.0737143  0.074791051            1 
  978000    1.0877364   -3.7974193    860.86248   0.07335229  0.074775722            1 
  979000     1.079155    -3.799812     868.5019  0.073927639  0.074760897            1 
  980000    1.0869522   -3.8273826     865.9512  0.073635307  0.074746078            3 
  981000    1.0867072   -3.7774123    867.47134  0.073689376   0.07473109            2 
  982000    1.1018778   -3.7947138    868.64508  0.073713941  0.074716557            2 
  983000    1.0835888   -3.7743229    867.96386  0.073581202  0.074701268            2 
  984000    1.1151605   -3.8042196    869.13104  0.073605271  0.074686334            3 
  985000    1.0910621   -3.7745269    873.07027  0.073863813  0.074671415            4 
  986000    1.1063721   -3.7694167    868.24065  0.073380718  0.074656209            3 
  987000    1.0945839   -3.8020581    869.67368  0.073427362  0.074640984            2 
  988000    1.0708878   -3.8156683    871.20211  0.073481959  0.074624998            2 
  989000    1.0994856   -3.8069273    870.45979  0.073345112  0.074609823            3 
  990000    1.1004162   -3.7985823    870.53333  0.073277216  0.074594346            2 
  991000    1.1094877   -3.8055517    874.26607   0.07351716   0.07457902            1 
  992000    1.1068508   -3.7922285    873.20579  0.073353981  0.074563523            3 
  993000    1.0796499   -3.7898222    872.65069  0.073233525  0.074547923            3 
  994000    1.0989703   -3.8016859    876.18714  0.073456333  0.074531539            2 
  995000    1.1156272   -3.8113667    875.01512  0.073284348  0.074515876            3 
  996000    1.0921099   -3.7962072    878.52342  0.073504302  0.074500047            2 
  997000    1.1104332   -3.8060202     876.2605  0.073241432  0.074483853            2 
  998000    1.0922712   -3.8185306     878.8496  0.073384235  0.074468296            2 
  999000    1.1131662   -3.8084496    877.51518  0.073199464  0.074452457            3 
 1000000    1.1203701    -3.789682    877.36968   0.07311414   0.07443647            1 
 1001000    1.0804995   -3.8214679     880.7574  0.073323127  0.074420833            4 
 1002000    1.0661202   -3.8057737    880.52464  0.073230592  0.074405486            3 
 1003000    1.1197021   -3.8045959    881.51406  0.073239785   0.07439016            2 
 1004000    1.1031655   -3.8195799    885.11623  0.073465822  0.074374206            2 
 1005000     1.079488   -3.7910174    885.35925  0.073412873  0.074358645            1 
 1006000    1.1029784    -3.812208    885.64267  0.073363375  0.074343617            2 
 1007000    1.1097838   -3.7944177     883.7186  0.073131298  0.074328544            2 
 1008000    1.1175355   -3.7900806    888.08594  0.073419803  0.074314143            4 
 1009000    1.0665811   -3.7869546    886.27467  0.073197446  0.074299218            1 
 1010000    1.0811186   -3.7826915      887.493  0.073225495  0.074284065            3 
 1011000    1.0846127   -3.8024559    888.36526  0.073224964  0.074268582            4 
 1012000    1.1124666   -3.7620695    884.34573  0.072821618   0.07425204            2 
 1013000    1.0659351   -3.7848623    887.96814  0.073047724  0.074235966            3 
 1014000    1.1008845   -3.7569543    888.55364  0.073023803  0.074219254            3 
 1015000    1.0773097   -3.8117531    889.40188    0.0730215  0.074202663            3 
 1016000    1.0732581   -3.7849057    889.29906  0.072941196  0.074185565            3 
 1017000    1.1057729   -3.8080409    889.78434  0.072909238  0.074168761            4 
 1018000    1.0726894   -3.7980486    891.21874  0.072955038  0.074151805            4 
 1019000    1.0681522   -3.8033529    890.22576  0.072802237  0.074134996            6 
 1020000     1.073087   -3.8176922    891.04828  0.072798062  0.074118256            2 
 1021000    1.0866831   -3.8120152    890.54385   0.07268559  0.074101093            2 
 1022000    1.0946277   -3.8111151      893.654  0.072868069   0.07408419            3 
 1023000     1.081022   -3.7992141    892.38149  0.072693181  0.074068135            2 
 1024000    1.0872775   -3.8101075    892.54902  0.072635825  0.074051384            2 
 1025000    1.0873415   -3.8205396    892.31475  0.072545915  0.074034228            2 
 1026000    1.0849781   -3.8044624    898.43893  0.072972622  0.074016674            3 
 1027000    1.0888626   -3.7586306    899.08936  0.072954346  0.074000569            3 
 1028000    1.0628133   -3.8252343    897.90637  0.072787482  0.073984022            3 
 1029000    1.0653229   -3.8075814    897.54694  0.072687637   0.07396722            2 
 1030000    1.1008209   -3.8202071    897.30469  0.072597467  0.073950104            2 
 1031000    1.1067052   -3.8091896    900.80111  0.072809659  0.073933391            3 
 1032000    1.0807495   -3.7878058    900.85692  0.072743614  0.073917413            4 
 1033000    1.0889207   -3.8149372    896.88744  0.072352972  0.073901218            1 
 1034000    1.0873002   -3.7906471    902.21567  0.072712417  0.073884906            2 
 1035000    1.1187868   -3.8136383    900.35444  0.072492306  0.073868775            2 
 1036000    1.0961609   -3.7991337    901.60265  0.072522736  0.073852575            4 
 1037000    1.0795686   -3.8008717    905.08559  0.072732689  0.073836015            4 
 1038000    1.0951516   -3.7951983    905.42916  0.072690202  0.073819801            3 
 1039000    1.0816312   -3.7792574    910.74541  0.073046632  0.073804119            3 
 1040000    1.0756637   -3.7974057    902.99093  0.072355042  0.073788295            3 
 1041000    1.0854058   -3.7745429    903.08847  0.072293345  0.073771943            3 
 1042000    1.0870222    -3.796981    909.49768  0.072736539  0.073755651            2 
 1043000    1.0829117   -3.7989055    907.35705  0.072495769  0.073739357            2 
 1044000     1.075637   -3.7807348     904.7513  0.072218335  0.073722584            5 
 1045000    1.0813294   -3.7849739    910.94449  0.072643101  0.073705843            1 
 1046000    1.0785061   -3.7925768    908.80841  0.072403474  0.073689755            3 
 1047000    1.0776963   -3.8345674    908.14756  0.072281722   0.07367367            2 
 1048000    1.0847273   -3.8334397    909.13017  0.072290885  0.073657115            7 
 1049000    1.0852627   -3.8366601    911.49732  0.072410019  0.073640762            4 
 1050000     1.093226   -3.8146728    910.87959  0.072292031  0.073624447            3 
 1051000    1.0718922   -3.8270608    915.00745  0.072550543  0.073607792            1 
 1052000    1.0733546   -3.8077685    914.31578  0.072426789  0.073591205            4 
 1053000    1.0749246   -3.8050493     912.3238  0.072200364  0.073574902            3 
 1054000    1.1130874   -3.7834686    917.22317  0.072519226  0.073558704            1 
 1055000    1.0966417   -3.8053147    915.12293  0.072284592  0.073542456            2 
 1056000    1.0684728   -3.8337973    914.99408  0.072205972  0.073526268            3 
 1057000    1.0799503   -3.8055507    917.22753  0.072313744  0.073509515            3 
 1058000    1.0726427   -3.8066267    919.40274  0.072416725   0.07349332            2 
 1059000    1.0906447   -3.8078125    918.10779  0.072246443  0.073477444            1 
 1060000    1.0796487   -3.7939404    919.65705  0.072300082  0.073461614            2 
 1061000    1.0645866   -3.8242158    919.05323  0.072184514  0.073445481            2 
 1062000    1.0441816   -3.8105406    924.34584  0.072531846  0.073429114            2 
 1063000    1.0686301    -3.823496    922.82398  0.072344307  0.073412837            2 
 1064000     1.081989   -3.8039796    922.94024   0.07228542  0.073396541            2 
 1065000    1.0946113   -3.8376605    921.73164  0.072122976   0.07338019            2 
 1066000    1.0744051   -3.8264798    920.91943  0.071991826  0.073363436            2 
 1067000      1.07026   -3.7891924    923.98845  0.072164046  0.073347032            3 
 1068000    1.1110993   -3.8233149    921.11458  0.071872236  0.073329965            2 
 1069000    1.1106656   -3.8275014    923.15399  0.071963984  0.073312779            5 
 1070000    1.0999917   -3.7870405    931.33365  0.072533773  0.073296737            4 
 1071000    1.0677559   -3.8043837    927.99839  0.072206535  0.073280584            1 
 1072000    1.0757666   -3.8190807    927.35958  0.072089519  0.073264107            1 
 1073000    1.0862856   -3.8371644    928.24802  0.072091334   0.07324771            1 
 1074000    1.0938054   -3.8375183    928.96863  0.072080123  0.073231821            3 
 1075000    1.0771732    -3.819689    927.77441  0.071920497  0.073215269            2 
 1076000    1.0795395   -3.8395995    928.16514  0.071883917  0.073198736            2 
 1077000     1.094441   -3.8067898    928.45507  0.071839606  0.073182871            1 
 1078000    1.0501591   -3.8277398    928.91096  0.071808207  0.073166315            2 
 1079000    1.0648185   -3.8110949    931.79824  0.071964646  0.073149646            3 
 1080000    1.0950656   -3.8241756    928.90093  0.071674455  0.073132725            2 
 1081000    1.0648237   -3.8169634    937.07962  0.072238638  0.073115712            3 
 1082000    1.0951271   -3.8048654    934.05554  0.071938967  0.073098864            2 
 1083000    1.0652556   -3.8005164    936.22542  0.072039506  0.073081947            2 
 1084000    1.0823772   -3.8314341    938.23448  0.072127497  0.073065261            2 
 1085000    1.0890988   -3.8165222    937.19186  0.071980942  0.073048907            2 
 1086000    1.0794908   -3.8275213    934.34283  0.071696043  0.073032171            2 
 1087000    1.0972324   -3.8116792    939.37911  0.072016185  0.073015589            2 
 1088000     1.074362   -3.8017221    939.88267  0.071988563   0.07299854            1 
 1089000     1.112322   -3.8244464    938.31345  0.071802376  0.072982049            3 
 1090000    1.0733905   -3.8422543    937.97098   0.07171032  0.072965438            2 
 1091000    1.0874417   -3.7918695    937.21024  0.071586483  0.072948328            2 
 1092000    1.0498289   -3.8234743    938.92317  0.071651646  0.072931173            3 
 1093000    1.0614397     -3.82819    939.67487  0.071643403  0.072914716            2 
 1094000    1.0933531    -3.786678    939.70745  0.071580397  0.072897811            2 
 1095000    1.0829036   -3.7951173    942.01547  0.071690675  0.072881274            2 
 1096000     1.074558   -3.7643109    947.07923  0.072010282  0.072864764            3 
 1097000    1.0578151   -3.8348332     942.0841  0.071565185  0.072848288            4 
 1098000    1.0618479   -3.7989614    940.85286  0.071406562  0.072831293            3 
 1099000    1.0789897    -3.799793    947.23466  0.071825497   0.07281512            1 
 1100000    1.0640246   -3.8144954    943.30318  0.071462362  0.072798706            3 
 1101000    1.1027788   -3.8133159     944.8454  0.071514184   0.07278222            3 
 1102000    1.0789795   -3.8342871    949.25022  0.071782382  0.072765446            3 
 1103000    1.0604164   -3.8302752    946.44461  0.071505335   0.07274863            2 
 1104000    1.0906145   -3.8166372     950.8333  0.071771837  0.072732246            2 
 1105000    1.0635134   -3.8423467    951.41992  0.071751125   0.07271587            7 
 1106000    1.0961996   -3.8385369    951.48301  0.071691004  0.072699336            1 
 1107000    1.0744212   -3.8226703     952.7622  0.071722539  0.072683067            2 
 1108000    1.0918738   -3.8418698    950.55019   0.07149144  0.072667098            5 
 1109000    1.0613691   -3.7885861    952.99757  0.071610878  0.072650944            2 
 1110000    1.0786134   -3.8388231    954.78738  0.071680734  0.072634593            3 
 1111000    1.0824228   -3.8312729    950.42742  0.071289185  0.072618632            2 
 1112000    1.0826895   -3.8333833    956.20352  0.071657937  0.072602793            3 
 1113000    1.0834733   -3.8333967    957.74883  0.071709257  0.072587001            2 
 1114000    1.0749303   -3.8365941    957.10375   0.07159663  0.072571462            2 
 1115000    1.0801186   -3.8138987    957.25127  0.071543443  0.072556292            2 
 1116000    1.0813631    -3.832955    956.90505  0.071453484  0.072540922            1 
 1117000    1.0470017   -3.8481885    960.89695  0.071687328   0.07252575            4 
 1118000    1.0783838   -3.8158035    961.92264   0.07169966  0.072510713            1 
 1119000    1.0724452   -3.8400406    957.86985  0.071333769  0.072495439            5 
 1120000    1.0994302    -3.823934    962.86849  0.071642001  0.072480421            2 
 1121000    1.0522022   -3.8399136    961.78158  0.071497293  0.072465485            3 
 1122000    1.0550745   -3.8334576    965.48853  0.071708893  0.072450445            2 
 1123000    1.0758325   -3.8337208    961.80307  0.071371554  0.072435386            2 
 1124000     1.080366   -3.8289842     966.6503  0.071667431  0.072420529            3 
 1125000    1.0701981   -3.8504733    963.51666  0.071371605  0.072405278            3 
 1126000    1.0604271   -3.8158124    968.42333  0.071671354  0.072390175            2 
 1127000    1.0795974    -3.784184      968.561  0.071617938  0.072376137            4 
 1128000    1.0617518   -3.8321101    971.20279  0.071749615  0.072362322            5 
 1129000     1.071148   -3.8399839    967.53112  0.071415051  0.072347467            1 
 1130000    1.0641077   -3.8316755    970.27304  0.071554059  0.072332821            5 
 1131000     1.062542   -3.8520348    968.25242  0.071341911  0.072318975            3 
 1132000    1.0933245   -3.8438659    972.65997  0.071603355  0.072304878            5 
 1133000    1.0444368     -3.80369    975.49698  0.071748822  0.072290578            6 
 1134000    1.0857699   -3.8074771    976.17673  0.071735503  0.072276335            2 
 1135000     1.099662   -3.8289145    973.84822  0.071501338  0.072262478            1 
 1136000    1.0950761   -3.7979868    975.87881  0.071587354  0.072248585            3 
 1137000    1.0632704   -3.8179506    978.04499  0.071683157  0.072235336            3 
 1138000    1.0606489   -3.8559435    979.96992  0.071761125  0.072221377            2 
 1139000    1.0635054    -3.841413    974.50853  0.071298547  0.072206396            3 
 1140000    1.0630518   -3.8446242     977.1625  0.071430008    0.0721915            3 
 1141000    1.0741541   -3.8186278    983.97379  0.071864869  0.072177292            2 
 1142000    1.0667287   -3.8241459     976.8356  0.071281057  0.072162956            2 
 1143000    1.0557817   -3.8608006    973.14367  0.070949524  0.072147945            2 
 1144000    1.0687701   -3.8238216    978.47891  0.071276144  0.072133235            1 
 1145000    1.0806815   -3.8124995    976.65801  0.071081369  0.072118551            3 
 1146000    1.0645625   -3.7888101    981.22073  0.071351129  0.072103561            2 
 1147000    1.0628722   -3.8521492    980.31956   0.07122345   0.07208816            5 
 1148000    1.0793561   -3.7990104    983.67519  0.071404994  0.072073579            1 
 1149000    1.0773186   -3.8249342    981.17192  0.071161294  0.072058857            5 
 1150000    1.0543018   -3.8158938    983.60949   0.07127605  0.072044346            2 
 1151000    1.0523278   -3.7979312    985.38022  0.071342327  0.072029848            3 
 1152000    1.0693405   -3.8177819    989.31454  0.071564998  0.072015494            3 
 1153000    1.0312673   -3.8343972    986.18346   0.07127663  0.072001097            1 
 1154000    1.0402607    -3.842678     985.8073  0.071187702  0.071986776            4 
 1155000       1.0695   -3.8475346    985.52885  0.071105978  0.071972137            1 
 1156000    1.0705167   -3.8378247    989.50219  0.071330896  0.071957655            2 
 1157000    1.0634837    -3.829479    988.40519  0.071190232  0.071943615            2 
 1158000    1.0604273    -3.807593    989.37646  0.071198651  0.071929282            5 
 1159000    1.0694999   -3.8258194    991.57412  0.071295234  0.071914885            2 
 1160000    1.0538418   -3.8565285    993.03511  0.071338729  0.071900229            2 
 1161000    1.0764149   -3.8059126    992.39481  0.071231324  0.071885822            2 
 1162000    1.0537893    -3.836762    986.69082  0.070760959  0.071871005            1 
 1163000    1.0742988   -3.8361988    992.71339  0.071131656  0.071856432            2 
 1164000    1.0416972   -3.8378881     995.0998  0.071241394  0.071841437            2 
 1165000    1.0681198   -3.8492646    989.80876  0.070801771  0.071826886            1 
 1166000    1.0846281   -3.8554799    995.37783  0.071139067  0.071812318            2 
 1167000    1.0536161   -3.7824883    994.13871  0.070989625  0.071797957            2 
 1168000    1.0927426   -3.8413266    997.57319  0.071173887  0.071783617            2 
 1169000    1.0680408   -3.8436708    1002.0616   0.07143296  0.071769628            3 
 1170000    1.0725015   -3.8592517    996.73974  0.070992859  0.071755729            5 
 1171000     1.062796   -3.8229437    996.30979  0.070901636  0.071741778            3 
 1172000    1.0424124   -3.8423116    997.50867  0.070926384  0.071728119            3 
 1173000    1.0597153   -3.8445522    998.63121  0.070945667  0.071713943            3 
 1174000    1.0630945   -3.8332563    1003.3086  0.071217247  0.071700027            2 
 1175000    1.0550983   -3.8551182    1001.0699  0.070997862   0.07168566            3 
 1176000    1.0577196   -3.8236655    1001.2773  0.070952191  0.071671493            2 
 1177000    1.0698156   -3.8181423    1003.7648  0.071068029  0.071656966            3 
 1178000    1.0702356   -3.8437214    1003.6702  0.071001003  0.071642851            1 
 1179000    1.0531812   -3.8643367    1003.3786   0.07092017  0.071628292            3 
 1180000    1.0676175    -3.820713    1008.3445  0.071210771  0.071613321            2 
 1181000    1.0743126   -3.8616693    1006.2648  0.071003723  0.071599485            3 
 1182000    1.0676816   -3.8248839    1005.9161  0.070919073  0.071585167            1 
 1183000    1.0423749   -3.8619974      1004.06  0.070728373  0.071570318            3 
 1184000    1.0953715   -3.8253526    1009.5574  0.071055563   0.07155608            2 
 1185000    1.0676906   -3.8308916    1008.2727  0.070905252  0.071541952            2 
 1186000    1.0588604    -3.855546    1006.1942  0.070699424  0.071527364            1 
 1187000    1.0712802   -3.8357651     1007.609  0.070739186  0.071512854            4 
 1188000    1.0885467   -3.8552955    1011.0917  0.070923941  0.071498417            2 
 1189000    1.0480081   -3.8156714    1012.0418  0.070930881  0.071484637            1 
 1190000     1.080265   -3.8853127    1015.9628  0.071145854  0.071470968            3 
 1191000    1.0732708   -3.8210679    1016.5107  0.071124457   0.07145764            3 
 1192000    1.0435513   -3.8145876    1014.2249  0.070904988  0.071444316            2 
 1193000    1.0763836   -3.8232341    1013.7849  0.070814813  0.071430751            3 
 1194000     1.069849   -3.8457493    1014.8029  0.070826555  0.071417077            4 
 1195000    1.0705487   -3.8428704    1013.0274  0.070643469  0.071402938            2 
 1196000    1.0554753   -3.8185689    1013.9855  0.070651167  0.071388798            2 
 1197000    1.0674653   -3.8077431    1020.0789  0.071016355  0.071374111            3 
 1198000    1.0421322   -3.8450052    1016.9684  0.070740707  0.071360254            3 
 1199000    1.0658432   -3.8287662     1015.229  0.070560813  0.071345734            4 
 1200000    1.0706893   -3.8311127    1018.4856  0.070728164  0.071331625            2 
 1201000    1.0504004   -3.8515848     1015.728  0.070477934  0.071317361            4 
 1202000    1.0598227   -3.8361674    1016.5754  0.070478053  0.071303216            2 
 1203000    1.0582689   -3.8270091    1018.9828  0.070586228  0.071288567            3 
 1204000    1.0448695   -3.8333564     1022.277  0.070755606  0.071273986            2 
 1205000    1.0832429   -3.8708249    1016.8896  0.070324315  0.071259113            2 
 1206000    1.0600402   -3.8288765     1020.753  0.070532959  0.071244214            2 
 1207000    1.0575724    -3.833069    1023.2305  0.070645571  0.071229539            2 
 1208000    1.0694531   -3.8832519     1019.281   0.07031464  0.071214491            2 
 1209000    1.0650262   -3.8483593    1017.2642  0.070117467  0.071199503            3 
 1210000    1.0777819    -3.828735    1021.8819  0.070377539  0.071184233            2 
 1211000    1.0310976   -3.8568189    1025.4736  0.070566581  0.071169131            2 
 1212000    1.0636695   -3.8556674    1023.3287  0.070360885  0.071153846            2 
 1213000    1.0421332   -3.8405761    1022.4161  0.070240184  0.071138252            2 
 1214000    1.0300421   -3.8348711    1023.6459  0.070266745  0.071122729            1 
 1215000    1.0572378    -3.809227    1024.0401  0.070235946  0.071107435            2 
 1216000     1.079992   -3.8454312    1022.8941  0.070099653  0.071092514           10 
 1217000    1.0584145   -3.8147653    1026.4218  0.070283608  0.071077528            2 
 1218000    1.0616643   -3.8606108    1026.6942  0.070244538  0.071062838            3 
 1219000    1.0816416   -3.8753804    1025.9645   0.07013703  0.071047383            2 
 1220000    1.0520919   -3.8557848    1026.7806  0.070135286  0.071031567            4 
 1221000    1.0378485   -3.8622813    1027.5327  0.070129176   0.07101604            4 
 1222000    1.0363361   -3.8561006    1029.7905  0.070225756   0.07100041            2 
 1223000    1.0656481    -3.816972    1029.8175  0.070170175  0.070985022            1 
 1224000    1.0650594   -3.8368545    1029.1076  0.070064518  0.070969741            3 
 1225000    1.0785482   -3.8626728    1029.8488  0.070057739  0.070953716            4 
 1226000    1.0545837   -3.8556034    1036.7061  0.070466702  0.070938871            2 
 1227000    1.0574307   -3.8537464     1033.801   0.07021197  0.070924237            2 
 1228000    1.0608494   -3.8458741    1034.9454  0.070232453  0.070908802            4 
 1229000    1.0374117   -3.8283304    1034.7763   0.07016384  0.070894471            3 
 1230000    1.0804257   -3.8556302    1035.8185  0.070177408  0.070879881            2 
 1231000    1.0540805   -3.8765972    1036.3514  0.070156469  0.070865092            4 
 1232000    1.0779079   -3.8489684    1034.9903  0.070007458  0.070850361            1 
 1233000     1.051897   -3.8574414    1034.4369  0.069913283  0.070835174            2 
 1234000     1.053832   -3.8541059    1038.0778  0.070102496   0.07082052            2 
 1235000    1.0749728    -3.846327    1040.6321  0.070218092  0.070805659            1 
 1236000     1.035098   -3.8327714    1040.4557  0.070149388  0.070790938            5 
 1237000    1.0619017   -3.8175447    1040.7616  0.070113282  0.070776068            2 
 1238000    1.0585406   -3.8446664    1042.0421  0.070142845  0.070761232            2 
 1239000    1.0560164   -3.8357045    1039.3792  0.069907129  0.070746347            3 
 1240000    1.0487031    -3.832095    1040.7668  0.069944007  0.070731103            2 
 1241000    1.0439161   -3.8881594    1037.0487  0.069637974  0.070716313            4 
 1242000    1.0526288   -3.8369834    1044.9263  0.070110457  0.070701083            2 
 1243000    1.0657467   -3.8651666    1040.1422  0.069733317  0.070686383            2 
 1244000    1.0547637    -3.859382    1043.7495  0.069918913  0.070671446            2 
 1245000    1.0458349   -3.8450627    1047.6827  0.070126017  0.070656761            2 
 1246000    1.0518147   -3.8516206    1045.8255  0.069945528  0.070642139            2 
 1247000    1.0849768   -3.8434476    1045.1677  0.069845474   0.07062777            2 
 1248000    1.0449336   -3.8533046    1047.9459  0.069975017  0.070613305            2 
 1249000    1.0592119   -3.8469997    1044.5696  0.069693727  0.070598668            2 
 1250000    1.0663763   -3.8555902    1047.2135  0.069814235  0.070584038            2 
 1251000    1.0471551   -3.8784907    1049.8348  0.069933037  0.070569631            3 
 1252000    1.0559851   -3.8201793    1051.5229  0.069989541  0.070554975            2 
 1253000    1.0425441   -3.8315227    1056.8807   0.07029002  0.070540919            2 
 1254000     1.058773   -3.8628316    1053.8386  0.070031805  0.070526609            4 
 1255000    1.0732906   -3.8551265    1050.9995  0.069787486  0.070512667            2 
 1256000    1.0409065   -3.8771213    1055.2383  0.070013159  0.070498447            3 
 1257000    1.0279252   -3.8674418      1054.85  0.069931719   0.07048441            4 
 1258000    1.0679024   -3.8675341    1053.1613   0.06976426  0.070470255            2 
 1259000    1.0517962   -3.8479323    1053.4417  0.069727409  0.070455958            7 
 1260000    1.0153839   -3.8735889    1057.8754  0.069965307  0.070441669            6 
 1261000    1.0209592   -3.8485474    1057.1946  0.069864827  0.070427265            3 
 1262000    1.0536677   -3.8650697    1060.1651  0.070005619  0.070413073            1 
 1263000    1.0493402   -3.8470015    1062.7392  0.070120034  0.070399237            2 
 1264000    1.0330231   -3.8650202    1058.7463  0.069801314  0.070385487            2 
 1265000    1.0547032   -3.7985242    1064.1613  0.070102855   0.07037187            3 
 1266000    1.0295047   -3.8755108    1061.3994  0.069865678  0.070358837            1 
 1267000    1.0688116   -3.8511752    1067.2097  0.070192691  0.070345452            3 
 1268000    1.0367706   -3.8629884    1063.9841  0.069925347  0.070331605            3 
 1269000    1.0531808   -3.8765021    1062.6208  0.069780722  0.070318367            5 
 1270000    1.0434557   -3.8967653     1064.016  0.069817324  0.070304545            3 
 1271000    1.0463852   -3.8688677    1067.1756  0.069969548  0.070291036            3 
 1272000     1.043503   -3.8784494    1061.0251  0.069511603  0.070277396            6 
 1273000    1.0726429   -3.8639145    1063.1341  0.069595061  0.070264076            3 
 1274000     1.036664   -3.8538253    1067.4487  0.069822653   0.07025078            2 
 1275000    1.0594458   -3.8393048    1068.2645  0.069821207    0.0702375            2 
 1276000    1.0385588   -3.8500076    1071.8619   0.07000143  0.070224362            2 
 1277000    1.0538811   -3.8534351    1066.7659  0.069614064  0.070210608            4 
 1278000     1.051503   -3.8745388    1069.6556  0.069748019  0.070196869            5 
 1279000    1.0294796   -3.8753656    1065.5202  0.069424045  0.070182883            2 
 1280000    1.0451885   -3.8939102    1071.2014  0.069739677  0.070169674            4 
 1281000     1.053013   -3.8585599      1075.39  0.069957717   0.07015621            7 
 1282000    1.0635116   -3.8872285    1072.7074  0.069728773  0.070143271            4 
 1283000    1.0280665   -3.8690333     1070.977  0.069562026  0.070129761            4 
 1284000    1.0513705   -3.8406618    1075.2105  0.069782615  0.070116043            1 
 1285000     1.053111   -3.8735101    1075.1202  0.069722455  0.070102879            2 
 1286000    1.0328681   -3.8581869    1075.2245  0.069674994  0.070089199            1 
 1287000    1.0467952   -3.8820884    1077.2232  0.069750273  0.070075659            3 
 1288000    1.0413879   -3.8448899    1077.9012  0.069739982  0.070061988            2 
 1289000    1.0642098   -3.8723697    1075.5017  0.069530756  0.070048807            3 
 1290000    1.0419729   -3.8552368    1081.0184   0.06983323  0.070035524            2 
 1291000    1.0450477   -3.8768499     1077.082  0.069525046  0.070021825            3 
 1292000    1.0621048   -3.8718538    1077.4771  0.069496714  0.070008091            3 
 1293000    1.0650805   -3.8712317    1079.6615  0.069583753  0.069994434            5 
 1294000     1.033528    -3.879363    1081.1055  0.069622973   0.06998064            2 
 1295000     1.041006   -3.8785479    1078.3393  0.069391202  0.069966441            8 
 1296000    1.0273533   -3.8448953    1085.4773  0.069796635  0.069952679            5 
 1297000    1.0409485   -3.8698433    1083.0023  0.069583804  0.069939178            7 
 1298000    1.0301143   -3.8916318    1085.5043  0.069690824  0.069925435            2 
 1299000    1.0369463   -3.8430379    1083.6788  0.069520068   0.06991192            1 
 1300000    1.0564589    -3.864646    1081.5868  0.069332486  0.069898239            2 
 1301000    1.0508372   -3.8962062    1079.4437  0.069141923   0.06988458            4 
 1302000    1.0565826   -3.8766602     1087.872  0.069628263  0.069871267            4 
 1303000    1.0223425    -3.867961    1086.7515  0.069503166  0.069857618            2 
 1304000    1.0359539   -3.8471216    1088.8313  0.069582775  0.069844145            6 
 1305000    1.0560181   -3.8990733    1090.7241  0.069650323  0.069831072            2 
 1306000    1.0111877   -3.8875319    1087.5566  0.069394881  0.069817802            4 
 1307000    1.0499191   -3.8897564    1092.2281   0.06963964  0.069803934            5 
 1308000    1.0445465   -3.8642226    1086.8078  0.069241066  0.069790279            3 
 1309000    1.0270099   -3.9043667    1084.6841  0.069052975  0.069776764            6 
 1310000    1.0539981   -3.8765538    1090.3634  0.069361542  0.069763234            2 
 1311000    1.0418063   -3.8808735    1088.7907  0.069208666  0.069749726            3 
 1312000    1.0392394   -3.8658236    1087.5418  0.069076586   0.06973601            3 
 1313000    1.0501162   -3.8680941    1089.6796  0.069159661  0.069722172            2 
 1314000    1.0704855   -3.9036542    1088.6497   0.06904171  0.069708041            2 
 1315000    1.0363676   -3.8815099    1087.1785  0.068895977  0.069693893            1 
 1316000    1.0416594   -3.8599829    1092.4718  0.069178814  0.069679845            5 
 1317000    1.0548543   -3.8702476    1093.3436  0.069181445  0.069665807            2 
 1318000     1.055512   -3.8923789    1091.2568  0.068997015  0.069652178            2 
 1319000    1.0387938   -3.8591782    1099.7537  0.069481535  0.069638273            2 
 1320000    1.0240434   -3.8630534    1095.8027  0.069179461  0.069624229            1 
 1321000    1.0529888   -3.8663029    1096.3901   0.06916415   0.06960991            3 
 1322000    1.0343025    -3.840737    1098.5238  0.069246331  0.069595916            2 
 1323000    1.0376837   -3.8778822    1095.7758  0.069020899  0.069582107            3 
 1324000    1.0432003     -3.89483    1095.8644  0.068974345  0.069568192            4 
 1325000    1.0380132   -3.8505766    1096.5705  0.068966698   0.06955375            3 
 1326000    1.0293132   -3.9000908    1094.3001  0.068772005  0.069539463            4 
 1327000    1.0353983   -3.8777481    1095.3896  0.068788598  0.069525194            3 
 1328000    1.0377436   -3.8411377     1097.203  0.068850589  0.069511014            1 
 1329000    1.0292822   -3.8893292    1098.2897  0.068866926  0.069497207            2 
 1330000     1.036126   -3.8665349    1097.2048  0.068747169  0.069482999            5 
 1331000    1.0292146   -3.8596896    1103.6082  0.069096434  0.069469023            1 
 1332000    1.0315943   -3.8913065    1099.2358  0.068771009  0.069454816            1 
 1333000    1.0310677   -3.8949526    1098.2051  0.068654984  0.069440305            3 
 1334000    1.0104926   -3.8889572    1098.3364  0.068611719  0.069425743            4 
 1335000    1.0537532    -3.885315    1101.4743  0.068756201  0.069411177            2 
 1336000    1.0461504   -3.8698274    1104.9316  0.068920382    0.0693973            6 
 1337000    1.0309037   -3.8808525      1103.51  0.068780228  0.069383744            2 
 1338000      1.01997    -3.879298    1106.8111  0.068934423  0.069369814            3 
 1339000    1.0120175   -3.8740605    1105.0193  0.068771425  0.069355725            2 
 1340000    1.0603103   -3.8982145    1108.9167   0.06896248  0.069341981            1 
 1341000    1.0155094   -3.8548073     1105.956  0.068727067  0.069328448            4 
 1342000    1.0536244   -3.8543272    1108.2836  0.068820394  0.069314679            3 
 1343000    1.0357199   -3.9137629    1107.1529  0.068698988  0.069300733            4 
 1344000    1.0334845     -3.86546    1111.5048  0.068917711  0.069286868            4 
 1345000     1.043217    -3.870888    1108.4415   0.06867667  0.069272706            4 
 1346000    1.0177169    -3.886488    1108.6478   0.06863842  0.069258108            2 
 1347000    1.0570181   -3.8876063    1109.1422  0.068618054  0.069243403            2 
 1348000    1.0375508   -3.9064252    1106.9367  0.068430805  0.069228905            3 
 1349000    1.0301613   -3.9084218    1118.0405  0.069066004  0.069214069            3 
 1350000    1.0476434   -3.9108676    1104.3757  0.068171338  0.069199514            3 
 1351000     1.032955   -3.8629622     1113.127  0.068660682  0.069185347            2 
 1352000    1.0192128   -3.8981177    1105.2805  0.068126261  0.069170313            3 
 1353000    1.0351562   -3.9068222    1111.8466  0.068480328  0.069154995            1 
 1354000    1.0283577   -3.8919835    1114.1677  0.068572606  0.069139613            4 
 1355000    1.0330966    -3.862269    1113.4676  0.068478943  0.069124624            2 
 1356000    1.0579982   -3.8525804    1116.4646  0.068612624  0.069109756            4 
 1357000    1.0312272   -3.8407653    1110.5116  0.068196489  0.069094832            2 
 1358000    1.0265303   -3.8701653    1114.6765  0.068401844   0.06907972            1 
 1359000    1.0221756   -3.8813645    1112.2297  0.068201481  0.069064832            2 
 1360000    1.0084134   -3.8694005    1113.7959  0.068247298  0.069049463            3 
 1361000    1.0219705   -3.8866555    1115.7045  0.068314014  0.069034543            4 
 1362000    1.0547922   -3.8831421    1120.2158  0.068539881  0.069019311            3 
 1363000    1.0126966   -3.8949829    1118.9811  0.068414103  0.069004686            3 
 1364000    1.0471329   -3.8829269    1114.8992  0.068114563  0.068990061            2 
 1365000    1.0493953   -3.8676849    1117.3714  0.068215591  0.068975389            3 
 1366000     1.004988   -3.8787721    1118.0851  0.068209194  0.068960429            4 
 1367000    1.0139764   -3.8854793    1118.6186  0.068191817  0.068945527            3 
 1368000    1.0085857   -3.8863864    1120.0412  0.068228634  0.068930534            1 
 1369000    1.0417291   -3.8800106    1118.4539  0.068082172   0.06891556            2 
 1370000    1.0364358   -3.8433505    1125.8989  0.068485332  0.068901261            3 
 1371000    1.0384462   -3.8614051    1124.4842  0.068349395  0.068886435            3 
 1372000    1.0475966   -3.8833035    1124.2094  0.068282886  0.068871429            4 
 1373000    1.0290401   -3.8691061    1122.6974  0.068141379  0.068856597            3 
 1374000     1.012786   -3.8978651    1125.0457  0.068234214  0.068841799            2 
 1375000    1.0377942   -3.8588152    1121.3061  0.067957948  0.068826655            6 
 1376000    1.0439735   -3.9057873    1123.5729  0.068045837  0.068811599            3 
 1377000    1.0463154   -3.8815211    1124.3769  0.068045079  0.068796548            3 
 1378000    1.0490262   -3.8832668    1124.0786   0.06797766  0.068780985            2 
 1379000    1.0386936   -3.9068079    1120.5556   0.06771547  0.068765697            2 
 1380000    1.0446189   -3.9023067    1121.6815  0.067734388  0.068750503            1 
 1381000    1.0273822    -3.886804     1125.275  0.067902185  0.068735631            4 
 1382000    1.0245228   -3.9118594    1126.5975  0.067932799  0.068720684            1 
 1383000   0.99704034   -3.8832879    1129.8588  0.068080188  0.068706286            6 
 1384000    1.0278634   -3.9276111    1126.3391  0.067819067  0.068691514            1 
 1385000     1.018042   -3.8935252    1134.7105  0.068273799  0.068676995            4 
 1386000    1.0287178    -3.881514    1128.6284  0.067858849  0.068662019            8 
 1387000     1.011618   -3.9014551    1128.1609  0.067781836  0.068646812            4 
 1388000    1.0359961   -3.8991915    1129.1021  0.067789512  0.068631778            3 
 1389000    1.0448267   -3.8780157    1131.5978  0.067890439   0.06861681            3 
 1390000    1.0465678   -3.9029917    1131.9417  0.067862211  0.068601729            2 
 1391000     1.029149   -3.9016803    1132.7941  0.067864491  0.068586532            1 
 1392000    1.0556578   -3.8867576    1133.6657  0.067867919  0.068571457            3 
 1393000    1.0327846   -3.9087128    1130.1233  0.067607282   0.06855599            5 
 1394000    1.0387725   -3.9130591    1134.8382   0.06784064  0.068540771            3 
 1395000     1.059218   -3.8677019    1135.2605  0.067817235   0.06852575            5 
 1396000    1.0368544   -3.9124554    1137.1567  0.067881849  0.068510843            2 
 1397000    1.0156987   -3.8835943    1137.7842  0.067870689  0.068495617            5 
 1398000    1.0123078   -3.8883395    1137.3045  0.067793546   0.06848075            5 
 1399000    1.0290597   -3.8811717    1131.2207  0.067382699   0.06846532            6 
 1400000    1.0397776   -3.9270005    1135.5561  0.067592625  0.068449955            1 
 1401000    1.0390723   -3.9106135    1135.9676  0.067568857  0.068434236            4 
 1402000    1.0227099    -3.915628    1137.6449  0.067620357  0.068418425            4 
 1403000    1.0031303   -3.8997075    1133.9768  0.067354287  0.068402514            2 
 1404000    1.0423445   -3.8986659    1139.4581  0.067631654    0.0683867            3 
 1405000    1.0379599   -3.8808653    1143.3209  0.067812627  0.068370836            2 
 1406000    1.0382245   -3.9202896     1140.424  0.067592698  0.068354763            2 
 1407000    1.0376416   -3.9062156    1137.0766  0.067346399  0.068339228            2 
 1408000    1.0114377   -3.8939025    1141.0095  0.067531339  0.068323494            2 
 1409000    1.0245971   -3.8757816    1140.4394  0.067449693  0.068308105            3 
 1410000     1.047187   -3.9075819     1140.769  0.067421337  0.068292681            6 
 1411000    1.0276158   -3.9305067    1141.9491   0.06744325  0.068277331            3 
 1412000    1.0296921   -3.9231414    1140.4144  0.067304909  0.068261826            2 
 1413000    1.0168005   -3.9139223    1141.7215  0.067334363  0.068246185            2 
 1414000    1.0064464   -3.8685364    1149.0269  0.067717284  0.068231178            3 
 1415000    1.0371466   -3.8732466    1146.3953  0.067514446  0.068216017            4 
 1416000    1.0166803   -3.9042239    1146.2975  0.067461009  0.068200452            2 
 1417000    1.0444601   -3.8788892    1150.6343   0.06766845  0.068185264            2 
 1418000    1.0501229   -3.9240427    1151.6059  0.067677829  0.068169937            2 
 1419000    1.0335305   -3.9122505    1142.6896  0.067106509  0.068154428            3 
 1420000    1.0310124   -3.8951206    1146.3397  0.067273458  0.068138858            3 
 1421000   0.99404778   -3.9095638     1144.961  0.067145261  0.068123633            4 
 1422000    1.0518961   -3.8751803    1147.9642  0.067274038  0.068108197            6 
 1423000     1.003455   -3.9095641    1147.5497  0.067202492  0.068092458            2 
 1424000    1.0272821   -3.8941606    1152.4753  0.067443543  0.068077038            3 
 1425000    1.0353453   -3.9008389    1151.9239  0.067363973  0.068061779            5 
 1426000    1.0170531   -3.8922217    1158.8984  0.067724308  0.068046689            5 
 1427000    1.0168364   -3.9292067    1149.5271  0.067129589  0.068031255            3 
 1428000    1.0396432   -3.8957992    1156.5944  0.067495004  0.068015862            5 
 1429000      1.04168   -3.8675669    1154.9135  0.067349747  0.068000341            2 
 1430000    1.0238204   -3.9055361    1150.7841  0.067062009   0.06798505            2 
 1431000    1.0128426   -3.8771246     1158.193  0.067446597  0.067969974            3 
 1432000    1.0100336   -3.8779155    1158.9239  0.067442035  0.067955027            5 
 1433000    1.0435481   -3.9011783    1159.2043  0.067411275  0.067940205            2 
 1434000    1.0228864   -3.8948024    1160.1869  0.067421369  0.067925085            3 
 1435000    1.0160556   -3.8975515     1157.601  0.067224214  0.067909945            2 
 1436000    1.0291514   -3.8911033    1158.7855  0.067246142  0.067894925            2 
 1437000    1.0289881   -3.8861741    1158.3773  0.067175675  0.067880108            1 
 1438000    1.0200087   -3.8809368    1159.8828  0.067216201  0.067865147            4 
 1439000    1.0180262   -3.8986698    1160.8838  0.067227464  0.067850218            3 
 1440000   0.99687934   -3.8923833    1164.1385  0.067369128  0.067835257            3 
 1441000    1.0365989   -3.8973427    1163.0199  0.067257687  0.067820692            3 
 1442000    1.0203552   -3.8929563    1169.5104  0.067586128  0.067805852            3 
 1443000    1.0274677   -3.8983944    1164.5361  0.067252024  0.067790907            2 
 1444000     1.012327    -3.931072    1159.5952  0.066920316  0.067776252            1 
 1445000    1.0282296   -3.9191778    1164.1379  0.067135981  0.067761627            3 
 1446000    1.0232346   -3.9015912    1171.1374  0.067492934  0.067747103            2 
 1447000    1.0153011   -3.9095648    1162.4724  0.066947271  0.067732735            5 
 1448000    0.9959342   -3.9110703    1171.0173  0.067392802  0.067718237            2 
 1449000    1.0406037   -3.8901249    1166.6276  0.067093833  0.067703683            3 
 1450000    1.0298812    -3.939532     1166.921  0.067064427  0.067689412            3 
 1451000    1.0008665   -3.8887434    1170.7991  0.067240932  0.067674994            4 
 1452000    1.0208748   -3.9222064    1171.5107  0.067235465   0.06766032            2 
 1453000    1.0290178   -3.9214709    1165.7346  0.066857917  0.067645798            3 
 1454000    1.0139188   -3.8862577    1172.5369  0.067201795  0.067631129            3 
 1455000     1.016566   -3.9098825    1167.3898  0.066860813  0.067616685            4 
 1456000    1.0126136   -3.8901097    1178.1844  0.067432715  0.067602559            2 
 1457000   0.98354411   -3.8948903    1176.4549  0.067287516  0.067588412            3 
 1458000    1.0128996   -3.8871635    1171.5013  0.066958234  0.067574213            2 
 1459000    1.0130915   -3.8930657    1175.4239   0.06713639  0.067559914            5 
 1460000    1.0421206   -3.9181212    1184.4019  0.067602847  0.067546056            3 
 1461000    1.0204006   -3.9068705    1176.9536  0.067131737  0.067532156            2 
 1462000    1.0261417   -3.9102698    1180.7253  0.067300805  0.067518077            2 
 1463000    1.0257427   -3.8903514    1177.4942  0.067070755  0.067504118            3 
 1464000    1.0194483   -3.9416226    1175.0814  0.066887602  0.067489902            2 
 1465000    1.0139122    -3.936085    1176.2445  0.066908108  0.067475907            4 
 1466000    1.0080609   -3.8944645    1178.2113  0.066974266  0.067461834            8 
 1467000     1.000469   -3.9029259    1177.5516  0.066891138   0.06744788            6 
 1468000    1.0255002    -3.921742    1181.7409  0.067083384  0.067433633            2 
 1469000    1.0165491   -3.9166677    1182.0695  0.067056357    0.0674194            3 
 1470000    1.0103826   -3.9170245    1181.0067  0.066950494  0.067405037            1 
 1471000    1.0134646   -3.9500925    1179.0238  0.066792649  0.067391292            5 
 1472000    1.0129765   -3.9230056    1183.4787  0.066999471   0.06737771            6 
 1473000    1.0040653    -3.929062    1186.4092  0.067119779  0.067364034            3 
 1474000    1.0134423   -3.8932751     1187.401  0.067130317  0.067350104            3 
 1475000    1.0027654    -3.959346     1184.795  0.066937573  0.067336553            2 
 1476000    1.0033554   -3.9335931    1183.9757  0.066845964  0.067322743            2 
 1477000    1.0121956    -3.910448    1189.0937  0.067089466  0.067308848            2 
 1478000    1.0325823   -3.9091646    1190.4177  0.067118724  0.067295223            2 
 1479000   0.97900954    -3.913321    1188.7349  0.066978527  0.067281466            3 
 1480000   0.99015339   -3.9154628    1186.3271  0.066797695  0.067267729            3 
 1481000    1.0046376   -3.9071893     1192.614  0.067106347  0.067253962            2 
 1482000    1.0091268   -3.9190338     1190.795  0.066958784  0.067240681            2 
 1483000    1.0047869   -3.9041011    1187.4155  0.066723731  0.067227229            2 
 1484000    1.0189741   -3.9166402    1195.6658  0.067142057  0.067214109            3 
 1485000    1.0084492   -3.9132955    1189.4348  0.066747185  0.067200397            3 
 1486000   0.99494723   -3.9226165    1195.7789  0.067058035   0.06718708            2 
 1487000    1.0100911    -3.913427    1195.0859  0.066974102  0.067173603            4 
 1488000     0.995679   -3.8924134    1200.7668  0.067247246   0.06716091            2 
 1489000    1.0221587   -3.9008931    1194.5998  0.066856938  0.067147811            2 
 1490000   0.98641026   -3.9273176    1194.1645  0.066787725  0.067134817            4 
 1491000    1.0155418   -3.9246129     1196.109  0.066851612  0.067121848            3 
 1492000    1.0119724   -3.9234636    1199.5864  0.067001025  0.067109025            5 
 1493000   0.98371007   -3.8569717    1203.6162   0.06718108  0.067096535            2 
 1494000    1.0030567   -3.9117515    1204.8471  0.067204769  0.067083949            2 
 1495000    1.0161377   -3.8979403    1202.2825  0.067016863  0.067071091            4 
 1496000    1.0183407    -3.900048    1200.5656  0.066876426  0.067058501            2 
 1497000    1.0353022   -3.9275165    1203.2869  0.066983239  0.067045527            3 
 1498000    1.0258976   -3.9137903    1206.3483  0.067108828  0.067032984            4 
 1499000    1.0149989   -3.9436133    1198.1911  0.066610581   0.06702001            2 
 1500000    1.0312019   -3.8963432    1206.0023  0.067000126  0.067007233            2 
 1501000    1.0067568   -3.9232547    1201.0066  0.066678139  0.066994447            2 
 1502000    1.0142383   -3.8832296    1203.1172  0.066750843  0.066981644            3 
 1503000    1.0333967   -3.9087342    1210.7375  0.067128934  0.066969641            4 
 1504000    1.0190278   -3.9456824    1203.0903  0.066660587  0.066957017            5 
 1505000   0.97955555   -3.9554847    1204.1142   0.06667299  0.066944191            2 
 1506000      1.00873   -3.9151232     1208.987  0.066898351   0.06693129            3 
 1507000    1.0325587   -3.9312012     1204.153  0.066586649  0.066918745            1 
 1508000    0.9896481   -3.9268209    1208.7569  0.066796911  0.066905663            2 
 1509000    1.0162006   -3.9193195    1208.9851  0.066765245  0.066892961            1 
 1510000    1.0120224   -3.9223961     1212.295    0.0669037  0.066880585            3 
 1511000   0.97403634   -3.9219584    1212.5596  0.066874012   0.06686785            4 
 1512000    1.0031434   -3.9335192    1208.6007  0.066611589  0.066855102            4 
 1513000     1.019145   -3.9262979    1211.8772  0.066748031  0.066842039            2 
 1514000    1.0302526   -3.9223009    1213.3634  0.066785744  0.066828894            5 
 1515000    1.0033037   -3.9124934    1212.4161  0.066689555  0.066816218            2 
 1516000    1.0120589   -3.9421878    1214.1699  0.066741971  0.066803277            3 
 1517000     1.011538   -3.9366817    1209.2275   0.06642647  0.066790809            3 
 1518000    1.0006197   -3.9297549    1215.2195  0.066711657  0.066777981            4 
 1519000    1.0056105   -3.9056191    1214.2447   0.06661426  0.066765314            3 
 1520000      1.00493   -3.8998712    1215.0198  0.066612927  0.066752723            5 
 1521000    1.0086393   -3.9356547    1212.1405  0.066411381    0.0667401            6 
 1522000   0.97916907   -3.9355237    1216.5626  0.066609867  0.066727397            3 
 1523000    1.0106421   -3.9305936    1221.0042  0.066809159  0.066714611            3 
 1524000    1.0191355   -3.9316407    1218.1164  0.066607415  0.066701855            2 
 1525000    1.0005412   -3.9528691    1219.0745  0.066616094  0.066688943            3 
 1526000    1.0067166   -3.9212221    1214.9293  0.066346074  0.066675844            4 
 1527000    1.0183981   -3.9276021    1217.4359  0.066439418  0.066663272            2 
 1528000     1.017013   -3.9350866    1219.4188  0.066504081  0.066650214            3 
 1529000     1.001687   -3.9198645    1219.1487  0.066445864  0.066637359            5 
 1530000    1.0030356   -3.9147971       1220.6  0.066481483  0.066624379            3 
 1531000    1.0070242   -3.9358627    1215.7066  0.066171706  0.066611215            2 
 1532000    1.0047062   -3.9490866    1217.6182  0.066232494  0.066598235            5 
 1533000    1.0044461   -3.9305003    1218.0942  0.066215165  0.066585017            2 
 1534000   0.99544194   -3.9389329    1222.0886  0.066388993  0.066571639            6 
 1535000    1.0073274   -3.9146245    1223.0163   0.06639611  0.066558621            4 
 1536000    1.0297745    -3.949535    1220.9545  0.066241019  0.066545468            2 
 1537000    1.0035455   -3.9466855    1222.5394  0.066283856  0.066532328            2 
 1538000    1.0078859   -3.9320055    1225.6487  0.066409227  0.066519259            2 
 1539000    1.0158004   -3.9320913    1224.2168  0.066288544  0.066506039            1 
 1540000    1.0017319    -3.915731    1220.6512  0.066052555  0.066492727            4 
 1541000    1.0312618   -3.9296853    1228.5512  0.066436904  0.066479193            2 
 1542000   0.99667839    -3.929626    1225.9267  0.066251985  0.066465909            4 
 1543000   0.99941658    -3.917868    1229.9829  0.066428108   0.06645313            2 
 1544000   0.99051976   -3.9234914    1229.0771  0.066336202  0.066439705            2 
 1545000    1.0059701   -3.9357205     1231.736  0.066436679  0.066426655            3 
 1546000   0.97978475   -3.9177165    1230.8174  0.066344189  0.066413667            2 
 1547000    1.0083061   -3.9741524    1223.0396  0.065882329  0.066400326            2 
 1548000    1.0127752   -3.9160399    1232.8386  0.066367278  0.066386595            2 
 1549000    1.0066675   -3.9205138    1231.1709  0.066234718  0.066373293            2 
 1550000     1.010392    -3.923738    1228.7414  0.066061367  0.066359655            3 
 1551000   0.99363755    -3.919369    1224.1445  0.065771787  0.066346165            3 
 1552000    1.0127585   -3.9286914    1227.6094  0.065915453  0.066332131            2 
 1553000    1.0050727   -3.9419161    1226.3076  0.065803155  0.066318232            2 
 1554000    1.0302657   -3.9322668    1226.3288  0.065761946  0.066304252            4 
 1555000    1.0039657   -3.9443179    1229.1326  0.065869914  0.066290351            3 
 1556000     1.017672   -3.9577321    1227.9646  0.065765026  0.066276388            5 
 1557000    1.0008284   -3.9411057    1229.9241  0.065827663  0.066262516            4 
 1558000   0.98357603   -3.9108673    1229.9203  0.065785212  0.066248357            4 
 1559000     1.001317    -3.950186    1231.3359  0.065818684  0.066234542            2 
 1560000    1.0073413   -3.9294259      1232.76  0.065852565  0.066220645            6 
 1561000   0.97431313   -3.9332301    1236.6708  0.066019152  0.066206796            4 
 1562000    0.9798845    -3.908282    1235.4116  0.065909707  0.066192895            7 
 1563000   0.98361327      -3.9481    1229.4012  0.065547088   0.06617908            2 
 1564000     1.004883   -3.9190394    1237.6516  0.065944781  0.066165172            2 
 1565000    1.0055903   -3.8973098    1236.4234  0.065837239  0.066151569            3 
 1566000   0.99650902   -3.9544518    1238.5975  0.065910893  0.066138101            3 
 1567000   0.99115278    -3.960701    1233.7018  0.065608477  0.066124207            3 
 1568000    1.0071131   -3.9457423    1238.8685  0.065841223  0.066110381            2 
 1569000     0.996941   -3.8982652    1245.2215  0.066136683  0.066096924            2 
 1570000    1.0161782   -3.9327053    1237.7303  0.065696935  0.066083374            2 
 1571000    1.0015453   -3.9172955    1246.1551  0.066102008  0.066069797            2 
 1572000   0.98717324   -3.9326951    1238.2008  0.065638298  0.066056187            2 
 1573000   0.98235347   -3.9364434    1240.2355  0.065704362  0.066042631            3 
 1574000   0.98679555   -3.9348403    1244.0282  0.065863417  0.066028997            4 
 1575000    1.0095415   -3.9220329    1240.4628  0.065632954   0.06601518            3 
 1576000    0.9957425   -3.9438145     1239.454  0.065537964  0.066001433            3 
 1577000    1.0076791   -3.9392161     1247.316  0.065911855  0.065987985            3 
 1578000    1.0086209   -3.9278533    1244.7902    0.0657367  0.065974265            5 
 1579000   0.99735876    -3.940395    1240.2105  0.065453374  0.065960448            3 
 1580000    1.0243988   -3.9519252    1242.9979  0.065558959  0.065946256            2 
 1581000   0.99538406   -3.9397061    1244.4213  0.065592522  0.065932641            3 
 1582000    1.0001535   -3.9477484    1246.8373  0.065678323  0.065918993            2 
 1583000   0.99348916   -3.9406285    1241.6204  0.065362205  0.065904869            1 
 1584000    1.0111593   -3.9364474    1242.8456  0.065385398  0.065891104            4 
 1585000    1.0017807   -3.9595204    1244.9034  0.065452336  0.065877066            2 
 1586000    1.0044419   -3.9713913    1241.3017   0.06522182  0.065863065            3 
 1587000   0.98468481   -3.9428512    1245.6867  0.065410982  0.065849293            2 
 1588000    1.0081904    -3.942878    1247.6502  0.065472825  0.065835639            2 
 1589000    1.0080525   -3.9542262    1248.3372  0.065467652  0.065821604            5 
 1590000   0.98646096   -3.9300416    1250.4619  0.065537833  0.065807863            2 
 1591000    1.0045484   -3.9387233     1244.532  0.065186048  0.065794203            2 
 1592000    1.0001482   -3.9512371    1247.8697  0.065319813  0.065780352            3 
 1593000   0.98216485    -3.925922    1254.0131  0.065600181  0.065766859            3 
 1594000   0.99084525   -3.9368955    1253.5687  0.065535797  0.065753086            3 
 1595000   0.99686616   -3.9477538    1250.9803   0.06535947  0.065739471            2 
 1596000   0.98257363   -3.9656425    1251.6717  0.065354619  0.065725911            5 
 1597000   0.96951374   -3.9301354    1253.7992  0.065424714  0.065712277            5 
 1598000    1.0153925   -3.9413821    1254.4187  0.065416076  0.065698602            2 
 1599000   0.98476088   -3.9301891      1255.33  0.065422659  0.065685098            3 
 1600000    1.0041784   -3.9402047      1258.69  0.065556773  0.065671435            5 
 1601000    1.0049741   -3.9189734    1257.5631  0.065457165  0.065657778            3 
 1602000    1.0036613   -3.9519847    1254.2912   0.06524611  0.065644467            3 
 1603000   0.98994627   -3.9573388    1262.6371  0.065639273  0.065631058            3 
 1604000     1.011586   -3.9258042    1260.8422  0.065505101  0.065617689            4 
 1605000   0.97576749   -3.9555071    1262.4809  0.065549369  0.065604564            2 
 1606000   0.98819935   -3.9776552    1254.9674  0.065118689  0.065591109            5 
 1607000    0.9959281    -3.968627    1261.2282  0.065402833  0.065577629            6 
 1608000   0.98525363   -3.9604939    1260.4244  0.065320503   0.06556403            3 
 1609000   0.98800144   -3.9542902    1259.3339  0.065223427  0.065550237            6 
 1610000    1.0159557   -3.9658385    1261.0343  0.065270924  0.065536368            4 
 1611000    1.0041468    -3.968276    1259.4386  0.065147867  0.065522531            5 
 1612000   0.97792385   -3.9621412    1259.8899  0.065130784   0.06550877            2 
 1613000    0.9854764   -3.9562337    1266.3928  0.065426367  0.065494932            4 
 1614000   0.97313159   -3.9289657    1263.1952  0.065220735  0.065481215            3 
 1615000    1.0173454   -3.9564713    1260.8401   0.06505883  0.065467465            7 
 1616000   0.98995994   -3.9459914     1259.643   0.06495684  0.065453486            2 
 1617000   0.99865376   -3.9652688    1261.5511  0.065015004  0.065439673            1 
 1618000    0.9958976   -3.9456997    1268.3691  0.065325974  0.065426122            5 
 1619000    1.0022986    -3.961553    1264.1513  0.065068526  0.065411981            4 
 1620000   0.97144916   -3.9295404    1263.6603  0.065003104  0.065397963            1 
 1621000    1.0038785   -3.9798848    1260.9103  0.064821628  0.065383767            2 
 1622000    0.9849871   -3.9591029    1264.4414  0.064963082  0.065369601            2 
 1623000    1.0086946   -3.9469971    1263.4472  0.064872004  0.065355711            7 
 1624000   0.98775448   -3.9410269    1266.7026  0.064999107  0.065341582            5 
 1625000    0.9928284   -3.9645841    1267.6435  0.065007361  0.065327466            1 
 1626000   0.97369778   -3.9835365    1267.8003  0.064975417    0.0653131            3 
 1627000   0.98114085   -3.9704935    1259.2815  0.064499155  0.065298687            2 
 1628000   0.97119548    -3.991235    1264.8919  0.064746721  0.065284379            3 
 1629000   0.98580359   -3.9497419    1264.5903  0.064691542  0.065270039            3 
 1630000   0.98621339   -3.9444849    1268.0785  0.064830191  0.065255884            4 
 1631000   0.98785245   -3.9678872    1266.4091  0.064705147  0.065241485            2 
 1632000    0.9985184   -3.9591173    1266.5452  0.064672447  0.065227092            3 
 1633000   0.99348367   -3.9713448    1268.9228  0.064754173  0.065212848            3 
 1634000   0.98719979   -3.9844502    1263.0278  0.064413904  0.065198583            2 
 1635000    0.9976091   -3.9507032    1270.3976  0.064750131  0.065184569            2 
 1636000   0.99198288   -3.9400804    1268.5129  0.064614555  0.065170688            3 
 1637000    0.9827432   -3.9637388    1272.2387  0.064764749  0.065156404            2 
 1638000   0.98381192   -3.9651475    1271.2203  0.064673396  0.065142418            3 
 1639000    1.0112398   -3.9614975    1278.5649  0.065007368  0.065128186            3 
 1640000    1.0019321   -3.9338216    1273.9605  0.064733765  0.065114176            2 
 1641000    1.0022115   -3.9558803    1272.8752  0.064639203  0.065100204            4 
 1642000   0.96309636   -3.9537376    1275.5335   0.06473475  0.065085679            4 
 1643000    1.0045596   -3.9835137    1272.1731   0.06452491  0.065071779            3 
 1644000   0.98372783   -3.9499257    1276.1096  0.064685199  0.065057563            2 
 1645000   0.99226858   -3.9500656     1274.567  0.064567731  0.065043354            3 
 1646000   0.97665109   -3.9551706    1274.0575  0.064502708  0.065028888            2 
 1647000    0.9800694   -3.9315471    1277.0494  0.064614927  0.065014258            5 
 1648000   0.97772599   -3.9426064    1275.7853    0.0645118  0.065000203            2 
 1649000   0.98035118   -3.9742332    1275.6893  0.064467825  0.064985999            3 
 1650000   0.96982411   -3.9768602     1274.627  0.064375101  0.064971398            4 
 1651000   0.98211188   -3.9362804    1275.9938    0.0644051  0.064956807            2 
 1652000   0.98302216   -3.9404809    1278.1404  0.064474396  0.064942398            2 
 1653000   0.98711757   -3.9705523    1278.1501  0.064435879  0.064928387            3 
 1654000   0.98757842   -3.9695741    1280.5902   0.06451986  0.064913932            7 
 1655000   0.97847114    -3.958059    1283.4864  0.064626708  0.064899711            1 
 1656000     0.982791   -3.9390699    1284.3514  0.064631208  0.064885298            3 
 1657000   0.96244521   -3.9814272    1283.7188  0.064560389  0.064871051            3 
 1658000   0.99646465   -3.9505623    1287.0432  0.064688539  0.064856836            3 
 1659000   0.98209882   -3.9570186    1281.8496  0.064388666   0.06484264            2 
 1660000   0.97667676   -3.9621841    1284.2361  0.064469682  0.064828364            4 
 1661000    1.0053692   -3.9285412    1283.1227   0.06437501  0.064814063            3 
 1662000   0.98633131   -3.9733663    1277.1512  0.064036864  0.064799813            1 
 1663000   0.99796662   -3.9735112    1276.6303  0.063972256  0.064785182            4 
 1664000   0.99262765   -3.9641171    1282.9873  0.064252166  0.064770555            4 
 1665000     1.002384    -3.970393    1284.4128  0.064284925  0.064756386            2 
 1666000    1.0049885   -3.9290776    1290.5491  0.064553278  0.064741952            3 
 1667000   0.99852947   -3.9754851    1281.7677  0.064075571  0.064727712            3 
 1668000   0.98781329   -3.9704718    1288.9198  0.064394476  0.064713112            2 
 1669000   0.99146981   -3.9646806     1285.896  0.064204914  0.064698728            3 
 1670000    1.0205402   -3.9264074    1285.7147  0.064157421  0.064684585            3 
 1671000   0.97300132   -3.9811252    1283.7522  0.064021154  0.064669967            2 
 1672000    0.9600587   -4.0054939    1283.3846  0.063964545  0.064655245            7 
 1673000    0.9502783   -3.9519555    1291.1535  0.064313285  0.064640742            1 
 1674000   0.97850018   -3.9418315    1288.5115  0.064143344  0.064626051            3 
 1675000   0.98510917   -4.0039859    1287.9005  0.064074652  0.064611927            5 
 1676000    0.9866776   -3.9625712    1290.1628  0.064148908  0.064597319            2 
 1677000   0.97783411   -3.9563141    1289.0488  0.064055297  0.064583073            3 
 1678000   0.98784291   -3.9570513    1293.6184  0.064244062  0.064568535            4 
 1679000   0.96880789    -3.955127    1291.5926  0.064105253  0.064554014            2 
 1680000   0.98130805   -3.9476456    1290.3334  0.064004635  0.064539316            1 
 1681000    1.0062229   -3.9259344    1293.3346  0.064115337  0.064524775            2 
 1682000   0.99451985   -3.9424697    1292.2025  0.064021132    0.0645103            3 
 1683000   0.97266953   -3.9857256    1293.3561  0.064040209  0.064495593            2 
 1684000   0.99707523   -3.9584556       1293.7    0.0640192  0.064481254            3 
 1685000   0.98691853   -4.0029786    1291.6935  0.063881973  0.064466763            2 
 1686000   0.94795132   -3.9678439    1290.6792  0.063793951  0.064452585            2 
 1687000   0.98029378   -3.9842156    1297.0204  0.064069375  0.064437965            4 
 1688000   0.97480677   -3.9658875    1289.7361  0.063671807  0.064423536            3 
 1689000   0.98501121    -3.977319    1294.8497  0.063886409  0.064408738            3 
 1690000    0.9300287   -3.9719155    1296.7118  0.063940426  0.064393861            4 
 1691000   0.99453539   -3.9951573    1293.2142   0.06373025  0.064379184            5 
 1692000   0.97205334   -3.9699393    1295.2946  0.063795044  0.064364395            2 
 1693000    0.9634535   -3.9841694     1296.797  0.063831318   0.06434966            4 
 1694000   0.97792687   -3.9579063    1295.7843  0.063743818  0.064334893            2 
 1695000   0.98298512   -3.9393299    1295.8956  0.063711679    0.0643207            3 
 1696000   0.99216822   -3.9759384    1293.9857   0.06358027  0.064305993            3 
 1697000   0.97121714   -3.9611117    1303.3619  0.064003234   0.06429146            4 
 1698000   0.97828239   -3.9610892    1299.6338  0.063782577  0.064276873            2 
 1699000   0.97156205   -4.0240946    1295.0373  0.063519587  0.064262078            7 
 1700000   0.98908859   -3.9633737    1299.1284  0.063682766  0.064247386            5 
 1701000   0.99125805   -3.9835305    1295.9187  0.063488082  0.064232525            4 
 1702000   0.96670473   -3.9437628    1299.1716  0.063610046  0.064217488            2 
 1703000   0.98893724   -3.9902861    1298.8715  0.063558009  0.064202945            4 
 1704000   0.96529485   -3.9652169    1302.1304  0.063680088  0.064188367            8 
 1705000   0.97278913   -3.9706289    1300.0606  0.063541573  0.064173468            3 
 1706000   0.97444569   -3.9606841    1303.0249  0.063649123   0.06415869            1 
 1707000   0.98942463   -3.9561766    1303.4424  0.063632219  0.064144221            2 
 1708000   0.94555483   -3.9843701     1293.911   0.06312993  0.064129287            4 
 1709000    1.0025884   -3.9563817    1303.5132  0.063561207  0.064114257            5 
 1710000   0.96690978   -3.9842869    1298.9153  0.063299966  0.064099298            3 
 1711000   0.97911511   -3.9479199    1307.7431  0.063692923  0.064084343            2 
 1712000   0.98127574   -3.9766006    1302.0681  0.063379484  0.064069293            4 
 1713000   0.98973118   -3.9768605    1304.1134  0.063441981  0.064054146            6 
 1714000   0.97572365   -3.9444918    1303.8509  0.063392207  0.064039058            6 
 1715000   0.96761171   -3.9431925    1308.8184  0.063596619  0.064024022            4 
 1716000    1.0243192   -3.9652993    1306.2663  0.063435619  0.064008979            3 
 1717000   0.97137015    -4.042052    1297.2528  0.062961211  0.063993824            2 
 1718000   0.97663555   -3.9680871    1303.9433  0.063249095  0.063978581            2 
 1719000   0.99362404   -3.9858846    1304.4757  0.063238106  0.063963369            3 
 1720000   0.98251271   -4.0027268    1303.6383  0.063160772  0.063948123            6 
 1721000   0.94757592    -3.967287    1304.9989  0.063189951  0.063932574            1 
 1722000   0.97321498   -4.0029162    1302.1366  0.063014739  0.063917051            2 
 1723000   0.99352151   -3.9903097    1307.4297  0.063234169  0.063901688            2 
 1724000   0.98036915   -3.9670838    1301.6748  0.062919316  0.063886488            3 
 1725000   0.96974394   -3.9717977    1307.2941  0.063154305  0.063871239            2 
 1726000   0.96629076   -3.9848801    1310.7223  0.063283233  0.063856156            3 
 1727000   0.97851313   -3.9902715    1306.3757   0.06303685  0.063840795            3 
 1728000   0.96680987   -3.9933598    1307.8953  0.063073653  0.063825447            4 
 1729000   0.95518219   -3.9628257    1308.2593  0.063054718  0.063809903            4 
 1730000   0.97931877   -3.9912955    1307.0914  0.062962013  0.063794437            2 
 1731000   0.98177531    -3.975573    1310.4569  0.063087661  0.063779181            4 
 1732000   0.96764571   -3.9761129    1313.8251  0.063213292    0.0637639            5 
 1733000   0.99209867   -3.9900116     1311.665  0.063072944  0.063748639            9 
 1734000    1.0030715   -3.9699662    1315.8964  0.063239925  0.063733851            1 
 1735000   0.97541467   -3.9892575    1310.6983  0.062953807  0.063718801            4 
 1736000   0.97038999   -3.9800469    1311.2832  0.062945623  0.063704016            6 
 1737000   0.96985274   -3.9743195    1318.6905   0.06326475  0.063689531            2 
 1738000   0.97145987   -4.0017734    1312.7361  0.062942853  0.063674808            3 
 1739000   0.96459198   -3.9862239    1318.0941  0.063163412  0.063660376            4 
 1740000   0.96987238   -3.9871907    1319.2928  0.063184519  0.063645799            4 
 1741000   0.97302311   -3.9826126    1319.1284  0.063140362    0.0636311            3 
 1742000    0.9787919   -3.9899979    1316.8503  0.062995136  0.063616521            3 
 1743000   0.96063425   -3.9780934    1318.9568  0.063059703   0.06360178            3 
 1744000   0.97566057   -3.9931507    1317.9664  0.062976221  0.063586917            4 
 1745000   0.95608439   -4.0004157    1318.4192  0.062961755  0.063571837            3 
 1746000   0.99082526   -3.9807721    1314.3005  0.062729118  0.063557062            4 
 1747000   0.97111664    -3.975497    1320.6256  0.062994925  0.063542469            3 
 1748000   0.96774653   -3.9743325    1317.2303  0.062797023    0.0635279            7 
 1749000   0.95875677   -3.9824135    1318.4881  0.062821048  0.063512887            2 
 1750000   0.98467056   -3.9925978    1320.5696  0.062884267  0.063498038            3 
 1751000   0.97176974   -3.9906556    1317.7301  0.062713217  0.063482986            3 
 1752000   0.98025517   -4.0059348    1319.4772  0.062760521  0.063467853            2 
 1753000    0.9948599   -3.9660935    1319.5111  0.062726331  0.063452692            3 
 1754000   0.96831713   -3.9933937    1316.7852  0.062561062  0.063437642            3 
 1755000   0.94501074   -3.9696198     1327.472   0.06303286  0.063422279            3 
 1756000   0.98232312   -3.9940117    1321.8403  0.062729704  0.063407355            2 
 1757000   0.97567392   -3.9991686    1325.8232  0.062882907  0.063392398            3 
 1758000   0.97452874   -3.9883195    1324.4728  0.062783125  0.063377373            3 
 1759000   0.95624629   -3.9681255    1329.3141  0.062976789  0.063362221            2 
 1760000   0.96158851   -3.9864483    1326.5606  0.062810636   0.06334713            5 
 1761000   0.97160636    -3.987502    1325.4075    0.0627204  0.063332456            6 
 1762000   0.96531528   -3.9914139    1324.0956  0.062622759  0.063317532            1 
 1763000   0.97127811   -4.0043056    1324.7973  0.062620408  0.063302724            2 
 1764000   0.96725499   -4.0124443    1326.9566  0.062686916  0.063287635            5 
 1765000   0.98476814   -3.9869632     1324.579  0.062539141  0.063272673            3 
 1766000    0.9821201   -3.9774765    1324.2712  0.062489204  0.063257785            4 
 1767000   0.96530855   -4.0076203    1323.9913  0.062440636  0.063242803            3 
 1768000   0.96068429   -3.9887099    1330.1001  0.062693257  0.063227831            3 
 1769000   0.96834212   -3.9923902    1329.7303  0.062640397  0.063212878            2 
 1770000   0.94812824   -3.9872594    1327.7494  0.062511743  0.063198093            2 
 1771000   0.97199941   -4.0315944    1323.5651  0.062279555  0.063183141            2 
 1772000   0.97283715   -4.0130757    1326.9118  0.062401796  0.063168072            4 
 1773000   0.98237682   -3.9880558    1332.3478  0.062622098  0.063152985            5 
 1774000   0.96635659   -3.9605577    1337.5873  0.062832926  0.063138283            3 
 1775000   0.96125486   -3.9820279    1336.3862  0.062741138  0.063123692            3 
 1776000   0.96068308   -3.9703318    1338.2598  0.062793723  0.063109272            4 
 1777000   0.93496183   -4.0012242    1331.6742  0.062449549  0.063094663            4 
 1778000    0.9735658   -3.9818522    1335.3884  0.062588509  0.063079837            5 
 1779000    0.9816937   -3.9839345    1335.0349  0.062536768  0.063065275            4 
 1780000   0.98915238    -4.018839    1336.9675  0.062592111  0.063050692            2 
 1781000   0.96673923   -3.9858458    1338.7362  0.062639726  0.063036239            2 
 1782000   0.97727695   -4.0173174     1336.679  0.062508371  0.063021942            3 
 1783000   0.95642596   -3.9742675    1347.3335   0.06297128  0.063007646            2 
 1784000   0.96135868   -3.9567914    1343.0958  0.062738034  0.062993504            2 
 1785000   0.96706126   -4.0014341    1341.1135  0.062610341  0.062979086            2 
 1786000   0.96752247   -3.9701869    1339.9501  0.062521003   0.06296485            2 
 1787000   0.95362977    -3.986183    1342.1657  0.062589337  0.062950632            3 
 1788000   0.94509582   -3.9771069    1342.7037  0.062579406  0.062936279            4 
 1789000   0.97399143    -3.987707    1341.1675  0.062472866  0.062921972            2 
 1790000    0.9251991   -4.0026174    1344.7438  0.062604459  0.062907845            2 
 1791000   0.97927313   -4.0091793    1339.7162  0.062335577  0.062893424            3 
 1792000   0.95804901   -4.0006511    1344.2506  0.062511654  0.062879135            4 
 1793000   0.94229767   -3.9957871    1340.0829  0.062283085  0.062864921            4 
 1794000   0.97089818   -3.9934524    1351.4821  0.062777877  0.062850557            3 
 1795000   0.95451183    -4.023517    1342.4612  0.062324103  0.062836262            2 
 1796000   0.96032744   -3.9935259    1346.2761   0.06246641  0.062821703            2 
 1797000   0.97669991   -4.0045442    1346.0733  0.062422245  0.062807391            2 
 1798000   0.95554959   -3.9945289    1345.4336  0.062357879  0.062793201            3 
 1799000   0.96824311   -3.9884409    1348.6112  0.062470408  0.062778842            4 
 1800000   0.97129176   -3.9711115    1347.5746  0.062387712  0.062764606            3 
 1801000   0.95684664   -4.0033458     1349.358  0.062435592  0.062750381            5 
 1802000   0.97458542   -4.0289927    1349.0054  0.062384638  0.062736059            7 
 1803000   0.95957196   -3.9915848    1347.9343   0.06230053  0.062721885            2 
 1804000   0.98885517   -3.9970679    1349.4354  0.062335337   0.06270758            3 
 1805000   0.99708718     -4.00232    1346.2086  0.062151826  0.062693454            2 
 1806000   0.97551496   -3.9953095    1356.6378  0.062598644  0.062679531            2 
 1807000   0.94555053   -4.0003834    1352.0211  0.062351094  0.062665336            2 
 1808000    0.9625217   -3.9807181    1352.6139  0.062343931  0.062651322            3 
 1809000    0.9745105   -4.0052408    1353.3186  0.062341927  0.062637506            4 
 1810000   0.95389674   -4.0317984    1350.5406  0.062179587  0.062623425            3 
 1811000   0.98141174   -4.0016036    1359.7322  0.062568204   0.06260936            3 
 1812000   0.98325329   -4.0232686    1350.5013  0.062109145  0.062595225            3 
 1813000   0.95478941    -3.971294    1363.8134  0.062686771  0.062581591            2 
 1814000   0.97130178   -3.9876752    1359.4351  0.062451082  0.062567693            3 
 1815000   0.94781033   -4.0150447    1353.3308  0.062136401  0.062553864            6 
 1816000   0.95624422   -3.9860841    1355.8185   0.06221634  0.062540242            5 
 1817000   0.95887583   -4.0101831    1356.2811  0.062203317  0.062526594            4 
 1818000   0.95656382   -3.9943196    1361.6125  0.062413483  0.062512956            3 
 1819000   0.96652254   -4.0183249    1362.5392  0.062421622  0.062499484            5 
 1820000   0.95362478   -3.9974384    1363.8485  0.062447274  0.062485874            3 
 1821000   0.96474659   -4.0255576    1363.1294  0.062380077  0.062472477            2 
 1822000   0.96222554   -4.0044084    1361.7217  0.062281455  0.062458805            3 
 1823000    0.9590601   -3.9888711    1361.9583  0.062258106  0.062445472            3 
 1824000   0.95846718    -4.019433    1362.1524   0.06223284  0.062432005            4 
 1825000   0.96845387   -4.0103942    1365.7667  0.062363778  0.062418713            2 
 1826000   0.95248668   -4.0187967    1366.2717  0.062352671  0.062405228            6 
 1827000   0.96394828   -4.0115593    1362.7457  0.062157712  0.062391813            4 
 1828000   0.94784275   -3.9871879    1367.8181  0.062354947  0.062378369            2 
 1829000   0.95082934   -4.0106125    1364.7991    0.0621833   0.06236494            2 
 1830000   0.98509476   -3.9904251    1365.5584    0.0621839  0.062351579            2 
 1831000   0.95317935   -4.0100384    1364.3982  0.062097132  0.062338341            4 
 1832000   0.98150215   -4.0287855     1366.426  0.062155475  0.062324868            5 
 1833000   0.96047001    -4.002785    1367.1303  0.062153585  0.062311629            4 
 1834000   0.94355318   -3.9938778    1366.8994  0.062109205  0.062298211            4 
 1835000   0.96135277   -3.9979632    1367.2578  0.062091637  0.062284852            4 
 1836000   0.93820423    -4.027303    1369.3035  0.062150668  0.062270896            3 
 1837000    0.9486829   -4.0205894    1366.4627  0.061987964   0.06225705            2 
 1838000   0.94636842   -3.9914168    1368.2859  0.062036903  0.062243359            2 
 1839000    0.9439244   -3.9855349    1367.7627  0.061979461  0.062229773            4 
 1840000   0.96707505   -4.0259828    1370.7252  0.062079946  0.062216035            3 
 1841000   0.96865686   -4.0035464    1370.9516  0.062056474  0.062202439            5 
 1842000   0.97650716   -4.0131588    1366.3238  0.061813419  0.062188749            5 
 1843000   0.95602385   -4.0291998    1373.8669   0.06212095  0.062175037            7 
 1844000    0.9539951   -4.0244743    1372.8839  0.062042838  0.062161237            3 
 1845000    0.9597068     -3.96855    1376.2712  0.062162205  0.062147386            2 
 1846000   0.95154334   -3.9794134    1372.2301  0.061946104  0.062133561            3 
 1847000   0.95561905   -3.9893283    1375.1933   0.06204626  0.062119808            3 
 1848000    0.9340859   -4.0124337    1369.0789  0.061736964  0.062106106            3 
 1849000   0.94480416   -4.0289133    1368.9715  0.061698733  0.062092351            3 
 1850000   0.96072948   -3.9822892    1371.5387  0.061781021  0.062078937            3 
 1851000   0.95510613   -4.0425597    1372.7019  0.061800013  0.062065337            5 
 1852000   0.96957433   -4.0307995    1374.7457  0.061858608  0.062051658            2 
 1853000     0.943045   -4.0098201    1372.5431  0.061726171  0.062037934            1 
 1854000   0.96322721   -4.0113117    1379.5742  0.062008908  0.062024136            4 
 1855000   0.94042411   -3.9895791    1379.2056  0.061958922  0.062010219            2 
 1856000   0.95900427   -4.0120183     1378.163  0.061878726  0.061996378            4 
 1857000    0.9691449   -3.9878579    1380.1846  0.061936126  0.061982919            3 
 1858000    0.9417686   -4.0002048    1373.9077  0.061621265  0.061969276            3 
 1859000   0.95922865   -4.0305043    1372.4234   0.06152158  0.061955472            3 
 1860000   0.95197372   -4.0146873     1385.048  0.062054123  0.061942033            2 
 1861000   0.95972507    -3.997854    1381.0972  0.061843867  0.061928756            2 
 1862000    0.9467293    -4.011915      1384.52  0.061963839  0.061915347            4 
 1863000    0.9685814   -3.9967134    1384.5151  0.061930359  0.061901709            3 
 1864000   0.95934822   -4.0097327    1381.5723  0.061765573  0.061888245            1 
 1865000   0.96033621   -4.0208051    1385.3494  0.061901224  0.061874693            5 
 1866000   0.96786786   -4.0175323    1383.0853  0.061766938  0.061861158            4 
 1867000   0.94941914   -4.0259826    1377.6304  0.061490379  0.061847751            7 
 1868000   0.95373015    -4.020321    1384.4606  0.061762161  0.061834199            8 
 1869000   0.96044185    -3.994718    1384.5562   0.06173338  0.061820753            5 
 1870000   0.96715394   -4.0061403    1387.3624  0.061825418  0.061807441            1 
 1871000   0.96970969   -4.0135515    1385.1549  0.061694056  0.061794066            2 
 1872000   0.96811629   -4.0267925    1381.7779  0.061510768  0.061780984            7 
 1873000   0.95664954   -4.0026037    1387.7773  0.061744854  0.061767469            3 
 1874000   0.95560803    -4.028877    1388.3122   0.06173569  0.061754234            5 
 1875000   0.97520138   -4.0065011    1389.1182  0.061738586  0.061740559            3 
 1876000   0.95583016   -4.0273965    1385.8783  0.061561759  0.061727078            2 
 1877000   0.94822989   -4.0181318    1386.9495  0.061576517  0.061713627            2 
 1878000   0.96162514   -4.0034373    1386.5295  0.061525094  0.061699936            6 
 1879000   0.98175126   -4.0163585    1389.6931  0.061632654  0.061686241            2 
 1880000   0.96518867   -4.0339609    1387.7908  0.061515547  0.061672433            3 
 1881000   0.95165635   -4.0434144    1391.0747  0.061628329  0.061658811            3 
 1882000    0.9576109   -4.0438227    1381.4384  0.061168896  0.061644922            3 
 1883000   0.95092027   -4.0082005    1385.7052  0.061325245  0.061631457            4 
 1884000   0.96446101   -3.9884414    1394.7292  0.061691846  0.061618142            3 
 1885000   0.96999253   -3.9990645     1395.963  0.061713659  0.061605018            2 
 1886000   0.94046643   -4.0248055    1388.4849  0.061350516  0.061591742            4 
 1887000   0.94801282   -4.0049457    1391.3125  0.061442875  0.061578394            2 
 1888000   0.95650094   -3.9880399    1391.1372  0.061402594  0.061565056            2 
 1889000   0.92615884   -4.0226919    1389.5073  0.061298187  0.061551649            3 
 1890000    0.9531222   -4.0295436    1389.2345  0.061253724  0.061538075            2 
 1891000   0.96393027   -4.0235588    1396.5109  0.061541992  0.061524666            3 
 1892000   0.95797427   -4.0215161    1396.8143  0.061522829  0.061511211            3 
 1893000   0.94856775   -4.0209351    1392.9211  0.061318943  0.061497979            2 
 1894000   0.95148208   -4.0347649    1395.9908  0.061421628  0.061484861            6 
 1895000   0.94719057   -4.0274548    1398.6329  0.061505406  0.061471661            3 
 1896000   0.93629276   -3.9997283    1391.9972  0.061181311  0.061458269            7 
 1897000   0.94266763   -4.0335967    1401.7386  0.061576989  0.061444935            5 
 1898000    0.9671848    -4.003881    1400.4141  0.061486395    0.0614321            2 
 1899000   0.93584126    -4.011015    1399.8691  0.061430099  0.061419265            3 
 1900000   0.94378032   -4.0136288    1399.4363  0.061378784  0.061406332            3 
 1901000   0.96401263   -3.9897305    1404.9616  0.061588706  0.061393455            3 
 1902000   0.97049164    -3.999082    1397.9573  0.061249444  0.061380662            2 
 1903000   0.94361833   -4.0261537    1400.8746   0.06134501  0.061367744            5 
 1904000   0.94839007   -4.0107608    1404.9613  0.061491651  0.061354829           10 
 1905000   0.95732703   -4.0224363     1400.685   0.06127231  0.061341861            3 
 1906000   0.93713917   -4.0154803     1405.291  0.061441542  0.061328983            4 
 1907000   0.96012799   -4.0407692    1402.7709  0.061299198  0.061315956            4 
 1908000   0.95731822   -4.0505689    1402.8911  0.061272325  0.061302802            4 
 1909000   0.94917205   -4.0324465    1405.4194  0.061350595  0.061289956            3 
 1910000   0.94138254   -4.0101119    1404.4172  0.061274746  0.061277158            2 
 1911000   0.95660416   -4.0357956     1406.787  0.061346021  0.061264092            5 
 1912000   0.93880459   -4.0260879    1403.2701  0.061160657  0.061250838            6 
 1913000   0.93382435   -4.0465525    1405.8479  0.061240976  0.061237739            5 
 1914000   0.94588711   -4.0191352    1404.9301  0.061169023  0.061224613            2 
 1915000   0.96125379   -4.0404643    1408.0499  0.061272843  0.061211609            2 
 1916000   0.96665614    -4.023774    1403.9066  0.061060657  0.061198366            5 
 1917000    0.9456189   -4.0517746    1406.0342   0.06112129  0.061185392            3 
 1918000   0.95858911   -4.0210101    1407.3018  0.061144498  0.061172513            2 
 1919000   0.95182225   -4.0166345    1405.7778  0.061046458  0.061159684            6 
 1920000   0.94028072   -4.0486819    1409.7736  0.061188092  0.061146771            4 
 1921000   0.95848881     -4.02852     1409.601   0.06114875  0.061133771            3 
 1922000   0.91993631   -4.0165246    1413.5068   0.06128628   0.06112091            6 
 1923000   0.91603256   -4.0057112    1410.6261  0.061129577  0.061107799            4 
 1924000   0.94011021   -4.0210894    1416.8269  0.061366375  0.061094811            4 
 1925000   0.92799925   -4.0051965    1413.3767   0.06118514  0.061081702            7 
 1926000   0.94751865   -4.0145246    1414.8282  0.061216175  0.061068604            5 
 1927000   0.92557825    -4.037001    1411.0607  0.061021481  0.061055282            2 
 1928000   0.95499162   -4.0213364    1409.6824  0.060930254  0.061042007            3 
 1929000   0.95443595   -4.0138696    1411.8067   0.06099044  0.061028715            5 
 1930000   0.93165751   -3.9887494    1417.0474  0.061185122  0.061015794            3 
 1931000   0.92431654   -4.0281895    1413.5152  0.061001002  0.061002839            3 
 1932000   0.93162744    -4.034554    1411.9742  0.060902959  0.060989644            2 
 1933000   0.93582714   -4.0375525     1407.081  0.060660502  0.060976639            4 
 1934000   0.95038334   -4.0006431    1419.0077  0.061143039  0.060963657            4 
 1935000   0.94052009   -4.0178952    1423.0417  0.061285172  0.060950938            5 
 1936000    0.9422942   -4.0464449    1416.9188  0.060989962  0.060938079            3 
 1937000   0.93135714   -4.0419263    1417.3498  0.060977019   0.06092527            3 
 1938000    0.9381488   -4.0331074    1420.6786  0.061088693  0.060912379            2 
 1939000   0.93204848   -4.0207942    1426.9002  0.061324573  0.060899551            3 
 1940000   0.94422191   -3.9944141    1419.4469  0.060972806  0.060886807            2 
 1941000   0.97565158   -4.0283128    1423.1426  0.061100062  0.060874067            5 
 1942000   0.94715411   -4.0141595    1427.3558   0.06124939  0.060861427            4 
 1943000   0.93383249   -4.0452537    1417.2384  0.060783941  0.060848459            9 
 1944000   0.95441926   -4.0294625    1418.9977  0.060828092  0.060835699            5 
 1945000   0.94388048    -4.049554     1424.576  0.061035819  0.060822905            4 
 1946000   0.93711895    -4.054462    1420.9668  0.060849897  0.060810241            2 
 1947000   0.94285982   -4.0272015    1424.2595  0.060959576  0.060797504            4 
 1948000   0.95648295   -4.0101175    1422.2743  0.060843358  0.060784593            3 
 1949000   0.94698152   -4.0164073    1428.6092  0.061082999   0.06077186            4 
 1950000    0.9303628   -4.0615912    1425.2619  0.060908628   0.06075939            2 
 1951000   0.95844338   -4.0450589    1419.7882   0.06064361  0.060746891            3 
 1952000   0.92779938    -4.044222     1429.328  0.061019807  0.060734204            3 
 1953000   0.93670093   -4.0270807    1427.5726  0.060913663  0.060721591            3 
 1954000   0.92614749    -4.040153    1429.8664  0.060980316  0.060709166            2 
 1955000   0.94453772   -4.0209479    1424.5429  0.060722205  0.060696558            7 
 1956000   0.94761432   -4.0376995    1424.0961  0.060672122  0.060684174            5 
 1957000   0.92512057   -4.0776841    1428.4006  0.060824415  0.060671698            3 
 1958000   0.93791135    -4.012748    1433.6343  0.061016102   0.06065912            5 
 1959000   0.93766174    -4.067162    1430.0837  0.060833915  0.060646682            1 
 1960000   0.90746317   -4.0616987    1431.5085  0.060863459  0.060634292            4 
 1961000   0.91994048   -4.0399898    1432.1109   0.06085802  0.060621828            2 
 1962000   0.95212044   -4.0333237    1433.7402  0.060896205  0.060609369            2 
 1963000   0.90940432   -4.0470283    1427.9112  0.060617728  0.060596886            4 
 1964000   0.94037611   -4.0201644    1436.1144   0.06093493  0.060584451            4 
 1965000   0.94348128   -4.0521774    1433.5624  0.060795691  0.060572366            2 
 1966000    0.9328037   -4.0466037    1436.0292  0.060869327  0.060560173            1 
 1967000   0.91919458   -4.0327929    1437.7059  0.060909419  0.060547906            3 
 1968000   0.91230673   -4.0829512    1431.0671  0.060597354  0.060535604            4 
 1969000   0.93738282   -4.0421887    1439.0239  0.060903331  0.060523088            3 
 1970000   0.94965824   -4.0446601    1435.4751  0.060722295  0.060510862            3 
 1971000   0.93521576    -4.053391    1435.4571  0.060690727  0.060498592            6 
 1972000   0.93391297   -4.0371375     1440.282  0.060863846  0.060486237            5 
 1973000   0.95033979   -4.0281902    1443.6653  0.060975894  0.060474148            2 
 1974000   0.92394337   -4.0589574    1436.5105  0.060642965  0.060461962            3 
 1975000   0.93016797   -4.0707102    1436.4587  0.060610071  0.060449779            3 
 1976000   0.93183599   -4.0648919    1438.3986   0.06066121  0.060437216            5 
 1977000   0.94438904   -4.0525762    1436.5201  0.060551347  0.060424795            1 
 1978000   0.93756731     -4.03109    1440.9964  0.060709319  0.060412263            8 
 1979000   0.95038997   -4.0393708    1440.3741  0.060652439  0.060399917            6 
 1980000   0.93049057   -4.0164393    1439.0171  0.060564693  0.060387616            4 
 1981000   0.92621395    -4.031529    1443.4987  0.060722643  0.060375112            3 
 1982000   0.92146411   -4.0503898    1431.6428  0.060193524  0.060362827            9 
 1983000    0.9355585    -4.027093    1441.9735  0.060597306  0.060350343            2 
 1984000    0.9295235   -4.0055352    1441.0958  0.060529898  0.060338002            2 
 1985000    0.9381131   -4.0457931    1436.0161  0.060286151  0.060325432            2 
 1986000   0.93404361   -4.0334324    1445.7376  0.060663715  0.060312768            2 
 1987000   0.95406524   -4.0290074     1447.805  0.060719887  0.060300392            4 
 1988000   0.92749152   -4.0650402    1442.8489  0.060481593  0.060287969            7 
 1989000   0.92875872   -4.0491245    1438.3916   0.06026444  0.060275149            6 
 1990000   0.93620699   -4.0534702    1444.9552   0.06050901   0.06026253            3 
 1991000   0.91403841   -4.0443095    1443.5885  0.060421416  0.060250254            4 
 1992000   0.92446102   -4.0814588     1447.249   0.06054422  0.060237998            2 
 1993000   0.92794732   -4.0337606    1446.9846  0.060502783  0.060225613            3 
 1994000   0.94325847   -4.0423626    1449.4794  0.060576707  0.060213631            5 
 1995000   0.94310258   -4.0361011    1446.7904  0.060434017  0.060201647            3 
 1996000   0.93772932   -4.0450558     1447.511  0.060433827  0.060189359            6 
 1997000    0.9405926   -4.0525657    1446.5141  0.060361963  0.060177193            8 
 1998000   0.94588257   -4.0506544    1450.2372  0.060487037   0.06016492            3 
 1999000   0.93041881   -4.0498604    1449.4144  0.060422477  0.060152832            2 
 2000000   0.94239303   -4.0700838    1453.0918  0.060545491  0.060140941            4 
 2001000   0.93229502    -4.082214    1450.1496  0.060392704   0.06012881            5 
 2002000   0.93245437   -4.0470159    1456.5078  0.060627196  0.060116882            5 
 2003000   0.93228789   -4.0387008    1452.1107  0.060413992  0.060104596            4 
 2004000    0.9298434    -4.048284    1457.9535  0.060626807  0.060092373            8 
 2005000   0.92761651   -4.0333698    1453.0997  0.060394836  0.060080333            3 
 2006000   0.93918084   -4.0554051    1448.8043  0.060186285  0.060068327            3 
 2007000   0.91248838   -4.0598879    1450.3129  0.060218939  0.060055993            4 
 2008000   0.93511822   -4.0560922    1451.5465  0.060240143  0.060043874            3 
 2009000   0.93395824   -4.0295129    1456.1721  0.060402029  0.060031514            4 
 2010000   0.92493885   -4.0266322      1448.74  0.060063849  0.060019263            2 
 2011000   0.94094846    -4.045021    1458.6194  0.060443371  0.060007175            6 
 2012000   0.92749224    -4.047147    1459.5997  0.060453932  0.059995045            6 
 2013000   0.94401281   -4.0648054    1456.0175  0.060275606  0.059982963            3 
 2014000   0.93267746   -4.0606607    1455.2726  0.060214854  0.059970959            3 
 2015000   0.93509151   -4.0321102    1462.5159  0.060484529  0.059959073            4 
 2016000   0.94193411   -4.0508929    1462.8235  0.060467241  0.059947235            2 
 2017000   0.92820419   -4.0375905    1463.9407  0.060483419  0.059935306            4 
 2018000   0.93096554   -4.0516101    1458.1652  0.060214951  0.059923171            4 
 2019000   0.92387754   -4.0636693    1457.1582  0.060143562  0.059911274            3 
 2020000   0.94410342   -4.0539919    1463.1914  0.060362682  0.059899563            2 
 2021000    0.9144179   -4.0707509    1464.7992  0.060399111  0.059887572            3 
 2022000   0.93133996   -4.0456318    1455.1284  0.059970673  0.059875545            5 
 2023000   0.92064244    -4.023752     1466.193  0.060396811  0.059863745            4 
 2024000    0.9170601   -4.0495589    1462.9444  0.060233218   0.05985204            2 
 2025000   0.92688849   -4.0749004    1462.7916  0.060197185  0.059840152            2 
 2026000    0.9151709     -4.08369    1467.1473  0.060346633  0.059828078            3 
 2027000   0.93819687   -4.0520268    1465.6894  0.060256923  0.059816311            3 
 2028000   0.94091085   -4.0847029    1458.9225   0.05994915  0.059804346            2 
 2029000     0.937591   -4.0612707    1465.4453  0.060187502  0.059792451            4 
 2030000   0.93754525   -4.0480628    1466.0983   0.06018466  0.059780686            5 
 2031000   0.94956829   -4.0532219    1462.7437  0.060017384  0.059768884            3 
 2032000   0.93406095   -4.0663566    1463.7848  0.060030546  0.059756962            2 
 2033000   0.92600112   -4.0568751     1464.956  0.060049024  0.059745059            3 
 2034000   0.91797885   -4.0791031    1467.3632  0.060118126  0.059733041            5 
 2035000   0.90513031   -4.0396252    1468.5057  0.060135367  0.059721169            3 
 2036000   0.94082286   -4.0207578    1468.7486  0.060115774  0.059709395            8 
 2037000    0.9427539   -4.0562193    1471.8091  0.060211467  0.059697565            5 
 2038000   0.93002677   -4.0377902    1473.1482  0.060236677  0.059685795            3 
 2039000   0.93103189   -4.0443655    1467.4141  0.059972787  0.059674065            2 
 2040000   0.92265052   -4.0712537    1469.3965  0.060024367  0.059662001            3 
 2041000   0.93048728   -4.0393152    1469.8057  0.060011664  0.059649989            4 
 2042000   0.93632867   -4.0413217    1470.1681  0.059997064  0.059638133            2 
 2043000   0.91726034   -4.0800638     1471.223  0.060010726   0.05962629            3 
 2044000   0.92500188   -4.0345361    1473.9235  0.060091465  0.059614297            2 
 2045000   0.93038315   -4.0677503    1468.5505  0.059843135   0.05960232            4 
 2046000   0.93185767   -4.0480196    1470.0498   0.05987495  0.059590301            5 
 2047000   0.91669642   -4.0690786    1467.3627  0.059736311  0.059578274            4 
 2048000    0.9499599   -4.0566942    1473.1955  0.059944478  0.059566187            3 
 2049000   0.92937971   -4.0557422    1475.9558  0.060027484  0.059554143            3 
 2050000   0.90849416   -4.0663203    1476.4118   0.06001674  0.059542218            3 
 2051000   0.91941686   -4.0661776    1471.3696  0.059782608  0.059530151            4 
 2052000   0.92501896   -4.0671215    1475.4114  0.059917618  0.059518082            3 
 2053000   0.93272352   -4.0507843     1473.819  0.059823795  0.059506061            5 
 2054000   0.94246903   -4.0647954    1472.4522  0.059739215  0.059493995            3 
 2055000   0.91577921   -4.0518879    1476.9279  0.059891641  0.059482089            7 
 2056000   0.92263648   -4.0367671    1484.2873  0.060160803  0.059470023            3 
 2057000   0.92534292   -4.0695928    1478.6133  0.059901689  0.059458023            5 
 2058000   0.90315574   -4.0508326    1474.6402  0.059711703   0.05944604            4 
 2059000   0.90881182   -4.0432796    1476.6072  0.059762314  0.059433905            5 
 2060000    0.9139303   -4.0687118    1472.0869   0.05955044  0.059421827            3 
 2061000   0.92318769   -4.0840083    1474.0865  0.059602399  0.059409849            4 
 2062000   0.93298572   -4.1169908    1473.4515  0.059547828  0.059397658            3 
 2063000   0.90010482   -4.0914141    1476.2243  0.059630969  0.059385429            2 
 2064000   0.90962648   -4.0368245    1479.9386  0.059752043  0.059373423            6 
 2065000   0.93903871    -4.096348    1476.6577  0.059590708  0.059361732            3 
 2066000   0.90365116   -4.0342142    1484.1636  0.059864618    0.0593497            5 
 2067000   0.93451117   -4.0662794    1478.9541  0.059625628  0.059337644            5 
 2068000    0.9263518   -4.0458018     1481.397  0.059695235  0.059325538            3 
 2069000   0.92860179   -4.0934633    1475.5236   0.05942982  0.059313276            8 
 2070000   0.93006054   -4.0518064    1488.7317  0.059932839  0.059301006            3 
 2071000   0.93120915   -4.0900535    1480.8183  0.059585477   0.05928885            3 
 2072000    0.9147512   -4.0939325    1483.5159  0.059665216  0.059276811            4 
 2073000   0.92478597   -4.0602145    1476.5463  0.059356258  0.059264519            2 
 2074000   0.92445755   -4.0653116    1481.9854  0.059546182  0.059252305            6 
 2075000   0.94223404   -4.0753162    1481.7543  0.059508204  0.059240214            2 
 2076000   0.92281841   -4.0724051    1487.3585  0.059704498  0.059228231            4 
 2077000   0.90477284   -4.0677327    1479.8129  0.059373009  0.059216253            4 
 2078000   0.92594775   -4.0553865    1487.5494  0.059654692  0.059204299            1 
 2079000   0.92803544   -4.0654502    1484.1149  0.059488332  0.059192223            2 
 2080000   0.90992972   -4.0615462    1483.2264  0.059424135  0.059180096            3 
 2081000   0.93070955   -4.1103004    1483.7001  0.059414549  0.059167947            7 
 2082000   0.92235417   -4.0541103    1483.1497  0.059363982  0.059155915            4 
 2083000   0.94241664   -4.0677743    1485.4508  0.059427542  0.059143837            3 
 2084000   0.90053107   -4.0501884    1490.4914  0.059600585  0.059131834            4 
 2085000   0.90573312    -4.082518    1486.4709  0.059411306  0.059120073            4 
 2086000   0.90964818   -4.0695666    1488.6763  0.059470928    0.0591082            5 
 2087000   0.91786031   -4.0761585    1483.9125  0.059252215  0.059096108            6 
 2088000   0.90849641   -4.0495991    1488.0287  0.059388117  0.059084112            2 
 2089000   0.91426058   -4.0948317    1487.4404   0.05933622  0.059071899            4 
 2090000   0.91444139   -4.0792736    1486.0306   0.05925162  0.059059825            4 
 2091000   0.91807343     -4.06948    1488.0194  0.059302543  0.059047645            2 
 2092000   0.89753282   -4.0960546    1488.6089  0.059297676  0.059035425            3 
 2093000   0.91727562   -4.0556142    1492.4932     0.059424  0.059023345            3 
 2094000   0.91561699   -4.0817523    1488.9327  0.059253929  0.059011252            2 
 2095000   0.91968379   -4.0732212    1488.2453    0.0591983   0.05899916            3 
 2096000   0.92634593   -4.0695702    1487.7892  0.059151923  0.058987228            8 
 2097000     0.917226   -4.0796988    1486.2985  0.059064475  0.058975344            2 
 2098000   0.91813418   -4.0649276    1492.5731  0.059285553  0.058963368            5 
 2099000   0.92067795   -4.0737189     1491.097  0.059198704  0.058951545            2 
 2100000   0.91614858   -4.0910137    1491.9355  0.059203789  0.058939544            5 
 2101000   0.92742094   -4.0989744    1490.2416  0.059108426  0.058927466            6 
 2102000   0.93034248   -4.0536519    1496.5167  0.059329078   0.05891542            3 
 2103000   0.89574704   -4.0752144    1497.6278  0.059344897   0.05890366            3 
 2104000   0.91056194   -4.0484055    1497.8573  0.059325781  0.058891856            3 
 2105000   0.93106771   -4.0673484    1499.4058    0.0593589  0.058880201            4 
 2106000   0.91341325   -4.0980423    1495.6046  0.059180301  0.058868388            4 
 2107000   0.89692124   -4.1046499    1490.7813   0.05896145   0.05885632            5 
 2108000   0.90222358   -4.0702208    1492.7833  0.059012622   0.05884411            5 
 2109000   0.91167862   -4.0869614    1500.4885  0.059289098  0.058831936            3 
 2110000   0.92452626   -4.0870623    1495.9318  0.059081036  0.058819876            2 
 2111000   0.90578506   -4.0571432    1502.8606  0.059326568  0.058807891            2 
 2112000   0.89846788    -4.095256    1495.1851  0.058995625  0.058795806            1 
 2113000    0.9178749   -4.0821954    1495.1555  0.058966537  0.058783907            2 
 2114000   0.91581799   -4.0615464     1502.004  0.059208608  0.058771839            2 
 2115000   0.90490489   -4.0956759    1501.8798   0.05917572  0.058759842            9 
 2116000   0.91641421   -4.0610831    1500.4661  0.059092082  0.058747887            3 
 2117000   0.93293372   -4.0551449    1499.5499  0.059028103  0.058735934            8 
 2118000   0.91798294   -4.0671352    1498.3484  0.058952958   0.05872384            2 
 2119000   0.92339424   -4.0801735    1498.5704   0.05893387  0.058711779            5 
 2120000   0.93942845   -4.0819168     1501.149  0.059007429  0.058699869            3 
 2121000   0.90391993   -4.0815891    1496.7878   0.05880826   0.05868789            4 
 2122000   0.92197175   -4.0790896    1504.4248   0.05908046  0.058675857            3 
 2123000   0.93504003   -4.0753699    1506.4447  0.059131915  0.058663859            4 
 2124000   0.92305164   -4.0845237    1501.5846  0.058913393  0.058651821            4 
 2125000   0.91983742   -4.0602603    1502.3065   0.05891398  0.058639767            7 
 2126000   0.91259357   -4.0519097    1503.9452  0.058950502  0.058627822            2 
 2127000   0.92998712   -4.0887649    1505.3472  0.058977714   0.05861585            3 
 2128000   0.92306153   -4.1119359    1502.2622  0.058829189  0.058603761            3 
 2129000   0.93700593   -4.0627236    1504.6471  0.058894908  0.058591698            2 
 2130000   0.92118183   -4.0758382     1508.248  0.059008137  0.058580016            8 
 2131000   0.90916817   -4.1153265    1501.1838    0.0587042  0.058568204            3 
 2132000   0.93410156   -4.0551543    1508.1033  0.058947127  0.058556357            3 
 2133000   0.91193691   -4.0823397    1510.6401  0.059018601  0.058544501           11 
 2134000   0.92948894   -4.0605961    1510.0887  0.058969412  0.058532564            4 
 2135000   0.93050314   -4.0776265    1509.1739  0.058906086  0.058520819            7 
 2136000   0.91316491   -4.0618797    1509.5416  0.058892852  0.058508899            3 
 2137000   0.91184968   -4.0805731    1512.2338  0.058970278  0.058497227            3 
 2138000   0.91079217   -4.1126313    1510.3515  0.058869329  0.058485449            3 
 2139000   0.91474065   -4.0665039    1516.9742   0.05909982  0.058473838            3 
 2140000   0.90599882    -4.088421    1510.5513   0.05882209  0.058462365            3 
 2141000   0.90729347   -4.0832409    1515.8076  0.058999205   0.05845071            3 
 2142000   0.91412613    -4.093107    1515.3557  0.058954081  0.058439472            4 
 2143000   0.89319909   -4.1112559    1516.3066  0.058963549  0.058427991            4 
 2144000   0.91352488   -4.0998296    1515.3371  0.058898364  0.058416391            3 
 2145000   0.90532669    -4.126201    1518.8495   0.05900736  0.058404902            7 
 2146000   0.89670303   -4.0946648    1516.1263  0.058874118  0.058393606            2 
 2147000   0.90585448   -4.0452933    1515.8812  0.058837184  0.058382222            3 
 2148000    0.9109749   -4.1319126    1514.1378  0.058742156  0.058370728            5 
 2149000   0.92590951    -4.087171    1522.4023  0.059035298  0.058359398            4 
 2150000   0.92149166   -4.0860244     1522.509  0.059011977  0.058348043            4 
 2151000    0.8835174   -4.1005626     1521.689  0.058952775  0.058336698            7 
 2152000   0.91195808   -4.0532682    1527.1471  0.059136736  0.058325148            8 
 2153000   0.91739732   -4.1230869     1518.404  0.058770864  0.058313809            2 
 2154000   0.92217859   -4.1229085    1518.4939  0.058747057  0.058302352            2 
 2155000   0.91210619   -4.0900431    1524.3316  0.058945536  0.058291119            6 
 2156000   0.90606163    -4.094667    1519.7645  0.058741672  0.058279989            2 
 2157000   0.91938171   -4.0738927    1524.4569  0.058895724   0.05826862            5 
 2158000   0.91920836   -4.0743389    1520.2525  0.058706073  0.058257268            3 
 2159000   0.90613333   -4.0653928    1527.6179  0.058963172  0.058246054            6 
 2160000   0.89559678   -4.0931406    1516.1798  0.058494591  0.058234729            4 
 2161000   0.90774569   -4.0784717     1525.994  0.058845981    0.0582235            3 
 2162000   0.91156179   -4.0936669    1529.6451  0.058959495  0.058212439            4 
 2163000   0.89710816    -4.094332    1527.9199   0.05886577  0.058201348            2 
 2164000   0.89658055   -4.1027435    1531.9179  0.058992525  0.058190273            4 
 2165000    0.9123033   -4.1022525    1527.7839  0.058806154  0.058179221            5 
 2166000   0.89862944   -4.0875092    1527.4816  0.058767376  0.058167915            2 
 2167000   0.90278104   -4.1037197    1528.3333  0.058773007  0.058156774            5 
 2168000   0.89804494   -4.0612838    1529.5167  0.058791388  0.058145527            4 
 2169000   0.89477476   -4.0882923     1528.956  0.058742738  0.058134348            3 
 2170000    0.9034018   -4.0947364    1534.8187  0.058940812  0.058123287            5 
 2171000    0.9078321   -4.0991933    1527.7351  0.058641758  0.058112255            3 
 2172000   0.90177768   -4.1196572    1527.7456  0.058615163  0.058100954            8 
 2173000   0.90074822    -4.084746    1528.7803  0.058627869   0.05808993            5 
 2174000   0.90056673   -4.0916936    1532.3216  0.058736645  0.058078818            2 
 2175000   0.90007826   -4.1041314    1531.4796   0.05867738  0.058067618            8 
 2176000   0.90094428   -4.0896344    1530.9636  0.058630654  0.058056297            2 
 2177000   0.88590009   -4.0776251    1534.6055   0.05874313  0.058045278            4 
 2178000   0.91105086   -4.1201794    1532.0371  0.058617886  0.058034214            2 
 2179000   0.88398599   -4.0890273    1533.6515  0.058652727  0.058023139            3 
 2180000   0.89324157   -4.0951291    1536.2856  0.058726515  0.058012077            3 
 2181000   0.90279003    -4.104785     1538.736  0.058793214  0.058001119            4 
 2182000   0.89270641   -4.0976279    1535.2608  0.058633548  0.057989962            8 
 2183000   0.88947376   -4.1091368     1534.375  0.058572872  0.057979033            4 
 2184000   0.89757856   -4.1020268     1539.342  0.058735577  0.057968009            4 
 2185000   0.89617096   -4.0903756    1534.8095  0.058535831  0.057956714            3 
 2186000   0.89279485   -4.0874105    1534.1844  0.058485223  0.057945444            4 
 2187000   0.89184208    -4.110719    1533.4573  0.058430777    0.0579343            4 
 2188000   0.90836632   -4.0953179    1542.8674  0.058762471  0.057923306            4 
 2189000   0.88768832    -4.111112    1538.0252  0.058551285  0.057912327            3 
 2190000   0.90117401   -4.1017345    1538.4192  0.058539544  0.057901198            6 
 2191000   0.90349193   -4.1227835    1536.5616  0.058442171   0.05789018            3 
 2192000   0.90800637   -4.0958128    1544.0074  0.058698576  0.057879123            3 
 2193000   0.88989134   -4.0990569    1539.1031  0.058485451  0.057868165            2 
 2194000   0.92437828   -4.0965709    1541.8306  0.058562391  0.057857185            6 
 2195000   0.90329844   -4.0969527    1544.3973  0.058633153  0.057846279            4 
 2196000   0.89621927   -4.1055344    1539.1099  0.058405809  0.057835166            5 
 2197000   0.90703947   -4.1026583    1539.7633  0.058404009   0.05782407            2 
 2198000   0.88873012   -4.1250365    1543.2018  0.058507804   0.05781292            3 
 2199000   0.92185963   -4.1080552    1543.4899  0.058492112   0.05780177            6 
 2200000   0.89733859   -4.0981366    1542.7615  0.058437935  0.057790542            2 
 2201000   0.90703373   -4.1297303    1538.1716  0.058237602  0.057779325            5 
 2202000   0.87883099   -4.0819319     1540.999  0.058318159  0.057767841            2 
 2203000   0.89379984   -4.1316911    1541.4397  0.058308357  0.057756358            4 
 2204000   0.92275865   -4.0911731    1541.2259  0.058273818  0.057745057            5 
 2205000    0.8974607   -4.1319634    1538.7476  0.058153726  0.057733829            2 
 2206000   0.91313751   -4.1247608    1540.2296  0.058183348  0.057722627            5 
 2207000   0.91286106   -4.1112437    1541.9904   0.05822347  0.057711447            3 
 2208000   0.88293455   -4.1021802    1544.3314  0.058285454  0.057700278            5 
 2209000   0.88491829   -4.1143699    1543.1051  0.058212807  0.057689074            2 
 2210000   0.90560654   -4.0971835    1553.1577  0.058565524  0.057678023            2 
 2211000   0.91225468   -4.1270756    1547.0334  0.058308211   0.05766699            5 
 2212000   0.92073918    -4.108891    1552.0436  0.058470598  0.057656031            4 
 2213000   0.89612518   -4.1256994    1543.0497  0.058105502  0.057644968            6 
 2214000   0.88785086   -4.1038114     1546.781  0.058219699  0.057633978            3 
 2215000   0.88676862    -4.108893    1548.8328  0.058270609  0.057622946            4 
 2216000   0.89423612   -4.1069744    1548.1353  0.058218083  0.057611665            3 
 2217000   0.91571706   -4.0865548    1548.0937   0.05819026  0.057600744            8 
 2218000   0.90155794   -4.1211647    1548.7312  0.058187976  0.057589901            2 
 2219000   0.87653329   -4.0948473    1550.7391   0.05823716  0.057578966            4 
 2220000   0.91769688   -4.0643378    1551.2498  0.058230098  0.057568241            2 
 2221000   0.90160612    -4.093737    1555.0156  0.058345176  0.057557417            4 
 2222000   0.90204034    -4.108772     1550.261    0.0581406  0.057546624            5 
 2223000   0.92003237   -4.1298991    1551.3182   0.05815408  0.057535549            3 
 2224000   0.88270457   -4.1133803    1551.3105   0.05812764  0.057524731            3 
 2225000   0.90366274   -4.0818619    1559.1885  0.058396575  0.057513768            3 
 2226000   0.87320561    -4.114937    1552.3651  0.058114895  0.057502879            6 
 2227000    0.9024321   -4.1115106    1553.9364  0.058147598  0.057491762            9 
 2228000   0.90159636   -4.1001337    1559.3107  0.058322515  0.057480969            4 
 2229000   0.89921938   -4.1145398    1559.5345  0.058304715  0.057470018            2 
 2230000    0.8795586   -4.1231368     1556.625  0.058169844  0.057459129            3 
 2231000   0.89859366    -4.097533    1560.9821  0.058306518   0.05744824            3 
 2232000   0.91298233   -4.0984187    1558.4676  0.058186514  0.057437453            2 
 2233000   0.89042044   -4.1295212    1555.9668  0.058067129  0.057426578            4 
 2234000   0.89680305   -4.1043796    1556.7473   0.05807025  0.057415699            4 
 2235000   0.90494198   -4.0891179    1559.9622  0.058164139  0.057404783            2 
 2236000   0.91001999    -4.146919    1557.8567  0.058059655  0.057393798            6 
 2237000   0.88271235   -4.1161017    1559.7641  0.058104759  0.057382971            5 
 2238000   0.89228817   -4.1106919    1559.2138  0.058058305  0.057371971            3 
 2239000   0.90890686    -4.110615     1559.573  0.058045743  0.057361127            4 
 2240000   0.88414238   -4.1329241    1561.9855  0.058109581  0.057350131            3 
 2241000   0.88956539   -4.1230662    1566.0344  0.058234209  0.057339197            2 
 2242000   0.88185659   -4.1179534     1561.457  0.058038098  0.057328386            4 
 2243000   0.88126126   -4.1113695    1562.8939  0.058065609  0.057317561            2 
 2244000   0.88790081   -4.1275158    1564.2593  0.058090439  0.057306579            4 
 2245000   0.86892101   -4.1163411    1563.7106  0.058044193  0.057295679            4 
 2246000   0.88162343   -4.1293314    1564.3756  0.058043025  0.057284791            3 
 2247000   0.87952508   -4.1092057    1566.0267  0.058078425  0.057273911            4 
 2248000   0.88133449   -4.1446125    1563.6433  0.057964238   0.05726328            3 
 2249000   0.89729763   -4.1002108    1560.5856  0.057825166   0.05725241            7 
 2250000    0.8964999   -4.1139312    1566.7915  0.058029316  0.057241891            3 
 2251000   0.88819876   -4.1026302    1570.6188  0.058145225  0.057231224            2 
 2252000   0.90062271   -4.1277476    1570.3103  0.058107991  0.057220624            2 
 2253000   0.88516134   -4.1219473    1568.7249  0.058023556  0.057210042            6 
 2254000   0.88959149   -4.1226799    1568.7149  0.057997444   0.05719947            4 
 2255000   0.88844192   -4.1238305    1566.0389  0.057872836  0.057189037            2 
 2256000   0.91147316   -4.1047236    1570.6935  0.058019117  0.057178725            5 
 2257000   0.89754356   -4.1120493    1578.7554  0.058291073  0.057168371            2 
 2258000      0.86791   -4.1329997    1572.8698  0.058048044  0.057158099            2 
 2259000    0.9074519    -4.142565    1567.5527  0.057826204  0.057147809            2 
 2260000   0.89394238   -4.1119127    1575.1414  0.058080436  0.057137558            4 
 2261000   0.86419928   -4.1135243    1573.8087   0.05800563  0.057127292            3 
 2262000    0.9043495   -4.1344671    1577.7567   0.05812543  0.057117114            3 
 2263000   0.89753694   -4.1280285    1578.6083  0.058131104  0.057106732            3 
 2264000   0.89102933   -4.1021863    1584.7468  0.058331375   0.05709667            5 
 2265000   0.88381847   -4.1333188    1575.5402  0.057966894  0.057086551            5 
 2266000   0.91268571   -4.1103547    1580.8597  0.058136941  0.057076311            2 
 2267000   0.89618547   -4.1173897    1578.1584  0.058011999  0.057066111            4 
 2268000   0.88702626   -4.1200307    1581.0564    0.0580929  0.057055935            6 
 2269000     0.881245   -4.1028383    1581.7405  0.058092424   0.05704575            3 
 2270000   0.89530202   -4.1377697    1576.3006   0.05786713  0.057035471            4 
 2271000   0.86783515   -4.1345071    1576.4226  0.057846125  0.057025244            8 
 2272000   0.88414765   -4.1242488    1579.8603  0.057946754  0.057014775            3 
 2273000   0.88329213   -4.1092108    1572.6847  0.057658187  0.057004391            4 
 2274000   0.87232365   -4.1433806    1574.8281   0.05771138  0.056993997            3 
 2275000   0.87589405    -4.133703    1575.0384  0.057693715   0.05698342            9 
 2276000   0.88050246   -4.1073923    1582.4551  0.057939922  0.056972989            3 
 2277000   0.88470784   -4.1289018    1581.5006  0.057879541  0.056962695            2 
 2278000   0.87420181   -4.1310551    1577.9667  0.057724857  0.056952249            3 
 2279000   0.89263303   -4.0980012    1580.8986  0.057806735  0.056941805            3 
 2280000   0.89141016   -4.1185782    1583.5396  0.057877909  0.056931484            3 
 2281000   0.87468694   -4.1256119    1583.5481  0.057852846  0.056921187            8 
 2282000   0.88315588   -4.1356161     1579.832  0.057691791  0.056910599            9 
 2283000   0.88670208   -4.1407767    1582.8018  0.057774922  0.056900141            5 
 2284000   0.90140495   -4.1384155    1581.3244  0.057695723  0.056889525            5 
 2285000   0.87443485   -4.1351536    1583.8137  0.057761259  0.056879007            4 
 2286000   0.87641547   -4.1308224     1580.649  0.057620626  0.056868483            2 
 2287000   0.87348962   -4.1284618    1583.8649   0.05771261  0.056858056            5 
 2288000   0.88726476   -4.1207937    1586.7832  0.057793677  0.056847688            3 
 2289000   0.88781333   -4.1315228    1586.2599  0.057749379  0.056837419            5 
 2290000   0.88802059    -4.122077    1585.4538  0.057694825   0.05682698            3 
 2291000   0.87871686   -4.1326986    1585.6412  0.057676457  0.056816673            4 
 2292000   0.87288543   -4.1390998    1590.3859  0.057823803  0.056806364            3 
 2293000   0.86988679   -4.1304539    1591.1762  0.057827306  0.056796247            3 
 2294000    0.8812346   -4.1163588    1586.9714  0.057649352  0.056786133            2 
 2295000   0.89455707   -4.1442988     1592.237  0.057815433   0.05677585            6 
 2296000   0.86956329   -4.1200785    1594.2355  0.057862788  0.056765819            3 
 2297000   0.87850937   -4.1222999    1599.7658  0.058038232  0.056755711            3 
 2298000   0.88747351   -4.1183104    1586.5033  0.057532033  0.056745507            2 
 2299000   0.87947067   -4.1300836    1593.1879  0.057749307  0.056735259            3 
 2300000   0.90081985   -4.1275645    1595.6458  0.057813254  0.056725005            4 
 2301000   0.86592713   -4.1240422    1588.7024  0.057536666  0.056714735            2 
 2302000   0.87855162    -4.127954    1591.0376  0.057596207  0.056704579            3 
 2303000   0.88620833   -4.1542906    1593.7355  0.057668821  0.056694642            3 
 2304000   0.88950535   -4.1394345    1593.9682  0.057652206  0.056684441            8 
 2305000   0.88053741   -4.1095961    1600.8338  0.057875407  0.056674369            2 
 2306000   0.90413351    -4.128902    1594.4346  0.057619059  0.056664224            4 
 2307000   0.87776094   -4.1180722    1592.8442  0.057536636  0.056654266            4 
 2308000   0.87610701   -4.1487639    1593.5626  0.057537643  0.056644003            6 
 2309000   0.88410742   -4.1542627    1594.2064  0.057535961  0.056633812            5 
 2310000   0.88983523   -4.1175192    1600.9941   0.05775592  0.056623762            3 
 2311000   0.89411664   -4.1523595    1600.0271  0.057696058   0.05661374            6 
 2312000   0.88602235   -4.1266243    1600.1565  0.057675768  0.056603484            4 
 2313000   0.88481937   -4.1387515    1598.0672  0.057575558  0.056593503            3 
 2314000   0.87602041   -4.1384086    1601.6167  0.057678504  0.056583311            4 
 2315000   0.88021078   -4.1648675    1598.9037   0.05755593   0.05657319            8 
 2316000   0.87822571   -4.1261072    1597.5596  0.057482716  0.056563044            3 
 2317000   0.86345451   -4.0959385    1597.9703  0.057472676  0.056553017            2 
 2318000   0.88560774    -4.097136    1601.3549  0.057569559  0.056542791            3 
 2319000   0.88881696   -4.1610939    1597.7826  0.057416363  0.056532542            5 
 2320000   0.86938208   -4.1546076    1599.4719  0.057452296  0.056522053            5 
 2321000   0.87314516   -4.1532447    1598.0874  0.057377833  0.056511702            9 
 2322000   0.88394942   -4.1201663    1601.4838  0.057475013  0.056501453            3 
 2323000   0.90644505   -4.1512278       1595.5  0.057235615  0.056491021            4 
 2324000   0.89019639   -4.1055624    1603.0991  0.057483472  0.056480684            3 
 2325000   0.86918391   -4.1244689    1609.0711  0.057672798  0.056470458            3 
 2326000   0.88244268   -4.1195894    1598.7276  0.057277428  0.056460311            5 
 2327000   0.87222577   -4.1669378    1599.6471  0.057285742  0.056450024            2 
 2328000   0.89102682   -4.1366711    1598.8651  0.057233144  0.056439761            3 
 2329000   0.87124873   -4.1470612    1600.6886  0.057273816  0.056429595            6 
 2330000   0.87391834   -4.1088141    1605.6557  0.057426885  0.056419299            5 
 2331000    0.8656503    -4.164879    1604.3733  0.057356402  0.056409148            5 
 2332000   0.88975546   -4.1526197    1608.5762  0.057481997  0.056398889            1 
 2333000   0.88146611   -4.1357989    1605.1902  0.057336414  0.056388584            4 
 2334000   0.88379765   -4.1375825    1606.3891  0.057354653   0.05637845            3 
 2335000   0.88155101   -4.1218545    1603.2153   0.05721682  0.056368221            3 
 2336000   0.88376312   -4.1444591    1607.5511  0.057347001  0.056357956            3 
 2337000   0.85836201   -4.1326463    1606.8098  0.057296028  0.056347629            3 
 2338000   0.87339272   -4.1263006    1608.1059  0.057317717  0.056337379            7 
 2339000   0.89188631   -4.1631009    1605.1968  0.057189566  0.056327185            3 
 2340000   0.89293802   -4.1538084    1607.9053  0.057261583  0.056316843            5 
 2341000   0.87119869   -4.1453505    1608.3896  0.057254366  0.056306598            2 
 2342000   0.87687958   -4.1527208    1609.9361  0.057284944  0.056296449            2 
 2343000   0.88510503   -4.1507532    1610.3529  0.057275319  0.056286139            4 
 2344000   0.88713803   -4.1095771     1607.056  0.057133675   0.05627592            2 
 2345000   0.85673354     -4.12784    1609.7167  0.057203863  0.056265653            2 
 2346000   0.88653661   -4.1257974    1607.0211  0.057083729  0.056255491            2 
 2347000    0.8702453   -4.1045343     1613.043  0.057273223  0.056245204            5 
 2348000   0.89142697    -4.125368    1615.1676  0.057324232   0.05623519            3 
 2349000   0.86292403   -4.1521122    1608.5144  0.057063801  0.056224858            2 
 2350000   0.88594624   -4.1762743    1602.7674  0.056835725  0.056214571            3 
 2351000   0.89220293   -4.1509231    1614.1338  0.057214441  0.056204401            2 
 2352000   0.87801171   -4.1301627    1610.1641  0.057049464  0.056194065            2 
 2353000   0.87296031    -4.122393    1613.4815  0.057142707  0.056183853            6 
 2354000   0.88923778   -4.1425318     1612.808  0.057094592  0.056173712            4 
 2355000   0.85442338   -4.1237375    1620.5947  0.057345884   0.05616347            4 
 2356000   0.87271594   -4.1318834    1611.6438  0.057004943   0.05615336            4 
 2357000   0.85600882   -4.1386053    1612.7272  0.057019062  0.056143046            7 
 2358000   0.85078985   -4.1826554    1613.5428  0.057023706  0.056132772            6 
 2359000   0.85229464   -4.1643846    1614.7253  0.057041305  0.056122578            3 
 2360000   0.88529644   -4.1196513    1621.9627  0.057272693  0.056112431            5 
 2361000    0.8665913    -4.149835    1620.5175  0.057197426  0.056102394            6 
 2362000   0.89289638   -4.1333523    1615.3164  0.056989713   0.05609235            3 
 2363000   0.87216912   -4.1469523    1617.4048  0.057039245  0.056082331            4 
 2364000   0.87594678   -4.1551773    1620.2152  0.057114186  0.056072272            4 
 2365000   0.85627989   -4.1483165    1619.7581  0.057073927    0.0560622            5 
 2366000   0.86652868   -4.1419387    1620.2401  0.057066784   0.05605225            4 
 2367000   0.89873128   -4.1462163    1618.9539   0.05699739  0.056042135            3 
 2368000   0.86351604   -4.1558986    1621.2142  0.057052865   0.05603211            2 
 2369000   0.87047895   -4.1558082    1621.2222  0.057029064  0.056022136            2 
 2370000   0.86379217   -4.1706623    1615.7275  0.056811797  0.056011974            8 
 2371000   0.87207518   -4.1521146    1620.1641  0.056943767  0.056001821            4 
 2372000   0.86357452   -4.1599209    1615.1012  0.056741891  0.055991703            5 
 2373000   0.87090998   -4.1516641    1619.9689   0.05688892  0.055981371            2 
 2374000   0.85714694   -4.1626206     1624.307  0.057017234  0.055971351            2 
 2375000   0.88477088   -4.1250991    1620.1535  0.056847491  0.055961219            4 
 2376000   0.86331614   -4.1502571    1624.8318  0.056987649   0.05595115            4 
 2377000   0.86814743   -4.1328485    1617.4554  0.056705071  0.055940928            5 
 2378000   0.85928452    -4.164077    1620.6113  0.056791819  0.055930848            6 
 2379000   0.87497524   -4.1538136    1626.5801  0.056977026  0.055920719            4 
 2380000   0.87302027   -4.1620544    1625.4142  0.056912262  0.055910532            3 
 2381000     0.865533   -4.1665219      1619.33  0.056675418   0.05590034            8 
 2382000   0.86869918   -4.1447109    1622.0856  0.056748028  0.055890223            4 
 2383000   0.84549455   -4.1499491    1623.8905   0.05678733  0.055880163            3 
 2384000    0.8680865   -4.1270263     1631.693   0.05703625  0.055869896            3 
 2385000   0.88439474   -4.1621191    1619.9963  0.056603643  0.055859628            5 
 2386000   0.86514722   -4.1389513    1625.9866  0.056789137  0.055849307            3 
 2387000   0.86128464   -4.1553111    1620.0155  0.056556888  0.055839173            3 
 2388000   0.85852925    -4.135849    1628.5804   0.05683209  0.055828844            4 
 2389000   0.85913376    -4.155857    1625.2412  0.056691824  0.055818506            3 
 2390000   0.86054409   -4.1545589    1623.4627   0.05660609  0.055807992            4 
 2391000   0.87336659   -4.1421549    1628.6403  0.056762873  0.055797718            2 
 2392000   0.85269957   -4.1566929    1631.2226  0.056829104  0.055787478            4 
 2393000   0.87137983   -4.1504494    1627.1764  0.056664452  0.055777332            3 
 2394000   0.87787872   -4.1599728    1629.4081  0.056718465  0.055766995            2 
 2395000   0.86692077   -4.1565066    1622.8445  0.056466405   0.05575672            5 
 2396000    0.8732314   -4.1556388    1626.3947  0.056566317   0.05574652            2 
 2397000   0.85845863   -4.1630103    1625.3506  0.056506416  0.055736134            6 
 2398000    0.8769948   -4.1503693    1623.4217  0.056415821   0.05572576            7 
 2399000   0.88380739   -4.1638782    1626.1192  0.056486009   0.05571538            5 
 2400000   0.87462682   -4.1510261    1630.4335  0.056612273  0.055705002            1 
 2401000   0.86096465   -4.1499554    1629.3535  0.056551212   0.05569456            6 
 2402000   0.86414361   -4.1629908    1628.8557  0.056510398  0.055684113            3 
 2403000   0.86765433    -4.136379    1621.8936  0.056245445  0.055673614            3 
 2404000   0.88074054   -4.1644144    1627.4245  0.056413771  0.055662799            3 
 2405000   0.86253065   -4.1477465    1631.9647  0.056547632  0.055652283            3 
 2406000   0.86512923   -4.1760576    1624.6943  0.056272317  0.055641555            3 
 2407000   0.85243739   -4.1406765    1631.3504  0.056479379  0.055631055            5 
 2408000    0.8742431   -4.1350016    1635.7204  0.056607158  0.055620486            6 
 2409000     0.873921   -4.1576786    1622.4742  0.056125438  0.055609995            6 
 2410000   0.86939908   -4.1513946    1632.9064  0.056462876  0.055599423            7 
 2411000   0.86377726   -4.1652043    1633.6223  0.056464201  0.055588865            2 
 2412000   0.84794767   -4.1652071     1628.329  0.056257911  0.055578199            2 
 2413000   0.86163454   -4.1390976    1630.4615  0.056308243  0.055567511            4 
 2414000   0.85967692   -4.1405096    1628.8765  0.056230204  0.055556903            7 
 2415000   0.85661991   -4.1737506    1637.2342  0.056495312  0.055546316            3 
 2416000   0.84651629   -4.1560402    1629.6631  0.056210786   0.05553561            8 
 2417000   0.89105508   -4.1558706    1629.6893  0.056188434  0.055524832            4 
 2418000   0.85683873   -4.1491595    1633.0965  0.056282621  0.055514098            4 
 2419000   0.86702096   -4.1728817     1629.883   0.05614865  0.055503307            6 
 2420000   0.87456204    -4.164233    1628.6703  0.056083687  0.055492612            5 
 2421000   0.84836905   -4.1741945    1627.4272  0.056017732  0.055481755            4 
 2422000   0.86983688   -4.1495222    1636.5411  0.056308184  0.055471087            5 
 2423000   0.89089574   -4.1399223    1631.6219  0.056115761  0.055460535            6 
 2424000   0.87686259   -4.1714376    1635.7551  0.056234705  0.055449799            2 
 2425000   0.87920567   -4.1469602    1636.7549  0.056245874   0.05543914            3 
 2426000   0.85430568   -4.1650554    1635.5363   0.05618083  0.055428391            7 
 2427000   0.86236981   -4.1825368    1635.7951  0.056166568  0.055417491            9 
 2428000   0.85389435   -4.1480547    1635.2945  0.056126253  0.055406662            2 
 2429000   0.86277981   -4.1732555    1634.5714  0.056078338  0.055395833            2 
 2430000    0.8752931    -4.161236    1637.0269   0.05613947  0.055385039            4 
 2431000   0.87670531   -4.1628444     1632.615  0.055965139  0.055374226            2 
 2432000   0.86722943   -4.1458554    1639.4886  0.056177652   0.05536339            8 
 2433000   0.85289719   -4.1860914    1632.9172  0.055929482  0.055352624            4 
 2434000   0.85633308   -4.1760977    1636.8187   0.05604008   0.05534182           11 
 2435000   0.88036713   -4.1612971    1636.5035  0.056006279  0.055331111            4 
 2436000   0.84501556   -4.1635868    1633.5016  0.055880598  0.055320239            2 
 2437000   0.83932161   -4.1790969    1637.7506  0.056002962  0.055309348            2 
 2438000    0.8829513   -4.1612062    1636.9296  0.055951928  0.055298524            2 
 2439000   0.83790941   -4.1487854    1642.0262  0.056103122  0.055287689            3 
 2440000     0.852659   -4.1575471    1635.5214  0.055857972  0.055276907            4 
 2441000   0.85999802   -4.2033804    1630.4876   0.05566324  0.055265921           12 
 2442000   0.84888687   -4.2050977     1637.157  0.055868037  0.055255036            6 
 2443000   0.84962666   -4.1471957    1639.1237  0.055912257  0.055244389            3 
 2444000   0.88486709   -4.1472795    1639.0028  0.055885257  0.055233739            7 
 2445000   0.86313326   -4.1466466    1641.1659  0.055936125  0.055223028            4 
 2446000   0.83755767   -4.1725728    1641.7447  0.055932976  0.055212098            2 
 2447000   0.85637565   -4.1562354     1641.008   0.05588503  0.055201363           10 
 2448000   0.84737435   -4.1599045    1637.0912  0.055728867  0.055190479            3 
 2449000   0.87403041   -4.1494122    1646.0165  0.056009818  0.055179668            4 
 2450000   0.86170244    -4.173681     1642.627  0.055871667  0.055168737            3 
 2451000   0.85352325   -4.1709841    1639.2073  0.055732603  0.055157713            2 
 2452000   0.85147284   -4.1757472    1638.3656  0.055681268  0.055146786            3 
 2453000   0.86488834   -4.1450046    1645.5312  0.055901997  0.055135978            3 
 2454000   0.86200621   -4.1648811    1641.3267  0.055736442   0.05512511            3 
 2455000   0.85837223   -4.1787462    1634.5038   0.05548214  0.055114298            7 
 2456000   0.86833492   -4.1973461     1644.212  0.055788951  0.055103388            5 
 2457000   0.83334698   -4.1707312    1646.1221   0.05583103  0.055092464           10 
 2458000   0.86812461   -4.1788267    1645.4857   0.05578674  0.055081583            3 
 2459000   0.85501975   -4.1583608    1643.6837  0.055702987  0.055070672            7 
 2460000   0.85600709   -4.2015808    1643.1356  0.055661774  0.055059717            6 
 2461000   0.85531948    -4.176369    1648.4779  0.055820058  0.055048934            2 
 2462000   0.84731618   -4.2042003     1646.312  0.055724073  0.055038261            2 
 2463000   0.85621626   -4.1750788    1643.7686  0.055615395  0.055027551            4 
 2464000   0.87137545   -4.1533644    1646.6464  0.055690151  0.055016808            5 
 2465000   0.87384535   -4.1491982    1649.4986  0.055763983  0.055006176            3 
 2466000   0.85161861    -4.139286    1650.5896  0.055778239  0.054995512            4 
 2467000   0.86239258   -4.1849597    1643.3421  0.055510812  0.054984675            4 
 2468000   0.84516206   -4.1874289    1644.6008  0.055530822  0.054973845            2 
 2469000   0.85466489   -4.1842762    1651.6343  0.055745724  0.054963158            3 
 2470000   0.84351298   -4.1834914    1649.3745  0.055646911  0.054952507            4 
 2471000   0.85537555   -4.1959696    1647.1046  0.055547842  0.054941748            3 
 2472000   0.86190546   -4.1568074    1654.3533  0.055769733  0.054931005            6 
 2473000    0.8488044   -4.1848545    1647.2588  0.055508115  0.054920283            3 
 2474000   0.85945477    -4.183953    1651.9471  0.055643598  0.054909426            5 
 2475000    0.8476801   -4.1631813     1652.123  0.055627036  0.054898827            5 
 2476000    0.8449183     -4.16382    1651.9558  0.055598942   0.05488812            5 
 2477000   0.86142807   -4.1777602    1648.4765  0.055459443  0.054877395            3 
 2478000   0.86393183    -4.181326    1650.2751   0.05549755  0.054866654            3 
 2479000   0.87262469   -4.1730061    1649.1909  0.055438714  0.054856097            4 
 2480000    0.8693517   -4.1845023    1655.0471  0.055613142  0.054845328            4 
 2481000   0.85539109    -4.157714    1655.8386  0.055617313  0.054834753            2 
 2482000   0.85288789   -4.1706218    1652.4706  0.055481824   0.05482396            3 
 2483000   0.86075617   -4.1631833    1658.4971  0.055661735  0.054813316            1 
 2484000   0.84570458   -4.1557546    1658.8003  0.055649499  0.054802805            5 
 2485000   0.82537588   -4.2031708    1654.9021  0.055496381  0.054792085            5 
 2486000   0.85335011   -4.2025597    1658.4902  0.055594334  0.054781361            2 
 2487000   0.85633955   -4.1712217    1650.7175  0.055311536  0.054770737            6 
 2488000   0.84287665   -4.1804747    1655.6235  0.055453627  0.054760161            5 
 2489000   0.86892247   -4.2173833    1655.2437   0.05541863  0.054749533            2 
 2490000   0.84670165   -4.1805188    1660.2044  0.055562396  0.054738695            9 
 2491000    0.8563631   -4.1849606    1654.5634  0.055351379  0.054728046            6 
 2492000   0.85637144   -4.1935756    1657.7933  0.055437176  0.054717413            3 
 2493000   0.83939599   -4.1869202    1659.5409  0.055473354  0.054706652            3 
 2494000   0.84718929   -4.1929131    1654.5451  0.055284185  0.054695916            6 
 2495000   0.85263472   -4.1867021    1658.7968  0.055404036  0.054685201            4 
 2496000   0.85202266   -4.1989098     1656.742  0.055313233  0.054674545            4 
 2497000   0.85323811    -4.176961     1659.823  0.055393906  0.054663943            4 
 2498000   0.86289257   -4.2165263    1651.8548  0.055105911  0.054653324            3 
 2499000   0.85041013   -4.1929419    1668.8923  0.055652003  0.054642605            7 
 2500000   0.82621716   -4.1675411    1657.8328  0.055261092  0.054631892            2 
 2501000   0.83926006    -4.197172    1662.2694  0.055386825  0.054621112            6 
 2502000   0.85467575   -4.1661978    1661.1599  0.055327734  0.054610326            3 
 2503000   0.86086017   -4.1799726    1657.0743  0.055169608  0.054599496            6 
 2504000   0.85089817   -4.1827622    1661.5666  0.055297077  0.054588822            3 
 2505000   0.84387721   -4.1787484    1666.7401  0.055447109  0.054578154            6 
 2506000   0.83734698   -4.1933052    1661.2237  0.055241545  0.054567502            4 
 2507000    0.8437523   -4.1845844    1658.9112  0.055142642  0.054556941            5 
 2508000   0.84822598   -4.1724993    1665.9718  0.055355256  0.054546229            6 
 2509000   0.82114083   -4.1706752    1660.9022  0.055164814  0.054535437            7 
 2510000   0.83934644   -4.2140801    1658.1194  0.055050445  0.054524567            3 
 2511000    0.8583864   -4.1968331    1659.2562  0.055066249  0.054513727            6 
 2512000   0.83316517   -4.2088819    1661.3141  0.055112595  0.054502851            4 
 2513000   0.85541783   -4.2062442    1659.6122  0.055034229  0.054491993            4 
 2514000   0.84937601   -4.2028024    1664.3382  0.055168992  0.054481074            4 
 2515000   0.84262084   -4.2264956    1660.2205  0.055010618  0.054470135            3 
 2516000   0.84729122   -4.2064068    1656.5794  0.054868156  0.054459178            8 
 2517000   0.84700558   -4.1969646     1665.963  0.055157032  0.054448225            3 
 2518000   0.86050629   -4.1987193      1664.46  0.055085386  0.054437441            3 
 2519000   0.86596456   -4.1951165    1662.0451  0.054983628  0.054426473            2 
 2520000   0.81511174   -4.2100566    1661.0441  0.054928706  0.054415489            3 
 2521000   0.83079669   -4.1791979     1667.249  0.055112027  0.054404457           11 
 2522000    0.8341671   -4.1857422    1664.3801  0.054995378  0.054393498            2 
 2523000   0.85766309   -4.2113478     1658.113  0.054766581  0.054382432            2 
 2524000    0.8296739   -4.1963689    1663.0901  0.054909209  0.054371345            5 
 2525000   0.84405712   -4.1624562    1667.8702  0.055045222  0.054360248            5 
 2526000    0.8494279   -4.2137315    1663.7676  0.054888083  0.054349119            2 
 2527000   0.84544159   -4.1835466    1662.6944  0.054830973  0.054338084            6 
 2528000   0.85396515   -4.2032308    1662.9212  0.054816758  0.054327221            3 
 2529000   0.86021289   -4.1963878    1669.4149  0.055009057  0.054316184            6 
 2530000    0.8735988   -4.2060229    1658.4615  0.054626531   0.05430507           14 
 2531000   0.84233086   -4.1660351    1665.6269  0.054840869  0.054294031            3 
 2532000    0.8361012   -4.1916788    1663.8119  0.054759476  0.054283023            5 
 2533000   0.84552295   -4.1977511    1668.1487  0.054880533  0.054271976            9 
 2534000   0.84143199   -4.1818479    1664.4346  0.054736733  0.054261039            3 
 2535000   0.84537909   -4.1943345    1672.2043  0.054970557  0.054250183            3 
 2536000   0.85063032   -4.1970979    1671.2479  0.054917451  0.054239243            3 
 2537000    0.8537283   -4.1970102    1668.7286  0.054813053   0.05422826            7 
 2538000   0.84177005   -4.1760556    1672.8474  0.054926695  0.054217285            7 
 2539000    0.8429357   -4.1606847    1674.7177  0.054966447   0.05420632            6 
 2540000   0.85494391   -4.1833742    1671.7097  0.054846118  0.054195401            5 
 2541000   0.84181716   -4.1857006    1669.6929  0.054758391  0.054184528            3 
 2542000   0.83748684   -4.2133779    1669.5197  0.054731172  0.054173569            3 
 2543000   0.83967905    -4.213719    1665.5156  0.054578436  0.054162467            4 
 2544000    0.8579736   -4.1939354    1671.9586  0.054768035  0.054151592            6 
 2545000   0.83722642   -4.1739469    1672.5373  0.054765464  0.054140825            2 
 2546000   0.84621548   -4.1856795    1672.9726  0.054758202  0.054129938            2 
 2547000   0.85094152   -4.2100465    1674.4304  0.054784401  0.054119125            6 
 2548000   0.84342803   -4.2116537    1670.1202  0.054621931  0.054108164            5 
 2549000   0.85040134   -4.2085108    1667.2064  0.054505243  0.054096968            6 
 2550000   0.85307189   -4.1984713    1671.2368   0.05461558  0.054085888            9 
 2551000    0.8633002   -4.1945892    1672.5312  0.054636456  0.054074751            5 
 2552000    0.8342485   -4.1820383    1669.4646  0.054514909  0.054063534            4 
 2553000   0.84471959   -4.2069486    1671.2144  0.054550672  0.054052511            6 
 2554000   0.82973484   -4.1997391    1675.0366  0.054654027  0.054041547            4 
 2555000   0.82977886   -4.1984493    1676.9275   0.05469431  0.054030431            2 
 2556000   0.84095006   -4.2036348    1672.3235  0.054522805  0.054019629            5 
 2557000   0.84676938   -4.2230308     1675.024  0.054589494  0.054008587            6 
 2558000   0.85855332   -4.1882667    1672.4235  0.054483436  0.053997516            3 
 2559000    0.8319167   -4.2021286    1673.4048    0.0544941  0.053986445            6 
 2560000    0.8277906   -4.2028857    1672.2459  0.054435088  0.053975351            3 
 2561000   0.82475441   -4.1778973    1680.6671  0.054687852  0.053964344            5 
 2562000   0.83649005   -4.2008427    1671.8604  0.054380054  0.053953352            6 
 2563000   0.81794234   -4.2044094    1675.3139  0.054471124   0.05394229            4 
 2564000   0.83949707   -4.2422846    1679.6886  0.054592062  0.053931242            3 
 2565000   0.83998742   -4.2017259    1676.5938  0.054470234    0.0539202            5 
 2566000   0.85286335   -4.2125854    1675.8288  0.054424162  0.053909066            6 
 2567000   0.83883297   -4.1862703    1673.7238  0.054334625  0.053898115            7 
 2568000   0.84945578   -4.2144221    1676.4101  0.054400638  0.053887064            3 
 2569000   0.85699167   -4.2020783    1679.7563  0.054488008  0.053876166            2 
 2570000   0.83975565   -4.2040108    1678.5816  0.054428716  0.053865083            4 
 2571000   0.82353417   -4.2041671    1682.3428  0.054529457  0.053854187            2 
 2572000   0.83171568   -4.2102099    1681.5268  0.054481817  0.053843313            5 
 2573000   0.83558382   -4.2095847     1679.556  0.054396813   0.05383239            4 
 2574000   0.82971356   -4.2008008    1685.1577  0.054557034  0.053821474            7 
 2575000   0.84040246   -4.2377456    1679.7928  0.054362227  0.053810457            6 
 2576000   0.82973748    -4.213414    1687.5682  0.054592657  0.053799487            2 
 2577000   0.83893005   -4.2059855    1680.4806  0.054342278  0.053788606            3 
 2578000    0.8542972   -4.2105687    1683.0837  0.054405344  0.053777797            4 
 2579000   0.82811466   -4.2123247    1683.1576  0.054386637  0.053766881            4 
 2580000   0.83489312    -4.204031    1681.7641  0.054320545  0.053755953            3 
 2581000    0.8388547   -4.2267896    1679.6101  0.054229953  0.053745042            4 
 2582000   0.82159572   -4.2120273    1677.7093  0.054147603  0.053734023            5 
 2583000    0.8479506   -4.2083139    1678.9097  0.054165368  0.053723067            4 
 2584000   0.84594144   -4.1998937    1679.9137  0.054176784  0.053712131            4 
 2585000   0.82481825   -4.2347676    1684.4186   0.05430105  0.053701131            5 
 2586000   0.83061441    -4.223045    1680.3047  0.054147483  0.053690093            4 
 2587000   0.80767561   -4.2009173     1682.283  0.054190278   0.05367907            6 
 2588000   0.85576019   -4.1860766    1689.3115  0.054395657  0.053668223            7 
 2589000     0.847655   -4.2147548    1687.7985  0.054325946  0.053657315            8 
 2590000   0.84197507   -4.2198873    1682.1569  0.054123453  0.053646239            3 
 2591000   0.80979983   -4.2013749    1683.1715  0.054135194  0.053635104            4 
 2592000   0.83506348   -4.2035412    1680.2836  0.054021462  0.053623905            3 
 2593000   0.83722706   -4.2440496    1679.1473   0.05396411  0.053612732           10 
 2594000   0.85177303   -4.2227071    1681.0704  0.054005089  0.053601395            3 
 2595000   0.83693081   -4.1897675    1688.7671  0.054231441  0.053590328            6 
 2596000   0.83098451   -4.2089711     1683.835  0.054052228  0.053579112            2 
 2597000   0.81753508   -4.2160096    1684.1372  0.054041111  0.053567974            3 
 2598000   0.83838799   -4.2200824    1687.6664  0.054133514  0.053556893            5 
 2599000   0.81930016   -4.1974654    1686.6483  0.054080039  0.053545903            6 
 2600000   0.83711786   -4.2196356     1683.754  0.053966473  0.053534915            7 
 2601000   0.84376227   -4.2247809    1685.0803  0.053988218  0.053523795            5 
 2602000   0.83126973    -4.220633    1686.5464  0.054014424  0.053512702            5 
 2603000   0.81724129   -4.2302355    1687.8097  0.054034119  0.053501637            3 
 2604000   0.84022451   -4.2199931    1688.1241   0.05402343  0.053490452            2 
 2605000   0.83735102   -4.2149351    1683.9477  0.053869087  0.053479365            5 
 2606000   0.82145369   -4.2268501    1689.3913   0.05402249  0.053468355            4 
 2607000   0.83293508   -4.2181358    1690.6329  0.054041454  0.053457191            4 
 2608000   0.84484943   -4.2120725    1689.0161  0.053969074  0.053446122            4 
 2609000   0.83435665   -4.2089748    1691.3178  0.054021904  0.053435097            7 
 2610000   0.82555519     -4.22767    1693.4054  0.054067861  0.053424108            4 
 2611000   0.83314813    -4.205834    1692.7559  0.054026424  0.053413337            5 
 2612000   0.84413609   -4.2186412    1691.8582  0.053977098   0.05340245            3 
 2613000   0.84263105   -4.1921594    1693.3118    0.0540028  0.053391683            8 
 2614000   0.85740642   -4.2066562    1698.7178  0.054154483  0.053380848            6 
 2615000   0.84156456   -4.2220249    1691.6977   0.05391006  0.053370094            6 
 2616000    0.8266491   -4.2333326    1696.9574  0.054057002   0.05335936            5 
 2617000   0.84884634   -4.2230318    1686.6864  0.053709285  0.053348559            3 
 2618000   0.85137316   -4.2044769     1690.518  0.053810733  0.053337605            3 
 2619000   0.83385836   -4.2319272    1695.5353  0.053949832  0.053326831            7 
 2620000   0.83530241   -4.2207347    1694.3087  0.053890225   0.05331601            8 
 2621000    0.8413391   -4.2296144    1687.2323  0.053644674  0.053305019            2 
 2622000   0.82132696   -4.2190779    1696.1268  0.053906904  0.053294222            6 
 2623000   0.82631066   -4.2442155    1699.4478   0.05399186   0.05328322            2 
 2624000    0.8330242   -4.2373296    1698.1083  0.053928745  0.053272404            9 
 2625000    0.8344514   -4.2009689     1695.213  0.053816286  0.053261656            7 
 2626000   0.83195584     -4.20195    1702.6847  0.054032899  0.053250873            5 
 2627000   0.81722774   -4.2159773    1698.5976  0.053882679  0.053240211            4 
 2628000   0.82657263   -4.2298633    1696.5482  0.053797189  0.053229458            3 
 2629000   0.83224369   -4.2348093    1696.7511   0.05378316  0.053218639            2 
 2630000   0.82730095   -4.2172111    1699.0034  0.053834076  0.053207817            3 
 2631000   0.84116485   -4.2204735    1699.9315  0.053843009  0.053197046            2 
 2632000   0.82674084   -4.2061234     1692.883  0.053599387  0.053186222            2 
 2633000   0.81797837   -4.2189379    1693.8401   0.05360932  0.053175346            3 
 2634000   0.83840048   -4.2031185    1703.1272  0.053882791  0.053164519            5 
 2635000   0.83229386   -4.2054577    1699.0396  0.053733067  0.053153834            4 
 2636000   0.81097493   -4.2154624    1701.6618   0.05379558  0.053143098            4 
 2637000   0.82728332   -4.1980816     1707.241  0.053951492   0.05313252            5 
 2638000   0.86047711    -4.227886    1702.6314  0.053785424  0.053121856            4 
 2639000   0.84196595   -4.2386228    1704.3746  0.053820091  0.053111233            3 
 2640000   0.85113807   -4.2064323     1704.885  0.053815816  0.053100467            8 
 2641000    0.8256349   -4.2478084    1696.5719  0.053533127  0.053089659            3 
 2642000    0.8151001    -4.226579    1706.5613  0.053827949  0.053078895            3 
 2643000    0.8289162    -4.262932    1698.1344  0.053541883   0.05306817            5 
 2644000   0.82272552   -4.2209414    1704.3097  0.053716265  0.053057332            7 
 2645000   0.83642655    -4.216549    1707.1457   0.05378531  0.053046706            5 
 2646000   0.83259577   -4.2264944    1707.5082  0.053776399  0.053035844            9 
 2647000   0.84101323   -4.2181081    1704.6359  0.053665657   0.05302515            6 
 2648000   0.82894699   -4.2290232    1705.4353  0.053670547  0.053014325            3 
 2649000   0.82406035   -4.2310238    1710.0865  0.053796606  0.053003819            6 
 2650000   0.82533522   -4.2163363    1711.4179  0.053818172  0.052993187            5 
 2651000   0.81221106    -4.230124    1705.6351   0.05361609  0.052982518            9 
 2652000   0.82564257   -4.2292069    1708.9925  0.053701372  0.052971949            5 
 2653000   0.82845447   -4.2193793    1711.3036  0.053753726  0.052961205           12 
 2654000    0.8215452   -4.2189405    1705.0613  0.053537468  0.052950534            4 
 2655000   0.83582535   -4.2431304    1709.0505  0.053642515  0.052939901            3 
 2656000   0.81559384   -4.2299622     1705.944   0.05352485   0.05292923           11 
 2657000   0.81303435   -4.2151168    1709.0136  0.053600979  0.052918599            5 
 2658000   0.82073392   -4.2072508    1709.9508  0.053610195  0.052908002            7 
 2659000   0.82066149   -4.2399103    1706.3483  0.053477131   0.05289728            4 
 2660000   0.81408649   -4.2318381    1708.5903  0.053527264  0.052886677            7 
 2661000    0.8410767    -4.224515    1712.4774  0.053628879  0.052876109           10 
 2662000   0.82942158   -4.2110415    1710.8483  0.053557736  0.052865607            6 
 2663000   0.83263492   -4.2322486    1711.4031  0.053554986  0.052854985            5 
 2664000   0.81953622   -4.2549997    1710.6043  0.053509893  0.052844339            4 
 2665000   0.81895678   -4.2198323    1716.8291  0.053684461  0.052833839            7 
 2666000   0.80547948   -4.2371598     1712.283  0.053522224  0.052823314            4 
 2667000   0.81824138   -4.2351017    1719.6263  0.053731604  0.052812771            5 
 2668000   0.81411135   -4.2488373    1710.5636  0.053428399  0.052802242            4 
 2669000   0.81788427   -4.2295224    1714.0255  0.053516469  0.052791621            3 
 2670000   0.82452012   -4.2425863    1711.5858   0.05342028  0.052780967            3 
 2671000   0.81066769   -4.2093379    1722.3105  0.053734884  0.052770334            3 
 2672000   0.80911638    -4.248924     1712.892  0.053421032  0.052759825            8 
 2673000   0.80084752   -4.2330378    1718.4221  0.053573454  0.052749338            4 
 2674000    0.8296434   -4.2416908    1717.7917  0.053533773   0.05273878            5 
 2675000   0.83252109   -4.2295573     1719.477  0.053566262  0.052728507            6 
 2676000   0.81915489    -4.255177    1717.5149  0.053485144  0.052717939            4 
 2677000    0.8505621    -4.229926    1722.0914  0.053607628  0.052707516            6 
 2678000   0.83634497   -4.2119513    1720.7299  0.053545241  0.052697116            3 
 2679000   0.79549429   -4.2454508    1721.2063  0.053540073  0.052686752            4 
 2680000   0.84176995   -4.2240582    1721.8456  0.053539974   0.05267644            5 
 2681000   0.80236597   -4.2372583    1717.3523   0.05338034   0.05266602            3 
 2682000   0.82068879   -4.2289224    1721.5158  0.053489803  0.052655498            5 
 2683000   0.82293648   -4.2508414     1715.376  0.053279166  0.052644963            4 
 2684000   0.82362038   -4.2187112    1718.6625  0.053361356  0.052634511            7 
 2685000   0.81346793   -4.2172209    1722.2758  0.053453626  0.052624057            3 
 2686000   0.80627873   -4.2531756    1722.9776  0.053455498  0.052613677            4 
 2687000   0.81760632   -4.2350049    1724.0089  0.053467588  0.052603242            4 
 2688000   0.82627336   -4.2362301     1729.438  0.053616008  0.052592875            9 
 2689000    0.8257041   -4.2163828    1724.4299  0.053440868    0.0525826            4 
 2690000   0.82903329    -4.236716    1718.4554  0.053235916  0.052572379            2 
 2691000   0.81626254   -4.2681027    1719.5114  0.053248836  0.052562084            4 
 2692000   0.79730014   -4.2296844    1725.3448  0.053409634   0.05255176            5 
 2693000   0.83442268   -4.2462141    1723.5919  0.053335558  0.052541528            5 
 2694000   0.83111666   -4.2436598    1719.0103  0.053174038  0.052531213            3 
 2695000   0.79754837   -4.2263366    1730.1309  0.053498173  0.052520927            5 
 2696000   0.82971783   -4.2334421    1730.6943  0.053495744   0.05251073            7 
 2697000   0.82248975   -4.2490936    1727.8764   0.05338884  0.052500324            4 
 2698000   0.82622063   -4.2257142    1723.1492   0.05322304  0.052490086           13 
 2699000   0.80704549    -4.271412    1721.9182  0.053165314  0.052479859            7 
 2700000   0.84226177   -4.2455291    1726.4514  0.053285536  0.052469535           10 
 2701000   0.81436123   -4.2713025     1717.665  0.052994723   0.05245919            3 
 2702000   0.81219418    -4.259193    1727.0226  0.053263713  0.052448789            2 
 2703000   0.82293831   -4.2560474    1724.1187  0.053154478   0.05243838           10 
 2704000   0.83441845   -4.2440921    1727.3258   0.05323366  0.052428048            4 
 2705000   0.81607354   -4.2610439    1726.7154  0.053195174   0.05241755            4 
 2706000   0.83339541   -4.2336641    1729.0832  0.053248435  0.052407035            4 
 2707000   0.82211304   -4.2553474    1724.1975  0.053078362  0.052396482            7 
 2708000   0.82405286   -4.2377707    1726.2498  0.053121917  0.052385907            5 
 2709000   0.81517116   -4.2500397    1727.3085  0.053134876  0.052375506            5 
 2710000   0.80461626   -4.2545834    1725.6646  0.053064718  0.052365109            3 
 2711000   0.80175776   -4.2482485    1727.4909  0.053101283  0.052354678            4 
 2712000   0.81874824   -4.2347344    1725.7138  0.053027096  0.052344323            3 
 2713000   0.81504532   -4.2562175    1727.6782  0.053067889  0.052333743            7 
 2714000   0.81661843   -4.2486155    1729.8847  0.053116087  0.052323174            2 
 2715000   0.79510933   -4.2356127    1729.2005  0.053075521  0.052312735            3 
 2716000   0.81422792    -4.225505    1730.1158  0.053084062  0.052302385            4 
 2717000   0.83747227   -4.2124479    1734.9219  0.053211934  0.052292071            8 
 2718000   0.81095273   -4.2510614    1729.0984  0.053013809    0.0522817            2 
 2719000   0.82287967   -4.2575319    1723.6798  0.052828241  0.052271152            3 
 2720000   0.84088877   -4.2535282    1730.0054  0.053002616  0.052260722            4 
 2721000   0.80795137   -4.2446304    1723.8291  0.052793981   0.05225022            5 
 2722000   0.81639462   -4.2553047    1733.3476  0.053065993  0.052239547            4 
 2723000   0.82433531    -4.233096    1732.0488  0.053006759  0.052229032            5 
 2724000    0.8044712   -4.2514385    1739.6813  0.053220795  0.052218586            6 
 2725000   0.82319548   -4.2434469    1732.3892  0.052978264   0.05220814            6 
 2726000    0.8222677    -4.250121    1729.9487  0.052884222   0.05219754            3 
 2727000   0.82353649   -4.2656005    1731.0957  0.052899881  0.052187038            8 
 2728000   0.83993639   -4.2527449    1735.3838  0.053011479  0.052176528            4 
 2729000   0.80393956   -4.2604552    1730.9601   0.05285697  0.052165998            3 
 2730000   0.82018358   -4.2641973    1730.9462  0.052837187  0.052155447            5 
 2731000   0.81970222   -4.2532668    1729.4012  0.052770693  0.052145003            4 
 2732000   0.79968009   -4.2536458    1732.5445  0.052847258  0.052134515            7 
 2733000   0.81081381   -4.2579438    1732.9722  0.052840963  0.052123912            6 
 2734000    0.8042662   -4.2843618    1727.9087  0.052667298  0.052113209            8 
 2735000   0.79824736   -4.2473237     1727.129  0.052624283  0.052102434            7 
 2736000   0.81556838   -4.2460975    1731.6562   0.05274294  0.052091821            5 
 2737000   0.82808347   -4.2526088    1732.0095  0.052734425  0.052081264            4 
 2738000   0.81063553   -4.2417847    1732.0924   0.05271769   0.05207066           15 
 2739000   0.80169638   -4.2500363    1731.9775  0.052694946  0.052060052            3 
 2740000   0.81084366    -4.247394    1742.5944  0.052998614  0.052049492            1 
 2741000   0.79317589   -4.2397544    1733.4898  0.052702473  0.052038877            9 
 2742000    0.8168355   -4.2610551    1732.7997  0.052662281  0.052028303            6 
 2743000    0.8091474   -4.2517886    1730.5546  0.052574876  0.052017858            9 
 2744000   0.80425415   -4.2793834    1734.2927  0.052669239  0.052007249           10 
 2745000   0.79948478   -4.2456383     1739.548  0.052809592  0.051996624            7 
 2746000    0.8102965   -4.2684545    1734.8169  0.052646787  0.051986153            4 
 2747000   0.80204081   -4.2427925    1735.6624   0.05265327  0.051975607            3 
 2748000   0.80071164   -4.2525941    1735.2011  0.052620119  0.051965015            5 
 2749000   0.81213404   -4.2787518    1740.6767  0.052766967  0.051954418            4 
 2750000    0.8144262   -4.2620694    1735.5521  0.052592489  0.051943776            4 
 2751000   0.80300909   -4.2428379    1735.7803  0.052580283  0.051933229            8 
 2752000   0.82578476   -4.2494668    1729.8942  0.052382941  0.051922669            2 
 2753000     0.794651   -4.2638115    1736.6367  0.052568006  0.051911889            8 
 2754000   0.81042097   -4.2740404     1735.667  0.052519578  0.051901133            2 
 2755000     0.803203   -4.2249054    1739.7538   0.05262413  0.051890492            5 
 2756000   0.80947491   -4.2598909    1739.7113  0.052603753  0.051879877            6 
 2757000   0.83006309   -4.2494136    1729.0588  0.052262689  0.051869297            9 
 2758000   0.81769958   -4.2756389    1732.8857  0.052359368  0.051858687            6 
 2759000   0.79725691   -4.2453253    1742.8973  0.052642786  0.051848162            5 
 2760000   0.81043629   -4.2587949    1740.4529  0.052549907  0.051837564            6 
 2761000   0.78484458   -4.2670701    1745.4458   0.05268157  0.051826987            2 
 2762000   0.79764999   -4.2562992    1739.8106  0.052492475  0.051816458            5 
 2763000   0.80129493   -4.2648843    1745.2836  0.052638544  0.051805865            4 
 2764000    0.8173442   -4.2588275    1741.2938   0.05249921  0.051795322            6 
 2765000   0.80150274   -4.2581234    1746.5403  0.052638345  0.051784975            5 
 2766000    0.8013042   -4.2571446    1736.4518  0.052315371  0.051774406            5 
 2767000   0.82006124   -4.2577339    1749.7717  0.052697617  0.051763819            4 
 2768000   0.82185696   -4.2796947    1738.8763  0.052350562  0.051753337            4 
 2769000   0.80647129   -4.2563782    1741.8869  0.052422262  0.051742831            2 
 2770000   0.81581805   -4.2624207    1738.6686  0.052306518  0.051732262            4 
 2771000   0.82918595   -4.2684835    1746.1259  0.052511905  0.051721694            2 
 2772000   0.82683326   -4.2623854    1749.3868  0.052590992  0.051711198            6 
 2773000   0.80823272   -4.2673687    1743.1555  0.052384768  0.051700762            7 
 2774000    0.8001341   -4.2618109    1745.3234  0.052431007  0.051690333            4 
 2775000   0.80099733   -4.2783849    1748.4925  0.052507283  0.051679923            6 
 2776000   0.79931898   -4.2588646    1745.3553  0.052394192  0.051669533            3 
 2777000   0.80429313   -4.2849786    1742.4058  0.052286815  0.051659015            3 
 2778000   0.80023757   -4.2732214    1746.6992  0.052396786   0.05164846            3 
 2779000   0.81320536   -4.2724209    1745.8586  0.052352724  0.051638039            4 
 2780000   0.81885572   -4.2573233    1746.3025  0.052347197  0.051627556            5 
 2781000   0.80323326   -4.2506943     1746.854  0.052344899  0.051617107            4 
 2782000   0.80662891   -4.2648158    1745.3389  0.052280702  0.051606559            6 
 2783000   0.80841983   -4.2655418    1745.1592  0.052256532  0.051595989            5 
 2784000   0.79590959   -4.2518413    1748.3365  0.052332871  0.051585531            4 
 2785000   0.80768509    -4.281995    1755.2111  0.052519781  0.051575093            6 
 2786000   0.79656304   -4.2596141    1743.5463  0.052152018   0.05156461            4 
 2787000   0.80035506   -4.2527727    1753.7488   0.05243837  0.051554175            2 
 2788000   0.79832997   -4.2669681    1745.2346   0.05216507  0.051543764            6 
 2789000   0.80385617   -4.2359716    1749.5152  0.052274269  0.051533213            3 
 2790000   0.81415121   -4.2512172     1750.202  0.052276045  0.051522713            9 
 2791000   0.78342607   -4.2762784    1746.5467  0.052148177  0.051512275            5 
 2792000   0.78851549   -4.2564692    1750.1412  0.052236783  0.051501694            5 
 2793000   0.81290977   -4.2716154    1747.1235  0.052128042  0.051491304            4 
 2794000   0.81137081    -4.270092     1751.095  0.052227839  0.051480972            3 
 2795000    0.7987363   -4.2510939    1761.1231  0.052508142  0.051470557            9 
 2796000   0.80394039   -4.2636787    1756.8304  0.052361422  0.051460243            3 
 2797000   0.79096227   -4.2797666    1750.9117  0.052166361   0.05144985            3 
 2798000   0.79230042   -4.2625099    1753.8684  0.052235777  0.051439564            4 
 2799000    0.8041542   -4.2733196     1747.923  0.052040105  0.051429195            2 
 2800000   0.80986045   -4.2657911    1754.6036  0.052220344   0.05141883            3 
 2801000   0.80718415   -4.2715614    1755.4899   0.05222807  0.051408414            3 
 2802000   0.81224657   -4.2862173    1755.0098  0.052195153  0.051397908            5 
 2803000   0.80976077   -4.2543324    1755.7272  0.052197858  0.051387448            9 
 2804000   0.80007392    -4.264654    1757.9514  0.052245345  0.051377072            6 
 2805000   0.80227708   -4.2690096    1755.7886  0.052162465  0.051366598            3 
 2806000   0.78922939   -4.2727688    1756.0604  0.052151948  0.051356175            6 
 2807000   0.78974378   -4.2594836     1756.183  0.052137009   0.05134587            5 
 2808000   0.81348151   -4.2862577    1755.2198  0.052089855  0.051335447            3 
 2809000   0.79708265   -4.2829472    1758.0218  0.052154437  0.051325034            6 
 2810000    0.8104266   -4.2482191    1756.9323  0.052103566  0.051314529            7 
 2811000   0.81319177   -4.2914778    1749.8855  0.051876127  0.051304158            3 
 2812000   0.81970762   -4.2737976    1757.7681  0.052091278  0.051293599            5 
 2813000   0.79444825   -4.2884665    1754.6517  0.051980439  0.051283207            6 
 2814000   0.80300761   -4.2850104    1754.4716  0.051956633  0.051272783            2 
 2815000    0.8152742   -4.2414844    1762.2865  0.052169524  0.051262501            4 
 2816000   0.80329568   -4.2910041    1753.5459  0.051892338  0.051252263            7 
 2817000   0.79775367   -4.2479442     1763.784  0.052176783  0.051241976            3 
 2818000   0.80176897   -4.2950205    1758.5893   0.05200465  0.051231465            3 
 2819000   0.80238999   -4.2620085    1756.7992  0.051933285  0.051221126            7 
 2820000    0.8064026   -4.2835811    1761.3426  0.052049131  0.051210867            5 
 2821000   0.79111434   -4.2965321    1757.1585   0.05190708  0.051200471            5 
 2822000   0.81677086   -4.2861656     1760.825  0.051996958  0.051190015            4 
 2823000   0.79737932   -4.2701791    1761.4082  0.051995756  0.051179606            4 
 2824000   0.78465945   -4.2879636    1759.3563  0.051916793  0.051169292            5 
 2825000   0.79458117   -4.2783431     1760.743  0.051939321  0.051158911            4 
 2826000   0.81097252   -4.2973834    1754.7375  0.051743853  0.051148476            8 
 2827000   0.80662871   -4.2719525    1758.1475  0.051826066  0.051138111            5 
 2828000   0.79383854   -4.2607986    1772.4479  0.052229134  0.051127692            3 
 2829000   0.80777621    -4.276161    1761.0718  0.051875568  0.051117469            2 
 2830000   0.79849676   -4.2739295    1765.3305  0.051982641  0.051107145            2 
 2831000   0.81054463   -4.2625127    1759.0643  0.051779827  0.051096783            7 
 2832000    0.8032558   -4.2749399    1762.7429  0.051869788  0.051086356            3 
 2833000   0.78802575   -4.3031828    1759.8722  0.051767036  0.051075877            7 
 2834000   0.81080548   -4.2919606    1760.2148  0.051758845   0.05106549            4 
 2835000   0.78579636   -4.2899721    1764.1718  0.051856903   0.05105515            3 
 2836000   0.80936648   -4.2713448    1763.4065  0.051816128  0.051044733            5 
 2837000    0.8098923   -4.2917103    1763.6138  0.051803953  0.051034317            4 
 2838000   0.79860617   -4.2457559    1768.1003   0.05191744  0.051024062            3 
 2839000   0.79784714   -4.2793776    1764.7079  0.051799574  0.051013774            5 
 2840000   0.79699066   -4.2643183    1761.0831  0.051674975   0.05100333            2 
 2841000   0.78732181   -4.2996897    1760.6546  0.051644217  0.050992966            4 
 2842000   0.82370547   -4.2774745     1767.835  0.051836587  0.050982554            8 
 2843000   0.79380055   -4.2841346    1762.5047  0.051662115  0.050972182            6 
 2844000   0.80099755   -4.2978465    1764.9115  0.051714473   0.05096171            7 
 2845000   0.78900997   -4.2760143    1764.8836  0.051695479  0.050951331            3 
 2846000   0.79872251   -4.2762515    1762.8781  0.051618589  0.050940859            7 
 2847000   0.79340675   -4.2897486    1768.4199  0.051762672  0.050930373            7 
 2848000    0.8108466   -4.2891855    1765.4942  0.051658888  0.050919958            2 
 2849000   0.79636185   -4.2881284     1762.526  0.051553937  0.050909593            6 
 2850000    0.7948342   -4.2969469    1768.7485  0.051717792  0.050899218            5 
 2851000    0.7851353    -4.263203    1773.4358  0.051836661  0.050888928           10 
 2852000   0.81095187   -4.3104762    1767.2318  0.051637209  0.050878541            5 
 2853000   0.79499216   -4.2842972    1766.7751  0.051605769  0.050868133            8 
 2854000    0.8256642     -4.28612    1766.3061  0.051573993  0.050857708            5 
 2855000   0.79043518   -4.2422341    1774.2068  0.051786539  0.050847343            3 
 2856000   0.79271612   -4.3006731    1771.8133  0.051698568  0.050836909            3 
 2857000   0.80663777   -4.2743468    1772.0153  0.051686364  0.050826479            5 
 2858000   0.78335454   -4.2668813    1772.5353  0.051683441  0.050816147            7 
 2859000   0.80019178   -4.2812959    1762.5657  0.051374772  0.050805751            2 
 2860000   0.79699725   -4.2787428    1767.7815  0.051508784  0.050795286            4 
 2861000   0.80157451    -4.315218    1766.8205   0.05146279  0.050784839           10 
 2862000   0.80270422   -4.2792183     1772.596  0.051612976  0.050774418            9 
 2863000    0.7922989   -4.2843017    1771.3796  0.051559542  0.050764055           12 
 2864000   0.78996223   -4.3171884    1767.3276  0.051423637  0.050753609            9 
 2865000   0.80577802   -4.2949257    1763.7432   0.05130143  0.050743049            5 
 2866000    0.8071033   -4.2831104    1767.3815   0.05138932   0.05073249           10 
 2867000     0.797082   -4.2779876    1769.4851   0.05143254   0.05072195            5 
 2868000   0.78659305   -4.2950501    1771.6534  0.051477608  0.050711546            5 
 2869000   0.78120806   -4.2922683    1773.3062  0.051507675  0.050701009            5 
 2870000   0.79872115   -4.3102854    1771.3693  0.051433487  0.050690541            8 
 2871000   0.78551605   -4.2791202    1767.2163  0.051295028  0.050680085            2 
 2872000   0.79003912   -4.3024424    1769.6527  0.051347863  0.050669693            6 
 2873000   0.77470941   -4.2867513    1778.5245  0.051587321  0.050659249            8 
 2874000   0.78102131   -4.3164447    1773.1614  0.051413865  0.050648867            3 
 2875000   0.78438236   -4.2981943    1779.8636  0.051590249  0.050638405            3 
 2876000    0.8055937   -4.3137779    1772.5383  0.051360058  0.050628003            3 
 2877000   0.79538453   -4.2969446    1772.3221  0.051335943  0.050617632            3 
 2878000   0.77620074   -4.2828219    1777.6068  0.051471126  0.050607193            5 
 2879000   0.80389129   -4.3104153    1775.2366  0.051384643   0.05059671            4 
 2880000   0.79341875   -4.2752092    1777.8041  0.051441091  0.050586304            5 
 2881000   0.77890566   -4.3213941    1769.6736   0.05118806  0.050575887            5 
 2882000   0.77523073   -4.3125865    1775.1288  0.051328037  0.050565466           11 
 2883000   0.79271141   -4.3031514     1771.712   0.05121147  0.050555053           10 
 2884000   0.79574888   -4.2831008    1773.9381  0.051258035  0.050544615            3 
 2885000   0.78299203   -4.3062594    1773.1448  0.051217353  0.050534302            5 
 2886000   0.79470424   -4.2965597    1779.6286  0.051386826  0.050523835            6 
 2887000   0.79265299   -4.3254425    1770.2048  0.051097011  0.050513401            9 
 2888000   0.77774949   -4.3066997    1773.9422  0.051187159  0.050502964            4 
 2889000   0.78793324   -4.3016525    1778.6098  0.051304078  0.050492563            5 
 2890000   0.79972473   -4.3059566    1771.5798  0.051083616   0.05048215            9 
 2891000   0.78995192   -4.2776146    1778.2024  0.051256844  0.050471799            7 
 2892000   0.78682583   -4.2979186    1778.0748  0.051235444  0.050461357            5 
 2893000    0.7770678    -4.283679    1779.9942  0.051273022  0.050451094            4 
 2894000    0.7881042   -4.2984928     1777.205  0.051174989  0.050440706           10 
 2895000   0.78649355   -4.2932929    1775.5924  0.051110893  0.050430275            3 
 2896000   0.79431618   -4.2812653    1783.4958  0.051320665  0.050419952            2 
 2897000   0.79173276   -4.2842628    1787.3972  0.051415175  0.050409631            6 
 2898000   0.77402731   -4.2981126    1776.4637  0.051083037  0.050399291            7 
 2899000   0.80413998   -4.2895769    1780.2589   0.05117451  0.050388954            3 
 2900000   0.79274871   -4.3015569    1783.8776   0.05126085  0.050378567            5 
 2901000   0.78093946   -4.2868681    1778.2648  0.051081948  0.050368089            3 
 2902000   0.81536187   -4.3178063    1776.4554  0.051012389    0.0503576            7 
 2903000   0.78962172   -4.3200345    1777.4642  0.051023774  0.050347176            8 
 2904000   0.77928849   -4.3046135    1778.0543  0.051023137  0.050336747            6 
 2905000   0.76323278   -4.3044491    1784.9948  0.051204669  0.050326286            5 
 2906000   0.80098941   -4.3051517    1781.6104  0.051089998  0.050315787            6 
 2907000   0.79623825   -4.2605322    1786.9497  0.051225483  0.050305439            6 
 2908000   0.79542545   -4.2830293    1781.1748  0.051042378  0.050295132            6 
 2909000   0.78524818   -4.2962838    1779.2878  0.050970774  0.050284731            6 
 2910000   0.78449685   -4.3238877     1774.249  0.050808964  0.050274425            4 
 2911000   0.79057305   -4.2890998    1786.7609  0.051149688  0.050263961            4 
 2912000   0.78737981   -4.2805333    1780.7999  0.050961535   0.05025357            8 
 2913000   0.80200979   -4.2879592    1781.5334  0.050965026  0.050243223            4 
 2914000   0.78503218   -4.2694627    1777.1978  0.050823547  0.050232831            6 
 2915000   0.75390244   -4.3114661    1783.6747  0.050991271  0.050222373            6 
 2916000   0.77712473   -4.2897471    1788.6624  0.051116323  0.050211913            3 
 2917000   0.78336108   -4.3125517    1783.7753  0.050959186  0.050201459            3 
 2918000   0.77583632   -4.2988003    1786.7022  0.051025307  0.050190978            4 
 2919000   0.77467591   -4.3073426    1779.9189  0.050814174  0.050180561            6 
 2920000   0.76319273   -4.3237072    1779.5115  0.050785147  0.050170191           10 
 2921000    0.7911245   -4.2912178    1789.4416  0.051051054  0.050159823            4 
 2922000    0.7727996   -4.3218654    1784.3726   0.05088902  0.050149462            3 
 2923000   0.80461382   -4.3214295    1786.5888  0.050934793  0.050138994            3 
 2924000   0.77052348   -4.2987014    1782.8219  0.050810018  0.050128403            6 
 2925000   0.77954535   -4.3082688    1781.5498  0.050756404  0.050117858            3 
 2926000   0.80160587   -4.2932304    1783.7529  0.050801804  0.050107456            3 
 2927000   0.78894764   -4.3114397    1784.5377  0.050806789  0.050097088            6 
 2928000    0.7880336   -4.3498451     1783.943  0.050772514   0.05008656            5 
 2929000   0.80533046   -4.3351663    1785.0146  0.050785667  0.050076051            6 
 2930000   0.79348862   -4.2868705    1787.3089  0.050833586  0.050065628            6 
 2931000   0.79439267   -4.2993916    1791.4185  0.050933087  0.050055153            5 
 2932000   0.77240267   -4.3093495    1787.6094  0.050807453  0.050044764            5 
 2933000   0.78905452   -4.3099087    1785.4357   0.05072837  0.050034329            2 
 2934000   0.76046614   -4.2964061    1789.2529  0.050819497  0.050023823            5 
 2935000   0.79104772   -4.3205736    1782.3789   0.05060701  0.050013336            7 
 2936000   0.78405202   -4.2949134     1790.825  0.050829501   0.05000286           10 
 2937000   0.76940066   -4.3189555    1784.3987  0.050629858  0.049992429            6 
 2938000   0.76611678   -4.3163606     1787.922  0.050712558  0.049981871            3 
 2939000   0.76169256   -4.2801482    1790.0535  0.050755741  0.049971321            6 
 2940000   0.77563031   -4.3032935    1786.2263  0.050629997   0.04996081            3 
 2941000   0.78515563   -4.2921089    1788.0092  0.050663299   0.04995029            3 
 2942000   0.76281749   -4.3161849    1787.9212  0.050643588  0.049939726            5 
 2943000   0.78061915   -4.3272179     1783.406  0.050498527  0.049928973            3 
 2944000   0.79223629   -4.3122508    1781.2047  0.050419066  0.049918351            8 
 2945000    0.8057846   -4.3083021     1788.942  0.050620884  0.049907818            3 
 2946000   0.78349193    -4.314044    1787.7237  0.050569238  0.049897372            8 
 2947000   0.78976366   -4.3257809    1784.2278  0.050453225  0.049886882            5 
 2948000   0.77535607   -4.3328066    1785.9815  0.050485684   0.04987632            5 
 2949000   0.78273004   -4.3329772    1782.8652  0.050380501  0.049865767            2 
 2950000   0.78123172    -4.313469    1785.9922  0.050451757  0.049855161            3 
 2951000   0.77522494   -4.3164786    1790.1514  0.050552113  0.049844655            3 
 2952000   0.77838172   -4.3084484     1790.895   0.05055598  0.049833976            8 
 2953000   0.79286785   -4.3312558     1784.427  0.050356334  0.049823349            6 
 2954000   0.78312408   -4.2911755    1789.3808  0.050479034  0.049812831            3 
 2955000   0.78688102   -4.3085932    1786.6393  0.050384639  0.049802304            3 
 2956000   0.78286393   -4.3158471    1793.1507  0.050551159  0.049791813            6 
 2957000   0.77769206   -4.3026309    1798.1536  0.050675053  0.049781285            3 
 2958000   0.77966088   -4.3007108    1791.6867  0.050475736  0.049770778            7 
 2959000   0.78215329   -4.3157835    1796.0358  0.050581158  0.049760356            6 
 2960000   0.78739622   -4.3207786    1790.3041  0.050402707  0.049749888            6 
 2961000   0.78519865   -4.3268624     1793.892   0.05048666  0.049739397            3 
 2962000   0.76946232    -4.310536    1790.8338  0.050383577  0.049728859            5 
 2963000     0.774798   -4.3265809     1790.404  0.050354484   0.04971839            5 
 2964000   0.77835574   -4.3060015    1799.1388  0.050583075  0.049707957            6 
 2965000   0.79206356   -4.3284876    1794.6273  0.050439216    0.0496975            5 
 2966000   0.76484287   -4.3041873    1790.1383  0.050296085  0.049687042           11 
 2967000   0.77082694   -4.3233158    1794.1457   0.05039169  0.049676555           10 
 2968000   0.76423067   -4.3409797    1790.6267  0.050275907  0.049666084            5 
 2969000   0.79553465   -4.3103955    1793.9659  0.050352697  0.049655615            3 
 2970000   0.78528712   -4.3350134    1790.6955  0.050243982  0.049645089            5 
 2971000   0.78425852   -4.3313254    1791.3323  0.050244932   0.04963444            5 
 2972000   0.78523499    -4.328895    1791.8219  0.050241755  0.049623913            6 
 2973000   0.78249672    -4.318269    1793.4001  0.050269091  0.049613439           11 
 2974000   0.78409177   -4.3389201    1789.6491  0.050147084  0.049602895            6 
 2975000   0.79106655    -4.303466    1794.0919  0.050254676  0.049592371            4 
 2976000   0.76624635   -4.3202336    1796.6112  0.050308335  0.049581771            7 
 2977000   0.78163535   -4.2953392    1799.6084  0.050375332  0.049571263            6 
 2978000   0.78297394   -4.3098447    1798.1038  0.050316315  0.049560804            4 
 2979000   0.76925776   -4.3131655     1797.717  0.050288604  0.049550212            5 
 2980000   0.78120232   -4.3330059    1793.8187  0.050162714  0.049539728            8 
 2981000   0.77368675   -4.3289816    1796.5364   0.05022186  0.049529138            6 
 2982000     0.773794   -4.3247355    1797.4309  0.050230017  0.049518584            6 
 2983000   0.77840127   -4.2999422    1797.5499  0.050216501  0.049508151            8 
 2984000   0.77686534   -4.3322125    1792.4497  0.050057242  0.049497529           10 
 2985000   0.77238778   -4.3244812    1794.4842  0.050097269  0.049487031            4 
 2986000   0.76299633   -4.3232759    1796.9368   0.05014894  0.049476549            6 
 2987000   0.77909869   -4.3337008    1795.3594  0.050088142  0.049466022           11 
 2988000    0.7646809   -4.3356198    1798.2165  0.050151062  0.049455514            5 
 2989000   0.78894624   -4.3308748    1796.2264  0.050078801   0.04944506            5 
 2990000   0.76321214    -4.324762    1799.8385  0.050162723   0.04943455            2 
 2991000   0.77228301   -4.3184035    1795.7823  0.050032941  0.049424051            5 
 2992000   0.76701042   -4.3300721    1792.0694  0.049912805  0.049413443            5 
 2993000   0.77008212   -4.3237711    1796.3235  0.050014575  0.049402877            4 
 2994000   0.76655415   -4.3363157     1794.596  0.049949789  0.049392214            5 
 2995000   0.76715392   -4.3163309    1795.1732  0.049949172  0.049381501            7 
 2996000   0.78909434   -4.3214976    1794.6132  0.049916923  0.049370924            6 
 2997000   0.78675429   -4.3499025    1794.8621  0.049907187  0.049360366            3 
 2998000   0.78034006   -4.3532086    1798.2555  0.049984866  0.049349763            5 
 2999000   0.77508687   -4.3353689      1796.98  0.049932754  0.049339279            4 
 3000000   0.76876211    -4.348348    1794.1196  0.049836655  0.049328672            7 
 3001000   0.76356288   -4.3434232    1798.8059   0.04995018  0.049318078            8 
 3002000   0.77296491   -4.2982708    1805.5679   0.05012125  0.049307503            3 
 3003000   0.76533606   -4.3280704    1796.3656  0.049849194  0.049296929            6 
 3004000   0.77221862   -4.3051424      1803.89  0.050041333  0.049286346            5 
 3005000   0.75877011   -4.3203083    1799.1973  0.049894546  0.049275742            7 
 3006000   0.77990602   -4.3409795     1798.159  0.049849163  0.049265086            6 
 3007000   0.78774705    -4.322653    1800.0213  0.049884195  0.049254532           11 
 3008000   0.78761585   -4.3299801    1799.6447  0.049857179  0.049243911            7 
 3009000   0.77363694    -4.320785    1801.1951  0.049883546  0.049233472           19 
 3010000   0.75876514   -4.3308714    1795.7186  0.049715354  0.049222815            7 
 3011000   0.77345105    -4.353793    1804.5727  0.049943893  0.049212227            6 
 3012000   0.76622946   -4.3575077    1798.0189  0.049745984   0.04920162            8 
 3013000    0.7571514    -4.314787    1803.9314  0.049893002  0.049191008            5 
 3014000   0.77550396   -4.3151346    1804.4798   0.04989161  0.049180522            4 
 3015000   0.76592627   -4.3356568     1804.289   0.04986979  0.049169894           17 
 3016000   0.77504015   -4.3459989    1802.5192  0.049804354  0.049159187            7 
 3017000   0.77750603   -4.3176972    1801.6341  0.049763398  0.049148587            6 
 3018000   0.77674676   -4.3354227    1802.8743  0.049781153  0.049137947            4 
 3019000   0.76999738   -4.3262985    1805.7461  0.049843936  0.049127388            3 
 3020000   0.77315771   -4.3251645    1804.9063  0.049804258  0.049116809            5 
 3021000    0.7840953   -4.3180675    1803.5309  0.049749832  0.049106264            3 
 3022000   0.75127718   -4.3247442    1803.6743  0.049737325  0.049095751            6 
 3023000   0.77392547   -4.3306086    1801.1481  0.049651233  0.049085195            5 
 3024000   0.77341235   -4.3682806     1799.477  0.049588763   0.04907471            5 
 3025000   0.76153721    -4.337347    1805.2227  0.049730654   0.04906408            5 
 3026000   0.74873652   -4.3364713    1803.8894  0.049677499  0.049053526            7 
 3027000   0.76873904   -4.3436203    1806.1017  0.049721993   0.04904295           13 
 3028000   0.77092248    -4.334734    1804.1677  0.049652347  0.049032389            5 
 3029000   0.75140284    -4.328257    1806.2219   0.04969247  0.049021845            6 
 3030000   0.76103059   -4.3476994    1807.7232  0.049717359  0.049011211            9 
 3031000   0.76872597   -4.3318238    1814.1621  0.049877985   0.04900077            6 
 3032000      0.75988   -4.3303269    1809.8705  0.049743582  0.048990388            5 
 3033000   0.76100494   -4.3265149    1808.9592  0.049702144  0.048979936            9 
 3034000   0.76544011   -4.3230269    1805.4925  0.049590543  0.048969462            9 
 3035000   0.77484836   -4.3420858    1811.3839  0.049735967  0.048958928            4 
 3036000   0.77499395   -4.3501687    1804.5192  0.049531161  0.048948395            4 
 3037000   0.76946346   -4.3475118     1812.835  0.049743032  0.048937905            7 
 3038000    0.7562424   -4.3223753    1806.4493  0.049551496  0.048927389            3 
 3039000   0.77028989    -4.321478    1807.2072  0.049555973  0.048916858            4 
 3040000   0.77416488   -4.3403877    1806.2724  0.049514045  0.048906442           10 
 3041000   0.76497291   -4.3450353    1806.5389  0.049505067  0.048895941            7 
 3042000   0.75665587   -4.3359535    1807.8696  0.049525245  0.048885531            5 
 3043000   0.77464645   -4.3429721    1813.3193  0.049658213  0.048874997            9 
 3044000   0.75971754    -4.325659    1807.5181  0.049483083  0.048864501            7 
 3045000   0.77315714   -4.3326494    1816.0518  0.049700377  0.048854061            8 
 3046000   0.76645159    -4.357124    1807.7296  0.049456381  0.048843585           10 
 3047000   0.76462851   -4.3513264    1811.6043   0.04954612   0.04883303            5 
 3048000   0.76243556   -4.3591068    1807.4099  0.049415186  0.048822592            6 
 3049000   0.77900451   -4.3419452    1809.4262  0.049454089   0.04881207            5 
 3050000   0.75492511   -4.3386522    1810.4485  0.049465806  0.048801647            6 
 3051000   0.78150661   -4.3275781    1812.6295  0.049509163   0.04879125            6 
 3052000    0.7710031   -4.3255461      1812.53  0.049490226  0.048780794            6 
 3053000   0.76769074   -4.3785036    1812.5862  0.049475548  0.048770323            6 
 3054000   0.76139624   -4.3486532    1811.8639  0.049439639  0.048759755            7 
 3055000   0.76626186   -4.3440945    1812.8952  0.049451586  0.048749171            8 
 3056000   0.75276347    -4.359598    1812.9216  0.049436126  0.048738766           11 
 3057000   0.76244695    -4.324277    1813.1401   0.04942591  0.048728381            2 
 3058000   0.74353087   -4.3721879    1808.2162  0.049275566  0.048717773            9 
 3059000   0.75882338   -4.3295046    1812.3554  0.049372217  0.048707225            6 
 3060000   0.76271709   -4.3597011    1808.4819  0.049250597  0.048696679            7 
 3061000   0.76470737   -4.3769106    1809.6372   0.04926596  0.048686125            7 
 3062000   0.76843216   -4.3449363    1807.1566   0.04918236  0.048675594            5 
 3063000   0.77476487   -4.3643926    1810.9521  0.049269565  0.048665072            5 
 3064000   0.77217732   -4.3567326    1815.8038  0.049385439  0.048654482            4 
 3065000   0.75938274    -4.360231    1817.5413  0.049416565  0.048644036           10 
 3066000   0.76438852   -4.3260708      1812.83  0.049272396  0.048633406            3 
 3067000   0.75567491   -4.3469982    1821.0143  0.049478706  0.048622793            4 
 3068000   0.73301215   -4.3450471     1811.115  0.049193693  0.048612184            4 
 3069000   0.74990635   -4.3399939    1812.7582  0.049222282  0.048601505            5 
 3070000   0.76943598    -4.320156    1813.8663  0.049236328  0.048590856           10 
 3071000   0.77714167   -4.3481605    1809.2305  0.049094499  0.048580138            4 
 3072000   0.75154591    -4.360345    1806.6631  0.049008872  0.048569418            5 
 3073000   0.75454683   -4.3717369    1812.2359  0.049144048  0.048558754           10 
 3074000   0.75444301   -4.3641144    1808.0348  0.049014172  0.048547958            6 
 3075000   0.76153967   -4.3383597    1810.6614  0.049069415  0.048537283            6 
 3076000   0.76451715   -4.3475254    1814.5198  0.049157991  0.048526727            8 
 3077000   0.75174918   -4.3350957    1809.2771  0.049000031  0.048516075            4 
 3078000   0.76495315   -4.3350138    1814.9232  0.049136971  0.048505448            4 
 3079000   0.75576953   -4.3263917     1816.646   0.04916764  0.048494858            7 
 3080000   0.77020957   -4.3352669    1815.5341  0.049121593  0.048484256            4 
 3081000   0.76194507   -4.3180256    1819.8064  0.049221204  0.048473793            4 
 3082000   0.76894884   -4.3438577    1812.5688  0.049009538  0.048463183            4 
 3083000   0.75188869   -4.3637804      1813.55  0.049020165  0.048452688            4 
 3084000    0.7656628   -4.3600145    1817.1329  0.049101084  0.048442161            5 
 3085000   0.76896578   -4.3253504    1823.5851  0.049259457  0.048431658            4 
 3086000   0.77112966   -4.3669986      1812.33  0.048939567  0.048421163            3 
 3087000   0.77853828   -4.3557648    1818.6413  0.049094086  0.048410682            5 
 3088000   0.76575887   -4.3474809    1816.6019  0.049023151  0.048400122            8 
 3089000   0.75285392   -4.3439992    1817.0619  0.049019692  0.048389639            3 
 3090000   0.77101322   -4.3438316    1820.7931  0.049104454   0.04837918           11 
 3091000    0.7547224   -4.3472208    1820.3884  0.049077657  0.048368813            9 
 3092000   0.75234941   -4.3653177    1823.1027  0.049134938  0.048358431            3 
 3093000   0.75250411   -4.3455571    1819.7149  0.049027776  0.048347897            3 
 3094000    0.7511736    -4.350041    1820.4533  0.049031816  0.048337397            4 
 3095000   0.74899702   -4.3608227    1820.0875  0.049006125  0.048326872            3 
 3096000   0.76500229   -4.3526761    1820.3825  0.048998238  0.048316365            3 
 3097000    0.7437758   -4.3637791    1819.3509  0.048954657  0.048305855            6 
 3098000   0.74759165   -4.3565143    1821.9474  0.049008699  0.048295308            6 
 3099000   0.76594155   -4.3447336    1825.3302  0.049083849  0.048284816           10 
 3100000   0.76367589   -4.3534331    1821.8166  0.048973563  0.048274298            7 
 3101000   0.76339399   -4.3641903    1817.4459  0.048840318  0.048263766            8 
 3102000   0.77731421    -4.356734    1818.9939   0.04886616  0.048253249            3 
 3103000   0.76580182   -4.3576425     1823.626  0.048974809  0.048242696            8 
 3104000   0.74441054   -4.3644907    1820.0887  0.048864064  0.048232019            4 
 3105000   0.77018432   -4.3757101    1822.6781  0.048917823  0.048221427            4 
 3106000   0.76195119   -4.3807889    1815.9597  0.048721821  0.048210828           11 
 3107000   0.76193452   -4.3292156    1827.0644  0.049003979  0.048200286            6 
 3108000   0.74774575   -4.3444988     1823.266  0.048886368   0.04818987            3 
 3109000   0.74133844   -4.3473591    1825.3389  0.048926207  0.048179416            4 
 3110000   0.75464456   -4.3469753    1822.9437  0.048846294  0.048168926            6 
 3111000   0.77082225   -4.3475622     1825.744  0.048905605  0.048158547            5 
 3112000   0.74649212    -4.362411    1825.4511  0.048882045  0.048148096            7 
 3113000   0.77523265   -4.3529077    1821.4364  0.048758873  0.048137572            5 
 3114000   0.75164153   -4.3686245    1827.5175   0.04890595  0.048127019            8 
 3115000   0.74958259   -4.3678517    1822.3528  0.048752082  0.048116464            4 
 3116000   0.72978825   -4.3452387    1824.8355  0.048802833  0.048105969           10 
 3117000   0.76071208   -4.3491265    1822.3271  0.048720112  0.048095465            5 
 3118000   0.75684878    -4.378174     1821.222  0.048674952  0.048084906            7 
 3119000   0.75975102   -4.3325257    1821.9539  0.048678901  0.048074324           10 
 3120000   0.75734579   -4.3671911    1825.5529  0.048759426  0.048063764            4 
 3121000   0.76205508   -4.3767863    1824.4275  0.048713753  0.048053233            8 
 3122000   0.76617288   -4.3675351    1825.0742  0.048715411  0.048042707            7 
 3123000   0.74172015   -4.3755866    1821.6949   0.04860964  0.048032113            4 
 3124000   0.76983166   -4.3517733    1827.6917  0.048754047  0.048021588            4 
 3125000   0.77570622   -4.3831283    1822.0718  0.048588582  0.048010994            4 
 3126000   0.76587554   -4.3632513    1822.5193  0.048584966  0.048000408            7 
 3127000   0.74965592   -4.3572437    1823.1408  0.048585993  0.047989874            3 
 3128000   0.75703135   -4.3839505    1829.2349  0.048732814  0.047979263            4 
 3129000   0.75561662    -4.357691    1825.8877  0.048628094  0.047968663            6 
 3130000   0.74948788   -4.3748358    1826.2103  0.048621148  0.047958026            9 
 3131000   0.74054106   -4.3524035     1822.986  0.048519802  0.047947456            6 
 3132000    0.7456474   -4.3905848    1820.6683  0.048442644  0.047936852            6 
 3133000   0.75002665   -4.3707406    1826.5612  0.048583923  0.047926251            7 
 3134000   0.74388402   -4.3625382    1823.1818  0.048478562  0.047915718            6 
 3135000   0.72243143   -4.3643719    1822.3306  0.048440472  0.047905223            6 
 3136000   0.74116201   -4.3721012    1828.0072  0.048575871  0.047894658            5 
 3137000   0.74088304   -4.3552104    1826.5061  0.048520509  0.047884046            5 
 3138000   0.73667154   -4.3860514    1827.8914  0.048541835  0.047873403            5 
 3139000   0.74000588   -4.3881845    1825.5516  0.048464255  0.047862847           17 
 3140000    0.7519172   -4.3571386    1823.5256  0.048395052  0.047852344            3 
 3141000   0.74407078   -4.3697979    1830.5094  0.048564933   0.04784183            7 
 3142000      0.75972   -4.3885706    1825.8028  0.048424646  0.047831251            5 
 3143000   0.76780304    -4.361113    1834.3697   0.04863638  0.047820721            8 
 3144000   0.74179356   -4.3577769    1829.3412  0.048487628  0.047810177            5 
 3145000   0.75822676   -4.3577678    1831.5462  0.048530635  0.047799728           11 
 3146000   0.74952361   -4.3575074    1827.1546  0.048398881  0.047789235            5 
 3147000   0.75162957   -4.3688767    1825.7825  0.048347168  0.047778726            5 
 3148000   0.75418152   -4.3977237    1821.5616  0.048220075  0.047768078            6 
 3149000   0.73211403   -4.3893945    1824.3085  0.048277456  0.047757424            5 
 3150000   0.74872971   -4.3704833     1827.675  0.048351189  0.047746731            5 
 3151000   0.75278844   -4.3761413    1830.4466  0.048409144  0.047736124            6 
 3152000   0.73569996    -4.350234    1827.2364  0.048308916   0.04772546            6 
 3153000   0.73196876   -4.3859068    1828.6071  0.048329822  0.047714877            6 
 3154000   0.73591869   -4.4051508    1827.9671  0.048297589  0.047704166            9 
 3155000   0.75213871   -4.3734576    1826.8689  0.048253271  0.047693525            6 
 3156000    0.7521826   -4.3726426    1822.8709  0.048132416  0.047682798            5 
 3157000   0.74189197   -4.3768071    1825.0982  0.048175965  0.047672041            7 
 3158000   0.75036313   -4.3788613     1831.247  0.048322962  0.047661426            6 
 3159000   0.74068905   -4.3806385     1828.775  0.048242455  0.047650781            6 
 3160000   0.75163534   -4.3817758    1828.2587  0.048213572  0.047640191            8 
 3161000   0.75422708   -4.3872826    1828.4471  0.048203288  0.047629539            9 
 3162000   0.75101163   -4.3827043    1827.4533  0.048161852  0.047618966            3 
 3163000   0.75147386   -4.3777404    1826.9788  0.048134124  0.047608404            4 
 3164000   0.74250673    -4.375032    1831.9584  0.048250064  0.047597866            3 
 3165000   0.74558855    -4.365143    1837.8957  0.048391144  0.047587364            5 
 3166000   0.75035875   -4.4041462    1829.6477  0.048158762   0.04757673            5 
 3167000   0.75141453   -4.3883122    1830.3373  0.048161702  0.047566058            5 
 3168000    0.7438995    -4.376131    1828.0448  0.048086196   0.04755543            6 
 3169000   0.75283876   -4.3771389    1830.9763   0.04814811  0.047544795            6 
 3170000   0.75234763   -4.3802031    1832.0953  0.048162338  0.047534059            8 
 3171000   0.74368101   -4.3978021    1829.2115  0.048071362  0.047523357           11 
 3172000   0.73883477   -4.3673764    1835.7045  0.048226789   0.04751274            6 
 3173000   0.74425382   -4.3737022     1831.461  0.048100143  0.047502112           12 
 3174000    0.7532821   -4.3631582    1834.8987  0.048175245  0.047491514            5 
 3175000   0.74281352   -4.3823932     1835.251  0.048169318  0.047480852            6 
 3176000   0.74742757   -4.3763066    1828.0966   0.04796643  0.047470209            4 
 3177000   0.75246361   -4.3713888    1828.3182  0.047957145  0.047459593            7 
 3178000   0.77357019   -4.3781261    1830.3845  0.047996236  0.047448934            4 
 3179000   0.72637124   -4.3897599    1830.3642  0.047980608  0.047438297            6 
 3180000   0.72373276   -4.3670487    1834.2452  0.048067222  0.047427751            3 
 3181000   0.75377582   -4.3722293      1837.75  0.048143928  0.047417202            6 
 3182000   0.76546683   -4.3704343    1834.7918  0.048051326  0.047406605           11 
 3183000   0.72931042   -4.3913886    1829.6963  0.047902824  0.047396012            4 
 3184000   0.73065598   -4.3877348    1834.8818  0.048023497  0.047385426            5 
 3185000   0.75639625   -4.4085519    1830.1354  0.047884233  0.047374776            4 
 3186000   0.75144371   -4.3706506    1837.5525  0.048063205  0.047364155            6 
 3187000   0.74665414   -4.3988203    1835.8895   0.04800464  0.047353597            4 
 3188000   0.71138681   -4.3958729    1830.3948  0.047845955  0.047342993            5 
 3189000   0.72335071    -4.368747     1836.929  0.048001699  0.047332483            4 
 3190000   0.74490089   -4.3896871     1832.816  0.047879205  0.047321896            3 
 3191000   0.73420126   -4.3942687    1832.9432  0.047867523  0.047311328            8 
 3192000   0.73370578   -4.4039162    1834.8937  0.047903449  0.047300818            5 
 3193000   0.73906085   -4.3874303     1833.614  0.047855046  0.047290329            9 
 3194000   0.74523715   -4.3679915    1839.7718  0.048000726  0.047279822            3 
 3195000   0.71898872   -4.3970743    1834.1924  0.047840176  0.047269294            9 
 3196000   0.71616983   -4.4006267    1840.5539  0.047991079  0.047258724            5 
 3197000   0.76230128   -4.4061453    1835.7649  0.047851238  0.047248184           13 
 3198000   0.72912562    -4.367054     1839.211  0.047926073  0.047237693            3 
 3199000   0.74239003   -4.3738308    1844.5447  0.048050034  0.047227149            3 
 3200000   0.74913904   -4.3679214    1839.4619  0.047902654   0.04721665            7 
 3201000   0.74136914   -4.3716331    1842.0585  0.047955288  0.047206229            5 
 3202000    0.7473536   -4.3691936    1838.1714  0.047839149  0.047195761           12 
 3203000   0.73562366   -4.3697665     1835.935  0.047766026  0.047185308            4 
 3204000   0.74664044   -4.3916386    1834.1077  0.047703592  0.047174884            5 
 3205000   0.74192879   -4.3612902    1838.8297  0.047811485  0.047164471            4 
 3206000   0.73404777   -4.3779258    1841.9645  0.047878054  0.047153946            3 
 3207000   0.75413462   -4.3645569    1842.6334  0.047880507  0.047143537            3 
 3208000   0.74507394    -4.362413    1846.7791  0.047973273  0.047133093            7 
 3209000   0.72411162   -4.4158286    1838.0603  0.047731907  0.047122609            7 
 3210000   0.74904414   -4.4059681    1840.8407  0.047789217  0.047112051            6 
 3211000   0.73479831   -4.3959529    1843.0153  0.047830771  0.047101582            7 
 3212000    0.7528748   -4.4012694     1841.787  0.047784013  0.047091174            6 
 3213000   0.75381208   -4.3788822    1837.1165  0.047648004  0.047080694            2 
 3214000   0.73359244   -4.3898629    1834.8637   0.04757477   0.04707019           16 
 3215000   0.73505467   -4.3877477    1837.8767  0.047638068  0.047059735            7 
 3216000   0.73219196   -4.4134175    1843.4302   0.04776716  0.047049144            9 
 3217000    0.7187379    -4.395787    1837.9779  0.047611074  0.047038513           12 
 3218000   0.73676016   -4.3905685    1843.8833  0.047749204  0.047027907            4 
 3219000   0.74367322   -4.4276055    1846.1186  0.047792239  0.047017458           11 
 3220000   0.73550809   -4.4054185     1838.691   0.04758517   0.04700692            6 
 3221000   0.74122113   -4.3793941    1844.1292  0.047711095  0.046996419            4 
 3222000   0.75765974   -4.4016885    1837.6823  0.047529545  0.046985875            5 
 3223000   0.73963242   -4.4007879    1845.5293  0.047717687  0.046975395            7 
 3224000   0.73204466   -4.4014902    1842.2903  0.047619167  0.046964869            6 
 3225000   0.73637541   -4.3959254    1841.5929   0.04758638  0.046954407            4 
 3226000    0.7484249   -4.3969548    1844.1742  0.047638308  0.046943919            4 
 3227000   0.74319668   -4.4070877    1838.8584  0.047486272  0.046933374            3 
 3228000   0.74135067   -4.3847031    1837.2135  0.047429097  0.046922775            7 
 3229000   0.73166401   -4.4286088    1842.4167   0.04754869  0.046912289            4 
 3230000   0.74503085   -4.3932977    1840.2804  0.047478855  0.046901903            7 
 3231000   0.73020491   -4.3851317    1841.4709  0.047494864  0.046891458            5 
 3232000   0.73199397   -4.4084983    1846.9586  0.047621662  0.046881021           10 
 3233000   0.73182734   -4.3910976     1846.546  0.047596299  0.046870617            9 
 3234000   0.71402728   -4.4140526    1843.6502  0.047506963  0.046860162           14 
 3235000   0.73583235   -4.3780148    1848.3294  0.047612812  0.046849817           10 
 3236000   0.72836716   -4.3674986    1845.7009  0.047530411  0.046839511            4 
 3237000   0.72014106   -4.4274871    1840.9087  0.047392355  0.046829093           10 
 3238000   0.72499375   -4.3740641     1852.293  0.047670708  0.046818631            7 
 3239000   0.72549342   -4.3960873    1848.1255  0.047548768   0.04680829            4 
 3240000   0.73188277   -4.4116239    1848.1192  0.047533929   0.04679793            8 
 3241000   0.73349215   -4.4138894    1848.4448  0.047527636  0.046787512            5 
 3242000   0.74690283    -4.388587    1854.5159  0.047669029  0.046777246            6 
 3243000   0.73378227   -4.3829798    1847.6904  0.047478938  0.046766968            6 
 3244000   0.75100315   -4.3986699    1852.5247  0.047588489  0.046756741            4 
 3245000   0.73465749   -4.3876929    1849.8893  0.047506146  0.046746551            6 
 3246000   0.73313256   -4.4025933    1851.5639  0.047534502  0.046736152            9 
 3247000   0.73909166   -4.4209984    1849.0601  0.047455603  0.046725863            5 
 3248000    0.7323789   -4.4218262    1846.2656  0.047369294  0.046715594            6 
 3249000   0.72948923   -4.4153168    1848.1907  0.047404092  0.046705264           12 
 3250000   0.72633168   -4.4082049    1851.7253  0.047480135  0.046695011            8 
 3251000   0.72984538   -4.4140115    1849.5022  0.047408546  0.046684697            4 
 3252000   0.74444241   -4.3912588    1848.6592  0.047372365  0.046674446            8 
 3253000   0.75040759   -4.4051994     1852.709  0.047461549  0.046664238           10 
 3254000   0.73049628   -4.4107233    1848.9591  0.047350931  0.046653989            9 
 3255000   0.72464485   -4.4103878    1853.6576  0.047456671  0.046643744            7 
 3256000   0.73176583    -4.395377    1850.4053  0.047358857  0.046633468            9 
 3257000   0.72398291   -4.4007654    1854.7307  0.047454988  0.046623085            6 
 3258000   0.73227318   -4.4047902    1851.5923  0.047360147  0.046612708            8 
 3259000   0.70891516   -4.4033103    1848.7591   0.04727317  0.046602295           12 
 3260000   0.72374901   -4.3854539     1849.577  0.047279576  0.046591913           14 
 3261000   0.73762237    -4.417005    1851.9083  0.047324654  0.046581603           26 
 3262000   0.73447177   -4.4315289    1851.1543  0.047290883   0.04657136           12 
 3263000   0.71457753   -4.4094887    1853.7945  0.047343817  0.046561017            8 
 3264000   0.72617106   -4.3882855    1855.5481  0.047374084   0.04655077            7 
 3265000   0.74368917   -4.4062746    1855.5693  0.047360116  0.046540394            9 
 3266000   0.72462455   -4.4046512    1850.4979  0.047216214  0.046530068            6 
 3267000   0.74141122   -4.4220124    1852.3055  0.047247869  0.046519648            4 
 3268000    0.7203004   -4.4190479    1848.0655  0.047125294  0.046509331            5 
 3269000   0.74259665   -4.4100354     1853.642  0.047253034  0.046498992           30 
 3270000   0.72976048   -4.4174146    1852.5919  0.047211821  0.046488729            9 
 3271000   0.70822502   -4.4169918    1858.0452   0.04733632  0.046478485            3 
 3272000   0.73027124   -4.4102673    1855.3795  0.047253962  0.046468235            6 
 3273000   0.72674231   -4.3984605    1851.5306  0.047141528  0.046458013            5 
 3274000   0.73478844    -4.421343    1851.1498  0.047117435  0.046447752            6 
 3275000   0.73045508   -4.4054267    1860.2335  0.047334187  0.046437522            6 
 3276000   0.72881453   -4.4255656    1853.1167  0.047138703  0.046427284           17 
 3277000   0.74436229   -4.3960531    1862.8357   0.04737147  0.046417081            8 
 3278000   0.72381097   -4.4160357    1856.0593  0.047184748  0.046406882            6 
 3279000   0.74479117   -4.4204071    1853.5376  0.047106271   0.04639663            7 
 3280000   0.72620181   -4.4069974    1855.8847  0.047151542  0.046386402            3 
 3281000   0.71433219   -4.4132079     1849.925  0.046985801  0.046376199            9 
 3282000   0.71337449   -4.4002294    1856.1512  0.047129576  0.046366027            5 
 3283000   0.72703036   -4.4225136     1859.781  0.047207356  0.046355777            6 
 3284000   0.69707175   -4.3864731     1854.763  0.047065646   0.04634555            3 
 3285000   0.72833047   -4.4387722     1859.677  0.047175976  0.046335334            9 
 3286000   0.72518419   -4.4002414    1861.3558  0.047204195  0.046325151           10 
 3287000   0.73039715   -4.4001585     1860.171  0.047159796  0.046315006           20 
 3288000   0.73008903    -4.417522    1856.8955  0.047062438  0.046304903           10 
 3289000   0.72235812   -4.4031053    1859.1921  0.047106317  0.046294698            9 
 3290000   0.73804496   -4.4175155    1860.2472  0.047118722  0.046284584            4 
 3291000   0.73191402   -4.4100854    1859.1478  0.047076567  0.046274419            4 
 3292000   0.72910999   -4.4018688    1860.8876  0.047106309  0.046264272            6 
 3293000    0.7340532   -4.4180689    1860.7552  0.047088652  0.046254098            7 
 3294000   0.73869152   -4.4366113    1862.3687  0.047115177  0.046243786            8 
 3295000   0.73797405   -4.4328436    1857.2193  0.046970644  0.046233567            5 
 3296000   0.71834302   -4.4005565     1860.618  0.047042324  0.046223415            4 
 3297000   0.72226771   -4.4157237    1859.4544  0.046998644   0.04621332            8 
 3298000   0.72991166   -4.4313463    1861.6917  0.047040926  0.046203169            5 
 3299000   0.72435103   -4.4141515    1862.5458  0.047048243  0.046193066            3 
 3300000   0.73555808   -4.4009304    1864.7801  0.047090408  0.046183015            4 
 3301000   0.70550585   -4.4414601    1868.4624    0.0471691  0.046173009            6 
 3302000   0.70984048   -4.4279851    1863.7473  0.047035818  0.046162915            4 
 3303000   0.72152764   -4.4196586    1861.4477  0.046963561  0.046152792            7 
 3304000   0.72345378   -4.4314196     1862.416  0.046973768  0.046142728            7 
 3305000   0.71917546   -4.3956959      1864.59  0.047014373  0.046132682           11 
 3306000   0.71391237   -4.4103407     1862.224  0.046940511  0.046122639            5 
 3307000   0.73003419   -4.4170163    1864.3238  0.046979231  0.046112446            5 
 3308000   0.72406555   -4.4309643    1865.5923  0.046996985  0.046102326           16 
 3309000   0.72206034   -4.4252706    1857.5422  0.046780049  0.046092211            8 
 3310000   0.72638441   -4.3946177    1864.5952  0.046943484  0.046082142            5 
 3311000   0.72159304   -4.4218019    1860.0726  0.046815479  0.046072084            8 
 3312000   0.71454306   -4.4338311    1860.6831  0.046816705  0.046061955            3 
 3313000   0.72125791   -4.4078165     1866.816  0.046956836  0.046051846           13 
 3314000   0.72253269    -4.408247    1864.5732  0.046886269  0.046041902            3 
 3315000   0.72167285   -4.4116276    1867.6321  0.046949022  0.046031787            7 
 3316000   0.70776772    -4.430974    1867.5111  0.046931823  0.046021686            3 
 3317000   0.72076774   -4.4214274    1864.8901  0.046851827  0.046011571           10 
 3318000   0.70952994   -4.4196964     1870.834   0.04698699  0.046001532            7 
 3319000   0.70445598   -4.4231978    1867.1938  0.046881436  0.045991471            5 
 3320000   0.71589308   -4.4197123    1868.1183  0.046890519  0.045981487            7 
 3321000   0.72137693   -4.4298728    1868.5515  0.046887271  0.045971518            8 
 3322000   0.72826041   -4.4461037    1864.9671  0.046783241  0.045961527            7 
 3323000   0.72559092   -4.4258655    1865.9799  0.046794561  0.045951509            4 
 3324000   0.72778684   -4.4218724    1870.7368  0.046899738  0.045941482            7 
 3325000   0.72546446    -4.416931    1870.5357  0.046880594  0.045931502            7 
 3326000    0.7158686   -4.4255291    1863.4517  0.046689009  0.045921447           10 
 3327000   0.71290186   -4.4268641    1869.3807  0.046823482  0.045911417           14 
 3328000   0.71866999   -4.4156299    1864.4914  0.046686985  0.045901478            5 
 3329000   0.71607443    -4.416831    1864.7139  0.046678531  0.045891417            4 
 3330000   0.71545202   -4.4718876     1866.789  0.046716441  0.045881436            6 
 3331000   0.72213272   -4.4257572    1868.6959  0.046750123  0.045871409            4 
 3332000   0.69144686   -4.4445767    1868.6766   0.04673561  0.045861357           11 
 3333000   0.71930583   -4.4465199    1869.1216  0.046732714  0.045851357            7 
 3334000   0.71124367   -4.4412334    1866.1163  0.046643578  0.045841315            6 
 3335000   0.69775025   -4.4374839    1871.3856  0.046761259  0.045831265            9 
 3336000   0.72790076   -4.4510997     1866.501  0.046625224  0.045821204            8 
 3337000   0.70726693   -4.4296679     1867.551  0.046637474  0.045811164            8 
 3338000    0.7059641   -4.4111125    1870.2372  0.046690563  0.045801091            5 
 3339000   0.72228125   -4.4248799    1873.8255  0.046766135  0.045791107            8 
 3340000     0.724588   -4.4340566    1873.9337  0.046754832  0.045781132            3 
 3341000   0.72188058   -4.4458646    1870.1304  0.046645973  0.045771126            5 
 3342000   0.70801456   -4.4279585     1872.562   0.04669265  0.045761093            6 
 3343000   0.72188632   -4.4286484    1869.3759  0.046599259  0.045751071            6 
 3344000   0.70621376   -4.4198634    1866.7999   0.04652113  0.045741061            5 
 3345000   0.72012736   -4.4113143    1868.5066   0.04654974  0.045731052           14 
 3346000    0.7318726   -4.4358498    1875.9019   0.04672001  0.045720928            9 
 3347000   0.71408929   -4.4272918    1872.6992  0.046626313  0.045710919           18 
 3348000   0.71875709   -4.4253449    1871.7342  0.046588367  0.045700904           11 
 3349000   0.71399371   -4.3990599    1871.9244  0.046579189  0.045690923            6 
 3350000   0.71090946   -4.4198259    1869.3315  0.046500783  0.045680874            4 
 3351000   0.72107678   -4.4667311    1868.3396  0.046462241  0.045670813           11 
 3352000   0.70761907   -4.4398021    1871.4906  0.046526716  0.045660834            7 
 3353000   0.70823029   -4.4224217    1872.0613  0.046527023  0.045650882            8 
 3354000   0.70294683   -4.4495574    1871.9279  0.046509837  0.045640831            6 
 3355000   0.70628595   -4.4233687    1874.2903  0.046554652  0.045630865            8 
 3356000   0.70585426   -4.4415312    1872.3903    0.0464936  0.045620885           10 
 3357000   0.71816246   -4.4470675    1872.8008  0.046489941  0.045610796            7 
 3358000   0.71299745   -4.4393117     1881.036  0.046680465  0.045600838            5 
 3359000   0.71519175   -4.4525322    1871.7026  0.046435015  0.045590885            8 
 3360000   0.70903796   -4.4195936    1873.1245   0.04645646  0.045580943           10 
 3361000   0.71137442   -4.4097658    1879.1629  0.046592355  0.045571048            3 
 3362000   0.72038746   -4.4351879    1874.5536  0.046464247  0.045561115            9 
 3363000   0.70930116   -4.4605847    1869.9882  0.046337303  0.045551095            5 
 3364000   0.71938245   -4.4772966    1873.2249  0.046403709  0.045541152           11 
 3365000   0.70800312   -4.4686386    1874.9459  0.046432539  0.045531115            3 
 3366000   0.71542037   -4.4516043    1875.6792  0.046436899  0.045521088           18 
 3367000   0.71084751   -4.4367653     1874.447   0.04639261  0.045511072           11 
 3368000   0.71497473   -4.4497717    1878.0999  0.046469218  0.045501069            9 
 3369000   0.71413106   -4.4474601    1871.2753  0.046286617  0.045491052            6 
 3370000   0.71641408   -4.4358305     1875.907  0.046387413  0.045481053            3 
 3371000   0.70818979   -4.4522313    1882.1642  0.046528335  0.045471089            7 
 3372000   0.71047007   -4.4308344    1882.1031  0.046513026  0.045461159           14 
 3373000   0.70454589   -4.4245944    1883.1733  0.046525676  0.045451242           11 
 3374000   0.70981606   -4.4507775    1876.8697  0.046356196  0.045441264           12 
 3375000   0.70059498    -4.423897    1878.6982  0.046387611  0.045431286           13 
 3376000   0.71250319   -4.4340351    1877.6674  0.046348426  0.045421313           10 
 3377000   0.71573641   -4.4214101    1877.1477  0.046321876  0.045411359           16 
 3378000   0.72214261   -4.4400285    1874.6633  0.046246874   0.04540153            9 
 3379000   0.70352582   -4.4361252    1880.3953   0.04637455   0.04539162            8 
 3380000   0.70211884   -4.4342913    1877.4293  0.046287705  0.045381713            8 
 3381000   0.69129721   -4.4258424    1879.1947  0.046317527  0.045371812            7 
 3382000   0.70224206    -4.457155    1870.7298  0.046095255  0.045361799            4 
 3383000    0.6957678   -4.4603426    1874.6249  0.046177576  0.045351729            5 
 3384000   0.70168044   -4.4437603    1873.9494  0.046147296  0.045341749            5 
 3385000   0.71517376   -4.4571588    1873.7816  0.046129531  0.045331707           10 
 3386000   0.69944158   -4.4426206    1872.0498  0.046073288  0.045321657            8 
 3387000   0.70230271   -4.4392624    1877.4645  0.046192907  0.045311685            8 
 3388000   0.71456216   -4.4629543    1877.0427  0.046168898  0.045301481            5 
 3389000    0.7107235   -4.4589226    1875.7767  0.046124145    0.0452914            5 
 3390000   0.69467443   -4.4566808    1870.5779   0.04598274  0.045281283            8 
 3391000   0.70314791   -4.4472555     1881.686   0.04624216   0.04527123           11 
 3392000   0.71014379   -4.4462049    1877.2702  0.046120041  0.045261205            9 
 3393000    0.7063264   -4.4575985    1874.8075  0.046045965  0.045251121           21 
 3394000   0.70623438   -4.4538132     1877.003  0.046086304  0.045241045            6 
 3395000   0.70561435   -4.4332049    1875.8041    0.0460433  0.045230935            7 
 3396000   0.71324051   -4.4245335    1876.9189  0.046057099  0.045220877           10 
 3397000   0.70463612   -4.4462982    1881.9362  0.046166623  0.045210913            7 
 3398000   0.70958776   -4.4453141    1880.2647  0.046112043  0.045200962            5 
 3399000   0.72120477   -4.4490371    1875.4658  0.045980823  0.045190899            2 
 3400000   0.70735008   -4.4478577    1880.7706  0.046097317  0.045180764           14 
 3401000   0.70293002   -4.4653742    1871.1507  0.045848052  0.045170682            7 
 3402000   0.69518522   -4.4648519    1874.0944  0.045906682  0.045160597            4 
 3403000   0.70780643   -4.4535666    1879.2661  0.046019839  0.045150493            5 
 3404000   0.71095984   -4.4637911    1876.9756  0.045950244  0.045140416            6 
 3405000   0.71295216     -4.45322    1874.3214   0.04587179  0.045130338            7 
 3406000   0.69106888   -4.4608938    1876.5665  0.045913254  0.045120263            8 
 3407000   0.69925313   -4.4577025     1882.055  0.046034024  0.045110219            6 
 3408000   0.69614311   -4.4340948    1878.0485  0.045922549  0.045100182            4 
 3409000   0.71230952   -4.4517441    1878.7227  0.045925557  0.045090179            8 
 3410000   0.70088915   -4.4578357    1876.4735  0.045857123  0.045080197            8 
 3411000    0.7125494   -4.4529498    1880.9622  0.045953342  0.045070153            6 
 3412000   0.69442511   -4.4587794    1879.5629  0.045905697  0.045060138            6 
 3413000   0.69196687   -4.4641035    1878.1826  0.045858545  0.045050027            6 
 3414000   0.71448005   -4.4564747    1875.0435  0.045768491  0.045039997           10 
 3415000   0.69151694   -4.4322386    1881.4944  0.045912503  0.045029905            6 
 3416000   0.71118987   -4.4879945    1877.1674  0.045793507  0.045019786            5 
 3417000   0.70525916   -4.4404261     1878.922  0.045822894  0.045009624            4 
 3418000    0.7079511   -4.4392118    1880.3415  0.045844098  0.044999566            3 
 3419000    0.7077473   -4.4782916    1876.9115  0.045747086  0.044989473           12 
 3420000   0.70518916   -4.4606905    1877.1082  0.045738503  0.044979367            7 
 3421000   0.70596709   -4.4484726    1880.9615  0.045818998  0.044969347            4 
 3422000   0.69323314   -4.4665956    1874.8233  0.045656129  0.044959264            9 
 3423000   0.70031484   -4.4858286    1873.0754  0.045600239  0.044949176           12 
 3424000   0.70120391   -4.4511627    1881.7792  0.045798754  0.044939064            6 
 3425000   0.68922015   -4.4469611    1885.6578  0.045879752  0.044928937            5 
 3426000   0.69558527   -4.4722156    1881.1983  0.045757887  0.044918871           11 
 3427000   0.69360474   -4.4397448    1879.0089  0.045691297  0.044908825           18 
 3428000   0.69764995   -4.4533736    1875.8422  0.045600988  0.044898799           16 
 3429000   0.69074728   -4.4283517    1883.5517  0.045775049  0.044888729            7 
 3430000   0.71077689   -4.4601347     1879.796  0.045670458  0.044878703            3 
 3431000   0.69464346    -4.451013    1876.4971   0.04557702   0.04486861            5 
 3432000   0.71770661   -4.4693043    1877.4978  0.045588039  0.044858427            4 
 3433000   0.70733907   -4.4648484    1881.6631  0.045675869  0.044848352            7 
 3434000   0.69815345   -4.4871396     1877.648  0.045565134   0.04483821            6 
 3435000   0.69814715   -4.4755898     1875.374  0.045496699   0.04482801           11 
 3436000   0.69060137   -4.4993095    1884.4852  0.045704434  0.044817856            7 
 3437000   0.70371576   -4.4795389     1878.056  0.045535254   0.04480767           16 
 3438000   0.69878538   -4.4556203    1881.4751  0.045604884    0.0447975           11 
 3439000    0.7246475   -4.4558602      1884.13  0.045655956  0.044787471            6 
 3440000   0.69659853   -4.4370663    1882.9925  0.045615129  0.044777487            7 
 3441000   0.70098885   -4.4664321    1884.6642  0.045642357  0.044767319            7 
 3442000   0.69235081   -4.4657704    1879.4408  0.045502633  0.044757206            5 
 3443000   0.71361384   -4.4577887    1879.1028  0.045481237  0.044747109            4 
 3444000   0.69571766   -4.4542268    1886.1237  0.045637915  0.044737046            6 
 3445000   0.69136321   -4.4744089    1883.6254  0.045564234  0.044726899            5 
 3446000   0.69933403   -4.4686072    1881.2263  0.045492995  0.044716721            6 
 3447000   0.70095367   -4.4861045    1883.2647  0.045529075  0.044706614            6 
 3448000   0.70786853    -4.472904    1883.7429  0.045527429  0.044696563            6 
 3449000   0.69590199   -4.4695863    1880.4354  0.045434314  0.044686398            5 
 3450000   0.68094308   -4.4322787    1884.3026  0.045514557  0.044676282            6 
 3451000   0.71016313   -4.4837375    1880.8364  0.045417667  0.044666117            6 
 3452000   0.69492185   -4.4631922    1883.1437   0.04546021  0.044655983            6 
 3453000   0.68182046   -4.4633711    1885.4275  0.045502161  0.044645815           16 
 3454000   0.69087222   -4.4855507    1882.6086  0.045420977  0.044635699            4 
 3455000   0.70906818   -4.4740022      1884.94  0.045464061  0.044625613            5 
 3456000   0.70354335   -4.4575819     1884.084  0.045430266  0.044615433           10 
 3457000   0.70384473   -4.4670742    1884.8222  0.045434918  0.044605259            9 
 3458000   0.70113854   -4.4473036    1885.1027  0.045428541  0.044595158            7 
 3459000   0.68299169   -4.4742209    1881.2132  0.045321702  0.044584984            6 
 3460000   0.69082552   -4.4480633    1883.9283  0.045373997  0.044574898            5 
 3461000    0.7207018   -4.4682278    1883.8648  0.045359357  0.044564755           13 
 3462000   0.70324209   -4.4430901    1886.8372  0.045417802  0.044554669            8 
 3463000   0.68780284    -4.452205    1881.6597  0.045280097    0.0445445           10 
 3464000   0.70874005   -4.4471549    1890.9157  0.045489696  0.044534354            3 
 3465000   0.68817308   -4.4618834    1888.9997  0.045430489  0.044524334           11 
 3466000   0.70988705   -4.4659789    1882.2348  0.045254731  0.044514275            4 
 3467000   0.70472473   -4.4553801    1885.6499  0.045323764  0.044504219            9 
 3468000   0.69125212   -4.4756893    1879.9896  0.045174683  0.044494045            7 
 3469000   0.68474844   -4.4681627    1889.4165  0.045388117  0.044483888            9 
 3470000   0.68048403    -4.485674    1885.6425  0.045284401  0.044473695            4 
 3471000    0.7006377   -4.4924065    1889.0754  0.045353774  0.044463518            9 
 3472000   0.71919946   -4.5055795    1885.1658  0.045246874    0.0444534            8 
 3473000   0.68707157   -4.4626164    1884.9816  0.045229428  0.044443285            6 
 3474000   0.69056522   -4.4598026    1890.4013  0.045346415  0.044433273           14 
 3475000   0.69047455   -4.4925658    1884.1738  0.045184023  0.044423193            6 
 3476000   0.69392889   -4.4698062    1887.0577  0.045240163  0.044413127            7 
 3477000   0.69145702   -4.4719476    1887.6178  0.045240575  0.044403016            9 
 3478000   0.70355004   -4.5104946    1888.1087   0.04523933  0.044392957            5 
 3479000   0.71201446   -4.4572162    1890.1665  0.045275617   0.04438286            2 
 3480000   0.68599915   -4.4510817    1893.8314  0.045350369  0.044372901            4 
 3481000   0.70498787   -4.4695812    1891.0429  0.045270585  0.044362948            9 
 3482000   0.69857641    -4.454792    1891.3971  0.045266061  0.044353014            8 
 3483000   0.68470143   -4.4599022     1892.463  0.045278566  0.044343151            5 
 3484000   0.69564511    -4.456363    1891.5746  0.045244323  0.044333171            9 
 3485000   0.69908526   -4.4387807     1893.194  0.045270061  0.044323203            8 
 3486000   0.70529314   -4.4786394    1886.8227  0.045104769   0.04431332            4 
 3487000   0.69883074   -4.4697809    1894.5917  0.045277501  0.044303434            6 
 3488000   0.71439608   -4.4608593     1892.276  0.045209193  0.044293546            9 
 3489000   0.68952486    -4.477449    1897.0891  0.045311195  0.044283664            4 
 3490000   0.67026945   -4.4945867    1890.2431  0.045134746  0.044273791            4 
 3491000   0.69713935   -4.4760479    1891.3183   0.04514748  0.044263862            9 
 3492000   0.69773919   -4.4802945    1889.9682  0.045102335  0.044254007            6 
 3493000   0.70442444   -4.4586777    1889.4968  0.045078174  0.044244128            4 
 3494000   0.68247066    -4.489176    1890.2074  0.045082221  0.044234253            7 
 3495000    0.6927235   -4.4627908    1893.0614  0.045137373  0.044224314            7 
 3496000   0.68167462   -4.5018256    1886.4513  0.044966899  0.044214446            7 
 3497000   0.69922348    -4.489365    1888.4087  0.045000683  0.044204493            4 
 3498000   0.67943505   -4.4729636    1893.2177  0.045102384  0.044194565           12 
 3499000   0.69951806   -4.4882334    1890.8061  0.045032059  0.044184591            3 
 3500000   0.69430503   -4.4999106    1894.0638  0.045096756  0.044174735            6 
 3501000   0.69686451    -4.494119    1895.9045  0.045127689  0.044164787           13 
 3502000   0.69984974   -4.4781706    1895.6113  0.045107827  0.044154915            6 
 3503000   0.68906077   -4.4867462     1892.511  0.045021196  0.044145042            9 
 3504000   0.70179713   -4.4944492    1891.3185  0.044979988  0.044135137            5 
 3505000   0.69387869   -4.5079428    1891.7041  0.044976322  0.044125228            6 
 3506000   0.70330936   -4.4640726     1895.236  0.045047442  0.044115393            7 
 3507000    0.6981295    -4.482117    1896.3027  0.045059944  0.044105504            8 
 3508000   0.68285347   -4.4742736    1892.9696  0.044967921   0.04409564            4 
 3509000    0.6912358   -4.4800642    1901.2444  0.045151619  0.044085745            6 
 3510000    0.6993064   -4.4739982    1895.6872  0.045006818  0.044075943            9 
 3511000   0.67477074   -4.4877022    1903.5815   0.04518137  0.044066101            8 
 3512000   0.67874171   -4.4869406    1893.4705   0.04492859  0.044056228            8 
 3513000   0.69265011   -4.4511268    1897.9413  0.045021854  0.044046448           11 
 3514000   0.69470485   -4.5038046    1894.5681  0.044929047  0.044036724            9 
 3515000   0.67929167   -4.4938775    1899.6445  0.045036616  0.044026938            9 
 3516000    0.6965672   -4.4837535    1897.4206  0.044971099  0.044017088           10 
 3517000   0.69874827   -4.5011141    1893.9408   0.04487586  0.044007265            5 
 3518000   0.68687523   -4.5051093    1899.6516   0.04499838   0.04399744            6 
 3519000   0.68936315   -4.4513593     1897.654  0.044938288  0.043987588            9 
 3520000   0.69634321   -4.4907072    1895.8631  0.044883123   0.04397782            6 
 3521000   0.68768471   -4.4897917     1901.032   0.04499271  0.043968013           11 
 3522000   0.68119155   -4.4984616    1898.9345  0.044930308  0.043958193            5 
 3523000   0.69383462   -4.4511019    1899.1577  0.044922833  0.043948286            6 
 3524000    0.6877974   -4.4790965    1897.9146  0.044880689  0.043938378            9 
 3525000    0.7075032   -4.4974685    1895.2472  0.044804898  0.043928479            7 
 3526000   0.68840392   -4.4715225    1897.8635  0.044854026  0.043918615            4 
 3527000   0.68501942   -4.4851954    1898.4443   0.04485503  0.043908717           11 
 3528000   0.70099312   -4.4855443    1894.1048  0.044739815  0.043898775           11 
 3529000   0.68688391   -4.4803487    1896.1667  0.044775826  0.043888837            6 
 3530000   0.67344313   -4.4858162    1898.8426  0.044826313  0.043878968            6 
 3531000   0.69646324   -4.4954729    1900.3377  0.044848903    0.0438691            4 
 3532000   0.68506857   -4.4827482    1893.8259  0.044682566  0.043859182           10 
 3533000   0.69648321   -4.4878956    1899.3233  0.044799587  0.043849208            8 
 3534000   0.69589275   -4.5001804    1888.8844  0.044540756  0.043839251            9 
 3535000   0.67673219   -4.5006263    1897.8445  0.044739379  0.043829288            4 
 3536000   0.69809912   -4.4659102    1897.1851  0.044711187  0.043819334           18 
 3537000   0.68014066   -4.5046209    1896.2123  0.044675626  0.043809412           13 
 3538000   0.68379473   -4.4991928    1894.5222   0.04462319   0.04379943           12 
 3539000   0.69368017   -4.4949554    1894.6506  0.044613604  0.043789428           18 
 3540000    0.6837769   -4.4897242    1901.2077  0.044755359  0.043779523            8 
 3541000   0.67706108    -4.489516    1896.5341  0.044632734  0.043769551            6 
 3542000   0.67976679   -4.4613946    1904.7947  0.044814482  0.043759735           12 
 3543000   0.67490902   -4.4966932    1898.1805  0.044646264  0.043749802           20 
 3544000   0.67455813   -4.5165151    1894.1426  0.044538719  0.043739825            8 
 3545000   0.67230022   -4.4769506    1893.2057  0.044504131  0.043729868            5 
 3546000   0.67436109   -4.5007694    1892.9635  0.044485888  0.043719882            8 
 3547000   0.67583133   -4.4892814    1894.2935  0.044504592  0.043709986           12 
 3548000   0.67301735   -4.4736179    1900.4485  0.044636614  0.043700041           11 
 3549000   0.67384817   -4.4846705    1900.4123  0.044623188  0.043690087            6 
 3550000   0.68333448   -4.4757239    1901.5117  0.044636426  0.043680155            5 
 3551000   0.68582222   -4.4864442    1897.6888   0.04453414  0.043670206            6 
 3552000   0.67978024   -4.5102685    1896.7198  0.044498869  0.043660262            5 
 3553000   0.67182033   -4.5050538    1894.7666  0.044440534  0.043650311            6 
 3554000   0.68017026   -4.5134971     1897.777  0.044498616  0.043640307            5 
 3555000   0.68283081   -4.5063176    1899.5277  0.044527139  0.043630349           21 
 3556000   0.68577795   -4.5188276    1897.9247   0.04447705  0.043620353           12 
 3557000   0.67131628   -4.4969769     1898.865  0.044486576  0.043610347            6 
 3558000   0.66960136    -4.489799    1894.3112  0.044367415    0.0436004            4 
 3559000   0.67031753   -4.4879196    1902.5345  0.044547498  0.043590482            6 
 3560000   0.65703905   -4.4961094    1902.4966  0.044534097  0.043580452            7 
 3561000   0.67295203   -4.5000616    1899.4025  0.044449183  0.043570541            7 
 3562000   0.67962579    -4.484254    1898.6377  0.044418813  0.043560592            9 
 3563000   0.67310581   -4.5188682    1900.0798  0.044440073  0.043550643            6 
 3564000   0.67020972   -4.4858853    1899.9911  0.044425531  0.043540697            7 
 3565000    0.6673526   -4.4884974    1903.3882  0.044492479  0.043530798           13 
 3566000   0.66870551   -4.4880262    1899.1526  0.044381021  0.043520865            4 
 3567000   0.68085611   -4.5037585    1900.5061    0.0444002  0.043510948           14 
 3568000   0.70108773   -4.4853908    1905.4173  0.044502458  0.043501048           11 
 3569000   0.67645388   -4.4972711    1906.0873  0.044505634  0.043491183            5 
 3570000   0.68136254   -4.5163598    1896.7211  0.044274534  0.043481226            5 
 3571000   0.67529717   -4.4705548    1903.6302  0.044423368  0.043471359           12 
 3572000    0.6695038   -4.5237869    1897.0917  0.044258391  0.043461407            5 
 3573000   0.69245186   -4.4967019    1900.8024   0.04433255  0.043451545            5 
 3574000   0.67618656   -4.5015911      1905.49  0.044429444  0.043441659            9 
 3575000   0.66624797   -4.4803961    1903.9156  0.044380317  0.043431895            9 
 3576000    0.6970904   -4.5085685    1902.1819  0.044327506  0.043422101            6 
 3577000   0.67628536   -4.5174534     1912.719  0.044560596  0.043412298           12 
 3578000   0.66477772   -4.4820508    1911.1712  0.044512093  0.043402531            8 
 3579000   0.65976367   -4.5009474     1907.667  0.044418064  0.043392742            4 
 3580000   0.67532461   -4.4753959    1911.5804  0.044496751   0.04338305            8 
 3581000   0.67969748   -4.5007175    1903.9377  0.044306472  0.043373297            8 
 3582000   0.67627931   -4.5120231    1902.9235  0.044270507  0.043363529            4 
 3583000   0.68232012   -4.5018485    1904.6021  0.044297192   0.04335364            6 
 3584000   0.67457402   -4.5216498    1900.0987  0.044180122  0.043343785           11 
 3585000   0.69605111   -4.4878063    1907.2769  0.044334656  0.043333982            7 
 3586000   0.67570426    -4.505653    1905.4636  0.044280155  0.043324223            5 
 3587000   0.67334746   -4.5203181    1906.7179   0.04429695   0.04331444            9 
 3588000   0.67859925   -4.5100467    1905.1735  0.044248734    0.0433046            7 
 3589000   0.69599173   -4.5089289    1904.5797  0.044222617  0.043294684            8 
 3590000    0.6790748    -4.509628    1905.8688  0.044240223  0.043284828           10 
 3591000   0.68450334   -4.4932551    1905.7434  0.044224992  0.043275027            5 
 3592000   0.66205718   -4.4968816    1908.0775   0.04426683  0.043265253            4 
 3593000   0.69530121   -4.4891687    1906.9854  0.044229183  0.043255468            8 
 3594000   0.67222605   -4.5057811    1905.2266  0.044176094  0.043245636           11 
 3595000   0.67817448   -4.5158344    1905.7129  0.044175079  0.043235834           12 
 3596000   0.66954965   -4.5083532    1902.4527  0.044087243  0.043225988            4 
 3597000   0.66518584   -4.5047588    1909.7772  0.044244677  0.043216162            5 
 3598000   0.66886843   -4.4834614    1905.6024  0.044135688  0.043206414           16 
 3599000   0.68663029   -4.4997214    1905.6793  0.044125204  0.043196633            6 
 3600000   0.67071388   -4.5158427    1904.0406  0.044075015  0.043186867            5 
 3601000   0.67733556   -4.5055804     1909.447  0.044187888  0.043177119           10 
 3602000   0.67671097   -4.5076024    1910.0823  0.044190319  0.043167358           11 
 3603000   0.68471076   -4.5319705    1905.9783  0.044083132  0.043157541            4 
 3604000   0.68067789   -4.5068342    1906.1456  0.044074768   0.04314773            6 
 3605000   0.67068295   -4.4994816    1913.3297  0.044228611  0.043137983            8 
 3606000   0.67741674   -4.4968018    1905.4528  0.044034314  0.043128208            4 
 3607000   0.67244322   -4.5015185    1905.0201  0.044012108  0.043118358            8 
 3608000    0.6954732   -4.5141143    1908.5027  0.044080348  0.043108559            6 
 3609000   0.69892153   -4.5093105    1906.0844  0.044012293  0.043098748           12 
 3610000    0.6835031   -4.5161103    1907.9802  0.044043864  0.043088946           10 
 3611000    0.6704592   -4.5204904    1909.4659  0.044065953  0.043079118            4 
 3612000   0.67775883   -4.5319399    1904.6172  0.043941889  0.043069246            7 
 3613000   0.65256066   -4.5185665    1906.2328   0.04396699  0.043059396            5 
 3614000   0.67450132   -4.5356377    1904.5182  0.043915288  0.043049585            7 
 3615000   0.67863624   -4.5033999    1907.2577   0.04396629  0.043039797            4 
 3616000   0.67110316    -4.504399    1903.7161  0.043872514  0.043029992           19 
 3617000   0.68036486   -4.5221175    1907.5875  0.043949578  0.043020171            6 
 3618000   0.66391971   -4.5030042    1904.1944  0.043859277  0.043010342            6 
 3619000   0.65972304   -4.5083522    1905.5018  0.043877265  0.043000507           11 
 3620000   0.67272872   -4.5171096    1909.8401   0.04396501   0.04299062            8 
 3621000   0.67317458   -4.5401085    1903.1077   0.04379793  0.042980703            7 
 3622000   0.67738536   -4.5201778    1905.1589  0.043833032  0.042970825            8 
 3623000   0.67396542   -4.5067897    1907.5311  0.043875498  0.042961001            9 
 3624000   0.65479742   -4.5091905    1905.4142  0.043814711  0.042951126            6 
 3625000   0.67406229   -4.5174871    1909.3286  0.043892611  0.042941219            7 
 3626000   0.67872377   -4.5402995    1903.8911  0.043755541  0.042931324           12 
 3627000   0.66164925   -4.5270678    1904.4889  0.043757212  0.042921371            7 
 3628000     0.669285   -4.5169344    1908.7703  0.043843492  0.042911416            7 
 3629000   0.66995959      -4.5235    1909.7246  0.043853324  0.042901518            6 
 3630000   0.67166743   -4.5460857    1904.4505  0.043720168  0.042891599           12 
 3631000   0.66342177   -4.5048818    1912.2425  0.043886958  0.042881749            4 
 3632000   0.68301523   -4.5157487    1911.8457   0.04386577  0.042871853           17 
 3633000   0.68103059   -4.5214605    1908.6039  0.043779335     0.042862           10 
 3634000   0.66648673   -4.5184951    1914.4821  0.043902084  0.042852147            5 
 3635000   0.68184409   -4.5295582    1906.8402  0.043714814  0.042842268           13 
 3636000   0.66434665    -4.533906    1908.6931  0.043745258  0.042832374            8 
 3637000    0.6679187   -4.5163162    1903.8184  0.043621538  0.042822521            6 
 3638000   0.66634577   -4.5173547    1906.9931  0.043682268  0.042812634            6 
 3639000   0.67321714   -4.5184434    1905.8344  0.043643731  0.042802753            7 
 3640000   0.67978584   -4.5277175    1901.7379  0.043537956  0.042792852            8 
 3641000   0.68717375   -4.5349977    1907.0695  0.043648024   0.04278301           10 
 3642000   0.66383542   -4.5074376    1909.0734  0.043681893  0.042773167           12 
 3643000   0.65506479   -4.5119293    1905.1819  0.043580884  0.042763297            4 
 3644000   0.67679821   -4.5139653    1913.5677  0.043760696  0.042753469           10 
 3645000   0.67071446    -4.546623    1915.9131  0.043802311  0.042743596            6 
 3646000   0.66910864   -4.5046661    1910.5234   0.04366711  0.042733761           12 
 3647000   0.66432226   -4.5308081    1905.3055  0.043535909   0.04272394           15 
 3648000   0.67483667   -4.5356569    1910.0238  0.043631758  0.042714135           17 
 3649000   0.66767125   -4.5021225    1914.0584   0.04371194  0.042704293            8 
 3650000   0.66855367   -4.5310131    1903.8929  0.043467875  0.042694416           15 
 3651000   0.67415593    -4.529392    1911.8058  0.043636579  0.042684575           10 
 3652000   0.66678768   -4.5451814    1908.1328  0.043540819  0.042674652           17 
 3653000   0.67135577   -4.5311089    1915.6964  0.043701442  0.042664735           12 
 3654000   0.67417417    -4.536133    1905.7413  0.043462445  0.042654875            8 
 3655000   0.66373641   -4.5184918    1910.0728  0.043549313  0.042645016            9 
 3656000   0.64557718   -4.5279058    1911.4678  0.043569196  0.042635121            5 
 3657000   0.67397723   -4.5433761    1915.0699  0.043639366  0.042625264            8 
 3658000    0.6800679   -4.5259438    1913.2894  0.043586873  0.042615464            7 
 3659000   0.65280206   -4.5479376    1910.0795  0.043501856   0.04260563            4 
 3660000   0.65617531   -4.5241425    1915.6099  0.043615891  0.042595781            4 
 3661000   0.66516777   -4.5618977    1910.1658  0.043480056  0.042585922            9 
 3662000   0.65358416   -4.5283491    1913.9787  0.043554949  0.042576096            8 
 3663000   0.67487817   -4.5427644    1913.0657  0.043522288  0.042566271            7 
 3664000   0.66919058   -4.5317608    1908.3936  0.043404149  0.042556425           12 
 3665000   0.68178532   -4.5150238    1910.8556  0.043448285  0.042546563           13 
 3666000   0.66350952   -4.5318591    1908.1942  0.043375935   0.04253667            6 
 3667000   0.67764455   -4.5448675    1916.9709   0.04356356  0.042526775            6 
 3668000   0.65220416   -4.5253322    1909.7837  0.043388396  0.042516951            6 
 3669000   0.66172081   -4.5446124    1912.9185  0.043447772  0.042507155            8 
 3670000   0.67097164   -4.5308841    1908.2145  0.043329121  0.042497311            4 
 3671000   0.65240826   -4.5283988      1912.48  0.043414148  0.042487465            6 
 3672000   0.66772449    -4.524143    1911.3425   0.04337651  0.042477683            9 
 3673000   0.67817574   -4.5249835    1912.7824  0.043397368  0.042467914           10 
 3674000   0.66526609   -4.5264199    1906.6338  0.043246095  0.042458104            6 
 3675000   0.65246917   -4.5246127    1913.5734  0.043391688  0.042448295            7 
 3676000   0.65957271    -4.519556    1914.8269    0.0434083   0.04243859            7 
 3677000   0.67533082   -4.5391607    1907.9896  0.043241536  0.042428767            7 
 3678000   0.65458364   -4.5126694    1918.5993  0.043470166  0.042418971            7 
 3679000   0.66413451   -4.5272351    1913.5704  0.043344441  0.042409192           14 
 3680000   0.66607374   -4.5374564    1908.9845  0.043228816  0.042399328           11 
 3681000   0.66731835    -4.541774    1907.6327  0.043186469  0.042389471            6 
 3682000   0.64890167   -4.5413326    1910.2521  0.043234024  0.042379607           12 
 3683000   0.65299381   -4.5353656     1913.183  0.043288602  0.042369764           10 
 3684000   0.65533173   -4.5325925     1906.477  0.043125159  0.042359815           27 
 3685000   0.66538206   -4.5389278     1914.618  0.043297557  0.042349952           11 
 3686000   0.66063261   -4.5411338    1912.0926  0.043228717  0.042340101           17 
 3687000   0.65793566    -4.520797    1907.2663  0.043107908  0.042330282            4 
 3688000   0.66649894   -4.5264203    1916.6185  0.043307541   0.04232046            6 
 3689000   0.65843986   -4.5462348    1915.3525  0.043267201  0.042310629            8 
 3690000   0.65306752    -4.557534    1910.8929  0.043154764  0.042300787            6 
 3691000   0.66207612   -4.5656529    1918.6626  0.043318491  0.042290917            9 
 3692000   0.64386218   -4.5559214    1914.3602  0.043209646  0.042281061            5 
 3693000   0.65260501   -4.5304107    1912.6046   0.04315833  0.042271294           11 
 3694000   0.65718421   -4.5398973    1919.0353  0.043291719  0.042261495            7 
 3695000   0.65586922   -4.5297787    1911.1812  0.043102869  0.042251704           28 
 3696000   0.65926962   -4.5381772    1913.4667  0.043142737  0.042241805            4 
 3697000   0.65559642   -4.5354198    1911.6434   0.04308997  0.042231989            7 
 3698000    0.6613601   -4.5274076    1918.7866  0.043239287  0.042222179            5 
 3699000   0.65737266   -4.5391096    1915.8756  0.043162018  0.042212365            7 
 3700000   0.66419956   -4.5474787    1914.1826   0.04311222  0.042202511           10 
 3701000   0.65145675   -4.5701597    1905.5835   0.04290695  0.042192643            5 
 3702000   0.66331429   -4.5371542    1914.8313  0.043103531  0.042182726           10 
 3703000   0.65337439   -4.5555081    1906.0358  0.042893956  0.042172834            6 
 3704000   0.65932215   -4.5437993    1913.7496  0.043055922  0.042162888           14 
 3705000   0.66784112   -4.5473479     1908.797  0.042932906  0.042152993            6 
 3706000   0.67248398   -4.5488748    1915.2977  0.043067498  0.042143137            7 
 3707000   0.64707844   -4.5513613    1909.3198  0.042921496  0.042133263            5 
 3708000   0.64932955   -4.5460295    1912.1998  0.042974645   0.04212341            4 
 3709000   0.65287882   -4.5385284     1920.069  0.043139862  0.042113583            5 
 3710000   0.65657823   -4.5359072    1913.4701  0.042980011  0.042103769           17 
 3711000   0.64337686   -4.5471372    1916.8253  0.043043774  0.042094018            6 
 3712000   0.65400782    -4.528113    1913.7019  0.042962057  0.042084302            6 
 3713000   0.66091446   -4.5375852    1916.1367  0.043005132   0.04207448           14 
 3714000   0.65628539   -4.5202532    1915.1554  0.042971535  0.042064622           10 
 3715000   0.66638169   -4.5684445    1908.2945  0.042806068  0.042054752           13 
 3716000   0.64066473   -4.5485386    1921.9093  0.043099868  0.042044918            7 
 3717000   0.64480934   -4.5598789    1913.5298  0.042900409  0.042035035            8 
 3718000   0.64975714   -4.5702217    1912.8158  0.042872866  0.042025147            7 
 3719000    0.6410302   -4.5484603    1914.5922  0.042901142  0.042015299           13 
 3720000   0.64866697   -4.5413688    1916.1301  0.042924061  0.042005432            5 
 3721000   0.66279056    -4.532867    1918.9705  0.042976137  0.041995561            9 
 3722000    0.6647325   -4.5456533    1918.2147   0.04294767  0.041985742           19 
 3723000   0.67472682   -4.5396395    1915.5072   0.04287553  0.041975986            7 
 3724000   0.65836578   -4.5326016    1914.2728  0.042836394  0.041966173           11 
 3725000   0.64867013   -4.5554856    1916.1632  0.042867186  0.041956321           12 
 3726000   0.66417216   -4.5619078    1913.3043  0.042791741  0.041946489           11 
 3727000   0.66699589   -4.5721679    1916.1876  0.042844727  0.041936609           10 
 3728000   0.64077081   -4.5355438    1919.5217  0.042907763  0.041926808            8 
 3729000   0.67659432   -4.5510426    1914.8147  0.042791069  0.041917113            8 
 3730000   0.65253604   -4.5443226     1918.524  0.042862466  0.041907394           11 
 3731000   0.64391252   -4.5361377    1923.2424  0.042956367  0.041897748           13 
 3732000    0.6658765    -4.569441    1918.1171   0.04283041  0.041888036           13 
 3733000   0.65895904   -4.5673518    1918.5686  0.042829016  0.041878253           11 
 3734000   0.64239939   -4.5397571    1918.1999  0.042809318  0.041868459           13 
 3735000   0.65931946   -4.5352291    1922.3918  0.042891382  0.041858746            7 
 3736000    0.6518066   -4.5611548    1921.4568  0.042859046     0.041849            6 
 3737000   0.66571002   -4.5387126    1918.1246  0.042773272  0.041839252           13 
 3738000   0.65897237    -4.557602    1917.1709  0.042740567  0.041829442            7 
 3739000   0.65845418   -4.5380604    1915.1507  0.042684111  0.041819632           20 
 3740000   0.65188081   -4.5647797    1919.7544  0.042775276   0.04180989           29 
 3741000   0.64488944   -4.5572635    1917.2826   0.04270878   0.04180011           29 
 3742000   0.65147959   -4.5543887    1919.9704  0.042757225  0.041790358           10 
 3743000   0.65134774   -4.5626434    1921.3386  0.042776262  0.041780662            7 
 3744000   0.65754047   -4.5376675    1922.7207  0.042795599  0.041770927           12 
 3745000   0.64600559   -4.5596011    1918.5095  0.042690465  0.041761204            9 
 3746000   0.64476446   -4.5754281     1917.306  0.042652295  0.041751442           17 
 3747000   0.65490578   -4.5571925    1919.1473  0.042681863  0.041741691           13 
 3748000   0.63499512   -4.5696749    1921.1253  0.042714455  0.041731915            6 
 3749000   0.65057535   -4.5742846    1916.7977  0.042606866   0.04172213            8 
 3750000   0.64176657   -4.5875289     1917.031  0.042600689  0.041712329            8 
 3751000   0.63278006   -4.5582289    1920.4017  0.042664216  0.041702565            7 
 3752000   0.65948878   -4.5457601    1921.1186  0.042668768  0.041692796            6 
 3753000   0.65405096   -4.5468772    1919.7356  0.042626689  0.041683035            6 
 3754000   0.64258274   -4.5657991    1920.8901  0.042640963  0.041673257            8 
 3755000   0.66067997   -4.5792926    1919.5385  0.042599612  0.041663538            6 
 3756000   0.66168004    -4.572656    1923.7376  0.042681433  0.041653786           12 
 3757000   0.64887237   -4.5768201     1915.549  0.042488443  0.041644042            6 
 3758000   0.64227775   -4.5851545    1917.3585  0.042517262  0.041634275           12 
 3759000   0.65520565   -4.5419172    1915.4989  0.042464727  0.041624464            8 
 3760000   0.64871994   -4.5568698    1923.3465  0.042627361  0.041614673           13 
 3761000   0.65803739   -4.5726814    1916.2393  0.042458551  0.041604884            5 
 3762000   0.65562891   -4.5412228    1919.7375  0.042524754  0.041595141           15 
 3763000   0.65289639   -4.5586306    1921.5826  0.042554314  0.041585326           11 
 3764000   0.65623709   -4.5718841    1920.1846  0.042512056  0.041575551            6 
 3765000   0.65935805   -4.5763859    1916.5014  0.042419242  0.041565793           12 
 3766000   0.66082047   -4.5598727    1920.5105  0.042496693   0.04155606           11 
 3767000   0.65505026   -4.5903352    1917.2606  0.042413516  0.041546269            8 
 3768000   0.65088354    -4.576581    1915.1352  0.042355255  0.041536465           11 
 3769000   0.64382568   -4.5572012    1920.3718    0.0424598  0.041526724            9 
 3770000   0.65506847   -4.5234436    1919.9061  0.042438243  0.041517004           10 
 3771000   0.65337338   -4.5499842    1921.8227  0.042469344  0.041507228           12 
 3772000   0.65432484   -4.5677463    1922.1219  0.042464693  0.041497469           14 
 3773000   0.64000486   -4.5870769    1916.6858  0.042333372  0.041487647           10 
 3774000   0.64627215     -4.56697    1923.0223  0.042462073  0.041477838           14 
 3775000   0.64243837   -4.5651367    1918.5786  0.042352728  0.041468089            9 
 3776000   0.66293139   -4.5955172    1924.2202  0.042466018  0.041458319           13 
 3777000   0.64125412   -4.5777855     1920.551  0.042373819  0.041448504           10 
 3778000   0.63457348   -4.5722439     1917.896  0.042304041  0.041438748            6 
 3779000   0.65036468   -4.5777677    1923.3619  0.042413378  0.041429002           16 
 3780000   0.63663197    -4.542932    1922.1245  0.042374879  0.041419206            7 
 3781000   0.65272037    -4.563652    1928.0998  0.042495367  0.041409475            5 
 3782000   0.64887466    -4.561822    1923.3088  0.042378566  0.041399681            6 
 3783000   0.64871049   -4.5371647    1925.9134  0.042424739   0.04138999           11 
 3784000   0.64416166   -4.5524063    1922.3176  0.042334338  0.041380235            4 
 3785000   0.64340956   -4.5308242    1933.6719  0.042573137  0.041370519            9 
 3786000   0.64176993   -4.5715467    1928.4286  0.042446483  0.041360868           11 
 3787000   0.64904489   -4.5677707    1921.5582  0.042284091  0.041351133           11 
 3788000   0.64840402   -4.5669127    1927.5996  0.042405833  0.041341361            4 
 3789000   0.65252826    -4.557305    1922.5584  0.042283768  0.041331639           19 
 3790000   0.63827516   -4.5687946    1920.8922  0.042235977  0.041321948            5 
 3791000   0.66388402   -4.5656022    1922.5013  0.042260207   0.04131224           16 
 3792000   0.64715455   -4.5774373    1927.7089  0.042363504  0.041302563           10 
 3793000   0.66578838    -4.574615    1918.7842  0.042156258  0.041292853            9 
 3794000   0.64985168    -4.587561    1919.5957   0.04216297   0.04128311           12 
 3795000    0.6508057   -4.5791239    1920.5553  0.042172932  0.041273356           13 
 3796000     0.652575   -4.6099731    1918.2891  0.042112072   0.04126359           12 
 3797000    0.6267339    -4.566311    1929.3382  0.042343477  0.041253766            6 
 3798000   0.64840354   -4.5701883    1925.0201  0.042237583  0.041244037            4 
 3799000   0.65508818   -4.5547415    1922.3811  0.042168576   0.04123432            8 
 3800000   0.62421839   -4.5904136    1918.6566  0.042075803  0.041224583           10 
 3801000   0.66063889   -4.5969687    1928.5145  0.042280858  0.041214869            8 
 3802000   0.63721133   -4.5763839    1919.1441  0.042064353   0.04120512            8 
 3803000   0.63061934   -4.5988487    1923.0441  0.042138753  0.041195374            5 
 3804000   0.63806921    -4.577632    1923.5398  0.042138534  0.041185655            7 
 3805000   0.64686669   -4.5823545    1925.8517  0.042178091  0.041175956            7 
 3806000   0.64415964   -4.5900803    1924.6909  0.042141594  0.041166281            6 
 3807000    0.6496699   -4.5690459    1924.6125  0.042128808  0.041156623           10 
 3808000   0.62421492   -4.5670962    1930.3308  0.042242884  0.041146946            8 
 3809000   0.63488724    -4.586932     1924.845  0.042111775  0.041137262            4 
 3810000   0.62685796   -4.5702844    1920.8521  0.042013388  0.041127545           10 
 3811000   0.65216849   -4.5894434    1922.8482  0.042046012  0.041117806           24 
 3812000   0.62892528   -4.5719673    1925.6232  0.042095646  0.041108187            7 
 3813000   0.64390983   -4.6046642    1924.4604  0.042059192  0.041098521           13 
 3814000   0.64729665   -4.5648044    1929.8697  0.042166355  0.041088897            5 
 3815000   0.65948322   -4.5933677     1923.027  0.042005831  0.041079231           26 
 3816000   0.63841885   -4.5750191     1925.001  0.042037933  0.041069577           23 
 3817000   0.64691071   -4.5751177    1927.7377  0.042086666  0.041059876           20 
 3818000   0.64799471   -4.5843133     1928.751  0.042097761  0.041050182            5 
 3819000   0.65619909    -4.562825    1926.3754    0.0420349    0.0410405            5 
 3820000   0.64920982   -4.5755556    1926.0236  0.042016223  0.041030798            9 
 3821000   0.65030936   -4.5794964    1922.0192  0.041917892  0.041021142            5 
 3822000   0.62930125   -4.5715439    1930.1536  0.042084284  0.041011489           12 
 3823000   0.63407697   -4.5754504    1930.6165  0.042083366  0.041001858           12 
 3824000   0.63440828   -4.5828938    1931.7339  0.042096712   0.04099222            5 
 3825000   0.63024111   -4.5896262    1926.0209   0.04196124  0.040982581            7 
 3826000   0.65007234   -4.5789519    1930.0699  0.042038463  0.040972943           13 
 3827000   0.64462962   -4.5766751    1924.7798  0.041912285  0.040963342            8 
 3828000   0.63364115   -4.5937565    1931.8331  0.042054884  0.040953717            4 
 3829000   0.63479474    -4.574412    1926.3671  0.041924939  0.040944126            6 
 3830000   0.63651151   -4.5970563    1922.6881  0.041833945  0.040934464            9 
 3831000   0.64074088   -4.5865462    1931.9668  0.042024858  0.040924826           10 
 3832000   0.63763557   -4.5737445    1933.5154  0.042047569   0.04091515           12 
 3833000   0.65955106   -4.5796567    1931.5107  0.041993015  0.040905548            6 
 3834000   0.65409773   -4.5670044    1926.4942  0.041873027  0.040895937           12 
 3835000   0.62340214   -4.5737016    1929.8916  0.041935932  0.040886338            4 
 3836000   0.63820015   -4.5866223     1930.417  0.041936413  0.040876789            5 
 3837000   0.63442286   -4.5707932    1927.9835  0.041872633  0.040867183            5 
 3838000   0.63910484   -4.5900559    1928.6356  0.041875882  0.040857571           16 
 3839000    0.6326261   -4.6094984    1926.9376  0.041828115  0.040847926           12 
 3840000   0.64204417   -4.5818187    1927.2154  0.041823251  0.040838289            8 
 3841000   0.63842623   -4.5897126    1927.2374   0.04181284  0.040828693           10 
 3842000   0.63368421    -4.597381    1929.4835  0.041850675  0.040819092           17 
 3843000   0.65074351   -4.5748093    1926.2003  0.041768591  0.040809492            7 
 3844000   0.64593336   -4.6025035    1928.2906   0.04180304  0.040799903            4 
 3845000   0.65035961   -4.5825548    1933.2859  0.041900431   0.04079032            8 
 3846000    0.6327216    -4.599816    1932.4407  0.041871223  0.040780766            7 
 3847000    0.6438976   -4.5893735    1934.4812  0.041904541  0.040771183           17 
 3848000   0.62668766   -4.5966978    1929.1638  0.041778495  0.040761607            6 
 3849000   0.63620698   -4.5950777    1932.3758  0.041837182  0.040752048           12 
 3850000   0.63243194   -4.5931008    1930.4925  0.041785552  0.040742486           18 
 3851000   0.63539067   -4.5799666    1929.7142   0.04175786  0.040732899            9 
 3852000   0.63065391   -4.5920555    1929.3542  0.041739231  0.040723305            7 
 3853000   0.62915532   -4.5867371    1934.0642  0.041830266  0.040713722           11 
 3854000   0.63928035   -4.6045579    1928.0663  0.041689722  0.040704138           21 
 3855000   0.63291827   -4.6159284    1930.8923  0.041739998  0.040694531            9 
 3856000   0.63634073   -4.5816855    1927.5216  0.041656329  0.040684883           14 
 3857000   0.62500872   -4.6017523    1930.0059  0.041699202   0.04067526            5 
 3858000    0.6264776   -4.6106654    1932.4037  0.041740188  0.040665621           11 
 3859000   0.63031969   -4.5715974    1930.4285  0.041686716  0.040656022           23 
 3860000   0.63211124   -4.5775946    1931.0294  0.041688889  0.040646447           17 
 3861000    0.6492748   -4.6210818    1925.6664  0.041562342  0.040636803           11 
 3862000   0.62315052   -4.6002793    1927.4687  0.041590469  0.040627215           12 
 3863000   0.64504428   -4.5878484    1930.1513  0.041637573  0.040617661            8 
 3864000   0.62296374   -4.6252375      1928.78  0.041597221  0.040608023           15 
 3865000   0.62076724   -4.5738805    1927.3824  0.041556325  0.040598379            9 
 3866000   0.63314918   -4.5857806    1935.9056  0.041729299  0.040588822            7 
 3867000   0.62914793   -4.6245668    1931.9256  0.041632739   0.04057931           10 
 3868000   0.62928991   -4.6186932    1927.8644   0.04153448  0.040569687            9 
 3869000   0.65053605   -4.6215596    1927.2109  0.041509669  0.040560104           10 
 3870000   0.62094105    -4.604622    1929.1032  0.041539691  0.040550484           20 
 3871000   0.63829859   -4.6067928    1931.8136  0.041587307  0.040540889           10 
 3872000      0.63868   -4.6067464    1926.9533  0.041471964  0.040531288            7 
 3873000   0.62788121   -4.5919546    1932.6173  0.041583124  0.040521696           12 
 3874000   0.62281913   -4.5992948    1937.5378  0.041678236  0.040512131            9 
 3875000   0.61713042   -4.6125794    1932.4402  0.041557855   0.04050253           11 
 3876000   0.62657309   -4.6113635    1930.1956  0.041498873  0.040492939            9 
 3877000   0.62156701   -4.5913325    1933.7774  0.041565157   0.04048342            7 
 3878000   0.62679266   -4.5971654    1932.3455  0.041523671  0.040473901           10 
 3879000   0.61775322   -4.6017038    1935.5192  0.041581147  0.040464372           23 
 3880000   0.63824638   -4.5758523    1939.1532  0.041648478  0.040454866           17 
 3881000   0.64210391   -4.6099357    1931.9137    0.0414823  0.040445349            7 
 3882000   0.62790274   -4.5931661    1935.3486   0.04154535  0.040435803           14 
 3883000   0.63510643   -4.5871577    1934.7947  0.041522764  0.040426288            9 
 3884000   0.62381148   -4.6354886    1932.6186  0.041465383  0.040416784           13 
 3885000   0.62369147   -4.6114873    1934.8961  0.041503563   0.04040723            9 
 3886000   0.64075586   -4.6537572    1929.1833  0.041370374  0.040397684           10 
 3887000   0.64100833    -4.571615     1934.373  0.041470993  0.040388067           31 
 3888000    0.6333688   -4.5896108    1931.3042  0.041394552  0.040378536           11 
 3889000   0.63124295   -4.6115498    1930.0917  0.041357926  0.040369013           13 
 3890000   0.62522605   -4.6088969     1934.156  0.041434361  0.040359439           10 
 3891000   0.63186777   -4.6117795    1931.8864  0.041375105  0.040349926            6 
 3892000   0.63777475   -4.6041976    1938.2621  0.041500987  0.040340439            7 
 3893000   0.64039726   -4.5896869    1934.2981  0.041405473  0.040330971            6 
 3894000   0.62823541   -4.6304031    1936.8266  0.041448951   0.04032146            4 
 3895000   0.63501288   -4.6006104    1932.5426  0.041346654  0.040311899            9 
 3896000   0.63165975   -4.5987039    1934.9796  0.041388167  0.040302401           10 
 3897000   0.62087655   -4.6137104    1943.7697  0.041565514  0.040292955            4 
 3898000   0.63111541   -4.6032193    1937.4897  0.041420593  0.040283496            7 
 3899000   0.63479375   -4.6122738      1936.91  0.041397581  0.040274077            4 
 3900000   0.63651891   -4.5826489      1934.84  0.041342736  0.040264603            5 
 3901000   0.62000731   -4.6191339    1935.7369  0.041351297  0.040255189            8 
 3902000    0.6243145   -4.6165121    1932.3954  0.041269336  0.040245709           17 
 3903000   0.62076087   -4.6214006    1932.1839  0.041254247  0.040236229           17 
 3904000   0.61390686   -4.6059652    1932.4844  0.041250094  0.040226746           11 
 3905000   0.63486249   -4.6071825     1944.242   0.04149044  0.040217305           10 
 3906000   0.63140859   -4.6090943    1935.0971  0.041284715  0.040207861           10 
 3907000   0.63620059   -4.6274636    1934.6619  0.041264865  0.040198428           13 
 3908000   0.62420489    -4.597081     1937.716   0.04131943  0.040188968           16 
 3909000   0.62983316    -4.591611    1940.8235  0.041375106  0.040179521           21 
 3910000   0.62240068   -4.6028448    1937.8302   0.04130073  0.040170042           17 
 3911000   0.61607542   -4.6058508    1936.0538  0.041252319  0.040160599            7 
 3912000   0.63137202   -4.5939389    1935.5575  0.041231201  0.040151135           12 
 3913000    0.6349454   -4.6072689    1938.3226  0.041279552  0.040141665            8 
 3914000   0.64179915   -4.6203418    1938.7412  0.041277917  0.040132225            5 
 3915000   0.61293092   -4.6038011    1938.1979  0.041255809  0.040122721            6 
 3916000   0.62954245   -4.5953601    1935.6766   0.04119162  0.040113233           13 
 3917000   0.62744435   -4.6077774    1934.2845  0.041151487  0.040103758           11 
 3918000   0.62146683   -4.6144202    1940.8732  0.041281121  0.040094284           15 
 3919000   0.61560976   -4.6143425    1936.8364   0.04118475  0.040084764           17 
 3920000   0.63992636   -4.6220945    1937.4309  0.041186881  0.040075206           13 
 3921000   0.62240063   -4.6382792    1932.1877  0.041064944  0.040065664           10 
 3922000   0.62454852   -4.6228735    1929.9135  0.041006152  0.040056138           10 
 3923000   0.62597234   -4.6169792    1933.1319  0.041064064  0.040046641           15 
 3924000   0.62162994   -4.6172991    1937.3973  0.041144183  0.040037121           10 
 3925000   0.61614023   -4.6163732    1933.7125  0.041055467  0.040027597            9 
 3926000   0.62307692   -4.5923784    1934.7856  0.041067786  0.040018079            8 
 3927000   0.63483308   -4.6061503    1935.0592  0.041063136   0.04000859           13 
 3928000   0.61321608   -4.6096198    1935.3269  0.041058361   0.03999909            7 
 3929000   0.61771843   -4.6422645      1931.07  0.040957622  0.039989566           21 
 3930000   0.61082057     -4.63253    1934.7083  0.041024349  0.039979987            5 
 3931000    0.6159828   -4.6360597    1935.3611  0.041027752  0.039970464            8 
 3932000   0.61301427   -4.6281303    1939.1993  0.041098663  0.039960988           12 
 3933000   0.62761222   -4.6178782    1932.3021  0.040942074  0.039951488            7 
 3934000     0.623172   -4.6121221    1935.2021  0.040993097  0.039942001            5 
 3935000   0.62839741   -4.6221506    1935.0903  0.040980311  0.039932497            8 
 3936000   0.62215074   -4.6076765    1936.6926  0.041003823  0.039922981            6 
 3937000   0.62027443    -4.602922    1937.6992  0.041014716  0.039913458            9 
 3938000   0.64196894   -4.6157607    1940.3967  0.041061384  0.039903996            6 
 3939000   0.62126393   -4.5999321    1929.5778  0.040822074  0.039894511           10 
 3940000   0.61885245   -4.6178076    1938.9347  0.041009618  0.039885026            8 
 3941000    0.6225011   -4.6277393    1936.3661  0.040944899  0.039875508            5 
 3942000   0.61443359   -4.6274784    1937.7416  0.040963589  0.039865998            8 
 3943000   0.63954365   -4.6291553      1928.53  0.040758517  0.039856475            8 
 3944000   0.61998107   -4.6128227    1935.6794  0.040899243  0.039846986            5 
 3945000   0.61251784   -4.6221197    1934.0922   0.04085535   0.03983748            8 
 3946000   0.62349202    -4.643836    1933.5493  0.040833529  0.039827994            8 
 3947000   0.62515666   -4.6379017    1940.7304  0.040974799  0.039818531           14 
 3948000   0.62604472   -4.6325761     1937.401  0.040894145  0.039809082           15 
 3949000   0.63332147   -4.6230306    1936.0972  0.040856276  0.039799583           11 
 3950000   0.61685386   -4.6442683     1935.693  0.040837405  0.039790093           21 
 3951000   0.62708232   -4.6236902    1938.3818  0.040883781   0.03978061            9 
 3952000   0.61850106   -4.6038374    1939.9097  0.040905653  0.039771141            6 
 3953000   0.62485909   -4.6183905      1940.96  0.040917447  0.039761699           13 
 3954000    0.6158916   -4.6257897    1935.4246  0.040790435  0.039752259            6 
 3955000   0.61465607   -4.6206176    1936.5349  0.040803517  0.039742848           15 
 3956000   0.63353077   -4.6268622    1937.6299  0.040816269   0.03973342           11 
 3957000   0.62686533    -4.624902    1941.3668  0.040884652  0.039723997            6 
 3958000   0.62992361   -4.6127804    1936.0279  0.040761914  0.039714587           11 
 3959000   0.62563746   -4.6374285    1937.6169  0.040785065  0.039705197           16 
 3960000   0.62045302   -4.6421576    1941.1049  0.040848167   0.03969579           14 
 3961000   0.61886876   -4.6407184    1936.6925  0.040745025  0.039686313           12 
 3962000   0.62930923    -4.641367    1933.6291  0.040670308  0.039676857            7 
 3963000   0.61424131   -4.6410024    1941.2499  0.040820295  0.039667361           12 
 3964000   0.60914668   -4.6359921    1938.6175  0.040754656  0.039657839            9 
 3965000   0.60956113   -4.6296696    1941.6582  0.040808285  0.039648352           12 
 3966000   0.59359078   -4.6261745    1934.2187  0.040641676  0.039638909            9 
 3967000   0.62494408   -4.6336129    1930.9594  0.040562965  0.039629416           25 
 3968000   0.61831514   -4.6349287    1939.9924  0.040742449   0.03961995            9 
 3969000   0.60331707   -4.6424971    1939.8317  0.040728809  0.039610491           11 
 3970000   0.61755974   -4.6245418    1936.9947     0.040659  0.039601081            9 
 3971000   0.61962449   -4.6391221    1932.2632  0.040549466  0.039591649           12 
 3972000   0.62570648   -4.6272177    1938.9555  0.040679664  0.039582189           12 
 3973000   0.61268843   -4.6509464     1939.292  0.040676484  0.039572747           10 
 3974000   0.61150673   -4.6371388    1943.7575  0.040759887  0.039563294            9 
 3975000   0.60854139   -4.6282169    1939.7512  0.040665643  0.039553868           10 
 3976000   0.62093885   -4.6209235    1937.1252  0.040600376  0.039544469           16 
 3977000   0.61729076   -4.6340831    1944.7082  0.040749062  0.039535057           10 
 3978000   0.61709508   -4.6286343    1940.2759  0.040645967  0.039525689            7 
 3979000   0.60469785   -4.6414974    1941.4273  0.040659866  0.039516273            9 
 3980000    0.6028632   -4.6257141    1941.2407  0.040645744   0.03950687           25 
 3981000    0.6170036   -4.6643071    1935.2398  0.040509917   0.03949742           27 
 3982000   0.61021483   -4.6337413    1939.9016  0.040597305  0.039487984            9 
 3983000   0.60667735   -4.6290776    1940.8278   0.04060649  0.039478605           28 
 3984000   0.61548466   -4.6116907    1942.7023  0.040635506  0.039469204            9 
 3985000   0.61832568   -4.6301304    1938.5009   0.04053745  0.039459823           14 
 3986000   0.60799482    -4.626928    1941.2072  0.040583861  0.039450425           11 
 3987000    0.6149033   -4.6511058    1936.0989  0.040466912  0.039441025           11 
 3988000   0.60444256   -4.6606148    1940.3736  0.040546088  0.039431617           26 
 3989000   0.60816423    -4.651395     1936.567  0.040456401   0.03942219           14 
 3990000   0.63314767   -4.6487713    1940.6192  0.040530894  0.039412728            8 
 3991000   0.61126926     -4.64235    1940.4866   0.04051797  0.039403277            8 
 3992000     0.625453   -4.6429258    1936.4485  0.040423523  0.039393806           20 
 3993000   0.60914514   -4.6487887    1938.4481  0.040455132   0.03938432            9 
 3994000   0.62157866   -4.6262488    1936.8476  0.040411609  0.039374858           11 
 3995000   0.61445556   -4.6332958    1940.4674  0.040477001  0.039365384           12 
 3996000   0.61077678   -4.6613305    1939.9704  0.040456506  0.039355922           24 
 3997000    0.6139082   -4.6525686    1937.4588   0.04039402  0.039346435            6 
 3998000   0.59954161   -4.6361364    1942.8906  0.040497136  0.039336997           10 
 3999000   0.60142322   -4.6259151    1942.1657  0.040471904   0.03932759            5 
 4000000   0.61058118   -4.6153094    1941.3674  0.040445155  0.039318158           43 
 4001000   0.61680739   -4.6234846    1944.5609   0.04050156  0.039308782           26 
 4002000   0.60548618   -4.6423135    1937.5008  0.040344427  0.039299371           14 
 4003000   0.62347791   -4.6455826    1941.5243   0.04041811  0.039289914           10 
 4004000   0.61909149   -4.6441368    1941.0542  0.040398231  0.039280471           15 
 4005000   0.59623281   -4.6457117    1938.1892  0.040328531  0.039271025           15 
 4006000   0.60820806    -4.649662    1948.0112  0.040522781  0.039261602           10 
 4007000   0.60117454   -4.6528259    1939.8253  0.040342428   0.03925219            8 
 4008000   0.60887269   -4.6503804    1939.8413  0.040332694  0.039242773           13 
 4009000   0.62453398   -4.6260134    1946.0692  0.040452092  0.039233341            5 
 4010000   0.61931998   -4.6459616    1940.7852  0.040332194  0.039223984           14 
 4011000   0.59903969   -4.6371496    1941.7615  0.040342423  0.039214605           13 
 4012000   0.60526884   -4.6686088    1936.6282  0.040225743  0.039205165           11 
 4013000   0.60191836   -4.6486891    1939.7938  0.040281455  0.039195725           14 
 4014000   0.60884194   -4.6544242    1936.7732  0.040208712   0.03918633            5 
 4015000   0.61237438   -4.6270796    1943.1393  0.040330828  0.039176873           10 
 4016000   0.60963028   -4.6744055    1938.9663  0.040234194  0.039167441           18 
 4017000   0.60798923   -4.6704663    1940.3352  0.040252576  0.039157965            9 
 4018000   0.59392364   -4.6619497    1940.0079  0.040235771  0.039148537            9 
 4019000   0.61110491   -4.6303397    1939.5174  0.040215588  0.039139145            7 
 4020000   0.62366825   -4.6405982    1942.2355  0.040261929  0.039129751           10 
 4021000   0.59363935   -4.6556269    1941.8698  0.040244338  0.039120369           13 
 4022000   0.61460879   -4.6450365    1944.4931  0.040288685  0.039110983            5 
 4023000   0.60740931   -4.6466473    1941.7496  0.040221842  0.039101683           12 
 4024000   0.62954726   -4.6552839    1940.0595  0.040176845  0.039092295            9 
 4025000   0.59081836   -4.6469614    1938.0807  0.040125895  0.039082925           16 
 4026000   0.61497397   -4.6229328    1938.9883  0.040134714  0.039073607           13 
 4027000   0.61175622   -4.6286103    1940.9155  0.040164628  0.039064286           12 
 4028000   0.61001367   -4.6266301    1948.4088  0.040309682   0.03905502           14 
 4029000   0.60871823   -4.6474699    1940.8363  0.040143052  0.039045678           13 
 4030000    0.6049599    -4.660236     1942.152  0.040160298  0.039036271            7 
 4031000     0.622832   -4.6673552    1939.9949   0.04010574  0.039026863            9 
 4032000   0.60063137   -4.6544646    1939.7721  0.040091189  0.039017437           27 
 4033000   0.60493563   -4.6369059    1940.1884   0.04008985  0.039008026           17 
 4034000   0.61157877   -4.6582474    1941.1745  0.040100284  0.038998609            9 
 4035000   0.60677242   -4.6549967    1944.8051  0.040165325  0.038989189           13 
 4036000   0.61116897   -4.6566276    1941.7974  0.040093272  0.038979838            9 
 4037000   0.60753345   -4.6544205    1940.7595  0.040061917  0.038970458           10 
 4038000   0.59042115    -4.669514    1941.5574  0.040068462  0.038961037           18 
 4039000   0.61289249   -4.6429739    1938.9055  0.040003826  0.038951608            9 
 4040000   0.62046634   -4.6421343    1941.8576  0.040054819  0.038942241           16 
 4041000   0.60012655   -4.6701985     1935.895  0.039921945  0.038932822           18 
 4042000   0.61829555   -4.6541296    1940.7216  0.040011578  0.038923409           12 
 4043000   0.60242197   -4.6374641    1943.7575  0.040064256  0.038914015           20 
 4044000   0.60714648   -4.6600974    1940.4909  0.039987036  0.038904652           13 
 4045000   0.61506714   -4.6556364    1942.1249  0.040010813  0.038895267            6 
 4046000   0.59745938   -4.6324639    1938.4884  0.039926026  0.038885907           10 
 4047000    0.6058542   -4.6481987    1943.2019  0.040013217  0.038876536            6 
 4048000   0.61718366   -4.6742472    1946.8736  0.040078919  0.038867136            7 
 4049000   0.60810624   -4.6462718    1938.9835  0.039906634  0.038857798           43 
 4050000    0.6037723   -4.6515216    1943.4018  0.039987691  0.038848377           34 
 4051000   0.60024812    -4.627898    1944.2091  0.039994428  0.038839011           30 
 4052000   0.59894931   -4.6703437    1938.0083  0.039857031  0.038829613           39 
 4053000   0.60146497   -4.6339093    1946.1026  0.040013625  0.038820217           28 
 4054000   0.59842173   -4.6536235    1944.6489  0.039973871  0.038810807           39 
 4055000   0.60306035   -4.6585802    1946.1538  0.039994941  0.038801465           19 
 4056000   0.59185137   -4.6681061    1945.7017  0.039975791  0.038792074           11 
 4057000   0.61079125   -4.6475183    1946.8508  0.039989541  0.038782708            7 
 4058000   0.59684733   -4.6487312    1945.5417  0.039952804  0.038773342            9 
 4059000   0.60660638   -4.6512524    1943.8585  0.039908403  0.038764006           23 
 4060000    0.5932672   -4.6549563     1942.927  0.039879454  0.038754682            8 
 4061000   0.60246275   -4.6542745    1945.6742  0.039926007  0.038745353            7 
 4062000   0.60472713   -4.6561796      1947.85  0.039960816   0.03873606           20 
 4063000    0.5997307   -4.6599444    1946.5077  0.039923448  0.038726718           12 
 4064000   0.59135968   -4.6680919    1949.1828  0.039968479  0.038717381            6 
 4065000   0.59468535   -4.6611617    1942.1702  0.039814886   0.03870805           10 
 4066000   0.59406524   -4.6655456    1945.8734  0.039880993  0.038698718           12 
 4067000   0.59740514   -4.6521063    1943.5128  0.039822817  0.038689398           15 
 4068000   0.60755541   -4.6829989     1945.756   0.03985898  0.038680041           16 
 4069000   0.60191259   -4.6738736    1943.2897  0.039798675  0.038670669           19 
 4070000   0.59902133   -4.6510874    1942.9488  0.039781916  0.038661315           17 
 4071000   0.58589713   -4.6620493     1941.535  0.039743204  0.038652026            8 
 4072000   0.60018581   -4.6710942    1943.4751  0.039773148  0.038642686           12 
 4073000   0.59213651   -4.6584249    1940.8644  0.039709968  0.038633362            9 
 4074000   0.59478144   -4.6397496    1946.6689  0.039818952  0.038624047            9 
 4075000   0.60734764   -4.6704983     1941.634  0.039706217  0.038614682           19 
 4076000   0.58460397   -4.6729128    1947.6414  0.039819296  0.038605376           13 
 4077000   0.60718751   -4.6551111    1945.8849  0.039773626   0.03859602           13 
 4078000    0.6017338   -4.6666397    1942.7076  0.039698946  0.038586663           17 
 4079000   0.59701593   -4.6857663    1944.5423  0.039726696  0.038577357           14 
 4080000   0.58938826   -4.6630222    1940.1927  0.039628118   0.03856799           10 
 4081000   0.60962691   -4.6618097    1948.2485  0.039782907  0.038558671            9 
 4082000   0.59397685   -4.6595916    1945.7052  0.039721239  0.038549325            6 
 4083000   0.58336664   -4.6537554    1943.8247  0.039673131  0.038539952           11 
 4084000   0.60964749   -4.6546314    1944.6798  0.039680865  0.038530596            7 
 4085000   0.60062128   -4.6545371    1941.6085  0.039608497  0.038521279           11 
 4086000   0.59896058   -4.6879066    1941.2229  0.039590938   0.03851196           12 
 4087000   0.59532558   -4.6772078    1945.6427   0.03967137  0.038502619            7 
 4088000    0.6033559   -4.6612199    1944.9273  0.039647083   0.03849329            9 
 4089000   0.59868295   -4.6647014    1947.4766  0.039689341  0.038483935           10 
 4090000   0.60640664   -4.6759103    1945.3772  0.039636862  0.038474628            9 
 4091000   0.60174941   -4.6959156    1946.7112  0.039654347   0.03846527           12 
 4092000   0.59541456   -4.6665024    1945.6514  0.039623074  0.038455993           17 
 4093000   0.60316557   -4.6669809    1941.1378  0.039521497  0.038446707           14 
 4094000   0.60560848   -4.6676938    1947.5366   0.03964209  0.038437382           11 
 4095000   0.60616746   -4.6718264    1945.2718  0.039586321  0.038428066            9 
 4096000   0.59406475   -4.6967043    1943.8629  0.039547992  0.038418767            7 
 4097000   0.59089384   -4.6837652    1945.4428  0.039570474  0.038409446           16 
 4098000   0.59832888    -4.662717    1940.6057  0.039462454  0.038400122            8 
 4099000   0.59555548   -4.6615703    1946.8615  0.039580009  0.038390822           14 
 4100000   0.59377531    -4.680318    1940.3516   0.03943804  0.038381484           14 
 4101000   0.59944816    -4.690804     1946.965   0.03956281  0.038372151           11 
 4102000   0.59240692   -4.6728113    1941.1052  0.039434121  0.038362798           19 
 4103000   0.58854527   -4.6603162    1944.1727  0.039486812  0.038353458           21 
 4104000   0.58194001   -4.6616419    1951.8052  0.039632171  0.038344217            7 
 4105000   0.60461021   -4.6644636    1945.1999  0.039488426  0.038334945            6 
 4106000   0.60858146     -4.68018     1941.356  0.039400796  0.038325633           14 
 4107000   0.59561282   -4.6581427    1948.3409   0.03953293  0.038316324           10 
 4108000    0.5846027   -4.7024042    1939.5017  0.039343998  0.038306972           14 
 4109000   0.58029613   -4.6758274    1948.6714  0.039520389  0.038297642            7 
 4110000   0.59704687   -4.6711389    1947.8226  0.039493565  0.038288326            8 
 4111000   0.60106954   -4.6848324    1947.6402  0.039480261  0.038279015            6 
 4112000   0.58812971   -4.6695575      1948.71  0.039492339  0.038269729           15 
 4113000   0.59464415   -4.6901084    1944.8086  0.039403691  0.038260433           13 
 4114000   0.60485119   -4.6646866    1951.1708  0.039522986  0.038251158           21 
 4115000   0.59126019   -4.6814108    1947.0174  0.039429272  0.038241886           15 
 4116000   0.59807473   -4.6699153    1946.1529  0.039402189  0.038232662           20 
 4117000   0.59421554   -4.6619977    1946.2605  0.039394796  0.038223396            7 
 4118000   0.59861545   -4.6697039    1949.9873  0.039460646  0.038214115            7 
 4119000   0.59522503   -4.6582863    1946.8779  0.039388158  0.038204851            7 
 4120000   0.58491735   -4.6714096    1948.9615  0.039420742  0.038195631           19 
 4121000    0.5837755   -4.6676176    1948.3817  0.039399453  0.038186408           19 
 4122000   0.59011754   -4.6921262    1944.6411  0.039314271  0.038177157           17 
 4123000   0.59249808   -4.7044861    1944.1445  0.039294699  0.038167864           24 
 4124000   0.58150846    -4.714511    1944.5891  0.039294153  0.038158489           33 
 4125000   0.59499696   -4.7029882    1945.2592  0.039298166  0.038149122           26 
 4126000   0.59647385   -4.6765248      1946.51  0.039313903  0.038139821           19 
 4127000   0.59091976   -4.6831909    1946.0616  0.039295324  0.038130514           17 
 4128000   0.57839282   -4.6940384    1942.7716  0.039219388   0.03812124           14 
 4129000   0.59119994   -4.6683172    1944.7031  0.039248871   0.03811194            8 
 4130000    0.5995989   -4.6697182    1948.3358  0.039312667  0.038102683            6 
 4131000   0.60979042   -4.6860443    1947.5112  0.039286516  0.038093407            6 
 4132000   0.58184996   -4.6689908    1948.4388  0.039295717  0.038084181            8 
 4133000   0.60158439   -4.6880881    1947.5454  0.039268196  0.038074938           22 
 4134000   0.59246003   -4.6710165     1944.197  0.039191198  0.038065686           19 
 4135000   0.57978984   -4.6798869    1945.9531  0.039217111  0.038056412           17 
 4136000   0.58940949   -4.6696609    1945.4986  0.039198472  0.038047165           13 
 4137000   0.60829135   -4.6943563    1949.1304  0.039262154  0.038037913           16 
 4138000   0.58584217   -4.7079347    1951.7158  0.039304732  0.038028574           21 
 4139000   0.60163701   -4.7150927    1944.4286  0.039148518  0.038019268           15 
 4140000   0.59604613   -4.6943761    1945.6548  0.039163743  0.038009947            5 
 4141000   0.58047244   -4.7133532    1943.9936  0.039120856  0.038000674            6 
 4142000   0.58943371   -4.6867581    1946.0673  0.039153133  0.037991399           12 
 4143000   0.57521559   -4.6751836    1954.3344  0.039309968  0.037982151           11 
 4144000   0.57822565    -4.687317    1947.4319  0.039161677  0.037972893           11 
 4145000   0.59507827   -4.6927824    1943.2054  0.039067258  0.037963597           25 
 4146000   0.58397943   -4.6934246    1944.6077   0.03908602  0.037954276           18 
 4147000   0.59579722   -4.6997945     1944.057   0.03906553  0.037944965           17 
 4148000   0.58127784   -4.6829071     1947.244  0.039120137  0.037935704           23 
 4149000   0.59757136   -4.6951086    1946.6827  0.039099435  0.037926463           12 
 4150000    0.5801096   -4.6829202    1945.1597  0.039059432  0.037917191           11 
 4151000   0.58296782   -4.6935583    1944.3377   0.03903352  0.037907931            9 
 4152000    0.5869515   -4.6945146    1948.2772  0.039103187  0.037898641           16 
 4153000   0.58768559   -4.6811472    1948.6363  0.039100976  0.037889361           19 
 4154000   0.57598334   -4.7024739    1946.4126  0.039046955   0.03788008           21 
 4155000   0.57890696   -4.6827588    1948.8098  0.039085636  0.037870804           15 
 4156000    0.5821107   -4.7108695    1943.5221  0.038970205  0.037861507           11 
 4157000   0.58528061   -4.7067654    1942.5219  0.038940781  0.037852179            9 
 4158000   0.58024538   -4.7090376    1944.8565  0.038978204  0.037842945           10 
 4159000   0.59316937   -4.7078108    1945.2007   0.03897573  0.037833653           18 
 4160000    0.5981155   -4.6812856    1948.2772  0.039027989  0.037824421           10 
 4161000   0.59309797   -4.6744525    1946.0559  0.038974123  0.037815205           16 
 4162000   0.59150819   -4.6844816    1944.3498  0.038930599   0.03780594            7 
 4163000   0.58428716   -4.7102284    1943.4611  0.038903457  0.037796656            5 
 4164000   0.58058407   -4.6996232    1948.0208  0.038985367  0.037787416           13 
 4165000   0.57822878   -4.7116751    1945.7955  0.038931483  0.037778117           11 
 4166000   0.59251419    -4.704045    1948.2471  0.038971177  0.037768852            8 
 4167000   0.58682243   -4.6981192    1949.0784   0.03897845  0.037759638            7 
 4168000   0.59287613   -4.6693768     1948.829  0.038964111  0.037750427            8 
 4169000    0.5925955   -4.6866306    1951.0736  0.038999633  0.037741277            6 
 4170000   0.58976506    -4.685423    1948.5917  0.038940681   0.03773209           16 
 4171000   0.58615356   -4.7068476    1945.3493  0.038866564  0.037722824           14 
 4172000   0.58468411   -4.7023038    1945.4442  0.038859144  0.037713566           24 
 4173000   0.57872309   -4.6989294    1949.3288  0.038927407   0.03770431           11 
 4174000   0.58156949   -4.7063772    1946.9682  0.038870951  0.037695059           37 
 4175000   0.58414999   -4.7082457    1946.4224  0.038850747  0.037685793           15 
 4176000   0.57724174   -4.6840962    1946.2886  0.038838774  0.037676555           11 
 4177000   0.58244937   -4.6984732    1946.2758  0.038829219  0.037667313           10 
 4178000   0.59025472   -4.7202936    1945.7373  0.038809184   0.03765805           12 
 4179000    0.5721696   -4.7018999    1953.7846   0.03896037  0.037648837           10 
 4180000    0.5881567   -4.6776391    1950.8849   0.03889324  0.037639687           11 
 4181000   0.59475681   -4.6853497    1949.4644  0.038855624   0.03763055            9 
 4182000   0.57605121    -4.700034    1949.6261  0.038849556  0.037621362           10 
 4183000   0.57494519   -4.7043161    1946.5502  0.038778991    0.0376122           12 
 4184000   0.59046429   -4.7056747    1947.5138  0.038788915  0.037603025            5 
 4185000   0.58622227   -4.7126267    1947.7905  0.038785155   0.03759382           19 
 4186000   0.57519468   -4.6923831     1941.045  0.038641603  0.037584617            9 
 4187000   0.57224693   -4.7023637     1947.122  0.038753324  0.037575385           10 
 4188000   0.57873333   -4.7184489    1946.0932  0.038723598  0.037566173           10 
 4189000   0.57531711   -4.7020521    1946.3436  0.038719336  0.037556948            8 
 4190000   0.58277734   -4.7220446    1948.1278  0.038745581  0.037547732            8 
 4191000   0.59068599   -4.7279783    1945.5608  0.038685294   0.03753851            9 
 4192000   0.57206384   -4.6923872    1954.1056  0.038845929  0.037529345           21 
 4193000   0.57919678   -4.6865972    1951.5959  0.038786785  0.037520171           14 
 4194000   0.56405871    -4.710653    1953.7201  0.038819744  0.037511035           19 
 4195000   0.58099133   -4.7166168    1951.2333  0.038761091  0.037501889           20 
 4196000    0.5850089   -4.7110793    1949.2266     0.038712  0.037492731           10 
 4197000   0.59288061   -4.7125571    1948.7051  0.038692421  0.037483558            6 
 4198000   0.58101664   -4.7077669    1945.9028  0.038627576  0.037474393           12 
 4199000   0.60776304   -4.7085294    1952.2057  0.038743465  0.037465227           10 
 4200000    0.5874409   -4.7146878    1955.2546  0.038794734  0.037456105           11 
 4201000   0.58107469    -4.712405    1946.9063  0.038619898  0.037447013           15 
 4202000    0.5746859   -4.6985773     1954.085  0.038753073    0.0374379            8 
 4203000   0.57780178   -4.7028823    1950.3232  0.038669268   0.03742876           10 
 4204000   0.58560592   -4.7084534    1947.4912  0.038603934  0.037419621            9 
 4205000   0.58284768   -4.7192673     1949.636  0.038637258  0.037410471           12 
 4206000     0.585409   -4.7082105    1953.8336  0.038711237  0.037401305           23 
 4207000    0.5767503   -4.7136612    1952.9758  0.038685044  0.037392173           11 
 4208000   0.57652743   -4.7127457    1946.6135  0.038549856   0.03738305           16 
 4209000   0.58979772   -4.6976797    1948.3027   0.03857414  0.037373932           16 
 4210000   0.59294658   -4.7181674    1945.8725  0.038516874  0.037364763           39 
 4211000   0.57880713   -4.7323818    1948.7734  0.038565134  0.037355626           53 
 4212000   0.57702946   -4.6850393    1947.6141  0.038533042  0.037346501           11 
 4213000   0.57678807     -4.71235    1952.5308  0.038621148  0.037337368            9 
 4214000   0.57815396   -4.7099134    1948.9067  0.038540316  0.037328238            8 
 4215000    0.5708004   -4.7069059    1954.9295  0.038650247  0.037319141           17 
 4216000    0.5770546   -4.6980213    1953.7637  0.038618036  0.037310016           10 
 4217000   0.57446062   -4.7096482    1950.2096  0.038538646   0.03730091           11 
 4218000   0.57678856   -4.7402367    1951.0364  0.038545842  0.037291746           16 
 4219000   0.57762055   -4.7083531    1953.5585  0.038586524  0.037282636           13 
 4220000   0.57435979   -4.7326685    1947.4095  0.038455955  0.037273501           12 
 4221000    0.5731581   -4.7249607    1950.3401    0.0385047  0.037264377           20 
 4222000   0.56513784   -4.7055165    1952.7367  0.038542885  0.037255289           15 
 4223000   0.56638735   -4.7174088    1951.5571   0.03851048  0.037246163           29 
 4224000    0.5794939   -4.7012423    1951.0187  0.038490741  0.037237104            4 
 4225000   0.58065058   -4.6960191    1955.5978  0.038571948  0.037228078            9 
 4226000   0.58086117   -4.7041767     1951.785  0.038487636  0.037219046           18 
 4227000   0.55908013   -4.6897482    1951.5922   0.03847473   0.03720998           11 
 4228000   0.59206672   -4.7360779    1949.7165   0.03842866  0.037200905           24 
 4229000   0.56808519   -4.7117391    1951.9634   0.03846385  0.037191824            6 
 4230000   0.56687254   -4.7095491    1951.8674  0.038452864  0.037182707           23 
 4231000   0.57281094   -4.7281964    1947.8846  0.038365332  0.037173592            8 
 4232000   0.58692878   -4.7397674    1954.0466  0.038477603  0.037164509           20 
 4233000   0.57581575   -4.7108567    1954.3482   0.03847445  0.037155378            8 
 4234000   0.59103492   -4.7105542    1951.3932  0.038407204  0.037146261           17 
 4235000   0.58004287   -4.7139015    1951.6256  0.038402708  0.037137184           21 
 4236000   0.57424316   -4.7362518    1949.1418  0.038344778  0.037128062           15 
 4237000   0.58690951   -4.7218056    1949.2925  0.038338693   0.03711899           31 
 4238000   0.57440664   -4.7011106    1953.8565  0.038419391  0.037109865           27 
 4239000   0.58621245    -4.723659    1955.0182  0.038433163  0.037100787           13 
 4240000   0.57527799   -4.7157633    1953.5649  0.038395536  0.037091719           15 
 4241000   0.58168373   -4.7107522    1949.8274  0.038313044  0.037082584           13 
 4242000   0.55688686   -4.6980116     1949.933  0.038306085  0.037073522            7 
 4243000    0.5851259   -4.7342908    1950.6299  0.038310745  0.037064421           29 
 4244000   0.57157889   -4.7382233    1952.4799  0.038338043  0.037055284           19 
 4245000   0.57438613   -4.7139965    1950.0847  0.038281992  0.037046169           18 
 4246000    0.5752388   -4.7179751    1956.8491  0.038405736  0.037037053           41 
 4247000    0.5610981    -4.716174    1951.8676  0.038298949  0.037027904           19 
 4248000   0.56406907   -4.7232958    1948.2991  0.038219928  0.037018742           31 
 4249000   0.56760722    -4.731523    1949.7266  0.038238932  0.037009557           16 
 4250000   0.56895826    -4.740411    1944.5049  0.038127547  0.037000321           14 
 4251000    0.5655836   -4.7380649    1944.2492  0.038113565  0.036991081           28 
 4252000   0.55321122   -4.7283546    1947.8802  0.038175765  0.036981892            7 
 4253000   0.57429914   -4.7254844    1944.6863  0.038104208  0.036972723           14 
 4254000   0.56230513   -4.7284753    1946.9471  0.038139538  0.036963566           10 
 4255000   0.57203686   -4.7404603     1946.816  0.038128007  0.036954433           14 
 4256000   0.57256927   -4.7237846    1950.2071  0.038185445  0.036945291           15 
 4257000   0.56427352   -4.7263293    1951.3856  0.038199546  0.036936172            8 
 4258000   0.58044307    -4.723065     1948.281  0.038129814  0.036927038           13 
 4259000   0.57979343   -4.7249853    1954.1943  0.038236563  0.036917949           14 
 4260000   0.58402789   -4.7435083    1947.7396  0.038101322  0.036908849           30 
 4261000   0.58379962   -4.7201843    1948.5349  0.038107934  0.036899733           21 
 4262000   0.57946084   -4.7126177    1954.6383   0.03821833  0.036890629           15 
 4263000   0.57175932   -4.7288325    1949.5146  0.038109207  0.036881578           16 
 4264000   0.58135788   -4.7265201    1951.9347  0.038147567  0.036872462           14 
 4265000   0.58185189   -4.7153287    1950.0905  0.038102589  0.036863368           14 
 4266000   0.56405379   -4.7270791    1951.8054  0.038127157  0.036854294           13 
 4267000   0.56138944   -4.7387026    1955.5248   0.03819086   0.03684519           17 
 4268000   0.56579521   -4.7373967    1950.7328  0.038088348  0.036836062            7 
 4269000   0.56916556   -4.7473484    1946.4039  0.037994922  0.036826918           34 
 4270000   0.57777286   -4.7306409    1954.0839  0.038135907   0.03681774           15 
 4271000   0.56082054   -4.7389389    1952.5704  0.038097448  0.036808625            7 
 4272000   0.57429235    -4.746196    1949.1276  0.038021371  0.036799529           12 
 4273000   0.57780829   -4.7271804    1950.1909   0.03803321  0.036790453           13 
 4274000   0.56316913    -4.715587     1953.629  0.038091347  0.036781395           18 
 4275000     0.559267   -4.7282733    1948.2978  0.037978514  0.036772279           27 
 4276000   0.57787731    -4.730492    1954.9447  0.038099171  0.036763228           16 
 4277000   0.58620007   -4.7321757    1947.1556    0.0379385  0.036754156           29 
 4278000   0.57172219   -4.7400622    1952.7592  0.038038788  0.036745072           23 
 4279000   0.56310209   -4.7554805    1953.6304  0.038046865  0.036735945           21 
 4280000   0.56608717   -4.7324853     1951.787  0.038002083  0.036726844            9 
 4281000   0.56983999   -4.7456154    1954.8583  0.038052992   0.03671773           12 
 4282000    0.5682257   -4.7360189    1955.4497  0.038055614  0.036708693           19 
 4283000   0.56727209   -4.7274009     1953.123  0.038001459  0.036699632            7 
 4284000   0.57095409   -4.7298384    1953.1428  0.037992973   0.03669055           13 
 4285000   0.56587328   -4.7305398    1955.8805   0.03803735  0.036681517           23 
 4286000   0.56707461   -4.7140552    1952.9982  0.037972433  0.036672515           14 
 4287000   0.56462301   -4.7464535    1948.3623   0.03787346  0.036663457           11 
 4288000    0.5611559   -4.7310476    1948.8567  0.037874236  0.036654361           10 
 4289000   0.57085668   -4.7463674     1951.209   0.03791111  0.036645321           12 
 4290000   0.58472876   -4.7376565    1951.7746   0.03791326  0.036636276           17 
 4291000   0.56301365   -4.7329951    1951.2047  0.037893356  0.036627229            9 
 4292000   0.56244576   -4.7463138    1954.0155  0.037939102  0.036618158            8 
 4293000   0.57434854   -4.7544738     1947.623  0.037806177  0.036609107           11 
 4294000   0.57659798   -4.7542979    1947.4061  0.037793163  0.036600044           23 
 4295000   0.56961024   -4.7322401     1953.032   0.03789352  0.036591004            6 
 4296000   0.55844906   -4.7489626    1947.0344  0.037768357   0.03658196           26 
 4297000   0.56101921   -4.7671627    1953.3461  0.037881975  0.036572898           18 
 4298000   0.57489034   -4.7505393    1955.8613  0.037921927  0.036563869           13 
 4299000   0.55179344   -4.7482995    1949.7655  0.037794943  0.036554832           18 
 4300000   0.55932828   -4.7514915    1955.1021  0.037889575  0.036545776           26 
 4301000   0.55500322   -4.7278418    1952.5448  0.037831218  0.036536749           37 
 4302000   0.55177996   -4.7585516    1952.4617  0.037820814  0.036527707           19 
 4303000    0.5611516    -4.744663    1950.6374  0.037776696  0.036518682            7 
 4304000   0.57288161   -4.7687983    1950.4236  0.037763779   0.03650964           13 
 4305000   0.56457375   -4.7453141    1954.6579   0.03783697  0.036500615           11 
 4306000   0.55945042    -4.758696    1952.7865  0.037791966  0.036491619            7 
 4307000   0.57116856   -4.7732027    1950.8751  0.037746209  0.036482595           14 
 4308000   0.56580148   -4.7579339     1953.298  0.037784317  0.036473562           20 
 4309000   0.56194842   -4.7563134    1948.7978  0.037688516  0.036464522           20 
 4310000   0.55572428   -4.7657388    1950.3391  0.037709573  0.036455469           19 
 4311000   0.57290224   -4.7868558    1951.2874  0.037719156   0.03644642           13 
 4312000   0.55111853   -4.7398757    1955.5883  0.037793527  0.036437379           11 
 4313000   0.55438383   -4.7306118    1954.5673  0.037765038  0.036428381           17 
 4314000   0.55226883   -4.7416818     1949.134  0.037651328  0.036419404            9 
 4315000   0.56789754   -4.7535599    1956.3189  0.037781362  0.036410466            7 
 4316000   0.55296812   -4.7215373    1952.7319   0.03770335  0.036401495            7 
 4317000   0.56790824   -4.7404997    1954.4411  0.037727609   0.03639249           12 
 4318000   0.54349408   -4.7324987      1955.76  0.037744327  0.036383503            7 
 4319000   0.55369217    -4.741177    1956.2926  0.037745863   0.03637455            9 
 4320000   0.56704898   -4.7613427    1951.2237  0.037639345  0.036365569           11 
 4321000   0.55939741   -4.7496641    1951.2538  0.037631216  0.036356563            9 
 4322000   0.56740407   -4.7351891    1953.2087  0.037660201  0.036347546           12 
 4323000   0.54865736   -4.7479949    1950.3054  0.037595525  0.036338521            9 
 4324000   0.55235302   -4.7645148    1951.6573  0.037612883   0.03632951            6 
 4325000   0.55761039   -4.7356023    1953.8621  0.037646668  0.036320512           14 
 4326000   0.56005951    -4.771355    1953.0084  0.037621521  0.036311497           10 
 4327000   0.55387881   -4.7510035    1952.7124  0.037607126  0.036302534           11 
 4328000   0.56369954   -4.7352154    1949.2589   0.03753194  0.036293542           10 
 4329000   0.56222403   -4.7603757    1952.5608  0.037586833  0.036284521            8 
 4330000   0.56286807   -4.7368779    1948.2738  0.037495647  0.036275514           13 
 4331000   0.55939737   -4.7642365    1948.4569  0.037490512  0.036266467           14 
 4332000   0.56048076   -4.7767915    1949.3833  0.037499679  0.036257415            4 
 4333000   0.55291943   -4.7488894    1955.1068    0.0376011  0.036248344            9 
 4334000   0.55077718   -4.7571405    1953.2942  0.037557573  0.036239317           20 
 4335000   0.55694243   -4.7588415    1953.5469  0.037553766  0.036230293           17 
 4336000   0.55526341   -4.7542489    1951.1493  0.037499026  0.036221283            8 
 4337000   0.56269844   -4.7569501     1953.802  0.037541349  0.036212298           11 
 4338000   0.56799395    -4.761808    1956.2644  0.037579998  0.036203288           15 
 4339000   0.56405157   -4.7572457     1951.204   0.03747415  0.036194241           28 
 4340000   0.56163582   -4.7533184    1950.5539  0.037453032  0.036185227            8 
 4341000   0.54780737   -4.7576264      1952.39  0.037479651  0.036176196           13 
 4342000    0.5521616   -4.7352903    1950.4325   0.03743345  0.036167205            8 
 4343000   0.55072184   -4.7624396    1954.5969  0.037504737  0.036158202            9 
 4344000   0.55580434   -4.7593316    1954.3825   0.03749199  0.036149243            8 
 4345000   0.55779316   -4.7462416    1954.0111  0.037476239   0.03614029           15 
 4346000   0.55944458   -4.7456723    1958.7437  0.037558361  0.036131369           28 
 4347000   0.56425807   -4.7395117     1958.675  0.037548405  0.036122466           22 
 4348000   0.55921064   -4.7525043    1954.5941  0.037461554  0.036113558           17 
 4349000   0.56037413   -4.7641301      1952.77  0.037417989   0.03610461           17 
 4350000   0.54933555   -4.7678275       1952.3  0.037400383   0.03609563           20 
 4351000   0.56093508   -4.7739517     1955.299  0.037449226  0.036086671           12 
 4352000   0.56152865   -4.7585967    1953.9536  0.037414858  0.036077737            9 
 4353000   0.56034254     -4.75735    1952.8295  0.037384745    0.0360688           11 
 4354000   0.56296557   -4.7626376    1954.6688  0.037411361  0.036059853            8 
 4355000   0.55628409   -4.7350589    1957.3965  0.037454965  0.036050957           12 
 4356000   0.54946466   -4.7435965    1957.1153  0.037440987  0.036042045           21 
 4357000   0.56399155   -4.7624634    1949.7659  0.037291827  0.036033125           14 
 4358000   0.55905981   -4.7614818    1955.9297  0.037401133   0.03602419           19 
 4359000   0.55734777   -4.7776035    1950.2801  0.037284547  0.036015251            8 
 4360000   0.55805236    -4.785578    1956.8431  0.037401435  0.036006286           11 
 4361000   0.54776148    -4.767312    1948.5417   0.03723423  0.035997338           16 
 4362000   0.55472722   -4.7730175    1957.1497  0.037390143  0.035988325           19 
 4363000   0.55695616   -4.7871377    1948.4023  0.037214498  0.035979323           18 
 4364000   0.55151425   -4.7601324    1953.0356  0.037294448  0.035970317           15 
 4365000   0.54941771   -4.7872877    1951.1863  0.037250598   0.03596131           13 
 4366000   0.55118773   -4.7674782    1945.6874  0.037137108  0.035952322           12 
 4367000   0.53621274   -4.7554657    1954.9811  0.037305951  0.035943354           13 
 4368000   0.55164268   -4.7654156    1956.4076  0.037324627  0.035934404            8 
 4369000   0.54647143   -4.7825834    1952.2175  0.037236162  0.035925407            8 
 4370000   0.54493196   -4.7884101    1955.0393  0.037281451  0.035916461           16 
 4371000   0.54685047   -4.7545874    1953.3331  0.037240393  0.035907512            5 
 4372000   0.56081414   -4.7695044    1952.1254  0.037208855  0.035898557            7 
 4373000   0.55098453   -4.7514715    1953.0058  0.037217124  0.035889607            8 
 4374000   0.53869914    -4.773169    1954.0456  0.037228425  0.035880642            5 
 4375000    0.5542289   -4.7606267    1949.3891   0.03713122  0.035871672           21 
 4376000   0.54956965   -4.7756376    1957.1219  0.037269994  0.035862696           11 
 4377000   0.54414022   -4.7651032    1946.9187  0.037067221   0.03585371            9 
 4378000   0.56135644   -4.8020817    1949.2843  0.037103781  0.035844635           19 
 4379000    0.5478144   -4.7638971    1955.7357   0.03721808  0.035835649           24 
 4380000   0.55301257   -4.7958395    1950.9713  0.037118936  0.035826676           16 
 4381000    0.5399825   -4.7524124    1951.3529  0.037117723  0.035817686           11 
 4382000   0.54562765   -4.7590247    1951.8246  0.037118222  0.035808721           14 
 4383000   0.56812273    -4.784852     1948.444  0.037045479  0.035799719           20 
 4384000   0.55556587   -4.8010935    1949.1774  0.037050969  0.035790696           43 
 4385000   0.56128188   -4.7697408    1948.7064   0.03703357  0.035781695           11 
 4386000   0.53843756   -4.7689381      1956.69  0.037176812  0.035772715           26 
 4387000   0.54347722   -4.7866436    1950.6061  0.037052772  0.035763696           14 
 4388000   0.54979316   -4.7982513     1951.784  0.037066698  0.035754693           26 
 4389000   0.54877948   -4.7493632    1957.3508  0.037163947  0.035745711            9 
 4390000   0.55638159   -4.7634093    1949.3673  0.037003934  0.035736757            9 
 4391000   0.54965265   -4.7910193    1950.6596  0.037020034  0.035727773           12 
 4392000   0.55496511   -4.7783211    1947.4275   0.03695028  0.035718812           14 
 4393000   0.54347597   -4.7982432    1949.4569  0.036980364  0.035709825           33 
 4394000   0.54365826   -4.7819749    1950.1712  0.036985496  0.035700853           52 
 4395000   0.55406938   -4.7559868    1949.0324  0.036955488  0.035691899            8 
 4396000   0.55282152   -4.7633524    1953.2618  0.037027255  0.035682953           22 
 4397000    0.5474833   -4.7765449    1953.5103  0.037023545  0.035673999           13 
 4398000   0.54003957   -4.7982354    1954.3014  0.037030115  0.035665024           23 
 4399000   0.54723254   -4.7736553     1955.035  0.037035596  0.035656045           15 
 4400000   0.54451064   -4.7808749    1953.7502  0.037002845  0.035647078           19 
 4401000   0.54456811   -4.7683894    1953.1235  0.036982569  0.035638155           21 
 4402000   0.53832261   -4.7682258    1952.3609  0.036959733  0.035629203            8 
 4403000   0.56224638   -4.7729785    1952.1952  0.036948202  0.035620253           15 
 4404000   0.56049524   -4.7697792    1951.7238  0.036930892  0.035611331           11 
 4405000   0.54509732   -4.7810279    1957.9079  0.037039499  0.035602426           20 
 4406000   0.54540681   -4.7888033    1947.8322  0.036840525  0.035593519            9 
 4407000   0.53987743   -4.7697161    1955.2678  0.036972766  0.035584587           15 
 4408000    0.5526918   -4.7798036    1952.5326  0.036912671  0.035575679           10 
 4409000   0.56463508   -4.7671719    1954.8036  0.036947221  0.035566775           18 
 4410000   0.54901129   -4.7822784    1953.1603   0.03690779  0.035557891           26 
 4411000   0.54586013   -4.7866807    1949.1027  0.036822766  0.035548932           14 
 4412000   0.54046615    -4.798147    1953.5239  0.036897928  0.035539957            9 
 4413000   0.55089193   -4.7809519    1953.0544  0.036880701  0.035531019            8 
 4414000   0.55860617   -4.7945661    1954.3844  0.036897454  0.035522102            8 
 4415000   0.53809047   -4.7920556    1947.9226   0.03676713  0.035513176            8 
 4416000   0.55333499   -4.7886131    1951.5375  0.036827021   0.03550423           38 
 4417000   0.53435752   -4.7993241    1949.4883  0.036780022  0.035495258           16 
 4418000   0.54536774   -4.7803676     1947.052  0.036725743  0.035486322            8 
 4419000   0.53394949   -4.7839335    1952.7165  0.036824253  0.035477375           29 
 4420000   0.55618491   -4.7773965    1953.5837  0.036832272  0.035468424           19 
 4421000   0.54497622    -4.776298     1952.249  0.036798783  0.035459515           14 
 4422000   0.53786662   -4.8092896    1955.2383  0.036846794  0.035450575           13 
 4423000   0.54323631    -4.779477     1950.017   0.03674009  0.035441647           16 
 4424000   0.55272941   -4.8025909    1954.3378  0.036813174  0.035432687           26 
 4425000    0.5443431   -4.7879639    1949.6704  0.036716956  0.035423725           21 
 4426000   0.54999108    -4.781023    1949.3779  0.036703154  0.035414767           23 
 4427000   0.54539792    -4.785814    1952.9942  0.036762936  0.035405828           18 
 4428000   0.53744526   -4.7967921    1952.7481  0.036750003  0.035396891           28 
 4429000   0.55195222   -4.7929001    1948.3963  0.036659824  0.035387961           12 
 4430000   0.54372013   -4.7861561    1951.3487  0.036707086  0.035379006           13 
 4431000   0.53853588   -4.7994152    1952.1682  0.036714215  0.035370058           11 
 4432000   0.53528498   -4.7914414    1949.5953  0.036657553  0.035361134           20 
 4433000   0.53988381   -4.7869871     1954.201  0.036735864  0.035352211           10 
 4434000   0.55588515   -4.7707181    1952.8435  0.036702066  0.035343312           15 
 4435000   0.54402721   -4.7862452    1954.2868   0.03672091  0.035334449           13 
 4436000   0.54762022   -4.7621729    1955.6675  0.036738569  0.035325593            9 
 4437000   0.53126815    -4.792188    1954.3451  0.036705452  0.035316743            9 
 4438000   0.53565151   -4.7768196    1949.6386  0.036608806  0.035307848           15 
 4439000   0.53968855   -4.8045152    1948.6513  0.036582024  0.035298943           26 
 4440000   0.54033733   -4.7656353    1950.4735  0.036607986  0.035290013           10 
 4441000   0.52753096   -4.7908711    1954.7948  0.036680831  0.035281089           27 
 4442000   0.53017019   -4.8030747    1953.0895  0.036640581  0.035272163            5 
 4443000   0.54782804   -4.7961354    1949.3925  0.036562992  0.035263229           36 
 4444000   0.53664493   -4.7734726      1953.76  0.036636663  0.035254313           25 
 4445000   0.55035961    -4.798026    1953.6862  0.036627037  0.035245399           23 
 4446000   0.54146027   -4.7846957    1953.9536  0.036623811  0.035236516           21 
 4447000   0.54356865   -4.7867247    1955.0808    0.0366367   0.03522762           22 
 4448000    0.5542169   -4.7935713    1952.9273  0.036588117  0.035218688           12 
 4449000   0.54526789   -4.7919475    1948.4973  0.036496915  0.035209722           26 
 4450000   0.55223769   -4.8157374    1947.4282  0.036468693  0.035200759           24 
 4451000   0.53491219   -4.8059279    1949.1401   0.03649255  0.035191797            7 
 4452000   0.53851376   -4.7858929     1946.479  0.036434542   0.03518288            7 
 4453000   0.55623476   -4.7817323     1955.953  0.036603656  0.035174036           14 
 4454000   0.53397273   -4.7884426    1952.4508  0.036529913  0.035165181           42 
 4455000   0.55606601   -4.7711724    1948.5457  0.036448666  0.035156314           10 
 4456000   0.54371812   -4.7739623    1952.3405  0.036511454  0.035147443           51 
 4457000   0.54429532   -4.8016062    1949.4515  0.036449246  0.035138544           18 
 4458000   0.53532619   -4.8099655     1946.127  0.036378925  0.035129655           18 
 4459000   0.54382576   -4.8141527    1950.0862  0.036444759  0.035120719            8 
 4460000   0.53826478   -4.7930795    1947.3088  0.036384694  0.035111774           17 
 4461000   0.51976713   -4.8117648    1948.6474  0.036401543  0.035102852           28 
 4462000    0.5450493   -4.7867142    1950.0951  0.036420422  0.035093956           15 
 4463000   0.53347288   -4.7830159     1953.824  0.036481889  0.035085088           37 
 4464000    0.5251698   -4.7809906     1952.429  0.036447674  0.035076241           14 
 4465000   0.53529438   -4.8068415    1947.8263  0.036353608  0.035067321           19 
 4466000    0.5353365   -4.8038368    1949.0077  0.036367513  0.035058442           33 
 4467000   0.53128092   -4.7901376    1949.7318  0.036372879  0.035049551           26 
 4468000   0.53763334   -4.8010281     1953.423  0.036433583  0.035040665            9 
 4469000   0.54254087   -4.7895788    1955.1497  0.036457628  0.035031785           17 
 4470000   0.52739549   -4.7949096    1945.9807  0.036278536  0.035022922           16 
 4471000   0.53776317   -4.7837443     1951.304  0.036369642  0.035014061           10 
 4472000   0.54502842   -4.8053805    1952.0372  0.036375171  0.035005196           13 
 4473000   0.53371648   -4.7895749    1954.7029  0.036416702  0.034996327           19 
 4474000   0.53656897   -4.7889756    1951.7091    0.0363528   0.03498746           25 
 4475000   0.53259415   -4.7981461    1955.8226  0.036421277  0.034978608           11 
 4476000   0.53771187    -4.793479    1946.4356  0.036238375  0.034969746           24 
 4477000   0.55023522   -4.8196387    1949.9443  0.036295591  0.034960892           26 
 4478000   0.53631245   -4.7832066    1946.6402  0.036225997  0.034952037           29 
 4479000   0.54583399   -4.7937148    1950.0383  0.036281132  0.034943159           26 
 4480000   0.52499431    -4.785946    1952.1291  0.036311926  0.034934301           68 
 4481000   0.53400016   -4.8243663    1950.7658  0.036278468  0.034925452           16 
 4482000   0.52823221   -4.7937616    1947.6978  0.036213331  0.034916585           84 
 4483000   0.53271213    -4.801795    1954.5702  0.036333002  0.034907716           27 
 4484000   0.52658298   -4.8045385    1951.7956  0.036273334  0.034898873           33 
 4485000   0.53212763   -4.8070035    1950.6997  0.036244884  0.034890026           48 
 4486000   0.53397327   -4.7749926    1953.8532  0.036295385  0.034881211           18 
 4487000   0.54298311   -4.8128936    1948.5626  0.036189039  0.034872397           76 
 4488000   0.52948061   -4.8163571    1950.8147  0.036222792  0.034863535           25 
 4489000   0.53655363   -4.8067393    1952.6784  0.036249321  0.034854703           31 
 4490000   0.53538576   -4.8250846    1951.2634  0.036214986   0.03484584           23 
 4491000    0.5254621   -4.7898772    1954.5194  0.036267338  0.034836967           14 
 4492000   0.54182286   -4.8189628     1951.079  0.036195439  0.034828104            7 
 4493000     0.532567   -4.8113782    1951.1925   0.03618949  0.034819216           21 
 4494000   0.52960517   -4.8065573    1944.6916  0.036060888  0.034810351           14 
 4495000   0.53003188   -4.8041522    1949.8526  0.036148547  0.034801486           15 
 4496000   0.52655244   -4.8039667    1951.9145  0.036178723  0.034792618           10 
 4497000   0.53645732   -4.8172817     1955.645  0.036239809  0.034783759           12 
 4498000   0.53527937   -4.8046268     1951.158  0.036148622  0.034774907           44 
 4499000   0.53742214   -4.8151413    1952.1538  0.036159032  0.034766069           21 
 4500000   0.53472163   -4.8222826    1953.4739  0.036175442  0.034757246           21 
 4501000   0.54010157   -4.8095484    1954.6993  0.036190092  0.034748445           48 
 4502000   0.53445621   -4.8068534    1953.2967  0.036156092  0.034739659            9 
 4503000   0.52596892   -4.8153453    1946.1976  0.036016686   0.03473085           23 
 4504000   0.52565717   -4.8219376    1947.0989  0.036025365  0.034722004           12 
 4505000   0.53377859    -4.812255    1952.6181  0.036119462  0.034713158           21 
 4506000   0.52797924   -4.8186236    1951.7125  0.036094697  0.034704333           20 
 4507000   0.53848018   -4.8276033    1947.2912  0.036004941  0.034695483           23 
 4508000   0.53524677   -4.8257191    1951.9578  0.036083219  0.034686637           15 
 4509000   0.52650994   -4.8058571    1950.6964  0.036051904  0.034677796           32 
 4510000   0.53387506   -4.8042108    1952.1043  0.036069924  0.034668978           45 
 4511000   0.52703388   -4.8043565    1950.4706  0.036031749   0.03466018           40 
 4512000   0.52633562   -4.8035286    1954.9538  0.036106564  0.034651345           74 
 4513000   0.52581236   -4.8198294    1952.0061  0.036044133  0.034642525           38 
 4514000   0.53141204   -4.8183063    1948.7908  0.035976791  0.034633686           28 
 4515000   0.52729624    -4.799376    1951.4057  0.036017086  0.034624879           14 
 4516000   0.53860147   -4.8139255    1954.7035  0.036069964  0.034616045           15 
 4517000   0.52320999   -4.8206286    1953.3435  0.036036888  0.034607212           10 
 4518000   0.54134553   -4.8013026    1957.3933   0.03610361  0.034598406           14 
 4519000    0.5271477   -4.8172103    1952.0976  0.035997964  0.034589599           10 
 4520000   0.51976057   -4.8109523     1953.953  0.036024207  0.034580745           31 
 4521000   0.54360547   -4.8190667     1947.171   0.03589123  0.034571912           34 
 4522000   0.51878895   -4.8279985     1950.252   0.03594007  0.034563038           24 
 4523000   0.53907553   -4.8172096    1951.0624  0.035947055  0.034554214           23 
 4524000   0.52604689   -4.8250186    1949.8206  0.035916236  0.034545369           17 
 4525000   0.52415154   -4.8176949    1946.5347  0.035847784  0.034536507           21 
 4526000   0.52905233   -4.8153178     1948.052    0.0358678  0.034527648           22 
 4527000   0.51972113   -4.8227362     1944.594  0.035796223  0.034518783           26 
 4528000    0.5381331   -4.8427351    1947.2967  0.035838057  0.034509917           17 
 4529000   0.53783046   -4.8204079    1949.3094  0.035867177  0.034501053           44 
 4530000   0.53095249   -4.8073448    1947.5807   0.03582746  0.034492213            8 
 4531000   0.53306474   -4.8173066    1956.1592  0.035977326  0.034483414           19 
 4532000   0.52813361   -4.8340478    1951.1639  0.035877536  0.034474579           30 
 4533000   0.52791268   -4.8126497    1951.8603  0.035882423  0.034465776           52 
 4534000   0.53016883    -4.829582    1952.9057  0.035893723  0.034456945           22 
 4535000   0.51786584   -4.8351161    1947.4087  0.035784798   0.03444811           16 
 4536000   0.52372103   -4.8113227    1949.3292  0.035812191  0.034439288           28 
 4537000   0.53381108   -4.8056053    1951.8456  0.035850518  0.034430466           21 
 4538000   0.53285789   -4.8272157    1946.4865  0.035744207  0.034421654           23 
 4539000   0.53282196   -4.8311602    1951.0234  0.035819626   0.03441285           34 
 4540000    0.5148259   -4.8439307    1952.3411  0.035835924  0.034404051           11 
 4541000   0.51875268   -4.8050185    1947.6325  0.035741623  0.034395234           18 
 4542000   0.53581012   -4.8045362    1954.9911  0.035868764  0.034386441           11 
 4543000   0.52853339   -4.8341531    1952.5014  0.035815198  0.034377696           14 
 4544000   0.51244205   -4.8223525    1949.7569  0.035756985  0.034368905           34 
 4545000   0.51681487   -4.8215373     1949.336    0.0357414  0.034360114           11 
 4546000   0.53102686     -4.83481    1948.5213  0.035718603  0.034351292           22 
 4547000    0.5210219   -4.8194052     1955.837  0.035844825  0.034342505           35 
 4548000   0.51931497   -4.8298734    1953.0205  0.035785336  0.034333681           12 
 4549000   0.53906278   -4.8237525    1951.5137  0.035749866  0.034324878           10 
 4550000   0.51650368   -4.8303142    1950.8742  0.035730296  0.034316097           21 
 4551000   0.52778712   -4.8328439    1949.3281  0.035694135  0.034307322           26 
 4552000   0.52349798   -4.8359474    1952.9042  0.035751761  0.034298543           42 
 4553000   0.51594063   -4.8362703    1949.0897  0.035674093   0.03428975           27 
 4554000   0.52524682   -4.8282684    1950.6993  0.035695713  0.034280955           14 
 4555000   0.51555384   -4.8309124    1953.5645  0.035740295  0.034272163           13 
 4556000   0.52692758   -4.8188747    1951.5923  0.035696377  0.034263426           17 
 4557000   0.52993618   -4.8325049    1955.8914   0.03576716  0.034254704           14 
 4558000   0.51662035    -4.828007    1954.0108   0.03572493  0.034245953           10 
 4559000   0.52252625   -4.8146081    1950.1673   0.03564684   0.03423723           18 
 4560000   0.52800496   -4.8263673    1949.6018  0.035628688  0.034228495           28 
 4561000   0.53261487   -4.8242803    1955.1037    0.0357214   0.03421978           16 
 4562000   0.51961182   -4.8284347    1950.8267  0.035635443  0.034211054           22 
 4563000   0.51295129   -4.8308112    1952.8517  0.035664615  0.034202302           47 
 4564000   0.51101254   -4.8602803    1947.4526   0.03555822  0.034193526           36 
 4565000   0.52140108   -4.8325333     1949.509   0.03558797  0.034184735           21 
 4566000   0.52643547   -4.8323805     1954.799  0.035676723  0.034175992           21 
 4567000    0.5085722   -4.8342571     1950.177  0.035584575  0.034167256            9 
 4568000   0.52266219   -4.8284167    1953.8229  0.035643296  0.034158546           27 
 4569000   0.52953556   -4.8238566    1954.2619  0.035643502  0.034149822           33 
 4570000   0.53349748   -4.8375886    1953.3374  0.035618844  0.034141109           29 
 4571000    0.5155638   -4.8097813    1953.5105  0.035614207  0.034132391           20 
 4572000    0.5230315   -4.8524609    1952.2107  0.035582727  0.034123694           25 
 4573000   0.53092371   -4.8500944    1951.2269  0.035557018  0.034114949           56 
 4574000   0.52197423   -4.8357065     1948.931  0.035507414  0.034106193           64 
 4575000   0.51628555   -4.8443498    1952.7236  0.035568735  0.034097438           38 
 4576000   0.51236189   -4.8306297    1950.2602  0.035516102  0.034088716           23 
 4577000   0.52940015   -4.8273202    1946.9723   0.03544848  0.034079995           17 
 4578000   0.51174564   -4.8257894    1950.6226  0.035507182  0.034071251           33 
 4579000   0.52940942   -4.8151044    1950.5098  0.035497375  0.034062528           22 
 4580000   0.51716487   -4.8390999    1952.4056   0.03552412  0.034053812           24 
 4581000   0.52322496   -4.8430638    1946.9244  0.035416656  0.034045109           33 
 4582000    0.5244412   -4.8418274    1946.5412  0.035401957  0.034036385           14 
 4583000   0.51271986   -4.8432838    1950.5517  0.035467156  0.034027669           63 
 4584000   0.52329932   -4.8349542    1953.8802  0.035519928  0.034018979           25 
 4585000   0.52481611   -4.8581501    1946.8084   0.03538365  0.034010256           17 
 4586000   0.51576494   -4.8426833    1949.6106  0.035426854  0.034001518           12 
 4587000   0.51675552   -4.8549049    1947.4275   0.03537947  0.033992791           26 
 4588000   0.51868984    -4.843328    1949.5267  0.035409886  0.033984068           24 
 4589000   0.52644954   -4.8473196     1949.821  0.035407515  0.033975335           12 
 4590000   0.51339386   -4.8524566    1949.3486  0.035391224  0.033966619           15 
 4591000   0.51920288   -4.8303716     1955.486  0.035494917  0.033957922           21 
 4592000   0.51851541   -4.8260011    1950.1138  0.035389696  0.033949215           15 
 4593000   0.50916049   -4.8473084    1953.7274  0.035447555  0.033940482           19 
 4594000   0.52305524   -4.8505038    1951.2527  0.035394948   0.03393175           18 
 4595000   0.51060984   -4.8464832    1952.7083  0.035413643  0.033923026           31 
 4596000   0.51633105   -4.8497684    1949.2828  0.035343829   0.03391428           68 
 4597000   0.52564745   -4.8678784    1954.6161   0.03543282  0.033905547           91 
 4598000   0.52678967   -4.8427492    1950.1844  0.035344794  0.033896817           20 
 4599000   0.51721059   -4.8347127    1950.1015  0.035335608  0.033888107           33 
 4600000   0.52214637   -4.8305005    1952.4445  0.035370371  0.033879416           37 
 4601000   0.50700297   -4.8397279    1952.0654  0.035355817  0.033870744           37 
 4602000    0.5127798   -4.8528918    1949.7102  0.035305487  0.033862041           26 
 4603000   0.51083781   -4.8397365    1949.6867  0.035297392  0.033853322           24 
 4604000   0.51612572   -4.8314093    1947.4601  0.035249422  0.033844586           24 
 4605000   0.50718415   -4.8267262    1950.7724  0.035301708  0.033835916           21 
 4606000   0.50846565   -4.8434595    1951.2659  0.035302973  0.033827227           12 
 4607000   0.50860988   -4.8509127    1949.9671  0.035271817  0.033818555           28 
 4608000   0.51826263   -4.8257901    1948.3705  0.035235287  0.033809886           13 
 4609000   0.51548003   -4.8463578    1954.3606  0.035335948   0.03380123           13 
 4610000   0.51079514   -4.8445837    1948.2795  0.035218358  0.033792565            8 
 4611000   0.51362867   -4.8567556    1952.5082  0.035287144  0.033783885           17 
 4612000   0.51147502   -4.8531283    1953.6683  0.035300453  0.033775229           34 
 4613000   0.51352362   -4.8504268    1948.1514  0.035193139  0.033766558           12 
 4614000   0.51708262   -4.8360618    1951.5278  0.035246493  0.033757894            7 
 4615000   0.50202563   -4.8295615    1954.0495   0.03528439  0.033749236           12 
 4616000   0.51054526   -4.8400621    1952.8209  0.035254565  0.033740579           44 
 4617000   0.51543885   -4.8401976    1949.4245  0.035185628  0.033731887           16 
 4618000   0.51598272   -4.8620426    1945.2741  0.035103113  0.033723193           15 
 4619000   0.52005088   -4.8522327    1954.9284   0.03526969  0.033714503           15 
 4620000    0.5042715   -4.8455132     1948.471   0.03514558  0.033705811           22 
 4621000   0.51476218   -4.8415938    1951.5679  0.035193824   0.03369712           27 
 4622000   0.52313922   -4.8519792       1950.9  0.035174167  0.033688444           17 
 4623000    0.5275857   -4.8470792    1948.7907  0.035128537  0.033679776           14 
 4624000   0.50846644   -4.8406736    1949.4145  0.035132182  0.033671108           21 
 4625000   0.51716828   -4.8396775     1949.066  0.035118306  0.033662422           14 
 4626000   0.51796501   -4.8701688    1950.3368  0.035133607  0.033653779           16 
 4627000   0.50866486   -4.8414908    1952.6595  0.035167846  0.033645102           43 
 4628000   0.51361476   -4.8541668     1948.675  0.035088502  0.033636418           33 
 4629000   0.51300077   -4.8460063    1950.8679  0.035120398   0.03362772           17 
 4630000   0.51402356   -4.8558536    1948.9203   0.03507776  0.033619052           12 
 4631000   0.51274029   -4.8495092    1950.7487  0.035103086  0.033610408           64 
 4632000   0.51649732   -4.8572722    1950.1361  0.035084487  0.033601743           36 
 4633000   0.49766455   -4.8639661    1951.0446  0.035093255  0.033593092           11 
 4634000   0.50791593   -4.8434703    1950.2775  0.035071888  0.033584443           25 
 4635000   0.51337395   -4.8647736    1951.2342   0.03508152  0.033575783           16 
 4636000    0.5016163   -4.8519912    1950.2359  0.035056009  0.033567126           15 
 4637000    0.5018087   -4.8435903    1947.8543  0.035005649  0.033558484           19 
 4638000   0.50484146   -4.8635031    1950.9717  0.035054114  0.033549835           29 
 4639000   0.51796122   -4.8483284    1949.9754  0.035028659  0.033541178           26 
 4640000   0.49922453    -4.859117    1947.8824   0.03498352  0.033532519           13 
 4641000   0.51411648     -4.87479    1948.9552  0.034995246  0.033523878           14 
 4642000   0.51487877   -4.8608916    1952.3681  0.035048975  0.033515227           27 
 4643000   0.50215726   -4.8595015    1947.3545  0.034951441  0.033506563           19 
 4644000   0.50819984    -4.876146    1949.0612  0.034974541  0.033497864           37 
 4645000   0.51233505   -4.8737429    1949.2522  0.034970438  0.033489183           11 
 4646000   0.49936227   -4.8662369    1948.4861   0.03494917  0.033480512           18 
 4647000   0.50318563    -4.880153    1950.2309  0.034972938  0.033471837           30 
 4648000   0.50459932   -4.8660518    1947.2775  0.034912463  0.033463204           16 
 4649000   0.50666438   -4.8642707    1951.5219  0.034981033   0.03345458           31 
 4650000    0.5094517   -4.8547012    1951.4514  0.034972247  0.033445983           15 
 4651000   0.50936113   -4.8652982    1948.8178  0.034917542  0.033437372           29 
 4652000   0.51403926    -4.859973    1943.8982  0.034821908  0.033428791           23 
 4653000   0.50714572   -4.8581741    1952.7106   0.03497225  0.033420199           15 
 4654000   0.51849852    -4.862847     1951.193  0.034937562  0.033411595           13 
 4655000   0.50972839   -4.8540489    1951.3732  0.034933284  0.033402997           36 
 4656000   0.50426762   -4.8497024    1954.1137  0.034974829  0.033394419           26 
 4657000   0.50121408   -4.8585015    1953.0491  0.034948269  0.033385855           10 
 4658000    0.5178796   -4.8525167    1949.4011  0.034875502  0.033377293           20 
 4659000   0.50457487    -4.851927    1949.2781  0.034865816  0.033368702           16 
 4660000   0.50291468   -4.8558235    1953.6984  0.034937382  0.033360109           30 
 4661000   0.50636563   -4.8527739    1951.5574  0.034891608  0.033351537           23 
 4662000   0.51644629   -4.8563836    1952.7536  0.034905505  0.033342958           17 
 4663000   0.49453914   -4.8683037    1952.1179  0.034886659  0.033334353           65 
 4664000   0.50691843   -4.8656482    1952.3791  0.034883846  0.033325765           51 
 4665000   0.49859188   -4.8622031    1949.3206  0.034821733   0.03331719           41 
 4666000   0.50584058   -4.8873596    1949.2305   0.03481266   0.03330862           25 
 4667000   0.51170454   -4.8716331    1953.2712  0.034877351  0.033300026           61 
 4668000   0.49721397    -4.871998    1948.1565  0.034778571  0.033291417           23 
 4669000   0.50805624   -4.8739554    1952.0453  0.034840532  0.033282825           48 
 4670000   0.51350296   -4.8575716    1949.1101  0.034780695  0.033274247           23 
 4671000   0.51026137    -4.874916    1953.2122  0.034846432  0.033265676           38 
 4672000   0.50321554    -4.862538    1947.4938  0.034736975  0.033257103           39 
 4673000   0.50127282   -4.8788912    1949.6631  0.034768228  0.033248547            8 
 4674000   0.51065917   -4.8857864    1944.8197  0.034674435  0.033239966           21 
 4675000   0.50259557   -4.8477196    1946.4326  0.034695769  0.033231379           46 
 4676000   0.49562058   -4.8643386    1952.3226  0.034793317  0.033222813           39 
 4677000   0.49766202   -4.8628483      1951.87  0.034777813  0.033214243           25 
 4678000   0.50275005   -4.8698465      1956.16    0.0348468  0.033205699           39 
 4679000   0.50111754   -4.8746631    1953.1182  0.034785178  0.033197141           29 
 4680000   0.51437555   -4.8729986    1947.6042  0.034679561    0.0331886           25 
 4681000   0.50964502   -4.8729367     1951.667  0.034744481  0.033180064           14 
 4682000   0.49408281   -4.8648592    1951.4882  0.034733878  0.033171491           33 
 4683000   0.51645047   -4.8570834    1950.4431  0.034707863  0.033162932           44 
 4684000   0.49265776   -4.8815488    1951.0183  0.034710687  0.033154364           27 
 4685000    0.5091127    -4.873675    1949.3087  0.034672868   0.03314578           27 
 4686000    0.5027081   -4.8677114    1946.8284  0.034621361  0.033137231           29 
 4687000    0.5087045   -4.8676977    1948.5833  0.034645176  0.033128663           31 
 4688000   0.49662337   -4.8721454    1952.4995    0.0347074  0.033120096           28 
 4689000     0.500939   -4.8806015    1949.6962  0.034650177  0.033111558           17 
 4690000   0.49757328     -4.86225    1948.5444  0.034622324  0.033103037           12 
 4691000   0.50843446   -4.8867453    1951.2676  0.034663319  0.033094491           39 
 4692000   0.50886263   -4.8739199    1944.6656  0.034538676  0.033085914           14 
 4693000   0.49969466   -4.8792104    1952.0422  0.034662303  0.033077332           15 
 4694000   0.49946968   -4.8694089    1948.4323  0.034590831  0.033068777           12 
 4695000   0.50230107   -4.8715064    1949.7715  0.034607232  0.033060236           29 
 4696000   0.50184621   -4.8860956    1953.0938   0.03465882  0.033051715           21 
 4697000   0.48790172   -4.8662017    1948.7213  0.034573864  0.033043189           24 
 4698000    0.4988463   -4.8809995    1949.6898  0.034583685  0.033034686           40 
 4699000   0.50855459   -4.8762471    1949.0008  0.034564106  0.033026141           21 
 4700000   0.50514643   -4.8854557    1948.8147  0.034553452  0.033017606           35 
 4701000    0.5060786   -4.8836433     1952.291  0.034607725  0.033009065           29 
 4702000    0.5038197   -4.8947433    1947.2694  0.034511367   0.03300053           22 
 4703000   0.50452839   -4.8735687    1952.8727  0.034603316  0.032992019           24 
 4704000   0.49991435   -4.8941083    1951.9003  0.034578733  0.032983498           17 
 4705000   0.49817216    -4.854915    1954.2973  0.034613839  0.032974997           18 
 4706000   0.50533435   -4.8795992    1953.5233  0.034592777   0.03296651           56 
 4707000   0.49324267   -4.8507971    1951.9969  0.034558404  0.032958016           35 
 4708000   0.50512793   -4.8558334    1952.4911  0.034559811  0.032949538           45 
 4709000   0.50163159   -4.8717404    1953.1218  0.034563633   0.03294106           14 
 4710000   0.49555909   -4.8584351    1949.4285   0.03449095  0.032932581           12 
 4711000   0.49804856   -4.8821058    1947.7201  0.034453408  0.032924101           27 
 4712000   0.50514212   -4.8724692    1946.8493  0.034430696  0.032915607           23 
 4713000   0.49671192   -4.8607219    1948.2504  0.034448165  0.032907131           22 
 4714000   0.48606244   -4.8575084    1954.9927  0.034560046  0.032898679           27 
 4715000   0.48618307   -4.8855214    1950.3185  0.034470104  0.032890218           25 
 4716000    0.4950355   -4.8695908    1952.2394  0.034496738  0.032881756           21 
 4717000   0.49838433   -4.8824824    1949.9833  0.034449566   0.03287328           30 
 4718000   0.49323108   -4.8690238     1950.517  0.034451692  0.032864811           23 
 4719000   0.49306445   -4.8836324    1952.5662  0.034480579  0.032856341           17 
 4720000   0.49837082   -4.8877714    1950.9251  0.034444298  0.032847865           19 
 4721000   0.50810436   -4.8761091    1954.7484   0.03450449   0.03283937           31 
 4722000   0.50133797   -4.8781297    1947.5311  0.034369814  0.032830854           27 
 4723000     0.497379   -4.8787685    1949.8909  0.034404173  0.032822345           37 
 4724000   0.49518818   -4.8796556    1949.3984  0.034388202  0.032813844           51 
 4725000   0.50054288     -4.86892    1950.3837  0.034398302  0.032805362           56 
 4726000   0.48900867   -4.8913909    1950.2343  0.034388389  0.032796874           64 
 4727000   0.49805764   -4.8903866    1949.2347  0.034363491  0.032788369           58 
 4728000   0.48809552   -4.8839016    1948.8859  0.034350076  0.032779888           55 
 4729000   0.48783002   -4.8705348    1949.7513  0.034358061  0.032771406           15 
 4730000   0.49564937   -4.8830385    1949.2045  0.034341164   0.03276293           35 
 4731000   0.49509737   -4.8829814    1947.4636  0.034303241  0.032754464           15 
 4732000   0.49029823   -4.8877896    1949.5691  0.034333071  0.032745986            8 
 4733000   0.49404869   -4.8795804    1950.2921  0.034338547   0.03273752           10 
 4734000   0.49947053   -4.8862225    1950.5442  0.034335731  0.032729074           11 
 4735000   0.49954366   -4.8822596    1948.8558  0.034298764  0.032720628           23 
 4736000   0.49427414   -4.9006588    1947.4386  0.034266585  0.032712183           37 
 4737000   0.48934806   -4.8792673    1947.9886  0.034269027  0.032703699           30 
 4738000   0.49508141   -4.8670628    1949.4171   0.03428692  0.032695231           36 
 4739000   0.48833392   -4.8942547    1948.0761  0.034256103  0.032686785           22 
 4740000   0.49460938   -4.8943024    1953.1982  0.034338928  0.032678308           16 
 4741000   0.49408694   -4.8634415    1948.9148  0.034256395  0.032669812           29 
 4742000   0.49475664   -4.8782818    1949.9613  0.034267561  0.032661354           22 
 4743000   0.49953362   -4.8961074    1946.7102  0.034203214  0.032652891           44 
 4744000   0.48773688   -4.8816981    1946.5492  0.034193177  0.032644401           17 
 4745000    0.4997573   -4.8921573    1950.3905  0.034253433  0.032635953           17 
 4746000   0.48545832   -4.8714422    1951.7132  0.034269441  0.032627509           26 
 4747000   0.49958453   -4.9031627    1946.5897   0.03417228  0.032619063           36 
 4748000   0.49656735   -4.8831318    1951.2307  0.034246537  0.032610623           54 
 4749000    0.4859316   -4.8912833    1948.1413  0.034185114  0.032602181           19 
 4750000   0.48363148   -4.8898953    1950.5344  0.034219902  0.032593747           12 
 4751000     0.487335   -4.8814251    1950.6445   0.03421463  0.032585313           17 
 4752000   0.49273221   -4.8957722    1952.4626  0.034239313  0.032576879           43 
 4753000   0.49706457   -4.8937507    1948.0755  0.034155191  0.032568467           43 
 4754000   0.48683063    -4.888117    1948.2917  0.034151797  0.032560042           37 
 4755000   0.49706705    -4.896157    1947.2558   0.03412646  0.032551596           46 
 4756000   0.50313622   -4.9056109    1952.2257  0.034206366  0.032543147           11 
 4757000   0.49387965   -4.8993226    1950.0096  0.034160353  0.032534718           13 
 4758000   0.49713699   -4.9077392    1951.7095  0.034182946  0.032526304           28 
 4759000   0.49164241   -4.8894323    1952.1268  0.034183071  0.032517887           11 
 4760000   0.48832882   -4.8802123    1947.8018  0.034100172  0.032509452           31 
 4761000   0.50318051    -4.885417    1948.5404  0.034105938  0.032501017           23 
 4762000   0.48600229    -4.907532    1946.1257  0.034056518  0.032492584           26 
 4763000   0.49648616   -4.8964152    1948.9938  0.034099548  0.032484143           24 
 4764000   0.49196436   -4.8966682    1948.5475  0.034084584  0.032475689           61 
 4765000   0.49254623   -4.8868947    1954.0667  0.034173955  0.032467278           17 
 4766000   0.48879298   -4.8949244    1948.4035  0.034067763  0.032458874          107 
 4767000   0.49131004   -4.8982387      1946.03  0.034019125  0.032450463           39 
 4768000   0.48729001   -4.8859574    1948.6561  0.034057888   0.03244204           29 
 4769000   0.48511418   -4.8716528    1950.9068  0.034090075  0.032433633           17 
 4770000   0.49522181    -4.891837    1953.0129  0.034119722  0.032425247           28 
 4771000   0.49052039   -4.8939972    1948.1973  0.034028458  0.032416862           24 
 4772000   0.49706577   -4.9097864    1948.6915  0.034029957  0.032408466           17 
 4773000   0.48570253   -4.8987357    1948.1341  0.034013097   0.03240009           49 
 4774000   0.47322069   -4.9007604    1954.4767  0.034116686  0.032391732           63 
 4775000   0.49580678   -4.9121875    1948.6995  0.034008717  0.032383369           29 
 4776000   0.48857319   -4.8958552     1949.062  0.034007922  0.032374986           21 
 4777000   0.48928912   -4.8981483    1947.6663  0.033976456  0.032366602           29 
 4778000   0.48725098   -4.9063621    1951.4895  0.034036024  0.032358211           42 
 4779000   0.48651966   -4.9035455    1948.8488  0.033982856  0.032349825           66 
 4780000   0.48261699   -4.9093531    1953.1938  0.034051496  0.032341435           28 
 4781000   0.48788161   -4.9161979    1948.7107  0.033966232  0.032333063           73 
 4782000   0.48773696   -4.9071562    1946.9658  0.033928722  0.032324658           45 
 4783000   0.48768616   -4.8907617    1949.5434  0.033966537  0.032316265           59 
 4784000   0.49187658   -4.8927735    1948.4789  0.033940896  0.032307917           28 
 4785000   0.48173112    -4.908439    1954.3308  0.034035716  0.032299555           60 
 4786000   0.49454058   -4.9151808     1946.506   0.03389236   0.03229117           43 
 4787000   0.48647698   -4.9133628    1951.1904  0.033966826  0.032282786           20 
 4788000    0.4856604   -4.9134283     1946.019  0.033869726  0.032274402           32 
 4789000   0.48018591   -4.9183004    1946.5652  0.033872159  0.032266011           48 
 4790000   0.48153593   -4.9210138    1944.3656   0.03382682  0.032257603           22 
 4791000    0.4908633   -4.9228514    1952.6301   0.03396351  0.032249207           42 
 4792000   0.49545718   -4.9222554    1947.8271  0.033872897  0.032240803           37 
 4793000   0.46917271   -4.9107564    1945.5163  0.033825654  0.032232413           48 
 4794000   0.47984482   -4.9112816    1949.5496  0.033888708   0.03222402           48 
 4795000   0.48306265    -4.895009    1946.9886  0.033837133  0.032215642           83 
 4796000   0.47761135   -4.9150434    1953.2336  0.033938588  0.032207282           32 
 4797000   0.48068558   -4.9034946    1952.0616  0.033911152  0.032198934           58 
 4798000   0.48486863   -4.9107072    1951.5294  0.033894841  0.032190573           52 
 4799000   0.48705597   -4.9028937    1951.1102  0.033880499  0.032182221           52 
 4800000   0.49064882    -4.901245    1946.0764  0.033786048  0.032173883           48 
 4801000   0.48313862   -4.9089952    1951.6729  0.033876153  0.032165533           24 
 4802000   0.47794497   -4.9071586    1948.3377  0.033811219  0.032157173           67 
 4803000   0.48685143   -4.8978945    1948.4392   0.03380594  0.032148794           29 
 4804000   0.47653883   -4.9020497    1947.1223  0.033776061  0.032140424           32 
 4805000   0.48071382   -4.9114773    1945.6917  0.033744219   0.03213205           31 
 4806000   0.48091038   -4.9131334    1951.1277  0.033831456  0.032123652           40 
 4807000   0.48744234   -4.9193639    1951.0979  0.033823901  0.032115268           50 
 4808000   0.48582385   -4.9239466    1943.4854  0.033684924  0.032106877           46 
 4809000   0.48371731   -4.9132248    1945.3505   0.03371024  0.032098498           74 
 4810000   0.48573526   -4.9062849    1946.6606  0.033725929    0.0320901           58 
 4811000   0.48610613   -4.9139881    1943.1349  0.033657848  0.032081728           75 
 4812000   0.48791019   -4.8929713    1947.9235  0.033733781  0.032073361           57 
 4813000   0.48771161   -4.8961998    1948.8616  0.033743016  0.032065019           81 
 4814000   0.48090713    -4.907024    1950.7134  0.033768063  0.032056686          114 
 4815000   0.48277221   -4.9123701    1944.3231  0.033650452  0.032048335           81 
 4816000   0.48388576   -4.9123127    1945.0841  0.033656632  0.032039969           61 
 4817000   0.48293318   -4.9038208    1944.5475  0.033640362  0.032031606           91 
 4818000   0.48228991   -4.9174739    1949.1966  0.033713792   0.03202324           93 
 4819000   0.47730294   -4.9174394    1947.3079  0.033674135   0.03201486           73 
 4820000   0.48528327    -4.928656    1944.1343  0.033612281  0.032006483           75 
 4821000    0.4869369   -4.9192637    1946.9702  0.033654328  0.031998113           90 
 4822000   0.48474841   -4.9355403      1945.84  0.033627816  0.031989748          119 
 4823000   0.46752879   -4.9240686    1944.8914  0.033604454  0.031981371          212 
 4824000   0.47670536   -4.9376521    1941.8083  0.033544229  0.031972987          182 
 4825000   0.47867048   -4.9307897    1946.1837  0.033612844  0.031964617           95 
 4826000   0.47454083   -4.9275178    1941.1998  0.033519819  0.031956222           73 
 4827000   0.48169996   -4.9191851    1944.6906   0.03357314  0.031947841          174 
 4828000   0.48116703   -4.9388214    1944.4184  0.033561489  0.031939475          144 
 4829000   0.47989128    -4.939263    1944.8262  0.033561576  0.031931109           61 
 4830000   0.48997403   -4.9203515    1947.3745  0.033598594  0.031922741          196 
 4831000   0.47635785    -4.921558    1950.0389  0.033637599  0.031914369          285 
 4832000   0.46803952   -4.9243834    1944.2899   0.03353149  0.031906018          132 
 4833000   0.47914661   -4.9200356    1948.1232  0.033590647  0.031897677          129 
 4834000   0.47653903    -4.923959    1944.5809  0.033522632  0.031889322           58 
 4835000   0.46828692   -4.9137156    1946.8598  0.033554977  0.031880967           91 
 4836000   0.47772078   -4.9286366    1945.0864   0.03351748  0.031872616           63 
 4837000   0.47369312   -4.9319411    1943.5841  0.033484668  0.031864269           57 
 4838000   0.47840125   -4.9200517    1947.9915  0.033553664  0.031855924          101 
 4839000   0.48294982   -4.9226404    1946.0528  0.033513343  0.031847578           76 
 4840000   0.47873431   -4.9484439    1943.6498  0.033465045  0.031839205           44 
 4841000   0.47159337   -4.9557599     1946.304  0.033503821  0.031830834          134 
 4842000   0.47863487   -4.9462102    1941.6809  0.033417337  0.031822468           81 
 4843000    0.4691085    -4.942745    1943.3579  0.033439292  0.031814094           67 
 4844000   0.47782297   -4.9476894    1943.1618  0.033429015  0.031805738           74 
 4845000   0.47811005   -4.9507111    1946.1283  0.033473139  0.031797388           77 
 4846000   0.48260101    -4.921662    1951.4559  0.033557847  0.031789069           86 
 4847000   0.47398298   -4.9356177    1949.2831  0.033513567  0.031780776           52 
 4848000   0.47457161   -4.9115458     1947.082  0.033468818  0.031772473           44 
 4849000   0.47561141   -4.9118731    1946.2352  0.033447364  0.031764164           58 
 4850000   0.46988344   -4.9327083    1947.6389  0.033464586  0.031755855           35 
 4851000   0.48402272   -4.9371149    1946.0191  0.033429861  0.031747563           75 
 4852000   0.47898918   -4.9492214    1942.8527  0.033368589  0.031739259           44 
 4853000   0.47792191   -4.9284488    1945.7996  0.033412315  0.031730956           58 
 4854000   0.47927859   -4.9395203    1943.2908  0.033362362  0.031722638           49 
 4855000   0.48470848   -4.9480065    1940.1395  0.033301398  0.031714314           63 
 4856000   0.46217989   -4.9273398     1946.157  0.033397806  0.031705992           47 
 4857000    0.4733549   -4.9252544    1945.7844  0.033384538  0.031697685           61 
 4858000   0.48633402   -4.9335121    1944.9686  0.033363672  0.031689398          105 
 4859000   0.47291143   -4.9413211    1945.9296  0.033373286  0.031681128           70 
 4860000   0.48122209   -4.9388009    1946.9441  0.033383815  0.031672849           88 
 4861000   0.47795734   -4.9390742    1942.9999  0.033309331  0.031664558           47 
 4862000   0.48250476   -4.9187587    1946.1736  0.033356877  0.031656227           32 
 4863000   0.46875826   -4.9580405    1946.2903  0.033352018  0.031647919           89 
 4864000   0.47412319   -4.9530261    1942.1258  0.033273812  0.031639594           92 
 4865000   0.47449001   -4.9471438    1945.5467  0.033325569  0.031631266           32 
 4866000   0.47417922   -4.9363861    1944.5719  0.033302026  0.031622956           21 
 4867000   0.47356611   -4.9526596    1941.0722  0.033235261  0.031614622           25 
 4868000    0.4753458   -4.9529744    1942.9414  0.033260433  0.031606296           50 
 4869000   0.48068069   -4.9402538    1947.9461  0.033339257  0.031597995           25 
 4870000   0.47074483   -4.9323688    1947.3668  0.033322498  0.031589684           25 
 4871000   0.47265702   -4.9454079    1942.6003  0.033234112  0.031581384          115 
 4872000   0.47746774   -4.9518976    1947.6116  0.033313007  0.031573103           45 
 4873000    0.4772827   -4.9452692    1946.3691  0.033284921  0.031564817           66 
 4874000    0.4706558   -4.9304968    1942.3948  0.033210142  0.031556554           31 
 4875000   0.47196356   -4.9291543    1940.9262  0.033178226  0.031548279           36 
 4876000   0.46970866   -4.9200132    1948.5097  0.033301027  0.031540024          103 
 4877000   0.47849791   -4.9387634    1945.6091  0.033244636  0.031531753          128 
 4878000   0.47214205   -4.9513821    1943.9141  0.033208864  0.031523467           44 
 4879000   0.47683237   -4.9362674    1945.5929  0.033230732  0.031515192           33 
 4880000   0.46245669   -4.9433151    1944.1139  0.033198667  0.031506909           34 
 4881000   0.45738477   -4.9562311    1944.1537  0.033192544  0.031498643           60 
 4882000   0.47620034   -4.9425041    1942.5054  0.033157609  0.031490367           67 
 4883000   0.46573014   -4.9589988     1948.574  0.033254386  0.031482093           41 
 4884000   0.47502534   -4.9444549    1943.3777  0.033158915  0.031473829           44 
 4885000   0.47775023   -4.9555328    1944.4639  0.033170657  0.031465568           16 
 4886000   0.47555671   -4.9536897    1947.6283  0.033217838  0.031457306           23 
 4887000   0.47128933   -4.9423345    1947.3881  0.033206945  0.031449062           35 
 4888000   0.47086833    -4.945653    1943.9723  0.033141917  0.031440838           28 
 4889000   0.47435463   -4.9380364    1946.2779  0.033174437  0.031432625           23 
 4890000   0.46154881   -4.9491061    1948.0535  0.033197912  0.031424407           21 
 4891000   0.46613149   -4.9441975    1943.6771   0.03311656  0.031416167           35 
 4892000    0.4652955   -4.9418203    1945.2248  0.033136155   0.03140794           23 
 4893000   0.46739187    -4.936807    1947.8153  0.033173501  0.031399702           34 
 4894000   0.46794924   -4.9545183    1946.1935  0.033139107  0.031391463          143 
 4895000   0.47227313   -4.9590576    1942.2541  0.033065272   0.03138321           89 
 4896000   0.47908404   -4.9427184    1944.7151  0.033100407  0.031374965           97 
 4897000   0.46410143   -4.9555571    1941.3636  0.033036614  0.031366722           52 
 4898000    0.4736049   -4.9569795    1945.9677  0.033108203  0.031358473           80 
 4899000   0.46067129   -4.9463536    1944.5589  0.033077479  0.031350228           46 
 4900000   0.46993845   -4.9450257    1945.3907  0.033084876  0.031341984           52 
 4901000   0.48283573   -4.9725486    1944.0634  0.033055557  0.031333755           46 
 4902000   0.47048567   -4.9536067    1943.9977  0.033047696  0.031325542           26 
 4903000    0.4678571   -4.9555699    1943.6295  0.033034698  0.031317328           68 
 4904000   0.46981844   -4.9395889    1945.0071  0.033051372  0.031309129           55 
 4905000   0.47224815    -4.944751    1943.0059  0.033010634  0.031300922           55 
 4906000   0.47077669   -4.9447864    1945.5141  0.033046509  0.031292735           27 
 4907000   0.46186044   -4.9582551    1943.5525  0.033006463   0.03128453           34 
 4908000    0.4551222   -4.9407651    1945.8039  0.033037964  0.031276327           94 
 4909000   0.46436342   -4.9513082    1946.9594  0.033050849  0.031268125          120 
 4910000   0.46453817   -4.9589037    1942.7028  0.032971874  0.031259913          145 
 4911000    0.4733115   -4.9510379    1948.3285   0.03306062  0.031251711          112 
 4912000    0.4545185   -4.9502433     1946.593  0.033024447  0.031243522          203 
 4913000   0.47383185   -4.9407377    1946.5864  0.033017613  0.031235329          108 
 4914000   0.45418346   -4.9466975    1945.8394  0.032998225  0.031227137          202 
 4915000   0.46238264   -4.9634821    1941.6842  0.032921062  0.031218935          163 
 4916000   0.47163908   -4.9557882    1941.7952  0.032916246  0.031210712          146 
 4917000   0.45707556   -4.9546734    1942.2619  0.032917462  0.031202489          143 
 4918000   0.45623152   -4.9536307    1940.4789  0.032880556  0.031194291           90 
 4919000   0.46163268   -4.9641473    1945.1293  0.032952654  0.031186089          109 
 4920000   0.47477859   -4.9580861    1940.6656  0.032870352  0.031177885          165 
 4921000    0.4629779   -4.9471678     1943.003  0.032903255  0.031169679          181 
 4922000   0.45913016   -4.9640852     1938.836  0.032826019  0.031161463          104 
 4923000   0.47195165   -4.9465436    1941.2796  0.032860715  0.031153247          192 
 4924000   0.47507795     -4.96528    1945.8018  0.032930575  0.031145034          143 
 4925000   0.45426139   -4.9442484    1940.5777  0.032835494  0.031136849          134 
 4926000   0.46555164    -4.967892    1941.5825  0.032845827  0.031128667           88 
 4927000   0.46246553   -4.9540811    1945.7116  0.032908999  0.031120486           50 
 4928000   0.45879314   -4.9688264    1947.1309   0.03292632    0.0311123           85 
 4929000   0.46179681   -4.9647624    1946.4732  0.032908521  0.031104123           96 
 4930000   0.45670007   -4.9522515    1942.3041  0.032831374  0.031095926           85 
 4931000   0.45938188   -4.9658088    1942.7873  0.032832882  0.031087738          151 
 4932000   0.45737142   -4.9475064    1941.1085  0.032797859   0.03107955          128 
 4933000   0.46147475   -4.9633865    1945.1102  0.032858812  0.031071378          127 
 4934000   0.46034514   -4.9477055    1946.0281  0.032867656  0.031063193          170 
 4935000   0.45629134   -4.9403178    1943.9426  0.032825778  0.031055026          152 
 4936000    0.4535343   -4.9603362    1941.3176  0.032774811  0.031046888          197 
 4937000   0.46584108    -4.953372    1942.4126  0.032786655  0.031038725          302 
 4938000   0.46994934   -4.9452447    1941.7451  0.032768751  0.031030574          170 
 4939000   0.46662427   -4.9629647    1944.4298  0.032807414  0.031022405          239 
 4940000   0.45240242   -4.9621118    1945.3349  0.032816041  0.031014247          200 
 4941000   0.45926555   -4.9694551    1944.2211  0.032790614  0.031006079          245 
 4942000   0.46783606   -4.9640022    1945.1264  0.032799244  0.030997909          225 
 4943000   0.46154525    -4.964873    1945.8815  0.032805339  0.030989728          275 
 4944000   0.46865459   -4.9692484    1943.7808  0.032763296   0.03098156          304 
 4945000   0.45766845   -4.9647461    1940.3749  0.032699274  0.030973387          373 
 4946000   0.45691219   -4.9434478    1942.4194   0.03272711  0.030965221          360 
 4947000   0.46927671    -4.962623    1944.7435  0.032759645  0.030957066          281 
 4948000   0.47318648   -4.9434807    1941.9969  0.032706765  0.030948923          331 
 4949000   0.45275725     -4.94847    1944.3722  0.032740152  0.030940794          397 
 4950000    0.4519558   -4.9647751    1942.8922  0.032708623  0.030932644          456 
 4951000   0.47211923   -4.9718431    1942.0022  0.032687036  0.030924495          461 
 4952000   0.44665535   -4.9697427    1944.7544   0.03272675  0.030916328          478 
 4953000   0.46363303    -4.967529     1938.177  0.032609479  0.030908143          508 
 4954000   0.46209912   -4.9759145    1939.0056  0.032616835  0.030899938          528 
 4955000   0.45234312   -4.9721275    1937.3041  0.032581636  0.030891729          567 
 4956000   0.45478866   -4.9829411    1934.7198  0.032531609   0.03088352          556 
 4957000   0.46039692   -4.9864757    1938.0644  0.032581273  0.030875309          506 
 4958000   0.45602892   -4.9841019    1940.2118  0.032610794  0.030867108          460 
 4959000   0.45583796   -4.9665134    1945.9322  0.032700347  0.030858933          528 
 4960000    0.4628751   -4.9724694    1943.1525  0.032647051  0.030850756          554 
 4961000    0.4537383   -4.9670339    1942.3018  0.032626181  0.030842573          596 
 4962000   0.46198599   -4.9755614     1938.387  0.032553859    0.0308344          534 
 4963000    0.4526389   -4.9827223    1938.7392  0.032553213  0.030826234          537 
 4964000   0.46011864   -4.9914212    1937.1309  0.032519656  0.030818044          602 
 4965000   0.44917458    -4.980299    1941.9735  0.032594386  0.030809836          601 
 4966000   0.46262125   -5.0005186    1940.8874  0.032569597  0.030801651          675 
 4967000   0.45842907   -4.9889826    1940.8081   0.03256171   0.03079348          609 
 4968000   0.45145867   -4.9847181    1940.0176  0.032541895  0.030785299          653 
 4969000   0.46197334   -4.9917682    1937.8071  0.032498275  0.030777117          652 
 4970000   0.45644403   -5.0050179    1937.3392   0.03248389  0.030768925          741 
 4971000   0.46406289   -4.9882809    1939.6832   0.03251665  0.030760726          758 
 4972000    0.4536252   -4.9849181    1938.4589   0.03248959  0.030752522          721 
 4973000   0.46731118   -4.9918106    1937.0303  0.032459117  0.030744319          729 
 4974000   0.45938665   -4.9864765    1940.3373  0.032507996  0.030736129          720 
 4975000   0.44533131    -4.999028    1936.7641  0.032441609  0.030727929          656 
 4976000   0.45159825   -4.9938496    1936.4997  0.032430662  0.030719734          649 
 4977000   0.48168365   -4.9998115    1935.8324  0.032412973  0.030711527          699 
 4978000   0.45424677   -4.9923873    1940.3754  0.032482514  0.030703346          623 
 4979000   0.46550434   -4.9837432    1936.2234  0.032406498  0.030695167          560 
 4980000   0.46256529   -4.9862661    1939.7593  0.032459159  0.030686988          643 
 4981000   0.45318651    -4.980175    1938.7338  0.032435485  0.030678807          758 
 4982000   0.46012987   -4.9858144    1936.3296   0.03238876  0.030670618          783 
 4983000   0.45288465   -4.9872416    1938.7405  0.032422578  0.030662466          749 
 4984000   0.45321979   -4.9997393    1937.0274   0.03238743  0.030654294          628 
 4985000   0.45916303   -4.9910234    1938.9359  0.032412837  0.030646131          686 
 4986000   0.45337741   -5.0135783    1940.3253  0.032429557  0.030637968          665 
 4987000   0.44992548   -4.9779164    1939.0226  0.032401287   0.03062981          691 
 4988000   0.45654241   -5.0048359    1937.0599     0.032362  0.030621666          838 
 4989000   0.45213672   -5.0126178    1938.6143  0.032381478  0.030613471          845 
 4990000   0.46248192   -5.0087137    1937.0593  0.032349019  0.030605285          860 
 4991000   0.45544339    -5.002185    1935.1963  0.032311432  0.030597098          888 
 4992000   0.44752636   -4.9951815    1935.4927  0.032309907    0.0305889          862 
 4993000   0.45349487   -5.0054167    1935.4884  0.032303365  0.030580695          891 
 4994000   0.44886492   -5.0200982    1934.9981  0.032288714  0.030572492          962 
 4995000   0.45263989   -5.0093545    1933.1615   0.03225161  0.030564291          886 
 4996000   0.44899223   -5.0190658    1936.4054  0.032299263  0.030556096          942 
 4997000   0.44672854   -5.0136841    1934.2607  0.032257032  0.030547897         1062 
 4998000   0.45202362   -5.0082035    1936.9323  0.032295123    0.0305397         1062 
 4999000   0.45884339   -5.0179635    1937.0326  0.032290334  0.030531511         1139 
 5000000   0.44411911   -5.0083014    1935.1888  0.032253146  0.030523309         1042 
 5001000   0.45331765   -5.0159549    1933.8762  0.032224825  0.030515111         1064 
 5002000     0.444286   -5.0161659     1934.746  0.032232874  0.030506907         1127 
 5003000   0.44338182   -5.0019553    1932.3052  0.032185776   0.03049868         1259 
 5004000   0.44877998   -5.0081611    1929.3206   0.03212964  0.030490464         1232 
 5005000     0.463182   -5.0235515    1930.8594  0.032148842  0.030482242         1235 
 5006000   0.45473859   -5.0153783    1935.0844  0.032212752  0.030474003         1199 
 5007000   0.44501718   -5.0101709      1928.67   0.03209956  0.030465783         1372 
 5008000   0.44915698   -5.0200675     1931.864    0.0321463  0.030457546         1387 
 5009000   0.45523853   -5.0249302    1931.7237  0.032137547  0.030449308         1479 
 5010000   0.45003316   -5.0320615    1932.0248  0.032136141  0.030441064         1391 
 5011000   0.45230083   -5.0246199    1928.3654  0.032068872  0.030432823         1390 
 5012000   0.45076384   -5.0088032    1930.5599  0.032098961  0.030424581         1461 
Loop time of 12400.1 on 48 procs for 5000000 steps with 4000 atoms

Performance: 69676.630 tau/day, 403.221 timesteps/s
99.4% CPU use with 48 MPI tasks x no OpenMP threads

MPI task timing breakdown:
Section |  min time  |  avg time  |  max time  |%varavg| %total
---------------------------------------------------------------
Pair    | 855.23     | 914.81     | 971.71     |  91.5 |  7.38
Neigh   | 83.888     | 87.174     | 90.586     |  19.3 |  0.70
Comm    | 795.11     | 850.72     | 916.93     | 104.6 |  6.86
Output  | 14.323     | 14.328     | 14.405     |   0.3 |  0.12
Modify  | 10409      | 10423      | 10441      |   8.1 | 84.05
Other   |            | 110.6      |            |       |  0.89

Nlocal:        83.3333 ave          91 max          75 min
Histogram: 1 3 4 6 7 7 11 3 4 2
Nghost:        2297.58 ave        2317 max        2278 min
Histogram: 1 3 4 4 13 8 5 7 2 1
Neighs:        15512.0 ave       17048 max       13156 min
Histogram: 2 2 3 3 4 8 6 8 6 6
FullNghs:      31023.9 ave       34336 max       27550 min
Histogram: 3 1 6 6 7 6 9 6 3 1

Total # of neighbors = 1489145
Ave neighs/atom = 372.28625
Neighbor list builds = 270060
Dangerous builds = 1

#clear
#
#next RN
#
#jump SELF
Total wall time: 3:26:43
