
units lj                  # Use reduced LJ style units
atom_style atomic         # Uncharged point particles
atom_modify map hash      # Needed for indexing of clusters etc
                          # Used to be able to find where atoms are in relation to each other.

lattice fcc 1.0 spacing 1 1 1
Lattice spacing in x,y,z = 1.5874011 1.5874011 1.5874011
region box block 0 10 0 10 0 10 units lattice
create_box 2 box
Created orthogonal box = (0.0000000 0.0000000 0.0000000) to (15.874011 15.874011 15.874011)
  3 by 4 by 4 MPI processor grid
create_atoms 1 box
Created 4000 atoms
  using lattice units in orthogonal box = (0.0000000 0.0000000 0.0000000) to (15.874011 15.874011 15.874011)
  create_atoms CPU = 0.012 seconds
set type 1 type/fraction 2 0.0 78393
Setting atom values ...
  0 settings made for type/fraction
mass 1 1.0
mass 2 1.0
pair_style lj/cut  3.5
pair_modify tail  yes
pair_coeff 1  1  1.0  1.0   # Intearaction between 1 and 1 set with epsilon = 1 and sigma = 1
pair_coeff 1  2  1.5  0.8
pair_coeff 2  2  0.5  0.88

write_data data.0
System init for write_data ...
Neighbor list info ...
  update every 1 steps, delay 10 steps, check yes
  max neighbors/atom: 2000, page size: 100000
  master list distance cutoff = 3.8
  ghost atom cutoff = 3.8
  binsize = 1.9, bins = 9 9 9
  1 neighbor lists, perpetual/occasional/extra = 1 0 0
  (1) pair lj/cut, perpetual
      attributes: half, newton on
      pair build: half/bin/atomonly/newton
      stencil: half/bin/3d
      bin: standard
WARNING: Not all mixed pair coeffs generated from mixing. Use write_data with 'pair ij' option to store all pair coeffs. (../write_data.cpp:312)


#############################
#   M E L T   S Y S T E M   #
#############################

velocity all create 2.4 8172548 mom yes dist gaussian # Assign velocities
                                                    # Temperature 2.4, random number seed, zero linear momentum
                                                                                # Gaussian distribution

timestep 0.002   # simulation timestep
thermo 1000       # output thermodynamic data every 1000 steps bf 100

# Define a fix  in this case with index 1 applied to all
# particles in the simulation. This fix is for simulations
# in the anisotropic NPT ensemble. Note that we use the MTK
# correction.
fix 1 all npt temp 2.4 2.4 0.1 iso 5.68 5.68 0.5 mtk yes tchain 5 pchain 5 # Use NPT ensemble
                                                                         # Set temperature and pressure and damping
                                                                         # Numbers of thermostats in chain and in barostat
run 10000          # run for 10000 steps
Per MPI rank memory allocation (min/avg/max) = 3.642 | 3.644 | 3.648 Mbytes
Step Temp E_pair E_mol TotEng Press Volume 
       0          2.4   -8.3859253            0   -4.7868253   -2.2405722         4000 
    1000    2.3771194   -4.4871205            0  -0.92233289    5.5875552    5161.7788 
    2000    2.3836418   -4.3658861            0   -0.7913173    5.6556832    5224.7302 
    3000    2.4584735   -4.3018931            0  -0.61510473     5.850971    5249.5314 
    4000    2.3494645   -4.3413933            0  -0.81807767     5.623821    5244.0695 
    5000    2.4202134   -4.4169005            0  -0.78748795    5.6284099    5204.3077 
    6000    2.4380988   -4.3641009            0  -0.70786701    5.6781664    5232.1937 
    7000    2.4177473   -4.3548992            0  -0.72918491    5.5060565    5262.6825 
    8000    2.4219515   -4.3286096            0  -0.69659065    5.7073729    5248.6279 
    9000    2.4025211    -4.302581            0  -0.69970027    5.9897341    5218.4739 
   10000    2.3812622   -4.3678595            0  -0.79685929    5.6573319    5225.8716 
Loop time of 2.15001 on 48 procs for 10000 steps with 4000 atoms

Performance: 803718.733 tau/day, 4651.150 timesteps/s
99.5% CPU use with 48 MPI tasks x no OpenMP threads

MPI task timing breakdown:
Section |  min time  |  avg time  |  max time  |%varavg| %total
---------------------------------------------------------------
Pair    | 0.85394    | 0.89698    | 0.95413    |   2.3 | 41.72
Neigh   | 0.16548    | 0.17102    | 0.18189    |   0.7 |  7.95
Comm    | 0.71443    | 0.77728    | 0.87082    |   4.1 | 36.15
Output  | 0.00024939 | 0.00025508 | 0.00032258 |   0.0 |  0.01
Modify  | 0.19792    | 0.28894    | 0.33485    |   6.6 | 13.44
Other   |            | 0.01553    |            |       |  0.72

Nlocal:        83.3333 ave          93 max          75 min
Histogram: 1 3 5 11 6 10 6 5 0 1
Nghost:        1378.29 ave        1403 max        1352 min
Histogram: 1 5 3 4 10 6 10 2 5 2
Neighs:        7286.58 ave        8543 max        6397 min
Histogram: 3 4 4 13 8 9 4 1 1 1

Total # of neighbors = 349756
Ave neighs/atom = 87.439000
Neighbor list builds = 902
Dangerous builds = 182

# Equilibrate just above the melting temperature to avoid step fn in T

fix 1 all npt temp 1.25 1.25 0.1 iso 5.68 5.68 0.5 mtk yes tchain 5 pchain 5
run 2000
Per MPI rank memory allocation (min/avg/max) = 3.642 | 3.644 | 3.648 Mbytes
Step Temp E_pair E_mol TotEng Press Volume 
   10000    2.3812622   -4.3678595            0  -0.79685929    5.6573319    5225.8716 
   11000    1.2318226   -5.8491278            0   -4.0018558     5.692471     4339.317 
   12000    1.2429481    -5.832424            0   -3.9684679    5.6785253    4343.9362 
Loop time of 0.541045 on 48 procs for 2000 steps with 4000 atoms

Performance: 638764.387 tau/day, 3696.553 timesteps/s
99.0% CPU use with 48 MPI tasks x no OpenMP threads

MPI task timing breakdown:
Section |  min time  |  avg time  |  max time  |%varavg| %total
---------------------------------------------------------------
Pair    | 0.19509    | 0.20406    | 0.21553    |   0.9 | 37.72
Neigh   | 0.030188   | 0.031304   | 0.032429   |   0.3 |  5.79
Comm    | 0.13324    | 0.14932    | 0.20288    |   2.4 | 27.60
Output  | 5.0212e-05 | 5.3617e-05 | 0.00015397 |   0.0 |  0.01
Modify  | 0.10696    | 0.15202    | 0.15896    |   1.8 | 28.10
Other   |            | 0.004287   |            |       |  0.79

Nlocal:        83.3333 ave          91 max          77 min
Histogram: 1 6 7 6 7 8 5 6 1 1
Nghost:        1553.35 ave        1572 max        1533 min
Histogram: 3 0 2 8 9 9 8 4 4 1
Neighs:        8771.48 ave        9618 max        8005 min
Histogram: 2 4 5 7 8 9 7 3 0 3

Total # of neighbors = 421031
Ave neighs/atom = 105.25775
Neighbor list builds = 142
Dangerous builds = 8

#############################
# L I N E A R  Q U E N C H  #
#############################

# Define solid atoms. This closely follows ten Wolde  Ruiz-Montero and Frenkel  Faraday Discuss  1996  104  93-110
# Compute components of the per-atom q6 vector
compute q6 all orientorder/atom degrees 1 6 components 6 nnn NULL cutoff 1.3 # compute the Q6 parameter.
                                                                             # Use all neighbours within 1.3 unit cell.

# get number of connections
compute coord_number all coord/atom orientorder q6 0.5

# An atom is solid if it has 8 or more connections (of a possible 14)
variable is_solid atom c_coord_number>=8
group solid dynamic all var is_solid    # Must be dynamic to update
dynamic group solid defined

# do clustering
compute cluster solid cluster/atom 1.3 # Create a cluster where all atoms within are solid and max 1.3 units from another member

# define chunks one chunk per cluster
compute clus_chunks solid chunk/atom c_cluster nchunk every compress yes  # Says which atoms are in which chunk

# count the size of each chunk
compute size_chunks solid property/chunk clus_chunks count


# Find the maximum entry in the vector of chunk sizes
variable max_n equal max(c_size_chunks)


# Thermo style which includes this variable
# thermo_style custom step temp pe vol v_max_n

thermo ${N}  # Print the thermo information every 100 steps
thermo 1000  

# Reset the npt fix at a lower temperature (below freezing)
fix 1  all npt temp  ${temp} ${temp}  0.1  iso  5.68  5.68  0.5  mtk yes tchain  5  pchain  5
fix 1  all npt temp  0.45 ${temp}  0.1  iso  5.68  5.68  0.5  mtk yes tchain  5  pchain  5
fix 1  all npt temp  0.45 0.45  0.1  iso  5.68  5.68  0.5  mtk yes tchain  5  pchain  5

dump dmp2 all dcd ${N} traj.dcd
dump dmp2 all dcd 1000 traj.dcd


compute msd all msd com yes
variable twopoint equal c_msd[4]/6/(step*dt+1.0e-6)
fix 9 all vector 10 c_msd[4]
variable fit equal slope(f_9)/6/(10*dt)
thermo_style custom step temp pe c_msd[4] v_twopoint v_fit v_max_n

fix 1 all npt temp 1.25 ${temp} 0.1 iso 5.68 5.68 0.5 mtk yes tchain 5 pchain 5
fix 1 all npt temp 1.25 0.45 0.1 iso 5.68 5.68 0.5 mtk yes tchain 5 pchain 5
run 2000000 # 5000000  # Run for this many steps
Neighbor list info ...
  update every 1 steps, delay 10 steps, check yes
  max neighbors/atom: 2000, page size: 100000
  master list distance cutoff = 3.8
  ghost atom cutoff = 3.8
  binsize = 1.9, bins = 9 9 9
  4 neighbor lists, perpetual/occasional/extra = 1 3 0
  (1) pair lj/cut, perpetual
      attributes: half, newton on
      pair build: half/bin/atomonly/newton
      stencil: half/bin/3d
      bin: standard
  (2) compute orientorder/atom, occasional
      attributes: full, newton on
      pair build: full/bin/atomonly
      stencil: full/bin/3d
      bin: standard
  (3) compute coord/atom, occasional
      attributes: full, newton on
      pair build: full/bin/atomonly
      stencil: full/bin/3d
      bin: standard
  (4) compute cluster/atom, occasional
      attributes: full, newton on
      pair build: full/bin/atomonly
      stencil: full/bin/3d
      bin: standard
Per MPI rank memory allocation (min/avg/max) = 9.728 | 9.731 | 9.735 Mbytes
Step Temp PotEng c_msd[4] v_twopoint v_fit v_max_n 
   12000    1.2429481    -5.832424 1.9721523e-34 1.3695501e-36 8.3333333e+20            6 
   13000    1.2415557   -5.8248278   0.56801585 0.0036411271  0.047009216            2 
   14000    1.2357931    -5.894362    1.1031714 0.0065664965  0.044703252            2 
   15000    1.2393542   -5.8543986    1.6670435 0.0092613523  0.046115896            7 
   16000    1.2644061   -5.8410804    2.2507729  0.011722775  0.046417733            2 
   17000    1.2536561   -5.8532904    2.8034802  0.013742549  0.046559519            3 
   18000    1.2341099   -5.8159215    3.4270682  0.015866056  0.047124944            5 
   19000    1.2502228    -5.831344    4.0116716  0.017595051  0.047658803            2 
   20000    1.2459019   -5.8938056    4.4827258  0.018678024   0.04755459            3 
   21000    1.2226438   -5.8882594    5.0704801  0.020120952  0.047395651            2 
   22000       1.2396     -5.81268    5.6453331  0.021383837   0.04715775            3 
   23000     1.236193   -5.8475888    6.2607705  0.022683951  0.047234195            3 
   24000    1.2574574   -5.8545721    6.8111715  0.023649901  0.047210505            4 
   25000    1.2483802    -5.874067    7.3573513  0.024524504  0.047236454            3 
   26000    1.2629515   -5.8735255    7.8281885  0.025090347  0.047046133            7 
   27000    1.2458237   -5.8732694    8.3468285  0.025761816  0.046818381            5 
   28000    1.2611599   -5.8381816    8.8675845   0.02639162  0.046589186            3 
   29000    1.2497578   -5.8591709    9.4029434  0.027019952  0.046412979            4 
   30000     1.277168   -5.8133082    10.045255  0.027903486   0.04635335            3 
   31000    1.2376668   -5.9084773    10.645698  0.028617467  0.046309035            5 
   32000    1.2437207   -5.8908802    11.169106  0.029086214  0.046321474            1 
   33000    1.2453068   -5.8531495    11.740596   0.02964797  0.046343823            4 
   34000    1.2294689   -5.8243316    12.327257  0.030213864  0.046356958            2 
   35000    1.2691339   -5.7999873    12.978394  0.030900937  0.046446207            3 
   36000    1.2390612   -5.8442016    13.436199  0.031102312  0.046483486            3 
   37000    1.2811391   -5.8261633    13.958676  0.031438459  0.046493838            5 
   38000    1.2475028   -5.8915018    14.520743  0.031843735  0.046479121            4 
   39000    1.2404597   -5.8856032    15.182082  0.032440346  0.046524064            6 
   40000    1.2302427   -5.8308118    15.770404  0.032855007  0.046579344            3 
   41000    1.2379362   -5.8843239    16.407128  0.033347821  0.046695743            2 
   42000    1.2485942   -5.8659719    17.157564  0.034042785  0.046835546            3 
   43000    1.2497167   -5.8642674    17.714704  0.034330821  0.046965369            5 
   44000    1.2510932   -5.8387866    18.255932  0.034575628  0.047075287            2 
   45000    1.2373718   -5.8432884    18.622525  0.034486157  0.047122162            3 
   46000    1.2598478   -5.8539124    19.125628  0.034647876  0.047128565            2 
   47000    1.2339647   -5.8788369    19.708489  0.034944128  0.047137142            3 
   48000    1.2113491   -5.8505028    20.338698   0.03531024    0.0471493            3 
   49000    1.2104094   -5.8817707    20.786249  0.035350763  0.047130258            3 
   50000    1.2318797   -5.8631429    21.386677  0.035644462  0.047102567            6 
   51000    1.2526709   -5.8589972    21.856633  0.035713452  0.047056494            6 
   52000    1.2358536   -5.8452208    22.437646  0.035957765  0.047017055            8 
   53000    1.2231453   -5.8656376    22.956278  0.036094777  0.046995368            3 
   54000    1.2228167   -5.8670146    23.485209  0.036242607  0.046949842            2 
   55000    1.2306099   -5.8388448    23.935413  0.036265776  0.046895976            5 
   56000    1.2534026   -5.8933785    24.509897   0.03647306  0.046823029            2 
   57000    1.2143355   -5.9163682    25.085768  0.036675099  0.046765853            2 
   58000    1.2324645    -5.869633    25.707474  0.036936026  0.046720239            2 
   59000    1.2443437   -5.8418167    26.384208   0.03726583  0.046715009            2 
   60000    1.2340603   -5.8567622    26.690201  0.037069724  0.046688002            2 
   61000    1.2287565   -5.8809655     27.12338  0.037053798  0.046629217            3 
   62000    1.2408827   -5.8653944    27.827038  0.037401933  0.046559989            4 
   63000    1.2297856   -5.8673979    28.209177  0.037313726  0.046495123            4 
   64000    1.2479578    -5.854371    28.777428  0.037470609  0.046438732            2 
   65000    1.2380842   -5.8697739    29.259227  0.037511829  0.046386628            5 
   66000    1.2271516   -5.9162495    29.857935  0.037699412   0.04633967            4 
   67000     1.257028   -5.8725427    30.423927  0.037840704  0.046298695            4 
   68000    1.2297706   -5.8642572    31.018278  0.038012595  0.046271609            3 
   69000    1.2329521    -5.919619    31.290184  0.037790077  0.046223132            4 
   70000    1.2269805    -5.856616    31.843696  0.037909162  0.046159259            3 
   71000     1.218061   -5.8798517    32.517781  0.038166409  0.046112246            2 
   72000    1.2318226   -5.8877933    33.015719  0.038212637  0.046070983            2 
   73000    1.2273779   -5.8834114    33.581389  0.038334918  0.046033952            5 
   74000    1.2330713   -5.8736929    34.153679   0.03846135  0.045991031            2 
   75000    1.1993449   -5.9001401    34.988676  0.038876306  0.045972697            9 
   76000    1.2023545    -5.882649    35.483073  0.038906878  0.045971905            2 
   77000    1.2470037   -5.8576857    35.964058  0.038922141  0.045965677            4 
   78000     1.225717   -5.8987321    36.484406  0.038979066  0.045957155            3 
   79000    1.2163657   -5.8652656     36.95221  0.038979124  0.045943058            2 
   80000    1.2418074   -5.9019683     37.51022  0.039073146   0.04592751            3 
   81000    1.2448803   -5.9213508    37.963181   0.03905677  0.045907581            4 
   82000    1.2374429   -5.8575794    38.517788  0.039144093  0.045892405            2 
   83000     1.238176   -5.8889315    39.236946  0.039394524  0.045888369            5 
   84000    1.2233478   -5.9052905    40.133417  0.039814897  0.045898662            7 
   85000    1.2273043   -5.8556798    40.689142  0.039891315  0.045925334            3 
   86000    1.2199343   -5.8747236    41.178825  0.039901962  0.045942695            3 
   87000    1.2233087   -5.9123965    41.775459  0.040014807  0.045954451            6 
   88000    1.2081499   -5.8831371     42.25131   0.04001071   0.04596807            4 
   89000    1.2422501   -5.9156867    42.890604  0.040159741  0.045990209            5 
   90000    1.2249363   -5.8965628    43.520843  0.040297077  0.046014544            2 
   91000     1.231793   -5.8601264    44.363016  0.040625472  0.046039521            7 
   92000    1.2243037   -5.9110315    44.788512  0.040569305  0.046073985            2 
   93000    1.2371095   -5.8557038    45.393245  0.040674951  0.046107276            5 
   94000    1.2233738   -5.8768781    45.969535  0.040753133  0.046132393            2 
   95000    1.1721682   -5.8804083    46.596745  0.040874337  0.046172523            3 
   96000    1.2361556   -5.8957021    47.179469    0.0409544  0.046201169            3 
   97000    1.2401324   -5.8661136    47.803403  0.041068215  0.046231653            4 
   98000    1.1868513   -5.8979308    48.184416  0.040973143  0.046254817            3 
   99000    1.2370543    -5.862324     48.33781  0.040688392  0.046262811            2 
  100000    1.1930232   -5.9115703    48.903823  0.040753185  0.046264429            4 
  101000     1.186549   -5.8968235    49.386804  0.040748188  0.046261496            2 
  102000    1.2102188   -5.8651468    49.915992  0.040781039  0.046257539            9 
  103000    1.2160111   -5.8921903    50.560441  0.040906506   0.04625217            2 
  104000    1.2299885    -5.868332     51.34547  0.041142203  0.046252874            5 
  105000    1.2178397    -5.919504    51.547822   0.04091097  0.046249157            4 
  106000    1.2043082   -5.9201461    52.073375  0.040938188  0.046244158            2 
  107000    1.1721017   -5.9083529    52.441582  0.040842354  0.046223262            4 
  108000    1.2223383   -5.9242918    53.025663  0.040914863  0.046198832            8 
  109000    1.1959999   -5.9122787    53.332807  0.040774317  0.046178022            3 
  110000    1.2047659    -5.897285    54.101808  0.040986218  0.046158128            2 
  111000    1.2088072   -5.9045897    54.664611  0.041039498  0.046142733            5 
  112000    1.1995763   -5.9167296    54.921412  0.040864146  0.046119922            6 
  113000     1.179177   -5.9147893    55.638479  0.041031326  0.046101051            4 
  114000    1.2024802   -5.9335322    56.158303  0.041051391  0.046086387            4 
  115000    1.2303936    -5.951822    56.652329  0.041052412  0.046070345            3 
  116000    1.1986574   -5.9049737     57.26756  0.041140488  0.046052943            4 
  117000    1.2154094   -5.8820658    57.857487  0.041209036  0.046031339            2 
  118000    1.2132327    -5.917188    57.970988  0.040939963   0.04600557            2 
  119000    1.1999148   -5.9123007    58.742716  0.041136356  0.045981391            4 
  120000    1.1891205   -5.9485691    59.375634  0.041233079  0.045960126            3 
  121000    1.2104321   -5.9220269    59.626604  0.041065154  0.045937276            3 
  122000    1.2289857   -5.9036696    60.207477  0.041125326  0.045910894            3 
  123000    1.2282723   -5.8721387    61.219384  0.041476547  0.045894602            3 
  124000    1.1948728   -5.9040312     61.66374  0.041440685  0.045878243            3 
  125000    1.1709763   -5.9174216    62.049499  0.041366333  0.045863636            4 
  126000    1.1921038   -5.9135638     62.61205  0.041410086  0.045850725            4 
  127000    1.1929436   -5.9106742    63.000473  0.041338893  0.045836005            5 
  128000    1.2175097   -5.8797672    63.495751  0.041338379   0.04581602            4 
  129000    1.1941733   -5.9007105    64.129127  0.041427085   0.04579507            2 
  130000    1.2037334   -5.9563073    64.396039  0.041279512  0.045773177            5 
  131000    1.2360791   -5.8787952    64.812556  0.041229361  0.045746254            5 
  132000    1.1900476   -5.9169986    65.421878   0.04130169  0.045721133            2 
  133000    1.1904254   -5.9513694    65.963313  0.041330396  0.045695991            2 
  134000    1.2127286   -5.9391696    66.769284  0.041523187  0.045674886            3 
  135000    1.1731541   -5.9441448    67.311578  0.041550357  0.045660193            3 
  136000    1.2063784   -5.9139858    67.876598  0.041591053   0.04564943            2 
  137000    1.2038777   -5.8993765    68.496199  0.041664355  0.045637056            1 
  138000    1.1956907   -5.9394398    68.605017   0.04142815  0.045617752            2 
  139000    1.2073658    -5.935252    69.173529  0.041470941  0.045596076            4 
  140000    1.1855084   -5.9255081    69.358287  0.041284695  0.045571465            4 
  141000    1.2043344   -5.9165468    70.168105  0.041470511  0.045545527            5 
  142000    1.2029781   -5.9333739    70.427026  0.041330414   0.04551617            5 
  143000    1.1879771   -5.9277231    70.415438  0.041034637  0.045481844            5 
  144000    1.1774806   -5.9025328    71.112884  0.041153289  0.045440402            4 
  145000    1.2065333   -5.8810904    71.330695  0.040994652   0.04539627            2 
  146000    1.1615627   -5.9048013    71.797061  0.040980058  0.045348768            5 
  147000    1.2136099   -5.9076228    72.494763  0.041096804   0.04530666            3 
  148000    1.2226411   -5.9319382    72.672478  0.040919188  0.045265081            5 
  149000    1.2098944   -5.8961649    73.008694  0.040832603   0.04521817            2 
  150000    1.2145745   -5.9586133    73.367405  0.040759669  0.045170588            5 
  151000    1.1822889   -5.9591163    74.041543  0.040861779  0.045118544            6 
  152000    1.2204213   -5.9351373    74.724058  0.040967137  0.045073583            3 
  153000    1.2054049    -5.956463    75.092239  0.040899912   0.04502882            3 
  154000     1.195198   -5.9312819    75.746338  0.040988278  0.044984348            4 
  155000    1.1922305   -5.9504784    76.133282  0.040931872  0.044943866            6 
  156000    1.2153154   -5.9494638    76.486489  0.040858167  0.044897767            6 
  157000    1.1938817   -5.9358685    77.257081  0.041006943  0.044855206            2 
  158000    1.1855944   -5.9241168    77.682131  0.040971588  0.044815788            3 
  159000    1.1773775   -5.9401322    77.757524  0.040753419  0.044773422            4 
  160000    1.1638092   -5.9450821    78.445288  0.040856921  0.044725475            4 
  161000    1.1775193   -5.9264457    79.079813   0.04093158   0.04468053            6 
  162000    1.1769788   -5.9072485    79.118145  0.040698634  0.044638432            2 
  163000     1.194372   -5.9451026    79.412202  0.040599285  0.044592362            5 
  164000    1.1903329   -5.9468925    80.098136  0.040700272  0.044543361            1 
  165000    1.2079546    -5.968772    80.467992    0.0406404   0.04449559            3 
  166000    1.2006982   -5.9484837    80.764995  0.040544676  0.044449267            5 
  167000     1.171628   -5.9632962     81.37815  0.040607859  0.044400447            3 
  168000    1.1834683   -5.8964466    82.085738  0.040717132  0.044354202            2 
  169000    1.1956347   -5.9414342    82.212388  0.040538653  0.044305139            5 
  170000    1.1920476   -5.9395193     82.73108  0.040554451  0.044258158            5 
  171000    1.1896258   -5.9616489    83.295243  0.040592223  0.044213752            5 
  172000    1.1809899    -5.949874    83.979821  0.040687898   0.04417282            3 
  173000    1.1719757   -5.9652629     84.37548  0.040643295  0.044130873            3 
  174000    1.1605575   -5.9276997    84.385482  0.040414503  0.044086551            3 
  175000    1.1810513   -5.9756822    84.403437  0.040192113  0.044037668            4 
  176000    1.1800039   -5.9495827    85.323341  0.040399309  0.043989129            5 
  177000    1.1858834   -5.9398537    85.406889    0.0402104  0.043941759            7 
  178000    1.1951686   -5.9733391    86.252527  0.040380396  0.043893516            8 
  179000    1.1988872   -5.9502113    86.807015  0.040412949  0.043847471            6 
  180000     1.177039   -5.9877385    87.314326  0.040423299  0.043802165            4 
  181000    1.1832103    -5.897171     88.01788  0.040523886  0.043763406            7 
  182000    1.1804569    -5.922356    88.510298  0.040526693  0.043724994            5 
  183000    1.1679492   -5.9474795    89.356794  0.040690708   0.04368828            3 
  184000    1.1826026   -5.9575023    89.571151  0.040566645  0.043655293            3 
  185000    1.1938271   -5.9204601    90.179686   0.04062148  0.043622167            6 
  186000    1.1686654   -5.9554901    90.395993  0.040499997  0.043587455            4 
  187000    1.1649337   -5.9515232    90.969715  0.040539089  0.043555068            3 
  188000    1.1748569   -5.9646069    91.009567   0.04034112  0.043517455            2 
  189000     1.185813   -5.9436784    91.622281  0.040397831  0.043478748            4 
  190000    1.1587159   -5.9614408    91.979075  0.040341699  0.043438055            4 
  191000    1.1634643   -5.9474021    91.990315   0.04013539  0.043396284            4 
  192000    1.1808921   -5.9653135    92.697198  0.040233159  0.043357028            5 
  193000    1.1843653   -5.9596057    93.587948  0.040409304  0.043320181            4 
  194000     1.158765   -5.9622891    94.209972  0.040468201  0.043284573            3 
  195000    1.1755087   -5.9493997    94.616416  0.040434366  0.043251037            4 
  196000    1.1689327   -5.9553883    94.914674  0.040354878  0.043217353            5 
  197000    1.1734744   -5.9965969    95.517501  0.040405034  0.043184117            4 
  198000    1.1796232   -5.9553309    95.958337  0.040386505  0.043150304            4 
  199000    1.1527871   -5.9670043    96.317731  0.040334058  0.043117805            4 
  200000    1.1647196   -5.9175683    97.060312  0.040441796  0.043086098            4 
  201000    1.1411355   -5.9951811    97.074866  0.040246628  0.043054737            4 
  202000     1.199024   -5.9455798    97.704234  0.040307027  0.043022686            2 
  203000    1.1766032   -5.9186787    98.245497  0.040330664  0.042990054            2 
  204000    1.1963774   -6.0055883    98.431691  0.040209024   0.04295541            3 
  205000     1.167767    -5.974957    98.911618  0.040207975  0.042922124            8 
  206000    1.1975991   -6.0052866    99.242165  0.040146507  0.042888508            1 
  207000    1.1660059    -5.978309    99.756277  0.040159532  0.042855845            4 
  208000     1.156732   -5.9663325    100.60568  0.040306762  0.042824353            6 
  209000    1.1399648   -5.9818758    100.36221  0.040016829   0.04279263            5 
  210000    1.1624936   -5.9544009    101.15018  0.040138959  0.042758977           11 
  211000    1.1679622   -5.9791791    101.32674  0.040018458  0.042722448            3 
  212000    1.1851368   -5.9864618    101.86101  0.040039707  0.042686328            2 
  213000    1.1289463   -5.9457662    102.37644   0.04005338  0.042649495            3 
  214000    1.1465791   -5.9831085    102.82719  0.040041741  0.042614169            2 
  215000    1.1739935   -5.9664593     103.0794  0.039953257  0.042579266            2 
  216000    1.1748036   -5.9740131    103.84371  0.040063161  0.042544926            8 
  217000    1.1708518   -5.9599398    104.47548  0.040121151  0.042513321            3 
  218000    1.1767227   -5.9473142     104.8892  0.040095261   0.04248411            2 
  219000    1.1774927   -5.9682414    105.45583  0.040127788   0.04245464            5 
  220000    1.1620063   -5.9640218    105.36962  0.039912735  0.042423168            5 
  221000    1.1724603    -5.996135    106.04949  0.039988497  0.042390477            3 
  222000    1.1408193   -5.9799663    106.61274  0.040019795  0.042359694            5 
  223000    1.1723448   -6.0363117    107.10634  0.040024789  0.042329094            4 
  224000    1.1822383   -5.9944357    107.34996  0.039936739  0.042301133            6 
  225000    1.1424331   -6.0234526    108.39053  0.040144639  0.042274506            3 
  226000    1.1552643   -5.9719432    108.78867  0.040113818  0.042248503            3 
  227000    1.1613282   -5.9915532     108.9459  0.039994823  0.042222236            3 
  228000    1.1538223   -5.9623289    109.53722  0.040035532  0.042196613            4 
  229000    1.1700311   -6.0018339    109.50206  0.039847911  0.042169396            3 
  230000     1.171278   -5.9992806    110.02411  0.039863807  0.042140192            6 
  231000      1.17931   -5.9673637    110.93077  0.040018316   0.04211442            8 
  232000    1.1529741   -5.9716514    111.43378  0.040026503  0.042088228            3 
  233000    1.1674808   -5.9957664    111.47078  0.039867947  0.042060379            5 
  234000    1.1763012   -6.0006883    111.77697  0.039806614  0.042029814           10 
  235000    1.1640791   -6.0067802    112.35335  0.039841612  0.041999539            7 
  236000    1.1526995   -5.9789501    112.87841  0.039858196  0.041970625            3 
  237000    1.1565128   -5.9757795    113.31591   0.03984385  0.041941921            3 
  238000    1.1631953   -5.9891842    113.83943  0.039859745  0.041914314            2 
  239000    1.1611037   -5.9842761    114.90167  0.040063343   0.04188665            6 
  240000    1.1433199    -5.989173     115.2783  0.040027187  0.041861549            3 
  241000    1.1631003   -6.0245917    115.21685   0.03983985  0.041836277            5 
  242000    1.1520697   -6.0307299    115.43509  0.039750375  0.041807957            4 
  243000    1.1560657   -5.9916512    115.91135   0.03975012  0.041783214            4 
  244000    1.1565863   -5.9962026    116.31137  0.039723827    0.0417581            5 
  245000    1.1513718   -6.0108302    117.23431  0.039875617  0.041732299            3 
  246000    1.1656066   -6.0164181    117.42895  0.039779453  0.041706982            4 
  247000    1.1364793   -6.0019285    117.77696  0.039735817     0.041683            3 
  248000    1.1437966   -5.9525757    118.38099  0.039778558  0.041660025            7 
  249000    1.1650601    -5.998966    118.94707  0.039808255  0.041634874            3 
  250000    1.1454226   -5.9364692    119.18867  0.039729557  0.041609097            2 
  251000    1.1328459   -6.0086953    119.52533  0.039683044  0.041583232            7 
  252000    1.1618537   -6.0116116    120.16918  0.039738484  0.041557074            3 
  253000    1.1712345    -5.964718    120.67886  0.039749297  0.041532515            3 
  254000    1.1679976   -6.0098161    121.04575  0.039713172  0.041508619           11 
  255000    1.1524634   -6.0377682     121.3793  0.039666436  0.041484474            4 
  256000     1.161975   -5.9627736    122.26659  0.039800323  0.041460072            5 
  257000    1.1553709   -5.9938376    122.38628  0.039684267  0.041436813            7 
  258000    1.1192852   -5.9399657    122.76223  0.039651882  0.041412711            6 
  259000    1.1622105    -5.976175    122.97693  0.039567866  0.041386561            4 
  260000    1.1640112   -6.0095253    123.02838  0.039432174  0.041358884            6 
  261000    1.1435589   -5.9899663    123.64364  0.039477536  0.041332286            2 
  262000    1.1555226   -5.9916232    124.37961  0.039560944  0.041307049            4 
  263000    1.1471311    -5.985571    124.58653  0.039476087  0.041282204            4 
  264000    1.1683424   -6.0355384    125.06643   0.03947804  0.041256899            7 
  265000    1.1149514   -6.0242492    125.64624  0.039511397  0.041231383            8 
  266000    1.1185802    -5.968481    126.11083  0.039508407  0.041205505            4 
  267000     1.142452   -6.0068792    126.35526  0.039436723  0.041180075            3 
  268000     1.131374   -5.9885971    127.27071  0.039574226   0.04115675            2 
  269000    1.1180552   -5.9954243     127.5907   0.03952624   0.04113465            5 
  270000    1.1310951   -6.0195572    127.70371  0.039414724  0.041110774            3 
  271000    1.1268466   -6.0375804    127.86322  0.039318332  0.041084192            6 
  272000    1.1644726   -5.9825479     128.7448  0.039443873  0.041060104            7 
  273000    1.1511763   -5.9936927    129.38799  0.039495723  0.041036637            9 
  274000    1.1299649   -6.0288624    129.40848   0.03935781  0.041014147            2 
  275000    1.1408488   -5.9713446     130.2125  0.039458334  0.040990698            4 
  276000    1.1397924   -6.0690686    130.31119  0.039345166  0.040967355            3 
  277000    1.1502403    -6.017096    130.83476  0.039360637  0.040942171            5 
  278000     1.140121   -6.0277913    131.32599  0.039366303  0.040917884           11 
  279000    1.1665855   -5.9672523    131.96984  0.039417516  0.040894747            4 
  280000    1.1599535   -6.0296297    131.89044  0.039253107  0.040871355            5 
  281000     1.173473   -6.0466052    132.15778  0.039192699  0.040847049            4 
  282000    1.1606563   -6.0252355    132.83265  0.039253148  0.040824021            6 
  283000    1.1381949   -6.0276093    132.96323  0.039152895  0.040800652           10 
  284000    1.1365096   -6.0155111     134.1479  0.039362648  0.040778277            3 
  285000    1.1147289   -6.0461039    133.57749  0.039057746  0.040754741            4 
  286000    1.1407306   -6.0349432    134.45438  0.039176685  0.040731107            7 
  287000    1.1433691   -6.0521417    134.57257  0.039074497  0.040706485            3 
  288000     1.118647   -5.9896434    135.53564  0.039217487  0.040683015            6 
  289000    1.1590284   -5.9999096    135.63091  0.039109259  0.040660811            5 
  290000     1.124824   -6.0434505    136.36598  0.039185627  0.040637044            3 
  291000    1.1319087   -6.0045142    136.62494  0.039125125  0.040613745            7 
  292000    1.1343519   -6.0594903    137.26557  0.039173964  0.040591272            4 
  293000    1.1319947   -6.0657236    137.33374  0.039059652  0.040567829            6 
  294000     1.122088   -6.0151481    137.90334  0.039088249  0.040544976            6 
  295000    1.1456948   -6.0504887    138.62393  0.039159303  0.040523169            5 
  296000    1.1404405   -6.0614619    138.80701   0.03907855  0.040500991            5 
  297000     1.131105   -6.0443862    139.19348  0.039055409   0.04047883            3 
  298000    1.1298265   -5.9845366    140.02888  0.039157965  0.040456718            2 
  299000    1.1535388   -6.0432683    139.93021  0.038999501  0.040435088            5 
  300000    1.1340001    -6.014937     140.9001  0.039138916  0.040414215            6 
  301000    1.1570855   -5.9947832     141.2858   0.03911567  0.040394742            3 
  302000    1.1354444   -6.0376127    141.54216  0.039056888  0.040373507            4 
  303000    1.1229096   -6.0648494    141.94774  0.039039532  0.040353378            6 
  304000    1.1293955   -6.0251671    143.18157  0.039249333  0.040334607            3 
  305000    1.1280301   -6.0319791    143.54129  0.039218931  0.040316773            4 
  306000     1.122859   -6.0685707    143.17873  0.038992029  0.040297284            5 
  307000     1.130313   -6.0481292    143.68029  0.039001164  0.040276824            3 
  308000    1.1286829   -6.0201746    143.88172  0.038929036  0.040255334            5 
  309000    1.1469367   -6.0132762    144.20441  0.038890079  0.040233437            2 
  310000    1.1186409   -6.0279303    144.80649  0.038926476  0.040210968            5 
  311000     1.113146   -6.0309903    144.71478  0.038776737  0.040188305            4 
  312000    1.1420828   -6.0293514    145.51476  0.038866121  0.040165198            3 
  313000    1.1288922   -6.0311089    145.99424  0.038869605  0.040143489           20 
  314000    1.1223047   -6.0608473    145.69548  0.038666528  0.040120273            7 
  315000    1.1367582   -6.0656769    146.17342  0.038670216  0.040096171            4 
  316000    1.1421754   -6.0832094    147.14945  0.038805234   0.04007323            4 
  317000    1.1299554   -6.0581115    147.73314  0.038836262  0.040049581            4 
  318000    1.1138147   -6.0467443    147.43051   0.03863483  0.040025848            3 
  319000    1.1488687   -6.0624528    148.17463  0.038708107  0.040002525            1 
  320000    1.1148661    -6.079272     147.9556  0.038530104  0.039978949            4 
  321000     1.146893   -6.0357923    148.62317  0.038583377  0.039956109            6 
  322000    1.1251049   -6.0332757     149.0025  0.038561724  0.039932612            5 
  323000    1.1310984   -6.0881267      149.663  0.038612745  0.039911349            6 
  324000    1.1320127   -6.0591073    149.66909  0.038495137  0.039888771            4 
  325000    1.1062724   -6.0462791    150.42862   0.03857144  0.039864513            3 
  326000    1.1198151    -6.036412     150.3713  0.038438472  0.039840371            3 
  327000    1.1269599   -6.1046262    150.43435  0.038336991  0.039816802            6 
  328000     1.119657   -6.0827984    151.01597  0.038367878  0.039793076            5 
  329000    1.1216397   -6.0652495     151.7328  0.038432827  0.039769852            4 
  330000    1.1215548   -6.0496676    152.63119  0.038543229  0.039747149            3 
  331000     1.121763   -6.0255831    153.04771   0.03853165  0.039725367            2 
  332000    1.1235085   -6.0582246    153.42666  0.038510708  0.039703346            4 
  333000    1.1222581    -6.065313    153.24272   0.03834903  0.039680316            6 
  334000    1.1052197   -6.0142235     153.9923  0.038421232  0.039658113            2 
  335000    1.0960668   -6.0710423    154.52196  0.038438298  0.039634859            2 
  336000    1.1178736   -6.0486741    154.98585  0.038438951  0.039613184            5 
  337000    1.0951179   -6.0458418    155.30301  0.038403316  0.039592733            3 
  338000     1.125485   -6.0659585    155.91435  0.038440422   0.03957198            3 
  339000    1.1142717   -6.0802558     155.7701  0.038291568  0.039550755            5 
  340000    1.1085361   -6.0569896    155.75832  0.038176058  0.039528769            4 
  341000     1.139689   -6.0728594    156.31348  0.038199774  0.039505462            3 
  342000     1.138655   -6.0505841    157.32582  0.038334752  0.039483342            3 
  343000    1.0954275   -6.0840651     157.8097  0.038340549   0.03946089            5 
  344000    1.1188299   -6.0358485    157.94451  0.038261752  0.039438064            3 
  345000    1.1612833   -6.0384531    158.47019  0.038277823  0.039415347            3 
  346000     1.096725   -6.0737213    158.83954  0.038256152  0.039392287            6 
  347000    1.1100283    -6.052296    158.76929  0.038129031  0.039369322            2 
  348000    1.1004224   -6.0607141    159.08029  0.038093938   0.03934569            4 
  349000    1.1087974   -6.0429432    159.89478  0.038179269  0.039322491            7 
  350000    1.1124299   -6.0458948    160.00029  0.038095308  0.039299887            2 
  351000    1.1200771    -6.044035    160.26768  0.038050255  0.039276712            3 
  352000    1.1068301   -6.0452614    160.28457  0.037946158  0.039253328            6 
  353000    1.1002246   -6.0853897    160.53892  0.037898705  0.039228603            5 
  354000    1.1253692   -6.0819315    161.27876  0.037965809  0.039204577            3 
  355000    1.1003482    -6.082111    161.20793  0.037842237  0.039180241            8 
  356000    1.1361961   -6.0774114    161.86124  0.037888868  0.039155335            4 
  357000    1.1076935   -6.0430938    162.66542  0.037970453  0.039130499            4 
  358000    1.1100963   -6.0760129    161.79283  0.037661274   0.03910499            4 
  359000    1.1164755   -6.0335811    162.64376   0.03775389  0.039079039            5 
  360000    1.0891222   -6.1144952    162.70295  0.037662721  0.039052362            5 
  361000    1.1272758   -6.0758841    163.12269  0.037655283  0.039025041            2 
  362000     1.112879   -6.1091143    162.89431  0.037498691  0.038997975            5 
  363000    1.1081074   -6.0542082    164.30706  0.037719711   0.03897074            5 
  364000    1.0722871   -6.0850633    164.10664  0.037570201  0.038944503            5 
  365000    1.1047804   -6.0861879    164.12108  0.037470566  0.038917122            4 
  366000    1.1154298   -6.0848214    164.86058  0.037536562  0.038889666            3 
  367000    1.1058331   -6.1245103    164.97976  0.037461344  0.038862001            7 
  368000    1.1222203    -6.093073    166.33188  0.037665734  0.038835786            6 
  369000    1.1117124   -6.0696276     166.1246  0.037516846  0.038809953            5 
  370000    1.1265987   -6.1052548    166.90821   0.03759194  0.038785563            5 
  371000    1.1036576   -6.1010253     167.5449  0.037633625  0.038761067            6 
  372000    1.1206819    -6.094874    167.94805   0.03762277  0.038736941            5 
  373000    1.0991831   -6.0790792    167.23365  0.037362298  0.038711823            3 
  374000    1.0901325   -6.1449011    168.21866  0.037481875  0.038686049            5 
  375000    1.1158566   -6.0990389    168.81852  0.037515226  0.038660734            3 
  376000     1.099973    -6.146704    168.54192  0.037354149  0.038636267            6 
  377000    1.1184787   -6.1042526    169.12877  0.037384785   0.03861125            7 
  378000    1.1074198   -6.0636657    169.05026  0.037268576   0.03858463            4 
  379000    1.0827132   -6.0834975    169.01074  0.037161551  0.038556882            4 
  380000    1.1029195   -6.0705276    169.63843  0.037201409  0.038528839            5 
  381000     1.101816   -6.1081455    169.68665  0.037114316  0.038500181            5 
  382000    1.1007256   -6.0676993     170.5055   0.03719579  0.038472134            8 
  383000    1.0998561   -6.0749251     170.9792  0.037201741  0.038443476           11 
  384000    1.1056728   -6.1095369    171.06267  0.037122976  0.038416323            3 
  385000    1.0918675   -6.0878408     171.3492   0.03708857  0.038389715            5 
  386000    1.0884864   -6.1337919     171.6417  0.037055636  0.038361426            8 
  387000    1.0845149    -6.060567    172.25621  0.037092206  0.038334231            5 
  388000    1.0873389   -6.1163067    172.24201  0.036993559  0.038307677            2 
  389000     1.123045   -6.0531167    172.66308  0.036988663  0.038280589            4 
  390000    1.1018908   -6.1060733    173.19999  0.037008545  0.038253439            3 
  391000    1.1019173   -6.1195652    173.45688  0.036968644  0.038227055            6 
  392000    1.0940747   -6.0873931    174.39054  0.037072819  0.038200613            4 
  393000    1.0927798   -6.0806967    174.72831  0.037050107  0.038174273            2 
  394000    1.1015223   -6.1023046    174.21408  0.036847309  0.038148072            8 
  395000    1.0776013   -6.0821175    174.91924  0.036902792   0.03812138            4 
  396000    1.0878405   -6.1142296    175.10126  0.036847908  0.038094219            7 
  397000     1.095178   -6.1449002    175.63252  0.036866608  0.038067565            7 
  398000    1.0993228   -6.1600232    176.34853  0.036923896  0.038041653            8 
  399000    1.0828507   -6.1113258    176.70007  0.036904776  0.038015694            9 
  400000    1.1048209   -6.0563582     177.0604  0.036887583  0.037989759            5 
  401000    1.0918577   -6.0880115    177.41547  0.036869384  0.037963777            3 
  402000    1.1013901   -6.1026042    177.70187  0.036837038  0.037938062            3 
  403000    1.0934448   -6.1040117    178.84272  0.036981538  0.037912516            3 
  404000     1.086973   -6.1070497    178.13416  0.036743844  0.037887194            4 
  405000    1.1222688   -6.1070635    178.23395  0.036673652  0.037861651            7 
  406000    1.0773626    -6.130032    179.40193  0.036823056  0.037836973            4 
  407000    1.1130889   -6.1116935    179.66994  0.036787456   0.03781326            4 
  408000    1.1166835   -6.1197623    180.34537  0.036835247  0.037789836            5 
  409000    1.0938541   -6.0874586    180.31092  0.036738167  0.037765899            5 
  410000    1.0878424   -6.1007149    180.39029  0.036664692  0.037741682            6 
  411000    1.0787584   -6.1141044    181.11086  0.036721586  0.037716886            3 
  412000    1.0951034   -6.1127933    181.63429  0.036738326  0.037692761            7 
  413000    1.0790261   -6.1397641    181.58824  0.036640081  0.037668744            7 
  414000      1.12582   -6.1397517    181.73417  0.036580951  0.037644505            7 
  415000    1.0971132   -6.1196861    181.96015  0.036538183  0.037619568            3 
  416000    1.0715848   -6.0930653    182.33457  0.036525354  0.037594224            3 
  417000    1.0928967   -6.1084503    182.61506  0.036493816  0.037568846            3 
  418000    1.0894556   -6.1321722    183.31591  0.036546235  0.037542836            5 
  419000    1.0947987   -6.0855467    183.68999  0.036533411  0.037517536            4 
  420000    1.1002183    -6.114027     184.2394  0.036555436   0.03749239            9 
  421000      1.07738   -6.1522971     183.5505  0.036332245  0.037467318           11 
  422000    1.0891782   -6.0572269     185.2124  0.036574329  0.037443048            6 
  423000    1.0731937   -6.1443472    184.84308  0.036415107  0.037418626            5 
  424000    1.0716685   -6.1028866    185.74831  0.036507137   0.03739489            3 
  425000    1.1005968   -6.1097577    186.19759  0.036509332  0.037372963            4 
  426000    1.0748825   -6.1207131    187.39954  0.036658753  0.037351562            9 
  427000    1.0515655   -6.1303882    187.00916  0.036496714  0.037329766            4 
  428000    1.0713222   -6.1019197    187.72108  0.036550054  0.037308655            4 
  429000    1.0737445   -6.1633635    187.48595  0.036419183  0.037287357            5 
  430000    1.0846296   -6.1442328    188.25617  0.036483753  0.037265482            3 
  431000    1.0756891   -6.1404825    188.36059  0.036419295  0.037243939           10 
  432000    1.0739687   -6.1251007    189.52945  0.036560465  0.037222936            2 
  433000    1.0640938    -6.130576    189.94247  0.036555518  0.037202419            9 
  434000     1.110947   -6.1219061    189.96959  0.036476496  0.037182446            2 
  435000    1.1088276   -6.1544796    190.24148  0.036444728  0.037162094            5 
  436000     1.071393   -6.1369305    190.77573  0.036463251  0.037141227            4 
  437000    1.0903792   -6.1295874    190.30033  0.036289155  0.037120113            3 
  438000     1.062923    -6.101186    191.48766  0.036432204  0.037099665            3 
  439000    1.0525855   -6.1101875    191.24528  0.036303205  0.037078251           19 
  440000    1.1037816   -6.1318476    191.91799  0.036348104  0.037056865            9 
  441000    1.0586075   -6.1354931    191.79854  0.036243111   0.03703544            4 
  442000    1.0882584   -6.1612587    192.36567  0.036268037  0.037014155            6 
  443000    1.0780972   -6.1615028    193.40069  0.036380867  0.036993918            6 
  444000    1.0738675   -6.1702187    193.62491  0.036341012   0.03697288            7 
  445000    1.0637854   -6.1262191    194.30714  0.036387105  0.036952875            8 
  446000    1.0927921   -6.1799615    193.81486   0.03621354  0.036933157            4 
  447000    1.0890929   -6.1454163    194.73127  0.036303369  0.036913786            7 
  448000    1.0614652   -6.1427222    194.98866  0.036270212   0.03689457            5 
  449000    1.0848731   -6.1452048    195.89235  0.036357155   0.03687543            6 
  450000    1.0635143   -6.1354947    196.35398  0.036361848  0.036857361            8 
  451000    1.0691375   -6.0959349    197.18855  0.036435431  0.036839354            5 
  452000    1.0769635   -6.1586897    196.99152  0.036318495  0.036821731            8 
  453000    1.0922869   -6.1455496    197.37466  0.036308804  0.036803628            3 
  454000    1.0794043   -6.1152622    198.25892  0.036391138  0.036785394            5 
  455000    1.0429098    -6.133827    198.13469  0.036288406  0.036767463            4 
  456000    1.0733516    -6.092019    198.73125  0.036317845   0.03674919            1 
  457000    1.0596878   -6.1553618     199.0928  0.036304304  0.036730318            8 
  458000     1.055968   -6.1522689    198.88337  0.036186931  0.036711729            4 
  459000    1.0729611   -6.1741527    198.75452  0.036084698  0.036693093            9 
  460000    1.0534383   -6.1692904    199.38495  0.036120462  0.036674637            5 
  461000    1.0875815   -6.1156942    200.44277  0.036233329  0.036656002            3 
  462000    1.0862214   -6.0940405    200.60029  0.036183314  0.036637836            3 
  463000      1.06906   -6.1595006    200.97085  0.036171859  0.036619821            8 
  464000     1.083513   -6.1092068    200.63498  0.036033582  0.036601839            6 
  465000    1.0540884   -6.1539773    202.08713  0.036216332  0.036584016            6 
  466000    1.0652066   -6.1662285    201.98725  0.036120752  0.036566913            7 
  467000     1.059296   -6.1724869    202.86376  0.036199814  0.036549211           11 
  468000    1.0682847   -6.1293539    202.85796  0.036121432  0.036532317            5 
  469000    1.0724768   -6.1409023    203.37235  0.036135811  0.036515438            5 
  470000    1.0713998   -6.1449788    203.58419  0.036096487  0.036497959            5 
  471000    1.0719288   -6.1712181    203.58788  0.036020502  0.036479864           18 
  472000    1.0541813   -6.1100487    204.08721  0.036032346  0.036461953            3 
  473000    1.0753869   -6.1824852    203.35757   0.03582762  0.036443294            4 
  474000     1.061688   -6.1534887    204.33161  0.035923279  0.036424277            5 
  475000    1.0590072    -6.149826    205.17483  0.035995584  0.036405391            9 
  476000    1.0861001   -6.1154223    204.83357  0.035860219  0.036387328           11 
  477000    1.0575303   -6.1237161     205.7696  0.035948568  0.036369228            5 
  478000    1.0459296   -6.1726032    205.76112  0.035871883  0.036351445            4 
  479000    1.0482342   -6.1717552    205.98537  0.035836008  0.036333597            5 
  480000     1.080406   -6.1694773    206.89951  0.035920053  0.036315011            6 
  481000    1.0635759   -6.2055926    206.43407  0.035764738  0.036296092           14 
  482000    1.0837627   -6.2036293    207.06481  0.035799587  0.036277418            8 
  483000     1.066955    -6.146189    207.62162  0.035821535  0.036259214            3 
  484000    1.0721214   -6.1703427    208.52796  0.035903574  0.036240792            3 
  485000    1.0589859   -6.1577359    207.62731  0.035674795   0.03622268            3 
  486000    1.0589053   -6.1386371    208.49233  0.035749713  0.036204197            5 
  487000    1.0451325   -6.1493775    208.52324  0.035681595  0.036185387            5 
  488000    1.0672333   -6.1516971    209.16403    0.0357179  0.036166429            4 
  489000    1.0701514   -6.1062267    210.08608   0.03580199  0.036147395            5 
  490000      1.06115   -6.1845675    208.91648  0.035530013   0.03612826           12 
  491000    1.0877087   -6.1380217    209.20658  0.035506887  0.036108875            5 
  492000    1.0372755   -6.1742721    209.30504  0.035451396  0.036089457            7 
  493000    1.0372605   -6.1943656    209.97529   0.03549278  0.036069527            6 
  494000    1.0741187   -6.2103154    209.79667  0.035390801  0.036049062            7 
  495000    1.0497665   -6.1640793      210.452  0.035429629  0.036028741            7 
  496000    1.0712812   -6.1936567    210.24593  0.035323577  0.036008427           12 
  497000     1.044651   -6.1646076    211.14436  0.035403146  0.035988048            4 
  498000    1.0403661   -6.1748772    211.63949  0.035414908  0.035967748            4 
  499000    1.0351643   -6.1920716    211.94364  0.035394729  0.035947672            4 
  500000    1.0414528   -6.1680226    212.23905  0.035373176  0.035927689            4 
  501000    1.0564392   -6.1459151    212.53405  0.035351639  0.035908136            7 
  502000    1.0553678   -6.1534827    213.76519   0.03548559  0.035888534            4 
  503000    1.0662922   -6.1931187    213.83087  0.035425923  0.035869516           20 
  504000    1.0314884   -6.1788905    214.12312  0.035403956  0.035850024            6 
  505000    1.0517234   -6.1878191    213.56955    0.0352425  0.035830307           11 
  506000    1.0299899   -6.1684164    214.75834  0.035368633  0.035810574            4 
  507000    1.0746447   -6.1786765     213.9402  0.035164398  0.035790179            6 
  508000    1.0413943   -6.1870613    214.27698  0.035150424  0.035769245            6 
  509000     1.028507   -6.1821669    214.14029  0.035058987  0.035748468            4 
  510000    1.0645721   -6.2174986    214.49028  0.035047432  0.035727212            4 
  511000    1.0330818   -6.2009011    215.29692  0.035110391   0.03570583            5 
  512000    1.0398143    -6.202171    215.68379  0.035104784  0.035684869            4 
  513000    1.0483607   -6.2049325    216.04594  0.035095181  0.035664085            7 
  514000    1.0530636   -6.2088334     216.3563  0.035077221  0.035643852            6 
  515000    1.0311394   -6.1821727    217.51464  0.035196544  0.035624257            8 
  516000    1.0577709   -6.1770329    218.64146  0.035310313  0.035605343            5 
  517000    1.0495153   -6.1818113    219.00802  0.035301099  0.035587349            3 
  518000    1.0458695   -6.2025384    218.43354  0.035140531    0.0355692            3 
  519000    1.0473519   -6.2094753    219.01872  0.035166782  0.035550905            8 
  520000    1.0351467   -6.1972386     220.0014  0.035256634  0.035533016            4 
  521000    1.0730896   -6.1579384    219.56358  0.035118935  0.035515447            9 
  522000    1.0499479   -6.1953526    220.78889  0.035247268  0.035498561            4 
  523000    1.0461784    -6.209347    220.68226  0.035162885  0.035481954            4 
  524000    1.0298718   -6.2065856    220.89684  0.035129905  0.035464762            9 
  525000    1.0556647   -6.1879064    220.78254  0.035044848  0.035447413            5 
  526000    1.0460641   -6.2131372    221.34732    0.0350677  0.035430091            9 
  527000    1.0556961   -6.1923301    221.91004  0.035090139  0.035412793            7 
  528000    1.0455697   -6.1633891    221.55125  0.034967053    0.0353952            8 
  529000    1.0609858   -6.2169615    221.95436  0.034964455  0.035377244            9 
  530000     1.025433    -6.170851    222.90359  0.035047735  0.035358788            4 
  531000    1.0288183   -6.1903345    223.59411  0.035090098  0.035341053           14 
  532000    1.0443575   -6.2370854     223.3639  0.034988079  0.035323111           16 
  533000     1.029345   -6.1645745    223.53323  0.034948911  0.035304505           16 
  534000    1.0807266   -6.1786942    223.34475   0.03485405  0.035286168            4 
  535000    1.0473831   -6.2015241    223.62556  0.034832642  0.035267722            4 
  536000    1.0470228   -6.1803987    223.48878  0.034746391  0.035249365            7 
  537000    1.0311726   -6.1980929    225.02331  0.034919818  0.035230857            9 
  538000    1.0438376   -6.1973009    224.33061  0.034747616  0.035212889            4 
  539000     1.033514   -6.2240856      224.793  0.034754639  0.035194629            5 
  540000    1.0410266   -6.1776743     224.9158  0.034709228  0.035175798            7 
  541000    1.0542306   -6.2267617    224.68085  0.034608881  0.035156342            5 
  542000    1.0375613   -6.1990705    225.90168   0.03473273  0.035136945            4 
  543000    1.0374843   -6.2008122    226.31402  0.034732047  0.035118242            5 
  544000    1.0398749   -6.2008255    226.27436  0.034662126  0.035099577            6 
  545000    1.0306419   -6.1990254    226.63956  0.034654367  0.035080658            5 
  546000    1.0394902   -6.2454689    227.17466  0.034672567  0.035061889            8 
  547000    1.0558484   -6.1948722    227.42202  0.034646865  0.035042254            5 
  548000    1.0467184   -6.1709684    227.14713  0.034541839  0.035022649            4 
  549000    1.0415911   -6.1787306    227.16622  0.034481819  0.035002867            6 
  550000     1.029298   -6.2219617    227.36167  0.034448738  0.034982499            5 
  551000    1.0469114   -6.1808522    227.41791  0.034394723   0.03496196            5 
  552000    1.0269107   -6.2380595    226.84856  0.034246461  0.034940786            8 
  553000    1.0447384   -6.2334982    227.56112   0.03429191  0.034919453            8 
  554000    1.0316593   -6.1974217    228.13526  0.034316375  0.034898171            8 
  555000    1.0253106   -6.2011592    228.30965  0.034280728   0.03487764           12 
  556000    1.0204053   -6.1853742    228.74073  0.034283682  0.034857189            4 
  557000    1.0327276   -6.2221346    229.25463  0.034299017  0.034836545            3 
  558000    1.0371034   -6.2292652    230.03891  0.034354676   0.03481591           13 
  559000    1.0147999   -6.2493778    229.63182  0.034232532  0.034795606            3 
  560000     1.016896   -6.2215707    230.62528  0.034319237  0.034775817            7 
  561000    1.0436925   -6.2311082    229.98689  0.034163234  0.034756282            5 
  562000    1.0494071   -6.2341121    231.02833   0.03425687  0.034736315            4 
  563000    1.0574839   -6.2144843    231.75087  0.034302971  0.034716355           14 
  564000    1.0174494    -6.204326     231.3383  0.034181192  0.034696194           13 
  565000    1.0458425   -6.2176993    232.17271  0.034243762  0.034676406            6 
  566000    1.0168478   -6.2387919    232.73731  0.034266388  0.034656331            8 
  567000    1.0262142   -6.2185486    232.83954  0.034220979  0.034636455            9 
  568000    1.0121306   -6.2042431    232.86394  0.034164311  0.034617256            5 
  569000    1.0347509   -6.2239606    233.00589  0.034125058  0.034598321            4 
  570000    1.0205916    -6.212668    233.70648  0.034167614  0.034579247            6 
  571000    1.0291292   -6.2220831    234.75853  0.034261315  0.034559887           10 
  572000    1.0197795    -6.229452     233.8934  0.034075379  0.034540659            6 
  573000    1.0295168   -6.2203986    234.49666  0.034103644    0.0345214            9 
  574000    1.0211125   -6.2324859    234.08156  0.033983966  0.034501875            6 
  575000    1.0051203   -6.1727548    234.86972   0.03403909  0.034482195            4 
  576000    1.0353411   -6.2233803    235.23616   0.03403301  0.034462598            3 
  577000    1.0463902   -6.2425161    235.53489  0.034017171  0.034442974            7 
  578000     1.022334   -6.2225139    236.47753  0.034094223    0.0344234            7 
  579000    1.0289487   -6.2428953    235.82822  0.033941885   0.03440412            6 
  580000    1.0354687   -6.2359479    236.09835  0.033922177  0.034384713            5 
  581000    1.0447144    -6.229332    236.96141  0.033987581  0.034365075            4 
  582000    1.0176165   -6.2435798    236.53452  0.033868058  0.034345203            7 
  583000    1.0397845    -6.255925    236.18941  0.033760636  0.034324688            4 
  584000    1.0095287   -6.2585639    237.32139  0.033864353   0.03430416            4 
  585000    1.0010008   -6.2454055    237.89477  0.033888144  0.034283954            5 
  586000    1.0067488   -6.2553496    237.90725  0.033832088  0.034264048            4 
  587000    1.0122225   -6.2570677    237.55315  0.033724184  0.034243648            5 
  588000     1.030994   -6.2444603    238.07407  0.033740656  0.034223581            7 
  589000     1.018304   -6.2271991    238.79324  0.033785122  0.034203518           19 
  590000    1.0067378    -6.254232    238.70036   0.03371474  0.034183652            4 
  591000    1.0221139   -6.2168525    238.42455  0.033618803  0.034163802            7 
  592000    1.0033814   -6.2261844     239.6611  0.033736078  0.034144117            6 
  593000    1.0331802   -6.2313159    239.87539  0.033709302  0.034124204            6 
  594000   0.99854958   -6.2481943    239.90979  0.033657378  0.034103813            7 
  595000     1.016544   -6.2598551    239.53969  0.033548975  0.034083122            5 
  596000    1.0152391   -6.2590905    240.30209  0.033599286  0.034062137            7 
  597000   0.99308399   -6.2716199    240.11681  0.033517143   0.03404102            8 
  598000    1.0146964   -6.2538908    241.31194   0.03362764  0.034020454           18 
  599000    1.0232213   -6.2435276    240.68362  0.033484088  0.034000218            7 
  600000    1.0084173   -6.2173439     241.1429   0.03349207   0.03397977           10 
  601000    1.0273682   -6.2308695    241.62041  0.033502553  0.033959476            8 
  602000    1.0149579   -6.2209844     243.0882  0.033650083  0.033940074            5 
  603000    1.0151004   -6.2495579    242.36278  0.033494027  0.033920633            8 
  604000    1.0147046   -6.2314291    243.17001  0.033549946  0.033901132            3 
  605000    1.0023845   -6.2397524    242.15273  0.033354371  0.033881597            9 
  606000     1.020126   -6.2377383     243.1177  0.033432026  0.033861493            4 
  607000    1.0137117   -6.2434116    243.24742  0.033394758  0.033841004           13 
  608000    1.0064253   -6.2636375    243.03207  0.033310317  0.033820809            5 
  609000     1.024172   -6.2551141    244.31686  0.033431425   0.03380063            6 
  610000    1.0150572   -6.2534791    243.73917    0.0332977    0.0337805            3 
  611000     1.025877   -6.2587715     244.1098  0.033293754    0.0337603            4 
  612000    1.0045341   -6.2584749    244.94855   0.03335356  0.033740618            6 
  613000   0.96926515    -6.234334    245.59428  0.033386934  0.033721009            8 
  614000   0.98205518   -6.2564383     246.0085  0.033388776  0.033701247            4 
  615000    1.0090983   -6.2407618    245.78695  0.033304465   0.03368179           10 
  616000    1.0251437   -6.2948255    245.44798  0.033204543  0.033662113            9 
  617000    1.0201575   -6.2932888     245.4192   0.03314684  0.033642326            7 
  618000   0.99685244   -6.2747144     246.1754  0.033195173   0.03362218            5 
  619000    1.0278364     -6.26195    246.68406  0.033210024  0.033602418            7 
  620000    1.0027366   -6.2840366    246.12903  0.033081858  0.033582335            6 
  621000    1.0079114   -6.2610252    246.93721  0.033137039   0.03356194            8 
  622000     1.003824   -6.2418495    246.79823  0.033065143  0.033541949           12 
  623000    1.0139459   -6.2666907    247.54397   0.03311182  0.033521754            6 
  624000    1.0160719   -6.2629611    247.13959  0.033004754   0.03350129           13 
  625000   0.99982894   -6.2578614    247.51215   0.03300162  0.033481105            7 
  626000      1.01852   -6.2254915     248.4056  0.033067839  0.033461187            5 
  627000     1.016729   -6.2773284    248.40502  0.033015022  0.033441198            9 
  628000   0.96732755   -6.2612773    248.78666  0.033013092  0.033421373            4 
  629000    1.0078668   -6.2375099    249.78746  0.033093198   0.03340198            3 
  630000   0.99676459   -6.2246894    249.97448  0.033065408  0.033382607            9 
  631000     1.020321   -6.2641079    250.40915  0.033070411  0.033363507            2 
  632000    1.0072214   -6.2484333    250.25737  0.032998071  0.033343841            9 
  633000   0.99514156   -6.2694344    250.27106  0.032947744  0.033324032            5 
  634000    1.0103218   -6.2827382    249.78672  0.032832114  0.033304043            5 
  635000    1.0063229   -6.2776211    251.41395  0.032993956  0.033284294            7 
  636000    1.0056304   -6.2712047    251.26437   0.03292248  0.033264626            5 
  637000    1.0027817    -6.299073    250.45169  0.032764481  0.033244553           13 
  638000    1.0042632   -6.2742518     251.6063  0.032863937  0.033224695            6 
  639000    1.0034653   -6.2557323    251.77418    0.0328344  0.033204499            6 
  640000    1.0092071   -6.2746457      252.193   0.03283763  0.033184485            4 
  641000    1.0233302   -6.2658123    252.14599  0.032780291  0.033165165           15 
  642000   0.99673518   -6.3099355    252.46527  0.032770674  0.033145902            3 
  643000    1.0120079   -6.2800722    253.35676  0.032835247  0.033126727            7 
  644000    1.0006482   -6.2606825    254.17847  0.032890589  0.033107801           10 
  645000    0.9966945   -6.2748572    254.71086   0.03290838  0.033089087           16 
  646000    1.0034944   -6.3143968    253.50642  0.032702067  0.033070304            7 
  647000    1.0109629   -6.2964029    255.10085  0.032856884  0.033051266            4 
  648000    1.0100474   -6.2401189     255.1855  0.032817065   0.03303267            8 
  649000   0.99345253   -6.2742899    255.58918  0.032818333  0.033014322            2 
  650000   0.96736782   -6.2741175    255.31692  0.032732939  0.032995986            5 
  651000   0.99288595   -6.2500547    255.82094  0.032747176  0.032977628           13 
  652000    1.0007433   -6.2576303    256.49846  0.032783546  0.032959307            5 
  653000   0.98629617   -6.2620024    256.39243   0.03271981  0.032941062            8 
  654000   0.99828191   -6.2706991    256.70519  0.032709632  0.032922326            7 
  655000   0.98532335   -6.3094072    255.91472  0.032559125  0.032903699            4 
  656000    1.0122277   -6.2885867    256.84494   0.03262766  0.032885263            6 
  657000   0.98443647   -6.2838332    257.74078  0.032691626  0.032866774            3 
  658000   0.97846034   -6.3077601    257.59128  0.032623009  0.032848085            5 
  659000   0.98302606   -6.2792679     258.5643  0.032696548  0.032829385            7 
  660000   0.97775872   -6.2812652    257.31516  0.032489287  0.032811125            6 
  661000   0.97610458   -6.2920222    258.24246  0.032557042  0.032792378            5 
  662000   0.99392354   -6.2752514    258.44598  0.032533482  0.032773653            5 
  663000    1.0033348   -6.3192255    257.33578  0.032344869  0.032754612            7 
  664000   0.98215594   -6.2825462     257.5831  0.032327196   0.03273541           11 
  665000   0.99706751   -6.3143464    258.81375    0.0324328  0.032715933            8 
  666000   0.98837781   -6.2824393    259.67327  0.032491651  0.032696831           13 
  667000   0.99146358   -6.3131043    259.17907  0.032381193  0.032677876           13 
  668000   0.98524843   -6.3114313    259.16346  0.032330771  0.032658642            7 
  669000     1.001776   -6.2989517    260.39857  0.032436294  0.032639295            7 
  670000   0.98370308   -6.2937422    259.79854  0.032313251  0.032620313            6 
  671000   0.97554327   -6.2983663    260.41033  0.032341074  0.032601082           16 
  672000   0.98754985   -6.2951991    260.50087  0.032304175  0.032581672            7 
  673000   0.97515582   -6.2970465     260.6767  0.032277947  0.032562173            4 
  674000   0.96728828   -6.2873194    261.31931  0.032309509  0.032543181           11 
  675000   0.97026407   -6.2670722    261.33604  0.032263709  0.032524097            5 
  676000   0.97751669   -6.2756969    261.21279  0.032200788  0.032504772            8 
  677000   0.99849156   -6.3038449    261.86185  0.032233117  0.032485387           16 
  678000   0.99527224   -6.2824648    261.92638  0.032193507   0.03246552           10 
  679000   0.98049049   -6.3071978    260.23944  0.031939058   0.03244591            7 
  680000   0.97710591   -6.2862305    261.66042  0.032066228  0.032425975            6 
  681000   0.99840342   -6.2810469    261.96794  0.032056771  0.032406193           11 
  682000   0.96076382   -6.2967785    262.04084  0.032018675  0.032386485            9 
  683000   0.97915085   -6.3048696    262.76857  0.032060587  0.032366873            7 
  684000   0.99816667   -6.2970562    262.83751  0.032022114  0.032347549            6 
  685000   0.98216039   -6.3408212    262.84419  0.031976179  0.032328226            4 
  686000   0.99237908   -6.2989805    263.08502  0.031958822  0.032309205           11 
  687000   0.97253198     -6.29886    263.68557  0.031985149  0.032290226            4 
  688000   0.97676738   -6.3099765    263.71164  0.031941816   0.03227099            5 
  689000    0.9693355   -6.3288429    263.95515  0.031924909  0.032251861            4 
  690000   0.99468407   -6.2856846    264.81596  0.031982604  0.032232725            5 
  691000   0.98593058   -6.3376153    265.13846  0.031975212  0.032213454            5 
  692000   0.96984348   -6.2811334    264.97483    0.0319093   0.03219418            5 
  693000   0.97736198   -6.3172415    265.55433   0.03193294  0.032174964            9 
  694000   0.98661425   -6.3017465    265.75386  0.031910886  0.032155579            6 
  695000   0.97000822   -6.2957678    265.56885  0.031842787  0.032136361            7 
  696000   0.96728003    -6.333032    265.37876  0.031774277  0.032116953            4 
  697000   0.98554294   -6.3057658    265.83793  0.031783588  0.032097441            5 
  698000   0.97373123   -6.3317322    265.73396   0.03172564  0.032077888            7 
  699000   0.97493302   -6.2955124    266.11059  0.031725154  0.032058343            8 
  700000   0.98344785    -6.319537    266.59391  0.031737371   0.03203893           19 
  701000   0.99369955   -6.3326221    266.42593  0.031672127  0.032019031           10 
  702000   0.98322747   -6.3192686    266.76007  0.031666675  0.031999559            9 
  703000   0.99325195   -6.3221852    266.86087  0.031633579  0.031979782            7 
  704000   0.96587616   -6.2858939    267.22813  0.031632118  0.031960106           10 
  705000   0.96135039   -6.3126405    267.60349  0.031631619  0.031940624           10 
  706000   0.97217479   -6.3125389     267.8358  0.031614235  0.031921474            8 
  707000   0.98479813   -6.3333359    268.55387  0.031654157  0.031902141           16 
  708000   0.98419269    -6.329659    268.93121  0.031653862  0.031882832           13 
  709000   0.97992058   -6.3340678    269.05137   0.03162334  0.031864023           20 
  710000   0.96987345   -6.3569045    269.06161  0.031580002  0.031845326            7 
  711000   0.97435133   -6.3058216    270.23096  0.031672639  0.031826677           11 
  712000   0.98288794   -6.3715457     269.7633   0.03157342  0.031808133            8 
  713000   0.97775484   -6.3071111     270.0994   0.03156842  0.031789732            6 
  714000   0.97332652   -6.3480395    270.23762  0.031540338  0.031771368            6 
  715000   0.97476325   -6.3253267    271.30348  0.031620452   0.03175292            4 
  716000   0.96954106   -6.3120005    270.82368  0.031520447  0.031734331            9 
  717000   0.97221255   -6.2972033    271.95334   0.03160778  0.031716097            6 
  718000   0.94575791    -6.360298    271.80247  0.031546248  0.031697994            4 
  719000   0.96149561   -6.3275564     273.1273  0.031655923   0.03167997            5 
  720000    1.0040377   -6.3544652    272.56727  0.031547138  0.031662137            5 
  721000   0.96337293   -6.3449299    272.83289  0.031534083  0.031643961           11 
  722000   0.96758311   -6.3405155     273.0972  0.031520914  0.031626143            6 
  723000   0.94664555   -6.3040163    272.91166  0.031455931  0.031608026            7 
  724000   0.98057232    -6.314825    273.59842  0.031491531   0.03158965           19 
  725000   0.96955072   -6.3340578    274.23236  0.031520961  0.031571609            9 
  726000   0.96673338   -6.3161559    274.02796  0.031454082  0.031553426            7 
  727000   0.95256458   -6.3356082    274.35336  0.031448116  0.031535091            9 
  728000    0.9435674   -6.3184499    273.77044  0.031338191  0.031516895           16 
  729000   0.97674757   -6.3788601    274.87822  0.031421836  0.031498513           11 
  730000    1.0049086    -6.351384    274.61375  0.031348601  0.031480198            5 
  731000   0.97171453   -6.3669936    275.43057  0.031398833  0.031461763            7 
  732000   0.97814673   -6.3476276    275.46856  0.031360264  0.031443434           29 
  733000   0.96903702    -6.342488    275.05088  0.031269995  0.031425026           10 
  734000   0.95595248   -6.3390562    274.62113  0.031178602   0.03140637            6 
  735000   0.96736603   -6.3298297    275.02517  0.031181992  0.031387676            3 
  736000   0.96577673   -6.3564636      275.195  0.031158854  0.031368907            6 
  737000   0.95968211   -6.3421634    275.87711  0.031193703  0.031350453            7 
  738000   0.95465904   -6.3319684    276.74056  0.031248934  0.031332295            8 
  739000   0.94962954   -6.3127392    276.89925  0.031224543  0.031314302            3 
  740000   0.95553618   -6.3301501    276.86865  0.031178902  0.031296294           10 
  741000   0.95705244   -6.3181516    276.32096  0.031075231   0.03127808            7 
  742000   0.94811864   -6.3121344    277.32761  0.031146407  0.031259715            9 
  743000   0.94766674   -6.3372927    276.84783  0.031050677  0.031241424            3 
  744000   0.95416425   -6.3607787      277.719  0.031106518  0.031223173            6 
  745000   0.95208122   -6.3384023    277.99702  0.031095864    0.0312051            5 
  746000   0.95942976   -6.3708267    277.37901  0.030985144  0.031186903           13 
  747000   0.95068053   -6.3627972     278.7898  0.031101049  0.031168586           12 
  748000   0.94875271   -6.3590176    278.56305  0.031034208  0.031150175            6 
  749000   0.96224357   -6.3571003    278.62009   0.03099912  0.031132047           19 
  750000   0.96853689   -6.3213578    279.50614  0.031056238  0.031114052            7 
  751000   0.98402404   -6.3703219    278.42091  0.030894464  0.031095851            6 
  752000   0.97120391   -6.3271427    279.34608  0.030955904   0.03107773            5 
  753000   0.97614295   -6.3803948    279.52399  0.030934483  0.031059597            8 
  754000   0.94770442   -6.3559596    279.53526  0.030894701  0.031041408            6 
  755000   0.94159097   -6.3532186     279.7185  0.030874007   0.03102298           14 
  756000   0.97254947   -6.3531053    279.59438  0.030819486  0.031004633           11 
  757000   0.92329152   -6.3538869    280.38124  0.030865395  0.030986399            5 
  758000   0.93684172   -6.3605846    280.38402   0.03082498  0.030967998           19 
  759000   0.95313477   -6.3763187    279.97557  0.030739522  0.030949453            5 
  760000     0.944745   -6.3600009    280.47482  0.030753817  0.030930876           17 
  761000   0.95988919   -6.3955334    280.58422  0.030725385  0.030912423           12 
  762000   0.95099179   -6.3686926    280.26901  0.030650592  0.030893769            5 
  763000   0.94539477   -6.3625328     281.2608  0.030718741  0.030875359            6 
  764000   0.94459841   -6.3860365    280.93959  0.030643498  0.030856851            7 
  765000   0.95709067   -6.3844731    281.27746  0.030640246  0.030838302            8 
  766000   0.94782213   -6.3540966    281.61748  0.030637236  0.030819915            8 
  767000   0.93572193   -6.3574479    282.18217  0.030658645  0.030801505            9 
  768000    0.9434945   -6.3726727    281.76739  0.030573719  0.030782975           14 
  769000   0.93356164   -6.3762971    282.41718  0.030604375  0.030764197            9 
  770000   0.95813263   -6.3657366    282.23444  0.030544853  0.030745296            5 
  771000   0.91883102    -6.374281    283.24883  0.030614875  0.030726212            6 
  772000   0.95454348   -6.3894319     282.4931  0.030493642  0.030707432            3 
  773000   0.98105728   -6.3743142    283.36265  0.030547936  0.030688785            5 
  774000   0.95331439    -6.368842    283.91158  0.030567569   0.03067016            9 
  775000    0.9587622    -6.380975    283.74249  0.030509945  0.030651607            9 
  776000   0.95599555   -6.4055162    282.85019  0.030374805  0.030632803            4 
  777000   0.93793816   -6.3826287    283.36993  0.030391456  0.030613853            5 
  778000   0.93715207   -6.3938019    283.49252  0.030365522  0.030594776            4 
  779000   0.93218495   -6.3875062    283.91499  0.030371736  0.030575758           12 
  780000   0.91309235   -6.3482083    284.15552  0.030358496  0.030556729            6 
  781000   0.94178663   -6.3780177    284.22709  0.030327261  0.030537813            9 
  782000    0.9518215   -6.3897173    284.85117  0.030354984  0.030519111           14 
  783000   0.94954245   -6.3725786    285.27033  0.030360827  0.030500401            7 
  784000   0.94076993   -6.3555112    285.38771  0.030334578  0.030481436            6 
  785000   0.94664387   -6.3861435    284.80153  0.030233708  0.030462513           14 
  786000   0.94766537   -6.3788132     284.9291  0.030208768  0.030443486            9 
  787000   0.92542114   -6.4105459    284.71422  0.030147631  0.030424509            9 
  788000   0.95777931   -6.3884611    285.32419  0.030173878  0.030405518            7 
  789000   0.93521007   -6.3949449    284.99717  0.030101096  0.030386444           13 
  790000   0.94826914   -6.3868037    286.17558  0.030187298  0.030367395            6 
  791000   0.94434076   -6.3945036    286.63425  0.030197456  0.030348543            6 
  792000   0.94000906   -6.3532628    286.84512  0.030181516  0.030329755            5 
  793000   0.95714567   -6.3876062    285.64197   0.03001702  0.030311001            9 
  794000   0.94127972   -6.3992924      286.005  0.030017317  0.030291844            7 
  795000    0.9363967   -6.3968026    286.63662  0.030045767  0.030272723            9 
  796000   0.92954338   -6.3937352     286.9197  0.030037657  0.030253763           24 
  797000   0.91824736   -6.3999057    286.86296  0.029994035  0.030234658           13 
  798000   0.92607997   -6.4096972    286.62225  0.029931313   0.03021553           28 
  799000   0.92969943   -6.3818624    287.01548  0.029934864  0.030196395            8 
  800000    0.9542426   -6.3971077    287.38324  0.029935754   0.03017726           10 
  801000   0.93414719   -6.3853942    288.04293  0.029967013  0.030158167           11 
  802000   0.92902979    -6.358889    287.99364  0.029924527  0.030139047            6 
  803000   0.94430602   -6.3908441    287.99232  0.029887124  0.030119974           12 
  804000   0.92783352   -6.4163026    288.61464  0.029914452  0.030101103           11 
  805000   0.94815709   -6.3942574    289.03532   0.02992084  0.030082165            8 
  806000   0.94193367   -6.4064949    288.35354  0.029813228  0.030062958            4 
  807000   0.93177793   -6.4103328    288.38257  0.029779282  0.030043842           14 
  808000   0.94555228   -6.4151565    289.58444  0.029866382  0.030024584            7 
  809000   0.95395674   -6.4021796    289.47018  0.029817694  0.030005576            6 
  810000   0.89787683   -6.3958775     289.1538  0.029748333   0.02998668            8 
  811000   0.92116328   -6.4128398    289.11716  0.029707887  0.029967663            6 
  812000    0.9360056   -6.4229404    290.16622  0.029778963  0.029948568           14 
  813000   0.91129301   -6.4030846     290.3557  0.029761757  0.029929535            8 
  814000   0.95219296   -6.4036145      290.485  0.029738432  0.029910701           15 
  815000   0.91766526   -6.4214848    290.86568  0.029740867  0.029892065           11 
  816000   0.93260259   -6.3983602     290.7037  0.029687878  0.029873276           14 
  817000    0.9334253   -6.4650105     291.1052  0.029692493  0.029854373           12 
  818000   0.91585872   -6.4345263    291.36065  0.029682218  0.029835596            5 
  819000   0.90581301   -6.3756954    291.19932   0.02962956  0.029816789           10 
  820000   0.90576959   -6.4046297    291.30444   0.02960411  0.029798014            7 
  821000    0.9178061   -6.4231821    291.75036  0.029613313  0.029779235            9 
  822000   0.91278646   -6.4019751    292.35243  0.029638324  0.029760772           12 
  823000   0.93592503   -6.4019281    291.81823  0.029548221  0.029742307            8 
  824000   0.92984154   -6.3997961    293.51059  0.029683514  0.029723863            7 
  825000   0.92985416   -6.4198552    292.62989  0.029558574  0.029705168            7 
  826000    0.9144508    -6.414494    292.97818  0.029557928  0.029686342            5 
  827000   0.92394869   -6.3917838    293.90448  0.029615526  0.029667743            8 
  828000   0.91139971   -6.4112516    293.63834  0.029552973  0.029649239            3 
  829000   0.90731621   -6.4255573    293.75128  0.029528677  0.029630619           17 
  830000   0.92551917   -6.4329348    293.90157   0.02950819  0.029611938           24 
  831000   0.91846532   -6.4468529    293.16385  0.029398701  0.029593074           16 
  832000    0.9012806    -6.380829    293.21241   0.02936823  0.029574148            9 
  833000   0.92399831   -6.4269766    294.18729  0.029430501  0.029555321           15 
  834000   0.93877096   -6.4072781     293.4568  0.029322222  0.029536502           23 
  835000   0.93044937   -6.4110336    294.69458  0.029410637   0.02951751            8 
  836000   0.93096148   -6.4135046    294.81466  0.029387426  0.029498665            8 
  837000   0.92568774   -6.4019309     294.3009  0.029301165  0.029479703           11 
  838000   0.92448799   -6.3883309    294.26698  0.029262826  0.029461115            8 
  839000   0.93454046   -6.4506003    295.44525  0.029344979  0.029442404            4 
  840000   0.91219679   -6.4406619    294.69794  0.029235907  0.029423979           20 
  841000   0.90473373   -6.4024269    295.64525  0.029295011  0.029405397            8 
  842000   0.92974194   -6.4187539    295.53979  0.029249781  0.029386993            8 
  843000   0.91510645   -6.4178486    295.80375  0.029241177  0.029368436           10 
  844000   0.89601241   -6.4049607     295.9522  0.029221189  0.029349891           10 
  845000   0.90963628   -6.4532117    295.01854   0.02909453  0.029331163           12 
  846000   0.92404291   -6.4494135    295.91827  0.029148766  0.029312467            5 
  847000   0.94078757   -6.4292821    295.73885  0.029096699  0.029293622           11 
  848000   0.89597488   -6.4221321    296.05869  0.029093818  0.029274689            9 
  849000     0.924996   -6.4074251    297.18898  0.029170493  0.029255918            9 
  850000   0.91112855   -6.4452578    296.36225  0.029055122  0.029237146            8 
  851000   0.89233186   -6.4434718      296.799  0.029063748  0.029218447            8 
  852000   0.90847867   -6.4350942    297.47701  0.029095951  0.029199666           13 
  853000   0.90473613   -6.4258188    297.09555  0.029024575   0.02918128            7 
  854000    0.9056482   -6.3882083    299.08347   0.02918457  0.029163012           12 
  855000    0.9152144   -6.4113634    298.72621  0.029115615  0.029144879            7 
  856000    0.8992824    -6.425678     298.6186  0.029071126  0.029126592            4 
  857000   0.88685594    -6.435034    298.91263  0.029065794  0.029108392            7 
  858000   0.90302326   -6.4089479    299.90618  0.029128417  0.029090407           10 
  859000   0.90982332   -6.4602114    299.12806   0.02901902  0.029072385           11 
  860000   0.91210293   -6.4596736    299.33402  0.029005234  0.029054249            6 
  861000   0.87930841   -6.4672466    299.82894  0.029019448  0.029036246            5 
  862000   0.90286558   -6.4202922    300.28637  0.029030005  0.029018288           11 
  863000   0.91071181    -6.433859    300.30457  0.028998124  0.029000267           10 
  864000    0.9184964   -6.4353153    300.10517  0.028945329  0.028982459            8 
  865000   0.89284849   -6.4658276    301.02392  0.029000378  0.028964592           12 
  866000   0.90706275    -6.446243    301.11658  0.028975807   0.02894701           15 
  867000   0.91203676   -6.4302386    301.86292  0.029014121  0.028929398           24 
  868000   0.88891497   -6.4445414     301.4959  0.028945459  0.028911968            8 
  869000   0.90466935    -6.427263    301.48102  0.028910723  0.028894522            9 
  870000   0.90705845   -6.4503473    301.87819  0.028915535  0.028877295            8 
  871000   0.92217074   -6.4255493    301.99062  0.028893094  0.028859967           13 
  872000   0.91707346   -6.4589953    301.83484  0.028845073  0.028842615            6 
  873000    0.9194506   -6.4265053    302.39292  0.028865304  0.028825157           11 
  874000   0.91260673   -6.4480368    302.61989  0.028853918  0.028807801           20 
  875000   0.90172076   -6.4584802    302.29837  0.028790321  0.028790574            5 
  876000   0.89885957   -6.4590108    303.39183  0.028861475  0.028773227           15 
  877000   0.91867488   -6.4557009    303.07709   0.02879866  0.028755996            9 
  878000   0.90275011   -6.4559986    303.78755  0.028833291  0.028739015           18 
  879000   0.89949701   -6.4634042    303.60208  0.028782905  0.028722073           19 
  880000   0.90925637   -6.4631205     304.6258   0.02884714  0.028705137            4 
  881000   0.91562873   -6.4579401    304.89167  0.028839545  0.028688344            4 
  882000   0.90642041   -6.4715977    305.67658  0.028881007  0.028671558           14 
  883000   0.90452336   -6.4502636    305.63689  0.028844554  0.028654882            7 
  884000   0.89310803     -6.43635    305.06107  0.028757643  0.028638185            8 
  885000   0.89664609   -6.4599288    305.77322  0.028792206  0.028621647           12 
  886000   0.90861019   -6.4398031    306.16031  0.028796117  0.028605177            4 
  887000   0.88101893   -6.4404935    305.52571  0.028704031   0.02858879           16 
  888000   0.90935412   -6.4588819    306.90704  0.028801336  0.028572428            6 
  889000   0.89128891   -6.4666182    305.86942  0.028671674  0.028556111           17 
  890000   0.88250737   -6.4710321    306.28128  0.028678022  0.028539711            5 
  891000   0.87894713    -6.472866    307.27997  0.028739242   0.02852319           14 
  892000   0.88323664   -6.4849229    306.23378  0.028609284  0.028506489           13 
  893000   0.89737506   -6.4683078    307.12048  0.028659993    0.0284899           17 
  894000   0.87545847   -6.4652194    307.09871  0.028625905  0.028473482           11 
  895000   0.91384734   -6.4578183    306.86381   0.02857205  0.028457105            9 
  896000   0.90441094   -6.4577879    307.83014  0.028630035  0.028440812           20 
  897000   0.91475279   -6.5014867    307.76247  0.028591831  0.028424582           17 
  898000   0.91527866    -6.460916    308.03282   0.02858508  0.028408238           14 
  899000   0.89871878   -6.4363881     307.8419  0.028535586  0.028391983            8 
  900000   0.87721274   -6.4577001     308.9628  0.028607666  0.028375596           11 
  901000   0.89267963   -6.4843578    309.33587  0.028610421   0.02835941            7 
  902000   0.89676917   -6.4699944    309.47154  0.028591236  0.028343182           15 
  903000   0.88989481   -6.4705722    309.31889  0.028545487  0.028327045           10 
  904000   0.90657897   -6.4452896    308.81835  0.028467768  0.028310777            5 
  905000   0.89944076   -6.5076311    309.55718  0.028504344  0.028294553           12 
  906000   0.86895737   -6.4794284    309.26197  0.028445729  0.028278402           21 
  907000   0.90256668   -6.4608654    309.58022  0.028443607  0.028262245           39 
  908000   0.88582997   -6.4646465    310.04514   0.02845495  0.028246046           34 
  909000   0.90508986   -6.4907648    310.13388  0.028431782   0.02822981           14 
  910000   0.88392166   -6.4672464    310.48187  0.028432405  0.028213732           27 
  911000   0.88524484   -6.4947137    310.28057  0.028382782  0.028197472            9 
  912000   0.89402108   -6.4755645    310.53449  0.028374862  0.028181157           16 
  913000   0.89951925   -6.4948883    310.95002   0.02838171  0.028164772           14 
  914000    0.8917208   -6.5222693    310.29933  0.028291332  0.028148308            7 
  915000   0.90563116   -6.5156876    310.54273   0.02828258  0.028131733           12 
  916000   0.88531402   -6.4830495    310.93761  0.028287628  0.028115082           11 
  917000   0.89112116   -6.4581423    311.26097  0.028286166  0.028098446           11 
  918000   0.87440572   -6.4818599    310.59916  0.028195276  0.028082077           14 
  919000   0.88751818   -6.4881249    310.77817  0.028180828  0.028065425           13 
  920000    0.8841365   -6.4806438    311.49475  0.028215104  0.028048817            8 
  921000    0.8820606    -6.451695     311.8863  0.028219897  0.028032189           15 
  922000   0.87143779   -6.4646394    311.64171  0.028167183  0.028015681            7 
  923000    0.8950785   -6.4981553    311.63319  0.028135896  0.027999239           13 
  924000   0.87251264   -6.4872187    313.02692  0.028231143  0.027982875           27 
  925000   0.87907082   -6.4990741    313.32847   0.02822779  0.027966656           18 
  926000   0.87444453   -6.4933566    313.06553  0.028173644  0.027950401           32 
  927000   0.87963368   -6.5185164    313.39962  0.028173285  0.027934274           21 
  928000   0.88491324   -6.4681576    312.38072  0.028051429  0.027917959            9 
  929000   0.87765992   -6.4566253    313.11852  0.028087416  0.027901778           10 
  930000   0.87394211   -6.4731796    313.21361  0.028065735   0.02788558           15 
  931000   0.87350918   -6.4827364    314.02673  0.028108372  0.027869412            4 
  932000   0.88289988   -6.5088905    313.46743  0.028028203   0.02785328            4 
  933000   0.88557588   -6.4475303    314.72793  0.028110748   0.02783702           13 
  934000   0.86717547   -6.4867974    314.87232  0.028093533  0.027820965           11 
  935000   0.87647008   -6.4948092    314.07559  0.027992477  0.027804943           11 
  936000   0.86041971   -6.4887973    315.06354  0.028050529  0.027788886           17 
  937000   0.87167897   -6.4593437    314.30037  0.027952719  0.027772734            8 
  938000    0.9025559   -6.5156637     314.4276  0.027934222  0.027756465            6 
  939000   0.88049713   -6.4759283    314.43294  0.027904947  0.027739985           12 
  940000   0.85634096   -6.5227849    314.78168  0.027906178  0.027723535            6 
  941000   0.86424734   -6.4733065    314.41039  0.027843641  0.027707175            7 
  942000   0.88897813   -6.5159704    315.19061  0.027883104  0.027690575           11 
  943000    0.8749508   -6.5004303    315.60775  0.027890398  0.027673978           25 
  944000   0.86375047   -6.5057889    315.07028  0.027813407  0.027657255            7 
  945000   0.88946746   -6.5059403    315.56329   0.02782745  0.027640589            9 
  946000   0.88540956   -6.5210294    315.32372  0.027776931  0.027623892            6 
  947000   0.87058466   -6.4838724    315.30243  0.027745726  0.027607066           18 
  948000   0.87562422   -6.5284082     314.8009  0.027672372  0.027590289            8 
  949000    0.8568302   -6.4821146    314.62118  0.027627431  0.027573577           12 
  950000   0.89736282   -6.5059299    315.81073  0.027702696  0.027556812            6 
  951000   0.87382611   -6.5111375    315.59299  0.027654485  0.027540173            7 
  952000   0.85667786    -6.523907    315.91941   0.02765401  0.027523511           11 
  953000   0.88422196   -6.5135964    316.92317  0.027712764  0.027506841           14 
  954000   0.87106795   -6.5371216    316.30349  0.027629585  0.027490215           11 
  955000    0.8589309   -6.4897939    316.67229  0.027632835  0.027473655           12 
  956000   0.87980412   -6.5186408    317.50436  0.027676461  0.027457139           16 
  957000   0.85871019    -6.499238    317.41958  0.027640159  0.027440813           16 
  958000   0.86878242    -6.528603    317.24826  0.027596404   0.02742433            9 
  959000   0.87108424   -6.5086732    316.94693  0.027541443  0.027407601           12 
  960000   0.85375289   -6.5135916    317.99843  0.027604031  0.027391099           11 
  961000   0.87297025   -6.5231815    317.81225  0.027559162  0.027374672            8 
  962000   0.86709419    -6.498186     317.0405  0.027463661  0.027358155            8 
  963000   0.87192366   -6.5317796    317.48843  0.027473903  0.027341538           11 
  964000   0.87301203   -6.5267034    318.74702  0.027554203  0.027324969           12 
  965000   0.87841285   -6.5032553    318.35702   0.02749197  0.027308483           11 
  966000   0.87121052   -6.5265527    318.44358  0.027470978  0.027292036            6 
  967000   0.88166032   -6.5158299     319.3916  0.027524268  0.027275511            8 
  968000   0.87499048   -6.5433217    319.01336  0.027463272  0.027258917           24 
  969000   0.85563877    -6.521553    319.28816  0.027458562  0.027242492           48 
  970000   0.85670583   -6.5387989    319.31548  0.027432601   0.02722595           11 
  971000   0.85010193   -6.5301604    318.79795  0.027359934  0.027209569           28 
  972000   0.86598708    -6.520874    319.99611  0.027434509  0.027193212           12 
  973000   0.85422927   -6.5146582    320.07549  0.027413112  0.027176885           21 
  974000   0.84799236   -6.5523868    320.10105  0.027387153  0.027160575           15 
  975000   0.85574758   -6.5246923    319.60661  0.027316804  0.027144337           17 
  976000   0.85359448    -6.525822    320.24709  0.027343502  0.027128016           27 
  977000   0.87337839   -6.5293047    319.91268  0.027286991  0.027111778           25 
  978000   0.85690414   -6.5300315     320.8733  0.027340943  0.027095531            8 
  979000    0.8643714   -6.5280562     320.9571  0.027320148  0.027079415           18 
  980000   0.86994733   -6.5186001    320.53958  0.027256767  0.027063143           13 
  981000    0.8682465    -6.536348    321.91377  0.027345716   0.02704695           41 
  982000   0.86555916   -6.5122545     321.3974  0.027274049  0.027030741            6 
  983000   0.87017349   -6.5292902    320.74504  0.027191001  0.027014464           10 
  984000   0.86823931   -6.5324254    320.44523  0.027137977  0.026997995            8 
  985000   0.84873767   -6.5393067    320.76227  0.027137247  0.026981511           41 
  986000    0.8699633   -6.5441158     321.5003  0.027172101  0.026965188           12 
  987000    0.8544295   -6.5165466    321.08592  0.027109585  0.026948753           15 
  988000   0.86080796   -6.5639744    321.50144  0.027117193  0.026932378           23 
  989000   0.85514254   -6.5375383    321.55031  0.027093892  0.026915988           14 
  990000   0.85481551   -6.5506489    321.92236  0.027097842  0.026899689           21 
  991000   0.85848263   -6.5374623    322.37519  0.027108577  0.026883408            9 
  992000   0.84728862    -6.531809    322.11131  0.027059082   0.02686707            7 
  993000   0.85337151   -6.5455838    321.81545  0.027007003  0.026850747           12 
  994000    0.8572879   -6.5272739    322.93604  0.027073779  0.026834524            6 
  995000   0.86120939    -6.558368    322.74322   0.02703042   0.02681842            6 
  996000   0.85918692   -6.5734949    323.15503  0.027037737  0.026802306            9 
  997000   0.86748589   -6.5287493    322.78771  0.026979915  0.026786147           11 
  998000   0.84772405   -6.5494604    322.75253  0.026949944   0.02677002            9 
  999000   0.85368216   -6.5615637    323.45648  0.026981689  0.026753794            5 
 1000000   0.86972851   -6.5483273     323.6676    0.0269723  0.026737637           12 
 1001000   0.85322815   -6.5585279    324.26425  0.026995026  0.026721535            8 
 1002000   0.83495958   -6.5492307    323.54293  0.026908095  0.026705346            7 
 1003000   0.86522598   -6.5425642    324.63309  0.026971842  0.026689305            9 
 1004000   0.85625018   -6.5397067      324.023  0.026894339  0.026673184           10 
 1005000   0.84515889   -6.5435133    324.26481  0.026887629  0.026657105           15 
 1006000   0.85154107   -6.5499997    324.47661  0.026878447  0.026641181           12 
 1007000   0.84871805   -6.5355278    325.90753   0.02697017  0.026625278           16 
 1008000   0.84758804   -6.5371534    325.84976  0.026938637  0.026609259           25 
 1009000   0.87303431   -6.5237319    326.01755  0.026925797  0.026593478           24 
 1010000   0.86667547   -6.5241871    324.87751  0.026805075  0.026577628           11 
 1011000   0.85777208   -6.5723236    325.92653  0.026865029    0.0265616           25 
 1012000   0.87777194   -6.5550789    325.89526  0.026835907  0.026545649           11 
 1013000   0.84921113   -6.5703958    325.36452  0.026765755   0.02652959           57 
 1014000   0.84539017   -6.5307369    325.76566  0.026772325  0.026513811           11 
 1015000   0.84820972   -6.5503181     326.7094  0.026823432  0.026498059            8 
 1016000   0.85491435   -6.5697184    326.12785  0.026749331  0.026482254            9 
 1017000   0.85134944   -6.5848833    327.27514  0.026817039  0.026466518           11 
 1018000   0.82721947   -6.5318183    326.21844  0.026704195  0.026450644           11 
 1019000   0.85734127   -6.5507646    326.42709  0.026695051  0.026434699           24 
 1020000   0.85547285   -6.5689571    327.44726  0.026752227  0.026418866           14 
 1021000   0.84506411   -6.5632946     327.7216  0.026748417  0.026403111           12 
 1022000   0.86625843   -6.5364983    328.11034  0.026753941  0.026387622           15 
 1023000    0.8297759   -6.5584392    328.75448  0.026780261  0.026372264           15 
 1024000   0.83423944   -6.5614154    328.24112  0.026712331  0.026356773           19 
 1025000   0.84714942    -6.569884    327.76623  0.026647661  0.026341138            9 
 1026000    0.8654924   -6.5419667    328.31195  0.026666013  0.026325544           21 
 1027000   0.84128126   -6.5478468    328.21407  0.026632106  0.026309948           11 
 1028000   0.85348136   -6.5764313    328.29342  0.026612632  0.026294339           10 
 1029000   0.85974364    -6.571418    328.61893   0.02661313  0.026278728            8 
 1030000   0.84451563   -6.5743743    328.06051  0.026542112  0.026263012           12 
 1031000   0.84165412   -6.6017298     328.5902  0.026559182   0.02624736           22 
 1032000   0.82274674   -6.5708293    329.03161   0.02656909  0.026231741           10 
 1033000   0.85246047   -6.5790766    329.27759  0.026563213  0.026216208           14 
 1034000   0.83336614   -6.5468752    329.45523   0.02655184  0.026200594           12 
 1035000    0.8480192   -6.5816683    329.08907  0.026496704  0.026184948           13 
 1036000   0.84668862   -6.5555576    329.27307  0.026485929  0.026169321            8 
 1037000   0.83196916   -6.5642899    329.01493  0.026439644  0.026153725           12 
 1038000   0.83774514   -6.5734645    329.33533  0.026439894  0.026138151           27 
 1039000   0.85698506   -6.5662001    329.57429  0.026433613  0.026122645           13 
 1040000    0.8362448   -6.5722249    330.20154  0.026458456  0.026107127           16 
 1041000   0.83699275   -6.5834085    329.94519  0.026412519  0.026091524           21 
 1042000    0.8352363   -6.5617822    330.65424  0.026443877  0.026076123           16 
 1043000   0.85261193   -6.5692854    330.37698  0.026396371  0.026060802           11 
 1044000   0.83827752   -6.5852448    330.21417  0.026358091  0.026045367           19 
 1045000   0.84684226   -6.5683594    330.58819  0.026362695  0.026029977            7 
 1046000   0.84209365   -6.5830833    331.27508  0.026392215  0.026014532           26 
 1047000   0.84514804    -6.565243    332.74135  0.026483711  0.025999266           29 
 1048000   0.84855442   -6.5884166    331.26943  0.026341399  0.025983953           25 
 1049000   0.81438639   -6.5882553    331.99405  0.026373852  0.025968675           15 
 1050000   0.82874957   -6.6124044      331.846  0.026336984  0.025953349           36 
 1051000   0.82653486   -6.5759652    331.83074  0.026310715  0.025938126           78 
 1052000   0.86540576   -6.5832286    331.23103  0.026238199  0.025922865           27 
 1053000   0.83880439   -6.5897787    332.02396  0.026276034  0.025907584           27 
 1054000   0.84119913   -6.5762794     332.4991   0.02628867  0.025892303           27 
 1055000   0.82456122   -6.5936392    332.52307  0.026265646  0.025877038           10 
 1056000   0.81862092   -6.5754494    333.16101  0.026291115  0.025861852           19 
 1057000   0.82356455   -6.5888895    332.94084  0.026248884  0.025846623           10 
 1058000   0.83100828   -6.5846548    332.76117  0.026209922  0.025831393           13 
 1059000   0.83753363   -6.5927857     332.7063  0.026180854  0.025816143            7 
 1060000   0.83152568   -6.5964287    332.44325  0.026135475  0.025800881           15 
 1061000   0.82876274   -6.5913818    332.74933  0.026134883  0.025785576           17 
 1062000   0.84374633   -6.6004348    333.44412  0.026164793  0.025770218            9 
 1063000   0.82222336   -6.5887928    332.82359  0.026091533  0.025754999           14 
 1064000   0.82738856   -6.5631579    333.76887  0.026141045  0.025739738           10 
 1065000   0.79937208   -6.6024812    333.23601  0.026074805  0.025724368           10 
 1066000   0.82613942    -6.582208    333.82007  0.026096003  0.025709092            8 
 1067000   0.83849386   -6.5786903    333.72896   0.02606443   0.02569386            9 
 1068000   0.83572812   -6.5897214    334.07559  0.026067072  0.025678636           20 
 1069000    0.8195277   -6.6020323    334.13521  0.026047335  0.025663447           14 
 1070000    0.8254464   -6.6227058    333.53848  0.025976517  0.025648172           11 
 1071000   0.83004252   -6.6114478    334.05013  0.025992074  0.025632948           13 
 1072000   0.82629267     -6.61979    334.45931  0.025999635  0.025617691           12 
 1073000   0.83958954   -6.5724487    334.64544   0.02598986  0.025602645           32 
 1074000   0.82027737   -6.5978941     334.9854  0.025992039  0.025587513           30 
 1075000   0.85484383   -6.5819389    334.78777  0.025952541  0.025572381           20 
 1076000   0.82637942   -6.6045715    334.80846  0.025930023  0.025557256           10 
 1077000   0.83020895   -6.5949008    335.10661  0.025929017  0.025542214           11 
 1078000   0.83035642   -6.5891417     336.0385  0.025977002  0.025527196           13 
 1079000   0.82037521    -6.594769    335.83739  0.025937395  0.025512269            9 
 1080000   0.83295073   -6.6194354    335.64372  0.025898435  0.025497332           11 
 1081000   0.81654147   -6.6113762    336.28187  0.025923672  0.025482387           23 
 1082000   0.83553185   -6.6140123     336.2151   0.02589457  0.025467356           32 
 1083000   0.80117958   -6.6360626    335.05838  0.025781654  0.025452351           24 
 1084000   0.81949561   -6.6112209    336.79202  0.025891145  0.025437216           11 
 1085000    0.8400852   -6.5936851    336.75098  0.025864131  0.025422152           10 
 1086000   0.80634559   -6.6079589    336.45325  0.025817469  0.025407156           10 
 1087000   0.80770872   -6.5986233    335.69508  0.025735593  0.025392112           12 
 1088000    0.8132174   -6.6150759    336.62886  0.025783461  0.025377019           11 
 1089000    0.8212674   -6.5898828    336.93569  0.025783264  0.025361975           14 
 1090000   0.81100664   -6.6134813    337.25325  0.025783888  0.025346977           17 
 1091000   0.81928332    -6.609952      338.334  0.025842805  0.025332065           13 
 1092000   0.81203856   -6.6031509     337.0273  0.025719421  0.025317005           26 
 1093000   0.82298557   -6.6418694    335.84814  0.025605988  0.025301803           21 
 1094000   0.81468738   -6.6090986    336.83606  0.025657835  0.025286564            9 
 1095000   0.81524915   -6.6296499     337.3513  0.025673615  0.025271221           24 
 1096000   0.79744391   -6.6216632    337.21896  0.025640128  0.025256117           27 
 1097000    0.8067881   -6.5981304     337.8746  0.025666561  0.025241122           16 
 1098000   0.82060689   -6.6194062    337.93814  0.025648007  0.025226092           27 
 1099000   0.79253869   -6.6306641    337.14897   0.02556483  0.025211126           41 
 1100000   0.82412714   -6.6268614    337.71016  0.025584103  0.025196067           10 
 1101000   0.81795296   -6.6307571    337.36788  0.025534959  0.025180986           12 
 1102000    0.8195838   -6.6053773    338.57595  0.025603142  0.025166022           12 
 1103000   0.82233828   -6.6606031    337.77652  0.025519531  0.025150935           22 
 1104000    0.8069926   -6.6190298    338.23748   0.02553121  0.025135818           17 
 1105000   0.81314984    -6.596957    339.09322  0.025572641  0.025120803           13 
 1106000   0.81108819   -6.6457748    338.18125  0.025480805  0.025105766            9 
 1107000   0.80954166   -6.6233444    338.56818  0.025486915  0.025090747            7 
 1108000   0.81562702   -6.6351602    339.19031  0.025510703  0.025075635            7 
 1109000   0.82068008   -6.6244817    338.76004  0.025455369   0.02506056            9 
 1110000   0.80496375   -6.6392712     338.3041  0.025398206  0.025045522           23 
 1111000   0.80685845    -6.604287     338.9361  0.025422749  0.025030418           24 
 1112000    0.8060321   -6.6276802    338.47883   0.02536562  0.025015291           38 
 1113000   0.82101408   -6.6202827    339.29568  0.025403989  0.025000309           30 
 1114000   0.79178176   -6.6296129    338.51807  0.025323016  0.024985225            9 
 1115000   0.80451214   -6.6277305    338.79796  0.025321223  0.024970058           18 
 1116000   0.79979718   -6.6161276    339.12303  0.025322807   0.02495488           15 
 1117000    0.8177635   -6.6272644    339.30737  0.025313889   0.02493982           13 
 1118000   0.80191406   -6.6629445    338.90848  0.025261514  0.024924817           49 
 1119000   0.81560105   -6.6334214    339.52402  0.025284779   0.02490978           28 
 1120000   0.79867334   -6.6606332    340.05589  0.025301777  0.024894797           52 
 1121000   0.81616743    -6.617974    340.65737   0.02532392  0.024879863           21 
 1122000   0.81233203   -6.6271211    341.66279  0.025376024  0.024864948           21 
 1123000   0.79044083   -6.6242391    340.12715  0.025239474  0.024849993           15 
 1124000   0.80280975   -6.6294892    340.28109  0.025228432  0.024835048           24 
 1125000   0.80806501   -6.6393526    340.11097  0.025193405  0.024820009           36 
 1126000   0.79297289   -6.6157619    341.10951  0.025244931  0.024805018           19 
 1127000   0.79600884   -6.6215222    340.80557  0.025200057  0.024790125           25 
 1128000   0.81242299   -6.6227016     340.9661  0.025189576   0.02477526           21 
 1129000   0.78705802   -6.6444849    341.31642  0.025193122  0.024760423           24 
 1130000   0.79871996   -6.6487295    341.01344  0.025148484  0.024745573           14 
 1131000   0.80452542   -6.6449952    341.94311  0.025194747    0.0247307            9 
 1132000   0.80460528   -6.6298452    341.44901  0.025136117   0.02471583            8 
 1133000   0.81407773   -6.6475538    342.01213   0.02515535  0.024701049           25 
 1134000   0.78436677   -6.6441623    342.51836  0.025170368  0.024686287           15 
 1135000   0.79919381   -6.6376656    341.82042  0.025096947  0.024671565           19 
 1136000   0.80979057   -6.6582004    341.90894  0.025081348  0.024656822           23 
 1137000   0.80837964    -6.631474    342.53693  0.025105316  0.024642141           15 
 1138000   0.80198243   -6.6806611    342.38991  0.025072489  0.024627459           22 
 1139000   0.78938362   -6.6649409    343.27445  0.025115193  0.024612764           21 
 1140000   0.79820408   -6.6582861    343.69493  0.025123898  0.024598074           16 
 1141000   0.78255755   -6.6652537     342.9211  0.025045362  0.024583505           33 
 1142000   0.78903133   -6.6433083    343.41359  0.025059369   0.02456878           28 
 1143000   0.78807861   -6.6646232    343.23156  0.025024173  0.024554096           44 
 1144000   0.79098878   -6.6581366    343.04888  0.024988992  0.024539319           64 
 1145000   0.79496006   -6.6472697    343.82191  0.025023428  0.024524505           29 
 1146000   0.80578786   -6.6638094    343.21819  0.024957692  0.024509677           21 
 1147000   0.79964769   -6.6606319    343.30078  0.024941934  0.024494924           46 
 1148000   0.78587612   -6.6332762    342.89889  0.024891034  0.024480184           32 
 1149000   0.79421995   -6.6591929    343.49588  0.024912669  0.024465433           40 
 1150000   0.78797603   -6.6684784    343.28817  0.024875954  0.024450708           16 
 1151000   0.79131773   -6.6332444    343.81451  0.024892449  0.024436041           44 
 1152000   0.77211983   -6.6817512    343.69836  0.024862439  0.024421342           29 
 1153000   0.80415174   -6.6723437    344.01613  0.024863843  0.024406557           30 
 1154000    0.7730989   -6.6449517    344.18251  0.024854312  0.024391769           19 
 1155000   0.81419675   -6.6715172     343.8113   0.02480601  0.024376979           16 
 1156000   0.79824151   -6.6568917    344.43574  0.024829566  0.024362218           17 
 1157000   0.77979784   -6.6868412    343.85064  0.024765963  0.024347567           16 
 1158000   0.78781525   -6.6596833    344.71505  0.024806783  0.024332895            7 
 1159000   0.77858775   -6.6381662     343.8305  0.024721779  0.024318251           27 
 1160000   0.78633206   -6.6432371    344.31366  0.024735177  0.024303601           19 
 1161000   0.77157087   -6.6598947    344.50276  0.024727445  0.024288935           31 
 1162000   0.79096354   -6.6578739    345.96284  0.024810875  0.024274319           12 
 1163000   0.78060215   -6.6607225      344.995  0.024720192  0.024259645           16 
 1164000   0.79176041   -6.6891486    345.48634  0.024734131  0.024245012           17 
 1165000   0.79935506   -6.6677035    345.01363  0.024679086  0.024230336            8 
 1166000   0.81154603   -6.6667281    345.13315  0.024666463  0.024215664           24 
 1167000   0.78941892   -6.6785768    345.12885  0.024645019  0.024200949           14 
 1168000   0.78293202   -6.6686558     344.9992  0.024614669  0.024186114           13 
 1169000   0.79091243    -6.706502    345.41762   0.02462344  0.024171261           26 
 1170000   0.79450623   -6.6742597    346.09593  0.024650707   0.02415647           18 
 1171000   0.78801778   -6.6723294    344.81907   0.02453879  0.024141655           40 
 1172000     0.783901   -6.6772604    345.06402  0.024535269  0.024126982           13 
 1173000     0.775562   -6.6550053    345.75758  0.024563625  0.024112322           26 
 1174000   0.78879967   -6.6373652    346.47718   0.02459378   0.02409769           10 
 1175000   0.78793552   -6.6602082    346.19864  0.024553095  0.024083119           29 
 1176000   0.78832869    -6.698317    345.14627  0.024457644  0.024068328           32 
 1177000   0.79368416   -6.6664013    345.95438   0.02449408  0.024053553           21 
 1178000   0.77396794   -6.6690331    345.73795  0.024457976  0.024038839           30 
 1179000   0.77792647   -6.6982001    345.14626   0.02439541   0.02402405           63 
 1180000   0.79682143   -6.6911487    345.66611  0.024411448  0.024009234           64 
 1181000   0.76771414   -6.6504867    346.62017  0.024458098   0.02399449           39 
 1182000   0.79694031   -6.6845366     347.8223  0.024522159  0.023979856           48 
 1183000   0.78784533   -6.6617401    346.70494  0.024422721  0.023965193           21 
 1184000   0.77449562   -6.6620038    347.64919  0.024468552  0.023950624           17 
 1185000   0.78308754   -6.6698561    347.12465  0.024411016  0.023936001           17 
 1186000   0.78099586   -6.6697359    347.44687  0.024413074  0.023921445           12 
 1187000   0.76522253   -6.6969707    346.46282  0.024323422  0.023906865           21 
 1188000   0.79368689   -6.6830208    347.34459    0.0243648  0.023892167           24 
 1189000   0.77928473   -6.6839195    347.06277  0.024324556  0.023877521           30 
 1190000   0.77592247   -6.6963078    347.00993  0.024300415  0.023862769           16 
 1191000    0.7903704   -6.6721004    346.61012  0.024252038  0.023848024           28 
 1192000   0.76919803   -6.6477435     347.5122  0.024294757  0.023833329           17 
 1193000   0.77548693   -6.6920699    347.63696  0.024283107  0.023818607           13 
 1194000   0.78830508    -6.704467    348.29709  0.024308842  0.023803945           18 
 1195000   0.77036306   -6.7016444     347.2527  0.024215669  0.023789104           35 
 1196000   0.78603162    -6.704368    346.96708  0.024175521  0.023774266           27 
 1197000   0.78854922   -6.7075548    347.74892  0.024209755  0.023759575           20 
 1198000   0.76498037   -6.6893356    347.54738  0.024175528  0.023744871           16 
 1199000   0.79692585   -6.7089422    347.75251  0.024169621   0.02373018           58 
 1200000   0.77270321   -6.7045797    347.59686  0.024138671  0.023715328           31 
 1201000   0.76811526   -6.7012494    348.00565  0.024146937  0.023700502           13 
 1202000   0.76982795   -6.6857171     346.9895  0.024056399  0.023685606           13 
 1203000    0.7742272   -6.6969109    347.59112  0.024078077  0.023670717           11 
 1204000   0.77112297   -6.6901024    347.62097  0.024060145  0.023655767           11 
 1205000   0.78399198    -6.700482    347.16052  0.024008334  0.023640796           14 
 1206000   0.77646466   -6.7063464    347.70361  0.024025954  0.023625744           33 
 1207000   0.74861895   -6.6965548    347.50218  0.023992142  0.023610784           31 
 1208000   0.77334714   -6.7187965    347.19378  0.023951006  0.023595703           41 
 1209000   0.76542402   -6.6954418    347.96846  0.023984592  0.023580664           19 
 1210000   0.77794887    -6.707524    347.73423  0.023948638  0.023565678           49 
 1211000   0.76013009   -6.7038644    347.66286  0.023923951  0.023550663           15 
 1212000   0.76033928   -6.7103115    347.57192   0.02389796   0.02353573           27 
 1213000   0.77396192   -6.6888565    347.72844  0.023889011  0.023520746           27 
 1214000   0.76310148   -6.6870208    348.70194  0.023936157  0.023505831           42 
 1215000   0.77494427   -6.6751764    347.90718  0.023861947  0.023490895           15 
 1216000   0.76796402   -6.7197184    348.32149  0.023870716  0.023475936           33 
 1217000   0.75633216   -6.6540738    348.52422  0.023864983  0.023461002           50 
 1218000   0.75895037   -6.7262174    349.24356  0.023894606  0.023446081           32 
 1219000   0.76600708   -6.7287994    348.17982  0.023802285  0.023431153           24 
 1220000    0.7632618   -6.7319462    348.96325  0.023836288  0.023416309           35 
 1221000   0.75020266   -6.7151309    348.17957  0.023763279  0.023401319           19 
 1222000   0.77476835   -6.6964157     348.6754  0.023777646  0.023386376           19 
 1223000   0.75197505    -6.735475    349.12931  0.023789132  0.023371339           21 
 1224000   0.76386436   -6.7501591    348.16757  0.023704219  0.023356255           37 
 1225000   0.76577109   -6.7195837    348.48829  0.023706686  0.023341175           61 
 1226000   0.76592426   -6.7170397    348.41054  0.023682065  0.023326172           48 
 1227000   0.76523885   -6.7355172     348.1216   0.02364314  0.023311008           34 
 1228000   0.76102969   -6.7193907    348.67521  0.023661455  0.023295928           27 
 1229000    0.7617295    -6.728135    348.44172  0.023626371  0.023280879           49 
 1230000   0.75517379   -6.7387586    348.69676  0.023624441  0.023265751           23 
 1231000   0.76100944   -6.7353126    349.11827  0.023633785   0.02325065           43 
 1232000    0.7584003   -6.7618815    347.91362  0.023533118  0.023235494           25 
 1233000   0.75547032   -6.7305615    349.08081  0.023592918  0.023220344           18 
 1234000   0.76188024   -6.7189293    348.63087  0.023543414  0.023205305           63 
 1235000   0.75765904   -6.7211442    349.20353  0.023562991  0.023190281           11 
 1236000   0.75121978   -6.7056749    348.96268  0.023527689   0.02317526           21 
 1237000   0.76965064   -6.7563833    348.84545  0.023500772  0.023160168           12 
 1238000   0.75686526   -6.7262818    348.47436  0.023456809  0.023145079           18 
 1239000   0.74623545   -6.7181628    349.20271  0.023486865  0.023129848           25 
 1240000   0.73693698   -6.7201427    349.28062   0.02347316  0.023114676           43 
 1241000   0.75846504   -6.7327618    348.55647  0.023405619  0.023099505           17 
 1242000   0.76675755   -6.7255725    348.83356  0.023405365  0.023084319           28 
 1243000   0.74855844   -6.7135628    349.09955  0.023404367  0.023069107           20 
 1244000   0.76345675   -6.7327506    349.79542  0.023432169  0.023053962           32 
 1245000   0.73911186   -6.7178281    349.57271  0.023398441  0.023038937           68 
 1246000    0.7615266   -6.7562159    350.04905   0.02341152   0.02302384           74 
 1247000   0.74793851   -6.7351481    349.88936  0.023382075    0.0230087           45 
 1248000     0.751589   -6.7080487     349.3076  0.023324493  0.022993669           17 
 1249000   0.75927486   -6.7247917    350.06084  0.023356074  0.022978637           26 
 1250000   0.73351951   -6.7259855    349.63118  0.023308745  0.022963594           25 
 1251000   0.74870468   -6.7483354     351.0977  0.023387803  0.022948556           33 
 1252000   0.75963937   -6.7352946    350.56604  0.023333736  0.022933535           33 
 1253000   0.76206712   -6.7600363    349.73876  0.023260093  0.022918455           43 
 1254000   0.75814755   -6.7501748    350.51197  0.023292928  0.022903359           27 
 1255000    0.7567263   -6.7310975    349.79682   0.02322688  0.022888261           44 
 1256000    0.7474481   -6.7498465    350.19452  0.023234775  0.022873195           44 
 1257000   0.75220322   -6.7468619    350.03599  0.023205781  0.022858148           44 
 1258000    0.7707201   -6.7487157    351.44231  0.023280492  0.022843206           24 
 1259000   0.75270253   -6.7655555    350.95313  0.023229622  0.022828275           20 
 1260000   0.75566611   -6.7483969    351.70628  0.023260997  0.022813439           29 
 1261000    0.7569464     -6.75024    350.62445  0.023171058  0.022798567           47 
 1262000   0.76909221   -6.7364334    351.27549  0.023195688  0.022783718           26 
 1263000   0.75073267   -6.7308269    351.20061  0.023172381  0.022768948           26 
 1264000   0.76921929   -6.7519719     351.1595  0.023151338  0.022754193           38 
 1265000   0.75166396   -6.7608758    351.88038  0.023180525  0.022739364           37 
 1266000   0.74243947   -6.7447467    351.32714  0.023125799  0.022724551           50 
 1267000   0.74716425   -6.7446251    352.09373  0.023157967  0.022709761           28 
 1268000   0.73736082   -6.7755137    351.34336  0.023090389  0.022694925           56 
 1269000   0.74141932   -6.8031051    350.55727  0.023020572  0.022679992          111 
 1270000   0.75455223   -6.7668298    351.61655  0.023071952  0.022665093          120 
 1271000   0.73231663   -6.7512296    352.55195  0.023115129  0.022650271           83 
 1272000   0.74823885   -6.7474009    351.99105   0.02306021  0.022635531           34 
 1273000   0.73498067   -6.7535873    351.02624  0.022978937  0.022620741           42 
 1274000   0.74723587   -6.7540252    351.27459  0.022977145  0.022605827           33 
 1275000   0.75076624   -6.7819236    351.78824  0.022992695  0.022590878           33 
 1276000   0.74702768   -6.7891226    351.39082  0.022948721  0.022575999           44 
 1277000   0.74330426   -6.7751285    351.24041  0.022920935  0.022561047           70 
 1278000   0.76369095   -6.7658443    351.99618  0.022952281  0.022546002           91 
 1279000   0.74257375   -6.8012924    351.46656  0.022899828  0.022531027           73 
 1280000   0.74044887   -6.7995071    351.29927  0.022871046     0.022516          144 
 1281000   0.75361321   -6.8014326    352.44087  0.022927457  0.022500989          159 
 1282000   0.75409135   -6.7964081    351.76919  0.022865912  0.022486031           55 
 1283000    0.7323281   -6.7840288    351.96077  0.022860533  0.022470998           94 
 1284000   0.73524951   -6.7606431    351.80137  0.022832384  0.022456029          199 
 1285000   0.73457633    -6.783909    351.80321  0.022814735  0.022441077          177 
 1286000   0.75674276     -6.78711    352.83881  0.022864101  0.022426122          216 
 1287000   0.74229612   -6.7751596    351.50143   0.02275974  0.022411218          208 
 1288000   0.74354749   -6.7952685    351.37854  0.022734119  0.022396291          284 
 1289000   0.74375935   -6.7870402     351.0216  0.022693406  0.022381286          298 
 1290000   0.73350054   -6.7837853    351.54637  0.022709714  0.022366211          277 
 1291000   0.76783261   -6.7953163    351.61108    0.0226963  0.022351156          153 
 1292000   0.74402483    -6.797229    350.98123  0.022638108  0.022336081          382 
 1293000   0.73712561   -6.8106097    351.72162  0.022668318  0.022320988          315 
 1294000   0.73397526   -6.8108714    352.26649   0.02268589   0.02230577          354 
 1295000   0.73322259    -6.808894     351.1265  0.022595013  0.022290533          394 
 1296000   0.73506551   -6.8056774    351.37977  0.022593864  0.022275328          418 
 1297000   0.72543666   -6.8077114    351.96075  0.022613772  0.022260179          532 
 1298000   0.74998539   -6.8092479    351.94726  0.022595484  0.022244998          562 
 1299000   0.75282578   -6.8207779    351.00467  0.022517621  0.022229787          638 
 1300000   0.74454684    -6.817418    352.62661   0.02260427  0.022214608          568 
 1301000   0.74241472   -6.8249677    351.55513  0.022518264  0.022199474          616 
 1302000   0.73094144    -6.839564    352.50922  0.022562034  0.022184371          613 
 1303000   0.72717624   -6.8292583    352.40737  0.022538205  0.022169275          653 
 1304000   0.72761453   -6.8241591    352.06111  0.022498793  0.022154169          592 
 1305000   0.73760048   -6.8147134    352.37267  0.022501447  0.022139104          689 
 1306000   0.72764271   -6.8268011    352.38047  0.022484716  0.022123963          724 
 1307000   0.74704695   -6.8507181    351.79979  0.022430489   0.02210882          786 
 1308000   0.72750898   -6.8415224    352.23027  0.022440766  0.022093606          739 
 1309000   0.73572128   -6.8609254    352.26748  0.022425992  0.022078376          911 
 1310000   0.72364865   -6.8608937     352.1683  0.022402564  0.022063143          986 
 1311000   0.72882503   -6.8605995     352.3359  0.022396129  0.022047889          937 
 1312000   0.73523684   -6.8660365    350.91401  0.022288745  0.022032613         1115 
 1313000   0.73977779   -6.8643315    351.32967  0.022298151   0.02201728         1102 
 1314000   0.73929386   -6.8599168    351.61556  0.022299313  0.022001964         1210 
 1315000   0.74246225   -6.8613968     351.6464  0.022284309  0.021986657         1159 
 1316000   0.72184471   -6.8929085     351.6515  0.022267699  0.021971268         1260 
 1317000   0.73351271   -6.8839578    350.86565  0.022201066  0.021955881         1273 
 1318000   0.72700701   -6.8810914    351.57849  0.022229292  0.021940528         1326 
 1319000   0.71420367   -6.9164653    352.12061   0.02224669  0.021925104         1427 
 1320000   0.73202605   -6.9111688    350.93703  0.022155115  0.021909611         1480 
 1321000     0.711618   -6.8919729    350.88338   0.02213496  0.021894124         1490 
 1322000   0.73676165   -6.9339334    351.26992  0.022142582   0.02187858         1725 
 1323000   0.72532212   -6.9708688    350.50368  0.022077581  0.021862904         1737 
 1324000   0.72632754   -6.9552398    349.62763  0.022005767  0.021847076         1842 
 1325000    0.7229841   -6.9698364    350.06998   0.02201698  0.021831192         1993 
 1326000   0.72033617   -6.9918695    349.12069  0.021940717   0.02181525         2065 
 1327000   0.72498115   -6.9728237    350.15825   0.02198934  0.021799267         2150 
 1328000   0.70677441   -7.0029426    348.57863  0.021873659  0.021783228         2263 
 1329000   0.70773136   -7.0154059    348.95644  0.021880891  0.021767084         2376 
 1330000   0.71767554   -7.0448803    350.00972  0.021930433  0.021750929         2514 
 1331000   0.72248908   -7.0325939    348.32228  0.021808307  0.021734783         2690 
 1332000   0.73024926   -7.0489874    349.26159    0.0218507  0.021718583         2619 
 1333000   0.71905952   -7.0590674    348.92453  0.021813236  0.021702349         2755 
 1334000   0.72176002   -7.0869316    347.82613  0.021728269  0.021686046         2907 
 1335000   0.72969021   -7.0836196    347.59288  0.021697433  0.021669646         3049 
 1336000   0.70141379   -7.1018759    348.53776  0.021740129  0.021653197         3122 
 1337000   0.70626902   -7.1114423     348.1816   0.02170167  0.021636674         3177 
 1338000   0.71368752   -7.1151477     347.3925  0.021636304  0.021620094         3294 
 1339000   0.73611322   -7.1344246    347.73101  0.021641213  0.021603502         3269 
 1340000   0.72220475   -7.1315296    348.08967  0.021647368  0.021586881         3315 
 1341000    0.7246344   -7.1286566    347.03214  0.021565507  0.021570179         3377 
 1342000   0.71099728   -7.1784836    346.67928  0.021527526  0.021553452         3513 
 1343000   0.73950597   -7.1716214    346.44765  0.021497124   0.02153665         3518 
 1344000   0.71625288   -7.1610314    347.11916  0.021522765  0.021519845         3488 
 1345000   0.71677937   -7.1552592    346.58178  0.021473468  0.021503043         3573 
 1346000   0.71516231   -7.1731836    346.44636  0.021449131  0.021486191         3571 
 1347000   0.71529919    -7.156226    346.94699  0.021464179  0.021469374         3617 
 1348000   0.73380365   -7.1835643    346.33748  0.021410576  0.021452483         3635 
 1349000   0.73165609   -7.1942423    346.20511  0.021386528  0.021435593         3625 
 1350000   0.72328986   -7.1962065     346.0668  0.021362148   0.02141869         3602 
 1351000   0.70930842   -7.2197282    345.68645  0.021322875  0.021401707         3682 
 1352000   0.71208402   -7.2340305    345.21599  0.021278106  0.021384676         3685 
 1353000     0.704446   -7.2223259    345.59048  0.021285445  0.021367628         3721 
 1354000   0.72225641   -7.2767131    345.22568  0.021247272  0.021350499         3761 
 1355000   0.70580079   -7.2762425    345.01543  0.021218661  0.021333313         3743 
 1356000   0.71015048    -7.274907    345.25667  0.021217838   0.02131607         3817 
 1357000   0.70447696   -7.2963246    345.27285  0.021203196   0.02129881         3815 
 1358000   0.72195776   -7.3006645    345.09213  0.021176493  0.021281538         3864 
 1359000   0.71839555   -7.3011737    344.48701  0.021123805   0.02126425         3853 
 1360000   0.71561656   -7.3253582    344.07103  0.021082784  0.021246912         3876 
 1361000   0.71205461   -7.2956775    344.70861  0.021106332  0.021229575         3838 
 1362000   0.72417423   -7.3204022    344.78649    0.0210956  0.021212265         3864 
 1363000   0.71941316   -7.3276036    344.05577  0.021035447   0.02119491         3844 
 1364000   0.69249158   -7.3345422    344.34238  0.021037536   0.02117753         3858 
 1365000   0.69943189    -7.330925    343.81954  0.020990204  0.021160114         3880 
 1366000   0.71755012   -7.3404619    343.41315  0.020950046  0.021142671         3905 
 1367000    0.7353947   -7.3685233    343.49493  0.020939705  0.021125236         3888 
 1368000   0.70707984   -7.3325033    343.87457  0.020947525  0.021107799         3885 
 1369000   0.70211697   -7.3245165    343.81778  0.020928767  0.021090384         3903 
 1370000   0.70552604   -7.3511616     343.5806  0.020899063  0.021072926         3901 
 1371000   0.71528805   -7.3435891    344.26134  0.020925197  0.021055483         3932 
 1372000    0.7068752   -7.3616095    343.87488  0.020886472  0.021038028         3918 
 1373000   0.71108268   -7.3402897    344.06044  0.020882523    0.0210206         3902 
 1374000   0.70555013   -7.3710355    343.43349    0.0208293  0.021003169         3923 
 1375000   0.70328259   -7.3739408    344.09442  0.020854207  0.020985748         3917 
 1376000   0.70435557   -7.3673453     344.0256  0.020834884  0.020968304         3927 
 1377000   0.72831107   -7.3742674    343.73006  0.020801868  0.020950866         3920 
 1378000   0.70574202   -7.3957584    343.67942   0.02078371  0.020933453         3925 
 1379000   0.70182399   -7.3594343    343.41727  0.020752796  0.020916062         3913 
 1380000   0.70345813   -7.3720794    343.34636  0.020733476  0.020898644         3916 
 1381000   0.71350523   -7.3655221     343.6693   0.02073795  0.020881236         3898 
 1382000   0.69129986   -7.3822249    344.08164  0.020747808   0.02086382         3901 
 1383000   0.70277324   -7.3686686    343.87264  0.020720212  0.020846384         3922 
 1384000   0.70024691   -7.3723427    343.67153  0.020693132  0.020828988         3921 
 1385000   0.69161345   -7.3611052    343.83116  0.020687795  0.020811571         3917 
 1386000   0.68557957   -7.4027161    343.25385  0.020638158  0.020794167         3919 
 1387000   0.69863291   -7.3642463    344.04622  0.020670886   0.02077679         3900 
 1388000   0.69370755   -7.3744531    343.65449  0.020632474  0.020759395         3919 
 1389000   0.71086588   -7.3706351     343.1897  0.020589735  0.020742006         3923 
 1390000   0.68996609   -7.3998784    343.52523  0.020595038  0.020724615         3925 
 1391000   0.69253348   -7.3963174     343.4561   0.02057609  0.020707234         3911 
 1392000   0.68090616   -7.3811766     343.2554  0.020549294  0.020689859         3915 
 1393000   0.68345397   -7.3939611    343.29491  0.020536905  0.020672489         3901 
 1394000   0.70102467   -7.4099788    342.98033  0.020503367  0.020655149         3907 
 1395000   0.67900353   -7.4079029    343.35987  0.020511342  0.020637811         3887 
 1396000   0.68518977   -7.3868607    343.38012  0.020497858  0.020620477         3908 
 1397000   0.70360625   -7.3855984     343.9161  0.020515157  0.020603169         3904 
 1398000   0.72971814   -7.4099556    343.42373  0.020471133  0.020585857         3919 
 1399000   0.68969665   -7.3918179    343.48502  0.020460151  0.020568532         3908 
 1400000   0.67428832   -7.3778811    343.86033  0.020467877  0.020551252         3899 
 1401000   0.67145431   -7.3878482    342.77152  0.020388504  0.020533951         3889 
 1402000   0.69528023   -7.3963809    343.05842  0.020391014  0.020516662         3924 
 1403000   0.69446071   -7.3966849    344.25918  0.020447801  0.020499416         3875 
 1404000   0.69271616   -7.4044345    343.15556  0.020367732  0.020482148         3907 
 1405000   0.69840708   -7.3894063    343.23582  0.020357996  0.020464907         3898 
 1406000   0.68467769   -7.4000418    342.70669  0.020312155  0.020447653         3919 
 1407000    0.6766207   -7.4101871    342.51181  0.020286177  0.020430394         3921 
 1408000    0.6765229   -7.3976121    343.03325  0.020302631   0.02041312         3919 
 1409000   0.68613725   -7.3911315    343.49065  0.020315274  0.020395852         3913 
 1410000   0.68173459   -7.4166661    342.65624  0.020251551  0.020378584         3934 
 1411000   0.70157063   -7.4163583    343.52564  0.020288545  0.020361334         3912 
 1412000   0.68994785   -7.4188653    343.16462   0.02025287  0.020344084         3947 
 1413000   0.67118949   -7.4068679    342.52134  0.020200598  0.020326835         3934 
 1414000   0.69448117   -7.4269017    343.26022  0.020229857  0.020309623         3946 
 1415000   0.67969891   -7.3921829     342.2453  0.020155789  0.020292405         3930 
 1416000   0.68781759   -7.4200384    343.31471  0.020204491  0.020275211         3947 
 1417000   0.68890089   -7.4292553    342.86716  0.020163912  0.020258001         3958 
 1418000   0.68018706   -7.3854064    343.75722  0.020201999  0.020240833         3934 
 1419000    0.6994703   -7.4157226      342.639  0.020122093  0.020223664         3940 
 1420000   0.69225138   -7.4172772    343.07409  0.020133456  0.020206496         3919 
 1421000   0.68786673   -7.4148256    342.82221  0.020104516  0.020189346         3946 
 1422000   0.68805251   -7.4172195    342.63747  0.020079552   0.02017218         3948 
 1423000   0.69580556   -7.4113525    343.39983  0.020110086  0.020155015         3943 
 1424000   0.69811687   -7.4223123    342.86488  0.020064658  0.020137859         3968 
 1425000   0.69510825   -7.3965633    342.15955   0.02000933  0.020120712         3958 
 1426000   0.68551588   -7.4122145    343.18885  0.020055449  0.020103587         3944 
 1427000   0.69268973   -7.4153821     343.4897  0.020058964  0.020086466         3942 
 1428000   0.68335481    -7.419293    343.45701  0.020043009  0.020069373         3942 
 1429000   0.68317591   -7.3979198    342.95889  0.019999935  0.020052286         3941 
 1430000   0.67461065   -7.4092065    343.26974  0.020004064  0.020035192         3937 
 1431000   0.68077699   -7.4294882     342.5064  0.019945632    0.0200181         3958 
 1432000   0.68461514   -7.4087822    342.34764  0.019922465     0.020001         3950 
 1433000   0.66876103   -7.3927457    343.46735  0.019973677   0.01998392         3949 
 1434000   0.65961371   -7.4116173    341.97087  0.019872784  0.019966854         3921 
 1435000   0.68310691    -7.411622    342.43154  0.019885687  0.019949801         3941 
 1436000   0.67609894   -7.4423421    342.34215  0.019866652  0.019932788         3945 
 1437000   0.69993908   -7.4137425    343.28908   0.01990774  0.019915783         3931 
 1438000   0.67751364   -7.4120841      342.925  0.019872798  0.019898797         3931 
 1439000   0.68394376   -7.4285497    342.92116  0.019858765  0.019881804         3929 
 1440000   0.68054365   -7.4092242    342.54778  0.019823367  0.019864841         3951 
 1441000   0.66664481   -7.4088875    343.00663  0.019836146  0.019847869         3926 
 1442000   0.67367782   -7.4192291    342.25143  0.019778746  0.019830901         3948 
 1443000   0.67142228   -7.4187359    342.12205  0.019757568  0.019813942         3937 
 1444000   0.67916254   -7.4299106    342.15572  0.019745828  0.019796989         3941 
 1445000   0.66448928   -7.4147991    342.37559  0.019744844  0.019780051         3942 
 1446000   0.68976957   -7.4122606    342.67448  0.019748414   0.01976314         3943 
 1447000    0.6772386   -7.4359902    341.92969  0.019691873   0.01974623         3941 
 1448000   0.67979082   -7.4602156     342.2883  0.019698912  0.019729323         3949 
 1449000   0.68444362   -7.4337603    342.61524   0.01970412  0.019712411         3924 
 1450000   0.67153818   -7.4227172    342.25855  0.019670032  0.019695544         3943 
 1451000   0.67890443   -7.4149466    342.69072  0.019681296  0.019678669         3927 
 1452000   0.67917272   -7.4299397    342.99864  0.019685413  0.019661819         3937 
 1453000   0.66192427   -7.4316845    342.06375  0.019618247  0.019644949         3948 
 1454000   0.66475858   -7.4230159    342.63589  0.019637545  0.019628104         3931 
 1455000   0.67467369   -7.4393657    342.27436  0.019603343  0.019611266         3934 
 1456000   0.67466813   -7.4240676    342.75803  0.019617561  0.019594434         3930 
 1457000   0.68290685   -7.4421509    342.55569  0.019592524  0.019577621         3938 
 1458000   0.66768929   -7.4299022    342.67407  0.019585852  0.019560827         3950 
 1459000   0.66895257   -7.4312343    341.94488  0.019530779  0.019544047         3938 
 1460000   0.66380914    -7.420455    342.50507  0.019549376  0.019527258         3957 
 1461000   0.68165944    -7.418672    342.16722  0.019516725  0.019510491         3955 
 1462000   0.67164204   -7.4314326    342.63936  0.019530287  0.019493746         3925 
 1463000   0.68093045   -7.4459819    342.75051  0.019523269  0.019477018         3953 
 1464000   0.67278275   -7.4230785    342.65385  0.019504431  0.019460288         3939 
 1465000    0.6834909   -7.4428984    342.40641  0.019477043  0.019443576         3946 
 1466000   0.66757722   -7.4206466    342.29127  0.019457212  0.019426874         3953 
 1467000   0.66907862   -7.4538448    342.52905  0.019457456  0.019410184         3952 
 1468000   0.66909714   -7.4313518    342.44421  0.019439385  0.019393498         3954 
 1469000   0.66395912   -7.4431956    342.24299  0.019414737   0.01937682         3953 
 1470000   0.65123439    -7.422062    342.59597   0.01942154  0.019360168         3948 
 1471000   0.66857242   -7.4506332    342.48695  0.019402161  0.019343486         3945 
 1472000   0.67256556   -7.4468352    341.73593  0.019346463  0.019326843         3958 
 1473000   0.66833107   -7.4626781    342.60422  0.019382452   0.01931022         3951 
 1474000   0.65815741   -7.4259992    342.21155  0.019347102  0.019293599         3940 
 1475000   0.66912771   -7.4486207    342.11492  0.019328527  0.019277004         3940 
 1476000   0.67650627   -7.4378726    342.03801  0.019311089  0.019260422         3948 
 1477000   0.66776723   -7.4682069    342.23889  0.019309348  0.019243822         3945 
 1478000    0.6502682   -7.4442361    342.33591  0.019301754  0.019227264         3943 
 1479000   0.65850326   -7.4528941    341.61832  0.019248271  0.019210702         3940 
 1480000   0.65842098   -7.4516963    342.40274  0.019279434  0.019194161         3962 
 1481000   0.66951595   -7.4274575    341.82281  0.019233784  0.019177628         3949 
 1482000   0.65288345      -7.4422    342.28968  0.019247058  0.019161113         3941 
 1483000   0.66271003   -7.4464558    342.44272  0.019242679  0.019144615         3945 
 1484000   0.66534348   -7.4458521    342.94738  0.019258051  0.019128113         3948 
 1485000   0.65847594   -7.4624962    342.37804  0.019213134   0.01911164         3953 
 1486000   0.64827025   -7.4441742    342.45064  0.019204275  0.019095183         3952 
 1487000    0.6493914    -7.454168     342.5297  0.019195791  0.019078729         3945 
 1488000   0.65139838   -7.4527617    342.43333  0.019177494  0.019062281         3945 
 1489000   0.66683182   -7.4638428    342.59452  0.019173636  0.019045854         3947 
 1490000   0.66211302   -7.4391284    342.47309  0.019153976  0.019029416         3943 
 1491000   0.65768747   -7.4538419    342.69949  0.019153783  0.019013005         3948 
 1492000   0.65995453   -7.4524349    342.29541  0.019118376  0.018996593         3949 
 1493000   0.67664365   -7.4468961     342.1208  0.019095825  0.018980203         3926 
 1494000   0.65120114   -7.4586254    341.91167  0.019071379  0.018963823         3940 
 1495000   0.64760763   -7.4239642    341.87203  0.019056412  0.018947461         3932 
 1496000   0.66034858   -7.4536856    341.89359  0.019044875  0.018931113         3921 
 1497000   0.66818949   -7.4425321    342.01806  0.019039081  0.018914779         3946 
 1498000    0.6564882   -7.4260703    341.73934  0.019010867  0.018898465         3950 
 1499000   0.63829255   -7.4516016    341.59664  0.018990251  0.018882144         3946 
 1500000   0.65941216   -7.4457277    341.76822  0.018987123  0.018865831         3946 
 1501000   0.66137371   -7.4597216    342.59623  0.019020444  0.018849528         3937 
 1502000   0.67476691   -7.4538564    342.28815  0.018990688  0.018833242         3946 
 1503000   0.65025061    -7.453312    341.75331  0.018948398   0.01881698         3955 
 1504000   0.65866027   -7.4649192    341.92745  0.018945448  0.018800728         3948 
 1505000   0.67085376    -7.434067    341.77662  0.018924508  0.018784482         3947 
 1506000   0.64438506   -7.4574581    342.34481  0.018943383  0.018768251         3961 
 1507000   0.63530319   -7.4603966    342.17732   0.01892155  0.018752022         3948 
 1508000   0.66424071   -7.4471407    341.55452  0.018874587  0.018735824         3943 
 1509000   0.65483695   -7.4618628    341.89138  0.018880682  0.018719625         3954 
 1510000   0.65301502   -7.4452646    341.65476  0.018855119   0.01870346         3952 
 1511000   0.65620405   -7.4489929    342.33099  0.018879935  0.018687298         3948 
 1512000   0.63204581   -7.4597404    341.63792  0.018829251  0.018671152         3954 
 1513000   0.64489027   -7.4705485    342.44216  0.018861101  0.018655002         3961 
 1514000   0.64513378   -7.4602603    341.80438  0.018813539  0.018638872         3942 
 1515000   0.64308345   -7.4919468     342.0511  0.018814692  0.018622767         3953 
 1516000   0.63981812   -7.4752289    341.78823  0.018787831  0.018606669         3977 
 1517000   0.64739343   -7.4641065    341.52871   0.01876119  0.018590567         3931 
 1518000   0.64523445   -7.4710678    341.47053  0.018745638   0.01857448         3946 
 1519000   0.63258476   -7.4449836    341.99942  0.018762312  0.018558423         3924 
 1520000   0.64943507    -7.470672    341.81181  0.018739683  0.018542372         3953 
 1521000   0.63725623   -7.4930036    341.53175  0.018712018  0.018526333         3965 
 1522000   0.63851633   -7.4564968    342.34497  0.018744249  0.018510311         3956 
 1523000   0.66151587   -7.4739567    341.69852  0.018696571  0.018494295         3959 
 1524000    0.6498376   -7.4554811    342.18103  0.018710686  0.018478301         3952 
 1525000   0.65047409   -7.4742929    341.73358  0.018673966  0.018462301         3958 
 1526000   0.64811649   -7.4906657     341.9459  0.018673323   0.01844632         3941 
 1527000   0.64659466   -7.4600128      342.078  0.018668304  0.018430345         3942 
 1528000   0.65707188   -7.4729544    341.81141  0.018641547  0.018414391         3939 
 1529000   0.64284307   -7.4747155    342.00655  0.018639991  0.018398429         3956 
 1530000    0.6439987   -7.4875834    341.85005  0.018619284  0.018382492         3968 
 1531000   0.64859993   -7.4761738    342.10317    0.0186209   0.01836658         3952 
 1532000   0.65673913   -7.4774939    341.81515  0.018593078  0.018350672         3965 
 1533000    0.6459391   -7.4590909    341.84404   0.01858252  0.018334786         3937 
 1534000   0.64014741   -7.4627417    341.77295  0.018566544  0.018318921         3957 
 1535000    0.6439555   -7.4680427    341.29747  0.018528636  0.018303059         3949 
 1536000   0.63838766    -7.469745    341.69223   0.01853799  0.018287227         3945 
 1537000    0.6298196   -7.4659338    341.79631  0.018531572  0.018271403         3946 
 1538000   0.62932404    -7.463067     341.5565  0.018506529  0.018255585         3944 
 1539000   0.62896213   -7.4837314    341.98787  0.018517862  0.018239752         3931 
 1540000   0.61934817   -7.4855269    341.52211  0.018480634  0.018223944         3963 
 1541000   0.63762072    -7.476402     342.0253  0.018495852  0.018208153         3962 
 1542000   0.64423079   -7.4722962    341.52258  0.018456689  0.018192364         3969 
 1543000   0.64786031   -7.5006401    341.18482  0.018426486  0.018176581         3949 
 1544000   0.63774938   -7.4692105      341.354  0.018423683  0.018160824         3941 
 1545000   0.63104267   -7.5022296    342.01041  0.018447163  0.018145073         3952 
 1546000    0.6397706   -7.4808514    341.46312  0.018405731  0.018129355         3957 
 1547000   0.63918463   -7.4679312    341.25922   0.01838285  0.018113631         3955 
 1548000    0.6464143   -7.4731882    341.18105  0.018366766  0.018097918         3959 
 1549000   0.63226944   -7.4780236    341.91004  0.018394127  0.018082226         3947 
 1550000   0.63607732   -7.5064114    341.00767  0.018333745  0.018066545         3968 
 1551000   0.64187238    -7.474939    341.56093  0.018351651  0.018050882         3938 
 1552000   0.62844003    -7.475033     341.3191  0.018326842  0.018035229         3954 
 1553000   0.62526102   -7.5167904    341.62848  0.018331642  0.018019599         3959 
 1554000   0.62381754   -7.4774519    341.33832  0.018304285  0.018003968         3968 
 1555000   0.63697006   -7.4730906    341.16135   0.01828303  0.017988358         3962 
 1556000   0.64746291   -7.4983632    341.61012  0.018295315  0.017972768         3952 
 1557000   0.63717593   -7.4738587    341.48779  0.018277017  0.017957197         3957 
 1558000   0.62747039   -7.4968135    340.98573  0.018238433  0.017941633         3965 
 1559000   0.61650874   -7.5015123    340.95902  0.018225306  0.017926068         3966 
 1560000   0.61768086   -7.4905492    341.38717  0.018236494  0.017910523         3951 
 1561000   0.62352463   -7.4998812    341.82716    0.0182483  0.017894989         3955 
 1562000   0.64554653   -7.4801267    341.46536  0.018217316  0.017879476         3957 
 1563000   0.62373671   -7.4869417    341.82791   0.01822499  0.017863967         3943 
 1564000   0.63677889   -7.5046018    341.39622  0.018190335  0.017848471         3961 
 1565000   0.64406554   -7.4948171    341.55348  0.018187086  0.017833016         3955 
 1566000   0.62499152   -7.4767081    341.38388  0.018166448  0.017817559         3964 
 1567000   0.62096085   -7.4903217    341.25953  0.018148241  0.017802092         3959 
 1568000   0.63731092   -7.5117455    341.39595  0.018143918  0.017786656         3957 
 1569000   0.63391399   -7.4960922     341.1035  0.018116821  0.017771229         3958 
 1570000   0.62410348   -7.5052793    341.68007  0.018135885  0.017755819         3950 
 1571000   0.63126798   -7.4811724    340.96162  0.018086231  0.017740423         3964 
 1572000   0.62499618   -7.4725587    341.22208  0.018088533  0.017725048         3937 
 1573000   0.62652624   -7.5003154    341.27473  0.018079822  0.017709686         3953 
 1574000   0.62335863   -7.4796284    341.12651  0.018060489  0.017694342         3944 
 1575000   0.62584895   -7.5189118    341.37346  0.018062088  0.017679002         3948 
 1576000   0.62077603   -7.4877419    341.10526  0.018036446  0.017663668         3958 
 1577000   0.62701042    -7.501534    340.62376  0.017999565  0.017648369         3946 
 1578000   0.62616556   -7.5050727     341.3471  0.018026357  0.017633066         3958 
 1579000    0.6248449   -7.5051325     341.3611   0.01801568  0.017617767         3929 
 1580000   0.61814294   -7.4742204    340.57732  0.017962939  0.017602487         3941 
 1581000   0.63271769   -7.4973131    340.48196  0.017946551  0.017587226         3961 
 1582000   0.62372768   -7.4997349    341.19913  0.017972984  0.017571978         3956 
 1583000   0.63124751    -7.497476    340.95083  0.017948559  0.017556746         3960 
 1584000   0.62654853   -7.5141517    340.69387   0.01792371  0.017541508         3959 
 1585000   0.61563605   -7.4960658    341.56657  0.017958284  0.017526304         3956 
 1586000   0.62640133   -7.5070762    341.40015  0.017938217  0.017511113         3942 
 1587000   0.60539445   -7.5061921    341.19504  0.017916144  0.017495925         3947 
 1588000    0.6284472   -7.5005092    340.93253  0.017891086  0.017480761         3965 
 1589000    0.6169439   -7.5110086    341.35653  0.017902063  0.017465601         3957 
 1590000   0.63170456   -7.5174792    341.04955  0.017874714  0.017450459         3964 
 1591000   0.62144275   -7.5025078    341.07077  0.017864591  0.017435325         3951 
 1592000   0.61423209   -7.4982702    341.22433  0.017861408  0.017420218         3945 
 1593000   0.61141223   -7.5312723    340.65931  0.017820638  0.017405119         3974 
 1594000   0.62877134      -7.5077    340.92728  0.017823467   0.01739003         3957 
 1595000   0.62314908   -7.5094269    340.73779  0.017802393  0.017374942         3965 
 1596000   0.62213506   -7.5289358    340.78124  0.017793507  0.017359873         3944 
 1597000   0.61714562    -7.528363     340.9374  0.017790514  0.017344828         3967 
 1598000   0.61875003   -7.4991596    340.63663  0.017763696  0.017329799         3958 
 1599000    0.6271927   -7.5323085    341.46122  0.017795561   0.01731478         3957 
 1600000    0.6177973   -7.5196506    341.08626   0.01776491  0.017299771         3963 
 1601000   0.61319088   -7.5135611    340.16119  0.017705663  0.017284773         3958 
 1602000   0.61510683   -7.5019683    340.38822   0.01770642  0.017269782         3948 
 1603000   0.59995363   -7.5190043    340.86507  0.017720164  0.017254826         3963 
 1604000   0.61130992   -7.5163169     341.4279  0.017738357  0.017239861         3958 
 1605000   0.61104879   -7.5115902    341.20559  0.017715763  0.017224921         3966 
 1606000   0.61348127   -7.5046085    341.27671  0.017708422   0.01720999         3964 
 1607000   0.62703952   -7.5216546    340.93971  0.017679927  0.017195072         3965 
 1608000   0.60927149   -7.5147755     340.8947  0.017666599  0.017180162         3967 
 1609000   0.60611705   -7.5137431    340.59759  0.017640231   0.01716528         3965 
 1610000    0.6256466   -7.5253973    340.70924  0.017635054  0.017150396         3960 
 1611000   0.60702365   -7.5212943    340.56963  0.017616885  0.017135546         3957 
 1612000   0.61218987   -7.5150088    340.88556  0.017622289  0.017120701         3969 
 1613000   0.62435803    -7.496192    340.99579  0.017617059  0.017105868         3959 
 1614000   0.60060117   -7.5316464     341.0231  0.017607553   0.01709105         3944 
 1615000   0.61825038   -7.5271977    341.25677  0.017608709  0.017076248         3943 
 1616000   0.61694828   -7.5275796    341.22083  0.017595959  0.017061457         3972 
 1617000   0.60927229   -7.5083418    340.71559  0.017559039  0.017046673         3953 
 1618000   0.60783148   -7.5273767    340.89631  0.017557494  0.017031914         3952 
 1619000   0.61089219   -7.4908392    340.91702  0.017547716  0.017017159         3940 
 1620000   0.60451289   -7.5232468    341.17531   0.01755017  0.017002416         3947 
 1621000    0.6166263   -7.4998355    340.92702  0.017526579   0.01698768         3954 
 1622000   0.61879253   -7.5306298    340.98303  0.017518651  0.016972973         3951 
 1623000   0.60082229   -7.5299859    341.17374  0.017517649   0.01695827         3959 
 1624000   0.59568578   -7.5369634    339.99742  0.017446501  0.016943588         3962 
 1625000   0.61172001   -7.5280426    340.42851  0.017457872   0.01692892         3959 
 1626000    0.6111783    -7.531242    340.83817  0.017468131   0.01691427         3955 
 1627000   0.59651743   -7.5294972    340.88071  0.017459573  0.016899634         3965 
 1628000   0.60852553   -7.5211865    340.75551   0.01744244  0.016884991         3951 
 1629000   0.61112365   -7.5166951    340.77075  0.017432512  0.016870375         3964 
 1630000   0.59279062   -7.5247661    340.80704  0.017423673  0.016855788         3943 
 1631000   0.60249663   -7.5295233    341.07737  0.017426802    0.0168412         3943 
 1632000   0.61104359   -7.5112239    340.98936   0.01741163  0.016826624         3960 
 1633000    0.6113748   -7.5318837    339.91283  0.017346031  0.016812059         3952 
 1634000   0.60351939   -7.5086188    340.79116   0.01738021  0.016797509         3969 
 1635000    0.6053048   -7.5240873    340.38255  0.017348754  0.016782966         3958 
 1636000    0.6047128   -7.5243911    340.26292  0.017332056  0.016768439         3963 
 1637000   0.60482846   -7.5412971    340.78813  0.017348204   0.01675394         3956 
 1638000    0.6076181   -7.5313038    340.96734  0.017346731  0.016739445         3944 
 1639000   0.60664409   -7.5194614    340.40705   0.01730766  0.016724967         3960 
 1640000   0.60115152   -7.5358684    341.36204  0.017345632  0.016710505         3957 
 1641000    0.6117584   -7.5334599    340.93443  0.017313347  0.016696068         3959 
 1642000   0.59688357   -7.5353544    340.68648  0.017290219   0.01668164         3961 
 1643000   0.59749802   -7.5243267    339.86042  0.017237798  0.016667219         3959 
 1644000   0.59747027   -7.5360418    340.44663  0.017257027  0.016652802         3960 
 1645000   0.59744367   -7.5346312    340.61602  0.017255117  0.016638413         3956 
 1646000   0.60355151   -7.5314976      341.063  0.017267264  0.016624045         3953 
 1647000   0.58697006   -7.5412711    340.16989  0.017211591  0.016609664         3954 
 1648000   0.59719257   -7.5510381    340.30504  0.017207981  0.016595302         3968 
 1649000   0.59180992    -7.535883    340.68129   0.01721656  0.016580952         3963 
 1650000   0.60212658    -7.530935    340.59211  0.017201622  0.016566612         3966 
 1651000   0.57730918   -7.5314993    340.29691  0.017176303  0.016552299         3967 
 1652000   0.59968895   -7.5293423    340.62181  0.017182294  0.016537991         3966 
 1653000   0.58255797   -7.5511585     340.0267  0.017141899  0.016523688         3957 
 1654000   0.60450867   -7.5440094    340.50636  0.017155701  0.016509412         3951 
 1655000    0.6060124   -7.5533091    340.77097  0.017158659  0.016495151         3967 
 1656000   0.59063575   -7.5430909    340.42233  0.017130753  0.016480905         3966 
 1657000   0.58603802   -7.5575575     340.0113  0.017099744  0.016466674         3953 
 1658000   0.59471141   -7.5294024    340.29848  0.017103864   0.01645246         3961 
 1659000   0.57964731    -7.563855    340.85044   0.01712128  0.016438252         3966 
 1660000    0.5856472   -7.5493037    340.80094  0.017108481  0.016424055         3963 
 1661000     0.573516   -7.5468436    340.40609  0.017078371  0.016409869         3951 
 1662000   0.58601404    -7.538529    340.10596  0.017053047  0.016395705         3965 
 1663000   0.59898032   -7.5391862     340.4913  0.017062102  0.016381549         3958 
 1664000   0.58543193   -7.5401175     339.8597  0.017020217  0.016367394         3976 
 1665000    0.5781767   -7.5541479    339.80985    0.0170075  0.016353243         3966 
 1666000   0.59273088   -7.5220323    340.36071  0.017024846  0.016339141         3950 
 1667000   0.59317397   -7.5408792    340.41786  0.017017489  0.016325033         3962 
 1668000   0.58121392   -7.5436047    341.12843  0.017042787  0.016310949         3963 
 1669000    0.5779362   -7.5634641    340.15526  0.016983985  0.016296859         3950 
 1670000   0.57692869   -7.5597899    340.34873   0.01698347  0.016282794         3953 
 1671000   0.58348677   -7.5342532      340.239  0.016967834  0.016268739         3967 
 1672000   0.59254275   -7.5635897    340.02099   0.01694682   0.01625471         3969 
 1673000   0.58338987   -7.5643651    340.37766  0.016954456  0.016240691         3953 
 1674000    0.5827301   -7.5441069    340.75418  0.016963071  0.016226695         3948 
 1675000   0.58266238   -7.5519611     339.9836  0.016914607  0.016212703         3971 
 1676000   0.59557749   -7.5584147    340.07292  0.016908956  0.016198737         3957 
 1677000   0.58142916   -7.5590769    339.89211  0.016889888  0.016184766         3959 
 1678000   0.58697957   -7.5530936    340.37009   0.01690356  0.016170801         3968 
 1679000   0.58599613   -7.5521485    340.54173  0.016902012  0.016156854         3956 
 1680000   0.57501801   -7.5599448    339.89478   0.01685986  0.016142921         3963 
 1681000   0.59584719   -7.5586779    340.42134  0.016875934  0.016129008         3953 
 1682000    0.5837369   -7.5592216    339.99154  0.016844606  0.016115119         3953 
 1683000   0.57765307   -7.5742011    339.99327  0.016834684  0.016101227         3962 
 1684000   0.57686739   -7.5335504    340.61365  0.016855386  0.016087353         3954 
 1685000   0.57547803   -7.5411723    340.37951  0.016833804  0.016073494         3959 
 1686000   0.56933737    -7.555196    339.61884  0.016786222  0.016059658         3953 
 1687000   0.58604345   -7.5645039    340.43649  0.016816661  0.016045839         3956 
 1688000    0.5758721   -7.5405032    340.38291  0.016804054  0.016032024         3962 
 1689000   0.57481776   -7.5531844    339.51625  0.016751345  0.016018229         3952 
 1690000   0.57867156   -7.5558375     340.2161  0.016775942  0.016004447         3949 
 1691000   0.57050616   -7.5614695    339.91592  0.016751228  0.015990681         3950 
 1692000   0.56888487   -7.5551886    340.27725  0.016759124  0.015976918         3956 
 1693000   0.58577356    -7.554973    339.85686  0.016728532  0.015963159         3970 
 1694000   0.58075527   -7.5618604    340.12786  0.016731988  0.015949428         3952 
 1695000   0.57465668   -7.5504726    340.21435  0.016726369   0.01593571         3961 
 1696000   0.57044497    -7.559985    340.16247  0.016713958  0.015922002         3949 
 1697000   0.58633293   -7.5758731    339.96777  0.016694548  0.015908298         3958 
 1698000   0.57261345   -7.5775311     340.3026  0.016701149  0.015894614         3971 
 1699000   0.57434092   -7.5669681    340.42522  0.016697333  0.015880959         3955 
 1700000   0.57492946   -7.5692748    340.18333  0.016675653  0.015867314         3958 
 1701000   0.57754103   -7.5551568    340.04834  0.016659237  0.015853675         3963 
 1702000   0.58328174   -7.5794482    340.00736  0.016647442  0.015840052         3968 
 1703000    0.5730229   -7.5779038    340.32052  0.016652991   0.01582643         3965 
 1704000   0.57173541   -7.5641479    339.81352  0.016618423  0.015812827         3950 
 1705000    0.5677776   -7.5572843    340.15473  0.016625353  0.015799238         3963 
 1706000   0.56776669     -7.56483    339.86073  0.016601247  0.015785663         3957 
 1707000   0.58189502   -7.5665468    339.82808  0.016589928  0.015772095         3967 
 1708000    0.5743365   -7.5681665    339.59273  0.016568732  0.015758549         3966 
 1709000   0.57726289   -7.5581654    340.08162  0.016582876  0.015745022         3947 
 1710000   0.57979813   -7.5551291    340.28866  0.016583268  0.015731501         3962 
 1711000   0.57086164   -7.5872158    340.16594  0.016567599  0.015717991         3960 
 1712000   0.56164194   -7.5693929    339.79571    0.0165399  0.015704508         3970 
 1713000   0.57158766   -7.5561836    340.02057  0.016541184  0.015691013         3966 
 1714000   0.54993375   -7.5542496    339.37802  0.016500293  0.015677543         3938 
 1715000   0.57754935   -7.5689392    340.22892  0.016532017  0.015664092         3970 
 1716000   0.56101024   -7.5809737    340.02386  0.016512425  0.015650649         3971 
 1717000   0.56665511   -7.5688927    340.06701  0.016504903  0.015637214         3961 
 1718000   0.56830766   -7.5826119    339.86391  0.016485444  0.015623798         3964 
 1719000    0.5556833   -7.5761126    340.26311  0.016495206  0.015610396         3963 
 1720000   0.56862181    -7.581488    339.90836  0.016468428  0.015597006         3963 
 1721000    0.5681578   -7.5669973    339.57317  0.016442629  0.015583618         3961 
 1722000   0.56427796   -7.5732303    339.73207   0.01644077  0.015570249         3963 
 1723000    0.5647046   -7.5709451    340.34688  0.016460963  0.015556895         3959 
 1724000   0.55963733   -7.5638047     339.6689  0.016418644  0.015543561         3961 
 1725000   0.55087453   -7.5691536    340.22918  0.016436192  0.015530227         3970 
 1726000   0.57233839   -7.5883874    339.69071  0.016400672  0.015516913         3956 
 1727000    0.5559771    -7.587322    339.36083  0.016375257   0.01550362         3966 
 1728000   0.57510685   -7.5954509    339.53672  0.016374263  0.015490338         3954 
 1729000   0.55827322   -7.5734711    339.69012  0.016372186  0.015477086         3975 
 1730000   0.56383432   -7.5728604    339.49646  0.016353394  0.015463821         3977 
 1731000   0.56351777   -7.5632875    339.61344  0.016349578  0.015450576         3971 
 1732000   0.56931002   -7.5659843    339.60676  0.016339817  0.015437346         3963 
 1733000   0.57622936   -7.5859392    339.66499  0.016333189  0.015424128         3965 
 1734000   0.56820597   -7.5916728    339.12751  0.016297939  0.015410918         3958 
 1735000   0.56843355   -7.5864454    339.23641  0.016293776  0.015397722         3958 
 1736000    0.5644238   -7.5689287    339.27272  0.016286133  0.015384551         3964 
 1737000    0.5602513   -7.5853122    339.58374  0.016291678  0.015371383         3973 
 1738000   0.55998327    -7.571608     339.8046  0.016292894  0.015358239         3957 
 1739000   0.56128617   -7.5871291    339.25623  0.016257247  0.015345102         3961 
 1740000   0.55659791   -7.5739683    339.24965  0.016247589  0.015331976         3961 
 1741000   0.55930547   -7.5615436    339.62346  0.016256149  0.015318866         3966 
 1742000   0.55626533    -7.607429    339.44862  0.016238453   0.01530577         3951 
 1743000   0.56411923   -7.5890362    340.07658   0.01625916  0.015292684         3959 
 1744000   0.55769095   -7.5883364    339.91505  0.016242118  0.015279614         3971 
 1745000   0.55622373    -7.589513     339.4647  0.016211304  0.015266575         3954 
 1746000   0.56597504   -7.6078861    339.60386  0.016208661  0.015253535         3970 
 1747000   0.55241753   -7.5996023    339.45546  0.016192304  0.015240511         3971 
 1748000   0.55187395   -7.5964584    339.59287  0.016189591  0.015227498         3966 
 1749000   0.54579883   -7.5685662    340.06768  0.016202958  0.015214496         3967 
 1750000   0.55141753   -7.5754006    339.54565   0.01616884  0.015201503         3969 
 1751000   0.55864751   -7.5847454    339.64945  0.016164547  0.015188527         3963 
 1752000   0.55069937   -7.5682783    339.32286  0.016139786  0.015175559         3972 
 1753000   0.55946909   -7.5815784    339.74484  0.016150639   0.01516261         3961 
 1754000   0.55967322   -7.5899371    339.81984  0.016144994  0.015149673         3957 
 1755000   0.54979131   -7.5546718    339.34925   0.01611345  0.015136753         3949 
 1756000   0.55276104   -7.5709557    339.11951  0.016093371  0.015123842         3970 
 1757000   0.54571141   -7.5951509    339.20596  0.016088311  0.015110947         3962 
 1758000   0.55766247   -7.5988827     338.8362  0.016061633  0.015098051         3968 
 1759000   0.55873578   -7.6000577    339.77255  0.016096861  0.015085176         3961 
 1760000   0.55809821   -7.5954745    339.21769  0.016061444   0.01507231         3949 
 1761000   0.54815783   -7.6031091    339.22084  0.016052472  0.015059453         3959 
 1762000    0.5532446   -7.6006064    339.31282  0.016047712  0.015046619         3967 
 1763000   0.55170555   -7.5843233    339.66375  0.016055197  0.015033796         3961 
 1764000   0.55581091   -7.5955135     339.5579  0.016041095  0.015020988         3970 
 1765000   0.55020893   -7.6140882    339.17955  0.016014143   0.01500819         3968 
 1766000    0.5491995    -7.584691    339.06418  0.015999631  0.014995413         3955 
 1767000   0.54049935   -7.6023558    339.60976  0.016016306  0.014982639         3974 
 1768000   0.55486636   -7.5887035    339.41159  0.015997907  0.014969876         3970 
 1769000   0.54984127   -7.6084973    339.62839  0.015999076  0.014957129         3962 
 1770000   0.53800221   -7.6031296    339.27044  0.015973185  0.014944399         3969 
 1771000   0.55081692   -7.6087122    339.61409  0.015980336  0.014931688         3980 
 1772000   0.54441584   -7.6027517    339.24746  0.015954075  0.014918983         3961 
 1773000     0.533419   -7.5906896    339.80499  0.015971282  0.014906291         3969 
 1774000   0.53804409   -7.6102296    339.45387  0.015945785  0.014893605         3952 
 1775000   0.53778098   -7.6166078    339.28707  0.015928971  0.014880941         3968 
 1776000   0.54622552   -7.6193822    339.06983  0.015909808  0.014868282         3967 
 1777000   0.53734506   -7.6094184    339.59298  0.015925388  0.014855638         3958 
 1778000   0.53657977   -7.6003156    338.76781  0.015877756  0.014843004         3967 
 1779000   0.54787215   -7.6152784     339.0298  0.015881103  0.014830391         3968 
 1780000   0.54032333   -7.6024729    339.25839  0.015882884  0.014817793         3965 
 1781000    0.5384903   -7.5876315    338.86209  0.015855422  0.014805202         3966 
 1782000   0.54203676   -7.6019998    339.16827  0.015860843  0.014792624         3970 
 1783000   0.53515551    -7.601577    339.12859  0.015850093  0.014780059         3957 
 1784000   0.53530324   -7.6153986    339.51763  0.015859381   0.01476751         3967 
 1785000   0.54077556   -7.6134179    339.02102  0.015827312  0.014754959         3970 
 1786000    0.5362456    -7.607629    338.95571  0.015815403  0.014742438         3970 
 1787000   0.54041463   -7.6004355    339.15254  0.015815731  0.014729931         3973 
 1788000   0.54857745   -7.6201875    338.66912  0.015784355  0.014717432         3966 
 1789000   0.54431982    -7.594503    338.64485  0.015774401  0.014704945         3963 
 1790000   0.55558492   -7.6196948    339.67925  0.015813745   0.01469246         3973 
 1791000   0.54205128   -7.6051782    338.87306  0.015767405  0.014679988         3970 
 1792000   0.54464647   -7.6206346     339.4668  0.015786216  0.014667539         3960 
 1793000   0.54409904   -7.6177674    339.05949  0.015758482  0.014655105         3964 
 1794000   0.52982377   -7.6117251    339.38031    0.0157646  0.014642673         3967 
 1795000   0.53020142   -7.6216038    338.76161  0.015727094  0.014630259         3978 
 1796000   0.53098226   -7.5993294    339.25956  0.015741442  0.014617861         3959 
 1797000   0.52372629   -7.6188655    339.05912  0.015723387  0.014605481         3965 
 1798000   0.52695796   -7.6053835    338.86761  0.015705766  0.014593093         3972 
 1799000   0.54215805   -7.6177146    339.05201  0.015705578  0.014580728         3969 
 1800000   0.54971075   -7.6080361    338.70255  0.015680673  0.014568369         3962 
 1801000   0.53678338   -7.6094225    339.00685  0.015686047  0.014556024         3971 
 1802000   0.52063912   -7.6283934    339.33089  0.015692328  0.014543693         3970 
 1803000   0.52274563   -7.6065376    338.77442  0.015657905  0.014531374         3962 
 1804000   0.52764177   -7.6093735    339.30493  0.015673731  0.014519075         3966 
 1805000   0.52800552   -7.6069829    339.08648  0.015654962  0.014506792         3965 
 1806000   0.53796932   -7.6075875    339.19392  0.015651251   0.01449452         3957 
 1807000   0.52656507   -7.6040238     338.6684  0.015618354  0.014482261         3963 
 1808000   0.52896175    -7.613684    339.19097  0.015633802  0.014470009         3966 
 1809000   0.53471078   -7.6129992    338.77655  0.015606069  0.014457769         3970 
 1810000   0.53685175   -7.6268917    338.86797  0.015601656  0.014445544         3978 
 1811000   0.52844164   -7.6128942    339.27392  0.015611721  0.014433339         3974 
 1812000   0.51733551   -7.6188273    339.33178  0.015605766  0.014421144         3971 
 1813000    0.5415309    -7.624086    338.83051  0.015574118  0.014408952         3981 
 1814000   0.53105269   -7.6276226    339.12704  0.015579155  0.014396777         3963 
 1815000   0.53515313   -7.6247741    338.64855  0.015548602  0.014384609         3965 
 1816000   0.52778513   -7.6156574    339.01334  0.015556779  0.014372462         3959 
 1817000   0.52661114   -7.6155242    338.95282  0.015545442  0.014360332         3980 
 1818000   0.52392931   -7.6294676    338.95258   0.01553688  0.014348206         3973 
 1819000   0.53570281   -7.6307665    339.13284  0.015536597  0.014336095         3968 
 1820000   0.52448209   -7.6190286    339.08132  0.015525702  0.014323992         3965 
 1821000   0.53294203   -7.6319505    338.94202  0.015510801  0.014311907         3966 
 1822000   0.52915225   -7.6114402    338.73754  0.015492935  0.014299833         3974 
 1823000   0.52432395   -7.6319176    338.88193  0.015491037  0.014287759         3962 
 1824000   0.52444432   -7.6301535    338.52208  0.015466104  0.014275708         3972 
 1825000   0.51413077   -7.6323543    339.07904  0.015483061  0.014263672         3965 
 1826000   0.51814792   -7.6164055    338.60351   0.01545288  0.014251645         3973 
 1827000   0.53077161   -7.6184759    338.40791    0.0154355  0.014239631         3971 
 1828000   0.52915599   -7.6260563    338.42842  0.015427991  0.014227628         3974 
 1829000   0.51338554   -7.6128551    339.14049     0.015452  0.014215641         3979 
 1830000   0.52412418   -7.6282119     338.9067   0.01543291  0.014203666         3975 
 1831000   0.52238189   -7.6447033    338.83388  0.015421167  0.014191696         3969 
 1832000   0.52541758   -7.6491151    338.58036  0.015401217  0.014179738         3961 
 1833000   0.51360161   -7.6063444     338.3903  0.015384174    0.0141678         3970 
 1834000   0.52098892   -7.6321232    339.20927  0.015412998  0.014155873         3974 
 1835000   0.52736589   -7.6307711    338.91247   0.01539112  0.014143955         3962 
 1836000   0.52520512   -7.6481468     338.5332  0.015365523  0.014132052         3968 
 1837000   0.52487341   -7.6375834    338.01847  0.015333808  0.014120163         3966 
 1838000   0.50937055   -7.6334383    338.57646  0.015350764  0.014108287         3974 
 1839000   0.52855547   -7.6192411    338.94904    0.0153593  0.014096425         3969 
 1840000   0.52116583   -7.6417292    339.01946  0.015354142  0.014084581         3966 
 1841000    0.5230244   -7.6349624    338.75383  0.015333778  0.014072747         3962 
 1842000   0.51618596   -7.6215383    338.49318  0.015313662  0.014060913         3962 
 1843000   0.53165704   -7.6438633    338.95478  0.015326224  0.014049099         3964 
 1844000   0.51264042   -7.6289232    337.90047  0.015270267  0.014037295         3971 
 1845000    0.5177885   -7.6398665    338.58658   0.01529298  0.014025499         3972 
 1846000     0.524655   -7.6490663    338.72079  0.015290754  0.014013715         3964 
 1847000   0.52031636   -7.6370909    338.56935  0.015275643  0.014001943         3973 
 1848000   0.51707386   -7.6390117    338.58002  0.015267858  0.013990174         3980 
 1849000   0.51281431   -7.6516231    338.30642   0.01524727  0.013978421         3965 
 1850000   0.51356784   -7.6266255    338.47321  0.015246541  0.013966685         3962 
 1851000   0.50806768   -7.6345173    338.38613  0.015234384  0.013954961         3971 
 1852000   0.51574794   -7.6366214    338.52653  0.015232475  0.013943249         3969 
 1853000    0.5120287   -7.6411439    338.87805  0.015240064  0.013931545         3963 
 1854000   0.50225285   -7.6370644    338.16168  0.015199644  0.013919853         3960 
 1855000   0.51812767   -7.6426456    338.36834  0.015200734  0.013908181         3965 
 1856000   0.51556971   -7.6522147    338.42906   0.01519527  0.013896523         3972 
 1857000   0.50391765   -7.6476927    338.22041  0.015177724  0.013884871         3964 
 1858000   0.51090173   -7.6593789    338.18151  0.015167811  0.013873226         3957 
 1859000   0.50932523   -7.6438939    338.67671   0.01518185  0.013861596         3972 
 1860000    0.5125615   -7.6420229    338.87963  0.015182779  0.013849985         3968 
 1861000   0.52642285   -7.6294854    338.28155  0.015147839  0.013838385         3972 
 1862000   0.51564229   -7.6527156    338.14047   0.01513339  0.013826796         3965 
 1863000   0.51020481   -7.6601402     338.5463   0.01514342  0.013815217         3975 
 1864000   0.51365309   -7.6670398    338.30467  0.015124493  0.013803643         3968 
 1865000   0.50955801   -7.6455267    338.25067  0.015113971  0.013792093         3981 
 1866000   0.50576895   -7.6411475    338.45161  0.015114845  0.013780546         3970 
 1867000   0.51116726    -7.656395    338.49733   0.01510879  0.013769017         3974 
 1868000   0.51149959   -7.6382225    338.24449  0.015089422  0.013757499         3966 
 1869000   0.50704951   -7.6371065    338.37387  0.015087117  0.013745997         3963 
 1870000   0.50705444   -7.6529241    338.57776  0.015088136  0.013734499         3973 
 1871000   0.50673954   -7.6289297      337.634  0.015038037  0.013723024         3969 
 1872000   0.50415412   -7.6472967    338.35909  0.015062281  0.013711565         3967 
 1873000     0.509442   -7.6452059    338.46232  0.015058832  0.013700106         3958 
 1874000   0.49997477   -7.6386275     338.1563  0.015037189  0.013688661         3974 
 1875000   0.51159064   -7.6666689    338.56643  0.015047397  0.013677219         3956 
 1876000   0.50231142   -7.6463613    338.30171  0.015027617    0.0136658         3960 
 1877000    0.5027626   -7.6461008    338.00438   0.01500641  0.013654387         3961 
 1878000   0.51145286   -7.6618098    338.00738  0.014998552  0.013642992         3966 
 1879000   0.49839184    -7.672053    338.71732  0.015022056  0.013631609         3971 
 1880000   0.50221388   -7.6394433    338.45699  0.015002526  0.013620235         3971 
 1881000   0.50502636   -7.6456849     338.1985  0.014983098  0.013608873         3969 
 1882000   0.50363673   -7.6606456    338.55832   0.01499107  0.013597521         3971 
 1883000   0.50534295   -7.6515646    338.44274  0.014977993  0.013586185         3972 
 1884000    0.5140245   -7.6603233    338.57307  0.014975808  0.013574852         3968 
 1885000   0.49617512    -7.653064    337.99384  0.014942256  0.013563537         3966 
 1886000   0.50840848   -7.6606507    338.17451  0.014942317  0.013552231         3960 
 1887000   0.49582357   -7.6543694    337.87337  0.014921099  0.013540931         3969 
 1888000   0.50544474   -7.6631266     338.2688   0.01493065  0.013529644         3967 
 1889000    0.4921491   -7.6680634    338.47407  0.014931801  0.013518359         3975 
 1890000   0.49042471   -7.6820298    337.78501  0.014893519  0.013507093         3966 
 1891000   0.49921188   -7.6574063    338.04271     0.014897  0.013495835         3962 
 1892000   0.50485408   -7.6725533    338.17412  0.014894914   0.01348459         3967 
 1893000   0.48381729   -7.6677498    338.21772  0.014888965  0.013473366         3969 
 1894000   0.49470513   -7.6585586    338.23742   0.01488197  0.013462159         3968 
 1895000   0.49721947   -7.6556458    338.00025  0.014863687  0.013450949         3973 
 1896000   0.50223661   -7.6760425    338.02217  0.014856811  0.013439754         3961 
 1897000   0.50399963   -7.6754167    338.41162  0.014866088  0.013428564         3967 
 1898000   0.50307155   -7.6646037    338.42075  0.014858656  0.013417395         3960 
 1899000   0.49345783   -7.6705495    337.94581   0.01482999  0.013406239         3976 
 1900000   0.48965371   -7.6683111    337.67574  0.014810339  0.013395094         3966 
 1901000   0.49445157   -7.6602214     338.1851  0.014824877  0.013383961         3960 
 1902000   0.48886251   -7.6604525    338.02711  0.014810161  0.013372835         3976 
 1903000   0.48986411    -7.666023    337.91219  0.014797346  0.013361726         3977 
 1904000   0.49532966   -7.6808521    338.54188  0.014817134  0.013350637         3975 
 1905000   0.49009913   -7.6714437    338.58944  0.014811436  0.013339556         3972 
 1906000   0.50020828   -7.6604811     337.9647  0.014776351  0.013328483         3965 
 1907000   0.48557953   -7.6679577     338.2556  0.014781314   0.01331742         3967 
 1908000   0.48530678   -7.6665128    338.16379  0.014769558  0.013306368         3969 
 1909000   0.49129459   -7.6637498    338.05267   0.01475697  0.013295324         3975 
 1910000   0.49476672   -7.6690052     337.8844  0.014741902  0.013284295         3959 
 1911000   0.48503789   -7.6717563    337.88762  0.014734328  0.013273273         3975 
 1912000   0.48837716   -7.6681846    337.73954  0.014720168  0.013262266         3965 
 1913000   0.48937593   -7.6717202    337.94944  0.014721617  0.013251272         3969 
 1914000   0.48912047   -7.6675742    338.27048  0.014727903  0.013240293         3960 
 1915000   0.49187302   -7.6573844    337.74594  0.014697387  0.013229318         3972 
 1916000   0.49844583   -7.6839735    338.39994   0.01471816  0.013218363         3978 
 1917000   0.49074513   -7.6650206    337.54615  0.014673368  0.013207411         3958 
 1918000    0.4880761   -7.6669633    338.21395  0.014694732  0.013196477         3970 
 1919000   0.48344691   -7.6613246    337.54646  0.014658088  0.013185548         3966 
 1920000   0.48514817    -7.694666    337.75495  0.014659503  0.013174635         3962 
 1921000   0.47263777   -7.6633776    337.73768  0.014651123  0.013163731         3969 
 1922000   0.48557759   -7.6698627    337.72839  0.014643097  0.013152833         3963 
 1923000   0.48597425   -7.6726566    337.83143  0.014639948  0.013141951         3975 
 1924000   0.48059211   -7.6775237    338.77092   0.01467303  0.013131078         3976 
 1925000   0.49528432   -7.6656958    337.69171  0.014618689  0.013120216         3969 
 1926000   0.48095868     -7.65787    337.47731  0.014601822  0.013109367         3955 
 1927000   0.47350812   -7.6760428    337.85583  0.014610614   0.01309853         3969 
 1928000   0.48180477   -7.6722792     337.5182  0.014588442  0.013087697         3956 
 1929000   0.47994833   -7.6781257    337.63141   0.01458577  0.013076875         3968 
 1930000     0.478622   -7.6840975    337.51243  0.014573076  0.013066078         3968 
 1931000   0.48403547   -7.6798521    338.18322  0.014594477  0.013055291         3971 
 1932000   0.48231362   -7.6616111    337.25232   0.01454677  0.013044504         3962 
 1933000   0.47777779   -7.6867881     337.8615  0.014565507  0.013033725         3974 
 1934000   0.48348634   -7.6797943    337.63643  0.014548278  0.013022967         3957 
 1935000   0.47877619   -7.6944313    337.51253  0.014535423  0.013012219         3956 
 1936000   0.47779582   -7.6806623    337.14894  0.014512265  0.013001481         3974 
 1937000   0.48034615   -7.6757949    337.49551  0.014519683  0.012990759         3961 
 1938000   0.47994284   -7.6839708    337.39334  0.014507798  0.012980042         3977 
 1939000    0.4797522    -7.706703    337.69686   0.01451336  0.012969343         3967 
 1940000   0.48417449   -7.6965036    338.02197  0.014519844   0.01295865         3970 
 1941000   0.48027983     -7.68626    337.71664  0.014499255  0.012947966         3983 
 1942000   0.48662665   -7.6950029    337.80837  0.014495725  0.012937298         3965 
 1943000   0.48108227   -7.6745948    338.10683  0.014501065  0.012926648         3973 
 1944000   0.47954977   -7.7109339    337.91832  0.014485525  0.012916012         3956 
 1945000   0.47341803   -7.6930159    337.34149  0.014453363  0.012905372         3980 
 1946000   0.47081673   -7.6980044    337.68395  0.014460601  0.012894743         3967 
 1947000   0.48581725   -7.6922301    337.74572  0.014455818  0.012884129         3971 
 1948000   0.48464333   -7.6816068    337.14011  0.014422489   0.01287353         3948 
 1949000   0.46930869   -7.6943653    337.36681  0.014424782  0.012862941         3956 
 1950000   0.47312642   -7.6870571    337.21567  0.014410926   0.01285236         3961 
 1951000   0.48676924   -7.7063001     338.0099  0.014437464  0.012841794         3963 
 1952000   0.48250281    -7.698077    337.33188  0.014401122  0.012831234         3971 
 1953000   0.47181224   -7.6909113     337.3766  0.014395656  0.012820687         3968 
 1954000   0.46557325   -7.6915615    337.65264  0.014400061  0.012810142         3964 
 1955000   0.46854498   -7.6849405    337.46515  0.014384704  0.012799616         3970 
 1956000   0.47283433   -7.7120437    337.35031  0.014372457  0.012789094         3970 
 1957000    0.4757247   -7.6931786    337.57129  0.014374523  0.012778587         3967 
 1958000   0.46820822   -7.6982731     337.3451  0.014357554  0.012768091         3962 
 1959000   0.47420502   -7.6968548    337.77073  0.014368331  0.012757608         3970 
 1960000   0.46557241   -7.7072179    337.48271  0.014348755  0.012747127         3964 
 1961000   0.46658893     -7.70377    337.77859  0.014354011  0.012736663         3977 
 1962000   0.47449143   -7.6979014    337.53549   0.01433637  0.012726203         3982 
 1963000   0.46879873   -7.7073555    337.78286  0.014339568  0.012715765         3958 
 1964000   0.47266641    -7.697574    337.36094  0.014314364   0.01270533         3962 
 1965000    0.4712429   -7.7101448    337.55048  0.014315118  0.012694917         3962 
 1966000   0.47553033   -7.6995331    336.97429  0.014283414   0.01268451         3971 
 1967000   0.46611052   -7.7098589    337.82582  0.014312227  0.012674114         3968 
 1968000   0.46724496   -7.6902881    337.14081  0.014275949  0.012663724         3968 
 1969000   0.46779406   -7.6897536    337.54648  0.014285867  0.012653349         3963 
 1970000   0.46454059   -7.6984449    337.07686  0.014258751  0.012642984         3960 
 1971000   0.46137813   -7.7032535    337.44304  0.014266998  0.012632626         3974 
 1972000   0.46082451   -7.6997195    337.45485  0.014260262  0.012622281         3969 
 1973000   0.47267903   -7.7126528    337.52584  0.014256033  0.012611956         3960 
 1974000   0.47132488   -7.7162909    337.83974  0.014262063  0.012601634         3970 
 1975000   0.46369456   -7.7080314    337.58838  0.014244235  0.012591325         3974 
 1976000   0.44705311   -7.7146824    337.22822  0.014221838  0.012581026         3965 
 1977000   0.46115531    -7.704436    336.88493  0.014200174  0.012570737         3963 
 1978000   0.46669892   -7.7139699    336.89925  0.014193598  0.012560457         3975 
 1979000   0.46714886   -7.7177046    337.21738  0.014199822  0.012550184         3977 
 1980000   0.45952359   -7.7026214    337.21105  0.014192384  0.012539928         3968 
 1981000   0.47636952   -7.7148793    337.72487  0.014206834  0.012529686         3967 
 1982000   0.46718668   -7.7054152    337.32382  0.014182804   0.01251945         3972 
 1983000   0.47147513   -7.7059565    337.26882  0.014173341  0.012509219         3958 
 1984000   0.45344589   -7.7093594    337.79666  0.014188368  0.012499005         3980 
 1985000   0.45586706   -7.7295518     337.1606  0.014154517  0.012488796         3958 
 1986000   0.45416994   -7.7039942    336.86055    0.0141348  0.012478601         3976 
 1987000   0.45533937   -7.7138169    337.43658  0.014151845  0.012468421         3958 
 1988000      0.45878   -7.7154235    337.24801  0.014136821  0.012458253         3962 
 1989000   0.45147853   -7.7048116    337.05082  0.014121452  0.012448089         3963 
 1990000   0.45513025   -7.7096991    337.70006  0.014141544  0.012437941         3961 
 1991000   0.44985046   -7.7089471    336.65171  0.014090562    0.0124278         3970 
 1992000   0.45480593   -7.7189456      337.211  0.014106886  0.012417667         3975 
 1993000    0.4730001   -7.7172336    337.14253  0.014096945  0.012407552         3973 
 1994000    0.4617078   -7.6996475    336.99634  0.014083765   0.01239744         3963 
 1995000   0.44977375   -7.7253626    337.21127  0.014085684  0.012387341         3971 
 1996000   0.46804377   -7.7368019    337.73672  0.014100565  0.012377257         3965 
 1997000   0.45512006   -7.7084704    336.88993  0.014058168  0.012367177         3969 
 1998000   0.46320629    -7.715937    337.14298  0.014061686  0.012357109         3977 
 1999000   0.45919834   -7.7048903    337.17641  0.014056045  0.012347057         3966 
 2000000   0.45831125   -7.7294177    337.44744   0.01406031  0.012337016         3973 
 2001000    0.4526401   -7.7096012    336.85192  0.014028482  0.012326987         3976 
 2002000   0.45877029   -7.7166308    337.24211  0.014037717  0.012316965         3970 
 2003000   0.45140784   -7.7280669    337.26972  0.014031857  0.012306954         3974 
 2004000   0.44630776   -7.7144843    337.10438   0.01401798  0.012296955         3970 
 2005000   0.45058079   -7.7080703    337.22013  0.014015799  0.012286961         3974 
 2006000   0.44238144   -7.7081367    336.64825  0.013985055   0.01227698         3964 
 2007000   0.44838628   -7.7046369    337.09987  0.013996839  0.012267004         3975 
 2008000   0.45551189   -7.7340831    337.11194  0.013990369  0.012257038         3950 
 2009000    0.4583957   -7.7251757    337.13056  0.013984178  0.012247082         3969 
 2010000   0.44401711    -7.710218    336.70922  0.013959752  0.012237143         3980 
 2011000   0.45150622   -7.7348147     337.3181  0.013978042  0.012227211         3970 
 2012000   0.45565589   -7.7206722    337.06646  0.013960672  0.012217292         3964 
Loop time of 4330.13 on 48 procs for 2000000 steps with 4000 atoms

Performance: 79812.844 tau/day, 461.880 timesteps/s
99.4% CPU use with 48 MPI tasks x no OpenMP threads

MPI task timing breakdown:
Section |  min time  |  avg time  |  max time  |%varavg| %total
---------------------------------------------------------------
Pair    | 255.6      | 267.23     | 280.03     |  32.0 |  6.17
Neigh   | 26.46      | 27.017     | 27.76      |   5.2 |  0.62
Comm    | 223.42     | 243.31     | 258.51     |  50.6 |  5.62
Output  | 4.7004     | 4.7022     | 4.7337     |   0.2 |  0.11
Modify  | 3718.5     | 3739.5     | 3761.5     |  16.5 | 86.36
Other   |            | 48.32      |            |       |  1.12

Nlocal:        83.3333 ave          91 max          77 min
Histogram: 4 3 10 4 4 8 5 7 1 2
Nghost:        1748.58 ave        1765 max        1729 min
Histogram: 3 5 1 6 5 7 6 4 6 5
Neighs:        10509.1 ave       11429 max        9517 min
Histogram: 2 2 7 6 6 6 6 4 6 3
FullNghs:      21018.9 ave       22982 max       19218 min
Histogram: 3 4 6 4 9 6 7 2 5 2

Total # of neighbors = 1008907
Ave neighs/atom = 252.22675
Neighbor list builds = 108026
Dangerous builds = 0

#clear
#
#next RN
#
#jump SELF
Total wall time: 1:12:13
