
units lj                  # Use reduced LJ style units
atom_style atomic         # Uncharged point particles
atom_modify map hash      # Needed for indexing of clusters etc
                          # Used to be able to find where atoms are in relation to each other.

lattice fcc 1.0 spacing 1 1 1
Lattice spacing in x,y,z = 1.5874011 1.5874011 1.5874011
region box block 0 10 0 10 0 10 units lattice
create_box 2 box
Created orthogonal box = (0.0000000 0.0000000 0.0000000) to (15.874011 15.874011 15.874011)
  3 by 4 by 4 MPI processor grid
create_atoms 1 box
Created 4000 atoms
  using lattice units in orthogonal box = (0.0000000 0.0000000 0.0000000) to (15.874011 15.874011 15.874011)
  create_atoms CPU = 0.003 seconds
set type 1 type/fraction 2 0.46 78393
Setting atom values ...
  1843 settings made for type/fraction
mass 1 1.0
mass 2 1.0
pair_style lj/cut  3.5
pair_modify tail  yes
pair_coeff 1  1  1.0  1.0   # Intearaction between 1 and 1 set with epsilon = 1 and sigma = 1
pair_coeff 1  2  1.5  0.8
pair_coeff 2  2  0.5  0.88

write_data data.0
System init for write_data ...
Neighbor list info ...
  update every 1 steps, delay 10 steps, check yes
  max neighbors/atom: 2000, page size: 100000
  master list distance cutoff = 3.8
  ghost atom cutoff = 3.8
  binsize = 1.9, bins = 9 9 9
  1 neighbor lists, perpetual/occasional/extra = 1 0 0
  (1) pair lj/cut, perpetual
      attributes: half, newton on
      pair build: half/bin/atomonly/newton
      stencil: half/bin/3d
      bin: standard
WARNING: Not all mixed pair coeffs generated from mixing. Use write_data with 'pair ij' option to store all pair coeffs. (../write_data.cpp:312)


#############################
#   M E L T   S Y S T E M   #
#############################

velocity all create 2.4 6583654 mom yes dist gaussian # Assign velocities
                                                    # Temperature 2.4, random number seed, zero linear momentum
                                                                                # Gaussian distribution

timestep 0.002   # simulation timestep
thermo 1000       # output thermodynamic data every 1000 steps bf 100

# Define a fix  in this case with index 1 applied to all
# particles in the simulation. This fix is for simulations
# in the anisotropic NPT ensemble. Note that we use the MTK
# correction.
fix 1 all npt temp 2.4 2.4 0.1 iso 5.68 5.68 0.5 mtk yes tchain 5 pchain 5 # Use NPT ensemble
                                                                         # Set temperature and pressure and damping
                                                                         # Numbers of thermostats in chain and in barostat
run 10000          # run for 10000 steps
Per MPI rank memory allocation (min/avg/max) = 3.642 | 3.644 | 3.648 Mbytes
Step Temp E_pair E_mol TotEng Press Volume 
       0          2.4   -5.5244938            0   -1.9253938   -4.2019961         4000 
    1000    2.3483992   -4.9579512            0   -1.4362331     5.792138    3760.3444 
    2000    2.3727751   -4.9825697            0   -1.4242969    5.6833864    3763.5881 
    3000    2.3511513    -4.966397            0   -1.4405517    5.6310753    3775.2637 
    4000    2.3679614   -4.9436317            0   -1.3925776    5.4306835    3793.9079 
    5000    2.3804378   -4.9932291            0   -1.4234651    5.5537162    3763.9541 
    6000    2.4367756   -4.9681457            0   -1.3138961     5.979607    3752.1832 
    7000    2.4170304   -4.9637841            0   -1.3391448    5.7877127    3768.2464 
    8000    2.4196232   -4.9120297            0   -1.2835023    6.2662576    3755.0705 
    9000    2.4147628   -5.0310337            0   -1.4097951    5.5357556     3754.327 
   10000    2.4217065   -4.9337617            0     -1.30211    5.8090467    3774.7422 
Loop time of 2.61882 on 48 procs for 10000 steps with 4000 atoms

Performance: 659838.844 tau/day, 3818.512 timesteps/s
99.6% CPU use with 48 MPI tasks x no OpenMP threads

MPI task timing breakdown:
Section |  min time  |  avg time  |  max time  |%varavg| %total
---------------------------------------------------------------
Pair    | 1.1378     | 1.2187     | 1.3994     |   3.7 | 46.54
Neigh   | 0.21207    | 0.22009    | 0.2484     |   1.1 |  8.40
Comm    | 0.71754    | 0.89772    | 0.97893    |   5.2 | 34.28
Output  | 0.00024213 | 0.00024914 | 0.00040907 |   0.0 |  0.01
Modify  | 0.23329    | 0.26696    | 0.33021    |   4.8 | 10.19
Other   |            | 0.01512    |            |       |  0.58

Nlocal:        83.3333 ave          91 max          75 min
Histogram: 2 4 3 5 6 7 9 6 5 1
Nghost:        1706.92 ave        1735 max        1666 min
Histogram: 1 1 1 3 9 11 10 6 4 2
Neighs:        10113.6 ave       11369 max        8727 min
Histogram: 2 1 5 6 8 6 8 7 4 1

Total # of neighbors = 485455
Ave neighs/atom = 121.36375
Neighbor list builds = 908
Dangerous builds = 213

# Equilibrate just above the melting temperature to avoid step fn in T

fix 1 all npt temp 1.25 1.25 0.1 iso 5.68 5.68 0.5 mtk yes tchain 5 pchain 5
run 2000
Per MPI rank memory allocation (min/avg/max) = 3.644 | 3.645 | 3.649 Mbytes
Step Temp E_pair E_mol TotEng Press Volume 
   10000    2.4217065   -4.9337617            0     -1.30211    5.8090467    3774.7422 
   11000    1.2551697   -7.0394828            0   -5.1571989    5.8745403    2953.1485 
   12000     1.273791   -7.0855291            0   -5.1753202    5.7123707    2949.6881 
Loop time of 0.611712 on 48 procs for 2000 steps with 4000 atoms

Performance: 564971.935 tau/day, 3269.514 timesteps/s
99.7% CPU use with 48 MPI tasks x no OpenMP threads

MPI task timing breakdown:
Section |  min time  |  avg time  |  max time  |%varavg| %total
---------------------------------------------------------------
Pair    | 0.27174    | 0.30137    | 0.32703    |   2.2 | 49.27
Neigh   | 0.039941   | 0.042002   | 0.044323   |   0.6 |  6.87
Comm    | 0.19412    | 0.22167    | 0.25581    |   2.9 | 36.24
Output  | 5.0144e-05 | 5.1771e-05 | 6.5963e-05 |   0.0 |  0.01
Modify  | 0.039207   | 0.041953   | 0.044519   |   0.8 |  6.86
Other   |            | 0.004665   |            |       |  0.76

Nlocal:        83.3333 ave          91 max          73 min
Histogram: 1 2 2 8 2 9 10 5 6 3
Nghost:        2016.83 ave        2037 max        1988 min
Histogram: 1 2 4 10 2 5 6 7 3 8
Neighs:        12944.8 ave       14489 max       11076 min
Histogram: 2 4 2 6 2 9 11 6 4 2

Total # of neighbors = 621350
Ave neighs/atom = 155.33750
Neighbor list builds = 143
Dangerous builds = 7

#############################
# L I N E A R  Q U E N C H  #
#############################

# Define solid atoms. This closely follows ten Wolde  Ruiz-Montero and Frenkel  Faraday Discuss  1996  104  93-110
# Compute components of the per-atom q6 vector
compute q6 all orientorder/atom degrees 1 6 components 6 nnn NULL cutoff 1.3 # compute the Q6 parameter.
                                                                             # Use all neighbours within 1.3 unit cell.

# get number of connections
compute coord_number all coord/atom orientorder q6 0.5

# An atom is solid if it has 8 or more connections (of a possible 14)
variable is_solid atom c_coord_number>=8
group solid dynamic all var is_solid    # Must be dynamic to update
dynamic group solid defined

# do clustering
compute cluster solid cluster/atom 1.3 # Create a cluster where all atoms within are solid and max 1.3 units from another member

# define chunks one chunk per cluster
compute clus_chunks solid chunk/atom c_cluster nchunk every compress yes  # Says which atoms are in which chunk

# count the size of each chunk
compute size_chunks solid property/chunk clus_chunks count


# Find the maximum entry in the vector of chunk sizes
variable max_n equal max(c_size_chunks)


# Thermo style which includes this variable
# thermo_style custom step temp pe vol v_max_n

thermo ${N}  # Print the thermo information every 100 steps
thermo 1000  

# Reset the npt fix at a lower temperature (below freezing)
fix 1  all npt temp  ${temp} ${temp}  0.1  iso  5.68  5.68  0.5  mtk yes tchain  5  pchain  5
fix 1  all npt temp  0.45 ${temp}  0.1  iso  5.68  5.68  0.5  mtk yes tchain  5  pchain  5
fix 1  all npt temp  0.45 0.45  0.1  iso  5.68  5.68  0.5  mtk yes tchain  5  pchain  5

dump dmp2 all dcd ${N} traj.dcd
dump dmp2 all dcd 1000 traj.dcd


compute msd all msd com yes
variable twopoint equal c_msd[4]/6/(step*dt+1.0e-6)
fix 9 all vector 10 c_msd[4]
variable fit equal slope(f_9)/6/(10*dt)
thermo_style custom step temp pe c_msd[4] v_twopoint v_fit v_max_n

fix 1 all npt temp 1.25 ${temp} 0.1 iso 5.68 5.68 0.5 mtk yes tchain 5 pchain 5
fix 1 all npt temp 1.25 0.45 0.1 iso 5.68 5.68 0.5 mtk yes tchain 5 pchain 5
run 500000 # 5000000  # Run for this many steps
Neighbor list info ...
  update every 1 steps, delay 10 steps, check yes
  max neighbors/atom: 2000, page size: 100000
  master list distance cutoff = 3.8
  ghost atom cutoff = 3.8
  binsize = 1.9, bins = 8 8 8
  4 neighbor lists, perpetual/occasional/extra = 1 3 0
  (1) pair lj/cut, perpetual
      attributes: half, newton on
      pair build: half/bin/atomonly/newton
      stencil: half/bin/3d
      bin: standard
  (2) compute orientorder/atom, occasional
      attributes: full, newton on
      pair build: full/bin/atomonly
      stencil: full/bin/3d
      bin: standard
  (3) compute coord/atom, occasional
      attributes: full, newton on
      pair build: full/bin/atomonly
      stencil: full/bin/3d
      bin: standard
  (4) compute cluster/atom, occasional
      attributes: full, newton on
      pair build: full/bin/atomonly
      stencil: full/bin/3d
      bin: standard
Per MPI rank memory allocation (min/avg/max) = 9.831 | 9.838 | 9.844 Mbytes
Step Temp PotEng c_msd[4] v_twopoint v_fit v_max_n 
   12000     1.273791   -7.0855291  9.74046e-31 6.7642081e-33 8.3333333e+20            1 
   13000    1.2546202   -7.1127752   0.47652152  0.003054625  0.039657824            2 
   14000    1.2448435   -7.1229359   0.90228463 0.0053707417  0.036980059            1 
   15000    1.2570214   -7.1591903    1.2906335 0.0071701861  0.035482381            1 
   16000    1.2724494   -7.1607902    1.7219902 0.0089686987  0.034827159            2 
   17000    1.2504089   -7.1263627    2.1175922  0.010380354  0.034641699            2 
   18000    1.2232057   -7.1595912    2.4752568  0.011459522  0.033944989            3 
   19000    1.2462503    -7.157265      2.84459  0.012476271  0.033348753            1 
   20000    1.2349058   -7.1496727    3.2535706  0.013556544   0.03317586            1 
   21000    1.2674579   -7.1812798     3.682318  0.014612373  0.033201719            1 
   22000     1.250016   -7.2055121    4.0101836  0.015190089  0.033018713            1 
   23000    1.2315274    -7.206999    4.4432246   0.01609864  0.032871728            1 
   24000    1.2497358   -7.1834051    4.7793588  0.016594995  0.032813379            2 
   25000    1.2546648   -7.1985944    5.1670956  0.017223652  0.032731261            1 
   26000    1.2273578   -7.1606731    5.5790032   0.01788142  0.032635558            4 
   27000     1.207087   -7.1713014    5.9791363  0.018454124  0.032541669            2 
   28000    1.2571031   -7.1865889    6.3211895  0.018813064  0.032464162            2 
   29000     1.217748    -7.248707    6.6684233  0.019162136  0.032379825            6 
   30000    1.2323992   -7.2068795    7.0554371  0.019598436  0.032266083            2 
   31000    1.2121005    -7.202359    7.3839609  0.019849357  0.032113044            1 
   32000    1.2537388   -7.1928004      7.68963  0.020025078  0.031975338            2 
   33000    1.2106956   -7.2484314    8.0092114  0.020225281  0.031771461            1 
   34000    1.2056912   -7.1830906     8.394228  0.020574088  0.031636471            2 
   35000    1.2104678   -7.2249665    8.7320146  0.020790511  0.031503771            2 
   36000    1.2244146   -7.2656335    9.0449361  0.020937352  0.031356936            2 
   37000    1.2244858   -7.2168812    9.4736599  0.021337072  0.031213909            1 
   38000     1.232545   -7.2036577    9.7851616  0.021458688  0.031130379            2 
   39000    1.1981124   -7.2754826    10.161436  0.021712469  0.031042326            1 
   40000    1.2127203   -7.2318289    10.556839  0.021993415   0.03093824            1 
   41000    1.2004167   -7.2791571    10.974832  0.022306569   0.03091679            2 
   42000    1.2021603   -7.2771523    11.402034  0.022623084  0.030918044            1 
   43000     1.197741   -7.2519003    11.683126  0.022641717  0.030885961            3 
   44000    1.2113713   -7.2694379    12.290282   0.02327705  0.030909588            2 
   45000    1.2067571   -7.2554478    12.626639  0.023382664  0.030973653            1 
   46000    1.2126322   -7.3004397    12.878321  0.023330291  0.030975881            1 
   47000    1.2055925   -7.2887225    13.161244  0.023335539   0.03092574            5 
   48000    1.1691092   -7.3075243    13.575743  0.023568997  0.030899968            4 
   49000    1.1906698   -7.2814053    13.837073  0.023532437  0.030873961            2 
   50000    1.2145726   -7.3154018      14.0936  0.023489334  0.030813011            1 
   51000    1.2007609   -7.3364742     14.47636  0.023654183  0.030745214            4 
   52000    1.2009162   -7.2864277    14.898246  0.023875393   0.03070584            3 
   53000     1.167417   -7.3232856    14.915324  0.023451768  0.030622265            2 
   54000    1.1532405   -7.2607173    15.367345  0.023715039  0.030505908            2 
   55000    1.2024188   -7.3278559    15.559871  0.023575563  0.030396802            2 
   56000    1.1890821   -7.3354302    15.956413  0.023744663  0.030285746            1 
   57000    1.2074044   -7.3269399    16.335289  0.023882001  0.030207445            3 
   58000    1.2153004   -7.3518035    16.649092   0.02392111  0.030126349            1 
   59000    1.1719024   -7.3101985    17.057312  0.024092249  0.030050992            4 
   60000    1.1773744   -7.3361873    17.401124  0.024168227  0.029980742            1 
   61000    1.1701268   -7.3436455    17.580619  0.024017239  0.029896192            1 
   62000    1.1482519   -7.3687479    17.783698   0.02390282  0.029794387            2 
   63000    1.1682961   -7.3581461    18.092698   0.02393214  0.029692697            2 
   64000    1.1788671   -7.3534817    18.456705  0.024032168  0.029597824            5 
   65000    1.1656967   -7.3729513    18.762349  0.024054293  0.029510809            2 
   66000    1.1561234   -7.3510775    19.151318  0.024180957  0.029430067            1 
   67000    1.1732454   -7.3658193    19.367456  0.024088875  0.029340509            1 
   68000    1.1420208    -7.375996    19.680106  0.024117777   0.02925401            1 
   69000     1.141748   -7.3497186    19.986988  0.024138874  0.029166081            3 
   70000    1.1543754   -7.3759125    20.305476  0.024173186    0.0290819            2 
   71000    1.1505488   -7.3773524     20.51315  0.024076467  0.028989301            2 
   72000    1.1428604   -7.3818252    20.828735  0.024107332  0.028902221            2 
   73000    1.1687647   -7.3742076    21.052515  0.024032551   0.02881342            2 
   74000    1.1466569   -7.3438891     21.43294  0.024136194  0.028729095            1 
   75000    1.1562183   -7.3865873    21.664274  0.024071416  0.028643383            2 
   76000    1.1369111   -7.4092738    22.143555  0.024280213  0.028575822            2 
   77000    1.1508683   -7.4083467    22.493483  0.024343597  0.028507444            1 
   78000    1.1749821   -7.4304183    22.758989  0.024315159  0.028440133            2 
   79000    1.1602756   -7.4550307    22.925545  0.024183064  0.028368854            2 
   80000    1.1292569   -7.4231378    23.269449  0.024239009  0.028294035            3 
   81000      1.14679   -7.3640935    23.677219  0.024359278  0.028225504            1 
   82000    1.1461335   -7.4067212    23.822928  0.024210293  0.028161279            2 
   83000     1.129509   -7.4649304    23.949051  0.024045231  0.028084959            3 
   84000    1.1566283   -7.4539258    24.318735  0.024125729   0.02800904            1 
   85000    1.1488625   -7.4031107    24.679084  0.024195181  0.027939357            2 
   86000    1.1468969   -7.4357075    24.901307  0.024129174  0.027873975            1 
   87000    1.1373416   -7.3938339    25.182887   0.02412154  0.027803706            2 
   88000     1.136835   -7.4385365    25.370519  0.024025112  0.027728741            2 
   89000    1.1214002   -7.4229206    25.593059  0.023963538  0.027645415            1 
   90000    1.1190797   -7.4755464    25.805625  0.023894097  0.027568581            1 
   91000    1.0904546    -7.486565    25.952547  0.023766069  0.027482249            3 
   92000     1.142492   -7.4177163    26.311423  0.023832811  0.027392297            4 
   93000    1.1287307   -7.4849296    26.568372  0.023806784  0.027308102            4 
   94000    1.1471885   -7.4756126    26.873378  0.023823917  0.027227169            4 
   95000    1.1142308   -7.4849554    27.209951  0.023868378  0.027152995            2 
   96000    1.1280303   -7.4398508    27.379416  0.023766854  0.027078359            5 
   97000      1.10002   -7.5022052    27.564139  0.023680532  0.026995955            4 
   98000    1.1187316   -7.4993041     27.66429  0.023524056  0.026903347            4 
   99000    1.1124677   -7.4668541    28.014614  0.023581325  0.026818984            2 
  100000    1.1062976   -7.5103267    28.272466  0.023560389  0.026737604            3 
  101000     1.140532   -7.4950583    28.439571  0.023464992   0.02665596            3 
  102000    1.1148419   -7.4868918    28.530255  0.023309032  0.026567783            1 
  103000     1.125432   -7.4954382     28.81992  0.023317087  0.026476819            3 
  104000    1.1185077   -7.4943675    29.142563  0.023351412  0.026393245            2 
  105000    1.0903084   -7.5337511    29.439204  0.023364447  0.026311038            3 
  106000    1.1128832   -7.5364311    29.508874    0.0231988  0.026226302            2 
  107000    1.0841234   -7.5479808    29.623452  0.023071224  0.026138564            2 
  108000    1.1153496   -7.5135429    30.030724  0.023171855  0.026050184            2 
  109000    1.1071049   -7.5113103    30.371828  0.023220052  0.025968198            2 
  110000    1.1095898   -7.5589014    30.603205  0.023184246  0.025894277            5 
  111000     1.071399      -7.5536    30.724751   0.02306663  0.025819264            3 
  112000    1.0989165    -7.594334    30.987811  0.023056407   0.02574184            2 
  113000    1.1022798   -7.5579297    31.353902  0.023122346   0.02566748            1 
  114000    1.0937528   -7.5295964    31.531405  0.023049272  0.025593705            3 
  115000    1.0806266   -7.5758024    31.798701  0.023042537  0.025521984            2 
  116000    1.0791095   -7.5424512     31.92671  0.022935855  0.025448628            3 
  117000    1.0681842   -7.5491223    32.227451  0.022954024  0.025374303            1 
  118000     1.078402   -7.5978172    32.338738  0.022838092  0.025300212            3 
  119000    1.0728684   -7.4731737    32.724886  0.022916587  0.025226843            1 
  120000    1.1004929   -7.5469428    32.965812  0.022892925  0.025156357            4 
  121000    1.0883759   -7.5450922    33.254547   0.02290258  0.025091749            1 
  122000    1.0881424   -7.5922513     33.34898  0.022779358  0.025025806            2 
  123000    1.0678391   -7.5914262    33.719827  0.022845411  0.024959882            3 
  124000    1.0810947   -7.5932746    33.928313  0.022801286   0.02489623            3 
  125000    1.0653116   -7.5977718    34.022027  0.022681351   0.02483118            3 
  126000    1.0546676   -7.5809359    34.214874  0.022628885  0.024762164            1 
  127000    1.0484883   -7.5761362    34.449697  0.022604788  0.024695626            2 
  128000    1.0353891   -7.5988774    34.697159  0.022589296  0.024633099            3 
  129000    1.0539343   -7.6209434    34.987975  0.022602051  0.024568258            2 
  130000    1.0325041   -7.5929486    35.165231  0.022541815  0.024504198            2 
  131000    1.0600117   -7.6117594    35.496152   0.02258025  0.024441454            4 
  132000    1.0625376   -7.5872479    35.637614  0.022498493  0.024379659            1 
  133000    1.0715321   -7.6420141    35.731758   0.02238832  0.024316903            5 
  134000     1.063078   -7.6072638    36.076504  0.022435637  0.024254094            4 
  135000    1.0373162   -7.6581802    36.218653  0.022357193  0.024193673            5 
  136000    1.0418429   -7.6276646    36.463033  0.022342545   0.02413078            2 
  137000    1.0796438   -7.6363059    36.500031  0.022201965    0.0240693            2 
  138000    1.0453752    -7.641617    36.995276  0.022340143  0.024008294            2 
  139000    1.0604507   -7.6361559    37.052962  0.022214006  0.023950519            2 
  140000    1.0307797   -7.6406237    37.265716  0.022181974  0.023890742            2 
  141000    1.0332057    -7.652621    37.321232  0.022057465  0.023828905            3 
  142000    1.0537172   -7.6852581    37.493561  0.022003263  0.023765648            3 
  143000    1.0376508   -7.6938954    37.728444  0.021986273  0.023702593            1 
  144000    1.0501284   -7.6611075    37.996012  0.021988433  0.023643264            2 
  145000    1.0301132   -7.6774875    38.148527   0.02192444  0.023580819            2 
  146000     1.030189   -7.6803075      38.4432  0.021942466  0.023520514            4 
  147000    1.0176002   -7.6931976    38.541446  0.021848892   0.02346108            3 
  148000    1.0312539   -7.7354455    38.767292   0.02182843  0.023401484            3 
  149000    1.0225547   -7.6949881    39.014149  0.021819994  0.023342636            2 
  150000    1.0301427   -7.7032834    39.219752  0.021788751  0.023286813            3 
  151000    1.0338677   -7.6992048    39.399696  0.021743761  0.023229709            2 
  152000    1.0049508   -7.6990175    39.598268  0.021709577  0.023172528            2 
  153000    1.0335326   -7.7466777    39.609599  0.021573855   0.02311324            5 
  154000     1.019394   -7.7234094    39.835954  0.021556252  0.023053843            1 
  155000    1.0058248   -7.7073929     40.04731  0.021530812  0.022994238            5 
  156000    1.0288133   -7.7172674    40.129946  0.021436937   0.02293331            7 
  157000    1.0022059   -7.7374704    40.140359  0.021305923  0.022870511            5 
  158000    1.0053872   -7.7396141    40.254242   0.02123114  0.022805332            4 
  159000    1.0289207   -7.7133127    40.550798  0.021253039  0.022741631            1 
  160000    1.0320504   -7.7270702    40.705398  0.021200728  0.022677439            2 
  161000    1.0197579   -7.7714807    40.857267  0.021147654   0.02261278            3 
  162000    1.0276017   -7.7368693    41.009397  0.021095369  0.022549513            1 
  163000    1.0216021   -7.7430847    41.212612  0.021069843  0.022485828            3 
  164000    1.0212744   -7.7864307     41.25753  0.020964192  0.022423458            2 
  165000    1.0101846   -7.7239071    41.528895   0.02097419  0.022361047            2 
  166000    1.0151076   -7.7291616    41.836593  0.021002306  0.022300748            2 
  167000     1.021999   -7.7636415    41.896952  0.020906662  0.022239183            2 
  168000     1.020266   -7.7796622    42.067166   0.02086665  0.022178655            3 
  169000   0.99998995   -7.7618492    42.263154   0.02083982  0.022118469            3 
  170000    1.0076524   -7.7707473     42.30426  0.020737382  0.022057395            3 
  171000   0.97454545   -7.7966864    42.493023  0.020708101   0.02199592            2 
  172000   0.99602788   -7.8064435    42.623897  0.020651113  0.021934448            2 
  173000   0.98367746   -7.7915441    42.845559  0.020638516  0.021874017            2 
  174000   0.97829642   -7.8417154    43.042237  0.020614098    0.0218147            1 
  175000   0.98995064   -7.8299569    43.168853  0.020556597  0.021755725            3 
  176000   0.98671952   -7.8094746    43.421947  0.020559634  0.021697148            4 
  177000   0.97747134   -7.8179513    43.586797  0.020521091  0.021640123            2 
  178000   0.99344433   -7.7787053    43.736471  0.020475876  0.021583364            4 
  179000   0.96287224   -7.8374182    43.825218  0.020402802  0.021526796            2 
  180000   0.98025986   -7.8557812    44.083887  0.020409207  0.021470524            3 
  181000   0.98668872   -7.8377085    44.244232  0.020370273  0.021414795            3 
  182000   0.98825552   -7.8511749    44.228533   0.02025116  0.021357764            4 
  183000   0.97789346   -7.8773738    44.238056  0.020144834  0.021299609            5 
  184000   0.98228032    -7.828369    44.365384  0.020093018  0.021239901            3 
  185000   0.96715952   -7.8481555    44.399575  0.019999808  0.021179536            2 
  186000   0.97172069   -7.8232778    44.626022  0.019993737  0.021117647            2 
  187000   0.97201259   -7.8483993     44.61826   0.01988336  0.021056838            2 
  188000   0.95344796   -7.8835081    44.598468  0.019768824   0.02099387            6 
  189000   0.94901678   -7.8890996    44.755267  0.019733363  0.020930118            2 
  190000    0.9789046   -7.8777126    44.807389  0.019652364  0.020865247            2 
  191000   0.96926348   -7.8771324    45.021649  0.019642953  0.020800554            3 
  192000   0.96392307   -7.8678869    45.185041  0.019611563  0.020737233            5 
  193000   0.96961336   -7.9119492    45.358857  0.019584999  0.020675039            7 
  194000   0.97077363   -7.9179642    45.504653  0.019546672  0.020613639            3 
  195000   0.93134721   -7.9219619    45.479295  0.019435596  0.020552603            3 
  196000   0.95131873   -7.9371483    45.506866  0.019348157  0.020489756            2 
  197000   0.93321989   -7.9299347    45.636041  0.019304586  0.020424858            2 
  198000   0.98133087   -7.9261465    45.661723  0.019217897  0.020359843            6 
  199000   0.95094069   -7.9369282    45.776028  0.019169191  0.020294803            5 
  200000   0.94079048   -7.8974358     45.93128  0.019138033  0.020230465            2 
  201000   0.95319837   -7.8996705    46.128622  0.019124636  0.020167466            4 
  202000    0.9306393   -7.9189889    46.108751  0.019021762  0.020104064            2 
  203000   0.96190005   -7.9323197    46.278346  0.018997679  0.020040468            2 
  204000   0.94207084   -7.9110617    46.474746  0.018984782  0.019978293            5 
  205000   0.94867701   -7.9197038    46.457706  0.018885246  0.019915119            3 
  206000   0.93411333   -7.9329995    46.436503  0.018784993  0.019851431            3 
  207000   0.94933863   -7.9723524    46.492943  0.018716966  0.019786729            3 
  208000   0.93355877   -7.9418358    46.587676  0.018664934  0.019721711            3 
  209000   0.93327171    -7.985432    46.770065  0.018648351  0.019657643            2 
  210000   0.93628391   -7.9691669     46.76529  0.018557655  0.019593248            2 
  211000    0.9387362   -7.9783142    46.930589  0.018534988  0.019529499            3 
  212000   0.90696899   -7.9797602    47.083046  0.018507487  0.019465426            4 
  213000   0.93175674   -7.9788371    47.208151  0.018469543  0.019402755            6 
  214000   0.93517947   -7.9371945    47.328831   0.01843023  0.019339935            5 
  215000   0.93027564    -7.941697    47.441709  0.018388259  0.019277841            2 
  216000   0.92861196   -7.9716322    47.462883  0.018311297  0.019216128            4 
  217000   0.91766643   -7.9772062    47.621785  0.018287936  0.019154117            3 
  218000   0.92402687   -8.0004083     47.64398   0.01821253  0.019091609            2 
  219000   0.88906756   -8.0187535    47.772604  0.018178312  0.019029692            3 
  220000   0.92220322   -8.0287377    47.869017  0.018132204  0.018967662            4 
  221000   0.93116909   -8.0607139    47.836375  0.018037849  0.018905024            3 
  222000   0.92758147    -8.045976    47.743795  0.017921845  0.018841947            3 
  223000   0.92565383   -8.0238747      47.9988  0.017936771  0.018779088            4 
  224000   0.93147835   -8.0228126     47.93483  0.017832898  0.018716241            4 
  225000   0.90484956   -8.0413319    47.988096  0.017773369  0.018653316            1 
  226000   0.90950258   -8.0219351    48.165802  0.017760251  0.018590656            2 
  227000   0.91852944   -8.0490333    48.074314  0.017648427  0.018528152            3 
  228000   0.91978643   -8.0438405    48.249417  0.017635021  0.018464662           10 
  229000     0.914878   -8.0427028    48.334751  0.017589065  0.018401587            3 
  230000    0.9038358   -8.0464074    48.388331  0.017532004  0.018338829            1 
  231000   0.91543286   -8.0574603    48.316893  0.017430337  0.018275723            6 
  232000   0.90605652   -8.0384195     48.60428  0.017458434  0.018213464            4 
  233000   0.89498074   -8.0678155    48.733924  0.017429873  0.018151696            6 
  234000    0.8865663   -8.0754101    48.557427  0.017292531  0.018088935            3 
  235000   0.89195772    -8.085775    48.605355  0.017235941  0.018025833            5 
  236000   0.90511158   -8.0865489    48.724194  0.017204871  0.017963369            4 
  237000   0.88476059   -8.1255761    48.739269  0.017137577   0.01790093            2 
  238000   0.90956656   -8.1263364    48.812127  0.017091081  0.017838281            7 
  239000   0.86904447   -8.1028593     48.74517  0.016996224  0.017775965            2 
  240000   0.90533747   -8.1218735    48.793968   0.01694235  0.017713377            7 
  241000    0.8711863   -8.1358187    48.886722  0.016904122  0.017650629            5 
  242000   0.87319526    -8.098885    49.055071  0.016892242  0.017588562            2 
  243000   0.87476408   -8.1223205    49.187441  0.016868121  0.017527218            5 
  244000   0.88103843   -8.0888712     49.46041  0.016892217  0.017467058            2 
  245000   0.86591156   -8.0837997    49.574362  0.016862028  0.017407881            4 
  246000   0.86109552   -8.0822948     49.57696  0.016794363  0.017349961            2 
  247000   0.87826196   -8.1232375    49.675725  0.016759691  0.017291488            4 
  248000   0.87664259   -8.1235074    49.557271  0.016652309   0.01723263            6 
  249000   0.88620254   -8.1111375    49.878542  0.016692952   0.01717458           10 
  250000   0.85852789   -8.1224216    49.801713  0.016600571   0.01711647            2 
  251000   0.85668381   -8.1527279    49.825935  0.016542475  0.017058422            9 
  252000    0.8592818   -8.1729496    49.946365  0.016516655  0.017000653            5 
  253000   0.86996015   -8.1608616    49.959132  0.016455577  0.016943655            3 
  254000   0.86648585   -8.1576176     50.13728  0.016449239  0.016886741            8 
  255000   0.85521751   -8.1631288    50.189775  0.016401887  0.016830125           11 
  256000   0.87114163   -8.1607664    50.164666  0.016329644   0.01677329            8 
  257000   0.86085047   -8.1922314    50.117273  0.016250737  0.016716435            3 
  258000   0.84385089   -8.1892925    50.403572  0.016280223  0.016659723            8 
  259000   0.85557876   -8.1744281    50.378743  0.016209377   0.01660355            3 
  260000   0.85792073   -8.1644092     50.51293  0.016190042  0.016548072            5 
  261000   0.84352733   -8.1616086    50.484005  0.016118775  0.016492849            1 
  262000   0.84173351   -8.1525376    50.526723  0.016070841  0.016437693            4 
  263000   0.85125769   -8.1562267    50.620712  0.016039516  0.016383046            5 
  264000    0.8532722   -8.1910695    50.799385  0.016035159  0.016328535            3 
  265000    0.8522639   -8.1961361    50.776213  0.015967363  0.016274801            7 
  266000   0.84931133   -8.1939961    51.016757  0.015982693  0.016221339            7 
  267000   0.82730236   -8.2094525    51.025145  0.015925451    0.0161676            4 
  268000   0.82869541   -8.2063773    51.014361  0.015862674  0.016114442            4 
  269000   0.82577294   -8.2155667    51.169273  0.015851695  0.016061296            7 
  270000   0.83540464   -8.2298996    50.998967  0.015740422  0.016007909            5 
  271000   0.83245371   -8.2383332    51.297958   0.01577428  0.015955231            5 
  272000   0.84773826    -8.220058    51.282349  0.015711504  0.015902962            5 
  273000   0.84465838   -8.2220785    51.372733  0.015681543  0.015850921            4 
  274000     0.829857   -8.2116071    51.418393  0.015638197  0.015798928            6 
  275000    0.8377575   -8.2588563    51.359958  0.015563624  0.015746752            4 
  276000   0.83867919    -8.239883    51.446956  0.015533501  0.015695103            7 
  277000   0.81339235   -8.2350683    51.442588   0.01547611  0.015643546            6 
  278000   0.84072503   -8.2553052    51.247407  0.015361932   0.01559136            2 
  279000   0.79795337   -8.3068816    51.259436  0.015310465  0.015539142            4 
  280000   0.82191327     -8.26469    51.540884  0.015339549  0.015487138            2 
  281000   0.82279921   -8.2724438    51.580223  0.015296626  0.015435751            2 
  282000   0.81416921   -8.2750437    51.595432  0.015246877  0.015384611            5 
  283000   0.80207732   -8.2792436    51.634036  0.015204369   0.01533373            3 
  284000    0.8236345   -8.2846453    51.584262  0.015136227  0.015282903            5 
  285000   0.82328358   -8.2867083    51.700617  0.015117139  0.015231775            4 
  286000   0.79622243    -8.295853     51.85624  0.015109627  0.015181057            5 
  287000   0.81189346   -8.3231268     51.87375  0.015062064  0.015130866            4 
  288000    0.7999761   -8.3081705    51.915847  0.015021947  0.015081065            8 
  289000   0.80890026   -8.3224717    51.997059  0.014993385  0.015031536            3 
  290000   0.82180697   -8.3121233    52.073652  0.014963693   0.01498214            6 
  291000   0.79096071   -8.3078033    52.185645  0.014944343  0.014932985            8 
  292000   0.82310194   -8.3464383    52.024914  0.014847293  0.014883914            2 
  293000    0.8012327    -8.371273    52.093148  0.014816026  0.014834573            2 
  294000   0.80982709   -8.3304834    52.256139  0.014811831  0.014785916            4 
  295000   0.79131551   -8.3282179    52.069976  0.014709033  0.014737289            3 
  296000   0.79028245   -8.2796685    52.360377  0.014741097  0.014688662            7 
  297000   0.79786568   -8.3764452    52.241326   0.01465806  0.014640326            6 
  298000   0.79954493   -8.3636883    52.217728  0.014602273  0.014591935            4 
  299000   0.80380854   -8.3544742    52.273978  0.014569113  0.014543618            3 
  300000   0.79143009   -8.3447599    52.245098  0.014512527   0.01449492            3 
  301000   0.78631158   -8.4066155    52.285911  0.014475612  0.014446226            9 
  302000   0.79263644   -8.3778529    52.382599   0.01445436  0.014397983            4 
  303000   0.77864985    -8.386049    52.365509  0.014401955  0.014349703            3 
  304000   0.77008319   -8.3880799    52.230554  0.014317586  0.014301436            5 
  305000   0.77308988   -8.4197777    52.303021  0.014290443  0.014252957           13 
  306000   0.76126145   -8.3967509    52.363143  0.014260115  0.014204907            7 
  307000   0.76181827   -8.3905521    52.350575  0.014210254  0.014156851           16 
  308000   0.79263876   -8.4289336    52.479686  0.014199049  0.014109226           13 
  309000    0.7694022   -8.4122215    52.512111  0.014161842  0.014061627            4 
  310000   0.77073438    -8.416915    52.578001  0.014133871  0.014014257            4 
  311000   0.77490764   -8.4484944    52.397386  0.014040028  0.013966783           11 
  312000   0.76369566   -8.4111649    52.560333   0.01403855  0.013919278            8 
  313000   0.77204504   -8.4219526    52.466269  0.013968655  0.013872249            4 
  314000   0.76480835   -8.4288117    52.633043   0.01396843  0.013825288            7 
  315000   0.77961109   -8.4549013    52.557059  0.013903984  0.013778161           10 
  316000   0.77785759   -8.4521246    52.505389  0.013846358  0.013731256            7 
  317000   0.74830313   -8.4435132    52.616865  0.013831984  0.013684818            8 
  318000   0.75421661   -8.4488625    52.632003  0.013792454  0.013638613            5 
  319000     0.764754   -8.4448622    52.523181  0.013720789  0.013592253            3 
  320000   0.77139214   -8.4421131    52.614399  0.013701666  0.013545966           10 
  321000   0.77747107   -8.4946276    52.555299  0.013643639  0.013499848            8 
  322000   0.74528595   -8.4447956    52.658704  0.013628029  0.013453724            5 
  323000   0.76634394   -8.4798963    52.618078  0.013575355   0.01340769            9 
  324000   0.74692269   -8.4667173    52.612246  0.013531956  0.013361654           12 
  325000   0.76127228   -8.4600946     52.61543  0.013491136  0.013315322            6 
  326000    0.7604293   -8.4816598    52.636415  0.013455116  0.013269228            6 
  327000   0.75408382   -8.4629383    52.695948  0.013429141  0.013223376            6 
  328000   0.73115614   -8.4748477    52.664957  0.013380324  0.013177579            6 
  329000   0.73370573   -8.4751446    52.726428  0.013355225  0.013132144            3 
  330000   0.74384382   -8.4848775    52.762929  0.013323972   0.01308682            5 
  331000   0.72311533   -8.5163683    52.668585  0.013259966  0.013041447            4 
  332000   0.75023862   -8.4944914    52.632751  0.013211032  0.012995931            3 
  333000    0.7492042   -8.5216795    52.647054  0.013174938  0.012950462            5 
  334000   0.71508987   -8.5342058    52.670447  0.013141329   0.01290517            5 
  335000   0.71886926   -8.5207874    52.605688  0.013085992  0.012860001            4 
  336000   0.71295898   -8.5266183    52.643549  0.013056436  0.012814887            3 
  337000   0.71652651   -8.5311603    52.564688  0.012998192  0.012769455            6 
  338000   0.72291886   -8.5169652     52.51367  0.012947157  0.012724228            4 
  339000   0.73003912   -8.5001306    52.600742  0.012930369   0.01267919            5 
  340000   0.71929565   -8.5470771    52.588246  0.012889276  0.012634345            6 
  341000   0.72156539   -8.5469199    52.637696  0.012863562  0.012589847            6 
  342000   0.72121254    -8.542399    52.736215  0.012849955   0.01254551            8 
  343000   0.73272892   -8.5516592    52.743676  0.012814304  0.012501437            3 
  344000   0.73253721   -8.5439126    52.857872  0.012804717  0.012457541           16 
  345000   0.72108307   -8.5444846    52.624899  0.012711328  0.012413758            4 
  346000   0.70537726    -8.573835     52.60843  0.012670624  0.012369886            9 
  347000   0.71674355   -8.5671092    52.660248  0.012646553  0.012326001            9 
  348000   0.72289578   -8.5793251    52.512955  0.012574941  0.012282268           12 
  349000   0.70322329   -8.5850991     52.63448  0.012567927  0.012238588           14 
  350000   0.71400726   -8.5855915    52.565472  0.012515589  0.012195063           13 
  351000   0.69649364   -8.6080376    52.510408  0.012466859  0.012151504           11 
  352000   0.71828512   -8.5941808    52.534883  0.012437235  0.012108151           17 
  353000   0.70769494   -8.5991666    52.529595  0.012400754  0.012064838           15 
  354000   0.69212487   -8.6274482    52.640593  0.012391853  0.012021799           11 
  355000   0.70158481   -8.5853197    52.564935  0.012339187  0.011978838           12 
  356000   0.69319131   -8.5906089    52.735012  0.012344338  0.011936116           11 
  357000    0.7111972   -8.6333745    52.576916  0.012272856  0.011893454           10 
  358000   0.67902518   -8.6227555    52.601612  0.012244323  0.011850766           11 
  359000   0.69548733   -8.6257899    52.503189   0.01218737  0.011808352            4 
  360000    0.6906821   -8.6100459    52.637807  0.012184677  0.011765939           14 
  361000   0.70628895   -8.6382999    52.546052  0.012129744   0.01172367           18 
  362000   0.69073968   -8.6192847    52.613466  0.012111755  0.011681701           11 
  363000   0.69069026   -8.6115461      52.7198  0.012102801  0.011640001            8 
  364000   0.68338417   -8.6447256    52.632441  0.012049551  0.011598431            8 
  365000   0.68771813   -8.6471603    52.622202  0.012014201  0.011556921            8 
  366000   0.70167999   -8.6215753    52.609072  0.011978386  0.011515674            7 
  367000   0.66569253   -8.6538868    52.679709  0.011961787  0.011474575            7 
  368000   0.68437456   -8.6405799    52.659974  0.011924813  0.011433495            8 
  369000    0.6867897   -8.6461059    52.724478  0.011907064  0.011392706           13 
  370000   0.69700792   -8.6513591     52.75568   0.01188191  0.011351974            9 
  371000     0.687645   -8.6546543    52.596166  0.011814053  0.011311372            5 
  372000   0.67951493   -8.6611871    52.661703  0.011796976  0.011270989            6 
  373000   0.67841528   -8.6790401    52.625822  0.011757333  0.011230805            4 
  374000   0.67126533    -8.666686    52.731364  0.011749413  0.011190772            4 
  375000   0.66300898    -8.667278    52.613897  0.011691977  0.011150831            6 
  376000   0.65612375   -8.6807839    52.688413  0.011677396  0.011111218            5 
  377000   0.67382135   -8.6943095    52.631024  0.011633737   0.01107174            3 
  378000   0.65540322   -8.6977564    52.680035  0.011613764  0.011032284            3 
  379000   0.67867966   -8.6932595    52.629094   0.01157192  0.010992996           13 
  380000   0.66484965   -8.7201195    52.583231   0.01153141   0.01095378            5 
  381000   0.64705927   -8.7191088    52.568364  0.011497892  0.010914735            5 
  382000   0.65109399   -8.7192794    52.643966  0.011484286  0.010875848            8 
  383000   0.65184231   -8.7018804    52.498896  0.011422736  0.010836955            6 
  384000   0.65863151   -8.7092532    52.581839  0.011410989  0.010798314            4 
  385000   0.66156189   -8.6721353    52.657222  0.011397667  0.010759767           10 
  386000   0.65916488   -8.7202048    52.592402  0.011354146  0.010721472            6 
  387000   0.64155446   -8.7078502    52.599956  0.011326433  0.010683403            4 
  388000   0.66000453   -8.7275592    52.633504  0.011304447  0.010645383            6 
  389000   0.65120798     -8.76406     52.49006  0.011244657  0.010607447            9 
  390000   0.64946352    -8.723774    52.562504  0.011231304   0.01056959            6 
  391000   0.64396146   -8.7333567    52.616893  0.011214172   0.01053194           15 
  392000   0.65158186   -8.7580799    52.598135  0.011181576  0.010494374           10 
  393000   0.63766856   -8.7463554    52.587497  0.011150869  0.010456898            8 
  394000   0.64327752   -8.7425545    52.546704  0.011113939  0.010419695            5 
  395000   0.63580663   -8.7655986    52.493303  0.011074537  0.010382647            9 
  396000   0.63233218   -8.7597143    52.583469  0.011065545  0.010345786            5 
  397000   0.63252637   -8.7509774    52.656923   0.01105309  0.010309022            8 
  398000   0.62892332   -8.7709248    52.693173  0.011032909  0.010272473            7 
  399000   0.63089336   -8.7569311    52.697249  0.011006109  0.010236014            4 
  400000   0.63669284   -8.7808418      52.6052  0.010959417  0.010199765            6 
  401000   0.63145874   -8.7744854    52.542184  0.010918991  0.010163721            6 
  402000   0.63820765   -8.7780076    52.679799  0.010920356  0.010127714            4 
  403000    0.6327766   -8.7603473    52.599659  0.010876687   0.01009177            5 
  404000   0.63017843   -8.7808571      52.5373  0.010836902  0.010056049            6 
  405000   0.62394441   -8.7824238    52.597484  0.010822527   0.01002036            7 
  406000   0.61448115   -8.8042201    52.539558  0.010783982 0.0099847616           12 
  407000   0.61109144   -8.7697389     52.55901  0.010761468 0.0099493258           11 
  408000   0.61467422   -8.7795645    52.487912   0.01072057 0.0099139746           13 
  409000   0.61389117   -8.7952524    52.426647  0.010681876 0.0098788169           11 
  410000   0.59964364   -8.7773067    52.592297  0.010689491  0.009843756            7 
  411000   0.59864993   -8.7791271    52.586646  0.010662337 0.0098089334           11 
  412000   0.61626306   -8.8001187    52.444319   0.01060767 0.0097740992            6 
  413000   0.61266947   -8.8054726    52.459453  0.010585039 0.0097394321           10 
  414000   0.61091869   -8.7903866    52.407283   0.01054897 0.0097049937            9 
  415000   0.60231044   -8.8165076    52.522281  0.010546643 0.0096705643            5 
  416000   0.60960384   -8.8035486     52.43864  0.010504535 0.0096363509            8 
  417000   0.60157989   -8.8172706    52.437886  0.010479194 0.0096022366           12 
  418000   0.60113983   -8.8112296    52.482037  0.010462926  0.009568342            5 
  419000   0.59113791   -8.8044092    52.571392  0.010455726 0.0095344999            9 
  420000   0.59622527   -8.8293653    52.306333  0.010378241 0.0095009129            7 
  421000   0.59953234   -8.8321511    52.461646  0.010384332 0.0094674328            6 
  422000   0.59498342   -8.8238288    52.421599  0.010351816 0.0094339367           12 
  423000   0.59053674   -8.8282697    52.478223  0.010338499 0.0094007129           18 
  424000   0.58740982   -8.8306086    52.408274  0.010300368 0.0093676241            7 
  425000   0.61153321   -8.8557962    52.342441  0.010263224 0.0093346363            4 
  426000   0.58615451   -8.8322338    52.411778  0.010252695 0.0093018755            7 
  427000   0.57479813   -8.8493212    52.353521  0.010217315 0.0092692048            7 
  428000    0.5989725   -8.8547338    52.420887  0.010206559 0.0092367203            6 
  429000   0.58706066   -8.8523626    52.444272   0.01018731 0.0092043118            7 
  430000   0.57011154   -8.8555316    52.417701  0.010158469 0.0091720256            9 
  431000   0.56579478   -8.8586993     52.42701    0.0101367  0.009139836            7 
  432000   0.56714947   -8.8589511     52.41214  0.010110367 0.0091077671            5 
  433000   0.57214273   -8.8610785    52.344692  0.010074036 0.0090758741            6 
  434000   0.58893829    -8.870254    52.396959   0.01006086 0.0090441207            4 
  435000   0.58429745   -8.8631243    52.341691  0.010027144 0.0090124775            6 
  436000   0.57761265   -8.8852606     52.26919 0.0099902885 0.0089809399            7 
  437000   0.58532333   -8.8704714    52.313021 0.0099757859 0.0089496339            4 
  438000   0.57756174   -8.8879719    52.316147 0.0099536048 0.0089184004            6 
  439000   0.56732153   -8.8824508     52.40733 0.0099482404 0.0088873268            5 
  440000   0.56503989   -8.8938172    52.288836 0.0099031886 0.0088563196            7 
  441000   0.56411067    -8.870242    52.246415 0.0098727164 0.0088253848            6 
  442000   0.57152816   -8.8797267    52.364322 0.0098726097 0.0087946482            9 
  443000     0.560576   -8.8960015    52.300392  0.009838298 0.0087640832           10 
  444000   0.55589857   -8.9037591    52.355113 0.0098264101 0.0087336063            4 
  445000   0.55399662   -8.8934441    52.335397 0.0098006362 0.0087031559            6 
  446000   0.55976764   -8.9050842    52.327613 0.0097772073 0.0086729123            3 
  447000   0.54377973    -8.889711    52.348576 0.0097592424 0.0086427924            4 
  448000   0.54596924   -8.9237624    52.343009 0.0097364228 0.0086128127            8 
  449000   0.55899673   -8.8827941    52.276021 0.0097023053 0.0085829422            4 
  450000   0.54397286   -8.9051458    52.234998 0.0096731478 0.0085531466            5 
  451000   0.54938332   -8.9028254    52.250805 0.0096546203 0.0085235294            8 
  452000   0.55290422   -8.9077568    52.187209 0.0096215355 0.0084940161            9 
  453000   0.53194724   -8.9012567    52.196771  0.009602055 0.0084646309            6 
  454000   0.53033854   -8.9174535    52.288282 0.0095977023 0.0084353826            3 
  455000   0.53525403   -8.9018513    52.233088 0.0095664996 0.0084061927            6 
  456000   0.53653211   -8.9320744    52.261731 0.0095507549 0.0083772518            9 
  457000   0.53491906   -8.9169514    52.214486 0.0095212411 0.0083483153            3 
  458000   0.53597475   -8.9285292    52.192874 0.0094965201 0.0083195424            7 
  459000   0.53383808   -8.9467002    52.191298 0.0094755443 0.0082908217            8 
  460000   0.53289184   -8.9527525    52.128663 0.0094435984 0.0082622126            7 
  461000   0.53618595   -8.9387751    52.203394 0.0094366223 0.0082337215            6 
  462000   0.52083039   -8.9389238    52.166451  0.009409533   0.00820535            6 
  463000   0.52533553   -8.9623949    52.184043 0.0093923764 0.0081770606            6 
  464000   0.52548347   -8.9603685      52.2269 0.0093798312 0.0081489747            6 
  465000   0.53065612   -8.9483318    52.235027  0.009361116 0.0081210557            8 
  466000   0.52536676   -8.9504948    52.100786 0.0093170217 0.0080931872           10 
  467000   0.52195254   -8.9529161    52.063045 0.0092903363 0.0080654847           13 
  468000   0.51496376    -8.974704    52.118125 0.0092802929 0.0080378514            7 
  469000   0.52051771   -8.9647763    52.107142 0.0092585541   0.00801038           14 
  470000   0.50887708   -8.9677299    52.183406  0.009252377 0.0079829783            4 
  471000   0.51429342   -8.9756421    52.140769 0.0092251891 0.0079557278            7 
  472000   0.51335186   -8.9742509    52.124901 0.0092028427 0.0079286496            6 
  473000   0.50077507   -8.9634811     52.15193 0.0091881483 0.0079016241            6 
  474000    0.4995812   -8.9758723    52.090413 0.0091579489  0.007874688            7 
  475000   0.50408006   -8.9750368    52.067421 0.0091346352 0.0078478755            4 
  476000   0.50811492   -8.9844945    52.095307 0.0091203269 0.0078211716            7 
  477000   0.50783032   -8.9915209    52.108999 0.0091035986 0.0077945643            6 
  478000   0.49742503   -8.9930832    52.068863 0.0090775563 0.0077680863            9 
  479000   0.50268588   -8.9700011    52.153657 0.0090733572 0.0077417249            7 
  480000   0.50069453   -8.9930118    52.149646  0.009053758 0.0077154522            6 
  481000   0.50463996   -8.9992548    52.067741 0.0090207451 0.0076893288           10 
  482000    0.5025643   -8.9914868     52.14443 0.0090152887 0.0076633141            4 
  483000   0.49678965   -9.0047095    52.136588 0.0089952705 0.0076374175            4 
  484000   0.48526884   -9.0065482    52.068012 0.0089648781 0.0076116189            7 
  485000   0.49238309   -9.0014632    52.062998 0.0089455322 0.0075859289            7 
  486000   0.49284181   -9.0037107    52.098353  0.008933188 0.0075602666            4 
  487000   0.49085707    -9.005663    52.017183 0.0089009554 0.0075347598            7 
  488000   0.49290775   -9.0143961    52.020811 0.0088833352 0.0075093953           11 
  489000   0.49287549   -9.0183947    52.030798 0.0088668708 0.0074841021            7 
  490000   0.48120958   -9.0197114    52.107649 0.0088618451 0.0074589894            8 
  491000   0.48184044   -9.0180052    52.068385 0.0088371326 0.0074339252            8 
  492000   0.48968909   -9.0167291    51.992672 0.0088063469 0.0074090329            6 
  493000   0.48564977   -9.0279748    51.971212 0.0087848567 0.0073841984            9 
  494000    0.4653262   -9.0365107    52.023201 0.0087758436 0.0073594942            9 
  495000   0.48056698   -9.0399597    52.005756 0.0087551777 0.0073348384            5 
  496000     0.491954   -9.0442288    51.974366 0.0087322523 0.0073103247            7 
  497000   0.49012015   -9.0500026     52.04038 0.0087257512 0.0072859084            8 
  498000   0.47718712   -9.0345948    51.991117  0.008699986 0.0072616128            3 
  499000   0.46961498   -9.0300704    52.049349  0.008692276 0.0072373786            5 
  500000   0.47583442   -9.0361014    51.989066 0.0086648444 0.0072132643            8 
  501000   0.46362917   -9.0437092    52.002647 0.0086498081  0.007189246           10 
  502000   0.46105848   -9.0391105    51.982382 0.0086292135  0.007165316            6 
  503000   0.46855935    -9.056996    51.879702 0.0085950466  0.007141506            9 
  504000   0.46221486   -9.0489039    51.898515 0.0085811037 0.0071177654            4 
  505000   0.46562433   -9.0446041    51.926626 0.0085687502 0.0070941604            6 
  506000   0.45294628   -9.0783847    51.961936 0.0085576311 0.0070706564           14 
  507000   0.46170469   -9.0652649    51.899484 0.0085304872 0.0070472539           11 
  508000   0.45985497   -9.0710915    51.917956  0.008516725 0.0070239778            5 
  509000   0.45553277   -9.0669596    51.927707 0.0085015892 0.0070007882            5 
  510000   0.45806088     -9.07354    51.878087 0.0084768116  0.006977732            6 
  511000   0.44935648    -9.060222    51.847802 0.0084552841 0.0069547398            4 
  512000   0.45399023   -9.0593964    51.869758 0.0084423435 0.0069318747            7 
Loop time of 1262.85 on 48 procs for 500000 steps with 4000 atoms

Performance: 68416.411 tau/day, 395.928 timesteps/s
99.4% CPU use with 48 MPI tasks x no OpenMP threads

MPI task timing breakdown:
Section |  min time  |  avg time  |  max time  |%varavg| %total
---------------------------------------------------------------
Pair    | 85.871     | 91.68      | 97.066     |  28.8 |  7.26
Neigh   | 8.4087     | 8.7806     | 9.1771     |   5.9 |  0.70
Comm    | 80.241     | 86.086     | 91.53      |  30.9 |  6.82
Output  | 0.85884    | 0.85954    | 0.87977    |   0.3 |  0.07
Modify  | 1060.8     | 1063.7     | 1067.2     |   5.6 | 84.23
Other   |            | 11.72      |            |       |  0.93

Nlocal:        83.3333 ave          92 max          78 min
Histogram: 4 4 12 6 8 7 1 3 2 1
Nghost:        2268.38 ave        2283 max        2248 min
Histogram: 3 1 5 1 8 1 11 6 8 4
Neighs:        15265.6 ave       17328 max       13021 min
Histogram: 1 1 2 6 11 15 6 2 2 2
FullNghs:      30531.5 ave       34074 max       28290 min
Histogram: 3 6 9 8 10 6 1 3 1 1

Total # of neighbors = 1465513
Ave neighs/atom = 366.37825
Neighbor list builds = 26676
Dangerous builds = 0

#clear
#
#next RN
#
#jump SELF
Total wall time: 0:21:06
