
units lj                  # Use reduced LJ style units
atom_style atomic         # Uncharged point particles
atom_modify map hash      # Needed for indexing of clusters etc
                          # Used to be able to find where atoms are in relation to each other.

lattice fcc 1.0 spacing 1 1 1
Lattice spacing in x,y,z = 1.5874011 1.5874011 1.5874011
region box block 0 10 0 10 0 10 units lattice
create_box 2 box
Created orthogonal box = (0.0000000 0.0000000 0.0000000) to (15.874011 15.874011 15.874011)
  3 by 4 by 4 MPI processor grid
create_atoms 1 box
Created 4000 atoms
  using lattice units in orthogonal box = (0.0000000 0.0000000 0.0000000) to (15.874011 15.874011 15.874011)
  create_atoms CPU = 0.021 seconds
set type 1 type/fraction 2 0.09 78393
Setting atom values ...
  390 settings made for type/fraction
mass 1 1.0
mass 2 1.0
pair_style lj/cut  3.5
pair_modify tail  yes
pair_coeff 1  1  1.0  1.0   # Intearaction between 1 and 1 set with epsilon = 1 and sigma = 1
pair_coeff 1  2  1.5  0.8
pair_coeff 2  2  0.5  0.88

write_data data.0
System init for write_data ...
Neighbor list info ...
  update every 1 steps, delay 10 steps, check yes
  max neighbors/atom: 2000, page size: 100000
  master list distance cutoff = 3.8
  ghost atom cutoff = 3.8
  binsize = 1.9, bins = 9 9 9
  1 neighbor lists, perpetual/occasional/extra = 1 0 0
  (1) pair lj/cut, perpetual
      attributes: half, newton on
      pair build: half/bin/atomonly/newton
      stencil: half/bin/3d
      bin: standard
WARNING: Not all mixed pair coeffs generated from mixing. Use write_data with 'pair ij' option to store all pair coeffs. (../write_data.cpp:312)


#############################
#   M E L T   S Y S T E M   #
#############################

velocity all create 2.4 5833274 mom yes dist gaussian # Assign velocities
                                                    # Temperature 2.4, random number seed, zero linear momentum
                                                                                # Gaussian distribution

timestep 0.002   # simulation timestep
thermo 1000       # output thermodynamic data every 1000 steps bf 100

# Define a fix  in this case with index 1 applied to all
# particles in the simulation. This fix is for simulations
# in the anisotropic NPT ensemble. Note that we use the MTK
# correction.
fix 1 all npt temp 2.4 2.4 0.1 iso 5.68 5.68 0.5 mtk yes tchain 5 pchain 5 # Use NPT ensemble
                                                                         # Set temperature and pressure and damping
                                                                         # Numbers of thermostats in chain and in barostat
run 10000          # run for 10000 steps
Per MPI rank memory allocation (min/avg/max) = 3.642 | 3.644 | 3.648 Mbytes
Step Temp E_pair E_mol TotEng Press Volume 
       0          2.4   -7.7460071            0   -4.1469071   -2.9736732         4000 
    1000    2.4118254   -4.5628433            0  -0.94600963    5.7835956    4873.1384 
    2000    2.4135403   -4.5470167            0  -0.92761128    5.6030223    4903.0936 
    3000    2.3887207   -4.6332693            0    -1.051084    5.5943931     4862.323 
    4000    2.3742905   -4.6018173            0   -1.0412718    5.5504245    4872.7038 
    5000    2.4431306   -4.5679523            0  -0.90417249    5.6837399    4883.1071 
    6000    2.3671101   -4.5803941            0   -1.0306167    5.5714376    4882.5354 
    7000     2.420094   -4.5633396            0   -0.9341061    5.9177253    4858.1942 
    8000    2.3413458    -4.615137            0   -1.1039963     5.801427    4839.1893 
    9000    2.4050992   -4.5948306            0  -0.98808374    5.8195299    4857.2952 
   10000    2.4131607   -4.5526864            0  -0.93385029    5.7172145    4883.4576 
Loop time of 2.20862 on 48 procs for 10000 steps with 4000 atoms

Performance: 782387.472 tau/day, 4527.705 timesteps/s
99.6% CPU use with 48 MPI tasks x no OpenMP threads

MPI task timing breakdown:
Section |  min time  |  avg time  |  max time  |%varavg| %total
---------------------------------------------------------------
Pair    | 0.90364    | 0.94847    | 0.98726    |   2.6 | 42.94
Neigh   | 0.18912    | 0.19631    | 0.20541    |   0.9 |  8.89
Comm    | 0.69653    | 0.74671    | 0.81588    |   3.6 | 33.81
Output  | 0.00023758 | 0.00024322 | 0.00030413 |   0.0 |  0.01
Modify  | 0.25963    | 0.30252    | 0.34079    |   3.1 | 13.70
Other   |            | 0.01437    |            |       |  0.65

Nlocal:        83.3333 ave          92 max          74 min
Histogram: 3 3 2 2 8 14 5 6 3 2
Nghost:        1439.77 ave        1470 max        1410 min
Histogram: 2 2 5 8 6 9 4 8 2 2
Neighs:        7791.31 ave        8792 max        6746 min
Histogram: 5 0 4 3 7 14 7 3 2 3

Total # of neighbors = 373983
Ave neighs/atom = 93.495750
Neighbor list builds = 905
Dangerous builds = 221

# Equilibrate just above the melting temperature to avoid step fn in T

fix 1 all npt temp 1.25 1.25 0.1 iso 5.68 5.68 0.5 mtk yes tchain 5 pchain 5
run 2000
Per MPI rank memory allocation (min/avg/max) = 3.642 | 3.644 | 3.648 Mbytes
Step Temp E_pair E_mol TotEng Press Volume 
   10000    2.4131607   -4.5526864            0  -0.93385029    5.7172145    4883.4576 
   11000    1.2383769   -6.1718674            0   -4.3147665    5.7976786    4008.8595 
   12000     1.249266   -6.1917054            0   -4.3182748    5.7399547    4000.6606 
Loop time of 0.459923 on 48 procs for 2000 steps with 4000 atoms

Performance: 751429.734 tau/day, 4348.552 timesteps/s
99.7% CPU use with 48 MPI tasks x no OpenMP threads

MPI task timing breakdown:
Section |  min time  |  avg time  |  max time  |%varavg| %total
---------------------------------------------------------------
Pair    | 0.19964    | 0.2197     | 0.23534    |   1.7 | 47.77
Neigh   | 0.030743   | 0.032882   | 0.034494   |   0.5 |  7.15
Comm    | 0.14024    | 0.1571     | 0.17959    |   2.2 | 34.16
Output  | 4.9064e-05 | 5.0715e-05 | 6.5356e-05 |   0.0 |  0.01
Modify  | 0.04037    | 0.045803   | 0.051615   |   1.4 |  9.96
Other   |            | 0.004381   |            |       |  0.95

Nlocal:        83.3333 ave          89 max          76 min
Histogram: 1 4 1 3 4 12 12 7 3 1
Nghost:        1644.27 ave        1664 max        1623 min
Histogram: 2 5 7 3 4 10 2 8 1 6
Neighs:        9531.46 ave       10337 max        8486 min
Histogram: 1 4 2 3 7 9 10 7 1 4

Total # of neighbors = 457510
Ave neighs/atom = 114.37750
Neighbor list builds = 143
Dangerous builds = 7

#############################
# L I N E A R  Q U E N C H  #
#############################

# Define solid atoms. This closely follows ten Wolde  Ruiz-Montero and Frenkel  Faraday Discuss  1996  104  93-110
# Compute components of the per-atom q6 vector
compute q6 all orientorder/atom degrees 1 6 components 6 nnn NULL cutoff 1.3 # compute the Q6 parameter.
                                                                             # Use all neighbours within 1.3 unit cell.

# get number of connections
compute coord_number all coord/atom orientorder q6 0.5

# An atom is solid if it has 8 or more connections (of a possible 14)
variable is_solid atom c_coord_number>=8
group solid dynamic all var is_solid    # Must be dynamic to update
dynamic group solid defined

# do clustering
compute cluster solid cluster/atom 1.3 # Create a cluster where all atoms within are solid and max 1.3 units from another member

# define chunks one chunk per cluster
compute clus_chunks solid chunk/atom c_cluster nchunk every compress yes  # Says which atoms are in which chunk

# count the size of each chunk
compute size_chunks solid property/chunk clus_chunks count


# Find the maximum entry in the vector of chunk sizes
variable max_n equal max(c_size_chunks)


# Thermo style which includes this variable
# thermo_style custom step temp pe vol v_max_n

thermo ${N}  # Print the thermo information every 100 steps
thermo 1000  

# Reset the npt fix at a lower temperature (below freezing)
fix 1  all npt temp  ${temp} ${temp}  0.1  iso  5.68  5.68  0.5  mtk yes tchain  5  pchain  5
fix 1  all npt temp  0.45 ${temp}  0.1  iso  5.68  5.68  0.5  mtk yes tchain  5  pchain  5
fix 1  all npt temp  0.45 0.45  0.1  iso  5.68  5.68  0.5  mtk yes tchain  5  pchain  5

dump dmp2 all dcd ${N} traj.dcd
dump dmp2 all dcd 1000 traj.dcd


compute msd all msd com yes
variable twopoint equal c_msd[4]/6/(step*dt+1.0e-6)
fix 9 all vector 10 c_msd[4]
variable fit equal slope(f_9)/6/(10*dt)
thermo_style custom step temp pe c_msd[4] v_twopoint v_fit v_max_n

fix 1 all npt temp 1.25 ${temp} 0.1 iso 5.68 5.68 0.5 mtk yes tchain 5 pchain 5
fix 1 all npt temp 1.25 0.45 0.1 iso 5.68 5.68 0.5 mtk yes tchain 5 pchain 5
run 5000000 # 5000000  # Run for this many steps
Neighbor list info ...
  update every 1 steps, delay 10 steps, check yes
  max neighbors/atom: 2000, page size: 100000
  master list distance cutoff = 3.8
  ghost atom cutoff = 3.8
  binsize = 1.9, bins = 9 9 9
  4 neighbor lists, perpetual/occasional/extra = 1 3 0
  (1) pair lj/cut, perpetual
      attributes: half, newton on
      pair build: half/bin/atomonly/newton
      stencil: half/bin/3d
      bin: standard
  (2) compute orientorder/atom, occasional
      attributes: full, newton on
      pair build: full/bin/atomonly
      stencil: full/bin/3d
      bin: standard
  (3) compute coord/atom, occasional
      attributes: full, newton on
      pair build: full/bin/atomonly
      stencil: full/bin/3d
      bin: standard
  (4) compute cluster/atom, occasional
      attributes: full, newton on
      pair build: full/bin/atomonly
      stencil: full/bin/3d
      bin: standard
Per MPI rank memory allocation (min/avg/max) = 9.748 | 9.754 | 9.760 Mbytes
Step Temp PotEng c_msd[4] v_twopoint v_fit v_max_n 
   12000     1.249266   -6.1917054 1.7120254e-30 1.1889065e-32 8.3333333e+20            2 
   13000    1.2580119   -6.1727295   0.58363556 0.0037412535  0.047807548            2 
   14000    1.2472356   -6.1541843    1.1647726 0.0069331698  0.047980775            3 
   15000    1.2686794   -6.1872387    1.6767209  0.009315116  0.046615428            3 
   16000    1.2388923   -6.1827949    2.2723289  0.011835046  0.046768334            1 
   17000    1.2787607   -6.1890631    2.8389551  0.013916446  0.046850012            2 
   18000    1.2444393   -6.1954278    3.3932469  0.015709476  0.047190058            1 
   19000      1.21279   -6.1713388    3.9312485  0.017242318  0.046843796            2 
   20000    1.2425328   -6.1565865    4.4470976  0.018529573   0.04659643            3 
   21000    1.2388157   -6.2407458    4.9759422  0.019745802  0.046195316            5 
   22000     1.258824   -6.1472098    5.5785377  0.021130824  0.046075697            2 
   23000    1.2624406   -6.1856446    6.1199406  0.022173697  0.046068618            1 
   24000    1.2552163   -6.2099667    6.6587281  0.023120583  0.046065633            1 
   25000    1.2389292   -6.1753582    7.1644748  0.023881582  0.045926872            3 
   26000    1.2435305   -6.1615879    7.7753268  0.024920919  0.045861092            2 
   27000    1.2561085   -6.1973829    8.3592639  0.025800197  0.045894892            1 
   28000    1.2193278   -6.1757083    8.8004896  0.026191933  0.045872136            4 
   29000    1.2627964   -6.1845725    9.3875409  0.026975692  0.045817115            2 
   30000    1.2235099   -6.1535945     9.939814  0.027610594   0.04579594            3 
   31000    1.2273425    -6.203307    10.452672  0.028098581  0.045779559            4 
   32000    1.2610188   -6.1837888     10.95043  0.028516743  0.045725984            2 
   33000     1.247905    -6.166532    11.445727   0.02890335   0.04563033            2 
   34000    1.2644731   -6.2130817    12.088346  0.029628298  0.045562886            2 
   35000    1.2532589   -6.1626235    12.681571  0.030194216  0.045556921            3 
   36000    1.2176655   -6.2478189    13.056222  0.030222736  0.045494774            2 
   37000    1.2230603   -6.1904582     13.67595  0.030801689  0.045459889            3 
   38000    1.2189421    -6.183905     14.12616  0.030978421  0.045394835            3 
   39000    1.2439682   -6.1954083    14.651632  0.031306906  0.045279838            1 
   40000    1.2302576   -6.1577579     15.16827  0.031600562  0.045178381            3 
   41000    1.2315333   -6.2287207    15.647956  0.031804787    0.0451187            2 
   42000    1.2363685   -6.1945349    16.303071  0.032347362   0.04505901           10 
   43000    1.2616537    -6.180375    16.945076  0.032839294  0.045062991            4 
   44000    1.2378742   -6.1895699    17.492003  0.033128794  0.045100047            3 
   45000    1.2380536   -6.1768807    17.959245  0.033257862    0.0451339            3 
   46000    1.2764308   -6.2106854    18.463046  0.033447547  0.045119144            2 
   47000    1.2570945   -6.1754655    19.281397  0.034186873  0.045149376            2 
   48000    1.2350645   -6.2228455    19.745585  0.034280529  0.045195278            2 
   49000     1.238796   -6.1798098    20.488424  0.034844258  0.045281311            3 
   50000    1.2627488   -6.1776814    21.166163  0.035276938  0.045394439            3 
   51000    1.2507127   -6.2065167    21.832492  0.035674006  0.045538695            1 
   52000     1.247068   -6.2135803    22.310345  0.035753758  0.045667045            3 
   53000    1.2474942   -6.1509597    23.102943  0.036325381  0.045811605            3 
   54000    1.2423411   -6.1676292    23.521416  0.036298481  0.045940681            3 
   55000    1.2493582   -6.1996149    24.061838   0.03645733  0.046026051            3 
   56000    1.2454001   -6.1806948    24.732637  0.036804519  0.046117617            2 
   57000    1.2169462   -6.2188349    25.238397   0.03689824  0.046200967            2 
   58000    1.2302049   -6.1537054    25.810719  0.037084366  0.046276355            3 
   59000    1.2316941   -6.2048092    26.510029  0.037443543  0.046356897            8 
   60000    1.2487095   -6.1583088    27.005028  0.037506983  0.046436149            4 
   61000    1.2174709   -6.1539066    27.474311  0.037533212  0.046488228            2 
   62000    1.2488873   -6.1905925    27.705488  0.037238559  0.046495703            1 
   63000    1.2459273   -6.2035488    28.241626  0.037356648  0.046483234            3 
   64000    1.2359923   -6.1716463    28.861603  0.037580212  0.046470809            3 
   65000    1.2645141   -6.1837016    29.361759  0.037643281   0.04645553            2 
   66000    1.2436978   -6.2178971    29.910312  0.037765545  0.046444998            2 
   67000    1.2476006   -6.2650728     30.41032  0.037823781  0.046428648            1 
   68000    1.2262993   -6.2021535    30.928791   0.03790293   0.04640539            4 
   69000    1.2385656   -6.2168109    31.469622   0.03800679  0.046386047            2 
   70000    1.2400318   -6.2460143     32.11702  0.038234547  0.046363511            2 
   71000    1.2552003   -6.1866032    32.607628  0.038271864   0.04634916            6 
   72000    1.2535663   -6.1765526    33.162068  0.038382023  0.046334137            3 
   73000     1.244855   -6.2226688    33.514669  0.038258754  0.046290821            3 
   74000    1.2376026   -6.2072992    34.192198  0.038504727  0.046260613            4 
   75000    1.2301302   -6.1582249    34.815315  0.038683683  0.046240584            3 
   76000    1.2151357   -6.2147981     35.33108  0.038740219   0.04622463            2 
   77000    1.2298712   -6.2228591    35.736394   0.03867575  0.046197269            2 
   78000    1.2145707   -6.2196103    36.333184  0.038817504  0.046172042            3 
   79000    1.2509705    -6.176071    36.965081  0.038992701  0.046148991            3 
   80000     1.236242   -6.1767102    37.518187  0.039081445  0.046136008            3 
   81000    1.2499771   -6.1832323     37.88094  0.038972161   0.04611222            3 
   82000    1.2471624   -6.1928891    38.386123  0.039010288  0.046073049            2 
   83000     1.216976   -6.2051721    38.774547  0.038930268  0.046026686            1 
   84000    1.2519424   -6.1881321    39.338344  0.039026135   0.04598081            2 
   85000    1.2623521   -6.2053605    39.837232   0.03905611  0.045943678            1 
   86000    1.2453439   -6.1669571    40.283342  0.039034246  0.045899297            4 
   87000     1.225758    -6.211584    40.759928  0.039042077  0.045848289            2 
   88000    1.2139919   -6.1716027      41.4502  0.039252083  0.045815533            4 
   89000    1.2529406   -6.2127641    41.828189   0.03916497  0.045788674            2 
   90000    1.2523056   -6.2018507    42.698611  0.039535751   0.04575221            2 
   91000    1.2166828   -6.2062689    43.312558  0.039663514  0.045734697            5 
   92000    1.2327595   -6.2228968    43.919442  0.039782103  0.045720776            2 
   93000    1.2295439   -6.1953526    44.459502  0.039838263  0.045720253            2 
   94000    1.2184933   -6.1532092    44.983998  0.039879431  0.045709117            3 
   95000    1.2126767   -6.2048554     45.52324  0.039932666  0.045701155            2 
   96000    1.2091463   -6.1923206    45.926762  0.039866981  0.045692388            2 
   97000    1.1994863   -6.2438744    46.577764  0.040015261  0.045684384            5 
   98000    1.2283357   -6.1866786    47.159269  0.040101419  0.045675497            2 
   99000    1.2193834   -6.2114537    47.724558  0.040172187  0.045671447            4 
  100000    1.2540248   -6.1668238    48.367045   0.04030587  0.045660666            3 
  101000    1.2286274   -6.2374549    48.733521  0.040209176   0.04565763            6 
  102000    1.2278818   -6.2200318    49.426713  0.040381302  0.045645692            3 
  103000    1.2194703   -6.1831448    50.174512  0.040594265   0.04564962            3 
  104000    1.2308803   -6.1648702    50.673483  0.040603752  0.045655895            3 
  105000    1.2623808   -6.1879195     51.24897  0.040673786  0.045667425            4 
  106000    1.2363691   -6.2575158    51.750001  0.040683963  0.045675062            2 
  107000    1.2179739     -6.20777    52.475177  0.040868518  0.045674778            3 
  108000    1.2497983   -6.2601867    52.824662   0.04075977  0.045679357            2 
  109000    1.2099111   -6.2177585    53.514485  0.040913214  0.045689099            2 
  110000    1.2135338   -6.1944605    53.991254  0.040902465  0.045700299            3 
  111000    1.2339365    -6.187397    54.447687  0.040876642  0.045710188            1 
  112000    1.2519382   -6.1662137    55.301161  0.041146697  0.045721404            2 
  113000    1.2416078   -6.1874641    55.790648  0.041143546  0.045730571            4 
  114000    1.2296438   -6.1957535    56.151851  0.041046675  0.045739028            2 
  115000    1.2151793   -6.2322772    56.782152  0.041146487  0.045746754            2 
  116000    1.2430946   -6.2107863    57.452901  0.041273636  0.045750313            2 
  117000     1.241567   -6.2053899    57.755492   0.04113639  0.045760168            2 
  118000    1.1969717   -6.1706251    58.414234   0.04125299  0.045764512            1 
  119000    1.2443243   -6.2074791    59.123683  0.041403139  0.045773689            2 
  120000    1.2397202   -6.2243355    59.614556  0.041398997  0.045779235            2 
  121000    1.2427029    -6.163144    59.985593  0.041312392  0.045785261            3 
  122000    1.2103449   -6.2098185    60.076796  0.041036062  0.045779864            2 
  123000    1.2302899   -6.1925458    60.903095  0.041262259  0.045772625            2 
  124000     1.228181   -6.1996637    61.873477  0.041581637  0.045772723            1 
  125000    1.2285069   -6.2242371    62.372182  0.041581454  0.045777085            3 
  126000    1.2404301    -6.185944    63.007305  0.041671498  0.045786796            2 
  127000    1.2151771   -6.2269234    63.315942  0.041545894  0.045796093            2 
  128000    1.2010631   -6.1345574    63.913364  0.041610263  0.045805613            2 
  129000    1.2161461   -6.2152118    64.421639  0.041616046  0.045813345            4 
  130000    1.2100424   -6.2301649    64.919483  0.041615053  0.045812276            3 
  131000    1.2384988   -6.2348039    65.449603  0.041634608  0.045813694            2 
  132000     1.228621   -6.2195779    66.176088  0.041777833  0.045812676            4 
  133000    1.2192427   -6.1937143    66.495312  0.041663729  0.045815207            1 
  134000    1.2282004   -6.2000112    67.281314  0.041841613  0.045815894            2 
  135000    1.2279914   -6.2101185    67.889496  0.041907096  0.045822363            4 
  136000    1.2412359    -6.209845    68.591306  0.042028986  0.045832946            3 
  137000     1.212301   -6.2423534    68.934747  0.041931111  0.045842644            1 
  138000    1.2271025   -6.2481397    69.440634   0.04193275  0.045850759            3 
  139000    1.2159499   -6.1807974    69.961539  0.041943369  0.045858879            3 
  140000    1.2503481   -6.1918285     70.61275  0.042031399  0.045863457            5 
  141000    1.2342852   -6.1911031    71.074748  0.042006352  0.045863231            2 
  142000    1.2034309   -6.2101282    71.232804  0.041803288  0.045859246            4 
  143000    1.2415082   -6.1968543    71.946846  0.041927067  0.045857029            2 
  144000     1.215844   -6.1875879    72.274079  0.041825277  0.045850906            3 
  145000    1.2109917   -6.1842523    72.914772  0.041905041  0.045842259            3 
  146000    1.2259702    -6.207167    73.353017   0.04186816  0.045832214            3 
  147000     1.227337   -6.2126866    73.845338  0.041862436  0.045820859            8 
  148000    1.2335514   -6.2286527    74.480546  0.041937244  0.045809818            2 
  149000    1.2309799   -6.1893876    75.207505  0.042062363  0.045802725            2 
  150000    1.2180072   -6.2129893    75.926659  0.042181477  0.045799538            3 
  151000    1.2334593   -6.2557296    76.460589  0.042196793  0.045799716            3 
  152000    1.2597965   -6.2115823    77.024973  0.042228603  0.045800326            1 
  153000    1.2338086   -6.2447011     77.10821  0.041997935  0.045797173            3 
  154000    1.2428684   -6.2244327    77.853635   0.04212859  0.045794602            3 
  155000    1.2302857   -6.2147092    78.245192  0.042067307  0.045791019            4 
  156000    1.2391058   -6.2365467    78.721979  0.042052339  0.045784301            2 
  157000    1.2477641   -6.2330301    79.493647   0.04219408  0.045778088            2 
  158000    1.2002314   -6.2486208    80.066406  0.042229117  0.045771162            4 
  159000    1.1904445   -6.2268591    80.635518  0.042261802   0.04577048            2 
  160000    1.2425491   -6.2043226    81.536968  0.042467171   0.04577202            3 
  161000    1.2152538   -6.2188337    82.347308   0.04262283   0.04577757            3 
  162000    1.2470706   -6.2212356    82.589634  0.042484379  0.045780245            6 
  163000    1.2247613   -6.2539084     83.30052  0.042587178  0.045785941            4 
  164000    1.2346966   -6.2465028    83.975478  0.042670466   0.04579336            2 
  165000    1.2281928   -6.2610307    84.141076  0.042495493  0.045797833            2 
  166000    1.2133819   -6.1998249    85.014381  0.042677902   0.04580087            1 
  167000    1.2458811   -6.1974286    85.596782  0.042712965  0.045805113            2 
  168000    1.2262343   -6.2384489    85.853914  0.042586267  0.045806651            2 
  169000    1.2142735   -6.2225459    86.157494  0.042483971  0.045805882            2 
  170000    1.2372215   -6.2280346    86.590552  0.042446349  0.045804396            2 
  171000    1.2056673   -6.1975117    86.999115  0.042397229   0.04579929            2 
  172000    1.2278101   -6.1957558    87.812022  0.042544584  0.045796381            3 
  173000    1.2321937   -6.2249484    88.216867  0.042493674  0.045788492            2 
  174000    1.2087758   -6.2121326    88.455935  0.042363953  0.045780618            6 
  175000     1.220252   -6.2104585    89.357404  0.042551145  0.045772055            2 
  176000    1.1910253   -6.2289853    89.923867  0.042577588  0.045764911            2 
  177000    1.2457944   -6.2011081    90.500729   0.04260863  0.045760059            2 
  178000    1.2141043   -6.2512362    90.829986  0.042523402  0.045755656            2 
  179000     1.203784   -6.2563686    91.347694  0.042526859  0.045749455            2 
  180000    1.2252779   -6.2732906    91.373493  0.042302543  0.045740115            3 
  181000    1.2293303   -6.2170004    92.970676  0.042804179  0.045731901            2 
  182000    1.2067234   -6.2222867     93.40355  0.042767193  0.045726068            1 
  183000    1.2588531   -6.2399663    93.267965  0.042471751  0.045719211            2 
  184000    1.2385145   -6.2335451    94.052979  0.042596458  0.045710938            5 
  185000    1.2196941    -6.195277    94.296748  0.042476012  0.045702622            2 
  186000    1.2361865   -6.2622802    95.444265  0.042761767  0.045693037            3 
  187000    1.2250988   -6.2244609    95.646154  0.042623063  0.045684073            7 
  188000    1.2126048   -6.2546623    96.060445  0.042579984  0.045675423            4 
  189000    1.2474295   -6.2163168    96.307023  0.042463414  0.045664249            7 
  190000    1.2490444   -6.2263893    96.892686  0.042496792  0.045655214            2 
  191000    1.2326804   -6.2002738    97.770182  0.042657147   0.04564708            1 
  192000    1.2095669    -6.232003    97.899536  0.042491118  0.045637746            2 
  193000    1.2146039   -6.2247826    98.379786  0.042478318  0.045624055            2 
  194000    1.2162337   -6.1852546     99.16303  0.042595803  0.045610291            3 
  195000    1.2424664   -6.2004849     99.52755  0.042533141  0.045599653            2 
  196000    1.2208716   -6.2280505    100.30531  0.042646816  0.045588698            1 
  197000    1.1937075    -6.197737    100.97917  0.042715383  0.045580312            2 
  198000    1.1988449   -6.2465207    101.30668  0.042637492  0.045572258            3 
  199000    1.2009067   -6.2647607    101.64784  0.042566096  0.045561256            2 
  200000    1.2108648   -6.2379928    102.65866  0.042774443  0.045553584            3 
  201000    1.2131267   -6.2330408    102.91999  0.042669977  0.045546573            2 
  202000     1.223976   -6.2176302    103.14456  0.042551388   0.04553874            4 
  203000    1.2352935   -6.2494611    103.74314  0.042587497  0.045529832            4 
  204000    1.2333706   -6.2457113    104.35236  0.042627597  0.045515563            3 
  205000    1.1920613   -6.1998351    104.90128  0.042642796  0.045502998            1 
  206000    1.2133865   -6.2500852    105.15765  0.042539502  0.045489544            3 
  207000    1.1971249   -6.2431062    105.18298  0.042344196  0.045475663            5 
  208000    1.2256069   -6.2379154    106.15166  0.042528711   0.04545991            3 
  209000    1.2007927    -6.237913     106.8015  0.042584329  0.045446265            2 
  210000    1.2185921   -6.2614021    106.89868  0.042420111  0.045430801            2 
  211000    1.2483525   -6.2057481    107.61765  0.042503021   0.04541797            3 
  212000    1.2033609   -6.2330916    108.71678  0.042734582  0.045404339            4 
  213000    1.1961733   -6.2610548    108.63766  0.042502998  0.045392438            2 
  214000    1.2292423   -6.2596404    109.56364  0.042664967   0.04538308            4 
  215000    1.2133573   -6.2198848    110.11188  0.042679022  0.045371825            2 
  216000    1.2316838   -6.2221897    110.28026  0.042546396  0.045360017            6 
  217000    1.1886553   -6.2008244    110.92427  0.042597647  0.045346923            2 
  218000     1.207724   -6.1936036    111.13212  0.042481697  0.045334895            2 
  219000    1.2299287   -6.2247875    112.15898  0.042678456  0.045321815            2 
  220000    1.2185174   -6.2434389    112.30991  0.042541631  0.045308211            3 
  221000    1.2200796   -6.2466799    112.80874  0.042537231  0.045294289            2 
  222000    1.1957477   -6.2152717    113.02162  0.042425533  0.045278281            3 
  223000    1.2154691   -6.2622662      113.484  0.042408073  0.045259766            2 
  224000     1.259871   -6.1812615    113.91743  0.042379997  0.045241403            3 
  225000    1.2249716   -6.2827778    114.38061   0.04236319  0.045225748            4 
  226000    1.2105796   -6.2361043    115.23719   0.04249159  0.045209197            3 
  227000    1.1837686   -6.2078929    115.47935  0.042393302  0.045192339            6 
  228000    1.2046521   -6.2445357    115.97215   0.04238748  0.045175457            2 
  229000    1.1911275   -6.2329413     116.4108  0.042362008  0.045158089            2 
  230000    1.2319777   -6.1987179    117.10454  0.042429182  0.045140348            2 
  231000    1.2360392    -6.216665    117.71622  0.042466168  0.045124615            2 
  232000    1.2327743    -6.234054    118.28063  0.042485857  0.045108391            2 
  233000    1.2203901   -6.2465855     118.8926  0.042522387  0.045093131            3 
  234000    1.2183692   -6.1992087    119.47118  0.042546717  0.045077955            4 
  235000    1.2032608   -6.2359464    119.78026  0.042475271  0.045063385            2 
  236000    1.2047534   -6.2311455    120.24108  0.042458007  0.045051634            3 
  237000    1.2030578   -6.2962817    120.81878   0.04248199  0.045037736            5 
  238000    1.2166204   -6.2700528    121.06373  0.042389261  0.045021134            3 
  239000    1.2317328   -6.2566603    121.25347  0.042278058  0.045003738            4 
  240000     1.223976    -6.230443    122.19675  0.042429426  0.044987965            5 
  241000    1.2087132   -6.2332296    122.26338  0.042276409  0.044970381            3 
  242000    1.2129155   -6.2384851    123.37399  0.042484156  0.044955179            6 
  243000    1.2098177   -6.2463979    123.73412  0.042432825  0.044938816            6 
  244000     1.213469   -6.2342173    124.52143  0.042527811  0.044925693            1 
  245000    1.2322234   -6.2372243    125.42293  0.042660861   0.04491239            3 
  246000    1.2356156    -6.242456    125.80648  0.042617373  0.044899955            2 
  247000     1.208033   -6.2739285    125.69766  0.042408118  0.044887397            4 
  248000    1.2222475   -6.2616045    126.19705  0.042404922  0.044871877            2 
  249000    1.2216537   -6.2392437    126.25106  0.042252696  0.044855285            3 
  250000    1.2055829   -6.2869553    126.57818  0.042192726  0.044838201            3 
  251000    1.2183942   -6.2798959    127.66644  0.042385935   0.04482374            2 
  252000    1.2294501   -6.2416347    128.57404  0.042517871  0.044808781            1 
  253000     1.222681   -6.2778158    128.44585  0.042307592  0.044795009            3 
  254000     1.195197   -6.2105747    129.10853  0.042358442  0.044781912            6 
  255000     1.194523   -6.2515588     129.6023  0.042353693  0.044767891            3 
  256000    1.2229519   -6.2347559    130.37659  0.042440298  0.044756109            3 
  257000    1.2127429   -6.2487392    130.72503  0.042388142  0.044743018            2 
  258000    1.1989154   -6.2857151    130.61755  0.042189129  0.044728071            3 
  259000    1.2032576   -6.2857171    131.42804  0.042287013  0.044711537            3 
  260000    1.2499957   -6.2719698    132.09185  0.042337132  0.044695906            3 
  261000    1.2249507   -6.2483068    132.07004  0.042167956  0.044679742            3 
  262000    1.2155895   -6.2434517    132.78488  0.042234377  0.044661574            2 
  263000    1.2101885   -6.2630118       133.18  0.042198986  0.044644311            3 
  264000    1.1777029   -6.2221836    133.70658  0.042205361  0.044627235            2 
  265000    1.2201347    -6.268283    134.05889  0.042156884  0.044610099            4 
  266000    1.2262912   -6.2348682    134.83381  0.042241169  0.044591125            6 
  267000     1.219099    -6.243518    135.25181  0.042213423  0.044574328            4 
  268000    1.2137626   -6.2510273    135.30531  0.042072546  0.044556759            2 
  269000    1.2083743   -6.2336404    136.22534  0.042201159  0.044538308            2 
  270000    1.2187941   -6.2724602    136.47355  0.042121465  0.044520138            1 
  271000    1.1966218   -6.2506032    137.63273  0.042322487  0.044503483            7 
  272000    1.2016866   -6.2193822     138.1366  0.042321263  0.044487474            2 
  273000    1.2197066   -6.2332342    138.65408    0.0423242   0.04447385            4 
  274000    1.1949174   -6.2453746    138.93958  0.042256563  0.044459263            3 
  275000    1.2009179   -6.2519839    139.43528  0.042253114  0.044443279            3 
  276000    1.1962497   -6.2695714    139.49815  0.042119005  0.044426418            2 
  277000    1.1841585   -6.2696653    140.37044  0.042229375  0.044409605            5 
  278000    1.1750926   -6.2481102    140.56754  0.042136552  0.044393095            4 
  279000    1.1936868   -6.2294464     141.2697  0.042195252  0.044376546            3 
  280000     1.226207    -6.293011    141.42602  0.042091077  0.044360947            3 
  281000    1.1734487   -6.2742157    141.84261  0.042064831   0.04434629            2 
  282000    1.1963032   -6.2260707    142.77963  0.042192561   0.04433026            1 
  283000     1.218261    -6.265521    143.07574  0.042130666  0.044314959            4 
  284000    1.2108336   -6.2359055    143.61184  0.042139623  0.044300281            3 
  285000    1.2219835   -6.3038387    144.23287  0.042173354  0.044282708            3 
  286000     1.174536   -6.2580226    144.69372  0.042160176  0.044264858            2 
  287000    1.2016218    -6.264975    144.59616  0.041984949  0.044248418            4 
  288000    1.1966308   -6.2893244    145.28313  0.042037944  0.044231668            2 
  289000    1.2105207   -6.2716528    145.99572  0.042097959   0.04421429            4 
  290000    1.2102282    -6.278778    146.44851  0.042082905  0.044198183            5 
  291000    1.1897449   -6.2675702    146.61458  0.041985847  0.044181195            3 
  292000    1.2133656   -6.2536732    147.28819  0.042034301  0.044165288            3 
  293000    1.1910403   -6.2470723    148.29885  0.042178285  0.044148665            5 
  294000    1.2188227   -6.2156469    149.14593  0.042274924  0.044133865            3 
  295000    1.1919704   -6.2494261    148.77618   0.04202717   0.04411939            4 
  296000    1.1934169    -6.245257    149.76074  0.042162371  0.044105141            2 
  297000    1.2101149   -6.2359101    150.82746  0.042319713  0.044090517            5 
  298000    1.1830588   -6.3012632    150.25378  0.042017277  0.044075671            2 
  299000    1.2062525   -6.2629472    151.10182  0.042113105  0.044061727            3 
  300000    1.2088703    -6.336303    151.37386  0.042048294  0.044047737            1 
  301000    1.2218825   -6.2273342    152.39912  0.042192448  0.044031669            2 
  302000    1.1978369    -6.299856    151.25336  0.041736577  0.044014821            2 
  303000    1.1928356   -6.2517234    152.85852  0.042040298  0.043998069            2 
  304000    1.2119163   -6.2560656    153.12483  0.041975008  0.043981887            4 
  305000    1.2063759   -6.2976871    153.33074  0.041893644  0.043965871            2 
  306000    1.2177149    -6.280381    153.61062  0.041832957  0.043948274            6 
  307000    1.1925604   -6.2391787    154.49361  0.041936377  0.043930589            2 
  308000    1.2001493   -6.2618165    155.01445  0.041941138  0.043912026            1 
  309000    1.2276155   -6.2788996    155.45002  0.041922876  0.043895334            4 
  310000     1.237475   -6.2705602    155.69264  0.041852861  0.043878599            2 
  311000     1.196548   -6.2542147    156.69424  0.041986666  0.043862341            3 
  312000    1.2092405   -6.2554599     157.0446  0.041945674  0.043846645            2 
  313000    1.2014532   -6.2357358    158.01956  0.042071234   0.04383199            3 
  314000    1.1957904   -6.2552117    158.40763  0.042040242  0.043819817            3 
  315000     1.176295   -6.2757291    158.97111   0.04205585  0.043805769            3 
  316000    1.1727708   -6.2173987    159.17633  0.041976879  0.043790567            2 
  317000     1.188504   -6.2843106    159.25306  0.041864631  0.043775332            2 
  318000    1.1998528    -6.242986    160.84525  0.042150223  0.043760644            4 
  319000    1.1991399   -6.2968419    161.02412  0.042064817  0.043748133            2 
  320000    1.2001863   -6.2443504    161.49375  0.042055664  0.043736019            3 
  321000    1.2288134   -6.2701312    161.50496  0.041927561  0.043722417            2 
  322000    1.1886663    -6.263876    162.33305  0.042011659  0.043710753            3 
  323000    1.1946141   -6.2901499    162.80311  0.042002866  0.043699555            3 
  324000    1.1637175   -6.2537777    164.02185   0.04218669  0.043689515            3 
  325000     1.194532   -6.2618854    163.34211  0.041882593  0.043678319            2 
  326000    1.2039118    -6.315874    163.99141  0.041920094  0.043666537            4 
  327000    1.2120583   -6.2682206    165.15627  0.042088754  0.043656267            3 
  328000    1.1873484   -6.2586824    166.05801  0.042189534  0.043646912            3 
  329000    1.1986417   -6.2684878    165.47093  0.041912595    0.0436376            4 
  330000    1.1929035   -6.2593739    166.62785  0.042077739   0.04362647            3 
  331000    1.1798774   -6.2760725    167.10556  0.042070885  0.043615552            2 
  332000    1.1916082   -6.2754474    167.17991  0.041962829  0.043604022            2 
  333000    1.1972707   -6.2838062    167.46338  0.041907752  0.043592703            2 
  334000    1.2098335   -6.2638588    168.43188  0.042023921  0.043582219            2 
  335000    1.1887419   -6.2795886    168.32564   0.04187205  0.043570957            2 
  336000    1.2117686    -6.300014    169.35948   0.04200384  0.043560213            3 
  337000     1.214805   -6.2574893    170.62605  0.042192395  0.043549871            2 
  338000    1.1945154   -6.2751569    171.26106  0.042224128  0.043541733            2 
  339000    1.1902387   -6.3111701    170.96339  0.042026398  0.043534025            2 
  340000    1.1939567   -6.3034411     172.5547  0.042292819  0.043526807            5 
  341000    1.2254398   -6.2551761    172.77194  0.042221882    0.0435209            3 
  342000    1.1954257   -6.2716643    173.12085  0.042183444  0.043514326            2 
  343000    1.2033489   -6.2566255    173.83322  0.042233532  0.043507064            7 
  344000    1.1891535   -6.2474461    174.23865  0.042208975  0.043500647            5 
  345000     1.222127   -6.2735465    175.09196  0.042292743  0.043494832            3 
  346000    1.2147559   -6.2533058    175.44566  0.042255699  0.043487322            2 
  347000    1.2021313   -6.2959651    175.47897  0.042141923  0.043479465            6 
  348000    1.2088029   -6.3046231    175.83343  0.042105707  0.043471642            4 
  349000    1.1811577   -6.2748943    176.85232  0.042228348  0.043464058            4 
  350000    1.2101631   -6.2523905    177.34498  0.042224996  0.043456949            2 
  351000    1.1930293     -6.28371    177.43764  0.042126695  0.043448867            4 
  352000    1.1707704   -6.2734974    178.12349  0.042169387  0.043441805            3 
  353000    1.1872114   -6.2746354    179.10365  0.042281315  0.043434667            4 
  354000    1.2086792   -6.2727468    178.71265  0.042069834  0.043428116            3 
  355000    1.2011343   -6.2766513    179.33679  0.042097837   0.04342079            6 
  356000    1.2039585   -6.2954761    179.59406  0.042039809  0.043414002            3 
  357000     1.194599   -6.2743064    181.41443  0.042346973  0.043406353            2 
  358000    1.1848728    -6.275978    181.31141  0.042204705  0.043399801            2 
  359000    1.1962571   -6.2931877    180.85358  0.041980867   0.04339215            2 
  360000    1.1997123   -6.2576566    182.22828  0.042182472  0.043385689            2 
  361000    1.2147445   -6.2755109    182.33562  0.042090401  0.043379851            2 
  362000    1.1890327   -6.2845057    183.04239  0.042136831   0.04337385            3 
  363000    1.1981665   -6.2646635    183.86016  0.042208485  0.043369003            2 
  364000    1.2065492    -6.264072    184.97812  0.042348471  0.043365415            3 
  365000    1.2157169   -6.2880424    185.65757  0.042387573  0.043361513            2 
  366000    1.1882585   -6.2909156    186.01206  0.042352473  0.043357817            3 
  367000    1.1892456   -6.2964554    185.56281  0.042135061  0.043353221            3 
  368000    1.1981347   -6.2501114    186.64596  0.042265842  0.043346819            3 
  369000    1.2038341   -6.3209079    186.29155  0.042071262  0.043339416            1 
  370000    1.2109297   -6.2807315    186.63585  0.042035101    0.0433331            1 
  371000    1.1636324   -6.2971075    188.28962  0.042293265  0.043328211            2 
  372000    1.2033294    -6.293232    188.59886   0.04224885  0.043322612            5 
  373000     1.193536   -6.2869311    189.28708  0.042289338  0.043317967            4 
  374000    1.1965994   -6.2927067    188.97704  0.042107184  0.043313515            2 
  375000    1.1787818   -6.2631628    190.26235  0.042280523  0.043308549            3 
  376000    1.1753188     -6.28501     190.1865  0.042151263  0.043302684            3 
  377000    1.1919444     -6.27005    190.03219  0.042005346  0.043296104            2 
  378000    1.1699289   -6.2510768    191.29146  0.042171838  0.043289596            3 
  379000    1.1754876   -6.2869278    192.25214  0.042271799  0.043283504            7 
  380000    1.1749636   -6.2749385     192.0506  0.042116359  0.043277294            2 
  381000    1.1925983   -6.2910644    193.36772  0.042293902  0.043272513            3 
  382000    1.2103796   -6.3014732    193.09292  0.042123236  0.043268351            2 
  383000    1.1740836   -6.2830938     193.6122   0.04212624  0.043263527            2 
  384000      1.19173   -6.2899019    194.39324  0.042186032  0.043258243            3 
  385000    1.1954657   -6.2718616    194.77494  0.042159077  0.043252135            2 
  386000    1.1810914   -6.2656612    194.48686  0.041987664  0.043245065            4 
  387000    1.1638729   -6.3087936     195.5693  0.042112252  0.043237968            3 
  388000    1.1883901    -6.315147    195.29949  0.041945766  0.043230719            2 
  389000    1.2012683   -6.3019918     196.9035  0.042181554  0.043223705            2 
  390000    1.2037359   -6.3136591    196.14171  0.041910622  0.043216367            4 
  391000    1.2024959   -6.2385297    197.31569  0.042053643    0.0432086            4 
  392000    1.1948058   -6.3155816     197.4166  0.041967814  0.043201527            3 
  393000    1.1861908    -6.308849    197.80146  0.041942634  0.043193041            5 
  394000    1.1858578    -6.277628    198.49472  0.041982809   0.04318516            1 
  395000    1.2116235   -6.2676752    198.80574  0.041942139  0.043177157            1 
  396000    1.1856174   -6.2820872    199.99813  0.042087148  0.043170624            2 
  397000      1.19537   -6.3363511    199.45515   0.04186716  0.043163208            2 
  398000    1.1887894   -6.2997236    200.67968  0.042018359  0.043155942            5 
  399000    1.2033151   -6.2908149    200.69817   0.04191691  0.043147135            2 
  400000    1.1726156   -6.3031896    200.79684  0.041832675  0.043138263            1 
  401000    1.2125295   -6.2896138    202.02797  0.041984199  0.043129795            3 
  402000    1.1665365   -6.2792807    202.61457  0.042001362  0.043121402            3 
  403000    1.1893073   -6.2936811    203.13942  0.042005669  0.043114056            2 
  404000     1.195214   -6.3050614    203.08603  0.041890684  0.043105801            5 
  405000    1.1891777   -6.2532693    203.74119  0.041922056  0.043097435            3 
  406000    1.1804325   -6.2813586    203.92686  0.041856909  0.043088208            6 
  407000    1.1951971   -6.2628365    204.64598  0.041901307  0.043078601            6 
  408000    1.1676431   -6.2678493    205.18393  0.041908483  0.043068828            3 
  409000    1.1607566   -6.3103375    204.96046  0.041760484  0.043059625            2 
  410000    1.1986981   -6.2714454     205.4297  0.041754004  0.043050181            1 
  411000    1.1974938   -6.2773085    205.43125  0.041652727  0.043040239            3 
  412000    1.2049868   -6.2808623    206.96007  0.041860855  0.043030285            2 
  413000    1.1866855   -6.2827966    207.14689  0.041797192   0.04302064            3 
  414000    1.1795897   -6.3051461    207.68921  0.041805397  0.043010191            3 
  415000    1.1747434   -6.3142188    207.53112  0.041672916  0.042999746            2 
  416000    1.1863007   -6.3367398    207.46381  0.041559257  0.042988158            3 
  417000    1.2021549   -6.3099059    209.07157   0.04178089  0.042977043            4 
  418000    1.1778114    -6.302629     209.0561   0.04167785  0.042965659            2 
  419000    1.1786718   -6.3131928    208.89865  0.041547067  0.042954522            2 
  420000    1.1735959   -6.2967416    208.74222  0.041417108  0.042943611            2 
  421000    1.1770739   -6.3266977    210.12269  0.041591982  0.042931641            2 
  422000    1.1977528   -6.2648658    210.84054  0.041635177  0.042921113            6 
  423000     1.188702   -6.2908023    211.39208  0.041645406  0.042909835            3 
  424000    1.1701798   -6.3076558    210.87853  0.041446252  0.042898947            2 
  425000    1.1656242   -6.2771932    212.49186  0.041665071  0.042888817            5 
  426000    1.1842482   -6.2733934    212.48948  0.041566799  0.042877976            3 
  427000    1.1797384   -6.3103925      212.908  0.041551132  0.042866964            1 
  428000    1.1726366    -6.296172    213.50503  0.041570294  0.042856306            2 
  429000    1.1951596   -6.3161696    213.75945  0.041522815  0.042846413            2 
  430000    1.2126967   -6.2920983      215.424  0.041748837  0.042835651            3 
  431000    1.2036735   -6.2952299    215.70576   0.04170645  0.042825581            2 
  432000    1.1952385   -6.2779475    215.79153  0.041626453   0.04281523            2 
  433000    1.1975942   -6.2913044    215.31206  0.041438041  0.042804943            7 
  434000    1.1787369   -6.3068623    217.02493  0.041671453  0.042794566            5 
  435000    1.1843071   -6.3510486    216.28778  0.041434441  0.042784588            4 
  436000    1.1961274   -6.3005447    217.30274  0.041533397  0.042774705            1 
  437000    1.1903094    -6.300672    217.68803  0.041511828  0.042764727            1 
  438000    1.1779073   -6.2990124    218.14128  0.041503287  0.042754984            2 
  439000    1.1832312   -6.2655732    218.58219  0.041492443   0.04274518            2 
  440000    1.1860674   -6.3131663    219.03672  0.041484228  0.042734725            3 
  441000    1.1809101   -6.3281552    219.76167  0.041527149  0.042724243            2 
  442000    1.1852329   -6.3144251     219.6066  0.041403959  0.042713248            5 
  443000    1.1723552   -6.2746676    220.31149  0.041443094  0.042702694            3 
  444000    1.1576222   -6.2966033     220.3563  0.041358165  0.042691789            3 
  445000    1.1942405   -6.3044959     221.1163  0.041407547  0.042681235            2 
  446000    1.1915161   -6.3268502    221.56647  0.041398816  0.042670478            4 
  447000      1.17497   -6.2979678    221.79279  0.041348395  0.042659308            2 
  448000    1.1719681   -6.3223895     222.5403  0.041395144  0.042648899            2 
  449000     1.180685   -6.2983917    223.62083  0.041503494  0.042638667            3 
  450000    1.1889349   -6.3069201    223.57548  0.041402867  0.042628369            2 
  451000    1.1902196   -6.2515272    224.56837  0.041494524  0.042618523            2 
  452000    1.1600459   -6.3085549    224.49281  0.041388792  0.042608333            3 
  453000    1.1921239   -6.3363162      224.577  0.041312914  0.042597543            3 
  454000    1.1662364   -6.2972088    225.62003  0.041413367  0.042587209            2 
  455000    1.1921359   -6.2861346    226.30517  0.041447833  0.042577013            2 
  456000    1.1587738   -6.3255099    226.14282  0.041327269  0.042566361            6 
  457000    1.1788968   -6.3096251    226.91908  0.041378387  0.042555925            2 
  458000    1.1833596   -6.2838832    227.78536  0.041445663  0.042545947            2 
  459000    1.1489231   -6.3008727    227.94474  0.041384303  0.042535804            2 
  460000    1.1837139   -6.3232042    227.82728  0.041273058  0.042524781            2 
  461000    1.1665267   -6.2755362    229.83741  0.041546893  0.042514015            2 
  462000     1.195995   -6.3399052    228.74628  0.041260152  0.042503098            2 
  463000    1.1914723   -6.2956593     229.8964  0.041378042  0.042491719            2 
  464000    1.1634206   -6.3047264    230.31697  0.041364398  0.042480298            4 
  465000    1.1873881   -6.3263574    230.55679  0.041318422  0.042469428            3 
  466000    1.1976404   -6.3434335    230.97555  0.041304641   0.04245854            2 
  467000    1.1863776   -6.2956914    231.37467  0.041287415  0.042447051            4 
  468000    1.1561879    -6.321834    231.42814  0.041208714  0.042435657            2 
  469000    1.1957248   -6.2737204    231.58016  0.041147861  0.042424126            4 
  470000    1.1551397   -6.3047679    232.33308  0.041193808  0.042413085            4 
  471000    1.1593708   -6.2839589    233.03331   0.04123024  0.042401753            2 
  472000    1.1756962   -6.3377975    232.90289   0.04111986  0.042389965            1 
  473000    1.1601551   -6.3224718    233.77138  0.041185937  0.042377983            3 
  474000    1.1749096   -6.3046498    234.35708  0.041202019  0.042366292            2 
  475000    1.2026518   -6.3029565    234.56638  0.041151996  0.042354741            3 
  476000    1.2078219   -6.3139004    234.65734  0.041081467  0.042343477            6 
  477000    1.1874045   -6.2903152    235.50973  0.041144257  0.042331445            3 
  478000    1.1595537   -6.3191694    235.97418  0.041139152  0.042319614            3 
  479000     1.167552   -6.3075831    235.68201  0.041002437  0.042307013            3 
  480000    1.1872363   -6.3258428    236.85964  0.041121465   0.04229438            5 
  481000    1.1386025   -6.3284164    235.85457  0.040861845  0.042282088            2 
  482000    1.1795253   -6.3550799    236.66885  0.040917851  0.042269166            3 
  483000    1.1470115   -6.3074444     238.4869  0.041146808  0.042256708            2 
  484000    1.1939895   -6.3470114    238.96915  0.041144827  0.042245039            3 
  485000    1.1869716   -6.3014266    239.29986  0.041116814   0.04223362            2 
  486000    1.1619473   -6.3132089    240.66822  0.041266842  0.042222474            3 
  487000    1.1695912   -6.3003966      240.512  0.041155372  0.042212371            3 
  488000    1.1863669   -6.3096433    241.30418  0.041206315  0.042202319            3 
  489000    1.1864752     -6.32553    240.89012  0.041051486    0.0421923            5 
  490000    1.1704219   -6.3429774    241.38924  0.041052592  0.042182663            2 
  491000    1.1850863   -6.3367608    241.47434  0.040983425  0.042172468            2 
  492000     1.190282   -6.2786664    244.11078  0.041346677  0.042163458            5 
  493000    1.1617836   -6.2933115    244.64822  0.041353654  0.042154909            3 
  494000    1.1897711   -6.3190033    244.12251   0.04118126   0.04214619            3 
  495000     1.179141   -6.3020861    245.09147  0.041261189  0.042137278            2 
  496000    1.1572586   -6.3098724    244.96481  0.041156723  0.042128223            6 
  497000    1.1571572   -6.3055575    244.54289  0.041003167   0.04211889            2 
  498000    1.1767456   -6.2829763    245.82447  0.041135287  0.042109527            2 
  499000     1.172826   -6.3167604    246.06822  0.041093558  0.042100141            2 
  500000    1.1544472   -6.3108185    246.46373  0.041077288  0.042089325            3 
  501000    1.1921251   -6.2602122     246.7482  0.041042614  0.042079391            4 
  502000    1.1944087   -6.3069063    247.13843  0.041025636  0.042069154            8 
  503000    1.1496579   -6.3179706    248.16368   0.04111393  0.042058941            2 
  504000    1.2023744   -6.3020831    248.48693  0.041085801  0.042049505           11 
  505000    1.1859154   -6.3114487    248.42748  0.040994633  0.042039388            2 
  506000    1.1823368   -6.3373876    248.77166    0.0409703  0.042029058            3 
  507000    1.1755259   -6.3097736    250.83181  0.041228108  0.042019575            1 
  508000    1.1551745   -6.3345288    250.51432  0.041094869  0.042010231            3 
  509000     1.182024   -6.3061493    250.31364  0.040981277  0.042000516            6 
  510000    1.1591914   -6.3149263    250.34739  0.040906436  0.041990538            3 
  511000    1.1622956   -6.3280488    252.32467  0.041148837  0.041981347            3 
  512000     1.176215   -6.2709707     252.6583   0.04112277  0.041972508            3 
  513000    1.1714762   -6.3180397    253.19486   0.04112977  0.041963526            4 
  514000    1.1865883   -6.3124458    253.60794  0.041116722  0.041954859            2 
  515000    1.1824901   -6.3531216    252.97317   0.04093417  0.041946517            3 
  516000    1.1592191   -6.3237855    254.34067  0.041075689  0.041937896            3 
  517000    1.1874855   -6.3306698     254.7001  0.041054175  0.041929605            2 
  518000    1.1709222   -6.3223994     255.2638  0.041065605  0.041921161            3 
  519000    1.1782394   -6.3153247    255.44939   0.04101628  0.041912907            2 
  520000    1.1592107   -6.3432024    255.74491  0.040984761  0.041903759            3 
  521000    1.1664136   -6.3507344    255.20947  0.040820453  0.041894751            3 
  522000    1.1470571   -6.3135814    257.52802  0.041112391  0.041885215            4 
  523000    1.1621809   -6.3343997    257.16978  0.040976702  0.041875847            2 
  524000     1.166987   -6.3179199    258.00804  0.041031813  0.041866039            3 
  525000    1.1894952   -6.3320778     257.6858  0.040902507  0.041856939            1 
  526000    1.1783571   -6.3102041     257.6198   0.04081429  0.041847347            1 
  527000    1.1693361    -6.349941    258.01111   0.04079872  0.041836818            2 
  528000    1.1676676    -6.349074    258.73954  0.040836418  0.041826431            3 
  529000    1.1782401   -6.3426964    259.45045  0.040871211  0.041815947            2 
  530000    1.1759054    -6.327348    259.37955  0.040782948  0.041806008            4 
  531000    1.1471655   -6.3202105    260.26912  0.040845751  0.041796334            3 
  532000    1.1718286   -6.3659051    260.80759  0.040853319  0.041786676            4 
  533000     1.170225   -6.3733143     260.8759  0.040787352  0.041776718            1 
  534000    1.1501427   -6.3193081     262.6726  0.040991355  0.041767812            3 
  535000    1.1703721   -6.3368193    262.24177  0.040847628   0.04175885            4 
  536000    1.1676846   -6.3662181    261.98484  0.040731473  0.041749811            5 
  537000    1.1725485   -6.3484519    262.56105  0.040745042  0.041740363            2 
  538000    1.1406154   -6.3038873    263.53337  0.040819915  0.041730616            2 
  539000    1.1995023   -6.3178144    264.30941  0.040864163  0.041721735            3 
  540000    1.1270439   -6.3024756    264.78677  0.040862157  0.041712573            2 
  541000     1.186082   -6.3459284    264.88754  0.040802147  0.041703458            3 
  542000    1.1785078   -6.3012108    264.81836   0.04071623  0.041694861            2 
  543000    1.1430033   -6.3043597    266.74087   0.04093629   0.04168603            2 
  544000    1.1646058   -6.3232839    266.53687   0.04082979  0.041677268            3 
  545000    1.1449407   -6.3164484    267.54818  0.040909508  0.041668506            3 
  546000    1.1502154    -6.299871    268.34936  0.040956862  0.041660987            6 
  547000    1.1435846   -6.3052715    268.52894  0.040909345   0.04165293            2 
  548000    1.1668536   -6.3438909    267.65683  0.040702072  0.041644431            8 
  549000    1.1722193   -6.2946491    268.46041   0.04074991  0.041635621            7 
  550000    1.1570116   -6.3071357    268.96775  0.040752689   0.04162627            2 
  551000     1.168096   -6.3120945    269.99795  0.040834536   0.04161676            2 
  552000    1.1578424   -6.3149389    270.21675  0.040793591  0.041607594            3 
  553000    1.1831775   -6.3388348    269.79989  0.040657006  0.041598493            6 
  554000    1.1676147    -6.378642    269.49055  0.040537087  0.041587893            3 
  555000    1.1686832   -6.3101849    270.91866  0.040678477  0.041577407            7 
  556000    1.1465317    -6.340642      270.871  0.040598171  0.041567343            3 
  557000    1.1796487   -6.3124745    273.20949  0.040875149  0.041558165            5 
  558000    1.1680502   -6.2971059    271.66063  0.040570584  0.041548937            3 
  559000    1.1795276   -6.3455894    272.84767  0.040674965  0.041539518            5 
  560000     1.137606   -6.3224215    273.30147  0.040669862  0.041529934            2 
  561000    1.1542905   -6.3354087    273.58883  0.040640052  0.041520838            3 
  562000    1.1701693   -6.2842873    274.99705  0.040776549   0.04151187            6 
  563000    1.1559603   -6.3437897    275.53309  0.040783464  0.041503388            4 
  564000    1.1661067   -6.2641138    275.21217  0.040663737  0.041493905            4 
  565000    1.1850423   -6.3352145    274.55263  0.040494488  0.041484422            3 
  566000    1.1548319   -6.3392795    275.35184  0.040540612  0.041474605            3 
  567000    1.1844374   -6.3145966    276.79487  0.040681197  0.041465251            2 
  568000    1.1722608   -6.3617342    276.95274  0.040632738   0.04145628            4 
  569000    1.1629179   -6.3369052    277.60147  0.040656337  0.041447302            2 
  570000    1.1392557   -6.3896737    277.48555  0.040568062  0.041437891            4 
  571000    1.1735092   -6.4030641    277.69454  0.040527516   0.04142854            5 
  572000    1.1730512   -6.3236357    279.40303   0.04070557  0.041419598            4 
  573000    1.1465148   -6.3134932    280.09862  0.040735692   0.04141065            5 
  574000    1.1287985   -6.3304311    280.07972   0.04066198  0.041402104            3 
  575000    1.1711691   -6.3669359    280.10607  0.040595082  0.041393786            2 
  576000    1.1987686   -6.3537796    281.86002   0.04077836  0.041386182            5 
  577000    1.1520621   -6.3389389    281.42162   0.04064437  0.041378273            4 
  578000    1.1866742   -6.3693508    282.08789  0.040670111  0.041370432            2 
  579000    1.1467883   -6.3182772    282.91344  0.040718687  0.041362598            3 
  580000    1.1498347   -6.3001771    283.46294  0.040727433  0.041354851            3 
  581000    1.1502141   -6.3673831    283.02216  0.040594114  0.041347343            3 
  582000    1.1676229   -6.3193076    283.56513   0.04060211  0.041339174            4 
  583000    1.1582366   -6.3253504    284.93639  0.040728471  0.041331464            2 
  584000    1.1919652   -6.3502723    284.86693   0.04064882  0.041323884            3 
  585000    1.1492031   -6.3269232    286.32942  0.040787667  0.041316674            2 
  586000    1.1523778   -6.3556457     285.7874  0.040640983  0.041309311            2 
  587000    1.1503943   -6.3241402    286.96036  0.040738268  0.041302051            9 
  588000    1.1565533   -6.3389668    286.43465  0.040594479  0.041294495            3 
  589000    1.1478337   -6.3119779     287.6066  0.040691369  0.041287028            3 
  590000    1.1455379   -6.3321238     287.0459  0.040543207  0.041279112            3 
  591000    1.1402547   -6.3496723    288.31027  0.040652887  0.041271442            5 
  592000    1.1537833   -6.3396183    287.47292  0.040466346   0.04126415            2 
  593000    1.1457794   -6.3477301    289.50557  0.040683751  0.041256879            3 
  594000    1.1492712   -6.3849373    289.30146  0.040586624  0.041249197            4 
  595000    1.1796352   -6.3462905    290.44403  0.040678436  0.041242149            2 
  596000    1.1400868   -6.3587576    290.99304  0.040686946  0.041235293            1 
  597000    1.1464208   -6.3247961    291.59259  0.040702484   0.04122911            2 
  598000    1.1472438   -6.3359915     292.1844   0.04071689  0.041222688            2 
  599000    1.1812395   -6.3217903     292.4544  0.040686478  0.041216413            2 
  600000     1.173284   -6.3545632    293.06468  0.040703428  0.041210594            2 
  601000    1.1397882   -6.3559319    292.59332  0.040570344  0.041204111            2 
  602000    1.1605435   -6.3198383    293.83747  0.040675175  0.041197929            2 
  603000     1.159564   -6.3558016    294.55628  0.040707059  0.041191723            3 
  604000    1.1654534   -6.3460394    294.90685  0.040688031  0.041185436            3 
  605000     1.166387   -6.3270274    295.69992  0.040730016  0.041179279            4 
  606000     1.146968   -6.3555269    295.35375  0.040615203  0.041173883            2 
  607000     1.158546   -6.3251052    296.80439  0.040747445  0.041168219            6 
  608000    1.1551674   -6.3418473    297.97353   0.04084067  0.041163625            4 
  609000    1.1550143   -6.3515514    298.74595  0.040879303  0.041159127            1 
  610000    1.1462875   -6.3594484     298.8118  0.040821283  0.041154674            3 
  611000    1.1648432   -6.3579184    299.69447  0.040874859  0.041150272            2 
  612000    1.1623262   -6.3734624    300.51747  0.040920135  0.041146649            5 
  613000    1.1595001   -6.3256251    301.71359  0.041015985  0.041143255            4 
  614000    1.1561918   -6.3423362    300.78622  0.040823319  0.041140034            3 
  615000    1.1634591   -6.3836761    301.55117  0.040860592  0.041136424            3 
  616000    1.1274795   -6.3682473    300.99124  0.040718512  0.041132604           10 
  617000    1.1181947   -6.3439996    302.97105  0.040919915  0.041128849            5 
  618000    1.1757927   -6.3568176    303.83443  0.040970123  0.041125428            2 
  619000    1.1393838   -6.3260301    303.53204  0.040863226  0.041121428            2 
  620000    1.1749762   -6.3668981    302.69738  0.040685131  0.041117128            3 
  621000    1.1484453   -6.3498346    304.39297  0.040847151   0.04111306            6 
  622000    1.1695241   -6.3552231    304.30567  0.040769784  0.041109225            3 
  623000    1.1629095   -6.3450028    306.97999  0.041062064  0.041105909            1 
  624000    1.1376848   -6.3239101    306.82957  0.040976171  0.041102668            3 
  625000    1.1532581    -6.351601    306.60269  0.040880359  0.041099399            4 
  626000    1.1488406   -6.3393765    306.67241  0.040824335  0.041096436            6 
  627000    1.1544681   -6.3149566    308.33628  0.040980367  0.041093321            4 
  628000     1.130677   -6.3685281    308.58918   0.04094867  0.041090415            2 
  629000    1.1273167   -6.3624547     309.0847  0.040949219  0.041087418            2 
  630000    1.1650034    -6.384163    309.85947  0.040986703  0.041085044            3 
  631000    1.1231874   -6.3561094    309.79504  0.040913238   0.04108265            2 
  632000    1.1506921   -6.3245514    311.18198  0.041031379  0.041080577            6 
  633000     1.144441    -6.310178    311.98634  0.041072451  0.041078149            2 
  634000     1.162389   -6.3293608    311.35833  0.040925122  0.041076001            4 
  635000    1.1579839   -6.3445296    313.27184   0.04111179  0.041073643            4 
  636000    1.1612589   -6.3403443    313.11579  0.041026702  0.041071149            1 
  637000    1.1577966   -6.3496014    313.08263  0.040957957  0.041068531            2 
  638000    1.1767648    -6.354856    313.81792  0.040989801  0.041066299            3 
  639000     1.143849   -6.3252096    313.21786  0.040847399  0.041063442            1 
  640000    1.1432663   -6.3743347    313.96564  0.040880942  0.041060406            2 
  641000    1.1688689   -6.3508086    313.90711  0.040809556  0.041057117            2 
  642000    1.1512525    -6.329426    315.45209  0.040946533  0.041053529            3 
  643000    1.1338857    -6.310757    314.73392  0.040789777  0.041050314            3 
  644000    1.1347933   -6.3570048    316.18436  0.040914126  0.041046584            3 
  645000    1.1446867   -6.3557034    316.35479  0.040872712  0.041043244            4 
  646000    1.1510274   -6.3251048    316.97974  0.040890059  0.041040199            3 
  647000    1.1388292   -6.3025389    318.35643  0.041004177  0.041037323            3 
  648000    1.1417097   -6.3597412    317.73589  0.040861097  0.041034507            3 
  649000    1.1583927   -6.3490255    318.05262  0.040838806  0.041031292            4 
  650000    1.1702996   -6.3237469    318.86152  0.040879682  0.041027655            2 
  651000    1.1525614    -6.340409    317.36267  0.040625021  0.041023962            3 
  652000    1.1692507   -6.3185966    318.51422  0.040709896  0.041019295            3 
  653000    1.1209094   -6.3643562    318.79935   0.04068394  0.041015166            5 
  654000    1.1682924    -6.340805    318.86389  0.040629956  0.041010592            1 
  655000    1.1210673   -6.3567507    319.29608  0.040622911   0.04100644            6 
  656000    1.1421489    -6.357085    320.68283  0.040737149  0.041002759            6 
  657000    1.1328015   -6.3430091    321.71056  0.040805499  0.040999514            3 
  658000    1.1480934   -6.3871957      321.685  0.040740249  0.040996248            1 
  659000    1.1312791   -6.3846863    322.34315  0.040761653   0.04099303            4 
  660000    1.1489465   -6.3621523     323.0646  0.040790984  0.040989714            3 
  661000    1.1631124   -6.3471028    324.09337  0.040858973  0.040986605            2 
  662000    1.1270541   -6.3626479     324.4778  0.040845644  0.040983479            3 
  663000    1.1357301   -6.3404268    324.87782  0.040834317  0.040980634            3 
  664000     1.144301   -6.3671116    325.83252  0.040892635  0.040977855            2 
  665000    1.1515809   -6.3884471    325.43183  0.040780931  0.040974741            2 
  666000    1.1605471   -6.3979628    326.19896  0.040815686  0.040972098            3 
  667000    1.1461051   -6.3704365    326.94968  0.040848285   0.04096962            2 
  668000    1.1461018   -6.3467345    327.56323  0.040863676  0.040966748            2 
  669000    1.1413839   -6.4249778     326.4987  0.040669992  0.040963558            5 
  670000    1.1299076   -6.4108316    328.00892   0.04079713  0.040959678            3 
  671000    1.1512422   -6.3945373    328.47643   0.04079439  0.040956187            4 
  672000    1.1426223   -6.3813269    327.98899  0.040673238  0.040952639            2 
  673000     1.142507   -6.3436639    328.73002   0.04070456  0.040949383            6 
  674000    1.1491002   -6.4132698    329.92033  0.040791336  0.040945894            2 
  675000    1.1277585   -6.3463622    329.14406  0.040635069  0.040942482            2 
  676000    1.1467866   -6.3767913    329.51354  0.040620505  0.040938915            2 
  677000    1.1579235   -6.3119704    332.15602  0.040885773   0.04093528            4 
  678000    1.1371618   -6.3944032     331.9932  0.040805458  0.040931599            3 
  679000    1.1488941   -6.3705092    331.30526   0.04066093  0.040927812            2 
  680000    1.1366802   -6.3987421    332.04718  0.040692057  0.040923447            2 
  681000    1.1589343   -6.3671279    332.40628  0.040676246  0.040918995            2 
  682000    1.1228075   -6.4150452    332.59538  0.040639709  0.040914675            3 
  683000    1.1535846   -6.3654909    333.35817  0.040673276  0.040909879            3 
  684000    1.1430706   -6.3904246    332.29915  0.040484789  0.040905152            4 
  685000    1.1654554   -6.3508657    333.36902  0.040555841  0.040900658            2 
  686000    1.1592119   -6.3507099    334.93561  0.040687027  0.040896798            4 
  687000    1.1656159   -6.3614742    335.84324    0.0407379  0.040892944            2 
  688000    1.1466064   -6.3234542    336.21203  0.040723356   0.04088884           13 
  689000     1.158718   -6.3586924    334.77845  0.040490862  0.040884855            4 
  690000    1.0896003   -6.4023437    335.01884  0.040461212  0.040880048            1 
  691000    1.1360037   -6.3534705    336.82903  0.040620963   0.04087558           10 
  692000    1.1408161   -6.3845591    337.29616  0.040618516    0.0408711            1 
  693000    1.1475118    -6.373581    336.61903  0.040478479   0.04086661            2 
  694000    1.1374721   -6.3852481    337.54325  0.040531129   0.04086229            5 
  695000    1.1100616    -6.346382    338.66762  0.040607628  0.040858003            5 
  696000    1.1174301   -6.3610415    339.61531  0.040662752  0.040854153            4 
  697000    1.1516665   -6.3535121    340.10896  0.040663434  0.040850457            2 
  698000    1.1261457   -6.4210045     340.3628  0.040635483   0.04084662            2 
  699000    1.1234491   -6.3336702    340.72486  0.040620513  0.040842999            3 
  700000    1.1705563   -6.3497601    341.75502  0.040685121  0.040839903            5 
  701000    1.1496295   -6.3687164    341.38445   0.04058303  0.040836575            3 
  702000    1.1695416   -6.3720727    342.85971  0.040700346  0.040832549            4 
  703000    1.1329188   -6.3414035    342.37502  0.040584996  0.040829009            3 
  704000    1.1656742   -6.3438628     342.3883  0.040528919   0.04082528            2 
  705000    1.1414829   -6.3767414    342.56775  0.040492642  0.040821169            2 
  706000    1.1493337   -6.3739245    344.22458  0.040630852  0.040817253            2 
  707000    1.1309459   -6.3595656    346.05438  0.040789059   0.04081392            2 
  708000    1.1335423   -6.3954443    345.25612   0.04063749  0.040811056            6 
  709000    1.1402929   -6.3566645    345.67839  0.040629806  0.040807688            3 
  710000    1.1476727   -6.3298933    346.78228  0.040702146  0.040804783            4 
  711000    1.1162025   -6.3756607    346.61066  0.040624784  0.040801875            5 
  712000    1.1238261    -6.358151    347.51982  0.040674136  0.040798794            3 
  713000    1.1280392   -6.3913443     347.7733  0.040646716  0.040795478            4 
  714000     1.137387   -6.3818173    347.50542  0.040558522  0.040791961            3 
  715000     1.123802   -6.3827806    348.57514  0.040626473  0.040788235            9 
  716000    1.1378517    -6.393223    347.94228  0.040496076  0.040784396            1 
  717000    1.1351649   -6.4063966    348.80065   0.04053936  0.040780759            3 
  718000    1.1268655   -6.3486906    349.28188  0.040538751  0.040776889            2 
  719000    1.1124264   -6.4205854    349.46287  0.040503346  0.040773528            4 
  720000    1.1459168    -6.401414    350.29719  0.040543657  0.040769772            4 
  721000    1.1279026   -6.4051785    350.16497  0.040472142  0.040765696            2 
  722000    1.1307509    -6.360679     350.9642  0.040508333  0.040762013            2 
  723000    1.1396998   -6.4146709    350.53277  0.040402578  0.040758008            3 
  724000    1.1485416   -6.3792388    351.69881  0.040480986  0.040754001            5 
  725000    1.1488569   -6.3718442    352.35151  0.040500174  0.040750181            3 
  726000    1.1303951   -6.3628129    352.78466  0.040494107  0.040746125            7 
  727000     1.135786   -6.3846771    353.49104  0.040519377  0.040741768            4 
  728000    1.1381985   -6.3973829    352.30167  0.040327573   0.04073768            6 
  729000    1.1412289   -6.3801058    353.39348   0.04039706  0.040733049            4 
  730000    1.1429772   -6.4037082    353.45808  0.040349096   0.04072796            3 
  731000    1.1314495   -6.3937715    354.10028  0.040367109  0.040723236            8 
  732000    1.1483931   -6.4237623     354.4245  0.040348873  0.040718189            2 
  733000    1.1161116   -6.3714694    353.88049  0.040231979    0.0407132            1 
  734000    1.1331335   -6.3698345    354.53251  0.040251193  0.040707912            5 
  735000    1.1279003   -6.3896654    354.78492  0.040225048  0.040702763            3 
  736000    1.1326855   -6.3865117    356.14316   0.04032418  0.040697233            5 
  737000    1.1304306   -6.3800539    356.11345  0.040266107  0.040691719            5 
  738000    1.1436673   -6.3785848    355.52931  0.040145586  0.040685364            5 
  739000    1.1130903   -6.3621663    357.38297  0.040300289  0.040679687            2 
  740000    1.1716893   -6.3845014     356.0221  0.040092579  0.040673564            4 
  741000    1.1276837   -6.3814437    357.66107  0.040222792  0.040667623            4 
  742000    1.1391545   -6.4080636    357.83893  0.040188559  0.040661978            6 
  743000    1.1464915   -6.4292384    357.40097  0.040085348   0.04065603            9 
  744000    1.1503363   -6.3864166    357.83665  0.040080269  0.040649749            3 
  745000    1.1278999   -6.3869599    359.61974  0.040225921  0.040643087            3 
  746000    1.1091045   -6.3906369    359.96521  0.040210591  0.040636388            4 
  747000    1.1316445   -6.4062707    359.81491  0.040139994  0.040630225            4 
  748000     1.145898   -6.3877287    359.56556  0.040058551  0.040623799            2 
  749000    1.1309186   -6.3925946    361.28822  0.040196732  0.040617392            7 
  750000    1.1224797   -6.3767527    360.11563  0.040012847  0.040610511            2 
  751000    1.1294475   -6.4121917    361.19046  0.040078835  0.040603821            2 
  752000    1.1327373   -6.3911119    360.85668   0.03998855  0.040596712            3 
  753000    1.1217339   -6.3602456    362.01767   0.04006393  0.040589885            2 
  754000    1.1430663    -6.362467    361.64943  0.039970097    0.0405828            3 
  755000    1.1343912   -6.3569629    362.72776  0.040036176  0.040575524            4 
  756000    1.1187108   -6.3778673    362.88765  0.040000843   0.04056859            4 
  757000    1.1219845   -6.4146287    362.43337  0.039897994  0.040561352            5 
  758000    1.1161462   -6.3604237    363.90085   0.04000669  0.040554111            2 
  759000    1.1430988   -6.4235698    361.93183  0.039737795  0.040546147           13 
  760000    1.1468068   -6.4144918    363.23899  0.039828837  0.040538629            3 
  761000    1.1349552   -6.3690484    365.31703  0.040004055  0.040531609            2 
  762000    1.1185555   -6.3791852    366.18772  0.040046776  0.040524896            2 
  763000    1.1428441   -6.3822088    366.06335  0.039980707  0.040518046            3 
  764000    1.1455255   -6.3896908    365.91828  0.039912552  0.040510777            5 
  765000    1.1328153   -6.4400993    366.39749  0.039912581  0.040503579            3 
  766000    1.1322918   -6.4268285    367.25777  0.039954065  0.040496072            5 
  767000    1.1313913   -6.3635445    368.29614  0.040014792  0.040489024            3 
  768000    1.1287613   -6.4298782    367.63149   0.03989057  0.040482227            6 
  769000    1.1314532   -6.4313889    367.20196   0.03979215  0.040475538            2 
  770000    1.1297797   -6.3895973    367.62243  0.039785977  0.040468082            4 
  771000    1.1377373   -6.4092843    368.34983  0.039812995  0.040460902            4 
  772000    1.1153912   -6.4494768    368.63649  0.039792368  0.040453212            2 
  773000    1.1287545   -6.4124089    368.98196  0.039778133  0.040445714            4 
  774000    1.1199716   -6.4241112    368.75735  0.039702557  0.040438483            4 
  775000    1.1013749   -6.4248433    368.65264  0.039640069  0.040430831            3 
  776000    1.1249185   -6.3823765    370.73447   0.03981255  0.040423108            5 
  777000    1.1091542    -6.383842    371.63522  0.039857917  0.040415809            4 
  778000    1.1320956   -6.4113898    371.21236  0.039761392  0.040408235            2 
  779000    1.1194561   -6.3932609    373.61544  0.039967419  0.040401189            3 
  780000    1.1271744   -6.4023833    372.72805  0.039821373  0.040394328            5 
  781000    1.1168257   -6.4252079     372.9015  0.039788892  0.040387199            3 
  782000    1.1198964   -6.4581432    372.71763  0.039718418  0.040379691            4 
  783000    1.1409149   -6.4000339    373.21712  0.039720852  0.040371924            3 
  784000    1.1167291   -6.4143094    372.94643  0.039641415  0.040364757            6 
  785000    1.1221174   -6.3737618    374.73148  0.039780412  0.040357308            2 
  786000     1.137216   -6.3786998    374.75038  0.039731804  0.040350014            6 
  787000    1.1299874   -6.4019591    374.10697  0.039613191  0.040342452            8 
  788000    1.1089522    -6.417443    374.17184  0.039569781  0.040334406            4 
  789000    1.1017222   -6.4050977    375.28443  0.039637139  0.040326196            2 
  790000    1.1316599   -6.3902369    374.51569  0.039505875  0.040318083            3 
  791000    1.1281644   -6.3704658    376.68354  0.039684318  0.040310029            2 
  792000    1.1270593   -6.3882797    376.41029   0.03960546  0.040302124            6 
  793000    1.1412925   -6.3569272    377.86309  0.039708185  0.040294319            3 
  794000    1.1281162   -6.4065446    376.58038   0.03952355   0.04028584            3 
  795000    1.1292792   -6.3606442     376.5953  0.039475398  0.040277041            1 
  796000    1.1163367    -6.397822    378.12982  0.039586455  0.040268379            2 
  797000    1.1345308   -6.3889601    377.26534  0.039446397  0.040259462            4 
  798000    1.1165787   -6.3880781    378.00917  0.039474642  0.040250805            2 
  799000    1.1219102   -6.3947002    378.26002    0.0394514   0.04024192            3 
  800000    1.1468707   -6.4173607    377.07068  0.039278195  0.040232263            1 
  801000    1.1184848    -6.401883      378.623  0.039390657  0.040222675            3 
  802000    1.1361345   -6.3663699    377.76502  0.039252392  0.040213031            3 
  803000     1.100936   -6.4107838    378.95465  0.039326966  0.040203368            4 
  804000    1.1219748    -6.389029     378.7192  0.039253648  0.040193409            2 
  805000    1.1136346   -6.3783508    380.83868  0.039424294  0.040183874            3 
  806000     1.133987   -6.3804982    379.91485  0.039279865  0.040173953            3 
  807000    1.1096802    -6.385885    379.98467  0.039238401  0.040164139            3 
  808000    1.1270943   -6.3687297    380.69521  0.039263119  0.040154005            5 
  809000    1.0974806   -6.3822908    380.79867  0.039225244  0.040143976            2 
  810000    1.1420895   -6.4152674    380.51262  0.039147389  0.040134004            9 
  811000    1.1515673   -6.4482536    380.50776  0.039098619  0.040123555            5 
  812000    1.1284222    -6.413132    380.57393  0.039057258  0.040113238            2 
  813000    1.1497429   -6.4235609    381.24531  0.039078035  0.040102597            3 
  814000    1.0993582   -6.3781457    381.44314   0.03905028   0.04009199            4 
  815000    1.1230855   -6.3895161    381.56919  0.039015255  0.040080977            4 
  816000    1.1024701   -6.4196613    383.41479  0.039155922  0.040070222            6 
  817000    1.1255698   -6.4151244    382.92478  0.039058015  0.040059682            5 
  818000    1.1336954   -6.4135466    383.61752   0.03908084  0.040048871            2 
  819000     1.155833   -6.4202933    383.01499  0.038971814  0.040038262            1 
  820000    1.1168549   -6.4100266    383.99947  0.039024337  0.040027509            5 
  821000    1.1335538   -6.3933917    384.75018  0.039053002  0.040016715            4 
  822000    1.1023038   -6.4157019    384.61735  0.038992026  0.040005624            2 
  823000    1.0934973   -6.4523362    384.63936  0.038946878  0.039994641            7 
  824000    1.1194181   -6.3889291    385.26427   0.03896281   0.03998342            2 
  825000    1.1272276   -6.4203017    384.86045  0.038874793  0.039971906            6 
  826000    1.1259305   -6.4413022     384.4767  0.038789013  0.039960718            5 
  827000    1.1050755   -6.4559119    385.31328  0.038826408  0.039949273            2 
  828000    1.0869984   -6.3918973    385.88965  0.038837525  0.039937925            2 
  829000    1.1166739   -6.4217371    385.84304  0.038785991  0.039926784            4 
  830000    1.1161322   -6.4143282    387.69458  0.038925158  0.039915707            4 
  831000    1.1295507   -6.4326051     386.5742  0.038765964  0.039904363            2 
  832000    1.1482341   -6.4285771    389.48978  0.039011397  0.039893502            4 
  833000    1.1238734   -6.3912406    387.84834  0.038800354   0.03988235            3 
  834000    1.1076721    -6.420387    388.59763    0.0388287  0.039871491            3 
  835000    1.1326285   -6.4173735    389.77809  0.038900009  0.039860626            6 
  836000    1.1316414   -6.4147296    388.91854  0.038767797  0.039849453            3 
  837000    1.0969072   -6.4085097    389.71467  0.038800744  0.039838276            2 
  838000    1.1136531   -6.3882168     390.6364  0.038846102  0.039827162            5 
  839000    1.1081016   -6.4231117    390.38397  0.038774729  0.039816245            2 
  840000    1.1155596   -6.4304452    390.31127  0.038721356  0.039805327            3 
  841000    1.1180246   -6.4235321    391.26052  0.038769374   0.03979392            3 
  842000    1.1311328   -6.4184149    391.49636   0.03874667  0.039782908            3 
  843000    1.1168233   -6.4227363    391.74358  0.038725146  0.039771545            9 
  844000    1.0918965   -6.4366019    391.07307   0.03861306  0.039760119            3 
  845000    1.1262689   -6.4641092    391.67056  0.038626288  0.039748393            2 
  846000     1.107472   -6.3990293    392.66279  0.038678368  0.039737147            3 
  847000    1.1017897   -6.3990944     393.3197  0.038697333  0.039725939            4 
  848000    1.1171804   -6.4210777    394.35355  0.038753297  0.039715224            2 
  849000    1.1115175   -6.4527489     393.3744  0.038611543   0.03970404            3 
  850000     1.094192   -6.4398631    394.69181  0.038695276  0.039692979            2 
  851000    1.1246792   -6.4145604    394.74854   0.03865536  0.039681854            6 
  852000    1.1168771   -6.4126645    395.96034  0.038728516   0.03967092            4 
  853000    1.1256793   -6.3812823    396.33906  0.038720111  0.039659909            4 
  854000    1.1080492   -6.4146197    396.24267  0.038665366  0.039649216            2 
  855000    1.1109331   -6.4235806    396.16621  0.038612691  0.039638061            3 
  856000    1.0792436   -6.4586709     396.0456  0.038555841  0.039627039            2 
  857000    1.1049092    -6.454571    397.98829  0.038699756  0.039615813            5 
  858000    1.1181019   -6.4081748    398.36238  0.038690985  0.039604953            3 
  859000    1.1120521   -6.4555257     398.4672  0.038656112  0.039593812            4 
  860000    1.1021074   -6.3903311    398.65851    0.0386297  0.039582592            4 
  861000    1.1042854   -6.4565518    397.69813  0.038491883  0.039571531            4 
  862000    1.1305079   -6.4318237    398.54232   0.03852884  0.039559805            1 
  863000    1.1074808   -6.4095309    399.50753  0.038577398   0.03954812            4 
  864000    1.1301273    -6.397343    399.06908  0.038490459  0.039536883            2 
  865000    1.0913669   -6.4059228    400.65111  0.038598373  0.039525757            4 
  866000     1.119334   -6.4547523     400.9515  0.038582708  0.039514752            2 
  867000    1.1130587   -6.4056688    401.72895  0.038612932   0.03950396            4 
  868000    1.1055991   -6.4428818    401.04391   0.03850268  0.039492864            4 
  869000    1.1102553   -6.4009136    401.95306  0.038545557  0.039481792            3 
  870000    1.1011093    -6.408078    401.21711  0.038430757  0.039470878            2 
  871000    1.1119172   -6.4237702    402.50487  0.038509842   0.03945955            7 
  872000    1.1304953   -6.4190824    402.85582  0.038499218  0.039448312            2 
  873000    1.0885057   -6.4624474    400.46087  0.038226505  0.039436926            3 
  874000    1.1131458   -6.4400741    401.83158  0.038313461  0.039425317            7 
  875000    1.1095829   -6.4311025    402.83288  0.038365036   0.03941369            3 
  876000      1.13304   -6.4202021    403.44767  0.038379725  0.039402006            3 
  877000     1.112124   -6.4532145     402.7095  0.038265821  0.039390373            3 
  878000    1.1221129   -6.4502275    403.05775  0.038255292  0.039378648            3 
  879000    1.1007677   -6.4210549    404.64022  0.038361795  0.039366785            3 
  880000    1.1254644   -6.4239096    405.34215  0.038384673  0.039355253            5 
  881000    1.1161522   -6.4317501    404.64589  0.038275245  0.039343545            2 
  882000     1.121685   -6.4407426    404.11077  0.038181289  0.039331612            3 
  883000    1.1158803   -6.3910311    406.45655  0.038359433  0.039320163            6 
  884000    1.1191908   -6.4129987    406.22026  0.038293765  0.039308493            4 
  885000    1.1028231   -6.4326621     405.7793  0.038208974  0.039296643            3 
  886000    1.1216977   -6.4300986    406.25847  0.038210917  0.039284978            3 
  887000    1.0926928   -6.4393865     407.2084  0.038257084  0.039273249            3 
  888000    1.1304528   -6.4407332    405.93555  0.038094553  0.039261346            1 
  889000    1.1225445   -6.4302316    406.73963  0.038127074  0.039249088            2 
  890000    1.0995667   -6.3876748    407.17365  0.038124874  0.039236997            3 
  891000    1.0929388    -6.454642    407.23613  0.038087929  0.039225026            3 
  892000    1.1054153   -6.4052696    408.80243  0.038191557  0.039212739            6 
  893000    1.1080984   -6.4302994     409.2571  0.038191219  0.039200594            3 
  894000     1.085528   -6.4577955    407.64169  0.037997921   0.03918836            5 
  895000    1.1142509   -6.4570004    409.16124   0.03809695  0.039175906            4 
  896000    1.1031968   -6.4463936    409.21653  0.038059573  0.039163594            2 
  897000    1.1074101   -6.4684285     408.1688  0.037919807  0.039151036            3 
  898000    1.0996584   -6.4389994    409.54622  0.038005402  0.039138832            4 
  899000     1.108019   -6.4681492    409.65097  0.037972837  0.039126321            5 
  900000    1.0910038   -6.4425137    410.59648  0.038018193  0.039113988            3 
  901000    1.1099893   -6.4129801    410.62145  0.037978307  0.039101775            5 
  902000    1.1129645   -6.4533323    411.09328  0.037979793  0.039089702            6 
  903000     1.106483   -6.4071969    413.42287   0.03815272  0.039077376            3 
  904000    1.1187856   -6.4342289    412.17346  0.037995341  0.039065244            4 
  905000    1.0969214   -6.4443405    411.98363  0.037935878  0.039053499            4 
  906000    1.1194835   -6.4684029    413.85962  0.038066558  0.039041463            6 
  907000    1.0876303   -6.4118129    412.98888  0.037944587  0.039029872            3 
  908000    1.1213141   -6.4770978    412.73913  0.037879876  0.039018187            3 
  909000    1.1070184   -6.4599212    414.60192  0.038008977  0.039006029            3 
  910000    1.0818971   -6.4018263    416.23407  0.038116673  0.038994199            3 
  911000    1.0817711   -6.4441998    414.86182  0.037949306  0.038982566            4 
  912000    1.1075937   -6.4160475    416.07046  0.038018134  0.038971183            2 
  913000     1.072901    -6.443304    417.10413   0.03807084  0.038959823            6 
  914000     1.100974   -6.4638002    416.09115   0.03793683   0.03894855            2 
  915000    1.0776242   -6.4441557    417.44236   0.03801843  0.038936956            2 
  916000    1.1236924   -6.4349528    417.25009  0.037959433  0.038925444            2 
  917000    1.1112238   -6.4513981    416.81503  0.037878502  0.038913984            5 
  918000    1.1125833   -6.4364647    417.64847  0.037912896  0.038902494            5 
  919000    1.0989878   -6.4425305    417.44191  0.037852912   0.03889112            3 
  920000    1.0770554    -6.434336    418.12478  0.037873621  0.038879377            4 
  921000    1.0867991   -6.4304214    419.33016  0.037941563  0.038868024            5 
  922000    1.1006586   -6.4071143    418.93188  0.037864414  0.038856823            2 
  923000    1.1197478   -6.4507653    420.24216   0.03794169  0.038845465            4 
  924000    1.1102258   -6.4226689    420.39001  0.037913962  0.038834232            5 
  925000    1.0870205   -6.4493292    421.92942  0.038011659  0.038823152            2 
  926000    1.1164207   -6.4160793    421.30475  0.037914394  0.038812003            3 
  927000    1.0922092   -6.4298095    421.57879  0.037898129  0.038800725            4 
  928000    1.0828798   -6.4780356    421.01581  0.037806736  0.038789477            6 
  929000    1.1095179   -6.4381453    422.99152  0.037943265   0.03877822            7 
  930000    1.0989915   -6.4475373    420.90429  0.037715438  0.038767042            7 
  931000    1.0908502   -6.4170368    422.27611  0.037797718  0.038755924            4 
  932000    1.1079384   -6.4396537    423.85612  0.037898437  0.038744388            2 
  933000    1.1126419    -6.477187    422.65835  0.037750835  0.038732719            7 
  934000    1.0987535     -6.43389    423.80202  0.037812457   0.03872126            2 
  935000    1.1040453   -6.4141029    422.93563  0.037694797  0.038709751            1 
  936000     1.122129   -6.4345259    424.85227  0.037825167   0.03869843            5 
  937000    1.1035057   -6.4654348    423.81711  0.037692735  0.038687442            3 
  938000    1.1309488   -6.4567722    425.93929  0.037841089  0.038676606            2 
  939000    1.1212368   -6.4419246     425.1102   0.03772721  0.038665689            5 
  940000    1.0974468   -6.4719934    426.38955  0.037800492  0.038654987            4 
  941000    1.1018952   -6.4531464    427.30086  0.037841026  0.038644183            5 
  942000    1.1003974   -6.4655146    425.87075  0.037674341  0.038633275            2 
  943000    1.1016414   -6.4459276    427.60002  0.037787206  0.038622296            2 
  944000    1.1123305   -6.4677757    426.11593  0.037616166  0.038611167            3 
  945000    1.1173203   -6.4417389    426.83294  0.037639589  0.038599895            8 
  946000    1.0884366   -6.4097228    428.69476  0.037763809  0.038588679            1 
  947000    1.1231487   -6.4351805    428.89282  0.037741361  0.038577619            2 
  948000    1.0841987   -6.4562913    429.07698  0.037717737  0.038566528            4 
  949000    1.1100837    -6.437082    429.27487  0.037695369   0.03855533            2 
  950000    1.1139058   -6.4414465     429.4607  0.037671991  0.038544328            2 
  951000    1.1068492   -6.4431769    429.08529  0.037599482  0.038533225            2 
  952000    1.0732775   -6.4481596    431.35059   0.03775828  0.038522453            5 
  953000    1.1040502   -6.4385398    430.43081  0.037638231  0.038511443            4 
  954000    1.0799828   -6.4537288    431.78573  0.037717132  0.038500721            2 
  955000    1.0996816   -6.4378538     432.8443  0.037770008  0.038490068            3 
  956000    1.1356065   -6.4519105     433.3664  0.037776012  0.038479493            6 
  957000    1.1062989   -6.4247683    432.42034  0.037654157  0.038468945            2 
  958000    1.0820935   -6.4547415    433.21763  0.037684206  0.038458127            3 
  959000    1.1135608   -6.4455536    432.72679  0.037602259  0.038447185            3 
  960000     1.060953   -6.4287495    432.98855  0.037585812  0.038436138            8 
  961000    1.1007272   -6.4318944     433.1674  0.037562209  0.038424896            3 
  962000    1.0874829   -6.4023056    435.85462  0.037755944  0.038414145            5 
  963000    1.0705601   -6.4357139    436.11613  0.037739368  0.038403638            4 
  964000    1.0939854   -6.4615253    433.16693  0.037445274  0.038393005            4 
  965000    1.1188293   -6.4885374    433.72166  0.037454374  0.038382406            3 
  966000    1.1016852   -6.4256427    435.55145  0.037573452  0.038371419            3 
  967000    1.0670782   -6.4560465    436.75712  0.037638497  0.038360416            4 
  968000    1.1029291   -6.4621907    435.74175  0.037512203  0.038349368            7 
  969000    1.0929638   -6.4584564    436.53236  0.037541483  0.038338441            7 
  970000    1.0859627   -6.4564299     436.6274  0.037510945  0.038327455            2 
  971000    1.1039544   -6.4780878    437.02208  0.037506186  0.038316632            2 
  972000    1.0894325   -6.3968246    437.25393  0.037487477  0.038305729            4 
  973000    1.0886529   -6.4637195    438.05133  0.037517243  0.038294977            6 
  974000     1.096251   -6.4785149    438.77653  0.037540771  0.038284677            5 
  975000    1.0887347   -6.4368559     438.5307  0.037481257  0.038274193            3 
  976000    1.1055008    -6.428456    440.01335  0.037569446  0.038263723            4 
  977000    1.1032132   -6.4766678    441.01024  0.037616022  0.038253509            4 
  978000    1.1145339   -6.4383142    440.87372  0.037565927  0.038243516            4 
  979000    1.0724322   -6.4746854    442.19632  0.037640137  0.038233197            4 
  980000    1.1349101   -6.4857268    439.56571  0.037378036  0.038222738            4 
  981000    1.1068665   -6.4680611    441.76069  0.037526392  0.038212366            9 
  982000     1.088073   -6.3898028    441.96343  0.037505383  0.038202259            2 
  983000    1.1129495   -6.4595547    440.40361  0.037334996  0.038191953            3 
  984000    1.1132177   -6.4436851    441.27424  0.037370785  0.038181371            3 
  985000    1.0983212   -6.4525319    442.35476   0.03742426  0.038170965            2 
  986000    1.0986621   -6.4581563    443.93377  0.037519757  0.038160632            5 
  987000    1.1062947   -6.4887159    444.78073  0.037553253  0.038150396            2 
  988000    1.1043316   -6.4456408    444.12442  0.037459887  0.038140051            3 
  989000    1.0713921   -6.4941558    444.77649  0.037476954  0.038129823            2 
  990000    1.0978216   -6.4765915    444.14751  0.037386154  0.038119726            2 
  991000    1.0878723   -6.4585551    445.55402  0.037466702  0.038109402            2 
  992000    1.0931404    -6.477354    445.35234  0.037411991   0.03809955            2 
  993000    1.1069341   -6.4307238     446.9088  0.037504934  0.038089438            2 
  994000    1.1002952   -6.4273567    446.82238  0.037459958  0.038079633            3 
  995000     1.098426   -6.4505836    447.13494  0.037448487  0.038069928            4 
  996000    1.1103046   -6.4764797      447.055    0.0374042  0.038059861            3 
  997000    1.1086194   -6.4646298    446.98732  0.037361027  0.038049715            3 
  998000    1.0764043   -6.4709073    447.55971  0.037371385  0.038039675            5 
  999000    1.0814288   -6.4647667    446.65604  0.037258595  0.038029738            2 
 1000000    1.0937134   -6.4879403    449.31505   0.03744292  0.038019601            3 
 1001000    1.0833044   -6.4496692    448.68061  0.037352698  0.038009446            2 
 1002000    1.0888133   -6.4282988    448.97086  0.037339559  0.037999331            5 
 1003000    1.0865049   -6.4687779    449.43149  0.037340603   0.03798948            7 
 1004000    1.0996358   -6.4663997    450.62221  0.037402241  0.037979633            5 
 1005000     1.118522   -6.4661259    450.26844  0.037335691  0.037969804            5 
 1006000    1.0965951   -6.4425281    450.91983  0.037352538  0.037959806            3 
 1007000    1.0889501   -6.4711317    449.78184  0.037221271  0.037949654            9 
 1008000    1.0799083   -6.4674234    450.42861  0.037237815  0.037939432            4 
 1009000    1.0824827   -6.4521535    449.78188  0.037147496  0.037929003            6 
 1010000    1.0783939   -6.4501364    453.39856  0.037409122  0.037918553            3 
 1011000    1.0849066   -6.4478964    451.34268  0.037202661   0.03790818            3 
 1012000     1.093675   -6.4568406     451.2564  0.037158794   0.03789779            4 
 1013000    1.1097195   -6.4493433    452.01174   0.03718425  0.037887468            6 
 1014000    1.0887578   -6.4232926    451.91333  0.037139492   0.03787703            2 
 1015000    1.0819431   -6.4964386    453.52996  0.037235629  0.037866419            7 
 1016000    1.0943495    -6.459736    453.15024  0.037167835  0.037856084            3 
 1017000    1.0894726    -6.466408     453.7361  0.037179293  0.037846053            2 
 1018000    1.0767309   -6.4634274     455.4986   0.03728705  0.037835939            5 
 1019000    1.0804278   -6.4516611    453.73962  0.037106609  0.037825936            2 
 1020000    1.0691924   -6.4875379    455.36113  0.037202707  0.037815762            3 
 1021000    1.0798344      -6.4622    455.34948  0.037165319  0.037805525            6 
 1022000     1.092393   -6.4660577    455.07389  0.037106481  0.037795201            4 
 1023000    1.0917072   -6.4734012    456.30489  0.037170486  0.037784762            3 
 1024000     1.098211   -6.4884451    454.49639  0.036987011  0.037774422            2 
 1025000     1.092244   -6.4246091    455.83173  0.037059491  0.037764232            5 
 1026000    1.0889828   -6.4630453    455.88108  0.037027378  0.037754067           11 
 1027000    1.0803585   -6.4689264     456.3732  0.037031256  0.037743978            5 
 1028000    1.0923527   -6.4656374    457.49762  0.037086383  0.037733617            4 
 1029000    1.0832109   -6.4563765    458.23742  0.037110254  0.037723339            3 
 1030000     1.102307   -6.4636808    458.85324  0.037124049  0.037713142            3 
 1031000    1.0817254   -6.4601005    458.77689  0.037081869  0.037702899            5 
 1032000    1.0760967   -6.4613875     460.4738  0.037182962  0.037692664            2 
 1033000     1.090487   -6.4828702    459.27809  0.037050507  0.037682584            4 
 1034000    1.1008534   -6.4801782    460.20084  0.037089043   0.03767258            3 
 1035000    1.0770426   -6.4865318    459.40274  0.036988948  0.037662481            2 
 1036000    1.0790094   -6.4878154     460.0772  0.037007497  0.037652491            2 
 1037000     1.071226   -6.4754126    460.69408  0.037021383   0.03764248            4 
 1038000    1.0898663   -6.4812143     461.5462  0.037054126  0.037632373            8 
 1039000    1.0913093   -6.4393195    462.21001  0.037071704  0.037622374            3 
 1040000    1.0942813   -6.4495247    462.24808  0.037039109  0.037612469            3 
 1041000    1.0838263   -6.4735953    463.61416  0.037112885  0.037602441            2 
 1042000    1.1079723   -6.4710691    461.74867  0.036928076  0.037592513            3 
 1043000    1.0663918   -6.4770531     462.1297  0.036923114  0.037582338            5 
 1044000    1.0803803   -6.4517442    462.20892  0.036894071  0.037572295            4 
 1045000    1.0588241   -6.4943224    464.54628  0.037045158  0.037562165            2 
 1046000    1.0811549   -6.4675667    463.86841  0.036955737  0.037552349            3 
 1047000    1.0915977   -6.4809183    464.39405  0.036962277  0.037542468            9 
 1048000    1.0822209   -6.4706405    465.16226  0.036988093  0.037532386            5 
 1049000    1.1008909   -6.4609645     464.6194  0.036909708  0.037522582            2 
 1050000    1.1058755   -6.4667163    466.43688    0.0370188  0.037513175            3 
 1051000    1.0789962   -6.4616622    467.55716  0.037072404  0.037503257            3 
 1052000    1.0833637   -6.4742289    465.63452  0.036884864  0.037493469            5 
 1053000    1.1318271   -6.4984754    467.43338  0.036992195  0.037483809            2 
 1054000     1.092315   -6.5099605    465.42284  0.036798137  0.037473869            3 
 1055000    1.0982272   -6.4831718    468.12566  0.036976751  0.037464199            2 
 1056000    1.1012827   -6.4665763     468.6199  0.036980737  0.037454711            3 
 1057000    1.0761059   -6.4493506    469.06765  0.036981051  0.037445331            3 
 1058000    1.0871849   -6.4617234     469.6033  0.036988288  0.037436006            3 
 1059000    1.0456738   -6.4832139    468.51452  0.036867683  0.037426737            5 
 1060000     1.080704    -6.489642    470.02973  0.036952023  0.037417541            3 
 1061000     1.106141   -6.4660746    472.09278  0.037079232  0.037408594            2 
 1062000    1.0867126   -6.4999121    470.48381  0.036918064  0.037399559            2 
 1063000      1.06393   -6.4704795    471.81457  0.036987658  0.037390353            4 
 1064000    1.0744835   -6.4817867     472.5234  0.037008412  0.037381293            3 
 1065000    1.0811227   -6.4697303    474.39906  0.037120428    0.0373724           14 
 1066000    1.0891824   -6.4663672    473.83541  0.037041543  0.037363528            5 
 1067000    1.1092865   -6.4865376    472.49167   0.03690188  0.037354649            3 
 1068000    1.0791753   -6.4667917    474.12934  0.036995111  0.037345763            4 
 1069000    1.0939305   -6.4649377    474.49521  0.036989025  0.037337251            4 
 1070000    1.0970343   -6.5008573    474.37513  0.036945104  0.037328632            3 
 1071000     1.079055   -6.4520192    475.80346  0.037021744  0.037320205            4 
 1072000     1.091324   -6.4773053    476.26644  0.037023199  0.037311649            4 
 1073000    1.0820099   -6.4773571    473.79436  0.036796704  0.037303184            5 
 1074000    1.0993079   -6.4994722    476.56475  0.036977401  0.037294782            4 
 1075000    1.0829696   -6.4874798    476.99796  0.036976586  0.037286249            5 
 1076000    1.0672965   -6.4908871    478.51722  0.037059884  0.037277862            3 
 1077000    1.0917471   -6.4954042    477.36342  0.036936198  0.037269402            3 
 1078000    1.0744974   -6.4816321    478.34643  0.036977924  0.037260999            3 
 1079000    1.1054358   -6.4877353    477.72369  0.036895558  0.037252536            4 
 1080000    1.1054693   -6.4831446    479.31309  0.036984035  0.037243966            2 
 1081000    1.0768934   -6.5036725    477.64056  0.036820888  0.037235308            8 
 1082000    1.0684973   -6.5056439    477.79622  0.036798847  0.037226652            6 
 1083000    1.0832108   -6.4850329    479.44887  0.036892034   0.03721819            4 
 1084000    1.0802426   -6.5147091    477.94485  0.036742377  0.037209431            4 
 1085000    1.0595692   -6.4854543    480.49623  0.036904472  0.037200543            5 
 1086000    1.0878007   -6.5018988    478.04136  0.036682118  0.037191497            4 
 1087000    1.0563342   -6.4899426    477.09734     0.036576  0.037182291            5 
 1088000    1.0658069    -6.477445    479.77574  0.036747529  0.037173342            6 
 1089000    1.0778338   -6.4687918    480.81993  0.036793689  0.037164347            2 
 1090000    1.0495798   -6.4776974    480.76001  0.036755353  0.037155089            4 
 1091000    1.0774565   -6.4692063    479.66672  0.036638155  0.037145696            4 
 1092000    1.0786186   -6.4266022    480.40296  0.036660787  0.037136306            4 
 1093000    1.0897199   -6.5282622    479.86459  0.036586199  0.037126853            6 
 1094000    1.0779121   -6.5287058    480.66153  0.036613462  0.037117353            4 
 1095000    1.0869259   -6.4786794    480.79961  0.036590534  0.037107804            6 
 1096000     1.100442   -6.4934636    482.71702  0.036702937  0.037098237            3 
 1097000    1.0818366   -6.5069049    480.19447  0.036477854  0.037088789            4 
 1098000    1.0784901   -6.4923736     482.4018  0.036612158  0.037079511            4 
 1099000    1.0753115   -6.5166341    482.51226   0.03658722  0.037070284            2 
 1100000     1.076106   -6.4708957    484.19713  0.036681601  0.037061139            3 
 1101000    1.0697955   -6.5012519    483.77503  0.036616336   0.03705222            3 
 1102000     1.062003   -6.4950173    484.57546  0.036643637  0.037043281            6 
 1103000    1.0404073   -6.4738194    484.04408  0.036570269  0.037034148            7 
 1104000    1.0640479   -6.5073561    485.33887  0.036634878  0.037024977            2 
 1105000    1.0667219   -6.5340577    483.10748  0.036433445  0.037015462            2 
 1106000    1.0585306   -6.5166509    484.61886  0.036514381  0.037006399            2 
 1107000    1.0840829   -6.4837951    487.46832  0.036695899   0.03699725            8 
 1108000    1.0780269   -6.4887572    486.10838  0.036560498  0.036988318            4 
 1109000    1.0573207   -6.4970173    487.00187   0.03659467  0.036979279            8 
 1110000    1.0911232   -6.4999039     487.1739  0.036574617  0.036970363            5 
 1111000    1.0960632   -6.4822288    488.03052  0.036605949    0.0369616            2 
 1112000    1.0664633   -6.5155579    487.29002  0.036517538   0.03695279            2 
 1113000    1.0852157   -6.4831929    487.27347  0.036483488  0.036943722            8 
 1114000    1.0756024   -6.4862107    488.17645  0.036518286  0.036934621            3 
 1115000    1.0838273   -6.5068298    489.74175  0.036602522  0.036925535            6 
 1116000     1.070744    -6.533021    488.02763  0.036441729  0.036916723            3 
 1117000    1.0767003   -6.4722855    489.13294  0.036491565  0.036907942            4 
 1118000    1.0801943   -6.5132451    488.18221  0.036388059  0.036899176            4 
 1119000     1.068448   -6.4965147    489.82154  0.036477624  0.036890306            3 
 1120000    1.0590094     -6.52531    489.64887  0.036432208  0.036881665            5 
 1121000    1.0826234   -6.5072888    492.87844  0.036639789  0.036872896            4 
 1122000    1.0603472   -6.5146749    491.25392  0.036486476  0.036864296            3 
 1123000    1.0664698    -6.476509     492.5866  0.036552879  0.036855716            4 
 1124000    1.0661622   -6.5169505    491.92355  0.036471201   0.03684706            3 
 1125000    1.0722884   -6.4884404    492.84736  0.036507212  0.036838172            3 
 1126000    1.0738861   -6.4719917    492.12104  0.036421036  0.036829537            4 
 1127000    1.0839074   -6.4642252    493.23879  0.036471369  0.036820928            7 
 1128000    1.0668644   -6.5074166    494.34559  0.036520803  0.036812332            2 
 1129000    1.0508623   -6.5095905    493.56167  0.036430593  0.036803578            2 
 1130000    1.0708208   -6.4694343    495.21887  0.036520566  0.036795261            4 
 1131000    1.0730967   -6.5167818    494.36887  0.036425646  0.036786952            6 
 1132000    1.0513444   -6.4867996    495.80476  0.036499173   0.03677848            7 
 1133000     1.063448   -6.5160564    495.09136  0.036414486  0.036770078            2 
 1134000    1.0887291   -6.4945636    496.86094  0.036512415  0.036761897            3 
 1135000    1.0734206   -6.5186103    497.08148  0.036496437  0.036753866            2 
 1136000    1.0722198   -6.5109588    498.91823  0.036599049  0.036745629            2 
 1137000    1.0753109   -6.4924357    498.95454  0.036569521  0.036737744            3 
 1138000    1.0807327    -6.523704    497.85286  0.036456712  0.036730075            4 
 1139000    1.0618906   -6.4744901    499.63473  0.036555072  0.036722183            3 
 1140000    1.0762807   -6.4473434    499.95323  0.036546289   0.03671424            4 
 1141000    1.0563321   -6.4590213      499.037  0.036447342  0.036706418            2 
 1142000    1.0256958   -6.4950304    501.87131  0.036622249  0.036698397            2 
 1143000    1.0556098   -6.4779634    499.98684  0.036452817  0.036690414            1 
 1144000    1.0706526   -6.4918666    501.20913  0.036509989  0.036682361            3 
 1145000     1.067071   -6.4651427    499.75087   0.03637197  0.036674629            4 
 1146000    1.0688612   -6.5037532    500.17727  0.036371238   0.03666686            3 
 1147000    1.0633381    -6.526792     501.3209  0.036422617  0.036658858            3 
 1148000    1.0627177   -6.5030589    502.11565  0.036448581  0.036650788            3 
 1149000    1.0590964   -6.4977777    503.39742  0.036509822  0.036642922            6 
 1150000    1.0662843   -6.4804116     503.0062  0.036449724  0.036634947            3 
 1151000    1.0845894   -6.5296991    502.94206  0.036413413  0.036626807            2 
 1152000    1.0646811   -6.5015245    503.26795  0.036405378  0.036618621            8 
 1153000      1.05918   -6.4738144    504.57803   0.03646849  0.036610829            4 
 1154000     1.051841   -6.4921675    504.78615  0.036451917  0.036602988            2 
 1155000    1.0420214    -6.458959    506.36093  0.036533978  0.036595256            5 
 1156000    1.0698397   -6.5192601    503.52752   0.03629812  0.036587549            4 
 1157000    1.0833256   -6.5185473    504.47505  0.036334994  0.036579747            3 
 1158000    1.0676332    -6.484864    506.79659  0.036470682  0.036571836           14 
 1159000    1.0645104   -6.4934678    506.91607  0.036447805  0.036563926            4 
 1160000    1.0578439   -6.4862319    506.12605   0.03635963  0.036556353            3 
 1161000    1.0752342   -6.5048838    507.93257  0.036457979  0.036548537            5 
 1162000    1.0450017    -6.502569    507.42991  0.036390556  0.036540605            4 
 1163000    1.0661558   -6.5016017    507.21207  0.036343656  0.036532757            5 
 1164000    1.0686659   -6.4705885    507.60523  0.036340581  0.036524676            2 
 1165000    1.0574537   -6.4938192    508.22707  0.036353867  0.036516703            3 
 1166000    1.0818114   -6.5257821    508.45562  0.036339023  0.036508791            5 
 1167000     1.027937   -6.4853964    509.34354   0.03637129  0.036500918            3 
 1168000    1.0608938   -6.5482405    509.90859  0.036380464  0.036493255            3 
 1169000    1.0717491   -6.5049921    510.37121  0.036382322  0.036485546           12 
 1170000    1.0676389   -6.5146954    511.20938  0.036410925  0.036477776            4 
 1171000    1.0645012   -6.5194476    512.40852  0.036465167  0.036470034            2 
 1172000    1.0648947   -6.5045785    511.18819  0.036347283  0.036462326            2 
 1173000    1.0726536   -6.4959514    511.56917  0.036343362  0.036454375            4 
 1174000    1.0679934   -6.5254578    511.06942  0.036276932  0.036446461            2 
 1175000    1.0455261   -6.5130764    508.31095  0.036050422  0.036438605            4 
 1176000    1.0565358   -6.5078273    510.86534  0.036200776  0.036430504            3 
 1177000    1.0617529   -6.5250262    511.36683  0.036205525  0.036422566            1 
 1178000    1.0887223   -6.4948276     511.8113  0.036206232  0.036414772            4 
 1179000    1.0497253   -6.5070441     512.9547   0.03625634  0.036406943            3 
 1180000    1.0557008   -6.5324943    512.75203  0.036211302  0.036398946            2 
 1181000     1.056734   -6.5411493    512.18846  0.036140874  0.036390955            4 
 1182000    1.0540665   -6.5259282    513.74113  0.036219764  0.036382896            4 
 1183000    1.0709617   -6.5412343    513.30116  0.036158154  0.036374839            5 
 1184000    1.0624772   -6.5104662    513.14894  0.036116902  0.036366513            8 
 1185000    1.0994373   -6.5311461    514.20519  0.036160702  0.036358268            4 
 1186000    1.0601378   -6.5098121    514.01582  0.036116907  0.036350186            5 
 1187000    1.0481515   -6.5027939    514.69426   0.03613411  0.036342197            4 
 1188000    1.0837466   -6.5450817    513.89138  0.036047375  0.036333868            3 
 1189000    1.0671941   -6.5193914    514.32561  0.036047492  0.036325542            4 
 1190000     1.053474   -6.5261182    515.61109  0.036107219  0.036317188            6 
 1191000    1.0755075    -6.515389     514.4485  0.035995557  0.036308598            3 
 1192000    1.0592064   -6.4776909    517.37261  0.036169785  0.036300205            3 
 1193000    1.0345908   -6.5243985    516.63222  0.036087749  0.036291882            4 
 1194000    1.0762148   -6.4820071     517.0841  0.036089063  0.036283744            8 
 1195000    1.0629836   -6.5316618    516.08255   0.03598902  0.036275545            5 
 1196000    1.0468024   -6.5024523    515.19079  0.035896794  0.036267261            6 
 1197000    1.0541793   -6.5288119    517.37821   0.03601909  0.036258964            2 
 1198000     1.044201   -6.5558387    517.17144  0.035974641  0.036250679            5 
 1199000    1.0849591   -6.4952359     518.7453  0.036054024  0.036242408            3 
 1200000    1.0604004   -6.5233515    518.55059  0.036010458  0.036234317            7 
 1201000       1.0693   -6.4439528    521.42139  0.036179669  0.036226498            5 
 1202000      1.07844   -6.5154881    520.01389  0.036051989  0.036218739            3 
 1203000    1.0653963   -6.5359475    520.45939  0.036052881  0.036210714            4 
 1204000    1.0723404   -6.5172944    519.58568  0.035962464  0.036202585            2 
 1205000    1.0538847   -6.5244067      520.028  0.035963209  0.036194298            3 
 1206000    1.0499125   -6.5159849    521.57371  0.036040196  0.036186092            4 
 1207000    1.0920773   -6.5089557    520.97446  0.035968963  0.036178153            2 
 1208000    1.0578403   -6.5091679    522.50088  0.036044487  0.036170112            3 
 1209000    1.0969946   -6.5190897    521.78953  0.035965642  0.036162179            6 
 1210000    1.0689396   -6.5204862    521.89346  0.035943076  0.036154019            4 
 1211000    1.0618734   -6.5216997    523.86729  0.036049222   0.03614591            2 
 1212000    1.0492824    -6.537176    522.44986   0.03592202  0.036137766           12 
 1213000    1.0613289   -6.5070757    522.18414  0.035874151  0.036129479            5 
 1214000    1.0600432     -6.49846    523.39351  0.035927616   0.03612124            5 
 1215000    1.0615665   -6.5074858    523.53377  0.035907666  0.036113028            2 
 1216000       1.0522   -6.5106683    524.10764  0.035917465  0.036104788            3 
 1217000     1.051933    -6.509519    523.44648  0.035842679  0.036096406            5 
 1218000    1.0460197   -6.5400377    522.67215  0.035760273  0.036087914            3 
 1219000    1.0633797   -6.5002757    524.76694  0.035874142  0.036079362            3 
 1220000     1.066921   -6.5444612     524.0086  0.035792937  0.036070708            4 
 1221000    1.0532151   -6.5454664    523.28476  0.035714221  0.036062255            4 
 1222000    1.0509557   -6.5454249    524.51817  0.035769106  0.036053565            5 
 1223000    1.0860393   -6.5164434    524.03101  0.035706664  0.036044809            7 
 1224000    1.0600959   -6.5279609    526.58033  0.035851057  0.036036256            6 
 1225000    1.0634304    -6.506177    525.61324  0.035756002  0.036027799            2 
 1226000    1.0724921   -6.5273391     526.0967    0.0357597  0.036019492            3 
 1227000    1.0464742   -6.5681162    526.93177   0.03578727  0.036011237            7 
 1228000    1.0672922   -6.5248049    525.86667  0.035685849  0.036002578            6 
 1229000    1.0482446   -6.5259705    527.79497  0.035787563  0.035994284            2 
 1230000    1.0601028    -6.501726    526.57607  0.035675885  0.035985786           12 
 1231000    1.0661161   -6.5287258    527.42478  0.035704358  0.035977325            3 
 1232000    1.0596464   -6.5462535    527.21302  0.035661054  0.035968946           10 
 1233000    1.0396535   -6.5458476    526.64861  0.035593986  0.035960457            3 
 1234000     1.061502   -6.5483213    527.78804  0.035642088  0.035952048            3 
 1235000    1.0418643   -6.5321287    528.47076  0.035659296  0.035943679            2 
 1236000     1.059129   -6.5427861    529.04038   0.03566885  0.035935471            1 
 1237000      1.05872   -6.5605019    530.20272  0.035718319  0.035927285            6 
 1238000    1.0674496   -6.5253743    530.76294  0.035727177  0.035919179            4 
 1239000    1.0677551   -6.5464985    529.24787   0.03559644  0.035910925            5 
 1240000    1.0353607   -6.5927865    529.14838  0.035561047  0.035902527            4 
 1241000    1.0742478   -6.5281119    531.87773  0.035715668  0.035894331            5 
 1242000    1.0667292   -6.5403275     532.2577  0.035712406   0.03588614            2 
 1243000    1.0392657   -6.5170232    530.63622  0.035574968  0.035877972            7 
 1244000    1.0475578    -6.549809    533.15919   0.03571538  0.035869588            4 
 1245000     1.074507   -6.5314961    533.53569  0.035711893  0.035861249            3 
 1246000    1.0371311   -6.5227091    532.06579  0.035584924  0.035853066            3 
 1247000    1.0381228   -6.5605345    531.96181  0.035549439  0.035844847            7 
 1248000    1.0601437   -6.5308842    531.73784  0.035505999  0.035836441            3 
 1249000    1.0568696   -6.5615305    532.21073  0.035509123  0.035828042            4 
 1250000    1.0512152   -6.5490201    534.52622  0.035635081  0.035819643            3 
 1251000     1.056189   -6.5560709    533.33272  0.035527093  0.035811462            4 
 1252000    1.0470493   -6.5247323    537.00875  0.035743394  0.035803244            3 
 1253000    1.0181093   -6.5606015    533.68581  0.035493869  0.035794798            3 
 1254000    1.0462928   -6.5380165    535.00377  0.035553148  0.035786333            6 
 1255000    1.0632958   -6.4892269    535.00977  0.035525217  0.035778128            4 
 1256000    1.0850047    -6.570076    534.99976  0.035496268  0.035769855            4 
 1257000    1.0463224   -6.5206615     536.1572  0.035544763  0.035761769            4 
 1258000    1.0468374   -6.5612785    534.95551  0.035436904  0.035753433            3 
 1259000    1.0475229   -6.5631463    536.57529  0.035515971   0.03574513            2 
 1260000    1.0523899   -6.5057249    535.57443  0.035421589  0.035736913            4 
 1261000    1.0396403   -6.5358531    537.78086  0.035539311   0.03572865            1 
 1262000    1.0444841   -6.5549635     537.3275  0.035481213  0.035720143            4 
 1263000    1.0688013   -6.5500551    537.94549  0.035493896  0.035711853            2 
 1264000    1.0402921   -6.5314169    536.79775  0.035390147  0.035703499            3 
 1265000    1.0833975   -6.5224261    537.32651  0.035397004  0.035695031            3 
 1266000    1.0642854   -6.5521135     538.1483  0.035423137  0.035686513            2 
 1267000    1.0395979   -6.5302465    539.02307  0.035452714  0.035677698            3 
 1268000    1.0416369   -6.5858324    539.16103  0.035433822   0.03566919            2 
 1269000    1.0396059   -6.5788033    537.60022  0.035303403  0.035660459            5 
 1270000    1.0671238   -6.5540704    538.84512  0.035357291  0.035651972            8 
 1271000    1.0279693   -6.5737134    539.28095  0.035358048  0.035643498            4 
 1272000    1.0740274    -6.562434    541.98904  0.035507668  0.035634955            3 
 1273000    1.0648415   -6.5711204     540.1539  0.035359642  0.035626471            3 
 1274000    1.0318121   -6.5553388    541.65934   0.03543036  0.035618214            6 
 1275000     1.055729   -6.5517209    542.39577  0.035450704  0.035609979            2 
 1276000    1.0515992   -6.5685097    541.52045  0.035365756   0.03560151            3 
 1277000    1.0417741   -6.5696945    541.58426  0.035342225  0.035593113            3 
 1278000    1.0645791   -6.5193926    543.26273  0.035424018  0.035584853            3 
 1279000    1.0454384   -6.5291065    541.34036  0.035271068  0.035576575            3 
 1280000    1.0571288   -6.5555652    541.72008  0.035268235  0.035568176            8 
 1281000    1.0403337   -6.5518807    543.47431  0.035354821  0.035559807            3 
 1282000    1.0481707   -6.5089469    543.54953  0.035332133   0.03555142            4 
 1283000    1.0458987   -6.5101946    544.20565   0.03534721  0.035542869            5 
 1284000    1.0519339   -6.5401576     542.9405  0.035237571   0.03553437            8 
 1285000    1.0317063   -6.5351069    544.66344  0.035321883  0.035525886            3 
 1286000    1.0557991   -6.5390852    544.70448  0.035297076   0.03551766            2 
 1287000    1.0287971   -6.5333266    544.20196  0.035237112  0.035509552            3 
 1288000    1.0292062   -6.5304229    543.37568  0.035156294  0.035501348            3 
 1289000    1.0322951   -6.5530983    545.72844  0.035281125  0.035493154            3 
 1290000    1.0605407   -6.5268761    546.26113  0.035288187  0.035485047            3 
 1291000    1.0421903   -6.5921929    545.39205  0.035204754  0.035476718            3 
 1292000    1.0646456   -6.5577161     544.7381  0.035135326  0.035468335            4 
 1293000    1.0486602    -6.567101    546.54211  0.035224421  0.035459817            4 
 1294000    1.0449285    -6.531413    546.88271  0.035219134  0.035451373            6 
 1295000    1.0495811   -6.5639152    545.49439  0.035102599  0.035442881            4 
 1296000     1.046728   -6.5411702    548.04763  0.035239688  0.035434498            1 
 1297000     1.033102   -6.5619625    547.48526  0.035176385  0.035426273            3 
 1298000    1.0427695   -6.5708796    547.65611  0.035160253  0.035417893            3 
 1299000    1.0430034    -6.494238    548.41815  0.035182073  0.035409506            3 
 1300000    1.0129444   -6.5527617    548.25586  0.035144607  0.035400986            9 
 1301000    1.0171627   -6.5489438    547.98601  0.035100308  0.035392373            3 
 1302000    1.0678611   -6.5397157    548.61098   0.03511335  0.035383767            1 
 1303000    1.0420021   -6.5333239    548.48274  0.035078201  0.035375335            3 
 1304000    1.0310581   -6.5769698    548.70128  0.035065266  0.035366772            7 
 1305000    1.0630905   -6.5756943    548.88992  0.035050442  0.035358367            3 
 1306000    1.0386577    -6.550636    549.58286  0.035067819  0.035349867            4 
 1307000    1.0255539   -6.5553408    548.77171   0.03498927  0.035341362            3 
 1308000    1.0455928   -6.5426733    550.70437   0.03508565  0.035332743            2 
 1309000    1.0310118   -6.5454718    549.29763  0.034969291  0.035324003            3 
 1310000    1.0484073   -6.5540075    550.73393  0.035033965  0.035315323            2 
 1311000    1.0311245   -6.5491671    550.46347   0.03499005   0.03530652            6 
 1312000    1.0476243   -6.5335525    551.20508  0.035010485  0.035297682            4 
 1313000    1.0467029   -6.5413432     551.7369  0.035017575  0.035289002            6 
 1314000    1.0472351   -6.5488103    550.69316  0.034924731  0.035280176            5 
 1315000    1.0468229   -6.5496508    551.04619  0.034920544  0.035271311            7 
 1316000     1.032604   -6.5712843    551.88734  0.034947273  0.035262621            6 
 1317000    1.0447177   -6.5120461    552.02952  0.034929734  0.035253951            5 
 1318000    1.0441413   -6.5430152    553.59971  0.035002511  0.035245232            4 
 1319000    1.0522325   -6.5545798    551.27553  0.034829134  0.035236582            3 
 1320000    1.0298725   -6.5666169    553.21556  0.034925225  0.035227781            6 
 1321000    1.0399779   -6.5287891     552.8349  0.034874773  0.035218767            5 
 1322000    1.0383819   -6.5794265    553.05865  0.034862497  0.035209891            4 
 1323000    1.0306342   -6.5912033    551.86113  0.034760716  0.035200868            4 
 1324000    1.0230232   -6.5445882    554.76591   0.03491729  0.035191884            2 
 1325000    1.0493354   -6.5950998    554.09554  0.034848776  0.035183102            4 
 1326000     1.047528   -6.5646033    554.86145  0.034870629  0.035174421            3 
 1327000    1.0601079   -6.5780171    554.49073  0.034821071  0.035165592            5 
 1328000    1.0344053   -6.5555536    556.34128  0.034910974  0.035156655            5 
 1329000    1.0243268   -6.5357625    553.95176  0.034734873   0.03514783            2 
 1330000    1.0322279   -6.5515214    555.99351  0.034836686  0.035138973            3 
 1331000    1.0306229   -6.5673574    555.05139  0.034751527  0.035130181            3 
 1332000    1.0346267     -6.59585    556.28373  0.034802535  0.035121241            3 
 1333000    1.0334198   -6.5685429    557.24003  0.034836211  0.035112497            4 
 1334000    1.0356937   -6.5677299      555.993  0.034732197  0.035103635            5 
 1335000    1.0428805   -6.5486399    557.55001  0.034803371  0.035094934            7 
 1336000    1.0227976   -6.5656582    556.19052  0.034692522  0.035086281            5 
 1337000    1.0405324   -6.5301507    558.69543  0.034822702  0.035077627            5 
 1338000    1.0283945   -6.5393752     560.1825  0.034889294  0.035069069            3 
 1339000    1.0464925   -6.5521112    559.70876  0.034833754  0.035060504            2 
 1340000    1.0648101   -6.5773988    558.11794  0.034708827  0.035051767            4 
 1341000     1.030261   -6.6052352    558.30116   0.03469433  0.035042971            2 
 1342000    1.0126316   -6.5628939    559.33942  0.034732949  0.035034032            9 
 1343000    1.0538638   -6.5448323    558.29285  0.034642148  0.035025351            4 
 1344000    1.0275498   -6.5905756    559.22935  0.034674439  0.035016619           11 
 1345000    1.0445868   -6.5535279    560.61322    0.0347344  0.035007741            3 
 1346000    1.0438482   -6.5403691    561.95798  0.034791851  0.034999083            4 
 1347000    1.0328769   -6.5451072    561.52484  0.034739226  0.034990405            4 
 1348000    1.0028186    -6.560268    563.17943  0.034815741  0.034981692            2 
 1349000    1.0330689   -6.6036657    560.11282  0.034600496  0.034972953            7 
 1350000    1.0543859   -6.5681098    559.15682  0.034515853  0.034964152            5 
 1351000    1.0244771    -6.585226    559.19266  0.034492516  0.034955154            4 
 1352000    1.0504781   -6.6043997    561.03411  0.034580505  0.034946084            4 
 1353000    1.0335334   -6.5760268    561.01695  0.034553889  0.034937349            5 
 1354000    1.0272872   -6.5637329    562.27605  0.034605862  0.034928534            3 
 1355000    1.0348898   -6.5641081    563.36723  0.034647431  0.034919957            3 
 1356000     1.022738   -6.5951781    563.91072   0.03465528  0.034911145            3 
 1357000    1.0368788   -6.5765542    563.45436  0.034601717  0.034902412            3 
 1358000    1.0457819   -6.5570965    563.32094   0.03456805  0.034893506            7 
 1359000    1.0475774    -6.551596    563.19563  0.034534929   0.03488466            3 
 1360000    1.0369353   -6.5792528    563.69359  0.034540048  0.034875887            3 
 1361000    1.0557426   -6.5719668    565.33841  0.034615382  0.034866962           10 
 1362000    1.0334582   -6.5729872    564.57416  0.034543206   0.03485809            4 
 1363000    1.0379259   -6.5543418    566.01375  0.034605879  0.034849371            2 
 1364000    1.0217417   -6.5473211    565.49361   0.03454873  0.034840704            5 
 1365000     1.006824   -6.5859931    564.45055  0.034459741   0.03483181            8 
 1366000    1.0175167   -6.5884017    564.00733  0.034407475  0.034822923            4 
 1367000    1.0280182   -6.5738519    564.86439  0.034434552  0.034814084            7 
 1368000    1.0496971   -6.5838791    564.32646  0.034376612  0.034805111            4 
 1369000    1.0233627    -6.550596    567.12683  0.034521964  0.034796144            4 
 1370000    1.0291408   -6.5612718    566.24587   0.03444318  0.034787196            3 
 1371000    1.0260651   -6.5606517    565.29556  0.034360294  0.034778076            2 
 1372000     1.042574   -6.5743621    566.63537  0.034416629   0.03476898            5 
 1373000    1.0569541   -6.5981028    566.73663  0.034397708  0.034759796            7 
 1374000    1.0220722   -6.5765349    567.57065  0.034423256  0.034750685            5 
 1375000     1.025548   -6.5645733    566.99419  0.034363284  0.034741597            3 
 1376000    1.0313886   -6.5963918    567.48441     0.034368  0.034732651            5 
 1377000    1.0292278   -6.5743533    569.87663  0.034487813  0.034723641            3 
 1378000    1.0292841   -6.5950017    567.57893  0.034323835  0.034714779            4 
 1379000    1.0335094   -6.5965576    569.10221  0.034390997  0.034705836            3 
 1380000    1.0529282   -6.5731586    568.09374  0.034305178  0.034696966            4 
 1381000    1.0461488   -6.5823019    570.49921  0.034425489   0.03468811            6 
 1382000     1.025644   -6.5730508    570.52609    0.0344022  0.034679455           10 
 1383000    1.0276996   -6.5512991    571.53903   0.03443836  0.034670739            4 
 1384000    1.0244923   -6.5884325    570.08761  0.034326085  0.034662007            6 
 1385000    1.0452147   -6.6210187    569.02846  0.034237573  0.034653263            6 
 1386000    1.0473553   -6.5882055    572.12356  0.034398963  0.034644408            5 
 1387000    1.0158423   -6.5694827    572.61217  0.034403519  0.034635834            4 
 1388000    1.0399467   -6.5292739    574.33022  0.034481882  0.034627457            4 
 1389000    1.0388027   -6.5741359    573.08749  0.034382499  0.034619073            3 
 1390000    1.0589632   -6.5517308    574.02753  0.034414121  0.034610519            3 
 1391000    1.0023714   -6.5859452    573.65334  0.034366963  0.034602148            6 
 1392000    1.0131231   -6.6014548    574.35932  0.034384538  0.034593801            6 
 1393000    1.0276422    -6.637169    572.35573  0.034239993  0.034585235            4 
 1394000    1.0307821   -6.6092935    573.83991  0.034304155    0.0345767            3 
 1395000     1.025945   -6.5848679    574.79539  0.034336642  0.034568309            5 
 1396000    1.0183058   -6.5397414     575.8371   0.03437423  0.034559852            3 
 1397000    1.0271143   -6.5836117    577.42301  0.034444226  0.034551493            6 
 1398000    1.0242797    -6.568028    578.44783  0.034480677  0.034543239            6 
 1399000    1.0438197   -6.5825977    575.51603  0.034281393  0.034534872            3 
 1400000    1.0321899   -6.5944589    575.16722  0.034236144  0.034526573            4 
 1401000    1.0345273   -6.5787649    577.41736  0.034345548  0.034518314            3 
 1402000    1.0198204    -6.623922    575.62519  0.034214526  0.034509748            2 
 1403000    1.0490601   -6.5905657    577.69374  0.034313005  0.034501106            8 
 1404000     1.033213   -6.6106175    575.43671    0.0341546  0.034492505            9 
 1405000    1.0487148   -6.5745787    577.35799  0.034244246  0.034483879            3 
 1406000    1.0092864   -6.5826364    577.67331  0.034238579  0.034475316            3 
 1407000    1.0153276   -6.6097248    577.78884  0.034221088  0.034466727            5 
 1408000    1.0315247   -6.5884975    577.52909  0.034181409  0.034458128            8 
 1409000    1.0308469   -6.5824669    578.90716  0.034238654  0.034449547            3 
 1410000    1.0256577   -6.5625489    578.38127   0.03418329  0.034440894            8 
 1411000    1.0286966   -6.5983206    579.52715  0.034226739   0.03443227            4 
 1412000    1.0184303   -6.6163861    577.94852  0.034109332  0.034423719            8 
 1413000    1.0399497   -6.5795497    578.68617  0.034128696  0.034415099            4 
 1414000    1.0112107   -6.6054571    580.49067  0.034210907  0.034406588            3 
 1415000    1.0144403   -6.5618287    580.60895  0.034193696  0.034397984           10 
 1416000    1.0263539    -6.555806    581.55987   0.03422551  0.034389654            4 
 1417000    1.0038309   -6.5973103    582.25556   0.03424227   0.03438143            3 
 1418000   0.98559281   -6.5834872    581.02551  0.034145834  0.034372983            9 
 1419000    1.0335431   -6.5996501    582.11454  0.034185726  0.034364546            3 
 1420000    1.0193276   -6.5692896    582.10602  0.034161151  0.034356154            4 
 1421000     1.010177   -6.5721124    581.35752  0.034093216  0.034347738            3 
 1422000     1.012234   -6.5945535    583.05519  0.034168729  0.034339327            7 
 1423000    1.0262412   -6.5919746    583.76352  0.034186198  0.034331012            6 
 1424000    1.0286132   -6.6028673    582.51604  0.034089187  0.034322744            7 
 1425000     1.022586   -6.5610619    582.81375  0.034082675  0.034314465            1 
 1426000    1.0293931   -6.5940205    581.71564  0.033994603  0.034306057            5 
 1427000    1.0258577   -6.5936104    583.72353  0.034088036  0.034297661           11 
 1428000    1.0297844   -6.5572278    585.45883  0.034165431  0.034289274            3 
 1429000    1.0364502   -6.6046529    584.36849  0.034077938  0.034280831            3 
 1430000    1.0408485   -6.6154016    582.76077  0.033960418   0.03427223            4 
 1431000    1.0184488   -6.5606676    584.26698  0.034024399  0.034263485            4 
 1432000    1.0459049   -6.5623991    584.25048  0.033999679  0.034254932            4 
 1433000    1.0141428   -6.5831167    583.73679   0.03394608  0.034246423            4 
 1434000    1.0172539   -6.5648137    584.63642  0.033974687  0.034237766            3 
 1435000    1.0489376   -6.5867761    584.77592  0.033959113  0.034229069            4 
 1436000    1.0152548   -6.5991809    583.88576  0.033883807  0.034220285            3 
 1437000     1.010417   -6.6068294    585.02122  0.033926074  0.034211511            6 
 1438000    1.0343635   -6.6119044    584.14907  0.033851939  0.034202622            2 
 1439000    1.0141832   -6.5856189    585.14148  0.033885886  0.034193915            3 
 1440000    1.0218634   -6.6016656    586.86306  0.033961982  0.034185123            6 
 1441000    1.0284898   -6.6090407    585.26099  0.033845766   0.03417623            3 
 1442000    1.0038774   -6.6251406    584.28171  0.033765702  0.034167308            4 
 1443000    1.0108025   -6.5985143    587.62973  0.033935651  0.034158531            3 
 1444000    1.0090898   -6.6332949    586.21827  0.033830694  0.034149696            3 
 1445000    1.0298869   -6.6211551    588.30408  0.033927571  0.034141013            4 
 1446000    1.0296515   -6.6007278    588.76149  0.033930469  0.034132399            2 
 1447000    1.0187823   -6.5904738    586.89525  0.033799542  0.034123843            4 
 1448000   0.99306382   -6.5907388    589.45857  0.033923721  0.034115291            4 
 1449000    1.0104667   -6.5773607    590.25364  0.033946034  0.034106596            2 
 1450000    1.0027247   -6.5994247    589.47089  0.033877637  0.034097929           11 
 1451000    1.0119153   -6.6035354    588.77455  0.033814298  0.034089298            3 
 1452000    1.0215834   -6.6057625    589.11261  0.033810412   0.03408065            6 
 1453000     1.035536   -6.5839622    590.00386  0.033838258  0.034072253            2 
 1454000     1.013142   -6.6167104    589.53175  0.033787927  0.034063729            5 
 1455000    1.0073215   -6.5588443    591.13522  0.033856542  0.034055294            3 
 1456000    1.0165413    -6.574848    592.06308  0.033886394   0.03404706            2 
 1457000     1.011107   -6.6205015    591.75921  0.033845757  0.034038652            5 
 1458000    1.0253635   -6.5872829     592.1701  0.033846028  0.034030131            6 
 1459000    1.0174175   -6.6017897    592.46879   0.03383989  0.034021741            5 
 1460000    1.0367138   -6.5950179    592.99045  0.033846487  0.034013487           10 
 1461000    1.0267792   -6.5826881    594.00065  0.033880941  0.034005099            5 
 1462000    1.0462928   -6.5976443    593.83024  0.033848053  0.033996812            4 
 1463000    1.0306376   -6.6193407    592.75181  0.033763489  0.033988568            7 
 1464000    1.0240427   -6.6046527    592.58345  0.033730843  0.033980098            2 
 1465000    1.0181107   -6.6001718    595.30111  0.033862407  0.033971635            8 
 1466000    1.0284852   -6.6220247    593.14205  0.033716579  0.033963342            3 
 1467000    1.0085476    -6.583315    593.78479  0.033730106  0.033954909            7 
 1468000    1.0070937   -6.5890407    595.64342  0.033812637  0.033946395            3 
 1469000    1.0138208   -6.6360564    594.65368  0.033733474  0.033937856            5 
 1470000    1.0038897   -6.6029526    594.86108  0.033722283  0.033929448            5 
 1471000     1.009236   -6.5958534    594.22535  0.033663344  0.033921079            4 
 1472000    1.0054441   -6.6050431    595.97583  0.033739574  0.033912686            9 
 1473000    1.0291546   -6.5996341    594.43636  0.033629574  0.033904392            5 
 1474000    1.0058149   -6.5668189    598.62089  0.033843334  0.033896248            6 
 1475000    1.0027848   -6.5997097     596.5336  0.033702463  0.033887987            5 
 1476000    1.0248671   -6.5921386    596.92857  0.033701929  0.033879731            2 
 1477000   0.99567249   -6.6169103    595.46033  0.033596273  0.033871372            6 
 1478000    1.0120695   -6.5922608    598.83715  0.033763935  0.033862994            2 
 1479000    1.0326121   -6.5932531    598.63568  0.033729754  0.033854891            8 
 1480000    1.0390072   -6.6044778    598.58522  0.033704123  0.033846766            4 
 1481000    1.0184301   -6.6332677    599.07576  0.033708967  0.033838652            3 
 1482000    1.0143006   -6.5867281    600.21263  0.033750148  0.033830536           10 
 1483000   0.98070551   -6.6145551    599.77233  0.033702648  0.033822304            4 
 1484000    1.0036145   -6.5580595    600.61405  0.033727204  0.033814132            2 
 1485000   0.98069782    -6.590175    599.79412   0.03365848  0.033805988            4 
 1486000    1.0360506   -6.6551526    599.40156  0.033613816  0.033797706            4 
 1487000    1.0153978   -6.6166466    600.40914  0.033647677  0.033789501            7 
 1488000    1.0239331   -6.6085305    599.98733  0.033601441  0.033781279            7 
 1489000    1.0197645   -6.5915148    599.54063  0.033553875  0.033773119            7 
 1490000    1.0366194   -6.5976397    602.12609  0.033675956  0.033764869            4 
 1491000    1.0058807   -6.6281512    601.69079   0.03362904  0.033756632            3 
 1492000    1.0140917   -6.6097474    600.92444  0.033563698  0.033748428            5 
 1493000   0.99955261   -6.6417729    601.79181   0.03358963  0.033740148            4 
 1494000    1.0354962   -6.5654019    604.25838  0.033704729  0.033732057            2 
 1495000   0.99856351   -6.5962678    603.67992   0.03364994   0.03372404            8 
 1496000    1.0310656    -6.600355    603.84935  0.033636885  0.033715937            4 
 1497000   0.98451948   -6.6281276    603.03318  0.033568981  0.033707791            3 
 1498000   0.99573054   -6.6075797    603.97265  0.033598835  0.033699626           12 
 1499000    1.0070803   -6.6063269    602.90572  0.033517107  0.033691443            5 
 1500000    1.0264053   -6.5981301    603.94251  0.033552361  0.033683219            3 
 1501000    1.0036815   -6.6043573    601.06113  0.033370038  0.033674886            4 
 1502000    1.0240942   -6.5877142    603.78362  0.033498869  0.033666692            3 
 1503000   0.98012169   -6.5647719    606.32021  0.033617222  0.033658517            3 
 1504000    1.0366244   -6.6097381    604.05242  0.033469216  0.033650368            5 
 1505000    1.0089738   -6.6059957    603.68484  0.033426624  0.033642215            3 
 1506000   0.99611478   -6.6072718    603.94624  0.033418893  0.033633998            3 
 1507000    1.0228901   -6.6466455    605.01916  0.033456047  0.033625726            4 
 1508000    1.0138468   -6.6138707    606.00304  0.033488232  0.033617513            3 
 1509000   0.99759945   -6.6323689    607.26109  0.033535514   0.03360939            3 
 1510000    1.0180623   -6.5924998    607.18551  0.033509134  0.033601224            7 
 1511000    1.0332797   -6.5966366    607.43023  0.033500454  0.033593131            8 
 1512000   0.98192447   -6.5694614    607.96666  0.033507863  0.033585104            2 
 1513000     1.003981   -6.6194395    606.19056  0.033387892  0.033576968            3 
 1514000    1.0018367   -6.6373385    607.57269  0.033441914  0.033568748            4 
 1515000    1.0205305    -6.614151    606.83281  0.033379142  0.033560637            4 
 1516000    1.0173031   -6.6249051    606.60578  0.033344645  0.033552311            5 
 1517000    1.0010451   -6.6445161     607.0898  0.033349253  0.033543994            5 
 1518000    1.0109757   -6.6222328    608.92236  0.033427885  0.033535626            7 
 1519000   0.99628465   -6.5914863    609.43971  0.033434261  0.033527541            2 
 1520000    1.0009028   -6.6363201      608.747  0.033374287   0.03351941            3 
 1521000    1.0003364   -6.6570072    607.71798  0.033295966   0.03351111            3 
 1522000   0.98234163   -6.6194047    610.30577  0.033415778  0.033502847            3 
 1523000    1.0260946   -6.6091162    610.23408  0.033389915  0.033494746            4 
 1524000   0.99928756   -6.6121002    611.18323  0.033419906  0.033486734            3 
 1525000    1.0148056   -6.5976299    611.85121  0.033434492  0.033478682            5 
 1526000    1.0246596   -6.5944153    610.11006    0.0333175  0.033470516            4 
 1527000    1.0163897   -6.6357829    610.54078  0.033319187  0.033462308            4 
 1528000    1.0179036   -6.6211018    612.40703  0.033399162  0.033454199            4 
 1529000    1.0054143    -6.635707    611.19775   0.03331141  0.033446042            9 
 1530000    1.0130626   -6.6346213    611.43053  0.033302317  0.033437876            7 
 1531000    1.0157339    -6.584924     613.6585  0.033401835  0.033429915            4 
 1532000    1.0062866   -6.6365512    614.74131  0.033438931  0.033421926            3 
 1533000    1.0029566   -6.6186097     613.0495  0.033325152  0.033414075            8 
 1534000    1.0345442    -6.614081    613.71596  0.033339633  0.033406105            5 
 1535000   0.99560465   -6.6248852    614.99752  0.033387488  0.033398017            6 
 1536000    1.0020859    -6.621761    613.93969   0.03330836  0.033390073            6 
 1537000    1.0091018   -6.6402243    614.20071  0.033300841  0.033381945            3 
 1538000    1.0114393   -6.6064004    613.77031  0.033255869  0.033373895            4 
 1539000   0.99742586   -6.6193813    614.57725  0.033277954  0.033365699            6 
 1540000    1.0021478   -6.5928542     614.0931  0.033230146  0.033357585            7 
 1541000   0.99668825   -6.6104886    615.07548  0.033261706  0.033349334            7 
 1542000   0.99865658   -6.6173146    617.17406  0.033353548  0.033341211            4 
 1543000   0.99742894   -6.6205577    616.03138  0.033270219  0.033333197            4 
 1544000   0.99344203   -6.6301262    614.26332  0.033153245  0.033325011            2 
 1545000    1.0131391   -6.6138866    615.88325  0.033219162  0.033316739            5 
 1546000   0.99259072   -6.6113612     615.6565  0.033185452  0.033308582            4 
 1547000    1.0068717   -6.6322874    616.82378  0.033226879  0.033300335            6 
 1548000    1.0086167   -6.6158416    616.21362  0.033172568  0.033292156            7 
 1549000   0.99649205   -6.6202849    616.59946   0.03317191  0.033283947            3 
 1550000     1.009707   -6.6244148    616.29496  0.033134137  0.033275621            6 
 1551000   0.99881364   -6.6212745    616.36372  0.033116469  0.033267363            4 
 1552000    1.0157238   -6.6175099    615.93479    0.0330721  0.033259074            4 
 1553000   0.99406121    -6.595154      616.923  0.033103831  0.033250847            3 
 1554000    1.0189805   -6.6435228    617.21618  0.033098251  0.033242701            3 
 1555000    1.0023436   -6.6061637    617.18711  0.033075408  0.033234511            3 
 1556000   0.99369822    -6.651411    618.32081  0.033114868  0.033226283            4 
 1557000    1.0100034   -6.6255413    618.90849  0.033125053  0.033218126            5 
 1558000   0.99764873   -6.6140796    618.78159  0.033097004   0.03320996            3 
 1559000    1.0014186   -6.6152661    618.60265  0.033066209   0.03320186            8 
 1560000    1.0028648   -6.6390641     619.3226  0.033083472  0.033193697            6 
 1561000   0.99940441   -6.6059906    619.11257  0.033051066  0.033185497            3 
 1562000    1.0024801   -6.5827001    620.44321  0.033100897  0.033177385            5 
 1563000   0.98456236   -6.6321153    619.43505  0.033025967  0.033169172            5 
 1564000   0.99542365   -6.6362817    622.70568  0.033179118  0.033161136            4 
 1565000   0.99206011   -6.6338772    619.54143  0.032989426  0.033153118            4 
 1566000     1.024095   -6.6554858    619.49827  0.032966064  0.033144985            3 
 1567000     1.019672   -6.6110802    622.40997  0.033099871  0.033136993            2 
 1568000   0.98879647   -6.6766238    621.77503  0.033045017  0.033128878            7 
 1569000   0.99515225   -6.5797537    624.34191  0.033160288  0.033120891            4 
 1570000    1.0126011   -6.6692329    621.40697  0.032983385  0.033113018            3 
 1571000    1.0044658   -6.6236482     621.7922  0.032982824  0.033104947            3 
 1572000    1.0167395   -6.6398728    621.71641  0.032957825  0.033096859            4 
 1573000   0.98351217   -6.6194327     621.7063  0.032936337   0.03308871            3 
 1574000    1.0111841    -6.640137    622.26633  0.032945062  0.033080635            3 
 1575000   0.99895059   -6.6063244    622.95429  0.032960544  0.033072408            5 
 1576000   0.99796936   -6.6575469    620.19898  0.032793939  0.033064225            6 
 1577000   0.99657517   -6.6501608     622.8361  0.032912497  0.033056101            4 
 1578000   0.99108655   -6.5917512    623.90573  0.032948127  0.033047852            6 
 1579000   0.99034347   -6.6200418    622.95908    0.0328773  0.033039634            3 
 1580000   0.99940903   -6.6821873    624.16286  0.032919982  0.033031406            7 
 1581000   0.98895703   -6.6512835    624.29886  0.032906328  0.033023261            3 
 1582000    1.0188812   -6.6461562    624.95671   0.03292018  0.033015093            6 
 1583000    1.0103138   -6.6635573    624.22421  0.032860824  0.033006776            6 
 1584000    1.0005034   -6.6427024    623.01658  0.032776546  0.032998449            6 
 1585000    1.0046274   -6.6159187    623.41227   0.03277667  0.032990074            3 
 1586000   0.98654706   -6.6237369    624.99459  0.032839144    0.0329818            7 
 1587000    1.0006923   -6.6333073    626.83417  0.032915048  0.032973704            3 
 1588000   0.99733026   -6.6447634    624.98072  0.032797057  0.032965573            3 
 1589000    1.0119644   -6.6348599    626.14578  0.032837517  0.032957484            3 
 1590000   0.98698359   -6.6189201    627.10821  0.032867307  0.032949301            4 
 1591000    1.0013632   -6.6222284     627.1107  0.032846779   0.03294118            7 
 1592000    1.0013206   -6.6497794    627.76305  0.032860294  0.032933157            5 
 1593000   0.98108988   -6.6291544    627.81511  0.032842389  0.032925165           10 
 1594000    1.0058013   -6.6558553    626.33612  0.032744465  0.032917098            7 
 1595000    1.0005725   -6.6647456    628.34493  0.032828889  0.032908879            3 
 1596000   0.97120679   -6.6613476    625.73651  0.032672123  0.032900748            3 
 1597000   0.98759156   -6.6618249    627.83249  0.032761036  0.032892539            3 
 1598000   0.99263614   -6.6566965    629.33526  0.032818902    0.0328844            4 
 1599000   0.99603676   -6.6251083    627.91054  0.032724127  0.032876272            4 
 1600000    1.0032113   -6.6338853    628.61829  0.032740536  0.032868025            8 
 1601000    1.0414928    -6.624607     628.9467   0.03273718  0.032859726            4 
 1602000   0.99938464   -6.6842908    627.42767  0.032637727  0.032851625            2 
 1603000   0.99374232   -6.6496054    629.02828  0.032700576  0.032843278            5 
 1604000   0.97019869   -6.6196921    626.89851   0.03256954  0.032835008            3 
 1605000   0.97868278   -6.6551285    629.03941  0.032660406  0.032826698            3 
 1606000    1.0020521   -6.6420834    630.86374  0.032734731  0.032818478            9 
 1607000    1.0006495   -6.6544301    629.99216  0.032669164  0.032810293            3 
 1608000    1.0035508   -6.6469872    630.51895  0.032676148  0.032802246            3 
 1609000    0.9922567    -6.646892    631.78544  0.032721434  0.032794158            3 
 1610000    1.0000075    -6.644549    630.09086  0.032613399  0.032785953            4 
 1611000   0.98573981   -6.6344797    631.56221  0.032669264  0.032777751            4 
 1612000    0.9987039   -6.6357215    633.65075  0.032756966  0.032769644            5 
 1613000   0.99852948   -6.6540459    631.51011  0.032626065  0.032761625            7 
 1614000    1.0086392   -6.6556461    631.08086  0.032583688  0.032753466            4 
 1615000   0.98802172   -6.6427108    633.24458  0.032675159  0.032745273            4 
 1616000   0.98384749   -6.6621873    629.88477  0.032481682  0.032737099           20 
 1617000   0.98482628   -6.6725949    633.94953  0.032671075  0.032728857            8 
 1618000   0.98857452   -6.6497176    633.27428  0.032616104  0.032720712            4 
 1619000    0.9789131    -6.649616     633.4208    0.0326035  0.032712692            7 
 1620000     1.003345   -6.6422855    634.08681  0.032617634  0.032704506            5 
 1621000   0.98922806   -6.6496912    634.07323  0.032596814  0.032696216            6 
 1622000    1.0023921   -6.6695861    634.56477  0.032601971   0.03268794            4 
 1623000   0.98109602   -6.6224867    635.68717  0.032639514  0.032679814            5 
 1624000    1.0022964   -6.6479786    633.18466  0.032491003  0.032671589            4 
 1625000   0.99701907   -6.6791402    633.81233  0.032503196  0.032663401            5 
 1626000   0.98771063    -6.625192    635.54721   0.03257212    0.0326551            2 
 1627000   0.99447104   -6.6470339    634.97973  0.032523034   0.03264692            3 
 1628000     1.000932   -6.6564705    636.22065  0.032566577  0.032638716            4 
 1629000   0.98954841   -6.6503064    635.84282  0.032527257  0.032630587            4 
 1630000   0.98330611    -6.628511    638.06576  0.032620949  0.032622439            8 
 1631000   0.98961258   -6.6775295    634.93458  0.032440966  0.032614254            6 
 1632000    0.9897427   -6.6457702     638.3099  0.032593438  0.032606058            3 
 1633000   0.98523298   -6.6761237     634.9259  0.032400791  0.032597972            3 
 1634000   0.97456842   -6.6619502    636.91046  0.032482173  0.032589833            4 
 1635000    1.0032028   -6.6435607    637.61159  0.032498042  0.032581645            2 
 1636000   0.97727632   -6.6402637    637.64704  0.032479984  0.032573341            4 
 1637000   0.99377822   -6.6291117    637.45198  0.032450213  0.032565169            3 
 1638000   0.99156369   -6.6197797    638.18143  0.032467513  0.032557077            2 
 1639000    1.0180425   -6.6560562    637.26417  0.032401066   0.03254881            6 
 1640000   0.99672216   -6.6803267    636.21218  0.032327855  0.032540497            3 
 1641000   0.98097111   -6.6426679    637.30764  0.032363784  0.032532111            8 
 1642000    1.0105954   -6.6354514    639.22208  0.032441234  0.032523772            5 
 1643000     1.004468   -6.6591839    636.53086   0.03228499   0.03251538            7 
 1644000   0.99522774   -6.6192442    639.86913  0.032434567  0.032507009            3 
 1645000   0.99557493   -6.6552285    637.82218  0.032311154  0.032498712            5 
 1646000   0.97945706   -6.6486946    641.32776  0.032469004  0.032490449            3 
 1647000   0.97580048   -6.6624452    637.68967  0.032265213  0.032482157            5 
 1648000   0.98975062    -6.655916    640.48121  0.032386793   0.03247384            5 
 1649000    1.0030186    -6.663343    641.23211  0.032405099  0.032465653            4 
 1650000   0.97147968   -6.6743836     640.2608  0.032336404  0.032457344            3 
 1651000   0.99433892   -6.6428743    639.40096  0.032273418  0.032449115            3 
 1652000   0.99694255   -6.6406559    638.34949  0.032200842  0.032440827            9 
 1653000   0.97484199    -6.615141    640.59028  0.032294327  0.032432541            8 
 1654000   0.99179188   -6.6977314    640.55135  0.032272841  0.032424312            4 
 1655000   0.98263225   -6.6548872    641.93519  0.032323021  0.032416065            5 
 1656000   0.99954303   -6.6588245    642.75505  0.032344759  0.032407805            5 
 1657000   0.97763908   -6.6785241    641.79385  0.032276898  0.032399455            4 
 1658000     1.000645   -6.6918626    642.09765    0.0322727  0.032391132            5 
 1659000   0.98131609   -6.6425644    643.61112  0.032329271  0.032382936            4 
 1660000   0.98609635   -6.6572895    640.93057   0.03217523  0.032374742            6 
 1661000   0.99725688   -6.6551343    642.17327  0.032218205  0.032366506            4 
 1662000   0.99498739   -6.6409227    643.14851  0.032247719  0.032358237            5 
 1663000    0.9989966    -6.679804    643.84759  0.032263359  0.032350061            5 
 1664000   0.99616629   -6.6825116    643.17787   0.03221043  0.032341848            3 
 1665000    0.9966408   -6.6592213     643.7473  0.032219585  0.032333716           12 
 1666000   0.99613399    -6.660631    643.78254  0.032202008  0.032325461            4 
 1667000   0.96202707   -6.6747538    644.78299  0.032232703  0.032317335            7 
 1668000   0.99730552   -6.7046636    644.01703  0.032175111  0.032309265            5 
 1669000   0.98638575   -6.6700185    645.48713  0.032229235  0.032301165            6 
 1670000    0.9818543   -6.6768873    645.46664  0.032208914  0.032293157            4 
 1671000   0.98729099   -6.6508316    647.67902  0.032299971  0.032285132            5 
 1672000   0.99283551   -6.6985795    645.17309  0.032155756  0.032277068            4 
 1673000   0.99339966   -6.6718603    644.35817  0.032095944   0.03226894            3 
 1674000   0.97409834   -6.6805145    646.83008  0.032199825  0.032260776            4 
 1675000     0.982442   -6.6659199    645.89301  0.032133981  0.032252653            4 
 1676000   0.96262278   -6.6486445    647.38019  0.032188753  0.032244488            6 
 1677000   0.99346928   -6.6552598    647.62377  0.032181662  0.032236292            4 
 1678000   0.99745128   -6.6701357    646.97479  0.032130254   0.03222808            5 
 1679000     1.004233   -6.6516309    648.78723  0.032201073  0.032220076            8 
 1680000    1.0103272   -6.6492822    650.20373  0.032252169  0.032212103            4 
 1681000   0.99223104   -6.6576001    648.23824  0.032135546  0.032204062            3 
 1682000    0.9824136   -6.6651732    649.20462  0.032164319  0.032196008            7 
 1683000   0.97572507   -6.6788033    647.72919  0.032072152  0.032187935            3 
 1684000   0.99303317   -6.6438759    649.16534  0.032124176  0.032179976            4 
 1685000   0.98697696   -6.6499291    650.39202  0.032165778  0.032171969            3 
 1686000   0.99517412   -6.6991086    648.96024  0.032075931  0.032163873            2 
 1687000   0.98777793   -6.6835302    648.94232  0.032056032  0.032155728            4 
 1688000   0.99563034   -6.6763052    648.11875  0.031996384  0.032147651            3 
 1689000   0.97721287   -6.6638046    649.49418  0.032045302  0.032139596            5 
 1690000   0.98274744   -6.6767895    650.75865  0.032088691  0.032131657            3 
 1691000   0.98278026   -6.6776545    649.02764   0.03198441  0.032123688            6 
 1692000   0.99140938   -6.6345278    650.49443  0.032037748  0.032115655            4 
 1693000    0.9923039   -6.6913028    649.68166  0.031978817  0.032107528            4 
 1694000   0.95996075    -6.694437     649.5222  0.031952096  0.032099334            2 
 1695000   0.99956297    -6.674693    650.79601  0.031995871  0.032091135            4 
 1696000   0.97905393   -6.6686726     651.5292  0.032013031  0.032082933            6 
 1697000   0.98149582   -6.6717732    650.91024  0.031963772  0.032074855            5 
 1698000   0.98743235   -6.6749219    652.45767  0.032020891  0.032066739            3 
 1699000   0.99284182   -6.6696765    652.56795  0.032007453  0.032058634            9 
 1700000   0.97649066   -6.6767989    653.55043  0.032036786  0.032050514            3 
 1701000    0.9843495   -6.6954466    651.17913   0.03190178  0.032042376            3 
 1702000   0.96457101   -6.6552276    654.53693  0.032047441  0.032034238            7 
 1703000   0.98157811   -6.6861386    651.56339  0.031883118  0.032025968            6 
 1704000     1.001695   -6.6523314    653.08352  0.031938748  0.032017742            4 
 1705000    0.9730662   -6.7037216    651.42294  0.031838854   0.03200946            4 
 1706000    1.0040693   -6.7226031    651.23513  0.031811016  0.032001084            7 
 1707000    0.9851303   -6.6909507    653.22379  0.031889465  0.031992785            5 
 1708000   0.97569026   -6.6782678     654.2498  0.031920853  0.031984305            3 
 1709000   0.96371447   -6.6943557    651.50624  0.031768395   0.03197582            5 
 1710000   0.98108312   -6.7013587    650.83245  0.031716981  0.031967319            6 
 1711000   0.99307254   -6.6822258    651.51643  0.031731757  0.031958953            6 
 1712000   0.96544316    -6.654359    651.85963  0.031729928  0.031950466            3 
 1713000   0.96852282   -6.7175613    652.81424  0.031757844  0.031942007            4 
 1714000   0.99274978   -6.6687464    654.53828  0.031823137  0.031933591            3 
 1715000     0.988325   -6.6475624    653.46892   0.03175262  0.031925205            9 
 1716000   0.97285221   -6.6617891    654.48901  0.031783654  0.031916867            5 
 1717000   0.98436124    -6.664015    653.54044  0.031719105  0.031908533            3 
 1718000   0.96212896   -6.7074621    654.30221  0.031737592  0.031900068            2 
 1719000   0.98258282   -6.6999488    652.41654  0.031627717  0.031891615           10 
 1720000   0.98398036   -6.7023911    654.09705  0.031690749  0.031883193            7 
 1721000   0.96442133   -6.7022405    654.93308  0.031712816  0.031874756            5 
 1722000   0.97420103   -6.6735568    655.85002  0.031738774  0.031866439            5 
 1723000   0.97733346   -6.7016928    654.36285  0.031648426  0.031858019            6 
 1724000   0.96857308   -6.6572473    657.39819  0.031776788  0.031849727            3 
 1725000   0.98574338    -6.686214    655.76642  0.031679537  0.031841493            2 
 1726000    0.9789994   -6.6728363    656.29861  0.031686878    0.0318332            5 
 1727000   0.97955722   -6.6708534    656.81522  0.031693458  0.031824969            3 
 1728000   0.97448973   -6.7042246    655.65394  0.031619113  0.031816743            4 
 1729000   0.96272736   -6.7027937    657.65934  0.031697481  0.031808511            3 
 1730000   0.98048904   -6.7100967    657.78978  0.031685442  0.031800276            4 
 1731000   0.97256639   -6.6565915    660.17335  0.031781887  0.031792071            3 
 1732000   0.96171031   -6.6909077    655.86182  0.031556092  0.031783952            6 
 1733000   0.96832918   -6.6783731    658.79072  0.031678723   0.03177578            3 
 1734000   0.97595751   -6.6467523     657.6322  0.031604777  0.031767589            4 
 1735000   0.97174717   -6.6743223    658.66117  0.031635983  0.031759397            5 
 1736000   0.98318974   -6.7092477    660.33167  0.031697949  0.031751245            3 
 1737000   0.97016718   -6.6897182    660.76341  0.031700413  0.031743178            8 
 1738000   0.97377448   -6.6850454    659.77221  0.031634648  0.031735131            7 
 1739000    1.0067557   -6.6711827    660.33144  0.031643255  0.031727202            7 
 1740000   0.96793775   -6.7005634    661.72463  0.031691792  0.031719121            4 
 1741000   0.95391317   -6.6897956    660.98386  0.031638133  0.031711122            3 
 1742000   0.97396357   -6.6579248    662.46075  0.031690621  0.031703105            5 
 1743000   0.95032991   -6.6870337    659.94902  0.031552353  0.031695062            5 
 1744000   0.96331607   -6.6780706    660.86895  0.031578218  0.031687044            3 
 1745000   0.96404954   -6.6947181    661.49641  0.031590087   0.03167908            4 
 1746000   0.98124084   -6.6735049    661.23538  0.031559535  0.031670963            6 
 1747000   0.96791102   -6.7019814    661.05722  0.031532972  0.031662963           11 
 1748000   0.96131091   -6.6785719    661.63571  0.031542511  0.031654852            4 
 1749000   0.96693455   -6.6890164    662.26301  0.031554365  0.031646882            4 
 1750000   0.96622788   -6.6917672    664.15643  0.031626497  0.031638877            3 
 1751000   0.96929751   -6.6638907      665.083  0.031652532  0.031630992            6 
 1752000   0.98815459   -6.7095616    665.27142  0.031643428  0.031623057            8 
 1753000   0.97766572   -6.6981371    664.40611  0.031584242  0.031615116            7 
 1754000   0.95527759   -6.6784121    665.64245  0.031624974  0.031607181            3 
 1755000   0.96787381   -6.6841151    666.33178  0.031639686  0.031599323            6 
 1756000   0.95376274   -6.7159924    666.54591   0.03163183  0.031591465            3 
 1757000   0.98367892   -6.6859912    666.90639  0.031630924  0.031583579            3 
 1758000   0.96275481   -6.7225234    664.63198  0.031505118  0.031575741            4 
 1759000   0.98038476   -6.7028062    665.63448  0.031534702  0.031567737            5 
 1760000   0.97373476   -6.7027613    664.92672  0.031483273  0.031559753            3 
 1761000   0.97615701   -6.7169436    664.07415   0.03142505  0.031551729            5 
 1762000   0.96680724   -6.7338846    666.83906   0.03153798  0.031543704            3 
 1763000   0.98001092   -6.7044415    665.59794  0.031461427  0.031535654            4 
 1764000   0.96633337   -6.7352274    664.91587   0.03141137  0.031527682            5 
 1765000   0.97273066    -6.683403     665.5645  0.031424197  0.031519739            4 
 1766000   0.96298212   -6.6684879     668.3328  0.031537033  0.031511802            2 
 1767000   0.98042565   -6.6775978    666.41374  0.031428681  0.031503805            6 
 1768000   0.98266873   -6.7108032    667.63102   0.03146828  0.031495838            6 
 1769000   0.94561156   -6.7016264    668.32638  0.031483247  0.031487933            3 
 1770000   0.96801612    -6.646936    668.12319  0.031455894  0.031479987            5 
 1771000    0.9787087   -6.6924955    668.11119  0.031437568  0.031472077            5 
 1772000   0.96716877   -6.6798406     667.8344   0.03140681  0.031464248            6 
 1773000   0.94258098   -6.7350893    669.41858  0.031463554    0.0314563            2 
 1774000   0.94238124   -6.7016381    671.16813  0.031528003  0.031448364            9 
 1775000   0.96062042   -6.6994677    669.12999  0.031414553  0.031440443            3 
 1776000   0.96244462   -6.7199985    671.11647  0.031490075  0.031432703            4 
 1777000   0.96571891   -6.7463935    669.17884  0.031381488  0.031424864           15 
 1778000   0.96393984   -6.6818828    671.52406  0.031473756  0.031416954            4 
 1779000    0.9654838   -6.6853864     669.6129   0.03136654   0.03140913            5 
 1780000   0.97111928   -6.6913399    670.50356  0.031390616  0.031401457            4 
 1781000   0.96718749   -6.7250096    670.90059  0.031391568  0.031393654            4 
 1782000   0.95487829   -6.6678949    670.70102  0.031364619  0.031385944            4 
 1783000   0.96898399   -6.6916633        673.4  0.031473172  0.031378277            8 
 1784000   0.94442415   -6.6719569    673.24861  0.031448459  0.031370722            4 
 1785000   0.96554041   -6.7067729    672.44813   0.03139347  0.031363115            3 
 1786000   0.97439144   -6.6941645    674.63676  0.031478012   0.03135545            6 
 1787000   0.95865485    -6.721355    674.18403  0.031439285  0.031347797            4 
 1788000   0.95232056   -6.6639776     674.4992  0.031436391  0.031340221            3 
 1789000    0.9377224   -6.6983915    673.88923  0.031390406  0.031332676            6 
 1790000   0.97997807    -6.725071    673.15424  0.031338652  0.031325006            7 
 1791000   0.95918847   -6.6771635    673.64127  0.031343815  0.031317357            4 
 1792000   0.97300211   -6.7344797    675.79427  0.031426445  0.031309711            3 
 1793000   0.97247062   -6.7000967    673.38626     0.031297  0.031302048            6 
 1794000   0.95633054   -6.6656483    675.93188  0.031397802  0.031294503            4 
 1795000   0.98168406    -6.694654    674.59355  0.031318178  0.031286883           10 
 1796000   0.97357912   -6.7167139    675.18217  0.031328052  0.031279146            2 
 1797000   0.95641446   -6.7072974    676.12068   0.03135414  0.031271499            2 
 1798000   0.98315709   -6.7147678    674.59564   0.03126602  0.031263848            5 
 1799000   0.95498712   -6.6922768    677.38345  0.031377777   0.03125619            8 
 1800000   0.94711076   -6.7305674    676.57986  0.031323142  0.031248505           10 
 1801000   0.94108735   -6.7080973    675.68474  0.031264332  0.031240833            9 
 1802000   0.98227416   -6.7191417     674.8635  0.031209004  0.031233074            4 
 1803000   0.96597295    -6.700963     675.4193  0.031217383  0.031225389            3 
 1804000   0.98422555   -6.7239574    677.72091  0.031306398  0.031217628            3 
 1805000   0.95885886   -6.6993753    676.90107  0.031251203  0.031209929            4 
 1806000   0.96787644   -6.7146233    677.47636  0.031260445  0.031202263            4 
 1807000   0.96315805   -6.7110829    677.58627  0.031248214  0.031194503            3 
 1808000   0.98909396   -6.6973388    676.44096  0.031178142  0.031186724            4 
 1809000   0.95478791   -6.6997374    677.61305    0.0312149   0.03117905            2 
 1810000   0.95769081   -6.6894632    677.62658  0.031198277  0.031171336            2 
 1811000   0.96235653   -6.7161175    676.63889  0.031135602  0.031163589            2 
 1812000   0.97006462   -6.7207124    677.31203  0.031149376  0.031155854            5 
 1813000   0.94562105   -6.6546482    679.98475  0.031255044  0.031148198            5 
 1814000   0.94649458   -6.7025726    678.89603    0.0311878  0.031140537            4 
 1815000   0.95085728   -6.6927277    679.43356  0.031195297  0.031132914            5 
 1816000   0.95946023   -6.6897847     681.0097  0.031250445  0.031125335            3 
 1817000   0.97852223   -6.6843106    681.47604  0.031254634  0.031117712            7 
 1818000   0.95701726   -6.7076199    680.48951  0.031192222   0.03111014            4 
 1819000   0.97377899    -6.693791    681.66874  0.031229097  0.031102586            4 
 1820000   0.93582607   -6.6876204    681.36442  0.031198005  0.031095045            3 
 1821000   0.96623511   -6.7253775    679.75351  0.031107153  0.031087458            4 
 1822000   0.95185525   -6.6906598    681.14925  0.031153917  0.031079733            2 
 1823000   0.96407408   -6.7055078    681.09686  0.031134433  0.031072159            6 
 1824000   0.96707657   -6.7045418    680.82807  0.031105084  0.031064478            7 
 1825000   0.95175394   -6.7150103    682.88938  0.031182163  0.031056752            4 
 1826000   0.95515111   -6.7306073    680.67603  0.031064076  0.031049059            4 
 1827000   0.94986718   -6.7144803    681.44542  0.031082166  0.031041416            4 
 1828000   0.94878849   -6.7000471    682.11852  0.031095848  0.031033753            4 
 1829000   0.97604401   -6.6898055    683.10933   0.03112399   0.03102619           14 
 1830000   0.94331577   -6.6893171    682.69116   0.03108794  0.031018596            5 
 1831000   0.94800977   -6.7477745    682.08357  0.031043308  0.031010873            7 
 1832000   0.96301507   -6.7348727    681.56796  0.031002909  0.031003251            3 
 1833000   0.95692516   -6.7331744    682.35692  0.031021864  0.030995573            2 
 1834000   0.94095898   -6.7154347    682.10275    0.0309934  0.030987782            7 
 1835000   0.93661864   -6.7021224    682.37574  0.030988907  0.030980054            4 
 1836000   0.96423467   -6.6985665    682.71509  0.030987431  0.030972421            5 
 1837000   0.94976138   -6.7127081    682.90267  0.030979072  0.030964721            5 
 1838000   0.97137652   -6.7111805    684.79369  0.031047955  0.030957097            8 
 1839000   0.95247581    -6.704419    683.68431  0.030980801   0.03094944            5 
 1840000   0.94758509   -6.7200362    684.42116  0.030997335  0.030941757            4 
 1841000   0.94588001   -6.6913807    684.96009  0.031004892  0.030934006            3 
 1842000   0.96863992    -6.755852    683.87609   0.03093902  0.030926286            9 
 1843000   0.96125959   -6.7431115    682.55365  0.030862437  0.030918557            9 
 1844000   0.94711502     -6.71893    684.92444   0.03095284  0.030910853            4 
 1845000   0.96000796     -6.73233    686.91036  0.031025761  0.030903185            6 
 1846000   0.96613265   -6.7474233    686.48027  0.030989539  0.030895511            9 
 1847000    0.9520093   -6.7215917    684.67899   0.03089149  0.030887787            4 
 1848000     0.947719   -6.7338573    687.19135  0.030988066  0.030880206            5 
 1849000    0.9435158   -6.7161952    685.04274   0.03087447  0.030872543           10 
 1850000   0.93986634   -6.7152613    686.20005  0.030909912  0.030864784            8 
 1851000   0.95777395   -6.7504677    685.17827  0.030847212  0.030857057            9 
 1852000   0.96498808   -6.6914164    687.21782  0.030922328  0.030849471            5 
 1853000   0.95428829   -6.7414324    685.70547  0.030837627  0.030841818            4 
 1854000   0.97121119   -6.7358681    687.72335  0.030911693  0.030834231            9 
 1855000    0.9654237   -6.6989686    686.85292  0.030855926  0.030826635           10 
 1856000   0.95997595    -6.706317    686.31195  0.030815012  0.030818924            5 
 1857000    0.9609694   -6.7306028    687.43213  0.030848686  0.030811209            3 
 1858000   0.94358358   -6.7209221    689.43478  0.030921904  0.030803636            4 
 1859000    0.9545392   -6.7208861    687.42166  0.030815029  0.030796015            4 
 1860000   0.96614966   -6.7414602    689.45642  0.030889625  0.030788437            4 
 1861000   0.95793086   -6.7354827    688.36544  0.030824174  0.030780844            3 
 1862000   0.94835184   -6.7060309     688.6158  0.030818824  0.030773284            5 
 1863000    0.9606471   -6.7086082    688.94018  0.030816791  0.030765563            5 
 1864000   0.98134628   -6.7225462     688.5178  0.030781375  0.030757783            9 
 1865000   0.96977529    -6.691084     689.5108   0.03080924  0.030750096            3 
 1866000   0.93951196   -6.7185443    689.04772  0.030772049  0.030742432            3 
 1867000   0.96363285   -6.7153702     689.9911  0.030797674  0.030734761            3 
 1868000   0.92832849   -6.7298418    690.07918  0.030785117  0.030727221            7 
 1869000   0.95247299    -6.748736    689.57961  0.030746371  0.030719645            5 
 1870000   0.95824884   -6.7340332    689.68372  0.030734568  0.030712059            7 
 1871000   0.94107601    -6.705769    690.30151  0.030745658  0.030704292            6 
 1872000   0.96587387   -6.7489552    689.15881  0.030678366  0.030696561            5 
 1873000    0.9445723   -6.7492133    690.27937  0.030711843  0.030688818            3 
 1874000   0.95494503   -6.7327849    689.92481  0.030679687  0.030681034            5 
 1875000   0.89594618   -6.7423991    690.07629  0.030670057  0.030673308            4 
 1876000   0.95370081   -6.6956599    692.15437  0.030746019  0.030665544            4 
 1877000   0.95527896    -6.728885    692.09263  0.030726897  0.030657981            6 
 1878000     0.943408   -6.7038573    692.62959  0.030734362  0.030650363            4 
 1879000   0.95587047   -6.7318931    693.22133  0.030744249  0.030642745            7 
 1880000   0.96516257   -6.7170706     691.8558  0.030667367  0.030635015            4 
 1881000   0.98765152   -6.7472243    691.61573  0.030640428  0.030627254            4 
 1882000   0.95820693   -6.7503644    692.59189   0.03066737  0.030619589            9 
 1883000   0.96144756   -6.7416037     691.8073  0.030616361  0.030611851            4 
 1884000   0.95860371   -6.7249679    692.80468  0.030644227  0.030604092            3 
 1885000   0.96246828   -6.7798464    689.86081  0.030497826  0.030596297            7 
 1886000   0.96652827   -6.7651885    691.18545  0.030540184  0.030588468            5 
 1887000   0.93339396   -6.7364907    692.67109  0.030589608  0.030580664            4 
 1888000   0.96133654   -6.7200805    693.66506  0.030617278  0.030572905            5 
 1889000   0.92702263   -6.7273993     694.0663  0.030618771   0.03056508           10 
 1890000   0.95561322   -6.7131924    692.59021  0.030537487  0.030557448            5 
 1891000   0.94282366   -6.7109726    693.16268  0.030546566  0.030549824            9 
 1892000   0.94276261   -6.7263966    691.80036  0.030470418  0.030542134            4 
 1893000   0.93743382   -6.7193784    693.73718  0.030539583  0.030534463            3 
 1894000   0.94285291   -6.7363148    694.36946  0.030551278  0.030526736            3 
 1895000   0.94240088   -6.7351586    693.19243  0.030483396  0.030518911            4 
 1896000   0.95558692   -6.7596981    694.92728  0.030543569  0.030511092            5 
 1897000   0.94670344   -6.7341161    695.00017   0.03053067  0.030503348            5 
 1898000   0.94459602   -6.7759395    695.31741  0.030528513  0.030495572            3 
 1899000   0.94903773   -6.7551657    696.85885  0.030580079  0.030487797            6 
 1900000   0.94404493   -6.7572083    695.71489  0.030513811  0.030480034           10 
 1901000   0.93678471   -6.7087516    697.98082   0.03059709  0.030472342            6 
 1902000    0.9390094   -6.7375224    696.98208  0.030537245  0.030464652            4 
 1903000   0.92932816   -6.7250505    695.56885  0.030459312  0.030456856            3 
 1904000   0.93708545   -6.7480692    695.90122  0.030457862  0.030449144            6 
 1905000   0.95419536   -6.7256521    696.91787  0.030486346  0.030441404            6 
 1906000   0.94610952   -6.7382969    696.59799  0.030456365  0.030433598            9 
 1907000   0.94992216   -6.7303323    696.81278  0.030449781   0.03042578            3 
 1908000   0.93893204   -6.7543883    698.09697  0.030489909  0.030417972            6 
 1909000   0.92999775   -6.7340434    697.51317  0.030448454  0.030410118            4 
 1910000   0.94425846   -6.7772298    694.93947  0.030320221  0.030402261            6 
 1911000   0.95527553   -6.7664995    696.35612  0.030366131  0.030394387            4 
 1912000   0.96502257   -6.7620176    697.75654  0.030411286  0.030386518            6 
 1913000   0.94287136   -6.7671892      698.713  0.030437054  0.030378679            6 
 1914000   0.96354212   -6.7300658    698.90954  0.030429708  0.030370939            3 
 1915000   0.95671924   -6.7507696    697.66682   0.03035974  0.030363276            7 
 1916000   0.94897509   -6.7265853    698.48037  0.030379278  0.030355586            3 
 1917000    0.9431822   -6.7888774    697.54316   0.03032269  0.030347748            2 
 1918000   0.94964119   -6.7823191    697.86473  0.030320852  0.030339875            3 
 1919000   0.94625588     -6.76173    697.64506  0.030295512  0.030331981            6 
 1920000   0.95153116    -6.731498    697.59099  0.030277387  0.030324077            7 
 1921000   0.92338843   -6.7755733    697.58625   0.03026142  0.030316285           11 
 1922000   0.95055325   -6.7360395    699.77811  0.030340709  0.030308471            4 
 1923000   0.95486211   -6.7324143     700.3531  0.030349848  0.030300734            5 
 1924000   0.94483734   -6.7661202    697.72112  0.030220076   0.03029289            8 
 1925000   0.94330571   -6.7500912    700.03407  0.030304505  0.030285091            3 
 1926000   0.95946168   -6.7681813    700.23743   0.03029757  0.030277248            4 
 1927000   0.94775639   -6.7181884    700.14759  0.030277962  0.030269427            4 
 1928000   0.91535526   -6.7156768    700.15957  0.030262775  0.030261662            6 
 1929000    0.9566646   -6.7725564    701.45144  0.030302896  0.030253942            7 
 1930000   0.93415924   -6.7334015    700.63949  0.030252137  0.030246124            4 
 1931000   0.94129161   -6.7562922    700.07577  0.030212142  0.030238244            8 
 1932000    0.9406888   -6.7458896     699.7162  0.030180996  0.030230363            5 
 1933000   0.95524736    -6.729336    699.43966   0.03015346  0.030222459            4 
 1934000   0.93757737   -6.7473155    700.19495  0.030170413  0.030214541            8 
 1935000   0.94189147    -6.765951    701.38041  0.030205875  0.030206624            7 
 1936000   0.95247659   -6.7450497    701.23375   0.03018396  0.030198653            3 
 1937000   0.94660954    -6.764762    700.57707  0.030140125   0.03019075            4 
 1938000   0.93401657   -6.7687542    701.12955   0.03014833  0.030182839            6 
 1939000   0.94633082   -6.7504264    701.21173  0.030136313  0.030174972            5 
 1940000   0.94780739   -6.7620023     702.2532  0.030165515  0.030167068            8 
 1941000    0.9369967   -6.7500063    702.72598  0.030170272  0.030159145            4 
 1942000   0.92685515   -6.7287482    702.47231  0.030143851  0.030151147            5 
 1943000   0.92766639   -6.7917834    702.70881   0.03013848   0.03014321            7 
 1944000   0.93652936   -6.7762483    701.86611  0.030086853  0.030135265            6 
 1945000   0.94330885    -6.704811    704.68831  0.030192301  0.030127402            8 
 1946000   0.92504579   -6.7586999    702.74789  0.030093692  0.030119497            6 
 1947000   0.93279267   -6.7528998    702.22275  0.030055759  0.030111548            5 
 1948000   0.93604735    -6.760763    701.99929   0.03003077  0.030103525           10 
 1949000    0.9394443   -6.7359117    701.17202  0.029979991  0.030095523            2 
 1950000   0.91778012   -6.7364739    702.33536  0.030014332  0.030087524            4 
 1951000   0.94624109   -6.7645062    700.80766  0.029933695  0.030079433            2 
 1952000   0.95581881   -6.7293375    704.01797  0.030055412  0.030071377            6 
 1953000   0.92812193   -6.7343271    704.13205   0.03004489   0.03006335            3 
 1954000   0.95324897   -6.7688621    701.57803  0.029920591   0.03005525            6 
 1955000   0.94609734   -6.7533708    705.05861  0.030053649  0.030047124            7 
 1956000   0.94585311   -6.7701565    703.33161  0.029964707  0.030038988            3 
 1957000   0.96016411   -6.7670009    702.26741   0.02990408  0.030030837            5 
 1958000   0.96782178   -6.7476002     704.3571  0.029977745  0.030022785            5 
 1959000    0.9381987   -6.7627756    704.16707  0.029954359   0.03001468            7 
 1960000   0.94094763   -6.7263775    704.01049  0.029932419  0.030006643            3 
 1961000   0.94676105   -6.7732191    704.75184  0.029948659  0.029998638            6 
 1962000   0.93754953   -6.7469568    705.49519  0.029964967  0.029990605            5 
 1963000   0.94321611   -6.7578224    705.08238  0.029932178  0.029982559            5 
 1964000   0.92997237   -6.7622459    703.54774  0.029851822  0.029974535            5 
 1965000   0.93361757   -6.7653829    703.49064  0.029834209   0.02996645            3 
 1966000   0.92891765   -6.7523122    706.08647  0.029929064  0.029958382            6 
 1967000   0.93806992   -6.7303863    706.30123  0.029922947  0.029950281            4 
 1968000   0.95620482   -6.7559001    707.77095  0.029969976  0.029942216            5 
 1969000   0.93494288   -6.7755541    704.42975  0.029813346  0.029934112            4 
 1970000   0.93035315   -6.7654841    703.66236  0.029765751   0.02992601            6 
 1971000   0.95290581   -6.7502057    706.36592  0.029864955  0.029917921            3 
 1972000   0.93245332   -6.7754585    702.60654  0.029690946  0.029909799           10 
 1973000   0.93436673   -6.7895994    704.89908  0.029772727  0.029901634            3 
 1974000   0.92857758   -6.7839278     704.2796  0.029731493  0.029893418            4 
 1975000   0.92538029   -6.7706226    706.19012  0.029797051  0.029885258            3 
 1976000   0.93700582   -6.7785809    705.41592  0.029749322  0.029877056            5 
 1977000   0.92991125   -6.7853325    704.95208  0.029714723  0.029868803            3 
 1978000   0.94118292   -6.7598653    707.12412  0.029791208  0.029860617            3 
 1979000    0.8992438   -6.7610055    707.07665  0.029774156    0.0298525            5 
 1980000   0.92725285   -6.7875717    705.43837  0.029690167  0.029844285            7 
 1981000   0.93393136   -6.7550845    705.75554  0.029688522  0.029836047            5 
 1982000   0.95556876   -6.8029907    704.87133  0.029636366  0.029827825            5 
 1983000   0.94565453   -6.7359312    707.33687  0.029725032  0.029819582            5 
 1984000   0.93631885   -6.7626983    705.74284  0.029643096  0.029811422            4 
 1985000   0.92377375   -6.7803544    706.51079  0.029660402   0.02980314            5 
 1986000   0.91744737   -6.7692967    706.50096  0.029645056  0.029794866            4 
 1987000   0.93033653   -6.7472057    707.86404  0.029687303   0.02978661            7 
 1988000   0.93670014   -6.7611753     706.0999   0.02959842  0.029778388            8 
 1989000   0.94951011   -6.7706579     708.2688  0.029674409  0.029770074            7 
 1990000   0.93270125   -6.7895553    705.73626  0.029553445  0.029761794            3 
 1991000   0.92269572   -6.7892448    707.67626    0.0296198  0.029753484            7 
 1992000   0.93917376   -6.7710792    708.08209  0.029621908  0.029745226            6 
 1993000   0.92389209   -6.7584713    709.03248  0.029646784  0.029737012            9 
 1994000   0.93543393   -6.7594418    709.85448  0.029666269   0.02972884            5 
 1995000   0.94099314   -6.7820312    708.33954  0.029588118  0.029720675            5 
 1996000   0.93095896   -6.7624491    707.84352  0.029552585  0.029712454            6 
 1997000    0.9118186    -6.806375    709.92086  0.029624472   0.02970424            6 
 1998000   0.92079062   -6.7782099    709.35771  0.029586158  0.029696041            5 
 1999000   0.91586174   -6.7683595    710.25285  0.029608673   0.02968786            5 
 2000000   0.91957221   -6.7694338    710.43941  0.029601642  0.029679722            8 
 2001000   0.91611954   -6.8045552    710.20639  0.029577144  0.029671646            2 
 2002000   0.92815512   -6.7647334    711.75705  0.029626917  0.029663535           11 
 2003000   0.93208628   -6.7723323    712.63459  0.029648635  0.029655408            5 
 2004000   0.94236972   -6.8109392    710.86033   0.02956006    0.0296473            8 
 2005000   0.93455846   -6.7705929    711.22017  0.029560273  0.029639184            4 
 2006000   0.92342791   -6.7588137    711.31598  0.029549517  0.029631081            5 
 2007000   0.93191811   -6.7519553    710.49357  0.029500646  0.029622986            7 
 2008000   0.92991005   -6.8122677    711.47308  0.029526605   0.02961486            5 
 2009000   0.95553871   -6.7712015    711.78626  0.029524899  0.029606612            2 
 2010000   0.92247532   -6.7326034    712.77672  0.029551274   0.02959849            4 
 2011000   0.92168933   -6.7772023    711.97231  0.029503245  0.029590399            5 
 2012000   0.92863754   -6.7780067    714.22659   0.02958195   0.02958234            5 
 2013000   0.92001123   -6.7658117    714.58928  0.029582269  0.029574246            7 
 2014000   0.92385499   -6.7586082    710.94791  0.029416911  0.029566143            5 
 2015000   0.92016936   -6.7824518     713.4373  0.029505265  0.029558056            6 
 2016000   0.92131746   -6.7764635    712.76855  0.029462985  0.029549926            4 
 2017000   0.93754151   -6.7654574    714.54566  0.029521801  0.029541789            4 
 2018000   0.93751762   -6.7691349     714.9074  0.029522109  0.029533755            4 
 2019000   0.92881649   -6.7484133    715.75601  0.029542513  0.029525728            5 
 2020000   0.93468378   -6.7895624    715.21118  0.029505412  0.029517774            6 
 2021000   0.92670247   -6.7813373    715.38449  0.029497959  0.029509798            3 
 2022000   0.92382578   -6.7369161    717.67408  0.029577731  0.029501897            5 
 2023000   0.92050621   -6.7756446     715.3764  0.029468463  0.029494006            7 
 2024000   0.90484555   -6.7813438    714.72461  0.029427067  0.029486045            3 
 2025000   0.93626917   -6.7821053    715.56845  0.029447261  0.029478141            7 
 2026000   0.91357871    -6.792695    714.04577  0.029370096   0.02947023            5 
 2027000    0.9065985     -6.79248    716.44339  0.029454177   0.02946231            6 
 2028000   0.93176696   -6.7780662    716.37516  0.029436849  0.029454395            7 
 2029000   0.94138226    -6.804278    716.43208  0.029424679  0.029446467            8 
 2030000   0.92049469   -6.8049329    714.52694  0.029331976  0.029438421            9 
 2031000   0.95449464   -6.7900225    716.77432  0.029409746  0.029430431            4 
 2032000   0.94843277   -6.7513247    717.56683  0.029427773  0.029422516            9 
 2033000   0.93176926   -6.7852119    717.01376  0.029390628  0.029414579            6 
 2034000   0.91845974   -6.8056293    717.51944  0.029396896  0.029406608            6 
 2035000   0.91437213   -6.7760038     718.1642  0.029408853  0.029398608            8 
 2036000   0.94426418    -6.791335    718.49021  0.029407753  0.029390654            4 
 2037000   0.90845763   -6.8066097    716.41672   0.02930849  0.029382681            7 
 2038000   0.91077846   -6.7470707    720.11241  0.029445225  0.029374795            4 
 2039000   0.90882826   -6.7644223    717.89753  0.029340262   0.02936686            8 
 2040000   0.93899237   -6.7723507    718.11021  0.029334567  0.029358916            3 
 2041000    0.9232569   -6.7492404    717.73651  0.029304937  0.029351068            6 
 2042000   0.91737932   -6.7879422    719.00255  0.029342252  0.029343173            5 
 2043000   0.92720883   -6.7682796    718.81511  0.029320244  0.029335202            6 
 2044000   0.93691006   -6.8173178    716.71087  0.029220111  0.029327269            5 
 2045000    0.9334118   -6.7679896    719.17225  0.029306123  0.029319307            4 
 2046000   0.91356129   -6.7733009    719.49159  0.029304806  0.029311339            3 
 2047000   0.92806738     -6.79199    719.78984  0.029302631  0.029303421            6 
 2048000   0.91907939   -6.7933537    718.94588  0.029253983  0.029295443            6 
 2049000   0.91284821   -6.7709982    721.31492  0.029336055   0.02928753            5 
 2050000   0.93790255   -6.7814916    719.01204  0.029228132  0.029279619           14 
 2051000   0.92747356   -6.7690016    721.10398  0.029298878  0.029271786            3 
 2052000   0.90100461    -6.791486    719.46596  0.029218078  0.029263864            5 
 2053000   0.91824811   -6.7889759    721.17781  0.029273332  0.029255957            5 
 2054000   0.91490971   -6.7972695    720.00262  0.029211401  0.029248103            5 
 2055000   0.94289399      -6.7782    720.99922    0.0292376  0.029240249            5 
 2056000   0.91013237   -6.8032702    720.25935  0.029193391  0.029232349            6 
 2057000   0.92671813   -6.7808231    720.63628  0.029194469  0.029224485            2 
 2058000   0.91837517   -6.7851821    720.56032  0.029177207  0.029216604           11 
 2059000    0.9238978   -6.7914615    721.10652  0.029185143  0.029208712           11 
 2060000   0.92543118   -6.7839359     722.9179  0.029244251  0.029200888           10 
 2061000   0.91463625   -6.7792454    722.75823  0.029223606  0.029192999            7 
 2062000   0.92921819   -6.7837075    722.48213  0.029198276  0.029185247            4 
 2063000   0.91978008   -6.7713266     721.1616   0.02913078  0.029177418            4 
 2064000   0.93601156   -6.7803648    723.40149  0.029207102  0.029169544            5 
 2065000   0.92657402   -6.7923506    722.62018  0.029161428  0.029161755            4 
 2066000   0.92914539   -6.7865698    722.55011  0.029144486  0.029153944            4 
 2067000   0.93551846     -6.82299    723.54152  0.029170356  0.029146089            5 
 2068000   0.92350671   -6.8059174    723.15029  0.029140486  0.029138203            7 
 2069000   0.89164559   -6.7578966    725.00435  0.029201077  0.029130409            3 
 2070000   0.91130846   -6.7547177    724.54745  0.029168577  0.029122647            4 
 2071000   0.93169756   -6.8068845    724.08228  0.029135775  0.029114788            2 
 2072000   0.91674522   -6.7921602    721.40841  0.029014174  0.029106957            7 
 2073000   0.91008669   -6.8309245    723.51438  0.029084836  0.029099106            7 
 2074000   0.91954206   -6.7862179    724.69954  0.029118432  0.029091261            8 
 2075000   0.91395583    -6.822175    724.57845  0.029099536  0.029083428           11 
 2076000   0.91945855   -6.7807692    723.19881  0.029030139  0.029075571           12 
 2077000   0.92815347   -6.7706507    725.73753   0.02911802  0.029067744            6 
 2078000   0.92784393   -6.7697011    724.48844  0.029053915  0.029059894            5 
 2079000   0.91879512   -6.7907888    726.69799  0.029128507  0.029052046           10 
 2080000   0.93293958    -6.785141    724.32009  0.029019234  0.029044245            2 
 2081000   0.90607078   -6.7969079    724.45768  0.029010799  0.029036399            5 
 2082000   0.90738584   -6.7894251    724.13318  0.028983877  0.029028507            5 
 2083000   0.92140769    -6.811814    724.09281  0.028968347  0.029020673           14 
 2084000   0.93011839   -6.7988148    724.43067  0.028967957  0.029012744           12 
 2085000   0.90027885   -6.7905988    726.71971  0.029045552  0.029004809            3 
 2086000   0.88946711   -6.7984858    725.28033  0.028974126  0.028996919            5 
 2087000   0.92935003   -6.8137508    724.95201  0.028947133  0.028989001            8 
 2088000   0.91158361   -6.7995865    725.71246   0.02896362  0.028981178            4 
 2089000   0.91900736   -6.8003771    728.35708  0.029055253  0.028973419            4 
 2090000   0.92626498    -6.827859    726.69365  0.028975026  0.028965635            5 
 2091000   0.91154086   -6.8416264    727.10114  0.028977409  0.028957762            7 
 2092000   0.91719722   -6.8207856     726.7369  0.028949048  0.028949864            9 
 2093000    0.8945491    -6.784158    727.78174  0.028976817  0.028942072            5 
 2094000   0.91927234   -6.7823398    727.45049  0.028949797  0.028934321            8 
 2095000   0.90010486   -6.7842745    726.22405  0.028887194  0.028926541            4 
 2096000   0.91390274   -6.7983426    727.17652   0.02891128  0.028918764           11 
 2097000   0.93432017    -6.785307    729.45483  0.028988032  0.028910983           12 
 2098000   0.92422817   -6.7652037    728.39994  0.028932314  0.028903264            5 
 2099000   0.90851442     -6.80917    727.39075  0.028878464   0.02889543            9 
 2100000   0.92143222   -6.8283382     727.8831   0.02888425  0.028887578           13 
 2101000   0.91540535   -6.7919786    730.51115   0.02897474  0.028879758            3 
 2102000   0.92267855   -6.8218948     727.8317   0.02885473  0.028871969            2 
 2103000   0.92473117    -6.800659    728.39683  0.028863403  0.028864116            3 
 2104000   0.92361733   -6.8061901    730.20245    0.0289212  0.028856354           10 
 2105000   0.94048843   -6.8140965    731.66185  0.028965236  0.028848707            8 
 2106000   0.89948143   -6.7827549    731.00833  0.028925622  0.028841059            5 
 2107000   0.91642244    -6.763324    730.45328  0.028889942  0.028833342            8 
 2108000   0.92007279   -6.7687491    731.01774  0.028898551   0.02882556           14 
 2109000   0.94107002   -6.8248745    729.67071  0.028831623  0.028817751           11 
 2110000   0.93313659   -6.8051685    729.05944  0.028793817  0.028809883            6 
 2111000   0.90377619   -6.8109027     728.9503  0.028775868  0.028802034            6 
 2112000   0.91799166   -6.8332832    730.51652  0.028824042  0.028794173            9 
 2113000   0.93298369   -6.8120164    729.49111   0.02876996  0.028786261            5 
 2114000   0.89285967   -6.8294528    729.20391   0.02874503  0.028778457            3 
 2115000   0.92083555   -6.8207085    729.16978  0.028730094  0.028770615            7 
 2116000   0.90562314   -6.8239772    731.28692  0.028799895  0.028762697            8 
 2117000   0.92387961   -6.8037652    731.26676  0.028785497  0.028754848           10 
 2118000   0.90747499   -6.8077813    730.08883   0.02872556  0.028746971            6 
 2119000   0.90424974   -6.8048674    730.49273  0.028727888  0.028739077           10 
 2120000   0.93652345    -6.778474    731.41627   0.02875064  0.028731225            5 
 2121000   0.90382905   -6.8193579    730.57566  0.028704057  0.028723394            7 
 2122000   0.91903943   -6.8131437    730.10001  0.028671851  0.028715482           13 
 2123000   0.89822381   -6.8212883    731.03046  0.028694868  0.028707652            3 
 2124000   0.91110555    -6.811446    729.58284  0.028624562  0.028699795           12 
 2125000   0.92308649   -6.8157942     730.6267  0.028652027  0.028691882            6 
 2126000   0.90696193   -6.8222085    731.96953  0.028691186  0.028683851            9 
 2127000   0.91756618   -6.8008591    732.08896  0.028682376  0.028675889            4 
 2128000   0.92797586   -6.7696417     730.6527  0.028612653  0.028667899            9 
 2129000   0.90957644   -6.8056393    732.82621  0.028684289  0.028659981            7 
 2130000   0.90616792   -6.8380882    732.05812  0.028640771  0.028652041            4 
 2131000   0.91110969   -6.7919673    734.08583  0.028706626  0.028644082            8 
 2132000    0.9046426    -6.826724     731.4461  0.028589982   0.02863616            4 
 2133000   0.89084059   -6.8214282    732.31625  0.028610574  0.028628168            8 
 2134000   0.90985944   -6.8190838    733.29324  0.028635319  0.028620199            5 
 2135000   0.92221892   -6.8297334    731.97248  0.028570354  0.028612262            5 
 2136000    0.9042115   -6.8109119    735.15939  0.028681312   0.02860437            3 
 2137000   0.92654798   -6.8253121    731.70535  0.028533199  0.028596447            3 
 2138000   0.90990728   -6.8247878    733.60501  0.028593897  0.028588599            9 
 2139000   0.90737274   -6.7810502    733.87141  0.028590907  0.028580791            6 
 2140000   0.91570887   -6.8117259    735.03716  0.028622943  0.028572988            5 
 2141000   0.90009689   -6.8299275    734.96016  0.028606577  0.028565154            5 
 2142000   0.89713636   -6.8101899    735.11176  0.028599119   0.02855736            7 
 2143000   0.91024169     -6.82499    734.88267  0.028576865  0.028549556            8 
 2144000   0.91635491   -6.8270243    734.52252  0.028549538  0.028541759            5 
 2145000   0.91492503   -6.8287698    737.13728  0.028637812  0.028533991           11 
 2146000   0.91949083   -6.7970567    736.68857  0.028607043  0.028526287            7 
 2147000   0.91034662   -6.7930782    735.40943   0.02854407  0.028518541            8 
 2148000   0.92055635   -6.8337904    736.32199  0.028566185  0.028510716            9 
 2149000   0.92353525   -6.8240371    733.47546   0.02844251  0.028502903           10 
 2150000   0.90071956   -6.8333002    735.43271  0.028505144  0.028495109            6 
 2151000   0.88890522   -6.8289348    740.00918  0.028669192   0.02848739            7 
 2152000   0.89345667   -6.8225741    735.98075  0.028499874  0.028479647            7 
 2153000    0.9257572   -6.7944912    736.79323  0.028518084   0.02847187            5 
 2154000   0.89436356   -6.8252714     735.7276  0.028463618  0.028464148            6 
 2155000   0.89240823   -6.7956081    737.77895  0.028529735  0.028456413            2 
 2156000   0.90658968   -6.8731522    735.90763  0.028444173   0.02844859            4 
 2157000   0.89576038   -6.8154367    738.07784  0.028514829  0.028440827           14 
 2158000   0.89433675   -6.8013678    738.61672  0.028522425  0.028433093            7 
 2159000   0.90757935   -6.8346174    738.18616  0.028492595  0.028425362            3 
 2160000   0.90169776    -6.800152    739.83351   0.02854296  0.028417682            6 
 2161000   0.88976705   -6.7928668    740.52761  0.028556517  0.028410015            8 
 2162000   0.91034395   -6.8457353    738.31996  0.028458216  0.028402394            6 
 2163000   0.90771591    -6.810726    740.20621   0.02851773  0.028394714           12 
 2164000   0.89445038   -6.8290902     738.8356  0.028451771  0.028386986            6 
 2165000   0.89490506   -6.8362318    737.99427  0.028406246  0.028379293            7 
 2166000   0.90606566   -6.8035045    740.55262   0.02849156  0.028371635            6 
 2167000   0.89804988   -6.8547303    738.71602  0.028407784  0.028363992            8 
 2168000   0.90094684   -6.8533683     738.6251  0.028391186  0.028356263            5 
 2169000   0.89718907   -6.8272761    738.85398   0.02838689  0.028348484            6 
 2170000   0.90856292   -6.8374898    739.06669  0.028381977  0.028340749            9 
 2171000   0.90741348   -6.8586608    738.55125  0.028349119  0.028333001            8 
 2172000   0.88073428   -6.8482733    738.70064  0.028341799  0.028325311           11 
 2173000   0.90953272   -6.7963177    741.49496  0.028435916  0.028317572            8 
 2174000   0.88869323   -6.8158515    742.33146  0.028454901  0.028309927            7 
 2175000   0.91125399     -6.82569    741.31451  0.028402855  0.028302344            2 
 2176000   0.89602424   -6.8165637    741.54515  0.028398635   0.02829473            5 
 2177000   0.89513681   -6.8522628     742.1664  0.028409371  0.028287035            6 
 2178000    0.9202062   -6.8178643    741.26065  0.028361672  0.028279369            5 
 2179000   0.89583297   -6.8302036    742.94197  0.028412956  0.028271728            4 
 2180000   0.91824006   -6.8293593    740.79674  0.028317918  0.028264102            9 
 2181000   0.90339766   -6.8235125    741.60213  0.028335707  0.028256504            9 
 2182000   0.90190924    -6.806438    743.02909  0.028377219  0.028248885            6 
 2183000   0.90113942   -6.8274782    741.01969  0.028287513  0.028241206           15 
 2184000   0.90873449   -6.8015692    741.12804  0.028278695  0.028233543            8 
 2185000   0.91889641   -6.8337414    742.14857  0.028304675  0.028225915            7 
 2186000   0.89192977   -6.8340057    742.57033  0.028307805  0.028218378            4 
 2187000   0.92391001   -6.8486599    743.74966  0.028339798  0.028210809            7 
 2188000   0.87545623   -6.8176491    743.89071  0.028332218  0.028203262            5 
 2189000   0.88603627   -6.8452929    743.35049  0.028298709  0.028195724            8 
 2190000   0.90494807   -6.8699587    743.58857  0.028294847  0.028188166            7 
 2191000   0.89922458   -6.8204619    744.68914  0.028323792  0.028180668           11 
 2192000   0.89243471   -6.8318128    742.81472  0.028239611  0.028173186           12 
 2193000   0.88994989    -6.832185     744.9797  0.028309002   0.02816564            6 
 2194000   0.87896661   -6.8563166    744.10952  0.028263048   0.02815816           14 
 2195000   0.89986619   -6.8117898    745.98349  0.028321317  0.028150674            8 
 2196000   0.90478888    -6.825418    746.99682  0.028346874  0.028143233            4 
 2197000   0.90567812   -6.8360605     745.8324  0.028289804  0.028135806            5 
 2198000   0.90403623   -6.8363242    745.84465  0.028277398  0.028128415            5 
 2199000   0.88130228   -6.8262506    743.08634   0.02816001  0.028120949            9 
 2200000   0.91356932    -6.864074    745.76278   0.02824859    0.0281135           11 
 2201000   0.90252755   -6.8388016    746.68163  0.028270545  0.028106005            5 
 2202000   0.89847522   -6.8554046    747.70349  0.028296378  0.028098585            5 
 2203000   0.90856179   -6.8492504    747.80694  0.028287447  0.028091148            5 
 2204000   0.90188773   -6.8099966    745.95626  0.028204638  0.028083682            4 
 2205000   0.91363659   -6.8223228    747.51622  0.028250802  0.028076247           11 
 2206000   0.90907589   -6.8469022    747.03755  0.028219914  0.028068815           11 
 2207000   0.90688931   -6.7899236    746.90298  0.028202046  0.028061401            5 
 2208000   0.89232087   -6.8309491    746.35718  0.028168674  0.028054013            3 
 2209000   0.90333401   -6.8608515    746.22044  0.028150764  0.028046561            7 
 2210000   0.88415867    -6.827689    748.41242   0.02822068    0.0280391           10 
 2211000   0.90571943   -6.8150215    749.78075  0.028259489  0.028031683            6 
 2212000   0.90311264   -6.8368105    748.69942  0.028205976  0.028024193            4 
 2213000   0.88280979   -6.8447721     746.5545  0.028112461   0.02801677            6 
 2214000   0.90199483   -6.8521773    747.01061  0.028116931  0.028009281            2 
 2215000   0.90239175   -6.8659834    747.31809  0.028115805  0.028001827            7 
 2216000   0.88666388   -6.8664643    750.37081  0.028217916  0.027994428            3 
 2217000   0.86619848   -6.8209722    750.28189  0.028201845  0.027987073            3 
 2218000   0.89969937   -6.8338004    750.04831  0.028180354  0.027979629           17 
 2219000   0.91087791   -6.8408971    749.72652   0.02815557  0.027972161           10 
 2220000   0.89718927   -6.8129792    750.17013  0.028159539  0.027964732            8 
 2221000    0.8938939   -6.8372881    750.04031   0.02814199   0.02795733            7 
 2222000   0.88806747   -6.8278771    748.31714  0.028064699  0.027949888            5 
 2223000   0.87965607    -6.854245    749.45643  0.028094783  0.027942482            4 
 2224000   0.90345389   -6.8576653    749.35523  0.028078359  0.027935017            4 
 2225000    0.8957404     -6.85326    750.78548  0.028119306  0.027927675            8 
 2226000   0.90113833   -6.8411056    749.84576  0.028071495  0.027920256            5 
 2227000   0.89301667   -6.8544013    749.48213  0.028045282  0.027912867           13 
 2228000   0.89793694   -6.8301783    749.56193   0.02803568  0.027905441            7 
 2229000   0.91399736   -6.8287727    750.23778  0.028048369  0.027897987            2 
 2230000   0.89316182   -6.8530098    750.20023  0.028034388  0.027890622            7 
 2231000   0.89246168   -6.8715056    748.98393   0.02797639  0.027883138            4 
 2232000   0.88603435    -6.830786    752.72585  0.028103564  0.027875712           10 
 2233000   0.88900668    -6.856803    752.89598  0.028097327  0.027868387            3 
 2234000   0.89946905   -6.8256441    753.77713  0.028117619  0.027861062            5 
 2235000   0.91321685    -6.836618    751.65681  0.028025981  0.027853722            8 
 2236000   0.90100112   -6.8590884    752.28375  0.028036812  0.027846316            9 
 2237000   0.87701472   -6.8399965    753.52804  0.028070632   0.02783889            5 
 2238000   0.87494711   -6.8274863    751.24892  0.027973225  0.027831463            8 
 2239000   0.89410263   -6.8323129    752.36435  0.028002246  0.027824042            4 
 2240000   0.90089221   -6.8432038    751.73201  0.027966221  0.027816715            3 
 2241000   0.87674936    -6.853049    751.91089  0.027960393  0.027809361            7 
 2242000   0.90777753   -6.8595236    753.10988  0.027992487   0.02780199            6 
 2243000   0.90946371   -6.8288571    753.55598  0.027996581  0.027794673            6 
 2244000   0.88355353   -6.8338278    753.67618  0.027988569  0.027787335            5 
 2245000   0.89590579   -6.8498451    755.08064  0.028028235  0.027780054            6 
 2246000   0.86479863   -6.8579868     756.3695  0.028063576  0.027772838            7 
 2247000   0.89652101   -6.8350453    754.87043  0.027995491   0.02776552            5 
 2248000   0.88972944   -6.8431261    757.44605  0.028078516  0.027758205           13 
 2249000   0.91235225   -6.8668515     754.8382  0.027969401  0.027750881            9 
 2250000   0.90163398   -6.8289668    755.31222  0.027974527   0.02774357            9 
 2251000   0.87589113   -6.8224101    755.27083  0.027960567  0.027736307            8 
 2252000   0.89088422    -6.861882    753.35464  0.027877244  0.027729007            8 
 2253000   0.90022628   -6.8527423    754.54893  0.027909045  0.027721701            4 
 2254000   0.90679383   -6.8602634    757.32344   0.02799924  0.027714388            7 
 2255000   0.91162942   -6.8303915    753.76996  0.027855505  0.027707126            5 
 2256000   0.89358786   -6.8716501    756.85443  0.027957093  0.027699839           13 
 2257000   0.86183961   -6.8608025     755.7171  0.027902714  0.027692541            9 
 2258000    0.8988544   -6.8351329    757.00449  0.027937869   0.02768531            8 
 2259000   0.88909919   -6.8434258    757.44752  0.027941844  0.027678158            4 
 2260000    0.8865921   -6.8709939    755.14589  0.027844613  0.027670813            5 
 2261000   0.88757151   -6.8519516    757.14586   0.02790601  0.027663556            6 
 2262000   0.89748226   -6.8485151    758.74114  0.027952444   0.02765633            7 
 2263000    0.8977967   -6.8812981    756.48794  0.027857119  0.027649112           10 
 2264000   0.87811231   -6.8549646     757.2414  0.027872549  0.027641898            5 
 2265000   0.89255604   -6.8583781    756.83016  0.027845113  0.027634608            4 
 2266000   0.89003814   -6.8561609    757.66672  0.027863589  0.027627271            5 
 2267000   0.88677134   -6.8510371    755.96417  0.027788714   0.02761995           11 
 2268000   0.92411441   -6.8952748     757.2645  0.027824239  0.027612628           10 
 2269000   0.89745005   -6.8635529    757.19052   0.02780926  0.027605295            4 
 2270000   0.89187145   -6.8912345     756.9548  0.027788355  0.027597925            8 
 2271000   0.89576878   -6.8731351    758.59105   0.02783616  0.027590626            9 
 2272000   0.89640127   -6.8653972    756.34364  0.027741478  0.027583291            7 
 2273000   0.89374465   -6.8610656    758.37698   0.02780382  0.027576013            3 
 2274000   0.87085198   -6.8738257    756.93173   0.02773863  0.027568693            4 
 2275000   0.89136018   -6.8540551     757.6907  0.027754238  0.027561371            7 
 2276000   0.88579553   -6.8353044    758.36548   0.02776675  0.027554061            7 
 2277000   0.88028631   -6.8487777     758.8732  0.027773137  0.027546811            8 
 2278000   0.87665575    -6.857025    759.77167  0.027793813  0.027539634            4 
 2279000   0.89809819   -6.8777083    759.13582  0.027758367  0.027532418            5 
 2280000   0.88835682   -6.8654268    759.23728    0.0277499  0.027525185            5 
 2281000   0.87715106   -6.8593362    758.80555  0.027721962  0.027517961           11 
 2282000   0.89844476   -6.8300576    759.26051  0.027726428  0.027510748            4 
 2283000   0.89765985   -6.8233713    759.76222  0.027732597  0.027503435            6 
 2284000   0.87363556   -6.8503816    758.89664  0.027688873  0.027496166            6 
 2285000     0.887713   -6.8377501    758.88185  0.027676216   0.02748884            3 
 2286000   0.87113838   -6.8486167    758.35918  0.027645056  0.027481568            4 
 2287000   0.88503105   -6.8225973    760.52944  0.027712048   0.02747433            6 
 2288000   0.88217794   -6.8595088    761.47411  0.027734343  0.027467059            4 
 2289000   0.87872153   -6.8583431    760.17419  0.027674901  0.027459766            4 
 2290000   0.87347787   -6.8453523    760.66739  0.027680764  0.027452521           11 
 2291000   0.87432794   -6.8626878    759.77961  0.027636389  0.027445274            4 
 2292000   0.86618797   -6.8816023    759.66513  0.027620169  0.027437994            6 
 2293000   0.88461817   -6.8193328    760.89566  0.027652844  0.027430762           11 
 2294000   0.87773346   -6.8419563    761.20787  0.027652131  0.027423517            5 
 2295000   0.89059356   -6.8810305    762.48549  0.027686474  0.027416289            6 
 2296000   0.88275603   -6.8296495    761.93495  0.027654433  0.027409067            5 
 2297000    0.8800202   -6.8424116    760.36876  0.027585574  0.027401791            3 
 2298000   0.88593588   -6.8585117    762.10643  0.027636584  0.027394528            5 
 2299000   0.87597003   -6.8645389     761.9886  0.027620291  0.027387286            4 
 2300000   0.88959717   -6.8555408    763.70041  0.027670305  0.027380102            4 
 2301000    0.8767199   -6.8800889    759.96678  0.027523062  0.027372867            6 
 2302000   0.88488798   -6.8524073    760.68682  0.027537171  0.027365598           10 
 2303000   0.87517283   -6.8542981    761.76449  0.027564209  0.027358288            9 
 2304000   0.89343602   -6.8712501    760.44253  0.027504432  0.027351005           13 
 2305000   0.89007862   -6.8578217    762.90266  0.027581441  0.027343728            4 
 2306000   0.88899801   -6.8798128    761.13688  0.027505669  0.027336402            6 
 2307000   0.89511365   -6.8934438    761.52945  0.027507927  0.027329037            7 
 2308000    0.8918135    -6.875279    762.36736  0.027526262  0.027321761            2 
 2309000   0.88569241   -6.8882828    763.50464  0.027555386  0.027314476           12 
 2310000   0.87366007   -6.8438197     765.0398  0.027598838  0.027307233           13 
 2311000   0.88112384   -6.8509442     764.4245  0.027564709  0.027300041            8 
 2312000   0.89401117   -6.9037293     763.2454  0.027510287  0.027292803            7 
 2313000   0.88500117   -6.8761554    765.14603   0.02756687  0.027285542           13 
 2314000    0.8748227   -6.8372241    764.16106  0.027519485  0.027278328            3 
 2315000   0.88670322    -6.889138    764.46977   0.02751871  0.027271118            3 
 2316000   0.85890186   -6.8718064    763.60501  0.027475713   0.02726386            8 
 2317000   0.87752996   -6.8669962    765.02428    0.0275149  0.027256609           16 
 2318000   0.87051193   -6.9062287    764.86295   0.02749723   0.02724933            8 
 2319000   0.88556315   -6.8922173    762.86705   0.02741365  0.027242042            7 
 2320000   0.87690695   -6.8663085    766.84364  0.027544671   0.02723477            7 
 2321000    0.8836123   -6.8888649    765.13312  0.027471389  0.027227548            4 
 2322000   0.86322266   -6.8830304    765.25564  0.027463955  0.027220326           10 
 2323000   0.87919731   -6.8718145     765.7684  0.027470526  0.027213114           21 
 2324000   0.88875297   -6.8745394    764.80889  0.027424301  0.027205908            8 
 2325000   0.88172996   -6.9057458     765.3736  0.027432746  0.027198646            8 
 2326000   0.87126931   -6.8677112    764.45622  0.027388085  0.027191364            7 
 2327000   0.86159855    -6.892968    766.57253  0.027452103  0.027184112            6 
 2328000   0.87497745   -6.8879449    765.87784  0.027415444  0.027176826            8 
 2329000   0.88716011   -6.8774527    765.95435   0.02740641  0.027169599            8 
 2330000   0.87677427    -6.906997    765.63863  0.027383356  0.027162463            8 
 2331000   0.88161309   -6.8653985    765.39674  0.027362961  0.027155276            3 
 2332000   0.88131398   -6.8584091    767.56715  0.027428786  0.027148087            9 
 2333000   0.87738592   -6.8802281    767.09666  0.027400224  0.027140883            5 
 2334000   0.88154562   -6.8980529    767.06853  0.027387479  0.027133712            5 
 2335000   0.88693348   -6.8595957    768.37093  0.027422231  0.027126542            6 
 2336000   0.88842461   -6.8720281    767.99975  0.027397251  0.027119392            5 
 2337000   0.85458756   -6.8681797    767.26917  0.027359477  0.027112241           12 
 2338000   0.89051853   -6.9064017    765.93814  0.027300333  0.027105062           10 
 2339000   0.86359356   -6.8945802    767.67193  0.027350432  0.027097828            4 
 2340000    0.8832467   -6.8682838    768.26995  0.027360041  0.027090666            5 
 2341000   0.88163217   -6.8724585    767.54757  0.027322639  0.027083561            6 
 2342000   0.87103281   -6.8661702    767.60744  0.027313103   0.02707649            4 
 2343000   0.89990324    -6.872895    766.95185  0.027278128  0.027069348            6 
 2344000   0.88335711   -6.8758561    769.88983  0.027370941  0.027062184            4 
 2345000   0.85306781   -6.8634314    770.79694  0.027391505  0.027055099            6 
 2346000   0.88182641   -6.8736632    769.95083  0.027349774  0.027048066            9 
 2347000   0.87053941   -6.8734095    770.22134  0.027347726  0.027041006            3 
 2348000   0.90875132   -6.8671821    771.00019   0.02736372  0.027033949            5 
 2349000   0.87035571   -6.8778744    769.63004  0.027303464  0.027026945            6 
 2350000   0.86899073   -6.8730316    770.22073  0.027312792  0.027019933            7 
 2351000   0.88442359   -6.8785682    770.12996  0.027297957  0.027012856            7 
 2352000   0.89225427   -6.8921464    770.48381  0.027298888  0.027005785            7 
 2353000   0.88951668   -6.8647895    769.85371  0.027264971  0.026998744           11 
 2354000   0.87668059   -6.8866618     769.1047  0.027226873  0.026991703            3 
 2355000   0.86044007   -6.8857658    770.48276  0.027264075  0.026984581            3 
 2356000    0.8832483   -6.8797821    770.92833  0.027268263  0.026977489           11 
 2357000    0.8527287   -6.8892137    770.11672  0.027227999  0.026970375            5 
 2358000     0.902551   -6.8873098     772.0501  0.027284779  0.026963318            5 
 2359000   0.88198146   -6.8985426    771.46236   0.02725245  0.026956259           12 
 2360000   0.88693368   -6.8671677    772.00249  0.027259975  0.026949219            5 
 2361000   0.85502195   -6.8947859    771.42556  0.027228066  0.026942159            7 
 2362000   0.88321794   -6.8418409    772.44739  0.027252589  0.026935123            5 
 2363000    0.8779161   -6.8731131    772.69423  0.027249761  0.026928062           10 
 2364000   0.88249495   -6.8947075    771.23036  0.027186632  0.026921002            5 
 2365000   0.87546056   -6.8853938    772.91819  0.027234609  0.026913951            6 
 2366000   0.85753627    -6.875519    773.16437  0.027231768  0.026906911            7 
 2367000   0.87037336   -6.8938848    771.31707  0.027155227  0.026899893            8 
 2368000   0.86398697   -6.8810329    773.16631  0.027208837  0.026892875            4 
 2369000   0.86579284   -6.8949058    772.62507  0.027178313  0.026885846            5 
 2370000   0.86828021   -6.8975498    774.35574  0.027227698  0.026878791            7 
 2371000   0.86630841   -6.9084767    773.88025  0.027199503  0.026871691            7 
 2372000   0.88533468   -6.9094599    772.69292  0.027146322  0.026864655            4 
 2373000   0.87329759   -6.8913764    771.98896  0.027110161  0.026857588            4 
 2374000   0.87837745   -6.8585579    774.88016   0.02720023  0.026850617           11 
 2375000   0.87683516   -6.9380855    771.93949  0.027085596  0.026843542            6 
 2376000   0.85579987   -6.8981883    775.08936  0.027184672  0.026836485            5 
 2377000   0.86634097   -6.9023239    773.24894  0.027108713  0.026829467            3 
 2378000   0.86046452   -6.8878717    776.53606  0.027212506  0.026822426            9 
 2379000   0.88879872   -6.8898105    774.58821  0.027132836  0.026815389            7 
 2380000   0.85853843   -6.9005948    773.35764  0.027078349  0.026808364            4 
 2381000   0.86825087   -6.8814052    774.88186  0.027120323  0.026801331            9 
 2382000   0.87571922   -6.9139228    775.62533  0.027134947  0.026794268            4 
 2383000   0.85779633   -6.8939732    775.87088  0.027132147  0.026787263            9 
 2384000   0.87118084   -6.9201812    774.02579  0.027056271  0.026780237            7 
 2385000   0.88623473   -6.8649767    775.61269  0.027100373  0.026773266            4 
 2386000   0.87563879   -6.9086564    775.52289  0.027085879   0.02676632            6 
 2387000   0.87811772   -6.8478558    775.86023  0.027086309  0.026759403            6 
 2388000   0.86065792   -6.8882841    777.61142  0.027136077   0.02675246            6 
 2389000   0.90038239   -6.9149647     777.5335     0.027122  0.026745486            9 
 2390000   0.87524849   -6.8893047    777.57664  0.027112156  0.026738559            8 
 2391000    0.8869574   -6.9176436    775.73242   0.02703654  0.026731559            6 
 2392000    0.8818572   -6.8747354    776.56067  0.027054092  0.026724579            4 
 2393000   0.85977439   -6.9094167    776.46055  0.027039301  0.026717587           10 
 2394000   0.84906649   -6.9028601    777.58605  0.027067184  0.026710636            9 
 2395000   0.87538499   -6.9422178    775.61521  0.026987307  0.026703612            5 
 2396000   0.86924297   -6.9383927    776.27569  0.026999015  0.026696614            6 
 2397000   0.87745181   -6.9141991    776.39043  0.026991741    0.0266896            6 
 2398000   0.86540482   -6.9060208    777.03818  0.027002995  0.026682616            5 
 2399000   0.86345233    -6.889768    777.66456  0.027013497  0.026675654            4 
 2400000   0.86228325   -6.8814897    780.64206  0.027105627  0.026668736            7 
 2401000   0.85242543   -6.9030774    777.96039  0.027001263  0.026661802            5 
 2402000   0.85343486   -6.8841524    777.32793   0.02696808  0.026654911            9 
 2403000   0.87437934   -6.8952759    778.88493  0.027010852     0.026648            9 
 2404000   0.85942228   -6.8959622    778.90727  0.027000391  0.026641084           13 
 2405000   0.86563833   -6.9155653    777.45005  0.026938671  0.026634126            4 
 2406000   0.86722643    -6.876645    780.71322  0.027040497  0.026627203           17 
 2407000   0.86636939   -6.8933949    778.74218  0.026961023  0.026620336            7 
 2408000    0.8643596   -6.9113195    778.87496  0.026954421  0.026613458           15 
 2409000   0.87645565   -6.8540118    779.75093  0.026973534  0.026606591           10 
 2410000   0.86033981   -6.9189136    779.57902  0.026956398  0.026599753           13 
 2411000    0.8654075   -6.9066246    778.43387  0.026905636  0.026592912            8 
 2412000   0.86216521   -6.8611354    782.07555    0.0270203  0.026586106            7 
 2413000   0.88689889   -6.8729207    780.07081  0.026939868  0.026579303            7 
 2414000   0.87563758   -6.8957715    781.96812  0.026994204  0.026572473           10 
 2415000   0.87811207   -6.9111701    781.47026  0.026965848  0.026565722           14 
 2416000   0.89710295   -6.8961325    781.45188  0.026954052   0.02655897            5 
 2417000   0.85403613   -6.9101497     782.1283  0.026966222  0.026552201            3 
 2418000   0.84266034   -6.8867833    781.01506  0.026916703  0.026545438            4 
 2419000   0.87145737   -6.8835491    781.91839  0.026936695  0.026538623            5 
 2420000   0.86737162   -6.8950449    782.66992  0.026951444  0.026531872            4 
 2421000   0.84138215   -6.8928387    782.25681  0.026926091   0.02652509            6 
 2422000    0.8696342   -6.8861893    782.29202  0.026916186  0.026518265            4 
 2423000   0.87766728   -6.8749017    782.25499  0.026903804  0.026511465            5 
 2424000   0.87979604   -6.9137024    782.45125  0.026899452  0.026504613            6 
 2425000   0.86657549    -6.914711    783.23302  0.026915224  0.026497844            4 
 2426000   0.87618142   -6.9143371    781.21915  0.026834953  0.026491065            5 
 2427000   0.85883708   -6.9079759    783.67669  0.026908278    0.0264843            3 
 2428000   0.84234536   -6.9193928    782.68454  0.026863143  0.026477545           22 
 2429000   0.86752911   -6.9236542    782.50872  0.026846052  0.026470764            5 
 2430000   0.85307094   -6.8970745     783.1439  0.026856787  0.026463985            9 
 2431000   0.84519923   -6.9109865    782.91047  0.026837737  0.026457222            5 
 2432000   0.85724162   -6.9198689    784.27314  0.026873394  0.026450429            7 
 2433000    0.8762176   -6.9241086    782.89609  0.026815183  0.026443617           16 
 2434000   0.86984035   -6.8954675    782.77967   0.02680018  0.026436769            5 
 2435000   0.86994045   -6.8825812    783.42902  0.026811397  0.026429959           11 
 2436000   0.83769312   -6.8969409    781.75244  0.026743036  0.026423109            6 
 2437000    0.8658494   -6.8980643    781.78954  0.026733331  0.026416234            3 
 2438000   0.85041774   -6.9525938    782.52854  0.026747626   0.02640935            7 
 2439000   0.86246411   -6.9017759    783.15196   0.02675796  0.026402489            9 
 2440000   0.83986651   -6.9000743    783.69518  0.026765546  0.026395697            8 
 2441000   0.88004487   -6.9000424    784.96715  0.026798004  0.026388887           10 
 2442000   0.88021045   -6.9328989    784.01585  0.026754568  0.026382075           10 
 2443000   0.84641676   -6.8945651    785.04755  0.026778809  0.026375246           11 
 2444000   0.85947139   -6.9158328    787.40534  0.026848245  0.026368456            5 
 2445000   0.85951268   -6.9242951    782.23693  0.026661109  0.026361617            9 
 2446000   0.85204708   -6.9300954    784.27602  0.026719679  0.026354735            7 
 2447000   0.84083437   -6.9058324    784.30236  0.026709657  0.026347883            5 
 2448000   0.86728897   -6.9151305     783.1885  0.026660829  0.026341033            7 
 2449000   0.85469163   -6.9109787    783.99251  0.026677301  0.026334164            6 
 2450000   0.87969409   -6.9051697    783.31129  0.026643241  0.026327347           11 
 2451000   0.86098903   -6.9268641    782.87632  0.026617582  0.026320474            9 
 2452000   0.86180252   -6.9233123    785.16472    0.0266845  0.026313611           10 
 2453000    0.8745757    -6.885782    785.13911  0.026672752  0.026306821            5 
 2454000   0.87291235   -6.9288603    785.90693  0.026687956  0.026299992            5 
 2455000   0.86831242   -6.9414049    784.89502  0.026642737  0.026293124           16 
 2456000   0.86099764   -6.9246965     785.9886  0.026668994  0.026286268            6 
 2457000   0.84894698   -6.9229145    785.48304  0.026640993  0.026279429            8 
 2458000   0.85863844   -6.8848231    786.28968  0.026657502  0.026272599            8 
 2459000   0.86315176   -6.9220295    787.49669  0.026687566  0.026265806            5 
 2460000   0.85283932   -6.9469421    787.27645  0.026669256  0.026258969            3 
 2461000    0.8646092   -6.9434098    787.13091  0.026653491  0.026252161           10 
 2462000   0.85426695    -6.924024     786.9701  0.026637223  0.026245371            3 
 2463000   0.85864821   -6.9161942    786.84021  0.026622013  0.026238519            4 
 2464000   0.85028919   -6.9298587    785.82231  0.026576783  0.026231708            4 
 2465000   0.83650322   -6.9465911    786.71296  0.026596111  0.026224877            6 
 2466000   0.85716497   -6.9177551    787.49835  0.026611866   0.02621811            7 
 2467000   0.84620451   -6.9275352    786.96003  0.026582895  0.026211341           11 
 2468000   0.86284408   -6.9089848     788.9479  0.026639246  0.026204587           11 
 2469000   0.86368365   -6.9335224    788.82143  0.026624187   0.02619781           10 
 2470000   0.84537639   -6.9041322    787.38708  0.026565016  0.026191057           18 
 2471000   0.87487385   -6.9087643    788.86925  0.026604251   0.02618428           26 
 2472000   0.84360359   -6.9208596    786.26067  0.026505551  0.026177481            6 
 2473000   0.85554044   -6.9213738     785.7599  0.026477958  0.026170649            9 
 2474000   0.85935716   -6.9234426    786.86628  0.026504523   0.02616388            7 
 2475000   0.84000551    -6.931946    787.54534  0.026516678   0.02615702           22 
 2476000   0.87016007   -6.8962059    789.21802  0.026562265  0.026150166           14 
 2477000   0.87181137   -6.9029458     786.0452  0.026444799  0.026143357            8 
 2478000   0.86053654   -6.8939039    790.41304  0.026581014  0.026136538            5 
 2479000    0.8361728   -6.9098321    789.05579  0.026524667  0.026129737            3 
 2480000   0.86198164   -6.9134935    786.95286  0.026443308  0.026122944            4 
 2481000   0.87045564   -6.9035912    787.02863  0.026435195  0.026116094            7 
 2482000   0.86500358   -6.8832429    788.55145  0.026475673  0.026109229            4 
 2483000   0.83022735    -6.944847    787.23534   0.02642084  0.026102367            5 
 2484000   0.85550501   -6.9299802    786.44276  0.026383614  0.026095444            4 
 2485000   0.84057616   -6.9143381    786.37392  0.026370688  0.026088556           13 
 2486000   0.85256546   -6.9486232    787.69422  0.026404338  0.026081663            6 
 2487000   0.85548882   -6.8896737    792.21457  0.026545187  0.026074865            8 
 2488000    0.8500716   -6.9374875    790.22928  0.026468023   0.02606811           10 
 2489000   0.85347051   -6.9085229    790.22194  0.026457143  0.026061323           17 
 2490000   0.84452126   -6.9533749    788.24123  0.026380229   0.02605453            6 
 2491000   0.85371881   -6.9344529    788.92753  0.026392598  0.026047677            9 
 2492000   0.83943761   -6.9401125    791.29953  0.026461327  0.026040923           19 
 2493000   0.87176725   -6.9263586    790.91046  0.026437708  0.026034143            9 
 2494000   0.84889483   -6.9133654    793.74788  0.026521915  0.026027421            8 
 2495000   0.84100221   -6.8881731    792.71054  0.026476638  0.026020754            4 
 2496000   0.86044151   -6.9402538    792.08196  0.026445044  0.026014044           10 
 2497000   0.84801599   -6.9298488    792.17374  0.026437516  0.026007287           13 
 2498000   0.84532324   -6.9283336    793.06906  0.026456801  0.026000602            7 
 2499000   0.84579257   -6.9298854    790.34734  0.026355453  0.025993886            4 
 2500000   0.82536319   -6.9692071    789.53227  0.026317742  0.025987235            6 
 2501000   0.85416387   -6.9322421    792.37252  0.026401856  0.025980468            8 
 2502000   0.85330473   -6.9493136    792.25315  0.026387329  0.025973743            8 
 2503000   0.83107882   -6.9520294    791.33113  0.026346089  0.025966997            5 
 2504000    0.8700951   -6.9178894    792.70531    0.0263813  0.025960282            8 
 2505000   0.85177215    -6.955442     792.8996  0.026377232  0.025953548            9 
 2506000   0.84359874   -6.9234792    791.35637  0.026315389  0.025946802            6 
 2507000   0.85880558    -6.911669    792.07986  0.026328941  0.025940109            9 
 2508000   0.87073165    -6.913365    792.91241  0.026346106  0.025933406            5 
 2509000    0.8537493   -6.9334771    791.52548   0.02628954  0.025926695            6 
 2510000    0.8552035   -6.9065713    790.97873  0.026260914  0.025919946            4 
 2511000   0.83873752   -6.9343587    794.46385  0.026366117  0.025913235           10 
 2512000   0.84207737   -6.9560309    792.16529  0.026279369  0.025906434            8 
 2513000   0.85232726   -6.9476855    793.28818  0.026306147  0.025899624            7 
 2514000   0.85689263   -6.9211666    795.34323  0.026363804  0.025892879           33 
 2515000   0.86379425   -6.9278516    793.28558  0.026285142  0.025886165           11 
 2516000   0.83796369   -6.9266699    793.98821  0.026297967   0.02587946            8 
 2517000    0.8367219    -6.926034    792.92126  0.026252194  0.025872793            9 
 2518000   0.84482807   -6.9251283    795.85584  0.026338888  0.025866125           12 
 2519000   0.85126518   -6.9377189    794.43008  0.026281265  0.025859448            4 
 2520000   0.86336634   -6.9352014    794.60113  0.026276493  0.025852789            6 
 2521000   0.84045329   -6.9020931    795.46667   0.02629468  0.025846162            6 
 2522000   0.85765318   -6.9181278    797.08792  0.026337824   0.02583955            6 
 2523000   0.86225609   -6.9416057    795.23735  0.026266262  0.025832948            5 
 2524000   0.84380387   -6.9264077    796.76528  0.026306302  0.025826329            8 
 2525000   0.84035882    -6.953655    795.87724  0.026266576  0.025819679            4 
 2526000   0.84624233   -6.9625815    792.81113  0.026155025  0.025812967            5 
 2527000   0.85191568   -6.9367677    796.28305  0.026259169  0.025806256           10 
 2528000   0.86584945   -6.9159553    796.40089  0.026252666  0.025799608            6 
 2529000   0.85457269   -6.9477655    794.58202  0.026182352  0.025792952            9 
 2530000   0.85266733    -6.930233    795.41436  0.026199419  0.025786316            7 
 2531000   0.85465301   -6.9276078    797.14667  0.026246104  0.025779629           21 
 2532000   0.85706325   -6.9243377    796.30217  0.026207944  0.025772966           10 
 2533000   0.85729738   -6.9555701    795.49128   0.02617092  0.025766299            5 
 2534000   0.83513877    -6.936318    797.29844  0.026220022   0.02575959            7 
 2535000   0.85902577   -6.9344288    796.52557  0.026184272  0.025752886            8 
 2536000   0.84743415   -6.9456384    796.44742   0.02617138  0.025746165            6 
 2537000    0.8385722   -6.9383516    799.09911  0.026248164  0.025739441            5 
 2538000   0.85563981   -6.9396243    795.52509  0.026120472  0.025732747           12 
 2539000   0.82921919   -6.9159088     795.7839  0.026118679  0.025726018            5 
 2540000   0.83007734   -6.9676759    795.57646   0.02610159  0.025719292            5 
 2541000   0.83815068   -6.9553692    794.98682   0.02607198  0.025712543            5 
 2542000   0.83548245   -6.9590259    797.76248  0.026152717  0.025705818            9 
 2543000   0.86101673   -6.9323091    797.33329  0.026128368  0.025699125           11 
 2544000   0.84286152   -6.9553525    797.94004  0.026137973  0.025692392            8 
 2545000   0.84285383   -6.9205023      798.057  0.026131532  0.025685709           12 
 2546000   0.82690827   -6.9135644    797.08792   0.02608955  0.025679011            6 
 2547000   0.84824288   -6.9531831    798.25243  0.026117407  0.025672376            4 
 2548000   0.84555826   -6.9238061    797.43907  0.026080556  0.025665748           14 
 2549000   0.83988357   -6.9511289    797.79497  0.026081959  0.025659148           10 
 2550000   0.83274129   -6.9506885    798.82291  0.026105324  0.025652534            4 
 2551000   0.86095838   -6.9354303     800.2461  0.026141582  0.025645934            6 
 2552000   0.83341527   -6.9424244    798.80756  0.026084364  0.025639335            4 
 2553000   0.84966452   -6.9851272    799.30168  0.026090276  0.025632712            4 
 2554000    0.8540427   -6.9504759    800.77753  0.026128215  0.025626113            6 
 2555000   0.85887583   -6.9071968    799.98961   0.02609229  0.025619556            7 
 2556000   0.81158201   -6.9253925    800.17065  0.026087984   0.02561305            9 
 2557000   0.85540453    -6.941714    802.15134  0.026142333  0.025606535            6 
 2558000   0.80963304   -6.9457408    799.01891  0.026030066  0.025599986           11 
 2559000   0.85381871   -6.9286235     800.7267  0.026075508  0.025593397            4 
 2560000   0.85298313   -6.9170857    802.10763  0.026110274  0.025586839            8 
 2561000   0.84026996   -6.9579259    801.73706  0.026088021  0.025580299            4 
 2562000   0.82671865   -6.9461155    801.73154  0.026077659  0.025573703            3 
 2563000   0.83503065   -6.9488138    800.34633  0.026022445  0.025567166           13 
 2564000   0.85303142   -6.9546932    801.32686  0.026044165  0.025560606            7 
 2565000   0.83698468   -6.9532761    801.66447   0.02604498  0.025554068            5 
 2566000   0.83722239   -6.9633137    800.33656  0.025991704  0.025547517           10 
 2567000   0.82988087   -6.9694097    801.26217  0.026011627  0.025540979            6 
 2568000   0.84367021   -6.9707486    800.84283   0.02598789  0.025534421            7 
 2569000   0.83329953   -6.9475485     803.3119  0.026057866  0.025527884            7 
 2570000   0.84509429   -6.9339884    801.12229  0.025976728  0.025521335            4 
 2571000    0.8318039   -6.9443721    799.94326  0.025928408  0.025514775            7 
 2572000   0.84057239   -6.9488291    803.65679  0.026038647   0.02550826            7 
 2573000   0.83373722   -6.9552717    802.63247  0.025995351  0.025501753            9 
 2574000   0.83704077   -6.9773355    800.65975  0.025921385    0.0254952           13 
 2575000   0.84636768   -6.9370784    802.92578  0.025984653  0.025488683            7 
 2576000   0.83927202   -6.9637228    803.83934   0.02600412  0.025482192            3 
 2577000   0.84109908   -6.9398005     801.7407  0.025926164  0.025475647           11 
 2578000   0.85522348    -6.965225    802.72409  0.025947895  0.025469187            3 
 2579000   0.85380642   -6.9564142    803.79491  0.025972435  0.025462721            8 
 2580000   0.82820678   -6.9593656    804.68659  0.025991169  0.025456286            5 
 2581000   0.82980794   -6.9570939    804.32687  0.025969484  0.025449858            8 
 2582000   0.84054525   -6.9479057    804.85757  0.025976555  0.025443376           15 
 2583000   0.84435685    -6.972504    804.15833  0.025943939  0.025436877            7 
 2584000   0.85389242   -6.9348445    803.93043  0.025926549  0.025430401            8 
 2585000   0.82854528   -6.9577505    803.48499   0.02590216  0.025423916            5 
 2586000   0.83801606   -6.9533326    804.14393  0.025913377  0.025417426            5 
 2587000   0.83239474   -6.9474876    804.69884  0.025921236  0.025410896           10 
 2588000    0.8380609   -6.9728029    803.46143  0.025871375  0.025404339            8 
 2589000    0.8584287   -6.9681514    801.76741  0.025806856  0.025397824            4 
 2590000   0.85380229   -6.9425473    803.67213  0.025858177   0.02539125            9 
 2591000   0.86100242   -6.9638915    804.48309  0.025874279  0.025384699            7 
 2592000   0.83311493    -6.932946    806.22223  0.025920211  0.025378185            8 
 2593000   0.84752932   -6.9674447    804.11998  0.025842653  0.025371639            7 
 2594000   0.84588292   -6.9507111    804.18144  0.025834664  0.025365059            9 
 2595000   0.82510542   -6.9448668    804.13664   0.02582327  0.025358523            9 
 2596000   0.85188571   -6.9568082    803.55469  0.025794642  0.025351916           10 
 2597000   0.83266279   -6.9637437    804.95763  0.025829728  0.025345351            5 
 2598000   0.85297151   -6.9464795    802.75525  0.025749142  0.025338701            5 
 2599000    0.8463904   -6.9706314    805.75149  0.025835305  0.025332067            5 
 2600000   0.83604769   -6.9776378    803.22929  0.025744529  0.025325405            6 
 2601000   0.83592032   -6.9641447    803.78239  0.025752351  0.025318714            9 
 2602000   0.82770115   -6.9680151    802.64778  0.025706116  0.025312013           30 
 2603000   0.83101359   -6.9619152    804.37838  0.025751645  0.025305349           14 
 2604000   0.84894108   -6.9754062    803.36192  0.025709227  0.025298663            7 
 2605000   0.82635143   -6.9336655    804.74455  0.025743588  0.025292038            6 
 2606000   0.83659627   -6.9881632    804.32332  0.025720239  0.025285413            8 
 2607000   0.82979283   -6.9704833    803.17381  0.025673629  0.025278797            9 
 2608000   0.83929755   -6.9524887    804.39188  0.025702706    0.0252722            2 
 2609000   0.82550054   -6.9708046    804.40873  0.025693392  0.025265619            4 
 2610000   0.82956804   -6.9528794    804.50477  0.025686615  0.025259008           17 
 2611000   0.82290062   -6.9645396     804.9444  0.025690808  0.025252401            4 
 2612000   0.83177234   -6.9802941    804.52682   0.02566765  0.025245774            6 
 2613000   0.83437254   -6.9570783    802.83957  0.025604018  0.025239149            9 
 2614000   0.82945597   -6.9915823    805.33876  0.025673896  0.025232509            7 
 2615000   0.82638562   -6.9810661    804.27992  0.025630335   0.02522585            7 
 2616000   0.81422287   -6.9484787    806.20996   0.02568202  0.025219224           10 
 2617000   0.82035364   -6.9384348    805.52004  0.025650237  0.025212612            2 
 2618000   0.81072837   -6.9668288    805.74653  0.025647649  0.025205952            3 
 2619000    0.8386815   -6.9848369    804.16812  0.025587633  0.025199308           10 
 2620000   0.84725569   -6.9628683    804.98669  0.025603902  0.025192628           18 
 2621000   0.84619134   -7.0009879    804.74872  0.025586568   0.02518593            9 
 2622000   0.82834363   -6.9713787     807.2781  0.025657199  0.025179253           15 
 2623000   0.84336658    -6.962582    803.19133  0.025517579  0.025172591           15 
 2624000   0.83304289    -6.975579    804.05122  0.025535163  0.025165927            4 
 2625000   0.83863934   -6.9980807    804.09729  0.025526898   0.02515922            8 
 2626000   0.81678351   -6.9572965    806.07406  0.025579908   0.02515254           19 
 2627000   0.81654947   -6.9748785    804.60671  0.025523624  0.025145868            6 
 2628000   0.82698688   -6.9779345    806.96073  0.025588557  0.025139211            4 
 2629000   0.81732344   -6.9816348    805.95128  0.025546826  0.025132524            5 
 2630000   0.84387898   -6.9704112    805.92054  0.025536139  0.025125836           16 
 2631000   0.82508835   -6.9834035    806.77633  0.025553539  0.025119172           13 
 2632000   0.84890703   -6.9886507    808.28242  0.025591515  0.025112589           15 
 2633000   0.82911632   -6.9648662    807.78688  0.025566112  0.025105996            4 
 2634000   0.84240224   -7.0040954    807.59219  0.025550247  0.025099409            8 
 2635000   0.82019472    -6.980447    805.96724   0.02548916  0.025092797           12 
 2636000   0.83202349   -7.0019087    805.59222  0.025467635  0.025086191            9 
 2637000   0.82201737   -6.9741557     806.6397  0.025491079  0.025079608           18 
 2638000   0.82273218   -6.9845167    808.95066  0.025554418  0.025073059            8 
 2639000   0.80569091   -6.9562436    810.94303  0.025607649  0.025066498            6 
 2640000   0.81479882   -6.9945723    807.42822  0.025487002  0.025059869           20 
 2641000   0.83769097   -6.9690135    807.85125  0.025490699  0.025053262            4 
 2642000   0.80776153   -6.9619568    806.87088  0.025450129  0.025046704            8 
 2643000   0.81383748   -6.9870436    808.34739  0.025487054  0.025040101            8 
 2644000   0.84916665    -6.966528    808.37607  0.025478318  0.025033597            7 
 2645000   0.82266404    -6.984257    808.50955  0.025472891  0.025027028            8 
 2646000   0.83116752   -6.9606043    808.52538  0.025463762  0.025020457           16 
 2647000   0.82067484     -6.95781    808.90122  0.025465975  0.025013899            8 
 2648000   0.84483149   -6.9631788    809.73769  0.025482681  0.025007313           13 
 2649000   0.82870638   -6.9770339    808.25638  0.025426462  0.025000788            9 
 2650000   0.82957194   -6.9626467    810.49503  0.025487265  0.024994249            8 
 2651000   0.82142212   -6.9972305    809.64229  0.025450845  0.024987666            5 
 2652000   0.83250814   -7.0070878    809.14968  0.025425769  0.024981041            8 
 2653000   0.81867185   -7.0137422    808.07931  0.025382564  0.024974414           10 
 2654000   0.84290035    -6.988634    809.17456   0.02540739  0.024967765            8 
 2655000   0.82492818   -6.9813656    812.22725  0.025493636  0.024961206            4 
 2656000   0.82033116    -6.987065    809.95116  0.025412624   0.02495459            9 
 2657000   0.81978822   -6.9636952    811.45481   0.02545022  0.024948045            8 
 2658000   0.82023904   -7.0057816    809.74202  0.025386946  0.024941492            7 
 2659000   0.82903239   -6.9862939    811.50269  0.025432578  0.024934904           13 
 2660000   0.83078269   -6.9522544     810.8367  0.025402152   0.02492832            5 
 2661000   0.82173554   -6.9690221    810.16054  0.025371431  0.024921746            7 
 2662000   0.81445902   -6.9666123    811.12014   0.02539194  0.024915187           10 
 2663000   0.80148074   -6.9846876    811.80037  0.025403692   0.02490866            9 
 2664000   0.82692338   -6.9720065    812.48764  0.025415654  0.024902105            9 
 2665000   0.82289572   -6.9720072     810.4134  0.025341257  0.024895537           11 
 2666000   0.81731852   -6.9870307    810.70166  0.025340762  0.024888946           22 
 2667000   0.82814297   -6.9720906    811.39293   0.02535286  0.024882409            9 
 2668000   0.82344299   -6.9823285    811.15905  0.025336052  0.024875813            6 
 2669000   0.82129313   -6.9823308    811.57558  0.025339565  0.024869235            9 
 2670000   0.81840502   -6.9760895    809.37786  0.025261481  0.024862625            6 
 2671000   0.81607565    -6.996408    811.48954  0.025317907  0.024856057            9 
 2672000   0.80545397   -6.9788778    810.02318  0.025262699  0.024849469            8 
 2673000   0.81918432    -6.962898    812.50413  0.025330594  0.024842921            6 
 2674000   0.85407388    -6.964677    810.35923  0.025254277  0.024836343            5 
 2675000   0.82846088   -6.9740129     810.4906  0.025248928  0.024829753            8 
 2676000   0.80325602   -6.9927148    812.14515  0.025291017  0.024823139            7 
 2677000   0.81442825   -7.0444998    808.43669  0.025166128  0.024816478            5 
 2678000   0.82255174    -6.986091    808.98692  0.025173852   0.02480978            8 
 2679000   0.79648594   -6.9751245    810.45961  0.025210265  0.024803152           15 
 2680000   0.82071109   -7.0095335    810.19117  0.025192511  0.024796499           13 
 2681000   0.79928934   -6.9844089    810.69036  0.025198631  0.024789848           12 
 2682000   0.83794568   -7.0175108    812.02551  0.025230721  0.024783175            9 
 2683000   0.82890228   -6.9951719    811.73976  0.025212441  0.024776504            6 
 2684000   0.82322736   -6.9885276     811.4946  0.025195436  0.024769919            7 
 2685000   0.80983904   -6.9897752    812.01361   0.02520216  0.024763351            6 
 2686000   0.82564357   -6.9897115    811.46458  0.025175744  0.024756725           16 
 2687000   0.82641041   -6.9871953    812.23056   0.02519013  0.024750097           10 
 2688000    0.8186192   -6.9741906     813.1804  0.025210206  0.024743471            7 
 2689000   0.81667614   -7.0078279    810.71253   0.02512435  0.024736829            8 
 2690000   0.80625887   -6.9892604    810.64587  0.025112945  0.024730192            8 
 2691000   0.81834673   -6.9905451     810.7695  0.025107441  0.024723581            6 
 2692000   0.80976592   -7.0178407    811.70603  0.025127106  0.024716968            8 
 2693000   0.81927851    -7.009085     811.8975    0.0251237  0.024710327           10 
 2694000   0.82789219   -6.9665933    813.50174  0.025163998  0.024703692           11 
 2695000   0.82842149    -7.016104    812.55269  0.025125315  0.024697051           13 
 2696000   0.83016571   -7.0219744    812.92758  0.025127583  0.024690372           13 
 2697000   0.81833201   -7.0288226    813.03438  0.025121566  0.024683724            8 
 2698000   0.82110263   -7.0214522    812.05452   0.02508199  0.024677101           18 
 2699000   0.84217846   -6.9799112    813.34402  0.025112512  0.024670509            5 
 2700000   0.83239153   -6.9946386    813.54118  0.025109296  0.024663916            7 
 2701000   0.81073775   -7.0291016    813.55837   0.02510053  0.024657263            6 
 2702000   0.81033601   -6.9982145    811.52064  0.025028394  0.024650624            7 
 2703000   0.81814074     -7.00982    813.09767  0.025067754  0.024643996            5 
 2704000   0.82312047   -7.0061059    814.39764  0.025098547  0.024637373           16 
 2705000   0.83831219   -7.0036008     815.0444  0.025109193  0.024630758            6 
 2706000   0.82139398   -6.9843881    814.29963  0.025076978  0.024624176           11 
 2707000   0.80483577   -7.0041908    811.66457  0.024986595  0.024617531            7 
 2708000   0.80517003   -7.0111059     813.8743  0.025045369  0.024610864            7 
 2709000   0.81177804   -7.0121369    814.11756  0.025043606  0.024604207            5 
 2710000    0.8143255   -7.0261022    815.26895  0.025069771   0.02459758           19 
 2711000   0.81714242   -6.9943109    814.07645  0.025023867  0.024590924           13 
 2712000   0.81579365   -7.0173716    812.47937  0.024965566  0.024584238            9 
 2713000    0.8223994   -6.9962032    813.89418  0.024999821  0.024577561            7 
 2714000   0.81708329   -6.9841617    814.05514  0.024995552   0.02457088           16 
 2715000     0.820106   -7.0053342    814.09285  0.024987503  0.024564215            9 
 2716000   0.80961359   -6.9885308    815.83997  0.025031909  0.024557559           13 
 2717000   0.79395051   -6.9929831    813.17145  0.024940849  0.024550882           11 
 2718000   0.82542584   -7.0310998    815.13864  0.024991987  0.024544205            7 
 2719000   0.82041153   -7.0219128    812.93718  0.024915324   0.02453754            6 
 2720000   0.80948977   -7.0097424    812.99502  0.024907936  0.024530842            4 
 2721000   0.81968322   -6.9702727     813.4061  0.024911372  0.024524166           15 
 2722000   0.81271864   -7.0033359    814.12386  0.024924194  0.024517487            6 
 2723000   0.81500408   -7.0234294    812.36903  0.024861336  0.024510761            9 
 2724000   0.80959627    -7.009183     810.8558  0.024805917  0.024504042           12 
 2725000   0.82867886   -7.0051498    812.78561  0.024855829  0.024497286            7 
 2726000   0.82414163   -7.0207041    813.19518  0.024859232  0.024490554           13 
 2727000   0.80758894   -7.0130006    811.92972  0.024811445  0.024483828            5 
 2728000   0.81369098   -7.0295565    812.39727  0.024816632  0.024477078            6 
 2729000   0.81457005   -7.0231559    813.72891  0.024848202  0.024470361           10 
 2730000   0.80593125   -7.0010158    815.20056  0.024884022  0.024463665           10 
 2731000   0.80114109   -7.0106146    814.04117  0.024839533  0.024456957            8 
 2732000   0.82487348   -7.0091096    814.71894  0.024851115  0.024450254            4 
 2733000   0.82350856   -6.9760512     814.3952   0.02483215  0.024443566            7 
 2734000   0.81250528   -6.9888337    814.21143  0.024817466  0.024436843           12 
 2735000   0.80991454    -7.016995    815.81797  0.024857342   0.02443016            6 
 2736000   0.81483235   -7.0119059    815.47704  0.024837873  0.024423513           12 
 2737000   0.81565156   -7.0055667    816.07838  0.024847107  0.024416886           23 
 2738000   0.81483791   -7.0264187    815.66935  0.024825583  0.024410249           10 
 2739000   0.81482577   -6.9966631    814.81467  0.024790516  0.024403618            5 
 2740000   0.79855785   -7.0370294    814.05925  0.024758493  0.024396976            6 
 2741000    0.7982036   -6.9965968    818.15498  0.024873981  0.024390334            8 
 2742000   0.81474616   -7.0146723    816.27367  0.024807734   0.02438373            5 
 2743000   0.80138066   -6.9992217    816.61204  0.024808969  0.024377094            5 
 2744000   0.81091716   -6.9922332    816.15036  0.024785907  0.024370455            5 
 2745000   0.83887067   -7.0400443    818.40016  0.024845178  0.024363837           13 
 2746000   0.82291231    -7.014376    818.10572  0.024827195  0.024357233            6 
 2747000   0.80432726   -7.0278278    816.02945  0.024755171  0.024350631            7 
 2748000   0.81732964   -7.0162228    819.04073   0.02483748  0.024344015            6 
 2749000    0.8053696   -6.9993368    815.50628  0.024721301  0.024337403            7 
 2750000   0.79213101   -7.0298721    816.27032  0.024735464  0.024330807            8 
 2751000   0.79414198   -7.0135345    814.86867  0.024684014  0.024324173            7 
 2752000   0.79558176   -7.0287977    816.52067  0.024725069  0.024317518            5 
 2753000   0.81732719    -6.999502    817.96055  0.024759673  0.024310911            7 
 2754000   0.81996392   -7.0042863    819.27633  0.024790497  0.024304317            7 
 2755000    0.8089924   -7.0285577     817.8178  0.024737381  0.024297717            5 
 2756000    0.8009341   -7.0069475    818.77638  0.024757389  0.024291189            3 
 2757000   0.81180382   -6.9924068    818.62442  0.024743816  0.024284655           10 
 2758000   0.81671313   -7.0063105    817.32458   0.02469557  0.024278102           10 
 2759000   0.80332393   -7.0128365    818.78079  0.024730603  0.024271539            6 
 2760000   0.79530993   -7.0407054    818.27109  0.024706253  0.024264975            9 
 2761000   0.82916888   -6.9894249    819.08182  0.024721774   0.02425843            6 
 2762000   0.81612941   -7.0407926    818.20042  0.024686231  0.024251899           14 
 2763000   0.81684329   -7.0011345    817.79938    0.0246652  0.024245357            8 
 2764000   0.82814238   -7.0196532    818.75065  0.024684957   0.02423879            7 
 2765000   0.79953878   -7.0210763    820.29186  0.024722479  0.024232237            3 
 2766000   0.81756468   -7.0353223    818.28749  0.024653154  0.024225696            5 
 2767000   0.81303772    -7.010915    817.29708  0.024614416  0.024219132            8 
 2768000    0.8116568   -7.0349785    818.96933  0.024655869  0.024212589           16 
 2769000   0.80568734   -7.0355232    818.62536  0.024636613  0.024206014            7 
 2770000   0.80317271   -7.0288479    819.56915  0.024656112  0.024199463           13 
 2771000   0.80935283   -7.0192261    817.35967  0.024580767  0.024192894           13 
 2772000   0.81812023   -7.0207386    818.79969   0.02461519  0.024186299           18 
 2773000   0.79683837   -7.0079021    817.89379   0.02457909    0.0241797            9 
 2774000    0.8073906   -7.0174044    820.36212   0.02464438  0.024173059           14 
 2775000   0.82285272   -7.0076619    819.68219  0.024615081  0.024166434            5 
 2776000    0.8033224   -7.0199482    818.77867  0.024579091  0.024159796           16 
 2777000   0.80262725   -7.0046187    818.58034  0.024564288   0.02415315            9 
 2778000   0.82728624   -6.9926972     819.0012  0.024568071  0.024146545           10 
 2779000   0.78469926   -7.0047396    819.45781  0.024572922  0.024139897           10 
 2780000   0.79771722   -7.0697947    818.54112  0.024536604  0.024133246            7 
 2781000   0.79802399   -7.0542709    817.86382  0.024507486  0.024126594            6 
 2782000   0.81736992   -7.0615289    817.13985   0.02447699  0.024119936           20 
 2783000   0.79439848   -7.0197315    819.59759  0.024541789  0.024113313            6 
 2784000   0.79835649   -6.9991314    818.83425  0.024510125  0.024106684           19 
 2785000   0.80489561   -7.0096268    821.00744  0.024566351  0.024100069            7 
 2786000   0.79078273   -7.0080188     820.2073    0.0245336  0.024093474            7 
 2787000   0.81130573   -7.0429699    821.45474  0.024562096  0.024086869           10 
 2788000   0.80734189   -7.0289435    818.00289   0.02445011  0.024080203            7 
 2789000   0.80429573   -7.0080842    819.26981  0.024479198  0.024073571            5 
 2790000   0.82955787   -7.0165387     819.2965  0.024471222   0.02406695            9 
 2791000   0.80482005   -7.0044506    819.82145  0.024478128  0.024060364            9 
 2792000   0.80767287   -7.0432494    818.09566   0.02441785  0.024053689           10 
 2793000   0.78489053   -7.0679726    819.36793  0.024447068  0.024047026           23 
 2794000      0.79728   -7.0392804     821.6372  0.024506001  0.024040387           15 
 2795000   0.81346898   -7.0532189    819.41653  0.024431024  0.024033793            8 
 2796000   0.78966981   -7.0126999    821.85538  0.024494974  0.024027205           14 
 2797000   0.79417826   -7.0250346    822.04196  0.024491776  0.024020629            9 
 2798000   0.80534707   -7.0118949    820.91176  0.024449361  0.024014075            7 
 2799000   0.80257693   -7.0273871    823.30668  0.024511929  0.024007569            9 
 2800000   0.79010199   -7.0457046    821.48048  0.024448824  0.024001039           10 
 2801000   0.80048748   -7.0203199    823.19993  0.024491251  0.023994514           12 
 2802000   0.80200395   -7.0206709    822.75041  0.024469141  0.023988005           10 
 2803000   0.80241971   -7.0103894    822.67872   0.02445828   0.02398148            5 
 2804000    0.8150726   -7.0275457    820.23495   0.02437693  0.023974931            7 
 2805000     0.816172   -7.0312233    820.70608  0.024382236  0.023968328           16 
 2806000   0.79887583    -7.025368    821.42247  0.024394823  0.023961743            8 
 2807000   0.81573268   -7.0414372    822.14821  0.024407678  0.023955138            4 
 2808000   0.77771003   -7.0237778     822.7845  0.024417869  0.023948579            9 
 2809000   0.78718878    -7.036082    821.02508   0.02435698  0.023942019            9 
 2810000   0.79443233   -7.0425398    822.45166  0.024390619  0.023935452            8 
 2811000   0.82269605   -7.0657735    821.26127  0.024346652  0.023928859           10 
 2812000   0.82639688   -7.0291001    823.32763   0.02439923  0.023922282            5 
 2813000   0.79262162   -7.0324521    821.65759  0.024341083  0.023915693            5 
 2814000   0.78160882   -7.0318197    821.00756  0.024313183  0.023909128            6 
 2815000   0.80074499   -7.0054788    822.24804  0.024341268  0.023902544            9 
 2816000   0.79499498   -7.0294586    821.57147  0.024312603  0.023895955           19 
 2817000   0.79994914   -7.0271667    822.81816  0.024340852  0.023889367           12 
 2818000   0.80748008    -7.041958    821.44315  0.024291553  0.023882759           10 
 2819000    0.8149485   -7.0517644    820.84833  0.024265352  0.023876111           26 
 2820000   0.80682836   -7.0523026    822.72273  0.024312137   0.02386945            8 
 2821000   0.78652342   -7.0321871    824.19511  0.024347014  0.023862823           10 
 2822000   0.79988287   -7.0376076    823.25646  0.024310668  0.023856275            5 
 2823000   0.79701803   -7.0485488    822.71719  0.024286137   0.02384971            6 
 2824000   0.79007173   -7.0443146     822.3038  0.024265339  0.023843162           10 
 2825000   0.80941397    -7.021261    824.47207   0.02432071  0.023836589           18 
 2826000   0.79355129   -7.0246849    824.83121  0.024322694  0.023830052            9 
 2827000   0.80738796   -7.0346607    824.39385  0.024301198  0.023823574           11 
 2828000   0.82011481   -7.0291662    824.17317  0.024286102  0.023817123            4 
 2829000   0.80806729   -7.0544824    823.98418   0.02427195  0.023810618            8 
 2830000   0.79293358   -7.0153624    824.52618  0.024279334  0.023804146            6 
 2831000    0.7919939   -7.0393888    825.43739   0.02429758  0.023797706            9 
 2832000   0.77990754   -7.0333677    825.42736  0.024288705  0.023791248           12 
 2833000   0.79879026   -7.0460594    822.49653  0.024193921  0.023784748            7 
 2834000   0.81428413   -7.0180381    826.63903  0.024307193  0.023778268            6 
 2835000   0.80274075   -7.0721751    825.20165  0.024256368  0.023771805           11 
 2836000    0.7944433   -7.0619669    824.29295  0.024221114  0.023765298            5 
 2837000   0.81317063   -7.0424688     825.5404  0.024249219  0.023758818            8 
 2838000   0.79434059   -7.0345292    824.06519  0.024197357  0.023752356            5 
 2839000   0.79948068   -7.0260995    824.91314  0.024213724  0.023745925            7 
 2840000   0.79094274   -7.0318402    828.89706  0.024322097    0.0237395            6 
 2841000   0.79850635   -7.0501364    825.71557  0.024220215    0.0237331            9 
 2842000   0.78890353   -7.0027395    828.07186  0.024280784  0.023726691            7 
 2843000   0.79214556   -7.0469035    824.99747  0.024182128  0.023720282           11 
 2844000   0.79744648     -7.02776    828.64911  0.024280623  0.023713874           15 
 2845000     0.775458   -7.0380048    825.80188   0.02418869  0.023707448            7 
 2846000   0.80792042   -7.0283611    826.61515  0.024204004   0.02370101            6 
 2847000   0.79986665   -7.0503658    828.49045  0.024250394   0.02369455            4 
 2848000   0.80419917   -7.0039448    826.14904  0.024173368  0.023688166            8 
 2849000   0.79940963   -7.0362282    827.75266   0.02421179  0.023681766           13 
 2850000   0.79919651   -7.0285336    827.41122  0.024193311  0.023675364           10 
 2851000   0.79224841   -7.0266183    828.50917  0.024216917  0.023668967            6 
 2852000   0.78474567   -7.0160278    827.37407  0.024175259  0.023662569            5 
 2853000    0.7917856   -7.0138823     827.8771  0.024181479   0.02365618            9 
 2854000   0.77406544   -7.0561704    827.79102  0.024170492  0.023649748            6 
 2855000   0.79181029   -7.0339816    828.48498  0.024182282  0.023643299            6 
 2856000   0.79511019   -7.0650167    827.14225  0.024134636  0.023636855           19 
 2857000   0.79336072   -7.0534668    827.61736  0.024140047  0.023630445           10 
 2858000   0.80758839   -7.0327416    827.18052  0.024118863  0.023624031           15 
 2859000   0.78739417   -7.0531961    828.84612  0.024158975  0.023617619            5 
 2860000   0.81193868    -7.041518    830.65821  0.024203328  0.023611236           14 
 2861000   0.80896786   -7.0268561    827.94846   0.02411594  0.023604847            6 
 2862000   0.80693045   -7.0630709    827.11287  0.024083184  0.023598446            6 
 2863000   0.79518325    -7.039417    829.50278  0.024144335  0.023592016            4 
 2864000   0.78201428   -7.0277913    826.69635  0.024054247  0.023585584            8 
 2865000   0.78350634    -7.031653    828.67283   0.02410334  0.023579149            6 
 2866000    0.7928876   -7.0587392    827.56564  0.024062737  0.023572703            5 
 2867000   0.79999997    -7.057815    827.44778  0.024050918  0.023566238           12 
 2868000   0.80850182   -7.0564066    826.26475  0.024008158  0.023559775           10 
 2869000   0.79486997   -7.0432175    827.44971  0.024034208  0.023553311            7 
 2870000   0.78428162   -7.0490304    828.54644  0.024057678  0.023546866           10 
 2871000   0.78977602   -7.0606764    828.28386  0.024041677  0.023540436            5 
 2872000    0.8118483   -7.0465615    829.31762  0.024063301     0.023534            9 
 2873000    0.7898474   -7.0495011     828.6188  0.024034656  0.023527609           10 
 2874000    0.8030045   -7.0792584    827.49042  0.023993575  0.023521179           14 
 2875000   0.78966653   -7.0369215    828.83479  0.024024197  0.023514741           15 
 2876000   0.79116932   -7.0531457    826.95639  0.023961416  0.023508349            4 
 2877000   0.78770165   -7.0585452    828.91672  0.024009869  0.023501926            7 
 2878000   0.78828868   -7.0618387    829.07704  0.024006169  0.023495503            6 
 2879000   0.79297262   -7.0852418    828.10767  0.023969772  0.023489073           10 
 2880000   0.78686692   -7.0629678    829.17437  0.023992314  0.023482702            7 
 2881000   0.79358138   -7.0327474    830.95593  0.024035518  0.023476312           13 
 2882000   0.79109332   -7.0589321    827.81978  0.023936496  0.023469975            5 
 2883000   0.79311581   -7.0663195    828.06205  0.023935196  0.023463604            6 
 2884000   0.80222096   -7.0389269     830.0815  0.023985249  0.023457246           11 
 2885000   0.80417745   -7.0351839    831.03989  0.024004618  0.023450928           10 
 2886000   0.80686086   -7.0552709     830.0469  0.023967628  0.023444608           11 
 2887000   0.78747304   -7.0676009    830.90938  0.023984222  0.023438269            8 
 2888000   0.78546556   -7.0577098    830.19311  0.023955249  0.023431969            5 
 2889000   0.78142096   -7.0231323    831.67368  0.023989664  0.023425667            5 
 2890000    0.8062005   -7.0652173    830.42808  0.023945446  0.023419341            7 
 2891000   0.79047119   -7.0460805    828.29182  0.023875586  0.023412981            7 
 2892000   0.79802511    -7.030209    830.05972  0.023918272  0.023406653           19 
 2893000   0.78322599    -7.076353    831.00571  0.023937254  0.023400295            5 
 2894000   0.79800693   -7.0892007    826.42307  0.023797025  0.023393951            9 
 2895000   0.79321786   -7.0749828    833.58226  0.023994884  0.023387593            8 
 2896000   0.79394974   -7.0757719    830.62675  0.023901552  0.023381235           15 
 2897000   0.80748178   -7.0622484    830.57266  0.023891746   0.02337489            9 
 2898000   0.79972098   -7.0784635    830.84676  0.023891384   0.02336847            6 
 2899000   0.79757523   -7.0809851    829.31112     0.023839  0.023362079           10 
 2900000   0.77849557   -7.1004954    832.12544  0.023911651  0.023355739           11 
 2901000    0.7854473   -7.0649181    830.92938   0.02386905  0.023349406           10 
 2902000   0.79719388    -7.059793    833.22256  0.023926676  0.023343094            8 
 2903000   0.80059705   -7.0510154    832.88924  0.023908865  0.023336801            8 
 2904000    0.7688326   -7.0553742    831.31158   0.02385536    0.0233305           23 
 2905000   0.78230769   -7.0513002    828.56831  0.023768454  0.023324199            9 
 2906000   0.78941828   -7.0740946    832.54813  0.023874402  0.023317903            6 
 2907000   0.77151991   -7.0518419    833.05522  0.023880725  0.023311596           11 
 2908000   0.77966627   -7.0520364    832.41198   0.02385408  0.023305385           11 
 2909000   0.79569505   -7.0404008    833.98206  0.023890858   0.02329916           31 
 2910000   0.78012609   -7.0601294    833.43107  0.023866869  0.023292955            9 
 2911000   0.77766117   -7.0395804    833.40673  0.023857973  0.023286707           16 
 2912000   0.78346566   -7.0535984     833.7825  0.023860534  0.023280505           19 
 2913000   0.77127288   -7.0641625    835.13369  0.023890997  0.023274265            7 
 2914000    0.7792083   -7.0554415    833.42127  0.023833827  0.023268015           10 
 2915000   0.78229623   -7.0691142    833.97757  0.023841554  0.023261764           12 
 2916000   0.77496845    -7.072243    833.30485  0.023814153  0.023255529            8 
 2917000   0.78226498   -7.0471191    833.82778  0.023820929  0.023249296            7 
 2918000   0.79288248   -7.0894667    834.48047  0.023831405  0.023243079           17 
 2919000   0.78785526   -7.0636574    835.90304  0.023863853  0.023236857            7 
 2920000   0.77695164   -7.0546601    832.04588  0.023745602   0.02323062            6 
 2921000   0.79884686   -7.0495218    834.05801  0.023794876   0.02322442           23 
 2922000   0.78248604   -7.1080954    833.13892  0.023760521  0.023218196           21 
 2923000   0.78498467   -7.0824269    835.58771  0.023822206  0.023211956           15 
 2924000   0.80678654   -7.0625399    833.30431  0.023748983  0.023205725            9 
 2925000   0.79053481   -7.0600924    837.75705  0.023867722   0.02319954            5 
 2926000   0.77911962   -7.0987674     835.7104  0.023801276  0.023193345            8 
 2927000   0.76614237   -7.0847249    836.66843   0.02382042  0.023187153           10 
 2928000   0.79427126   -7.0585739    836.94386  0.023820124  0.023180954           17 
 2929000   0.80641432   -7.1147919    837.09993  0.023816431   0.02317477            8 
 2930000   0.77867356   -7.0521192    835.79804  0.023771275  0.023168582            6 
 2931000   0.76514278     -7.10291    833.28318  0.023691663  0.023162389           14 
 2932000    0.7717517   -7.0671475    836.35635  0.023770928   0.02315616           16 
 2933000   0.78014354   -7.0966885    835.23727  0.023731028  0.023149959           16 
 2934000   0.79748733   -7.0996158     835.8953   0.02374163  0.023143777           17 
 2935000   0.78526304    -7.064913    837.25091   0.02377203  0.023137608           18 
 2936000   0.78007113   -7.0746441    835.21592  0.023706174  0.023131459            9 
 2937000    0.7776296     -7.08379    835.35743  0.023702118   0.02312525            8 
 2938000   0.77793952   -7.0666175    836.60031  0.023729303   0.02311905            8 
 2939000     0.787785   -7.0969354    835.30585  0.023684526  0.023112859           22 
 2940000   0.78042993   -7.0681957    835.38582  0.023678736  0.023106695           17 
 2941000   0.75224375   -7.0747434    837.05352  0.023717939  0.023100527           16 
 2942000   0.76821581   -7.0533712      837.546  0.023723827  0.023094384            9 
 2943000    0.7814777   -7.0701608    835.50359  0.023657934  0.023088263           21 
 2944000   0.79095959   -7.0717477    837.32371  0.023701418  0.023082123           10 
 2945000   0.77375199   -7.0702223    836.67773  0.023675091  0.023075969            7 
 2946000   0.77640738   -7.0911491    835.42957  0.023631748   0.02306978            7 
 2947000   0.77906845   -7.0900319    836.07443  0.023641964  0.023063605           13 
 2948000   0.76389553   -7.0860688    837.63741  0.023678127   0.02305745            9 
 2949000   0.78968948   -7.0703911    838.15532  0.023684733  0.023051324            6 
 2950000   0.78906735   -7.0713948    837.68333  0.023663371    0.0230452           17 
 2951000   0.77546191   -7.0731572    839.29853  0.023700964  0.023039096            7 
 2952000   0.79571812   -7.0795454    838.23909  0.023663028  0.023032987            8 
 2953000   0.77085179   -7.0750447     838.6643  0.023667014  0.023026874           15 
 2954000   0.78511729   -7.0770992    836.98038  0.023611498  0.023020734           11 
 2955000   0.77417081   -7.0573366    840.62843  0.023706386   0.02301463            6 
 2956000   0.77294563   -7.0678243    839.23105  0.023658972  0.023008576            7 
 2957000    0.7946375   -7.0858657    837.22104  0.023594325   0.02300252           12 
 2958000   0.77577734   -7.0881871    838.18519  0.023613511  0.022996421           13 
 2959000   0.77221694   -7.0498146    839.43597  0.023640756  0.022990309            9 
 2960000   0.77072992   -7.0812222    839.27131  0.023628134  0.022984187           13 
 2961000   0.78145997   -7.0859516    839.25438  0.023619678  0.022978077           10 
 2962000   0.78457864   -7.0793064    838.54898  0.023591857  0.022971949            8 
 2963000   0.77135259   -7.0763537    839.63587  0.023614464  0.022965821            6 
 2964000   0.77235098   -7.0789075    840.65062  0.023635027  0.022959751            8 
 2965000   0.77655616   -7.0970467    838.42947  0.023564628  0.022953647            9 
 2966000   0.78001541   -7.0753892    838.00761  0.023544831  0.022947521            6 
 2967000   0.75362371   -7.1100227    839.42294  0.023576647  0.022941376           28 
 2968000   0.76720311   -7.1080839    836.15251  0.023476879  0.022935212           13 
 2969000   0.78166092   -7.1190796    839.63337  0.023566671  0.022929049           11 
 2970000    0.7789763   -7.1447666    838.34403   0.02352256  0.022922859           10 
 2971000   0.78247618   -7.1168218    837.46739  0.023490054  0.022916694           13 
 2972000   0.79146256   -7.1001382    838.68745   0.02351636   0.02291054           17 
 2973000   0.77786547   -7.0889699    838.35218  0.023499052   0.02290438           14 
 2974000   0.77937675   -7.1076259    838.41753  0.023492982  0.022898237            5 
 2975000   0.78445972    -7.085406    840.09219  0.023531994   0.02289209           11 
 2976000   0.77826659   -7.0940161    838.81311   0.02348827  0.022885966           18 
 2977000   0.75717146   -7.0808192    838.76729  0.023479098  0.022879845           12 
 2978000   0.78151072   -7.1012419    839.96391  0.023504699  0.022873711           14 
 2979000   0.77041835   -7.0973121     840.5242  0.023512482  0.022867568           12 
 2980000   0.76013484   -7.0713608     839.3583  0.023471988  0.022861423           10 
 2981000   0.77418998   -7.1162157    840.80648  0.023504598  0.022855292           23 
 2982000   0.78514522   -7.0832349     838.6839  0.023437399  0.022849138           20 
 2983000   0.77866894   -7.0803188    838.99054  0.023438109  0.022842989           17 
 2984000   0.78739885   -7.0846251    838.86285  0.023426688  0.022836877            8 
 2985000   0.77882247   -7.0827575    839.90502  0.023447935  0.022830747            3 
 2986000    0.7587439   -7.1099734      839.334  0.023424146  0.022824572            8 
 2987000   0.78206456   -7.0961739    839.20919  0.023412822  0.022818376           13 
 2988000   0.78005804   -7.1050817    840.65925  0.023445427  0.022812205           14 
 2989000   0.78056417   -7.0997991    840.34331  0.023428775  0.022806039           17 
 2990000   0.78088747   -7.0718963    839.77351  0.023405059  0.022799902           11 
 2991000   0.75993292   -7.1097419    838.97686  0.023375038  0.022793745           14 
 2992000   0.75908254   -7.0912335    840.08602  0.023398118   0.02278755           12 
 2993000   0.76775142   -7.1052897    839.36958  0.023370352  0.022781365            5 
 2994000   0.76117334   -7.1102939    838.72082  0.023344489  0.022775175            6 
 2995000   0.77020597   -7.0944947    839.07332  0.023346503  0.022768976           20 
 2996000   0.77489701   -7.0862336    840.75881  0.023385592  0.022762804            4 
 2997000   0.76258134   -7.0821607     840.1197  0.023360018  0.022756639            6 
 2998000   0.75688632   -7.1183363    838.70873  0.023313007  0.022750473           10 
 2999000   0.76510183   -7.0939253    840.50139  0.023355046  0.022744303           21 
 3000000    0.7874688   -7.1011427    839.20543  0.023311262   0.02273814            8 
 3001000   0.78343636   -7.0855599    842.09928  0.023383852  0.022732021           15 
 3002000   0.76862219   -7.0941682    840.76079  0.023338907  0.022725876            7 
 3003000    0.7745788   -7.1040025    838.80645  0.023276902  0.022719737            9 
 3004000   0.78022156    -7.072263     842.7148  0.023377574   0.02271361            9 
 3005000   0.77440576   -7.1063727    840.90682  0.023319657  0.022707488           12 
 3006000   0.76538817    -7.077306    840.62824  0.023304176  0.022701371            6 
 3007000   0.78486629   -7.0922316    841.82073  0.023329474  0.022695246            3 
 3008000   0.78320656   -7.0924909    842.15707  0.023331036  0.022689112            7 
 3009000   0.76912182   -7.0824584    842.79027  0.023340818  0.022683022            4 
 3010000   0.76548321   -7.1025121    841.07889  0.023285684  0.022676953            5 
 3011000    0.7675318   -7.1051863     841.2351  0.023282273  0.022670843           17 
 3012000   0.75709061   -7.1175639    840.11364  0.023243516  0.022664743           12 
 3013000   0.76925432   -7.0941444    841.69086  0.023279424  0.022658623           10 
 3014000   0.76727647    -7.092715    843.13493  0.023311627  0.022652548            5 
 3015000   0.75593813   -7.1306036    841.82176    0.0232676  0.022646467            8 
 3016000   0.76502246   -7.1155317    842.43137  0.023276729  0.022640339           15 
 3017000   0.75842035   -7.1112317    841.82053  0.023252141  0.022634233            5 
 3018000    0.7489307   -7.1118211    842.78937  0.023271189   0.02262814           11 
 3019000   0.77477887   -7.0662274    844.19199  0.023302197   0.02262206            4 
 3020000   0.74423874   -7.0636571    844.25963  0.023296347   0.02261599            7 
 3021000    0.7703444   -7.0732897     842.9221  0.023251741  0.022609905            7 
 3022000   0.76918811   -7.0959048    841.86063  0.023214776  0.022603822           12 
 3023000   0.76449015   -7.0967563    841.20927  0.023189141  0.022597726            6 
 3024000   0.76678102   -7.1139295     842.1229   0.02320665  0.022591619            8 
 3025000   0.77651909    -7.109365    841.49321  0.023181631  0.022585505           13 
 3026000   0.74629177   -7.0925712    842.67073  0.023206398  0.022579396           21 
 3027000   0.77605518   -7.1153156    842.21839  0.023186279   0.02257328            5 
 3028000   0.74713595   -7.1337094    845.46915  0.023268085  0.022567158           10 
 3029000   0.76819047   -7.1313388    842.16635  0.023169538  0.022561048            5 
 3030000    0.7447181   -7.1247411    843.95954  0.023211208  0.022554944           11 
 3031000   0.75334157   -7.1178408    841.78332  0.023143718   0.02254881           15 
 3032000   0.77710592   -7.1328564    842.77778  0.023163417  0.022542691           10 
 3033000   0.76082691   -7.0895139    842.13472  0.023138112  0.022536598           13 
 3034000   0.75604789   -7.1007535    842.99481  0.023154109  0.022530517           12 
 3035000   0.77204827   -7.1079598    843.09749    0.0231493  0.022524456            9 
 3036000   0.75216284   -7.1082991    842.99947  0.023138984  0.022518395            7 
 3037000   0.76898737   -7.1106305    843.58531   0.02314744  0.022512367            6 
 3038000   0.78239892   -7.0877042    842.87325  0.023120289  0.022506315            7 
 3039000    0.7862831   -7.0974526    843.71638  0.023135801   0.02250028            7 
 3040000   0.75659013   -7.1118581    847.26592  0.023225491  0.022494239           16 
 3041000   0.75799166    -7.102381     845.8277  0.023178442  0.022488197            7 
 3042000   0.77297504   -7.0791171    843.81503  0.023115687  0.022482142           26 
 3043000   0.75162099   -7.1123581    844.30304  0.023121455  0.022476106           23 
 3044000    0.7419048   -7.0869893    845.09474  0.023135533  0.022470078           19 
 3045000   0.75100249   -7.1304511    843.55312  0.023085745  0.022464015           23 
 3046000   0.75435878   -7.0997858    844.00082  0.023090414  0.022457973           11 
 3047000   0.78675351   -7.0819735    844.06061  0.023084471  0.022451947            8 
 3048000    0.7655878   -7.1057139    845.95491  0.023128688   0.02244592            6 
 3049000    0.7670139   -7.1283458    844.72283  0.023087429  0.022439878           10 
 3050000   0.77468287   -7.1083482    844.62712  0.023077244   0.02243383           15 
 3051000   0.75699654   -7.1119283    844.28915  0.023060449   0.02242778           15 
 3052000    0.7493335   -7.1031666    845.22417  0.023078423  0.022421741            7 
 3053000   0.75182173   -7.0981069    844.46666  0.023050187  0.022415701            9 
 3054000   0.76264571   -7.1018303     843.5641  0.023018012  0.022409661            7 
 3055000   0.76235857   -7.1185158    844.77856  0.023043605  0.022403599            7 
 3056000    0.7683651   -7.1045974    846.51802  0.023083497  0.022397551           13 
 3057000   0.75264958   -7.1061171     844.2098  0.023013025  0.022391498           10 
 3058000   0.75032409   -7.1381679    845.05864  0.023028631  0.022385446           14 
 3059000   0.76802489   -7.1204105    844.77331   0.02301333  0.022379376           12 
 3060000   0.76727623     -7.11861    846.99483  0.023066308  0.022373297            9 
 3061000   0.76144136   -7.1047404    845.46375   0.02301709  0.022367242            9 
 3062000   0.76906678    -7.101489    844.22945  0.022975981  0.022361217            6 
 3063000   0.77431648    -7.098482    846.63785  0.023034004  0.022355188            7 
 3064000   0.76548757   -7.1143158    845.21435  0.022987771  0.022349134           12 
 3065000   0.74784495   -7.1113307    843.99793  0.022947198  0.022343074           16 
 3066000   0.75707835   -7.1220957    845.06488  0.022968713  0.022337013            9 
 3067000   0.75298388   -7.1240628    846.61827  0.023003431  0.022330957            9 
 3068000    0.7692431     -7.14522    844.88551  0.022948868  0.022324889           10 
 3069000   0.75275176   -7.1158112    844.73418  0.022937281  0.022318858           17 
 3070000   0.74789417   -7.1091195    846.10417  0.022966997  0.022312814           26 
 3071000   0.74535163   -7.1464316    845.86635  0.022953065  0.022306776            6 
 3072000   0.76411651   -7.1489618    846.07189  0.022951169   0.02230075           22 
 3073000   0.76031141   -7.1103713    847.06043  0.022970507  0.022294745           19 
 3074000    0.7420338   -7.1329161    847.94265  0.022986951  0.022288773           12 
 3075000   0.76539321    -7.097185    847.95292  0.022979754  0.022282795            6 
 3076000   0.74978859   -7.0981154    848.01467  0.022973956  0.022276855           10 
 3077000   0.77232494   -7.0998834    848.03338  0.022966997  0.022270911            8 
 3078000   0.75787365   -7.1251252    848.67312  0.022976855  0.022264981            7 
 3079000   0.76994338   -7.1128466    846.02849  0.022897816  0.022259021            7 
 3080000   0.76383664   -7.1224056    849.02013  0.022971324  0.022253052           31 
 3081000   0.74141669   -7.1653292    848.06941  0.022938154  0.022247072           27 
 3082000   0.76770151   -7.1218756     845.9719  0.022873997  0.022241077           11 
 3083000   0.75185968    -7.161515    847.94397  0.022919882  0.022235092           13 
 3084000   0.75633667   -7.1261265    847.48654   0.02290009  0.022229106           11 
 3085000    0.7611531   -7.1227094    846.79033  0.022873861  0.022223118           11 
 3086000   0.77006431   -7.1101941    847.47428  0.022884918  0.022217123           11 
 3087000   0.73790055   -7.1319997    846.60077  0.022853924  0.022211137           19 
 3088000   0.76360157   -7.1535444    848.52784  0.022898528  0.022205139           11 
 3089000   0.74617089   -7.1328563    849.01038  0.022904132  0.022199167           12 
 3090000   0.75947644   -7.1294411    848.22208  0.022875461  0.022193196            4 
 3091000   0.75053078   -7.1409059    847.53926  0.022849651  0.022187224           24 
 3092000   0.73775092   -7.1360457    847.40701  0.022838697  0.022181246           12 
 3093000   0.75159684   -7.1244441    847.06148  0.022822004  0.022175256            9 
 3094000   0.76252622   -7.1189829    848.25481  0.022846768   0.02216926            5 
 3095000   0.75597273   -7.1089552    849.67178  0.022877539  0.022163276           16 
 3096000   0.75815122   -7.1223299    847.75046  0.022818434  0.022157301           11 
 3097000   0.76033106   -7.1795411    849.13232  0.022848249  0.022151345           12 
 3098000    0.7654608   -7.1476873     848.9131  0.022834977  0.022145372           10 
 3099000   0.73670911   -7.1243474    850.57942  0.022872416  0.022139424            7 
 3100000    0.7639067   -7.0985362    848.75863  0.022816092  0.022133475            7 
 3101000    0.7387222   -7.1250701     850.7615  0.022862558  0.022127553            5 
 3102000   0.75991143    -7.090125    849.67237  0.022825929  0.022121646           14 
 3103000   0.75360481   -7.1119642    848.26155  0.022780684  0.022115723           10 
 3104000   0.74119505   -7.1057632    852.65978  0.022891424  0.022109808            8 
 3105000   0.74840266   -7.1211546    848.46729  0.022771532  0.022103885           10 
 3106000   0.76165319    -7.135528    848.48675  0.022764723  0.022097929           11 
 3107000    0.7634108   -7.1405268    849.18171  0.022776036  0.022091984           13 
 3108000   0.75241784   -7.1368635    848.17103  0.022741609  0.022086016           11 
 3109000    0.7459165   -7.1590709    849.22502  0.022762545  0.022080034           16 
 3110000    0.7401973   -7.1419588    850.93683  0.022801094  0.022074052           16 
 3111000   0.75898327   -7.1329835    848.89078  0.022738958  0.022068087           11 
 3112000   0.75997741   -7.1155098    847.23815  0.022687397  0.022062129            8 
 3113000   0.76532565   -7.1376698    847.81502  0.022695552  0.022056136            7 
 3114000   0.74118582    -7.124916      847.501   0.02267986  0.022050128           14 
 3115000   0.73357141   -7.1349274    849.40261  0.022723451  0.022044117           22 
 3116000   0.73752308   -7.1417535    848.17857  0.022683423  0.022038106           15 
 3117000   0.75304986   -7.1443375    846.89396  0.022641802  0.022032087           21 
 3118000   0.76959325   -7.1405068    849.92919  0.022715661  0.022026102           16 
 3119000   0.74983511   -7.0941401    849.72775  0.022702996  0.022020143            6 
 3120000   0.75961494   -7.1537514    848.29526  0.022657459   0.02201416            6 
 3121000   0.74954952   -7.1366839    851.01979  0.022722947   0.02200816            5 
 3122000   0.75616016   -7.1278072    849.64851  0.022679065  0.022002176           10 
 3123000   0.73733481   -7.1158459    849.88432  0.022678096   0.02199621           14 
 3124000   0.74231588   -7.1467564    850.05492  0.022675387  0.021990228           18 
 3125000    0.7438918   -7.1133174    849.92106  0.022664562  0.021984235           14 
 3126000   0.75654682   -7.1397271     848.9197  0.022630617  0.021978247           12 
 3127000   0.74700311   -7.1237923    850.41432  0.022663211  0.021972239           11 
 3128000   0.77050648   -7.1499316    846.98771  0.022564677  0.021966207            9 
 3129000   0.74656829   -7.1485352    851.16244  0.022668649  0.021960149            5 
 3130000   0.74457302    -7.134105     849.1251  0.022607165  0.021954134            6 
 3131000   0.73692782   -7.1203473    848.31551  0.022578396  0.021948104            6 
 3132000   0.76053106   -7.1562161    848.56703   0.02257788  0.021942093            6 
 3133000   0.76005405   -7.1468628    849.22717  0.022588232  0.021936066           21 
 3134000   0.75644033   -7.1593119    849.26755  0.022582098   0.02193003           12 
 3135000   0.73307476   -7.1251723    849.64754  0.022584996  0.021924016            6 
 3136000   0.75558026   -7.1176388    849.51525  0.022574279  0.021918025            6 
 3137000   0.75499083   -7.1426634    846.44487  0.022485519  0.021912005           10 
 3138000   0.74307919   -7.1040746    849.04236  0.022547333  0.021905985           10 
 3139000   0.74288539   -7.1372281    849.17283  0.022543613  0.021900004           13 
 3140000    0.7672947    -7.120854    848.07849  0.022507391  0.021894012           13 
 3141000   0.76805874   -7.1238264     848.8276    0.0225201  0.021888009            5 
 3142000   0.73820396   -7.1404506    849.25164  0.022524179  0.021881977           20 
 3143000   0.74290354   -7.1214798    847.90182  0.022481223   0.02187594            6 
 3144000   0.74737079   -7.1425383    849.26784   0.02251028  0.021869928           10 
 3145000   0.73327336   -7.1018811    850.54186   0.02253688  0.021863919            7 
 3146000   0.74920287   -7.1381049    850.48081  0.022528099  0.021857933           14 
 3147000    0.7442094   -7.1381477    848.80881  0.022476666  0.021851896           11 
 3148000   0.74018774   -7.1500984     849.7373  0.022494105  0.021845852           10 
 3149000   0.75700811   -7.1292175    850.35757  0.022503376  0.021839824           12 
 3150000   0.75996857   -7.1741483    851.38753   0.02252348  0.021833787            6 
 3151000   0.74830841   -7.1441139    848.51842  0.022440453   0.02182773           13 
 3152000   0.73291321   -7.1606316     850.4409  0.022484161  0.021821676           12 
 3153000   0.74608901   -7.1736724    849.31749  0.022447338  0.021815599            7 
 3154000    0.7313475   -7.1687772    847.71066  0.022397766  0.021809491           23 
 3155000   0.74461583   -7.1510336    849.31471  0.022433035  0.021803421            9 
 3156000   0.74722231   -7.1426737    849.35468  0.022426982  0.021797355            9 
 3157000   0.76327533   -7.1417654    849.84474  0.022432814  0.021791309           13 
 3158000   0.76711418   -7.1128324     850.9297  0.022454341  0.021785244            4 
 3159000   0.73732725   -7.1317982    848.60294  0.022385854  0.021779219           10 
 3160000    0.7350844   -7.1485543     849.9744  0.022414937  0.021773195            6 
 3161000   0.74272776   -7.1466469    849.24042  0.022388496   0.02176719            7 
 3162000   0.75198822   -7.1779597    849.99371  0.022401268  0.021761148            7 
 3163000    0.7417078   -7.1874447    848.48493  0.022354435  0.021755087            7 
 3164000   0.75191697   -7.1392465    848.99173  0.022360718  0.021749041            7 
 3165000   0.73686726   -7.1576031    849.14599  0.022357714  0.021743016            6 
 3166000   0.72544265    -7.162704     849.4461  0.022358552   0.02173698           12 
 3167000   0.73052322   -7.1649657    849.21709  0.022345466  0.021730964           12 
 3168000    0.7526058   -7.1300939    849.59493  0.022348352  0.021724943           17 
 3169000   0.75362144   -7.1492754    849.54384  0.022339956  0.021718949            9 
 3170000   0.75180709   -7.1792202    851.87155    0.0223941  0.021712909            8 
 3171000   0.75398441   -7.1930654    849.97567  0.022337214   0.02170688            7 
 3172000   0.74012015   -7.1694445    849.32486  0.022313074  0.021700875            8 
 3173000   0.73936869   -7.1550564     850.4293  0.022335048  0.021694858           14 
 3174000    0.7474705    -7.212601    851.41938  0.022354006  0.021688831           11 
 3175000   0.75799625   -7.1567331    850.22771  0.022315688  0.021682822           11 
 3176000   0.74825396   -7.1931094    848.44419  0.022261865  0.021676811            9 
 3177000   0.73770333   -7.1488359     852.5671  0.022363002  0.021670799           10 
 3178000   0.75340845   -7.1555313    849.87157  0.022285284  0.021664787           14 
 3179000    0.7528331   -7.1865233    850.02059   0.02228218  0.021658768           11 
 3180000   0.73338472    -7.142288    850.67413  0.022292299  0.021652772            7 
 3181000   0.74480718   -7.1700818    852.13218  0.022323488  0.021646764           17 
 3182000   0.72725356   -7.1614221     851.8377   0.02230876  0.021640756           21 
 3183000   0.73289202   -7.1778725    850.64641  0.022270563   0.02163473           15 
 3184000   0.75088925   -7.1502392    849.22436  0.022226349  0.021628719            8 
 3185000    0.7596458   -7.1673833    850.46226   0.02225176  0.021622693            9 
 3186000   0.73342592   -7.1580511    853.34623  0.022320209  0.021616672           14 
 3187000   0.74595666    -7.156282    852.75644  0.022297784   0.02161064            4 
 3188000   0.74147778   -7.1674584    850.33774  0.022227565  0.021604643           17 
 3189000   0.73043153   -7.1606295    850.10864  0.022214609  0.021598605           13 
 3190000   0.75121284   -7.1346481    852.03941  0.022258083  0.021592588           13 
 3191000    0.7428872   -7.1494975    851.84658  0.022246072  0.021586557            8 
 3192000   0.75185724   -7.1335292     849.2516  0.022171356  0.021580527           12 
 3193000   0.73275873    -7.164853    850.18676  0.022188818  0.021574491           10 
 3194000   0.72342922   -7.1327694    851.18768  0.022207986  0.021568463            8 
 3195000   0.73319849   -7.1347007     851.6923  0.022214197  0.021562452            8 
 3196000   0.74849366   -7.1749505    850.71813  0.022181845  0.021556444           12 
 3197000   0.73865981    -7.148174    852.16797  0.022212699  0.021550456            8 
 3198000   0.73781439   -7.1393644    851.29809  0.022183086   0.02154444           10 
 3199000   0.74179725    -7.164845    850.95908   0.02216732   0.02153844           28 
 3200000   0.75452444   -7.1637546    849.97573  0.022134785  0.021532395            5 
 3201000   0.74214294   -7.1452336    850.98965  0.022154266  0.021526347            7 
 3202000   0.74640365   -7.1766563    850.72815  0.022140541  0.021520291           12 
 3203000   0.74446553   -7.1774651    851.19938  0.022145889  0.021514233           11 
 3204000   0.72561463   -7.1715158    848.94085  0.022080234   0.02150818            6 
 3205000   0.75337342   -7.1547895    850.32285  0.022109278  0.021502114           10 
 3206000    0.7343355   -7.1634534    849.97845   0.02209343  0.021496081           17 
 3207000   0.73851911   -7.1790697    851.83057  0.022134668  0.021490042           13 
 3208000    0.7333569   -7.1859558    851.97724  0.022131578  0.021484016           13 
 3209000   0.74688831   -7.1684257    851.47497  0.022111638  0.021477972           14 
 3210000   0.73241402   -7.1948013    851.27704  0.022099612   0.02147193           10 
 3211000   0.74622879   -7.1617646    849.87232  0.022056273  0.021465878           33 
 3212000   0.74388136   -7.1689024    851.43574  0.022089968  0.021459812           19 
 3213000   0.74840603   -7.1414068    852.36402  0.022107169  0.021453762           11 
 3214000   0.73059305   -7.1456129    851.07329  0.022066825  0.021447707           25 
 3215000   0.72499189   -7.1750467    851.27989  0.022065316  0.021441655           22 
 3216000   0.73931179   -7.1618884    850.68571  0.022043058  0.021435611           22 
 3217000    0.7353619   -7.1780766    850.47258  0.022030685  0.021429552           24 
 3218000   0.73539828   -7.1492761    850.13078  0.022014988  0.021423476           18 
 3219000    0.7344925   -7.1569149    852.78092  0.022076756  0.021417436           23 
 3220000   0.72449859   -7.1746738    850.46111  0.022009863  0.021411403           35 
 3221000   0.74798307   -7.1695275    850.87772  0.022013808  0.021405322           43 
 3222000   0.73319122   -7.1834413    852.97335  0.022061177  0.021399254           16 
 3223000   0.74163278   -7.1809772    850.24053  0.021983673  0.021393175           12 
 3224000   0.74791521   -7.1679099    850.78049  0.021990811  0.021387101           10 
 3225000   0.71981428    -7.172521    850.31829  0.021972049  0.021381022           12 
 3226000   0.73522288   -7.1867663    851.39655  0.021993091  0.021374949           12 
 3227000   0.73067074   -7.1653194    852.12016  0.022004962  0.021368887           11 
 3228000   0.71705276   -7.1972698    851.21886  0.021974878  0.021362802            8 
 3229000    0.7314946   -7.1538724    848.95477  0.021909641  0.021356721            8 
 3230000   0.74460242   -7.1965498     849.0788  0.021906058  0.021350622           11 
 3231000    0.7459609   -7.2084597    848.70761  0.021889704  0.021344513           12 
 3232000    0.7225993   -7.1666812    850.76017  0.021935854  0.021338422            9 
 3233000   0.75337057   -7.1644353    850.93818  0.021933657  0.021332363            9 
 3234000    0.7501713   -7.1757661    851.37167  0.021938045  0.021326307            9 
 3235000   0.72021701   -7.1618845    850.09026  0.021898255  0.021320211           10 
 3236000    0.7252212   -7.1915073    848.97098  0.021862664  0.021314136           20 
 3237000   0.72932864   -7.1570799    851.44482  0.021919597  0.021308041           10 
 3238000   0.73101661   -7.1720798    849.85181   0.02187183   0.02130193           19 
 3239000   0.73382085   -7.1949624    849.94549  0.021867487  0.021295805           10 
 3240000   0.73751544   -7.1838628    850.16757   0.02186645  0.021289696            6 
 3241000   0.71918398   -7.1759285    849.62239  0.021845685    0.0212836           22 
 3242000   0.75275552   -7.1958043      850.101  0.021851249  0.021277509           13 
 3243000   0.72248954   -7.1805565    848.92026  0.021814171  0.021271409           11 
 3244000   0.70697514   -7.1903069    849.09392  0.021811907   0.02126531            7 
 3245000   0.70435487   -7.1753185    850.31207  0.021836468  0.021259222            9 
 3246000    0.7532661   -7.1693238    852.50458  0.021886029  0.021253163            8 
 3247000   0.71573131   -7.1526403    850.50359  0.021827933  0.021247103           10 
 3248000   0.72029292   -7.1553599    852.01353  0.021859953   0.02124106            6 
 3249000    0.7377734   -7.1690988    852.16038  0.021856991  0.021235012            7 
 3250000   0.72607564   -7.1636818    852.83633  0.021867598  0.021228976           15 
 3251000   0.72680377   -7.2035904    850.96577  0.021812923  0.021222907            8 
 3252000   0.73268963   -7.1798347    851.20817  0.021812428   0.02121683            6 
 3253000     0.720318   -7.1847213    852.13534  0.021829474  0.021210782            8 
 3254000   0.74745854   -7.1927934    853.39444   0.02185501  0.021204715            7 
 3255000   0.74307332   -7.1824468     853.1865  0.021842972  0.021198675           14 
 3256000   0.71325067   -7.1732288    854.15379   0.02186102  0.021192658           23 
 3257000   0.73591969   -7.1750222    851.17325  0.021778048  0.021186641            6 
 3258000   0.73603447    -7.197113    850.10739  0.021744102  0.021180592           20 
 3259000   0.71644155   -7.2114686    851.27706  0.021767338  0.021174525           17 
 3260000    0.7467985   -7.1912781    852.50393  0.021792023  0.021168461           14 
 3261000   0.73482773   -7.1954421    853.56408  0.021812432  0.021162404           26 
 3262000   0.73326818   -7.1966099    853.44899  0.021802805  0.021156355           35 
 3263000   0.70071351   -7.1943812    852.11473  0.021762047  0.021150286           28 
 3264000   0.71885419   -7.1692127     851.0232  0.021727512  0.021144237           19 
 3265000   0.73500362    -7.189398    851.53724  0.021733978  0.021138175           15 
 3266000    0.7254483    -7.200748    851.87445  0.021735927    0.0211321           15 
 3267000   0.71147734   -7.1871078    850.39543  0.021691548  0.021126034           12 
 3268000   0.73277373   -7.2091665    850.11941  0.021677871  0.021119951           12 
 3269000   0.73398003   -7.1790915    851.49872  0.021706401  0.021113865           14 
 3270000   0.72103071   -7.2062324    850.30137   0.02166925  0.021107771           32 
 3271000    0.7275597   -7.1895244    851.59982  0.021695705  0.021101722           21 
 3272000   0.72017122   -7.1843205    853.17378  0.021729161  0.021095663           21 
 3273000   0.73405956   -7.1840106    852.75862  0.021711952  0.021089629           34 
 3274000   0.73058738    -7.199713    852.51243  0.021699054  0.021083608           15 
 3275000   0.72045583   -7.1794775    853.19691  0.021709845  0.021077624           16 
 3276000   0.73002563    -7.187797    852.87871  0.021695124   0.02107163           12 
 3277000   0.71171105   -7.2064829    851.48522  0.021653067  0.021065624            9 
 3278000   0.71360583   -7.1929371    853.34062   0.02169363  0.021059609           15 
 3279000   0.72609036   -7.2184809    853.17992   0.02168293   0.02105361           28 
 3280000    0.7335243   -7.1916873    851.73944  0.021639721  0.021047612           37 
 3281000   0.71682453    -7.203164    852.01526  0.021640132  0.021041592           13 
 3282000   0.73490324   -7.1825781    853.82837  0.021679575  0.021035581           20 
 3283000   0.72887801   -7.1864523    852.57657  0.021641196  0.021029583           18 
 3284000   0.73369526   -7.2146508    851.20708  0.021599855  0.021023571           18 
 3285000     0.729652   -7.1965239      854.138  0.021667631  0.021017572           10 
 3286000   0.72401432   -7.2116695    854.36033  0.021666675  0.021011573           11 
 3287000   0.73991046   -7.2051222    852.04363   0.02160135  0.021005598            7 
 3288000   0.71634953   -7.2038327    852.82992  0.021614708   0.02099961           19 
 3289000   0.72057758   -7.1861414    854.12059  0.021640838  0.020993645           24 
 3290000   0.73024979   -7.1767143    855.15338   0.02166042  0.020987676           12 
 3291000   0.72235357   -7.1829069    855.37759  0.021659516  0.020981712            4 
 3292000   0.72722293   -7.1902831     854.7586  0.021637267  0.020975744           19 
 3293000   0.72694243   -7.1939444      853.201   0.02159128  0.020969778            9 
 3294000   0.71852924   -7.1389408    856.17562  0.021659978  0.020963814           11 
 3295000   0.71916327   -7.1941934     853.9715   0.02159766   0.02095785           10 
 3296000   0.73469501   -7.2247051    852.17566  0.021545703  0.020951876           20 
 3297000   0.72599834   -7.1908073    854.41421  0.021595749  0.020945936           28 
 3298000   0.72750412   -7.2047888     853.0872   0.02155567  0.020939994            9 
 3299000   0.74263499   -7.2040151    855.26728  0.021604205   0.02093404            8 
 3300000   0.71975948   -7.2239499    856.45177   0.02162757  0.020928065           19 
 3301000   0.73421326   -7.1944387    854.67695  0.021576213  0.020922109           20 
 3302000   0.70968624   -7.2224112    854.82291  0.021573362  0.020916166           13 
 3303000   0.70725584   -7.1785866     855.3236  0.021579463  0.020910193            9 
 3304000   0.71173585   -7.1760853    854.43602  0.021550545  0.020904239           20 
 3305000   0.71821709   -7.1904136    856.42571  0.021594193   0.02089829           12 
 3306000   0.70740053   -7.1969847    853.99481  0.021526387  0.020892332           12 
 3307000   0.71490173   -7.1698134    855.07321  0.021547052  0.020886376            8 
 3308000   0.71269758   -7.1687368     855.6465   0.02155498  0.020880432           14 
 3309000   0.73217063   -7.2317242    854.26194  0.021513598  0.020874465            6 
 3310000   0.72005468   -7.2183704      853.671  0.021492221  0.020868512            8 
 3311000   0.72620793   -7.2235089    853.73795  0.021487414  0.020862536           11 
 3312000   0.71747568   -7.2062817    855.40541  0.021522882  0.020856574            7 
 3313000    0.7152805   -7.1964636    854.50746  0.021493799  0.020850641           15 
 3314000   0.73213193    -7.196232    855.43166  0.021510553    0.0208447           14 
 3315000   0.72520049   -7.2266027    852.98525  0.021442565  0.020838739           11 
 3316000   0.72134347    -7.223049    855.63459  0.021502679  0.020832769           10 
 3317000   0.71574906   -7.1942668    853.59801  0.021445031  0.020826824           16 
 3318000    0.7183048   -7.2053153    855.90494  0.021496508  0.020820887            9 
 3319000   0.71991488   -7.2112938    855.64348  0.021483466  0.020814942            5 
 3320000   0.74546592    -7.193631      856.561  0.021500025  0.020809026           14 
 3321000   0.72479624   -7.1765931    854.99647  0.021454293   0.02080311           18 
 3322000   0.73153415   -7.1893229    857.21006  0.021503363  0.020797183            6 
 3323000    0.7403174   -7.1932366    854.44595  0.021427574  0.020791241           13 
 3324000   0.71302261   -7.2133558      856.963  0.021484231  0.020785321            8 
 3325000   0.72125668   -7.2193892    853.95282  0.021402326  0.020779411           20 
 3326000   0.71070648   -7.2267791    854.89464  0.021419489  0.020773489           21 
 3327000   0.72675849   -7.2191608    856.17517  0.021445125  0.020767568           12 
 3328000   0.73692008   -7.1979308    854.77995  0.021403745  0.020761649            9 
 3329000   0.71206295   -7.1856732    854.79247  0.021397629  0.020755728            8 
 3330000   0.70047944   -7.2021623    855.43844  0.021407368  0.020749823           14 
 3331000   0.71828268   -7.2109806    856.31963  0.021422987  0.020743899            9 
 3332000   0.72275455   -7.1983399    854.78502  0.021378177  0.020737972            9 
 3333000   0.72185996   -7.2077385    854.36199  0.021361186   0.02073203           10 
 3334000    0.7164588   -7.1827657      855.251     0.021377  0.020726122           12 
 3335000   0.71785726   -7.2013237    855.64083  0.021380331  0.020720206           12 
 3336000   0.71660119    -7.185203    854.97428  0.021357271  0.020714258           19 
 3337000   0.71081386   -7.2147518    855.23162  0.021357297  0.020708329           10 
 3338000   0.71895502   -7.2099248    854.59108  0.021334908  0.020702408           20 
 3339000   0.71937257   -7.2239632    856.71204  0.021381452  0.020696465           37 
 3340000   0.72631718   -7.2104048    856.51305  0.021370086  0.020690542           53 
 3341000   0.71625042   -7.2243479    855.68749  0.021343098  0.020684617           22 
 3342000   0.72671906   -7.2192691    856.07824  0.021346455  0.020678678           23 
 3343000   0.71203212    -7.225694    856.21334  0.021343438  0.020672756           20 
 3344000   0.70092868   -7.2272808    854.45517  0.021293241  0.020666819           11 
 3345000   0.69418518   -7.2077148    855.61774  0.021315838  0.020660881           13 
 3346000   0.71984671    -7.211555    858.54473  0.021382365  0.020654977           15 
 3347000   0.72281755   -7.2056091    858.05012  0.021363662  0.020649054           29 
 3348000    0.7171889   -7.2225403      855.858  0.021302718  0.020643141           11 
 3349000    0.7229372   -7.2292011    856.53498  0.021313202  0.020637217           12 
 3350000   0.71425211   -7.1896135    857.93318  0.021341621  0.020631322           13 
 3351000   0.70996263   -7.2267957    856.54122  0.021300637  0.020625432           16 
 3352000   0.72310347   -7.2287302    857.05335  0.021307014  0.020619534            8 
 3353000   0.71879233    -7.203968    855.58907  0.021264268  0.020613636           18 
 3354000   0.71558309   -7.2194104    855.56079  0.021257225  0.020607742            6 
 3355000   0.71283657   -7.2346042    855.84058  0.021257839  0.020601846           12 
 3356000   0.69389068   -7.2354989    856.39279  0.021265216  0.020595924           24 
 3357000    0.7143135   -7.2112212    856.24822  0.021255293  0.020590002           11 
 3358000    0.7096345    -7.230974    855.34877  0.021226642  0.020584086           17 
 3359000   0.70601409    -7.219853    857.88312  0.021283197  0.020578202           12 
 3360000   0.71925384   -7.2190636    854.77846  0.021199863  0.020572324            6 
 3361000   0.70948454   -7.2087895    858.16155  0.021277436  0.020566429            3 
 3362000   0.68648978   -7.2091663    857.60544  0.021257323  0.020560543           12 
 3363000   0.70947507   -7.2153047    858.55255  0.021274471  0.020554671            8 
 3364000   0.72531011   -7.2258853    857.87091  0.021251261  0.020548796            9 
 3365000   0.71756045   -7.2260146    857.71546  0.021241096  0.020542909            8 
 3366000   0.69933094   -7.2254195    854.97094  0.021166838  0.020537006           18 
 3367000    0.7122271   -7.2333722    857.46894  0.021222377  0.020531119            9 
 3368000    0.7209492   -7.2039724    857.69125  0.021221577  0.020525226           11 
 3369000   0.72079496   -7.2067296    857.35327  0.021206918  0.020519364           17 
 3370000   0.70616199    -7.247238     857.7096  0.021209436   0.02051349            9 
 3371000   0.71902343   -7.2486276    856.46306  0.021172329  0.020507602            8 
 3372000    0.7258426   -7.2184802    856.96134  0.021178364  0.020501703            7 
 3373000   0.69932764   -7.2238988    855.97625  0.021147748  0.020495804           20 
 3374000   0.69598861   -7.2251837    856.21461  0.021147367  0.020489895            6 
 3375000   0.70575157   -7.2248903    856.28872  0.021142931  0.020484007            6 
 3376000   0.70152919   -7.2387001    857.99387  0.021178759  0.020478127           17 
 3377000   0.70543877   -7.2485233    856.77472  0.021142403  0.020472247           11 
 3378000   0.69633993   -7.2060508    856.72337  0.021134877  0.020466374            8 
 3379000   0.71601361   -7.2271051    858.06827   0.02116179   0.02046052           10 
 3380000   0.70350324   -7.2131498    857.18469  0.021133745  0.020454682            8 
 3381000   0.70449434   -7.2017862    858.22542  0.021153146  0.020448825           10 
 3382000   0.69401082   -7.2038191    857.89477  0.021138744  0.020442985           10 
 3383000   0.70695794   -7.2288488    856.85537  0.021106892  0.020437107           13 
 3384000   0.71348478   -7.2353506    856.82194  0.021099831  0.020431214           16 
 3385000   0.70765343   -7.2238768     854.6165  0.021039303  0.020425315           13 
 3386000   0.73237726   -7.2253593    857.99809  0.021116314  0.020419441           10 
 3387000   0.71856318   -7.2344692    857.35344  0.021094219  0.020413574           19 
 3388000    0.6997044   -7.2124731    858.09907  0.021106333  0.020407722           11 
 3389000   0.70290149   -7.2312492    856.31447  0.021056223   0.02040184           15 
 3390000   0.72271739   -7.2127607    858.41817  0.021101725  0.020395969            8 
 3391000   0.70905529   -7.2283696     856.4227  0.021046464  0.020390105           15 
 3392000   0.71216991   -7.2271427    856.77073  0.021048809  0.020384231           20 
 3393000   0.70452245   -7.2526706    857.07577  0.021050097  0.020378332           20 
 3394000   0.71551368   -7.2137248    859.06547  0.021092749  0.020372426           31 
 3395000   0.71150778   -7.2382502    855.66694  0.021003116  0.020366535            8 
 3396000   0.69276266   -7.2371148    855.95772  0.021004066  0.020360635            7 
 3397000    0.7188235    -7.245948     855.4524  0.020985487   0.02035472           10 
 3398000   0.72381497   -7.2600419    856.85001  0.021013587  0.020348792            9 
 3399000   0.71033337   -7.2371577    857.77787  0.021030153  0.020342874            9 
 3400000   0.70577449   -7.2519292    856.22979  0.020986024  0.020336938           20 
 3401000   0.70150672   -7.2396046    855.78613  0.020968983  0.020331014           16 
 3402000   0.69591838   -7.2219155    856.36111  0.020976904  0.020325075           18 
 3403000   0.72217036    -7.253644    857.62433  0.021001673  0.020319148           14 
 3404000   0.71001013   -7.2435781     855.5095   0.02094373   0.02031326           18 
 3405000   0.70595722    -7.227583     854.6947  0.020917638  0.020307347           14 
 3406000      0.70326   -7.2209336    856.03247  0.020944228  0.020301451           15 
 3407000   0.71030671   -7.2415057    857.31922  0.020969553   0.02029554           22 
 3408000   0.70788664   -7.2467859    857.28365   0.02096253  0.020289637           20 
 3409000   0.69830867   -7.2056967    858.71677  0.020991414  0.020283736            7 
 3410000   0.70874352    -7.224601    858.08324  0.020969776  0.020277845           19 
 3411000    0.7113851   -7.2639382    856.11999  0.020915665  0.020271955           10 
 3412000   0.70574111   -7.2356113    854.57805  0.020871875  0.020266069           14 
 3413000   0.69757917   -7.2098647    858.39029  0.020958841  0.020260171           12 
 3414000   0.70491595   -7.2242009    857.65832  0.020934835  0.020254285           13 
 3415000   0.68903023   -7.2171286     857.3377  0.020920881  0.020248397            9 
 3416000   0.69848993   -7.2315247     856.9409  0.020905077  0.020242513           11 
 3417000   0.70881111   -7.2398671    857.98902   0.02092452   0.02023661           30 
 3418000   0.68958474   -7.2379174    856.15633  0.020873716  0.020230702           17 
 3419000    0.6905014   -7.2588009     857.3427  0.020896527    0.0202248           17 
 3420000   0.69745911   -7.2296866    857.65129  0.020897936  0.020218911           31 
 3421000   0.72423373   -7.2183962    856.64458  0.020867304  0.020213021           11 
 3422000   0.69926366   -7.2237682    857.10761  0.020872482  0.020207142           17 
 3423000   0.70897354   -7.2267938    856.67406   0.02085583  0.020201268           21 
 3424000   0.70757701   -7.2471835    857.91976  0.020880056  0.020195381           37 
 3425000   0.70686714   -7.2357384    858.18781  0.020880482  0.020189496           15 
 3426000   0.70755181   -7.2389717    857.36237  0.020854309  0.020183619           10 
 3427000   0.70650827   -7.2291607    857.38419  0.020848755  0.020177767           14 
 3428000   0.70369301   -7.2104397    857.66455  0.020849488  0.020171912           16 
 3429000   0.70341138   -7.2202547    858.52773  0.020864385  0.020166064           15 
 3430000   0.68405411   -7.2013017    858.54987   0.02085884  0.020160216           10 
 3431000   0.70321904   -7.2434608     859.2797  0.020870487  0.020154374           23 
 3432000   0.69691996   -7.2263763    858.65375  0.020849207  0.020148505           11 
 3433000    0.7053557   -7.2406287    857.40927  0.020812925  0.020142667           22 
 3434000   0.70312915   -7.2168923    858.35173  0.020829735  0.020136831           13 
 3435000   0.70338202   -7.2285655    858.49659  0.020827186  0.020130999           34 
 3436000   0.68895593   -7.2478261    857.31376  0.020792437  0.020125134           45 
 3437000   0.68391323   -7.2434765    857.76146  0.020797242  0.020119274           51 
 3438000   0.68682959   -7.2382413    856.53916  0.020761566  0.020113414           19 
 3439000   0.70843098   -7.2627673    857.37045  0.020775673  0.020107534           28 
 3440000   0.69269837    -7.243739    859.22411  0.020814537  0.020101647           28 
 3441000   0.70351565    -7.251257    857.16848  0.020758706  0.020095766           20 
 3442000   0.71623715   -7.2413045    858.94186   0.02079561  0.020089909           29 
 3443000   0.70761699   -7.2502482    856.32219  0.020726164  0.020084035           26 
 3444000   0.69321803   -7.2215599    856.71005  0.020729531  0.020078154           12 
 3445000   0.69543361   -7.2654694    856.59465  0.020720722  0.020072285           21 
 3446000   0.70531371   -7.2634626    857.47901  0.020736095  0.020066415           21 
 3447000   0.71002564    -7.266528    855.88071   0.02069144  0.020060545           30 
 3448000    0.6994549   -7.2292309    857.94111  0.020735236  0.020054657           15 
 3449000   0.71483481   -7.2512985    856.97374   0.02070585  0.020048787           13 
 3450000   0.70040422   -7.2534918    856.84495  0.020696738  0.020042903           36 
 3451000   0.68807715   -7.2627126    856.89448  0.020691937  0.020037046           18 
 3452000   0.68380808   -7.2339622    857.42498  0.020698749  0.020031181           16 
 3453000   0.70019099   -7.2428456    859.92443  0.020753075  0.020025324           16 
 3454000   0.67408091   -7.2626434    857.35226  0.020685009   0.02001945           25 
 3455000   0.69742143   -7.2517505    855.13749  0.020625603  0.020013578           25 
 3456000   0.70409681   -7.2758632    856.68529  0.020656956  0.020007699           19 
 3457000   0.71023477   -7.2765076    857.99927  0.020682655  0.020001818           17 
 3458000   0.71306692   -7.2541111    857.20294  0.020657484  0.019995953           16 
 3459000   0.69926236   -7.2741912    859.16637  0.020698814  0.019990078           18 
 3460000   0.69995826   -7.2701856    858.06946  0.020666413  0.019984213           28 
 3461000   0.69284152   -7.2699874    857.61802  0.020649572  0.019978338           21 
 3462000   0.69696517   -7.2813961    857.29207  0.020635761  0.019972483           16 
 3463000    0.7088781    -7.269272    856.87677  0.020619809   0.01996663           14 
 3464000   0.70067927   -7.2960213     857.8621   0.02063756  0.019960765           26 
 3465000   0.69803444   -7.2766837    857.74026  0.020628674  0.019954899           15 
 3466000    0.7075431   -7.2883855    855.50963  0.020569091  0.019949042           29 
 3467000   0.69866504   -7.2668962    857.48185  0.020610563  0.019943185           37 
 3468000   0.69924042   -7.2597254    857.06648  0.020594639   0.01993733           39 
 3469000   0.70443122   -7.2638847    857.20933  0.020592133  0.019931475           20 
 3470000   0.69212768   -7.2966386    856.31039  0.020564611  0.019925624           25 
 3471000   0.69789313   -7.2771553    857.75072  0.020593266   0.01991976           19 
 3472000   0.69527408   -7.2470362    857.67004  0.020585398  0.019913909           13 
 3473000   0.69842282   -7.2643173    857.50194  0.020575438  0.019908088           31 
 3474000   0.70235312    -7.256152    859.05992  0.020606887  0.019902282           21 
 3475000   0.70057686   -7.2333717     858.5676  0.020589151  0.019896475           29 
 3476000   0.68399641   -7.1989556    861.94946  0.020664304  0.019890702           20 
 3477000   0.69808936   -7.2225785    861.07439  0.020637388  0.019884943           12 
 3478000   0.70097076   -7.2289837    860.25278  0.020611769  0.019879163           20 
 3479000   0.68939885   -7.2536896    859.52494   0.02058841  0.019873391           20 
 3480000   0.69444356   -7.2453223    860.10692   0.02059643  0.019867607           13 
 3481000   0.70247741   -7.2403038    858.42894  0.020550343  0.019861833           14 
 3482000    0.6835215   -7.2938599    858.20414  0.020539061  0.019856057           11 
 3483000   0.67647852   -7.2769956    859.52861  0.020564853   0.01985025           14 
 3484000   0.68561013   -7.2622149    860.60789  0.020584766  0.019844421           15 
 3485000   0.71814019   -7.2645268    859.36489  0.020549137  0.019838619           16 
 3486000   0.69896896   -7.2590085    859.45534  0.020545404  0.019832828           10 
 3487000   0.69528907   -7.2930568    858.37278  0.020513641  0.019827026           11 
 3488000   0.70370067     -7.26827    858.87948  0.020519865   0.01982122           14 
 3489000   0.68256425   -7.2743297    860.54608   0.02055379  0.019815438           13 
 3490000   0.71300578   -7.2567386    858.65922  0.020502847  0.019809643           14 
 3491000   0.68627509   -7.2513608    859.23266  0.020510662  0.019803864           13 
 3492000   0.70709523   -7.2491143    859.73858  0.020516862  0.019798098           26 
 3493000   0.69207692   -7.2765718    861.30592   0.02054838  0.019792334           23 
 3494000   0.69432541   -7.2584044    860.67817  0.020527527   0.01978657           28 
 3495000   0.69547015   -7.2638299    859.52742  0.020494216  0.019780814           29 
 3496000   0.68921116   -7.2533139    858.87304  0.020472756  0.019775059           17 
 3497000   0.67731037   -7.2649042    858.91603  0.020467925  0.019769297           23 
 3498000   0.69232265   -7.2830686    859.79623  0.020483043  0.019763513           13 
 3499000   0.69689195   -7.2621018    860.07593  0.020483851  0.019757752           29 
 3500000   0.69700572   -7.2456177    858.09181  0.020430757  0.019751994           19 
 3501000    0.6908285   -7.2564676    859.03562  0.020447387  0.019746221           13 
 3502000   0.68685363   -7.2465672    859.17423  0.020444846  0.019740455           34 
 3503000   0.68905283   -7.2799281    859.12862  0.020437925  0.019734704           20 
 3504000   0.68451771   -7.2390976    860.85528  0.020473156  0.019728937           24 
 3505000   0.68596551   -7.2414637    860.45598  0.020457822  0.019723193           14 
 3506000   0.68852502   -7.2746708    859.72046  0.020434504  0.019717418            8 
 3507000   0.70334799   -7.2916854    860.90909  0.020456922   0.01971165           12 
 3508000   0.69409174   -7.2762799    859.98059  0.020429033  0.019705863           11 
 3509000   0.68177232   -7.2891556    858.35055  0.020384501  0.019700074           15 
 3510000   0.67112235   -7.2638016    861.43891  0.020452016  0.019694299           16 
 3511000   0.68369071   -7.2808477    860.80384  0.020431117  0.019688502           16 
 3512000   0.68355344   -7.2803121    858.75829  0.020376763   0.01968273            8 
 3513000   0.69055183   -7.2601459    860.85978  0.020420813  0.019676968           13 
 3514000   0.68510516    -7.238571    861.49553  0.020430078  0.019671233            8 
 3515000   0.68667334   -7.2913923    861.11171  0.020415166  0.019665484           12 
 3516000   0.68753058   -7.2604333    860.28216  0.020389699   0.01965975           22 
 3517000   0.69489345   -7.2673993    860.84619  0.020397265  0.019653998           15 
 3518000   0.68182213   -7.2869638    861.05227  0.020396349  0.019648267           25 
 3519000   0.68428977   -7.2578142    861.06728  0.020390908  0.019642556           22 
 3520000   0.70694828   -7.2704979    861.44269  0.020394003  0.019636838           11 
 3521000   0.68901495   -7.2540186      861.408   0.02038739  0.019631123           11 
 3522000    0.6833926    -7.255942    862.09041  0.020397748   0.01962542           11 
 3523000   0.67641474   -7.2747245    860.14105  0.020345848  0.019619711           13 
 3524000   0.68004918   -7.2783933    861.39677  0.020369769  0.019613996            9 
 3525000   0.67069177   -7.2618343    862.72784  0.020395457  0.019608283           19 
 3526000   0.68623814   -7.2714201     861.4377  0.020359182  0.019602574           22 
 3527000   0.67751501     -7.26852    860.22716  0.020324808  0.019596876           17 
 3528000    0.6986999   -7.2726398     861.9804  0.020360459  0.019591153           20 
 3529000   0.69465551   -7.2530442    862.22378  0.020360437  0.019585457           18 
 3530000   0.69343109   -7.2661201    861.42938  0.020335916  0.019579756           17 
 3531000   0.67869268   -7.2653799    861.25641  0.020326074   0.01957406           13 
 3532000   0.67721541   -7.2512145    862.98244  0.020361043  0.019568371           14 
 3533000   0.69999367   -7.2997087    862.36118  0.020340626  0.019562699           28 
 3534000   0.68518349   -7.2938081    862.51751  0.020338557  0.019557012           17 
 3535000    0.6809436   -7.2766758    861.82325  0.020316437  0.019551332           20 
 3536000    0.6857728    -7.275246    862.25503  0.020320867   0.01954565           17 
 3537000   0.68068341   -7.2714417    860.29655  0.020268979  0.019539988           22 
 3538000   0.68914964   -7.2637712    862.50087   0.02031517  0.019534326           10 
 3539000    0.6878644   -7.2928916    862.81298  0.020316779  0.019528654           16 
 3540000   0.68757308    -7.271326     861.2146  0.020273413  0.019522969           32 
 3541000   0.67482373   -7.2801926    860.08476  0.020241099  0.019517289           19 
 3542000   0.69898049   -7.2765516    861.44441  0.020267373  0.019511602           16 
 3543000   0.67489452   -7.2852924    861.65099  0.020266511    0.0195059           16 
 3544000   0.68868519   -7.2904257    860.71661  0.020238822  0.019500202           18 
 3545000   0.68884351    -7.296399    862.36279   0.02027181  0.019494511           23 
 3546000   0.68799455   -7.3136869    862.35325  0.020265869  0.019488824           43 
 3547000   0.69020319   -7.2865436    861.77579  0.020246589  0.019483135           30 
 3548000   0.69296104   -7.2755442    861.77307  0.020240818  0.019477457           17 
 3549000   0.68754771    -7.287716    862.47704  0.020251645  0.019471775           14 
 3550000   0.68297886   -7.2598727    862.85041  0.020254705  0.019466102           10 
 3551000    0.6954362   -7.2740939    861.55295  0.020218552   0.01946044           23 
 3552000   0.67551187   -7.3106535    862.26436  0.020229551  0.019454776           13 
 3553000   0.66201795   -7.2774159    861.74135   0.02021159  0.019449106           17 
 3554000   0.67871626   -7.2920587    862.78507  0.020230376  0.019443445           27 
 3555000   0.69791919   -7.2911302    862.73266  0.020223457  0.019437785            9 
 3556000   0.67996142   -7.2745162    862.83957  0.020220275  0.019432115           13 
 3557000   0.68108931   -7.2813907    860.83624  0.020167656  0.019426446           16 
 3558000   0.68832775   -7.3014956    862.66615  0.020204847   0.01942077           13 
 3559000   0.67576286   -7.2720216    861.59788  0.020174157  0.019415111           20 
 3560000   0.67727469   -7.2802527     861.4084  0.020164054  0.019409443           15 
 3561000    0.6853338   -7.2976147    862.65566   0.02018758  0.019403784           19 
 3562000    0.6918668    -7.296519     860.2889  0.020126542  0.019398124           15 
 3563000   0.66798043   -7.3001238    861.11104  0.020140122   0.01939244           13 
 3564000   0.67738156   -7.2820417    862.17219  0.020159283  0.019386776           12 
 3565000   0.67899808   -7.2919982    861.51349   0.02013823  0.019381109           20 
 3566000   0.66747343   -7.2961613    861.88254  0.020141207  0.019375436           14 
 3567000   0.68231708    -7.282877    861.80245   0.02013369  0.019369773           16 
 3568000   0.68101012   -7.2905561    863.46235  0.020166815  0.019364117           18 
 3569000   0.66808233   -7.2815334    863.18198  0.020154618   0.01935846           25 
 3570000   0.69650714   -7.2972731    863.74952   0.02016222  0.019352788           32 
 3571000   0.67231639   -7.3062045    862.69089   0.02013187  0.019347129           19 
 3572000   0.68389001   -7.2946434    862.86501  0.020130296  0.019341471           22 
 3573000   0.67313274   -7.2890327    860.30513  0.020064958  0.019335789           27 
 3574000   0.69684223   -7.3034188    860.82986  0.020071579    0.0193301           23 
 3575000   0.66398283   -7.3141118    861.61294  0.020084218  0.019324422           22 
 3576000   0.68387719   -7.3198569    861.38657  0.020073326  0.019318734           14 
 3577000   0.67873013   -7.2956473    860.91346  0.020056692  0.019313049           34 
 3578000   0.67893413   -7.2885391    860.52008  0.020041925  0.019307358           58 
 3579000   0.68059175    -7.301684    862.22499  0.020076022  0.019301704           37 
 3580000   0.67791626   -7.2905233    862.52648  0.020077432  0.019296037           54 
 3581000   0.68008478   -7.3003009    861.40419  0.020045709  0.019290358           52 
 3582000   0.68235387   -7.3087209    861.01793  0.020031126  0.019284689           34 
 3583000   0.68501171   -7.3198535    861.07733  0.020026917  0.019279034           35 
 3584000   0.67186081   -7.3090015    861.35634  0.020027817  0.019273357           30 
 3585000   0.67645581     -7.29423    861.56087  0.020026984  0.019267713           35 
 3586000   0.67380305   -7.2958458    861.69267  0.020024463  0.019262063           30 
 3587000   0.67198828   -7.3195538    861.18451  0.020007074   0.01925639           43 
 3588000   0.68856497   -7.3124453    860.65987  0.019989313  0.019250707           28 
 3589000   0.69453665   -7.3337748    861.07149  0.019993301  0.019245019           45 
 3590000   0.68354675   -7.2958509    862.14091  0.020012556  0.019239355           31 
 3591000   0.68152832   -7.2967579    861.32531  0.019988056    0.0192337           38 
 3592000   0.67790231   -7.2799292    863.11195  0.020023941  0.019228045           31 
 3593000   0.66424983   -7.3177846    861.84359   0.01998895  0.019222385           24 
 3594000   0.67050872    -7.319056    863.50586  0.020021931  0.019216736           18 
 3595000   0.69201773    -7.298889    862.42626  0.019991337  0.019211082            8 
 3596000    0.6858298    -7.285135    862.55523  0.019988766  0.019205425           13 
 3597000   0.68060778   -7.2851828     861.5394  0.019959675  0.019199781           12 
 3598000   0.67124503     -7.28405    862.70261  0.019981068  0.019194139           12 
 3599000   0.66628666   -7.2908402    862.28946   0.01996595  0.019188498           21 
 3600000   0.67657993   -7.3004156    862.43491  0.019963771  0.019182871           17 
 3601000   0.66489433   -7.3114321    861.95677  0.019947162  0.019177232           20 
 3602000   0.66719577   -7.3034218    861.62125  0.019933862  0.019171608           16 
 3603000   0.67199555   -7.3056148    861.68354   0.01992977  0.019165997           15 
 3604000   0.67625132   -7.3079619    862.81738  0.019950457  0.019160353           11 
 3605000   0.67775647   -7.3122276    862.46765  0.019936839  0.019154703           21 
 3606000   0.67902898   -7.3128875    859.56088  0.019864136   0.01914904           19 
 3607000   0.66301275   -7.3229319    862.26967   0.01992121  0.019143366           35 
 3608000   0.66787439    -7.304401    862.36764  0.019917952   0.01913771           32 
 3609000   0.67950554    -7.316843    862.68517  0.019919765  0.019132049           33 
 3610000   0.69740735   -7.2822739    859.86538  0.019849155    0.0191264           15 
 3611000    0.6688842   -7.3107524    862.34156  0.019900802  0.019120786           31 
 3612000    0.6663247   -7.2953569    861.15825  0.019867992  0.019115179           16 
 3613000   0.68532599   -7.3089452    863.50657  0.019916657  0.019109559           36 
 3614000   0.67142331   -7.2916907    862.90428  0.019897258  0.019103939           12 
 3615000   0.67984023   -7.3024109    862.11053  0.019873456  0.019098331           31 
 3616000   0.67609355   -7.3125424    861.52918  0.019854563  0.019092719           31 
 3617000   0.68006652   -7.3103363    862.67185    0.0198754  0.019087095           15 
 3618000    0.6493092   -7.3056734    862.66874  0.019869835  0.019081489           31 
 3619000    0.6814693   -7.2788612    860.53187  0.019815139  0.019075873           28 
 3620000   0.68878459   -7.3074011    862.30817  0.019850556  0.019070249           22 
 3621000   0.66389295   -7.3050803    863.52227  0.019873016  0.019064634           17 
 3622000   0.65806203   -7.2831679    863.65269  0.019870529  0.019059017           27 
 3623000   0.67006388   -7.3061375    861.41322  0.019813534  0.019053401           14 
 3624000   0.67672114   -7.3005234    862.05634  0.019822855  0.019047786           12 
 3625000   0.65929526   -7.3062759    863.55851   0.01985192  0.019042155           12 
 3626000   0.67981481   -7.3274936     861.3005  0.019794551  0.019036522           29 
 3627000   0.66473536   -7.3061183    862.76202  0.019822673   0.01903091           12 
 3628000    0.6842831   -7.3062965    862.73874  0.019816674  0.019025288           10 
 3629000   0.66362098   -7.3105948    862.78844  0.019812355  0.019019675           13 
 3630000   0.66880943   -7.3125541    860.39247  0.019751893  0.019014053            8 
 3631000   0.67374747   -7.3538009    862.19341  0.019787786  0.019008432           14 
 3632000   0.65384549   -7.2955951    863.02153  0.019801338  0.019002819           15 
 3633000   0.67996962   -7.3356352    862.52845  0.019784578  0.018997204           19 
 3634000   0.66877809   -7.3156258    861.82782  0.019763067  0.018991577           15 
 3635000   0.67008011   -7.3215722    861.42733  0.019748449  0.018985952           13 
 3636000   0.65721082   -7.3254806    860.00738  0.019710473  0.018980346           22 
 3637000   0.67169329   -7.3315352    863.29672  0.019780422  0.018974742           12 
 3638000   0.66415106   -7.3026203    863.11409  0.019770801  0.018969151           19 
 3639000   0.64766459   -7.3310937    864.19252  0.019790064  0.018963544           15 
 3640000   0.67848845   -7.2982709    864.12553  0.019783094  0.018957958           16 
 3641000   0.66216694   -7.2785993    862.96775  0.019751162  0.018952383            9 
 3642000   0.66744473   -7.3446409    862.60312  0.019737395  0.018946799           11 
 3643000   0.67720869   -7.3115793    863.62405  0.019755331  0.018941221           19 
 3644000   0.67738578    -7.326167     864.5631  0.019771384  0.018935649           20 
 3645000   0.66866926   -7.3393815    863.73544  0.019747038  0.018930089           20 
 3646000   0.65935733   -7.3217614    864.04385  0.019748671  0.018924524           11 
 3647000    0.6707921   -7.3010891    863.62316  0.019733643  0.018918958           10 
 3648000   0.65184365    -7.320713    864.53082  0.019748968  0.018913391           17 
 3649000   0.67661585   -7.3037704    863.14068  0.019711809  0.018907822           22 
 3650000   0.65916479   -7.3177505    863.43882  0.019713215  0.018902251           16 
 3651000   0.65973227   -7.3170411    864.38619  0.019729439  0.018896698           14 
 3652000   0.65973818   -7.3220538    864.10063  0.019717521  0.018891155           12 
 3653000   0.67089308   -7.2964661    865.67097  0.019747946  0.018885615           17 
 3654000    0.6622043   -7.3066677    864.28451  0.019710922  0.018880094           23 
 3655000   0.67321951   -7.3189041    863.98501  0.019698701  0.018874588           23 
 3656000   0.68029059   -7.3123567    865.55612  0.019729124  0.018869076           36 
 3657000   0.65966851   -7.3111225    865.72956  0.019727681  0.018863564           41 
 3658000   0.66808436   -7.3204118    864.22325  0.019687973  0.018858045           26 
 3659000   0.67352952    -7.337505    865.42186   0.01970989  0.018852523           14 
 3660000   0.66536908   -7.3058749    865.95314  0.019716602  0.018846997           17 
 3661000   0.65909653   -7.3101129    865.62869  0.019703831  0.018841492           10 
 3662000   0.66880852   -7.3186159    866.71606  0.019723194   0.01883597           17 
 3663000   0.67034811     -7.32847     864.5536  0.019668614  0.018830438           28 
 3664000   0.66140104    -7.337743    862.43209  0.019614995  0.018824914           28 
 3665000   0.65465649   -7.3275369    863.91067  0.019643262  0.018819384           25 
 3666000   0.66047287     -7.33114    864.72444  0.019656402  0.018813866           20 
 3667000    0.6562359   -7.3286829     864.2735  0.019640794   0.01880835           29 
 3668000   0.66526782   -7.3438553    864.19227  0.019633594  0.018802818           13 
 3669000   0.66616255   -7.3445101    864.73281   0.01964052  0.018797297           22 
 3670000   0.65973454   -7.3258626     864.4228  0.019628129  0.018791771           17 
 3671000   0.67024664   -7.3331868    863.64181  0.019605053  0.018786253           13 
 3672000   0.64631421   -7.3233019    865.86766  0.019650228  0.018780733            9 
 3673000   0.67265703   -7.3656457    864.79546  0.019620552  0.018775211           22 
 3674000   0.65053627   -7.3286627    863.52581  0.019586414  0.018769678           10 
 3675000   0.67063123   -7.3387627    863.44312  0.019579209  0.018764154           11 
 3676000   0.66455449   -7.3249197    863.33308  0.019571388  0.018758636           10 
 3677000   0.66372609   -7.3285569    865.46001  0.019614269  0.018753116           15 
 3678000   0.67289257   -7.3034684    864.59193  0.019589268  0.018747603           10 
 3679000   0.65985451   -7.3192842    864.99982  0.019593182  0.018742107           16 
 3680000   0.69421876    -7.323792    867.71841  0.019649421  0.018736608           16 
 3681000   0.65604884   -7.3254895     863.7622  0.019554519  0.018731119           22 
 3682000   0.67430273   -7.3364022    865.20806  0.019581932  0.018725613           17 
 3683000    0.6594327   -7.3317133    865.32049  0.019579158  0.018720109           27 
 3684000   0.64389253   -7.3047627    864.33644  0.019551584  0.018714607           28 
 3685000   0.64413688   -7.3415804    864.67762  0.019553994    0.0187091           28 
 3686000    0.6597385    -7.324696    863.95091   0.01953226  0.018703573            9 
 3687000    0.6760043   -7.3311928    861.78782  0.019478072  0.018698039           24 
 3688000   0.65991496   -7.3372587     864.3229  0.019530073  0.018692516           14 
 3689000   0.65450935    -7.329209    863.54017  0.019507097  0.018686994           20 
 3690000   0.65368985   -7.3460603    864.82929  0.019530924  0.018681462           29 
 3691000   0.67281983   -7.3457242    862.94794  0.019483156  0.018675932           15 
 3692000   0.65980632   -7.3399396    864.49344  0.019512763  0.018670417           14 
 3693000   0.66697278   -7.3203828    863.88028  0.019493643  0.018664904           15 
 3694000   0.66022113   -7.3296939    862.73531  0.019462536  0.018659385           25 
 3695000   0.65923306   -7.3501224    863.87544  0.019482982   0.01865385           24 
 3696000   0.65965426    -7.329409    863.90517  0.019478381  0.018648323           35 
 3697000   0.66007717   -7.3278219    863.90777  0.019473171  0.018642803           51 
 3698000   0.64996432   -7.3488599    863.68236  0.019462826  0.018637289           21 
 3699000   0.66531718   -7.3100941    864.00574  0.019464849   0.01863177           17 
 3700000   0.65476624   -7.3093469    864.61595  0.019473332  0.018626264           37 
 3701000   0.66320648   -7.3476695    863.84925  0.019450807  0.018620752           22 
 3702000   0.66573336    -7.326104    864.01956  0.019449387  0.018615248           24 
 3703000   0.65610723   -7.3515388    864.32788  0.019451073  0.018609751           31 
 3704000   0.66571739   -7.3368304    864.48307  0.019449313  0.018604231           14 
 3705000   0.66129024   -7.3489457    863.57624  0.019423667  0.018598728           16 
 3706000   0.65494657   -7.3420989    864.60076  0.019441463  0.018593225           18 
 3707000   0.67644777   -7.3149797     864.6035  0.019436281  0.018587732           14 
 3708000   0.66995128   -7.3100689    864.10155  0.019419758  0.018582249           29 
 3709000   0.66041592   -7.3181566    866.08156  0.019459009  0.018576777            8 
 3710000   0.65072791   -7.3172948    864.45599   0.01941725  0.018571292           12 
 3711000   0.68193682   -7.3411468    864.89516   0.01942188  0.018565799           15 
 3712000   0.65216305   -7.3473844    865.67363  0.019434124  0.018560315           12 
 3713000     0.665743   -7.3336774     863.4342  0.019378629  0.018554825           14 
 3714000   0.65896658   -7.3167838    863.76336  0.019380797  0.018549345           14 
 3715000    0.6487078   -7.3104422    864.64062  0.019395258   0.01854386           15 
 3716000   0.65210641   -7.3451023    865.07965  0.019399885  0.018538379           12 
 3717000   0.65583464   -7.3176741    863.39814  0.019356967    0.0185329           38 
 3718000   0.64446156   -7.3158395    862.89404  0.019340462  0.018527414           52 
 3719000   0.65460533   -7.3306362    864.08127  0.019361864  0.018521933           20 
 3720000   0.65766897     -7.31992    864.54239  0.019366989  0.018516448           34 
 3721000   0.65701886   -7.3449875    864.85236  0.019368726  0.018510963           13 
 3722000   0.65124916   -7.3457069     865.7469   0.01938355  0.018505478           13 
 3723000   0.65519157    -7.319497    864.87105   0.01935874   0.01849999           27 
 3724000   0.67285715   -7.3480915    864.23776   0.01933937  0.018494501           26 
 3725000   0.64880287   -7.3776393    862.63691  0.019298365  0.018488998           25 
 3726000   0.65178843   -7.3368811    863.12766  0.019304161  0.018483486           28 
 3727000   0.65192229   -7.3876943    862.57382  0.019286598   0.01847798           24 
 3728000    0.6542718   -7.3402432    862.85775  0.019287772  0.018472478           20 
 3729000   0.63939506   -7.3337175    864.11062  0.019310598  0.018466978           27 
 3730000   0.65191354   -7.3420539    862.72485   0.01927446  0.018461471           14 
 3731000   0.67384952   -7.3334595    864.89645  0.019317798  0.018455976           20 
 3732000   0.64994396   -7.3730384    863.60786  0.019283848  0.018450484           16 
 3733000   0.64464326   -7.3810349     862.9216  0.019263363   0.01844498           14 
 3734000   0.64580848   -7.3377232    862.86579  0.019256958  0.018439495           11 
 3735000   0.67717479   -7.3077331    863.96362  0.019276297  0.018434015           10 
 3736000   0.64782608   -7.3466526    863.86974  0.019269043   0.01842852           17 
 3737000    0.6507401   -7.3601819    862.75304  0.019238985  0.018423045           24 
 3738000   0.65641402   -7.3607525     864.7185  0.019277655  0.018417572           15 
 3739000   0.66208758   -7.3544764    863.35412  0.019242091  0.018412089           25 
 3740000   0.65415072   -7.3480893    865.98766  0.019295625  0.018406614           27 
 3741000   0.65326241   -7.3616357    864.23453  0.019251415  0.018401141           21 
 3742000   0.65105293   -7.3619033    865.38386  0.019271866  0.018395666           15 
 3743000   0.65220515   -7.3568144    865.04278  0.019259123  0.018390215           12 
 3744000   0.65870287    -7.333861    865.80751     0.019271  0.018384762           17 
 3745000   0.63975361   -7.3324375    865.67422  0.019262889  0.018379307           14 
 3746000   0.66369548   -7.3460244    866.11452  0.019267541  0.018373854           16 
 3747000   0.65102208   -7.3429837    864.43395  0.019225023  0.018368415           13 
 3748000   0.64713981   -7.3616364    864.69612  0.019225723  0.018362972           10 
 3749000   0.64733805   -7.3559341    865.09975  0.019229567  0.018357531           13 
 3750000   0.64343645   -7.3480014    864.95475  0.019221217  0.018352087           18 
 3751000   0.65080662   -7.3436767    865.09578  0.019219226   0.01834663           24 
 3752000   0.65792648   -7.3453584    864.64284  0.019204043  0.018341185           21 
 3753000   0.65490741   -7.3506274    865.16328  0.019210482  0.018335727           17 
 3754000   0.64875542   -7.3683806     865.0879  0.019203692  0.018330273           20 
 3755000     0.656538   -7.3725286    863.80826  0.019170179  0.018324814           22 
 3756000   0.64594047   -7.3614939    865.09535  0.019193631  0.018319349           28 
 3757000   0.64830562   -7.3529558    864.38698   0.01917281  0.018313893           33 
 3758000   0.64664449   -7.3492493    864.96964  0.019180629  0.018308448           34 
 3759000   0.65262728   -7.3416217    864.42897   0.01916354  0.018303023           25 
 3760000   0.65150178   -7.3687112    866.78203  0.019210595  0.018297599           22 
 3761000   0.66513279   -7.3519884    866.92184  0.019208585  0.018292188           20 
 3762000   0.63719667   -7.3357658    865.37011  0.019169106  0.018286787           21 
 3763000   0.65304484   -7.3657353    863.39276  0.019120222  0.018281379           23 
 3764000   0.65140173   -7.3663956    866.51579  0.019184285  0.018275971           44 
 3765000   0.64181624   -7.3557642    864.30489  0.019130254  0.018270562           27 
 3766000   0.63591569   -7.3464732    865.20104  0.019145004   0.01826515           74 
 3767000    0.6320463   -7.3740046     866.3724  0.019165835  0.018259729           48 
 3768000   0.64493018   -7.3564665    865.05467  0.019131605   0.01825432           86 
 3769000   0.65041677   -7.3616606    864.73084  0.019119369  0.018248922           42 
 3770000   0.64160884   -7.3705145    864.28351   0.01910441  0.018243507           80 
 3771000   0.66192801   -7.3557216    863.87669  0.019090354  0.018238098           77 
 3772000   0.64503373   -7.3462165    865.44887  0.019120026  0.018232698           69 
 3773000   0.64423465   -7.3457171    866.55394  0.019139366  0.018227283           58 
 3774000   0.66025019   -7.3473706    865.25831  0.019105686  0.018221879           65 
 3775000   0.65427597   -7.3533559    863.60229  0.019064068  0.018216467           63 
 3776000   0.65075805   -7.3500643    865.93527  0.019110507  0.018211064           31 
 3777000   0.65028289   -7.3640423    865.09578  0.019086925  0.018205654           62 
 3778000   0.65188736   -7.3533915    864.57294   0.01907034  0.018200232           74 
 3779000   0.65237871   -7.3608392    864.69248   0.01906793  0.018194814           70 
 3780000   0.63672915   -7.3660919    866.53334  0.019103469  0.018189401           90 
 3781000    0.6508604    -7.373673     864.5475  0.019054648  0.018183974           80 
 3782000   0.64810878   -7.3612238     862.8857  0.019012993  0.018178562           85 
 3783000   0.66671771   -7.3886681    865.11023  0.019056971  0.018173152           79 
 3784000   0.63800084   -7.3628053    866.18026  0.019075499  0.018167742           51 
 3785000   0.64925499   -7.3818995    864.71081  0.019038107   0.01816233           95 
 3786000   0.64809806   -7.3829338    864.63089  0.019031319  0.018156914           62 
 3787000   0.63157772   -7.3592341    865.55171  0.019046556  0.018151495           28 
 3788000   0.63787995   -7.3678199    864.96418  0.019028603  0.018146086           67 
 3789000   0.65266882   -7.3564238    862.85065  0.018977097  0.018140672           38 
 3790000   0.64862263   -7.3715146    865.40901  0.019028342   0.01813527           33 
 3791000   0.63392631   -7.3568778    864.25977  0.018998061  0.018129873           41 
 3792000   0.64721752    -7.363429    864.86655  0.019006385  0.018124478           32 
 3793000   0.65520571   -7.3636939    865.16555  0.019007943  0.018119083           31 
 3794000   0.63331768   -7.3648348    864.30102  0.018983944  0.018113683           61 
 3795000   0.64998258   -7.3701585    865.41555  0.019003416  0.018108283           25 
 3796000   0.64001703   -7.3880915    865.65219  0.019003604  0.018102891           25 
 3797000   0.64766735   -7.3800273    865.14777  0.018987529  0.018097501           41 
 3798000   0.64419468   -7.3714047    866.42398  0.019010531  0.018092109           23 
 3799000    0.6415356   -7.3901721    865.33139  0.018981561  0.018086711           38 
 3800000   0.65229387   -7.3729661    865.33961  0.018976746  0.018081321           32 
 3801000   0.65925566   -7.3723568    864.83158  0.018960615  0.018075937           39 
 3802000   0.64396202   -7.3836204    864.97555  0.018958784  0.018070546           59 
 3803000   0.63066275   -7.3638758    863.58387  0.018923303  0.018065168           19 
 3804000   0.63870773   -7.3944048    865.54356  0.018961259   0.01805978           17 
 3805000   0.63982551   -7.3822189    865.65382  0.018958691  0.018054403           34 
 3806000   0.64500095   -7.3822281    865.18184  0.018943375  0.018049024           50 
 3807000   0.63683841   -7.3749407    865.39468  0.018943058  0.018043647           35 
 3808000   0.64344756   -7.3685679    866.70952  0.018966858  0.018038281           20 
 3809000   0.64982586     -7.38197    864.59487  0.018915614  0.018032907           37 
 3810000   0.63208889   -7.3934852     866.7769  0.018958375  0.018027531           31 
 3811000   0.63569123   -7.3572585    864.14404  0.018895829   0.01802215           52 
 3812000   0.63453138   -7.3764532    863.81011  0.018883572  0.018016769           55 
 3813000   0.64406249    -7.390279    864.33785  0.018890153  0.018011406           58 
 3814000   0.65318102   -7.4049581    865.44009  0.018909284  0.018006027           63 
 3815000   0.63359025   -7.3995473    865.62813  0.018908434  0.018000644           46 
 3816000   0.62863818   -7.3957175      864.653  0.018882185  0.017995269           21 
 3817000   0.65336535   -7.3862904    867.28408   0.01893468  0.017989903           19 
 3818000   0.63921961   -7.3752312    865.65586  0.018894182  0.017984535           38 
 3819000    0.6360912   -7.3895614    864.37903  0.018861374  0.017979168           23 
 3820000   0.63013952   -7.3753474    865.47913  0.018880435  0.017973807           40 
 3821000   0.63543451   -7.3741255    864.79988   0.01886068  0.017968441           44 
 3822000   0.64068531   -7.3588982     868.2692  0.018931388  0.017963091           42 
 3823000   0.64561729   -7.3747956    865.98937  0.018876741  0.017957738           19 
 3824000   0.63375344   -7.3879545    864.56135  0.018840685   0.01795237           28 
 3825000   0.63013385   -7.3885948     865.9893  0.018866869  0.017947011           52 
 3826000   0.64631511   -7.3997097     865.3236  0.018847439  0.017941653           43 
 3827000   0.63792445   -7.3928879    864.48037  0.018824152  0.017936288           31 
 3828000   0.65256138   -7.3802839    865.31949  0.018837502  0.017930943           44 
 3829000   0.63878585   -7.3712929    864.09969  0.018806035  0.017925592           34 
 3830000   0.66624794   -7.4002996    863.77506  0.018794061  0.017920232           36 
 3831000   0.65021773   -7.3706266    864.12926   0.01879686  0.017914882           45 
 3832000   0.64488727   -7.3627186    865.72773  0.018826716  0.017909527           18 
 3833000   0.64418081   -7.3733199    863.22792  0.018767456  0.017904175           35 
 3834000   0.64023659   -7.3524023    864.42968  0.018788682  0.017898834           23 
 3835000   0.63813404   -7.3794506    863.86265  0.018771461  0.017893492           48 
 3836000   0.64779573   -7.3833642     865.8003  0.018808661  0.017888146           23 
 3837000   0.64706677   -7.3933928    865.12873  0.018789174  0.017882796           28 
 3838000   0.63928427   -7.3749618    865.99039  0.018802988  0.017877454           22 
 3839000   0.63975644   -7.3768087     865.1675  0.018780227   0.01787213           32 
 3840000    0.6534432   -7.4013223    866.13432  0.018796318  0.017866797           11 
 3841000   0.64300551   -7.4106895    864.96148  0.018765978  0.017861461           19 
 3842000   0.63209939   -7.3727762     866.3074  0.018790287  0.017856128           15 
 3843000   0.63818822   -7.3853317    865.50937  0.018768093  0.017850789           12 
 3844000   0.63655373   -7.3719636    864.53456  0.018742078  0.017845465           14 
 3845000   0.63957933   -7.3928269    864.74504  0.018741765  0.017840142           24 
 3846000   0.63167701   -7.3876504    866.94137  0.018784481  0.017834818           23 
 3847000   0.62691998   -7.3799414    865.23299  0.018742591  0.017829486           22 
 3848000   0.63756216   -7.3797345    864.48306   0.01872148   0.01782416           23 
 3849000   0.63478042   -7.3619828    865.49112  0.018738441  0.017818839           31 
 3850000   0.62485747   -7.3764299    865.60992  0.018736146  0.017813516           23 
 3851000   0.63068891   -7.3892952    867.49622  0.018772099  0.017808194           28 
 3852000   0.64882621   -7.3812938     866.2438  0.018740131  0.017802885           20 
 3853000   0.65249618   -7.3826975    865.53232  0.018719879  0.017797565           23 
 3854000   0.63626757   -7.3897472    866.03733  0.018725941  0.017792241           14 
 3855000   0.64429811    -7.384997    867.47494   0.01875216  0.017786925           15 
 3856000   0.64248946   -7.3847041    865.18861  0.018697887  0.017781613           25 
 3857000   0.64969416   -7.3982936    866.36168  0.018718384  0.017776298           24 
 3858000   0.63322883   -7.3954224    865.49841  0.018694885  0.017770976           30 
 3859000   0.62634663   -7.4129434    865.32421  0.018686279  0.017765649           21 
 3860000   0.65216947   -7.3747644    867.25524  0.018723127  0.017760323           21 
 3861000   0.62930109   -7.3933682    864.78891  0.018665046  0.017755013           15 
 3862000   0.62647431   -7.4040087    866.11603  0.018688849  0.017749684           23 
 3863000   0.62153051   -7.3882224    865.08093  0.018661682  0.017744362           19 
 3864000   0.62791297   -7.3819158    863.10784  0.018614299  0.017739038           27 
 3865000   0.62680083   -7.3895653    864.82835  0.018646579  0.017733712           22 
 3866000   0.62580115   -7.3980166    865.93456  0.018665601  0.017728401           42 
 3867000   0.63945358   -7.3722551    865.75727  0.018656954  0.017723089           39 
 3868000   0.63301581   -7.4102404    866.43446   0.01866672  0.017717784           28 
 3869000   0.62057437   -7.3999682    866.02499  0.018653075  0.017712473           47 
 3870000   0.62166758   -7.4144169    865.24974  0.018631562  0.017707155           59 
 3871000    0.6395279     -7.38939    864.47175  0.018610001  0.017701839           45 
 3872000   0.63879623   -7.4110478     863.3595  0.018581256  0.017696518           43 
 3873000   0.62836883   -7.3894974    865.47193  0.018621911  0.017691204           53 
 3874000   0.63984446     -7.38199    864.04958  0.018586508  0.017685901           31 
 3875000   0.63244242   -7.3955574    865.94887  0.018622556  0.017680602           25 
 3876000   0.62511268   -7.3907478    865.93861  0.018617531  0.017675307            8 
 3877000   0.64352854   -7.3985619     864.5794  0.018583514  0.017669996           43 
 3878000   0.63248838   -7.3999376    864.87471  0.018585068  0.017664698           46 
 3879000   0.62484741    -7.404589    864.15891  0.018564899  0.017659398           16 
 3880000   0.62743483   -7.4131998    865.50152   0.01858895  0.017654102           30 
 3881000   0.63662488   -7.4023646    867.28458  0.018622447  0.017648802           34 
 3882000   0.62407971    -7.406388    866.36366   0.01859788  0.017643515           49 
 3883000   0.63632093   -7.3883736    867.84927  0.018624974  0.017638232           20 
 3884000    0.6323682   -7.3939174    865.25272  0.018564468  0.017632932           41 
 3885000   0.63485314   -7.4027589    863.32107  0.018518255  0.017627621           46 
 3886000   0.62979997    -7.380924    865.06672  0.018550925  0.017622323           22 
 3887000   0.62514101   -7.4006261    866.07501  0.018567769  0.017617027           17 
 3888000    0.6399514   -7.3868484    864.08445  0.018520329  0.017611723           22 
 3889000   0.62107238   -7.3930956    864.49815  0.018524431  0.017606424           17 
 3890000   0.63725049   -7.4092434    865.49169  0.018540953  0.017601134           19 
 3891000   0.61046169   -7.4286673    863.38667  0.018491105  0.017595841           27 
 3892000   0.62943826   -7.4011318    865.10494  0.018523144  0.017590553           22 
 3893000   0.63366615    -7.410386    866.74528    0.0185535  0.017585276           28 
 3894000   0.63648196   -7.3881323    865.23011  0.018516309  0.017580005           44 
 3895000   0.61849406   -7.3965769      865.348  0.018514078  0.017574731           20 
 3896000   0.61635156   -7.3859356    865.51841  0.018512971  0.017569449           37 
 3897000   0.63499268   -7.3929551     865.8924  0.018516218  0.017564177           22 
 3898000    0.6243203   -7.4185283    865.26456  0.018498045  0.017558901           22 
 3899000   0.61567925    -7.382862    866.32784  0.018516026   0.01755362           14 
 3900000   0.62398974   -7.3903628    865.86949  0.018501485  0.017548339           14 
 3901000   0.64104335   -7.4050248    864.07651   0.01845844  0.017543061           16 
 3902000   0.62072133   -7.3995006    865.15799  0.018476806  0.017537781           28 
 3903000   0.61661146   -7.3929917    864.57466  0.018459618  0.017532492           18 
 3904000   0.62964447   -7.4145523    865.21544  0.018468567  0.017527208           55 
 3905000   0.63254931   -7.4163195    865.54044  0.018470773  0.017521916           17 
 3906000   0.62503609   -7.4319237    863.85117  0.018430004  0.017516625           30 
 3907000   0.62926952    -7.412734    863.19879  0.018411372  0.017511324           39 
 3908000   0.63896898   -7.4188607    864.78965  0.018440584  0.017506024           48 
 3909000   0.61830936   -7.4161221    864.21431  0.018423602  0.017500731           41 
 3910000   0.63151629   -7.4111693    865.24695  0.018440898  0.017495441           57 
 3911000   0.63380725   -7.4057925    864.28658   0.01841572  0.017490168           20 
 3912000   0.62146348    -7.421196    866.10184  0.018449681  0.017484887           15 
 3913000   0.62853867   -7.4192426      866.404  0.018451401  0.017479602           24 
 3914000   0.64257894   -7.4290631     864.9395  0.018415506  0.017474319           14 
 3915000   0.64663057   -7.4262897    865.41583  0.018420941  0.017469055           35 
 3916000   0.62827815   -7.4032725     865.8829  0.018426177  0.017463801           19 
 3917000    0.6067275   -7.4058351    865.08644  0.018404528  0.017458529           25 
 3918000   0.62156122   -7.3846663     864.9436  0.018396793   0.01745326           33 
 3919000   0.62935579   -7.4145568     865.1975  0.018397497  0.017447997           25 
 3920000   0.63317582   -7.3923572    864.74052  0.018383089  0.017442731           45 
 3921000   0.61864749   -7.3967928    863.78277  0.018358046  0.017437455           27 
 3922000   0.62317566   -7.4181644    863.71143  0.018351849  0.017432183           17 
 3923000   0.61296372   -7.3968303    864.02617  0.018353857  0.017426928           30 
 3924000    0.6139347   -7.4160611    865.13754  0.018372782  0.017421655           26 
 3925000   0.63185359   -7.4199498    863.87084  0.018341207  0.017416386           47 
 3926000   0.62418147   -7.4031308    864.36381  0.018346999  0.017411123           33 
 3927000   0.62338108   -7.4039911     863.5972  0.018326059  0.017405859           54 
 3928000   0.63045149   -7.4259879    864.39971  0.018338419  0.017400591           25 
 3929000   0.62624669   -7.4158464     865.6292  0.018359829  0.017395329           31 
 3930000   0.61677724   -7.3883897    864.50236  0.018331263   0.01739006           34 
 3931000   0.60698878   -7.4069383    864.39579  0.018324341  0.017384794           40 
 3932000   0.60100061   -7.4395983    863.02279  0.018290581  0.017379537           31 
 3933000   0.61428428   -7.4155867    864.60809  0.018319521  0.017374264           42 
 3934000   0.60781945   -7.4101583    864.87193  0.018320453  0.017368986           47 
 3935000   0.64257744   -7.4383844    863.82562  0.018293639  0.017363712           32 
 3936000   0.61791499   -7.4323307    863.23309  0.018276446  0.017358444           31 
 3937000   0.61679148    -7.429006    864.04391  0.018288966  0.017353179           33 
 3938000   0.62746585   -7.4135835    863.67314  0.018276476  0.017347909           28 
 3939000   0.62102732   -7.4227962    863.97188  0.018278156  0.017342644           18 
 3940000   0.62354054   -7.4329585    865.78679  0.018311903  0.017337372           31 
 3941000   0.62746023   -7.4322376    864.97255  0.018290039  0.017332104           25 
 3942000   0.61846778   -7.4339464    863.70641  0.018258634  0.017326838           25 
 3943000   0.63276149   -7.4484384    865.50915  0.018292103  0.017321588           32 
 3944000   0.59675081   -7.4323007    864.45814  0.018265258  0.017316328           45 
 3945000   0.62874867   -7.4353156    864.15459  0.018254216  0.017311074           40 
 3946000   0.61718434   -7.4477392     865.7326  0.018282915  0.017305825           33 
 3947000   0.62651469   -7.4440491    864.98327  0.018262462  0.017300571           50 
 3948000   0.61705856   -7.4133508     865.0308   0.01825884  0.017295329           34 
 3949000   0.61995749   -7.4363911    864.67094  0.018246622  0.017290088           27 
 3950000   0.62431325   -7.4084789    865.55038  0.018260557  0.017284849           27 
 3951000   0.61592425   -7.4209267    865.18702  0.018248271  0.017279612           53 
 3952000   0.62505465   -7.4083061    863.97936  0.018218188  0.017274376           31 
 3953000   0.63050203   -7.4316188    863.24719  0.018198145  0.017269144           51 
 3954000   0.60797137   -7.4256491    865.52908  0.018241635  0.017263911           74 
 3955000   0.62124806   -7.4355297    864.15452   0.01820806  0.017258665           36 
 3956000   0.60559573   -7.4120141    865.59474  0.018233795  0.017253429           26 
 3957000   0.61450759   -7.4211254    865.06288  0.018217987  0.017248195           28 
 3958000    0.6134265   -7.4203753    863.60482  0.018182685  0.017242958           27 
 3959000   0.59489292    -7.430517    864.76827  0.018202582  0.017237714           26 
 3960000   0.63141245    -7.458779    865.77095  0.018219086  0.017232475           29 
 3961000   0.60473585   -7.4196267    864.54612  0.018188717  0.017227227           36 
 3962000   0.63215034   -7.4220252    864.87893  0.018191127  0.017221986           47 
 3963000   0.62182286    -7.433606    862.99705  0.018146965  0.017216749           29 
 3964000   0.63179785    -7.425146    864.53271   0.01817467  0.017211517           21 
 3965000   0.60952803   -7.4374587    864.70493  0.018173706  0.017206295           18 
 3966000   0.63468441   -7.4276632     863.6892  0.018147781  0.017201074           26 
 3967000   0.61429876   -7.4349111     863.5655  0.018140608  0.017195845           87 
 3968000   0.62730711   -7.4539258    865.05103  0.018167234  0.017190618           27 
 3969000   0.62915423   -7.4387951    864.63834  0.018153992  0.017185383           23 
 3970000   0.61561312   -7.4453312     865.0309  0.018157659  0.017180163           17 
 3971000   0.61482968   -7.4386167    864.03644  0.018132218  0.017174942           16 
 3972000     0.597279    -7.422224    863.18298  0.018109747  0.017169717           29 
 3973000   0.62044202   -7.4379235    864.68949  0.018136788  0.017164507           18 
 3974000   0.61581545   -7.4382275    864.72525  0.018132974  0.017159294           14 
 3975000   0.61163236   -7.4331301    865.27714  0.018139982  0.017154093           24 
 3976000   0.60319168   -7.4362569    866.10613  0.018152794  0.017148889           34 
 3977000   0.62407394   -7.4262549    863.73304  0.018098505  0.017143689           26 
 3978000   0.61811774   -7.4131888    863.85534  0.018096517  0.017138482           22 
 3979000   0.60878346   -7.4126972    865.50459   0.01812651  0.017133278           22 
 3980000   0.61433424   -7.4178754    864.43451   0.01809955  0.017128082           24 
 3981000   0.61571578   -7.4173456    865.51017   0.01811752  0.017122887           12 
 3982000   0.62211922   -7.4363361    865.21491  0.018106791  0.017117686           18 
 3983000   0.60163876   -7.4398246    864.72648  0.018092026  0.017112494           12 
 3984000   0.63278187   -7.4201384    864.93439  0.018091834  0.017107299           25 
 3985000   0.61208342   -7.4340547    862.74451    0.0180415  0.017102106           21 
 3986000   0.62374387   -7.4353303    863.75279  0.018058053  0.017096911           28 
 3987000   0.61737261   -7.4198749    864.74158  0.018074191  0.017091724           23 
 3988000   0.61290408   -7.4367859    865.24266  0.018080129   0.01708654           30 
 3989000   0.61030954    -7.413745    865.24229  0.018075589  0.017081347           21 
 3990000   0.61551213   -7.4456726    863.77448  0.018040403  0.017076153           23 
 3991000   0.59831709   -7.4486926    863.92973  0.018039124  0.017070957           46 
 3992000   0.62005676   -7.4054775    863.91951  0.018034392  0.017065766           29 
 3993000   0.62973752   -7.4323177    864.25555  0.018036888  0.017060579           21 
 3994000   0.61354349   -7.4475289    864.42688  0.018035947  0.017055393           36 
 3995000   0.61377852   -7.4463346    863.98048  0.018022121  0.017050206           30 
 3996000   0.60945723   -7.4496008    865.00089  0.018038891   0.01704501           25 
 3997000   0.61222565   -7.4339416    864.64673  0.018026994  0.017039813           18 
 3998000   0.61428679   -7.4586637    863.75038  0.018003801  0.017034623           35 
 3999000   0.62789484   -7.4413841    864.36363  0.018012079  0.017029435           16 
 4000000   0.61977695   -7.4442156    863.66811  0.017993086  0.017024255           31 
 4001000   0.60793845   -7.4390269    863.09116  0.017976572  0.017019066           27 
 4002000   0.60744333   -7.4425698    863.34833  0.017977435  0.017013887           20 
 4003000   0.60662108   -7.4543243    865.45193  0.018016736  0.017008708           43 
 4004000   0.60818074   -7.4351507    865.52817  0.018013823  0.017003531           27 
 4005000   0.60702187   -7.4383758    864.36704  0.017985165  0.016998357           18 
 4006000   0.61189204   -7.4355975    865.51532  0.018004562  0.016993174           26 
 4007000   0.59729544   -7.4476097    864.72018  0.017983533     0.016988           42 
 4008000   0.61675829    -7.424504    865.25294  0.017990123  0.016982833           31 
 4009000   0.60112251   -7.4197551    864.75467  0.017975278  0.016977672           28 
 4010000   0.61087771   -7.4385205    865.52979  0.017986903  0.016972508           38 
 4011000   0.60995562   -7.4526759     865.3812  0.017979332  0.016967347           40 
 4012000   0.61405145   -7.4443468    863.42047  0.017934124  0.016962172           53 
 4013000   0.60764753   -7.4424928    864.09579  0.017943679  0.016956988           33 
 4014000   0.61451666   -7.4362473    862.46697  0.017905393  0.016951807           48 
 4015000   0.60597272    -7.433956    864.31958  0.017939385  0.016946626           33 
 4016000   0.59453258   -7.4687946    862.99719  0.017907478  0.016941449           47 
 4017000   0.59972785   -7.4604117    862.46977  0.017892079  0.016936276           38 
 4018000   0.61382567   -7.4469889    864.11164  0.017921678  0.016931115           28 
 4019000   0.60879269   -7.4713623    863.56616  0.017905909  0.016925952           25 
 4020000   0.61030873   -7.4604699    863.41852  0.017898394  0.016920791           26 
 4021000   0.61154672   -7.4448906    864.22718  0.017910702  0.016915626           20 
 4022000   0.62174477   -7.4431787    863.10093  0.017882913  0.016910461           37 
 4023000   0.59184399   -7.4453094    863.51287  0.017887001  0.016905298           21 
 4024000   0.59373303   -7.4544604    864.11008  0.017894924  0.016900129           29 
 4025000   0.61326637   -7.4708783    862.90763  0.017865582  0.016894956           26 
 4026000   0.60309749    -7.453841     863.4739  0.017872866  0.016889795           28 
 4027000   0.60701962   -7.4488314    864.49433  0.017889544  0.016884625           26 
 4028000   0.62414212   -7.4588771     862.1667  0.017836948  0.016879464           43 
 4029000     0.600398   -7.4566181    863.64442  0.017863085  0.016874301           20 
 4030000   0.62462948   -7.4413026    863.20276   0.01784952  0.016869134           34 
 4031000   0.61243114   -7.4465143    863.07816  0.017842515  0.016863973           30 
 4032000   0.60871416   -7.4625706    862.50157  0.017826173  0.016858806           24 
 4033000   0.60133172   -7.4692229    862.91756  0.017830349  0.016853637           34 
 4034000   0.60708394   -7.4770555    862.98873  0.017827399  0.016848478           41 
 4035000   0.59109039   -7.4634542    863.40809  0.017831642  0.016843313           20 
 4036000    0.5970434   -7.4495121    862.32471  0.017804855  0.016838153           49 
 4037000   0.61087984   -7.4741502    865.28337  0.017861518  0.016833007           28 
 4038000   0.60386672   -7.4538543    863.36115  0.017817425   0.01682786           25 
 4039000   0.59917929   -7.4564958    865.23307  0.017851635  0.016822722           46 
 4040000   0.60508039   -7.4645754    863.43598  0.017810148  0.016817582           52 
 4041000   0.60579804   -7.4711635    864.20197  0.017821537  0.016812435           31 
 4042000   0.61012479    -7.488847    863.46155  0.017801863  0.016807298           60 
 4043000   0.59768413   -7.4787009    863.69729  0.017802319   0.01680216           43 
 4044000   0.60145195     -7.45939    863.30618  0.017789857   0.01679702           39 
 4045000   0.61080426   -7.4661695    863.40464  0.017787487  0.016791885           45 
 4046000   0.60388161   -7.4452839    863.93071  0.017793926  0.016786754           60 
 4047000   0.61903618   -7.4485899    863.76161  0.017786047   0.01678162           28 
 4048000   0.58786475   -7.4441238    863.86543  0.017783791  0.016776489           50 
 4049000   0.60337089    -7.476079    863.23152  0.017766352  0.016771353           56 
 4050000   0.60404768   -7.4730833    864.44712  0.017786978  0.016766218           36 
 4051000   0.60507916    -7.471001    863.30587   0.01775911  0.016761078           39 
 4052000   0.60651234   -7.4850822    863.94974  0.017767969  0.016755948           24 
 4053000   0.59914925    -7.477505    863.80194  0.017760547  0.016750817           27 
 4054000   0.60183317   -7.4822939    863.59961  0.017752006  0.016745685           43 
 4055000    0.6049595    -7.455847    864.13457  0.017758622  0.016740566           30 
 4056000   0.60841426    -7.480825    863.13158  0.017733637   0.01673544           69 
 4057000   0.60933991     -7.46303     865.3643  0.017775127   0.01673034           41 
 4058000   0.59719633   -7.4843707    863.59851  0.017734486  0.016725231           61 
 4059000   0.60441925   -7.4700148    863.31056  0.017724205  0.016720121           37 
 4060000   0.60315954   -7.4649421    862.02557  0.017693464  0.016715007           29 
 4061000   0.59265566   -7.4621855    862.16919  0.017692054  0.016709888           55 
 4062000   0.60802981   -7.4598123    864.50419  0.017735602  0.016704777           37 
 4063000   0.60522492   -7.4829059    863.31182  0.017706781   0.01669966           80 
 4064000   0.59223426   -7.4803313     862.7439  0.017690779  0.016694546           65 
 4065000   0.60147018   -7.4515699    863.71459  0.017706326  0.016689436           42 
 4066000   0.59150874   -7.4783592    862.99768  0.017687278  0.016684331           64 
 4067000   0.59240527   -7.4722129    863.52733  0.017693782   0.01667922           40 
 4068000   0.59126018   -7.4719787    864.45143  0.017708363  0.016674114           55 
 4069000   0.58336168   -7.4692228    863.92259   0.01769318  0.016669005           42 
 4070000   0.57998199   -7.4707338    862.16907  0.017652929  0.016663887           57 
 4071000    0.6079249   -7.4788303    860.82754  0.017621132  0.016658778           99 
 4072000   0.59953884   -7.4684817    861.95585  0.017639895  0.016653669           41 
 4073000   0.58990308   -7.4754233    863.23501  0.017661736  0.016648569          101 
 4074000   0.60309188   -7.4635049    864.05463  0.017674166  0.016643457           50 
 4075000   0.60058262   -7.4672921    861.86307  0.017625012  0.016638355          112 
 4076000   0.60008144   -7.4734153    862.33422   0.01763032  0.016633246           74 
 4077000   0.59602206   -7.4678645    863.30878  0.017645916  0.016628147           90 
 4078000   0.60101188   -7.4716126    863.17694  0.017638894   0.01662305           69 
 4079000    0.6051569    -7.487433    862.33842  0.017617439  0.016617941           65 
 4080000   0.59504316   -7.4765616    863.26567   0.01763206  0.016612838           44 
 4081000   0.60832746   -7.4886464    862.68082  0.017615797  0.016607744           60 
 4082000   0.59860057   -7.4716011    863.10263  0.017620093  0.016602641           93 
 4083000   0.59890624   -7.4663136    862.68189   0.01760719  0.016597548           51 
 4084000    0.5909438    -7.485296    863.54474  0.017620485  0.016592454           67 
 4085000   0.61041078   -7.4860178     862.7835  0.017600643  0.016587359           83 
 4086000    0.6092193    -7.464193    863.67714  0.017614561  0.016582273           52 
 4087000   0.59631768   -7.4691241    862.70196  0.017590367   0.01657718           61 
 4088000   0.58779005   -7.4682551     863.8869  0.017610219  0.016572091           61 
 4089000   0.60051932   -7.4740203    862.48072  0.017577255  0.016566999           89 
 4090000   0.60613727    -7.449659    860.82227  0.017539166  0.016561912           57 
 4091000   0.60376107    -7.486436     862.9331  0.017577876  0.016556829           57 
 4092000   0.59700865    -7.477588    862.44692  0.017563679   0.01655174           59 
 4093000   0.58717516   -7.4710212    862.20805  0.017554525  0.016546647          137 
 4094000   0.60244991   -7.4788646    861.82679  0.017542477  0.016541559           68 
 4095000   0.59979116   -7.4721093    862.18654  0.017545514  0.016536472           52 
 4096000   0.59907356   -7.4921368    862.21999  0.017541911  0.016531385          128 
 4097000   0.58969002   -7.4642389    863.77121  0.017569181    0.0165263           74 
 4098000   0.57197271   -7.4520286    863.78516  0.017565177  0.016521226           82 
 4099000   0.58704364   -7.4780075    862.83677  0.017541611   0.01651615           75 
 4100000   0.57574066   -7.4510735    862.97088  0.017540059  0.016511073           89 
 4101000   0.59058897    -7.484793    864.36037  0.017564016  0.016505993          112 
 4102000   0.58856318   -7.4931618    862.41895  0.017520294  0.016500916          134 
 4103000   0.60663807   -7.4943041    861.71793  0.017501786  0.016495838          200 
 4104000   0.60101343   -7.4728428    861.74463  0.017498063  0.016490762           44 
 4105000   0.59404371   -7.4899998    864.01644   0.01753992  0.016485686           95 
 4106000   0.59569431   -7.5014033    864.49116  0.017545283  0.016480605           78 
 4107000   0.58289823   -7.4839844    861.32605  0.017476789  0.016475529          138 
 4108000   0.58945852    -7.512797    862.43156   0.01749496  0.016470452           87 
 4109000   0.59153284   -7.4928153    863.30924  0.017508502  0.016465374          175 
 4110000   0.59739902   -7.4925651     861.9363  0.017476405  0.016460299          117 
 4111000   0.57622977    -7.482374     860.6257  0.017445587  0.016455217          101 
 4112000   0.58200078    -7.481901    861.29923  0.017454994   0.01645014           95 
 4113000   0.60751186   -7.5065633    862.01595  0.017465272  0.016445065          118 
 4114000   0.59755227   -7.4995613    863.05769  0.017482128  0.016439996           57 
 4115000   0.60479404   -7.4940947    862.43728  0.017465315  0.016434927           54 
 4116000   0.59698031   -7.4932092    861.64683  0.017445069  0.016429856          114 
 4117000   0.60285563   -7.5010218    861.20064    0.0174318  0.016424785           51 
 4118000   0.57025606   -7.4959881    861.61448  0.017435941  0.016419717          100 
 4119000   0.59230726   -7.4969783    862.34176  0.017446422  0.016414651           61 
 4120000   0.58533673   -7.4922644    864.06291  0.017477001  0.016409588           78 
 4121000   0.59586911   -7.5025724    863.14507  0.017454199  0.016404525           68 
 4122000   0.59015119   -7.4863849    862.12241   0.01742929  0.016399462           99 
 4123000   0.58468358   -7.4976695    861.40818  0.017410627  0.016394409           61 
 4124000   0.58542944   -7.4797184    864.03278   0.01745944  0.016389359           79 
 4125000   0.58856976   -7.4797401    863.18083  0.017437997  0.016384309          177 
 4126000   0.59159666   -7.5055918     861.6876  0.017403611  0.016379248          127 
 4127000   0.59690278   -7.5052624    862.66348  0.017419099  0.016374198          241 
 4128000   0.58464807   -7.4839384     863.5682  0.017433144  0.016369153          244 
 4129000   0.59663772   -7.4792657    863.12799  0.017420037   0.01636411          100 
 4130000   0.58920011   -7.5049504    862.17336  0.017396557  0.016359067          146 
 4131000   0.58611141   -7.4997671    861.51941  0.017379154  0.016354022          188 
 4132000   0.58513303   -7.5074081    864.28894  0.017430803  0.016348981          192 
 4133000   0.59166544   -7.5125303    861.68432  0.017374069  0.016343934          151 
 4134000   0.58430938   -7.4981269    862.31181  0.017382515  0.016338887          159 
 4135000    0.5953382   -7.4895276    863.55545  0.017403375   0.01633385          120 
 4136000   0.58212763   -7.5177118    863.13998  0.017390796  0.016328814          138 
 4137000   0.60747414   -7.4978235    861.89264  0.017361466  0.016323778          162 
 4138000    0.5888975   -7.4969985     863.2786  0.017385182  0.016318736           98 
 4139000   0.57672131   -7.5029017    863.10689  0.017377524  0.016313701           79 
 4140000    0.5865344   -7.5050864    862.85803  0.017368318  0.016308663           91 
 4141000   0.58379109   -7.5147423    863.78121  0.017382702  0.016303629           66 
 4142000   0.59104281   -7.5071421    861.59933  0.017334607  0.016298593           88 
 4143000   0.59332836    -7.498824    863.86203  0.017375936  0.016293556           70 
 4144000   0.59351965   -7.5063011    862.79136  0.017350212  0.016288521          177 
 4145000   0.58261477   -7.4851142    862.87041  0.017347616  0.016283486          165 
 4146000   0.58142991   -7.5233599    861.72732  0.017320456  0.016278456          170 
 4147000    0.5857496   -7.5156591    861.83892  0.017318522  0.016273424          111 
 4148000   0.58401967   -7.5162044    862.51302  0.017327889  0.016268399          206 
 4149000   0.59680607   -7.5236531    861.39372  0.017301232  0.016263363          130 
 4150000   0.59030202   -7.5248833    861.37759  0.017296739  0.016258327          310 
 4151000   0.59260177    -7.511651    863.79899  0.017341183  0.016253295          144 
 4152000   0.58298539   -7.5053374     860.6444  0.017273691   0.01624826          110 
 4153000   0.60097721   -7.4975374    861.38763  0.017284446  0.016243224           92 
 4154000   0.59842851    -7.526531    862.10979  0.017294772   0.01623819          142 
 4155000   0.58298976   -7.5251558    861.26916   0.01727375  0.016233152          102 
 4156000   0.58088054   -7.5215285    861.51368  0.017274496  0.016228112          169 
 4157000    0.5995135   -7.5247368    863.21936  0.017304534  0.016223081           97 
 4158000   0.59890258   -7.5252956    862.22576  0.017280458  0.016218059          161 
 4159000   0.59532821   -7.4854147    862.16702  0.017275127  0.016213039           91 
 4160000    0.5998632   -7.5140818    861.16206  0.017250842  0.016208017          102 
 4161000   0.58914553   -7.5200255    860.22016  0.017227833  0.016202999          102 
 4162000   0.58657177   -7.5223093    860.93843  0.017238075  0.016197984          138 
 4163000   0.58270516   -7.5234799     861.1354  0.017237877  0.016192972          131 
 4164000   0.58221774   -7.5050707     862.7917  0.017266885  0.016187961          100 
 4165000    0.5901093   -7.5239738    860.70039  0.017220896  0.016182949          136 
 4166000   0.57743041   -7.5029897    860.22407  0.017207235  0.016177938          104 
 4167000   0.58858286   -7.5254581    859.82751  0.017195175  0.016172923           92 
 4168000   0.58254271   -7.4988691    861.35842  0.017221657  0.016167912          145 
 4169000   0.58105571   -7.5092587    861.72864  0.017224927  0.016162906           95 
 4170000   0.58842194   -7.5093545    862.44042   0.01723502   0.01615791           95 
 4171000   0.58294333   -7.5172497    861.07308   0.01720357  0.016152902          164 
 4172000   0.56768421   -7.5218073    861.63957  0.017210762  0.016147895           82 
 4173000   0.57826111   -7.5121269    860.68944  0.017187664  0.016142887          107 
 4174000   0.59589507   -7.4997682    861.71167  0.017203954  0.016137884          136 
 4175000    0.5851723   -7.4997004    860.60299  0.017177704  0.016132895           92 
 4176000   0.57149697   -7.4946115     861.9624  0.017200718  0.016127909           66 
 4177000   0.58464811   -7.4930914    860.75026  0.017172418  0.016122913          162 
 4178000   0.58300477   -7.5244105    862.32258  0.017199669  0.016117921          231 
 4179000   0.58881985   -7.5077118    860.61117  0.017161425  0.016112926          114 
 4180000   0.58924562   -7.5059465    861.55859  0.017176208  0.016107933           96 
 4181000   0.58130319   -7.5114705    862.25261  0.017185932  0.016102945           88 
 4182000   0.58480867   -7.5246388    862.50574  0.017186867  0.016097958          141 
 4183000   0.58586796   -7.5202791    860.85658  0.017149904  0.016092976          210 
 4184000     0.591366   -7.5034504    860.70435  0.017142773  0.016087991          132 
 4185000   0.56338982   -7.5238974    861.68043  0.017158113  0.016083015           92 
 4186000   0.58358697   -7.4930511    861.52458  0.017150911  0.016078035          103 
 4187000   0.59166622   -7.5020192    863.50097  0.017186151  0.016073061           98 
 4188000   0.59237294    -7.515752    861.35286  0.017139304  0.016068097           89 
 4189000   0.57552643   -7.4894454    862.51248  0.017158281  0.016063134          189 
 4190000   0.58009868   -7.5024878    863.50789  0.017173983  0.016058176          151 
 4191000   0.58573819   -7.5098331    862.72195  0.017154258  0.016053219          140 
 4192000   0.59158028   -7.5190866    861.57926   0.01712745  0.016048257          325 
 4193000   0.59157158   -7.5183058    861.41612  0.017120123  0.016043288          112 
 4194000   0.57790076   -7.5365807    861.29072  0.017113549  0.016038313          220 
 4195000   0.58485974   -7.5228989    860.81158  0.017099952  0.016033344          248 
 4196000     0.579901    -7.533103    860.30107  0.017085738  0.016028381          187 
 4197000    0.5852025   -7.5276929    860.60795   0.01708776  0.016023419          327 
 4198000   0.59041248   -7.5289196    862.49922  0.017121233  0.016018465          214 
 4199000   0.57174102   -7.5105064     860.3932  0.017075359  0.016013506          128 
 4200000    0.5817987   -7.5280443    860.88572  0.017081066  0.016008542          116 
 4201000   0.57285702    -7.511122    859.14354  0.017042441  0.016003582          221 
 4202000   0.58388756   -7.5287142     860.7665  0.017070572  0.015998626          132 
 4203000   0.58196581   -7.5254275    861.68023  0.017084627  0.015993664          222 
 4204000   0.58367048   -7.5154443    861.53087  0.017077602  0.015988706          122 
 4205000   0.57002357   -7.5463096    860.29485  0.017049046  0.015983745          224 
 4206000   0.59777899    -7.528155    862.00535  0.017078882  0.015978794          287 
 4207000   0.57329699   -7.5243514    860.23435  0.017039742   0.01597384          199 
 4208000   0.58168983   -7.5157462    862.71401  0.017084799  0.015968889           93 
 4209000   0.57869359   -7.5276958    861.56342   0.01705796  0.015963944          103 
 4210000   0.58889413   -7.5223729    860.76856  0.017038174  0.015959004           99 
 4211000   0.57727295   -7.5133625    862.13914  0.017061251  0.015954069          186 
 4212000   0.57677214   -7.5094601    860.26957  0.017020211  0.015949125          129 
 4213000   0.57593017   -7.5197576    860.14143  0.017013637   0.01594418          118 
 4214000   0.58054702   -7.5398285    861.13185  0.017029185  0.015939231          143 
 4215000   0.57693386   -7.5313864    861.65144  0.017035418   0.01593429          163 
 4216000   0.58654968   -7.5048275    861.25124  0.017023467  0.015929358          142 
 4217000   0.57404656   -7.5276071    861.97113  0.017033656  0.015924425          265 
 4218000   0.57853545   -7.5129545     860.5334  0.017001213  0.015919501          241 
 4219000   0.57060421   -7.5075114    861.73327  0.017020883   0.01591457          264 
 4220000   0.56772139   -7.5258545    862.92933  0.017040469  0.015909642          247 
 4221000   0.57725379    -7.530799    861.27956  0.017003861   0.01590471          311 
 4222000    0.5695862   -7.5274767    860.04628  0.016975491  0.015899777          155 
 4223000   0.57108774   -7.5183788    862.38119  0.017017547  0.015894848           99 
 4224000   0.57923867   -7.5208993    861.93628   0.01700474  0.015889925          255 
 4225000   0.57299444   -7.5216455     860.2131  0.016966728  0.015884994          247 
 4226000   0.57764722   -7.5479302    859.35275  0.016945748  0.015880062          216 
 4227000   0.57435038   -7.5265711    861.18933  0.016977946  0.015875131          200 
 4228000   0.58462438   -7.5378648     860.8483  0.016967209  0.015870198          194 
 4229000    0.5739728   -7.5288861    861.34376   0.01697296  0.015865264          193 
 4230000    0.5762889   -7.5443542     860.7618  0.016957482  0.015860332          120 
 4231000   0.57043324   -7.5254579    862.51648  0.016988034  0.015855406          275 
 4232000   0.58212732   -7.5354235    861.93226  0.016972516  0.015850478          176 
 4233000   0.56810091   -7.5317708     860.8507  0.016947214  0.015845547          386 
 4234000   0.57877934   -7.5305322    861.65749  0.016959091  0.015840624          235 
 4235000   0.58049643   -7.5264212    860.58248  0.016933933  0.015835703          439 
 4236000   0.57352116   -7.5528296    860.65615  0.016931385  0.015830792          309 
 4237000   0.58066509   -7.5312439     859.6897   0.01690838  0.015825872          332 
 4238000   0.56312296   -7.5521831    860.74282  0.016925099  0.015820963          188 
 4239000   0.56031762   -7.5361459     860.7734  0.016921707  0.015816055          317 
 4240000   0.57213733   -7.5305628    860.24361  0.016907304  0.015811142          440 
 4241000   0.59320837   -7.5526504    861.09508  0.016920048  0.015806229          359 
 4242000    0.5708587   -7.5346194    861.89354  0.016931745  0.015801316          487 
 4243000   0.58725106   -7.5241432    860.65593  0.016903447  0.015796408          442 
 4244000   0.57634659   -7.5394037    860.62644  0.016898885    0.0157915          493 
 4245000   0.58264472    -7.529465    858.48756  0.016852916  0.015786594          416 
 4246000    0.5737361   -7.5394494    860.53004  0.016889034   0.01578169          460 
 4247000   0.55573787   -7.5314997     860.3259  0.016881051   0.01577678          449 
 4248000   0.58044299   -7.5494549    859.61458  0.016863123  0.015771877          527 
 4249000   0.55869861   -7.5394846     859.3914  0.016854778  0.015766974          548 
 4250000   0.57017816   -7.5371213    860.01507  0.016863041  0.015762073          506 
 4251000   0.58184182   -7.5418943    859.82103   0.01685527  0.015757169          566 
 4252000   0.56771809   -7.5388426    860.84876  0.016871448  0.015752276          540 
 4253000   0.56617927    -7.526688    861.32157  0.016876745  0.015747388          492 
 4254000   0.57380491   -7.5423818    860.96521  0.016865797  0.015742504          526 
 4255000   0.57384659   -7.5313627     861.4022  0.016870392  0.015737611          491 
 4256000   0.56850676   -7.5429398    861.26741  0.016863789   0.01573272          504 
 4257000   0.58442933   -7.5453304    862.00076  0.016874183   0.01572783          455 
 4258000   0.56382928   -7.5371797    861.67654  0.016863875  0.015722943          324 
 4259000   0.57002408   -7.5337498    862.35648  0.016873219  0.015718061          398 
 4260000   0.57091496    -7.555751    860.32265  0.016829473  0.015713179          464 
 4261000   0.55623929    -7.522025    861.16884  0.016842072  0.015708294          494 
 4262000   0.56682608    -7.545681    860.08188  0.016816868  0.015703406          414 
 4263000   0.56831451   -7.5436295    859.74564   0.01680635  0.015698532          340 
 4264000   0.56514704   -7.5363829    861.23729   0.01683156   0.01569366          545 
 4265000   0.56628177   -7.5476602     861.1488  0.016825885  0.015688787          279 
 4266000    0.5688539   -7.5579008     861.9807  0.016838192   0.01568391          398 
 4267000    0.5669684   -7.5445453    860.79153  0.016811021  0.015679043          325 
 4268000   0.57491144    -7.529421    860.63858  0.016804096  0.015674181          472 
 4269000   0.57768196   -7.5416179    860.27672  0.016793096  0.015669312          567 
 4270000   0.56867814   -7.5365589    860.54258  0.016794352  0.015664451          243 
 4271000   0.57884936   -7.5445184    859.07417  0.016761769  0.015659584          413 
 4272000    0.5751253   -7.5453407    860.74665   0.01679047  0.015654718          425 
 4273000   0.56312371   -7.5620989    859.16092  0.016755615  0.015649854          305 
 4274000   0.56310088    -7.544156     860.5335  0.016778457  0.015644992          444 
 4275000    0.5717874    -7.532294    861.97701  0.016802671  0.015640137          484 
 4276000   0.56120949   -7.5823929    860.72353  0.016774313  0.015635287          463 
 4277000   0.56493515   -7.5602968    860.72957  0.016770508  0.015630429          477 
 4278000   0.56551329   -7.5539383    860.70065  0.016766025  0.015625571          203 
 4279000   0.57363998   -7.5517045    860.28775  0.016754065   0.01562071          477 
 4280000   0.56436971    -7.557154    858.63505  0.016717972  0.015615852          530 
 4281000   0.57405543   -7.5661569    860.22482  0.016745013  0.015610997          325 
 4282000   0.57234998   -7.5502526    859.32604  0.016723611  0.015606143          394 
 4283000     0.565245   -7.5551353    860.39935   0.01674059   0.01560129          458 
 4284000   0.56818764   -7.5492277     859.9089  0.016727142  0.015596438          473 
 4285000   0.57087866   -7.5476407    859.63965  0.016718002  0.015591582          385 
 4286000   0.56238729   -7.5478998    859.87656  0.016718707  0.015586734          458 
 4287000    0.5745036   -7.5703419    862.04463  0.016756952  0.015581891          433 
 4288000   0.57173952    -7.560029    862.82732  0.016768255  0.015577044          423 
 4289000   0.55973379    -7.556723    860.99586  0.016728761  0.015572199          343 
 4290000   0.55794269   -7.5413906     860.6892  0.016718904  0.015567363          464 
 4291000   0.58397233   -7.5542035    859.44675  0.016690879  0.015562524          356 
 4292000   0.55879578   -7.5740043    859.87148  0.016695237  0.015557685          444 
 4293000   0.57078963   -7.5364158    858.85185  0.016671556  0.015552848          319 
 4294000   0.55110811   -7.5443415    860.62141  0.016702015  0.015548009          383 
 4295000    0.5585718   -7.5549457    860.58394  0.016697399   0.01554317          356 
 4296000    0.5658994   -7.5538077    860.70799  0.016695919  0.015538333          435 
 4297000   0.55886665   -7.5706365    860.92499  0.016696241  0.015533508          358 
 4298000   0.55287579   -7.5605193     858.7905  0.016650971  0.015528674          383 
 4299000   0.56402152   -7.5585963    860.37118  0.016677739  0.015523845          321 
 4300000   0.56720476   -7.5649444    860.26346  0.016671772  0.015519018          313 
 4301000   0.57062122    -7.563766    861.60567  0.016693902  0.015514193          214 
 4302000   0.56007604   -7.5562155    860.10929  0.016661035   0.01550937          423 
 4303000   0.56761121   -7.5657613    860.52634   0.01666524  0.015504544          394 
 4304000   0.55937468    -7.582022     859.5591  0.016642641  0.015499722          253 
 4305000   0.55574475   -7.5538878     859.9333  0.016646018  0.015494906          412 
 4306000   0.56305079   -7.5764683    860.69527  0.016656899  0.015490088          378 
 4307000   0.55943995    -7.554368    860.07729  0.016641074  0.015485275          334 
 4308000   0.56293422   -7.5683742    859.62433   0.01662845  0.015480462          468 
 4309000    0.5757064   -7.5522038    859.45292  0.016621276  0.015475656          410 
 4310000   0.57275818   -7.5802473    861.33209  0.016653753   0.01547085          459 
 4311000   0.56121202   -7.5566853     860.2954   0.01662985  0.015466046          385 
 4312000   0.56599582   -7.5756584     860.9204  0.016638072  0.015461245          445 
 4313000   0.56771466   -7.5672693    861.52672  0.016645929  0.015456445          432 
 4314000   0.56148564   -7.5526625    860.92172  0.016630384  0.015451649          409 
 4315000   0.57299369   -7.5583588    859.79405  0.016604752  0.015446848          407 
 4316000   0.54644387   -7.5724197    860.35381  0.016611712  0.015442046          331 
 4317000    0.5590812   -7.5605977    861.56887  0.016631319  0.015437257          395 
 4318000   0.55879204   -7.5587754    859.73882  0.016592149  0.015432465          379 
 4319000   0.57506167   -7.5572331    860.75432  0.016607902  0.015427673          335 
 4320000   0.56304786   -7.5803811    860.57771   0.01660065   0.01542288          311 
 4321000   0.55847819   -7.5529246    860.83338  0.016601739  0.015418085          518 
 4322000   0.56330797   -7.5645536    859.68388  0.016575734  0.015413296          426 
 4323000   0.55521829   -7.5633026    859.10853  0.016560809  0.015408515          431 
 4324000   0.56116025   -7.5724509    861.21134  0.016597505  0.015403731          385 
 4325000   0.55744997   -7.5544395    860.66342   0.01658311  0.015398947          383 
 4326000    0.5637382   -7.5626995    861.54193    0.0165962  0.015394168          327 
 4327000   0.55657003   -7.5772374    860.97847  0.016581513  0.015389391          510 
 4328000   0.56080849   -7.5658297    860.91878  0.016576532  0.015384619          440 
 4329000   0.56647855   -7.5801397    861.16251  0.016577395  0.015379849          398 
 4330000   0.57208306   -7.5724707    859.12057  0.016534268  0.015375074          408 
 4331000   0.56720445   -7.5694899    859.69878  0.016541576  0.015370296          459 
 4332000   0.55394323   -7.5729612    860.11088  0.016545685  0.015365523          413 
 4333000   0.54797385   -7.5805193    861.81832  0.016574704  0.015360753          487 
 4334000   0.55407817   -7.5803013    861.47117  0.016564205  0.015355982          487 
 4335000   0.54831004   -7.5723481    860.27399   0.01653737  0.015351212          465 
 4336000   0.56727186   -7.5729508    860.51778  0.016538242   0.01534644          484 
 4337000   0.55591648   -7.5707588    861.78736  0.016558823  0.015341671          463 
 4338000    0.5616108   -7.5855099      859.989  0.016520459  0.015336901          571 
 4339000   0.55846213   -7.5741882    859.70376  0.016511173  0.015332148          474 
 4340000   0.57297642   -7.5804091    860.75924  0.016527635  0.015327388          521 
 4341000   0.56323044   -7.5797933    860.45383  0.016517965  0.015322633          469 
 4342000   0.56818314   -7.5688156    859.08255  0.016487843  0.015317872          316 
 4343000   0.54573069   -7.5703268    858.47449  0.016472379  0.015313111          447 
 4344000   0.54811583   -7.5721686    859.85246  0.016495021  0.015308355          467 
 4345000   0.54899072   -7.5732821    861.86427   0.01652981  0.015303602          454 
 4346000   0.55550212   -7.5667313    861.31351  0.016515446  0.015298848          308 
 4347000   0.55697191   -7.5730087    860.08277  0.016488052  0.015294085          479 
 4348000   0.56067871    -7.576413    860.63728  0.016494888   0.01528933          537 
 4349000   0.55743007   -7.5753228    860.32497  0.016485111  0.015284579          464 
 4350000   0.56060685   -7.5827314     860.5092  0.016484851  0.015279833          433 
 4351000    0.5505511   -7.5847834    858.76534  0.016447662  0.015275074          311 
 4352000   0.55060367    -7.559423    858.55527   0.01643986  0.015270317          502 
 4353000   0.56002124   -7.5769575    860.34104   0.01647027  0.015265562          442 
 4354000   0.55527013   -7.5709681    858.88457  0.016438611  0.015260811          522 
 4355000   0.56666269   -7.5875441    858.97659  0.016436598  0.015256058          468 
 4356000   0.56615437   -7.6100426    860.33448  0.016458802  0.015251303          505 
 4357000   0.55340492   -7.5930051    860.00741  0.016448768  0.015246549          598 
 4358000   0.55539183    -7.587318    859.92327  0.016443385  0.015241805          470 
 4359000   0.55469063   -7.5796329    859.17716  0.016425349  0.015237061          344 
 4360000    0.5538255   -7.5888147    858.30539   0.01640492  0.015232315          468 
 4361000   0.55233637    -7.581091    860.22871   0.01643791  0.015227573          453 
 4362000   0.55443864   -7.5636764    859.82093  0.016426351  0.015222834          478 
 4363000   0.55015745   -7.5761469     858.6905  0.016400995  0.015218095          414 
 4364000   0.55495613   -7.5772802     859.1093  0.016405234  0.015213356          369 
 4365000   0.55056913   -7.5954998    858.20396  0.016384192   0.01520862          443 
 4366000   0.55221547   -7.5646324     857.4115  0.016365313  0.015203886          361 
 4367000    0.5516432    -7.599663    858.80518  0.016388161  0.015199156          612 
 4368000   0.56054678   -7.5730095     858.7025   0.01638245  0.015194418          338 
 4369000   0.57027835   -7.5865684     858.4629   0.01637413  0.015189683          497 
 4370000   0.55317053   -7.6075004    859.20268   0.01638449   0.01518495          565 
 4371000   0.54593957   -7.5697286    859.98763  0.016395707   0.01518023          509 
 4372000   0.54697715    -7.576227    859.14121  0.016375824  0.015175499          496 
 4373000    0.5519535   -7.6045426    860.57604  0.016399422  0.015170774          619 
 4374000   0.54964134   -7.5797603    860.14918   0.01638754  0.015166052          623 
 4375000   0.55177515   -7.5811155    858.92079  0.016360396  0.015161331          628 
 4376000   0.55222641   -7.5993522    859.20773  0.016362122  0.015156614          578 
 4377000   0.55668918   -7.5906213    859.14659  0.016357219  0.015151894          604 
 4378000   0.55578104   -7.5754577     858.8551  0.016347935  0.015147164          553 
 4379000   0.55156863   -7.5791693    858.88299  0.016344732  0.015142445          598 
 4380000   0.53873114   -7.5799286    859.65276  0.016355646  0.015137724          469 
 4381000   0.55664511   -7.5806702    858.61661  0.016332204  0.015133012          530 
 4382000   0.55265794   -7.5758985    858.52129  0.016326664  0.015128298          559 
 4383000   0.54085606   -7.5924097    857.06647  0.016295278  0.015123584          611 
 4384000   0.54865385   -7.5836778      859.334  0.016334664  0.015118873          587 
 4385000   0.54355467   -7.5964929    857.89873  0.016303663  0.015114162          416 
 4386000   0.55682865   -7.5937652    859.89487  0.016337872  0.015109456          477 
 4387000   0.56027888   -7.5799345    858.48951  0.016307452  0.015104752          443 
 4388000   0.54429352   -7.5894652     857.8344  0.016291294  0.015100053          435 
 4389000   0.54510814   -7.5932172    859.48812  0.016318981   0.01509535          458 
 4390000   0.55386462   -7.5939263     858.6835   0.01629999  0.015090647          553 
 4391000   0.54879353   -7.5799182    859.31909  0.016308341  0.015085949          334 
 4392000    0.5519618   -7.5800474    859.68813   0.01631163   0.01508125          453 
 4393000   0.55139075   -7.5938559    859.42365    0.0163029   0.01507655          437 
 4394000   0.55389475   -7.5792397    860.28153  0.016315459  0.015071848          562 
 4395000   0.55407921   -7.6012465     859.8686  0.016303917  0.015067153          557 
 4396000   0.54595638   -7.5911367    859.33563  0.016290105  0.015062457          428 
 4397000   0.54386778   -7.5838242    859.66375  0.016292619  0.015057765          576 
 4398000   0.55667243   -7.5984701    858.84804  0.016273458  0.015053075          460 
 4399000   0.54413041   -7.5871108    858.68285   0.01626663  0.015048385          567 
 4400000   0.54454757   -7.5857021    858.78183  0.016264807  0.015043698          411 
 4401000   0.54962604   -7.5807927    857.90104  0.016244434  0.015039009          485 
 4402000   0.54359313   -7.6083322    859.16267  0.016264627  0.015034319          609 
 4403000   0.55041572   -7.6096762    858.13634  0.016241508  0.015029629          572 
 4404000    0.5403919   -7.6041605    858.94106  0.016253048  0.015024941          566 
 4405000    0.5386502   -7.5928574    859.34634  0.016257025  0.015020256          628 
 4406000    0.5574642   -7.5906118    859.36827   0.01625375  0.015015569          565 
 4407000   0.55874095   -7.6033741    858.86729  0.016240589  0.015010883          516 
 4408000   0.54984881   -7.6090159    858.63911   0.01623259  0.015006199          468 
 4409000   0.54320509   -7.6083284    860.06635  0.016255885  0.015001513          594 
 4410000   0.55849705    -7.609335    857.50676  0.016203831  0.014996831          655 
 4411000   0.53184124   -7.6014094    859.24065  0.016232915   0.01499215          502 
 4412000   0.54487258   -7.5947858    858.63202   0.01621774  0.014987471          618 
 4413000   0.54283747   -7.6063447    858.54214  0.016212368  0.014982796          635 
 4414000   0.53529401   -7.6021503    859.64134  0.016229447  0.014978118          524 
 4415000   0.55584811   -7.5923421    859.20049   0.01621745  0.014973442          613 
 4416000   0.54657108   -7.6057422    857.79805  0.016187312  0.014968767          466 
 4417000   0.54074956   -7.5944502    859.31976  0.016212357  0.014964094          474 
 4418000    0.5526955   -7.5898689    858.41975  0.016191711  0.014959423          588 
 4419000   0.55140384   -7.5804648    857.50087  0.016170719  0.014954753          462 
 4420000     0.544739   -7.6030304    857.89384  0.016174469  0.014950083          604 
 4421000   0.54202786   -7.5887015    858.97227  0.016191138  0.014945416          534 
 4422000   0.54350826    -7.586957    857.83027  0.016165956  0.014940751          553 
 4423000   0.55699371   -7.6062258     858.8148   0.01618085  0.014936088          560 
 4424000   0.54864275   -7.5889302    858.06859  0.016163136  0.014931421          475 
 4425000   0.55358088   -7.6237753    858.75349  0.016172382  0.014926759          515 
 4426000   0.54959169   -7.6092727    857.64328  0.016147825  0.014922096          530 
 4427000   0.54279132   -7.5903164     858.2442  0.016155489  0.014917433          607 
 4428000   0.55692884    -7.590737    857.51804  0.016138175  0.014912776          584 
 4429000   0.54063573   -7.6279581    858.07614  0.016145032  0.014908117          479 
 4430000   0.53249203   -7.6052729    860.07822  0.016179049  0.014903455          566 
 4431000   0.54222105   -7.6161302    859.16587  0.016158239  0.014898802          475 
 4432000   0.54856851   -7.5869872     859.3636  0.016158311  0.014894146          452 
 4433000   0.54609177   -7.6048648    858.30154  0.016134701  0.014889497          502 
 4434000   0.53899992   -7.6181494    858.89298  0.016142178  0.014884848          494 
 4435000   0.54121962   -7.6123027    857.27973  0.016108225  0.014880197          409 
 4436000   0.54635809   -7.5995602    858.26059   0.01612302   0.01487555          496 
 4437000   0.54417076   -7.6055258     858.8187  0.016129868  0.014870903          393 
 4438000   0.55313529   -7.6111314    859.38116  0.016136795  0.014866261          572 
 4439000   0.53450286   -7.5948956    858.41107  0.016114948  0.014861624          531 
 4440000   0.53686923   -7.6202281     858.2556  0.016108401  0.014856982          568 
 4441000   0.53939883   -7.6133307    858.22287   0.01610416  0.014852345          597 
 4442000   0.53384135   -7.6170304    857.58362  0.016088542  0.014847706          493 
 4443000     0.548356    -7.604806    858.24483  0.016097322  0.014843071          541 
 4444000    0.5429132   -7.6164272    858.92169  0.016106392  0.014838439          625 
 4445000   0.53840963   -7.6327114    859.17646  0.016107545  0.014833811          657 
 4446000   0.54987625   -7.6022235    858.22085  0.016086011  0.014829181          626 
 4447000   0.53574638   -7.6050709    857.73109  0.016073216  0.014824553          584 
 4448000   0.54813724   -7.6095818    858.23688  0.016079078  0.014819925          622 
 4449000   0.54078218   -7.5932869    858.02334  0.016071464  0.014815302          536 
 4450000   0.54388623   -7.6178488    860.03342  0.016105495  0.014810682          536 
 4451000   0.53959166   -7.6048144    857.79435  0.016059956  0.014806061          475 
 4452000   0.53938864   -7.6087553    858.97016  0.016078357  0.014801441          630 
 4453000   0.53933803   -7.6029813    858.67325   0.01606919  0.014796825          492 
 4454000   0.53014759   -7.6251951    860.00489  0.016090497  0.014792209          406 
 4455000   0.53210416   -7.5988504    858.54256  0.016059532  0.014787599          505 
 4456000   0.53556189   -7.6139718    858.58446  0.016056711  0.014782986          623 
 4457000   0.53412202   -7.6137422    858.21728  0.016046243  0.014778376          600 
 4458000   0.53283068    -7.607863    857.55486  0.016030261  0.014773766          576 
 4459000   0.53878244    -7.598244    858.26729  0.016039981  0.014769163          615 
 4460000   0.53529252   -7.6207682    857.79603  0.016027579  0.014764559          611 
 4461000   0.53911221   -7.5988309    858.27995  0.016033026  0.014759954          644 
 4462000   0.53746555   -7.6064661    858.40505  0.016031769  0.014755354          574 
 4463000   0.54115697   -7.6033707    857.51202  0.016011502  0.014750751          518 
 4464000   0.54284833   -7.6208384    857.12774  0.016000742   0.01474615          445 
 4465000   0.53166749   -7.6167016    858.98397  0.016031802  0.014741555          552 
 4466000   0.54329017    -7.612355    857.68436  0.016003962  0.014736963          609 
 4467000   0.53419113   -7.6121657    859.88471  0.016041428  0.014732374          585 
 4468000   0.53224396   -7.6020001    858.60462  0.016013963  0.014727779          601 
 4469000   0.53648642    -7.619304    858.43944  0.016007299   0.01472319          537 
 4470000   0.54344187   -7.6051353    859.44044   0.01602238  0.014718605          544 
 4471000   0.53262951   -7.6020268    858.05382  0.015992951  0.014714018          456 
 4472000   0.53203291   -7.6019846    859.07741  0.016008449  0.014709433          494 
 4473000   0.53347067    -7.602266     858.6981  0.015997804  0.014704851          618 
 4474000   0.53837798   -7.6057573    857.73038  0.015976203  0.014700273          642 
 4475000   0.53492806   -7.6004244    857.11454  0.015961165  0.014695687          597 
 4476000   0.51323516   -7.6118231    858.35865  0.015980761  0.014691108          580 
 4477000   0.54253043   -7.5976568    858.35491  0.015977122  0.014686531          614 
 4478000   0.55166565   -7.5937917    858.23394  0.015971303  0.014681953          621 
 4479000   0.54114007   -7.5961908    857.08682  0.015946395  0.014677373          574 
 4480000   0.52498391   -7.6342464    857.85143  0.015957058  0.014672797          561 
 4481000   0.53033651   -7.6207525      857.901  0.015954419   0.01466822          585 
 4482000   0.53853011   -7.6178729    858.89968  0.015969427  0.014663646          650 
 4483000   0.53964053   -7.6167463    856.77329  0.015926338  0.014659074          641 
 4484000   0.53398441     -7.60916    858.28545  0.015950889  0.014654512          684 
 4485000   0.53276483   -7.6090786      858.348  0.015948495  0.014649944          531 
 4486000   0.52844347   -7.6407147    859.25648  0.015961816   0.01464538          613 
 4487000   0.53619683   -7.6168014    858.61259    0.0159463  0.014640818          598 
 4488000   0.54331739   -7.6162962    858.25731   0.01593615  0.014636261          505 
 4489000   0.55650084   -7.5999329    857.47585  0.015918093  0.014631702          667 
 4490000   0.53842987   -7.6237042    858.11452  0.015926402  0.014627142          682 
 4491000   0.53813947   -7.6177675     857.7542  0.015916169  0.014622586          500 
 4492000   0.53860068   -7.6265807     859.2434  0.015940253  0.014618032          615 
 4493000   0.53413673   -7.6346573     858.9833  0.015931881  0.014613475          590 
 4494000   0.53661953   -7.6331126    857.43981  0.015899715  0.014608922          548 
 4495000   0.53141008   -7.5954186    858.93825  0.015923957  0.014604374          446 
 4496000   0.52839543   -7.6161874    857.57531  0.015895153  0.014599825          592 
 4497000   0.53900515   -7.6352998    858.04571  0.015900336  0.014595276          615 
 4498000   0.51977555   -7.6311247    856.58974  0.015869826  0.014590722          612 
 4499000   0.54536013   -7.6166607    857.01798  0.015874231  0.014586177          598 
 4500000   0.53432903   -7.6294316    857.84712  0.015886058  0.014581626          519 
 4501000   0.52171226   -7.6299176    859.09161  0.015905569  0.014577077          598 
 4502000   0.52867213   -7.6257726    859.01971  0.015900705  0.014572532          600 
 4503000   0.54205403   -7.6175105    856.92073   0.01585833  0.014567991          605 
 4504000   0.53408266   -7.6117259    858.08244  0.015876303  0.014563453          557 
 4505000   0.53248741   -7.6122636     857.3105    0.0158585  0.014558911          583 
 4506000   0.53372657   -7.6220853    856.87599  0.015846945   0.01455437          608 
 4507000   0.54054399   -7.6248263    855.83865  0.015824248  0.014549833          598 
 4508000    0.5342105   -7.6015095    857.87921  0.015858459  0.014545302          616 
 4509000   0.53599464    -7.621872    856.75257   0.01583412   0.01454077          464 
 4510000   0.51768089   -7.6340646    857.29709  0.015840671  0.014536239          625 
 4511000   0.52818774   -7.6291534    857.70439  0.015844683  0.014531709          643 
 4512000   0.54458296    -7.617847     858.7715   0.01586088  0.014527179          523 
 4513000   0.53078269   -7.6097899    857.62704  0.015836233  0.014522653          582 
 4514000   0.53369686   -7.6142448    858.37084  0.015846456  0.014518127          535 
 4515000   0.52654867    -7.629121    855.06573  0.015781944  0.014513605          617 
 4516000   0.52911798   -7.6197952    856.64622  0.015807614  0.014509083          578 
 4517000    0.5184555   -7.6270835    857.98958  0.015828898   0.01450456          589 
 4518000   0.52218321   -7.6376042    857.38838  0.015814305  0.014500042          630 
 4519000   0.52647396   -7.6285146    858.08192  0.015823595  0.014495525          619 
 4520000   0.54944335   -7.6299539    857.92906  0.015817276  0.014491012          489 
 4521000   0.53021901   -7.6216485     858.4573  0.015823514  0.014486502          617 
 4522000    0.5231687   -7.6226707    856.82068  0.015789855  0.014481986          565 
 4523000   0.52541799   -7.6208185    856.78295  0.015785669   0.01447748          625 
 4524000   0.53155542   -7.6163713     857.9393   0.01580348  0.014472975          607 
 4525000   0.53364754   -7.6307638    857.07646  0.015784097  0.014468468          651 
 4526000   0.52086728   -7.6360364    858.07185  0.015798937  0.014463965          608 
 4527000   0.51315017   -7.6249775    858.09659  0.015795902  0.014459463          608 
 4528000   0.52054115   -7.6066516     856.6409  0.015765623  0.014454959          636 
 4529000   0.53150558   -7.6259607    857.89157  0.015785154   0.01445046          587 
 4530000   0.52929849   -7.6145622    857.72433  0.015778593   0.01444596          605 
 4531000   0.53821113   -7.6333189    857.97109  0.015779649  0.014441464          683 
 4532000   0.52923868   -7.6181695    857.59358  0.015769226  0.014436969          609 
 4533000   0.53870744   -7.6132838    857.34186   0.01576112  0.014432477          585 
 4534000   0.52643266   -7.6440414    857.39452  0.015758611   0.01442799          623 
 4535000   0.53554301   -7.6343102    856.80859  0.015744369  0.014423499          562 
 4536000   0.53121628   -7.6242318    857.63581  0.015756096  0.014419011          590 
 4537000   0.53196678   -7.6288653    856.04842  0.015723467  0.014414522          492 
 4538000   0.53397943   -7.6267751    857.16337  0.015740476  0.014410031          635 
 4539000    0.5359795   -7.6307717    857.16716  0.015737078  0.014405546          485 
 4540000   0.53058727   -7.6004637    857.63391  0.015742179  0.014401062          637 
 4541000   0.52990519   -7.6343934    857.75653  0.015740962  0.014396581          705 
 4542000   0.53446354    -7.630444    858.37249  0.015748798  0.014392102          598 
 4543000   0.52925565   -7.6276548    858.40651  0.015745956  0.014387628          688 
 4544000   0.51493191   -7.6374071    857.55349  0.015726847  0.014383152          610 
 4545000   0.52903874    -7.638183    856.88337    0.0157111  0.014378681          624 
 4546000   0.52342309   -7.6215785    858.32733  0.015734113  0.014374209          580 
 4547000   0.51548252   -7.6302714    856.76633  0.015702044  0.014369735          672 
 4548000   0.51752018    -7.636033    857.07148  0.015704183  0.014365264          667 
 4549000   0.51860443   -7.6440614    857.30496  0.015705008  0.014360796          637 
 4550000   0.53219656   -7.6356729    857.53246  0.015705723  0.014356331          513 
 4551000   0.52980446   -7.6233158    857.09901  0.015694335  0.014351865          533 
 4552000   0.52353112    -7.645332    856.94904  0.015688141  0.014347402          568 
 4553000    0.5252005   -7.6267115    856.94154  0.015684559  0.014342938          631 
 4554000    0.5281661   -7.6374346    857.99394  0.015700372  0.014338473          647 
 4555000   0.51202978   -7.6331679    858.19208   0.01570055  0.014334013          638 
 4556000   0.52084536   -7.6536206    857.53444  0.015685075  0.014329548          661 
 4557000   0.52127897   -7.6373557    858.40191  0.015697497  0.014325089          672 
 4558000   0.52317583   -7.6527462    857.50209  0.015677601  0.014320627          644 
 4559000   0.53635814   -7.6300676    856.90056  0.015663167  0.014316171          527 
 4560000   0.53181274   -7.6308613    856.62131  0.015654629  0.014311714          650 
 4561000   0.52654428   -7.6368695    857.96913  0.015675823  0.014307257          616 
 4562000   0.53073487   -7.6325196    856.36798  0.015643139  0.014302802          579 
 4563000   0.51251853   -7.6190146    856.58961  0.015643758  0.014298347          655 
 4564000   0.52199142   -7.6370045     855.7981  0.015625878  0.014293896          661 
 4565000   0.51071457   -7.6473072    857.40056  0.015651708   0.01428944          588 
 4566000   0.53050083   -7.6463882    856.93929  0.015639861  0.014284988          665 
 4567000   0.51155126   -7.6681913    857.13387  0.015639987  0.014280536          635 
 4568000   0.52184421   -7.6410133    856.63475  0.015627458  0.014276088          622 
 4569000   0.52595063   -7.6334482    857.56466  0.015640998  0.014271645          587 
 4570000   0.53469769   -7.6312773    855.37694  0.015597683  0.014267202          634 
 4571000   0.51519984   -7.6425374    857.24299   0.01562829  0.014262764          685 
 4572000     0.513348   -7.6235009    856.65946  0.015614236  0.014258326          651 
 4573000   0.52320317   -7.6468613    856.34635  0.015605116  0.014253886          666 
 4574000   0.51816803   -7.6446295    856.23841  0.015599738  0.014249444          689 
 4575000   0.51285283   -7.6490474    857.56533  0.015620498  0.014245011          682 
 4576000   0.51425798   -7.6484125    858.01782  0.015625325   0.01424058          665 
 4577000   0.50911887   -7.6363167    858.12417  0.015623847  0.014236147          656 
 4578000   0.51305031    -7.650149    856.88747  0.015597922  0.014231719          662 
 4579000   0.52503028   -7.6614228     857.2716  0.015601507  0.014227292          706 
 4580000   0.51908578   -7.6410934    857.10985  0.015595157  0.014222862          686 
 4581000    0.5302813   -7.6285433    856.16119  0.015574496  0.014218437          640 
 4582000   0.50848103   -7.6494944    857.10136  0.015588196  0.014214011          648 
 4583000   0.51926398   -7.6614013    857.76454  0.015596853  0.014209585          651 
 4584000   0.52232106   -7.6429089    856.06469  0.015562549  0.014205157          687 
 4585000   0.51301536   -7.6332574    857.37993  0.015583059  0.014200728          725 
 4586000   0.50658135   -7.6509167    856.94614  0.015571779  0.014196307          761 
 4587000   0.51434431   -7.6456266    857.14953  0.015572079  0.014191887          712 
 4588000   0.51446661   -7.6389354     856.9657  0.015565346  0.014187473          620 
 4589000   0.51460552   -7.6482077    857.26634  0.015567414  0.014183062          680 
 4590000   0.51353709    -7.635367     857.0423  0.015559955  0.014178661          649 
 4591000   0.52350852   -7.6364351    856.49767   0.01554668  0.014174253          679 
 4592000   0.52929967   -7.6422387     855.5846  0.015526724  0.014169847          729 
 4593000   0.51433295   -7.6254402    856.87319  0.015546723  0.014165438          622 
 4594000    0.5132431   -7.6523321    857.33912  0.015551791  0.014161027          692 
 4595000   0.51585137   -7.6399485    855.95037   0.01552322  0.014156626          713 
 4596000    0.5241341   -7.6587007     856.0504  0.015521657  0.014152219          652 
 4597000     0.520638   -7.6431489     855.7792  0.015513364  0.014147818          635 
 4598000   0.51558078   -7.6447303      856.055  0.015514988  0.014143417          595 
 4599000   0.52706518   -7.6539279    857.05836  0.015529796  0.014139019          708 
 4600000   0.51728767   -7.6389312    856.80667   0.01552186  0.014134625          723 
 4601000   0.51611599   -7.6336077    858.57379  0.015550493  0.014130229          675 
 4602000   0.51314221   -7.6468737    857.16133  0.015521537  0.014125842          678 
 4603000   0.51732273   -7.6369507    855.99207  0.015496996  0.014121449          638 
 4604000   0.51195416   -7.6512486    856.54498  0.015503638   0.01411706          731 
 4605000   0.51677112   -7.6406863    855.97295  0.015489919  0.014112672          640 
 4606000   0.50077756   -7.6523862    856.59966  0.015497895  0.014108282          720 
 4607000   0.51170384   -7.6360593    856.94856  0.015500842  0.014103898          637 
 4608000   0.51507759   -7.6535193    856.15514   0.01548313  0.014099509          651 
 4609000   0.51751616   -7.6592429    856.06935  0.015478219  0.014095121          672 
 4610000   0.51661476   -7.6296312    856.31402  0.015479285  0.014090738          721 
 4611000   0.51031081   -7.6492381    857.38482   0.01549528  0.014086358          712 
 4612000   0.52491175   -7.6452891    856.96886  0.015484404  0.014081983          670 
 4613000   0.52033194   -7.6506231    855.61237  0.015456542  0.014077606          713 
 4614000   0.51487739   -7.6370413    856.69898  0.015472818  0.014073233          639 
 4615000    0.5078648   -7.6612488    857.14962  0.015477602  0.014068861          647 
 4616000   0.51611274   -7.6318927    856.79305  0.015467812  0.014064492          653 
 4617000   0.51410353   -7.6617131    856.88821  0.015466179  0.014060121          662 
 4618000   0.52052576   -7.6593572    855.69928  0.015441376  0.014055749          663 
 4619000   0.51945302   -7.6464602     856.9675  0.015460913  0.014051385          592 
 4620000   0.51543236   -7.6567719     857.8199  0.015472942  0.014047021          639 
 4621000   0.51613183   -7.6287538    856.55607  0.015446802  0.014042659          682 
 4622000   0.51662775   -7.6582685    856.87753  0.015449256  0.014038294          669 
 4623000   0.51196603   -7.6607424    856.78653  0.015444274  0.014033932          654 
 4624000   0.50783229   -7.6475948    856.04228  0.015427521  0.014029571          699 
 4625000   0.51168911   -7.6491172      855.828  0.015420324  0.014025213          718 
 4626000   0.50332561   -7.6306014    855.57412  0.015412418  0.014020857          611 
 4627000   0.51057775   -7.6351578    857.88745   0.01545075  0.014016507          687 
 4628000   0.50825994   -7.6439007    857.75916  0.015445102  0.014012154          640 
 4629000   0.49689668   -7.6430003    856.30516  0.015415589  0.014007804          703 
 4630000   0.51928828   -7.6681281    857.57342  0.015435087  0.014003454          603 
 4631000   0.52355505   -7.6511506    856.68632  0.015415791  0.013999104          661 
 4632000   0.50678742   -7.6277691    856.12127  0.015402297  0.013994754          673 
 4633000   0.52054763   -7.6378273    855.65532  0.015390591  0.013990406          696 
 4634000    0.5112246   -7.6569552    857.08201  0.015412926  0.013986066          698 
 4635000   0.51316988   -7.6658035    857.42133  0.015415702  0.013981723          696 
 4636000   0.51529375   -7.6513303    856.42654  0.015394495  0.013977382          695 
 4637000   0.52226454   -7.6395226    856.46589  0.015391882  0.013973038          661 
 4638000   0.51182682   -7.6424941    856.92039   0.01539673  0.013968699          565 
 4639000   0.51757654   -7.6602163    857.64049  0.015406346  0.013964361          575 
 4640000   0.49287533   -7.6587553    856.23762  0.015377831  0.013960027          663 
 4641000   0.51137377   -7.6468144    856.93067  0.015386962  0.013955689          531 
 4642000   0.50254534   -7.6542513    855.86881  0.015364584  0.013951356          700 
 4643000   0.51644147   -7.6499875    855.65573  0.015357451  0.013947021          698 
 4644000   0.50564117   -7.6563642    856.75351  0.015373843  0.013942682          683 
 4645000    0.5044522   -7.6585878    859.17343  0.015413947  0.013938347          538 
 4646000   0.49996467   -7.6490364    857.65969  0.015383478  0.013934015          669 
 4647000   0.50995024   -7.6639777    856.12436  0.015352635  0.013929683          742 
 4648000    0.4967803   -7.6519086    854.61456  0.015322263  0.013925349          554 
 4649000   0.49545911    -7.660332     856.9582  0.015360977  0.013921022          685 
 4650000   0.50085611   -7.6641859    856.34387  0.015346664   0.01391669          718 
 4651000   0.51225434   -7.6618902    856.65894   0.01534901  0.013912368          757 
 4652000   0.50190079   -7.6405662    856.06438   0.01533506  0.013908042          713 
 4653000   0.50633264   -7.6448737    854.78459  0.015308844  0.013903713          787 
 4654000   0.51344633   -7.6706566    856.00355   0.01532738  0.013899389          806 
 4655000      0.51198   -7.6649831    855.89205  0.015322092  0.013895064          744 
 4656000     0.502273   -7.6680346     855.6442  0.015314365  0.013890744          763 
 4657000   0.50370828   -7.6532361    857.28152  0.015340375  0.013886426          559 
 4658000    0.5063793    -7.669575    855.88034  0.015312014  0.013882108          837 
 4659000    0.5063246   -7.6672247    856.45768  0.015319054  0.013877796          813 
 4660000   0.49507555   -7.6642698    855.67691  0.015301805  0.013873481          757 
 4661000    0.5028069   -7.6569148    856.87208   0.01531989  0.013869167          755 
 4662000   0.49637447   -7.6704664     856.6185  0.015312071  0.013864859          733 
 4663000   0.50448382   -7.6577123     856.1066  0.015299639  0.013860552          571 
 4664000   0.51043203   -7.6398444    855.79371  0.015290768  0.013856247          813 
 4665000    0.5084508   -7.6602417    855.50693  0.015282367  0.013851945          757 
 4666000   0.50345963   -7.6551406    856.50104  0.015296847  0.013847644          727 
 4667000   0.50778452   -7.6615798    855.30382  0.015272192   0.01384334          791 
 4668000    0.4989006   -7.6643318    856.18509  0.015284652  0.013839037          818 
 4669000   0.51428032   -7.6773463    855.01338  0.015260466  0.013834738          774 
 4670000   0.50677951    -7.656741    857.21955  0.015296566  0.013830442          861 
 4671000   0.49556984    -7.666233    855.32362  0.015259467  0.013826144          757 
 4672000   0.49629723    -7.668827    856.04078  0.015268992  0.013821845          847 
 4673000   0.50172949   -7.6414388    855.36242  0.015253628  0.013817548          802 
 4674000   0.51577508   -7.6552063    854.73904   0.01523925  0.013813254          798 
 4675000    0.5105387    -7.672742    855.61418   0.01525159  0.013808961          766 
 4676000   0.51091239   -7.6590026    855.20958  0.015241117  0.013804667          716 
 4677000   0.51242433   -7.6582087    854.78598  0.015230311  0.013800381          773 
 4678000   0.51051064    -7.651334    855.72728  0.015243824   0.01379609          793 
 4679000   0.50643878   -7.6778285    855.73715  0.015240742  0.013791803          812 
 4680000   0.50836191   -7.6720649    855.45255  0.015232417  0.013787518          778 
 4681000   0.51258028     -7.65248    854.81365  0.015217789  0.013783237          800 
 4682000   0.49505739   -7.6778721    856.37662  0.015242358  0.013778955          807 
 4683000   0.49482287   -7.6697715    854.85206  0.015211973  0.013774674          758 
 4684000   0.48875777   -7.6616765    856.05058  0.015230049  0.013770395          788 
 4685000   0.50166849   -7.6809263    857.04989  0.015244573  0.013766118          792 
 4686000   0.50306974   -7.6447966    856.59982  0.015233316  0.013761844          764 
 4687000   0.50575958   -7.6625075    855.63803  0.015212965  0.013757569          774 
 4688000   0.50470786   -7.6609798    855.98264  0.015215846  0.013753303          757 
 4689000   0.51159038   -7.6768198    855.31897  0.015200806  0.013749032          816 
 4690000   0.49168697    -7.674489    855.24755  0.015196296  0.013744758          733 
 4691000   0.49511354    -7.668695    855.16637  0.015191615  0.013740487          759 
 4692000   0.51768135   -7.6674747    854.71248  0.015180315  0.013736218          768 
 4693000    0.4928417   -7.6711021    855.50338  0.015191125  0.013731951          785 
 4694000   0.50772507   -7.6679331    855.73999  0.015192089  0.013727683          715 
 4695000   0.49502622    -7.691039    856.15021  0.015196134  0.013723421          818 
 4696000   0.49281104   -7.6627764     854.9307  0.015171257  0.013719159          738 
 4697000   0.49076272   -7.6771612    855.04861  0.015170119    0.0137149          777 
 4698000   0.50052591   -7.6537657    854.63238  0.015159507  0.013710641          752 
 4699000   0.49812314   -7.6704191    855.09844  0.015164546  0.013706377          657 
 4700000   0.50121112   -7.6792223    856.26637  0.015182028  0.013702123          791 
 4701000   0.49685255   -7.6582464    854.98736  0.015156126  0.013697866          743 
 4702000    0.4919077   -7.6836703    854.05487  0.015136376  0.013693616          751 
 4703000    0.5057923   -7.6673163    856.41357  0.015174952  0.013689364          552 
 4704000   0.51377312    -7.661627    855.01786     0.015147  0.013685112          713 
 4705000   0.49984178   -7.6897072    855.96862   0.01516062  0.013680863          714 
 4706000   0.49389477   -7.6754043    855.32285  0.015145963  0.013676611          735 
 4707000   0.50646378   -7.6764192    856.30684  0.015160166  0.013672364          747 
 4708000     0.500124   -7.6722383    853.84485  0.015113368  0.013668117          761 
 4709000   0.50118115    -7.666773    855.28261  0.015135602  0.013663872          794 
 4710000   0.49696748   -7.6776257    855.38533  0.015134206  0.013659629          747 
 4711000   0.50562259   -7.6636161    855.11939  0.015126289  0.013655387          782 
 4712000   0.49201594   -7.6573029    854.64124  0.015114623  0.013651145          759 
 4713000   0.49846375   -7.6663964    855.14304  0.015120289  0.013646908          768 
 4714000   0.48419016   -7.6684812    856.13844  0.015134678  0.013642674          747 
 4715000   0.49860936   -7.6660492    855.44984  0.015119297  0.013638438          726 
 4716000   0.50560357   -7.6797973    856.43998  0.015133587  0.013634207          716 
 4717000   0.49627186   -7.6717823    855.36874  0.015111454  0.013629979          755 
 4718000   0.49149073   -7.6795493    855.67374  0.015113638  0.013625751          755 
 4719000   0.49236501   -7.6892264     855.2698  0.015103302  0.013621522          748 
 4720000     0.504804   -7.6730532    855.36005  0.015101696  0.013617293          755 
 4721000   0.49045892   -7.6742217    855.44329  0.015099966  0.013613068          820 
 4722000   0.49879306   -7.6783201    855.45514  0.015096978  0.013608843          801 
 4723000   0.49207122   -7.6806378     855.5525  0.015095499  0.013604618          786 
 4724000   0.50268986   -7.6718723    853.94893  0.015064016  0.013600393          785 
 4725000   0.49468301   -7.6809025    855.59672  0.015089889  0.013596174          792 
 4726000   0.49166974   -7.6650749    855.53311  0.015085575  0.013591953          781 
 4727000   0.50010305   -7.6655887    856.12507  0.015092819  0.013587739          804 
 4728000   0.50791771   -7.6693163    855.41214  0.015077061  0.013583524          783 
 4729000   0.49933936   -7.6776953    856.38567  0.015091028  0.013579307          739 
 4730000   0.49068558   -7.6695545    854.28716  0.015050866  0.013575091          751 
 4731000   0.49269519   -7.6814333    856.04177  0.015078591  0.013570879          703 
 4732000   0.48313285   -7.6666021     854.6064  0.015050127  0.013566667          653 
 4733000   0.49446075   -7.6698928     855.4689  0.015062133  0.013562458          801 
 4734000   0.50430743   -7.6742678    856.97078  0.015085389  0.013558249          781 
 4735000   0.48381538    -7.674654    854.85897  0.015045036  0.013554046          796 
 4736000   0.48956587   -7.6663294    855.88064  0.015059837   0.01354984          759 
 4737000   0.49339839   -7.6862396    855.15251  0.015043848  0.013545637          759 
 4738000   0.48396458   -7.6801184    855.09556  0.015039671  0.013541432          720 
 4739000   0.48726541   -7.6802165    854.22169  0.015021131   0.01353723          754 
 4740000   0.49034542    -7.690163    855.32872  0.015037425  0.013533035          746 
 4741000   0.50920447   -7.6670344    854.39721   0.01501788  0.013528838          771 
 4742000   0.49302268    -7.688144    854.17979  0.015010892   0.01352464          780 
 4743000   0.48791138   -7.6881954      854.413  0.015011824  0.013520443          726 
 4744000   0.48820758   -7.6700661    854.01715  0.015001707  0.013516249          771 
 4745000    0.4879275   -7.6813806    855.85875  0.015030888  0.013512054          790 
 4746000    0.4875146   -7.6915298    855.33491  0.015018523  0.013507864          696 
 4747000   0.47527008   -7.6754184    855.74067  0.015022482  0.013503676          811 
 4748000   0.49547413   -7.6693644     855.1751  0.015009392   0.01349949          747 
 4749000   0.49649453   -7.6827027    855.11046  0.015005097  0.013495305          817 
 4750000   0.48066012   -7.6800449    855.11579  0.015002031   0.01349112          811 
 4751000   0.48608101   -7.6806913    855.76939  0.015010338  0.013486936          768 
 4752000   0.49659624   -7.6692383    855.57059  0.015003693  0.013482759          749 
 4753000    0.4875654   -7.6914023    855.89297  0.015006188  0.013478583          775 
 4754000   0.48549761   -7.6865113    855.70101  0.014999667  0.013474407          739 
 4755000   0.48774989   -7.6670815    855.29977  0.014989481  0.013470232          738 
 4756000   0.50100917   -7.6834656    855.12192  0.014983213  0.013466058          760 
 4757000   0.48568183   -7.6725361    854.17302   0.01496344  0.013461881          848 
 4758000    0.4895673   -7.6818053    854.70988  0.014969698  0.013457704          747 
 4759000   0.48256281   -7.6756056    854.46441  0.014962254  0.013453532          772 
 4760000   0.48881751   -7.6871754    853.87156  0.014948732  0.013449361          813 
 4761000   0.49124512   -7.6753346     855.0164   0.01496563  0.013445191          786 
 4762000   0.48668189   -7.6898961    855.83405  0.014976796  0.013441024          821 
 4763000    0.4860105    -7.675306    854.75979  0.014954857  0.013436855          724 
 4764000    0.4971948   -7.6898275    853.31798  0.014926497  0.013432691          708 
 4765000    0.4981796   -7.6852283    854.42179  0.014942669  0.013428527          819 
 4766000   0.49502523   -7.6991621    855.65307  0.014961062  0.013424368          769 
 4767000   0.49748923   -7.6971777    853.94795  0.014928116  0.013420209          829 
 4768000   0.49340815   -7.6839607     855.2627  0.014947964  0.013416052          822 
 4769000   0.48716543   -7.6926002    855.52798  0.014949465  0.013411899          818 
 4770000   0.48802746   -7.6916759     854.9328  0.014935933  0.013407743          762 
 4771000   0.50090867   -7.6923972    855.92034  0.014950051  0.013403591          845 
 4772000   0.47668714   -7.7057608    854.39502  0.014920282   0.01339944          849 
 4773000   0.48745055   -7.6863827    854.56301  0.014920089  0.013395288          781 
 4774000   0.48671931   -7.6734057    856.32091  0.014947649  0.013391142          782 
 4775000   0.49491312   -7.6844274    855.76849  0.014934878     0.013387          790 
 4776000    0.5006676   -7.6862349    854.02991  0.014901415  0.013382854          855 
 4777000   0.48376559   -7.6860259      854.538  0.014907159   0.01337871          791 
 4778000   0.48837473   -7.6715737     854.1991  0.014898129  0.013374569          776 
 4779000   0.49642738   -7.6876419    853.57926  0.014884203  0.013370427          796 
 4780000   0.48584447   -7.6844684    854.70972  0.014900797  0.013366289          803 
 4781000    0.4924948    -7.677309    855.53634  0.014912089  0.013362154          826 
 4782000   0.48274634    -7.690713    853.90998  0.014880628   0.01335802          774 
 4783000   0.46955534   -7.6883901     855.2422  0.014900728  0.013353884          843 
 4784000   0.49666034   -7.6891086    853.59761  0.014868966  0.013349752          864 
 4785000   0.48324279   -7.6949154    854.50821  0.014881717  0.013345618          846 
 4786000   0.48694398   -7.6917035    855.44861  0.014894982  0.013341488          855 
 4787000   0.49116363   -7.6899106    855.12237  0.014886191  0.013337359          822 
 4788000   0.48378953   -7.6867143    855.42666  0.014888378  0.013333229          674 
 4789000   0.47165161   -7.6985915    854.83715  0.014875011  0.013329103          866 
 4790000   0.49159988   -7.6838536    855.03857   0.01487541  0.013324974          857 
 4791000   0.48642499    -7.695128    855.37648  0.014878183  0.013320848          874 
 4792000   0.48372214   -7.6948391     854.8348  0.014865658  0.013316724          845 
 4793000   0.48502106   -7.7095745     854.6676   0.01485965  0.013312603          821 
 4794000   0.48098196   -7.6940415    854.61587  0.014855651  0.013308484          814 
 4795000   0.48751143   -7.6813122    854.81215  0.014855964  0.013304365          815 
 4796000   0.47606659   -7.7025495    854.70106  0.014850936  0.013300246          817 
 4797000    0.4836498   -7.6898179    853.87296  0.014833454  0.013296128          815 
 4798000    0.4914939   -7.7060591    854.91568  0.014848473  0.013292006          839 
 4799000   0.48253539   -7.7027871    855.22907  0.014850821  0.013287888          800 
 4800000   0.47559202   -7.7021842    854.47544  0.014834643  0.013283775          802 
 4801000   0.48879144   -7.6950187     855.1137  0.014842632  0.013279664          803 
 4802000   0.49593516   -7.7066287    855.03943  0.014838252  0.013275552          736 
 4803000    0.4821585   -7.6929035    854.25843  0.014821612  0.013271444          774 
 4804000   0.48221561   -7.6889005    853.41007  0.014803811  0.013267334          811 
 4805000   0.48849675   -7.6902385    854.94541  0.014827357  0.013263228          876 
 4806000   0.48329312   -7.6981161    853.68785  0.014802467  0.013259121          884 
 4807000    0.4755928   -7.6931549    854.52666  0.014813929  0.013255015          784 
 4808000   0.47763984   -7.6943634    854.27647  0.014806511  0.013250909          807 
 4809000   0.47707168   -7.7166801    855.41993  0.014823247  0.013246806          858 
 4810000   0.48962586   -7.6714892    854.59793  0.014805924  0.013242707          834 
 4811000   0.48237525   -7.7083842    855.30978  0.014815177  0.013238609          787 
 4812000   0.47906175    -7.696229     854.4931  0.014797955  0.013234515          783 
 4813000   0.48705717   -7.6902086    853.81304  0.014783105  0.013230417          811 
 4814000   0.46315786   -7.6933907    854.07641  0.014784594  0.013226319          874 
 4815000   0.48094305   -7.7036418    854.33327  0.014785969  0.013222229          837 
 4816000   0.49170212   -7.7008471    855.18006  0.014797551  0.013218137          839 
 4817000   0.48257533   -7.7085496    855.03703  0.014792004  0.013214046          835 
 4818000   0.49128798    -7.700407    855.11254  0.014790241  0.013209954          845 
 4819000    0.4648139   -7.7022549    854.08419  0.014769388  0.013205864          762 
 4820000   0.47862493    -7.698221    854.90353   0.01478049  0.013201779          803 
 4821000   0.48015151   -7.6979792    853.79937  0.014758338  0.013197691          821 
 4822000   0.47999146   -7.7028607    853.48774  0.014749892  0.013193608          816 
 4823000   0.48685443   -7.6900692    853.43899  0.014745991  0.013189527          753 
 4824000   0.48214899   -7.7007484    855.33695  0.014775721  0.013185447          802 
 4825000   0.49194327   -7.6996192    852.07617  0.014716341  0.013181368          798 
 4826000   0.48275057   -7.7105343    854.08842  0.014748039  0.013177291          789 
 4827000   0.48685531   -7.6952372    853.63538  0.014737162  0.013173216          828 
 4828000   0.47283158    -7.699366    853.78459  0.014736685  0.013169139          754 
 4829000   0.47717515   -7.7073876    853.98647  0.014737117  0.013165069          767 
 4830000    0.4792047   -7.7008343    854.17163  0.014737261  0.013160996          848 
 4831000    0.4833643   -7.6978478    854.10046  0.014732982  0.013156928          767 
 4832000    0.4818108   -7.6967568    853.59001   0.01472113  0.013152861          842 
 4833000   0.48720268    -7.704848    852.77476  0.014704027  0.013148797          856 
 4834000   0.47926275   -7.7123094     854.7079  0.014734311  0.013144732          810 
 4835000   0.48062989   -7.7048108    853.67382  0.014713441  0.013140667          884 
 4836000   0.48608751   -7.6855498    854.45183  0.014723805  0.013136608          781 
 4837000   0.47332789   -7.7015787    853.85478  0.014710474  0.013132553          812 
 4838000   0.47238326   -7.7156549    855.17579  0.014730188  0.013128495          788 
 4839000   0.47357183   -7.7014104    854.52681  0.014715968  0.013124442          822 
 4840000   0.47891018   -7.6961994    853.59007  0.014696799  0.013120385          846 
 4841000   0.47529736   -7.7245943    854.05684  0.014701798  0.013116327          847 
 4842000   0.48154914    -7.715001    853.67991  0.014692274  0.013112269          881 
 4843000   0.47446515   -7.6954836    854.73075  0.014707322  0.013108218          830 
 4844000   0.48159797   -7.7243731    852.78444  0.014670803  0.013104163          842 
 4845000   0.47333064   -7.7073646    853.34474  0.014677412  0.013100108          908 
 4846000   0.47435573   -7.7127018    854.80036  0.014699415  0.013096057          829 
 4847000   0.48562606   -7.7156877    853.81157  0.014679382  0.013092005          816 
 4848000   0.48576715   -7.7141082    853.07717   0.01466373  0.013087958          837 
 4849000   0.48896563   -7.7095978    854.33544   0.01468233  0.013083915          807 
 4850000    0.4808466   -7.7162965    852.14335  0.014641638  0.013079872          895 
 4851000   0.47716514   -7.7289842    853.73229  0.014665916   0.01307583          833 
 4852000   0.49060735   -7.6969286    852.62124  0.014643811  0.013071783          858 
 4853000   0.46663553    -7.712171      853.072  0.014648533  0.013067741          800 
 4854000   0.48129608   -7.7136769    852.33091  0.014632793  0.013063699          836 
 4855000   0.47759079   -7.7070215    852.96665  0.014640691  0.013059661          788 
 4856000   0.48184604   -7.7143448    853.89816  0.014653661  0.013055624          769 
 4857000   0.47589248   -7.7078032    852.14446  0.014620556  0.013051587          826 
 4858000   0.47271068   -7.7136053    852.99724  0.014632174  0.013047552          792 
 4859000   0.46126948   -7.7135659    852.81144  0.014625976  0.013043521          821 
 4860000    0.4798419   -7.7141961    854.53684  0.014652552  0.013039491          776 
 4861000   0.46187089   -7.7166519    853.17366  0.014626169  0.013035461          878 
 4862000   0.46437011    -7.715118    853.76059   0.01463322  0.013031431          887 
 4863000    0.4709959   -7.7171318    852.43141  0.014607434  0.013027405          792 
 4864000   0.47209346   -7.7163684    853.41359  0.014621258  0.013023379          835 
 4865000   0.47301316   -7.7312307    854.64968  0.014639426  0.013019353          798 
 4866000   0.46817787   -7.7188278    853.76128  0.014621203  0.013015329          826 
 4867000   0.46099809   -7.7027985    852.37172  0.014594407  0.013011307          868 
 4868000   0.47609036   -7.7027561    853.48798  0.014610517  0.013007286          857 
 4869000   0.47162365    -7.715503    854.60385  0.014626615  0.013003267          836 
 4870000   0.46889921   -7.7155887     853.4807  0.014604392   0.01299925          897 
 4871000    0.4763115   -7.7246016    854.15262   0.01461289  0.012995239          881 
 4872000   0.47287844   -7.7289043    854.78307  0.014620674  0.012991225          841 
 4873000   0.46801286   -7.7222375    851.79755  0.014566618  0.012987212          864 
 4874000   0.46887385   -7.7044067     851.9217  0.014565752    0.0129832          868 
 4875000   0.47977236   -7.7260027    854.51905  0.014607163  0.012979191          886 
 4876000   0.47109141   -7.7216321    853.18163   0.01458131  0.012975181          814 
 4877000   0.47380077   -7.7109378    852.28605  0.014563018  0.012971173          860 
 4878000    0.4721143   -7.7079671    853.61474  0.014582731  0.012967165          835 
 4879000   0.47525274   -7.7129516    852.54657  0.014561498  0.012963159          897 
 4880000   0.47538424   -7.7047301    852.89831   0.01456452  0.012959159          832 
 4881000   0.47188604    -7.726614    853.93324  0.014579206  0.012955158          820 
 4882000   0.47418501   -7.7185343    852.50148   0.01455178  0.012951161          857 
 4883000   0.46724612   -7.7238884    853.84451   0.01457172  0.012947167          833 
 4884000   0.47330795    -7.717126    853.34567  0.014560225  0.012943172          841 
 4885000   0.47154844   -7.7284686    853.59681  0.014561529   0.01293918          804 
 4886000   0.47903912   -7.7156997    853.23707  0.014552413  0.012935187          842 
 4887000   0.46888251   -7.7207717    853.40412  0.014552284  0.012931195          836 
 4888000    0.4708769   -7.7198708    852.62748  0.014536066  0.012927205          920 
 4889000   0.46041757   -7.7051912    854.54825  0.014565832  0.012923219          856 
 4890000   0.46860742   -7.7124223    853.16814  0.014539334   0.01291923          894 
 4891000   0.45238815   -7.7176945    852.62934  0.014527182  0.012915243          883 
 4892000   0.47006839   -7.7186542      852.168  0.014516353  0.012911259          846 
 4893000   0.47021487   -7.7233625    853.45681  0.014535336  0.012907277          832 
 4894000   0.47298627    -7.714883    851.88371   0.01450558  0.012903295          830 
 4895000   0.46835134   -7.7239257    852.35459  0.014510633  0.012899314          878 
 4896000   0.46374195   -7.7224733    852.36042  0.014507769  0.012895337          873 
 4897000   0.45751618   -7.7273788     852.8127  0.014512503  0.012891359          871 
 4898000   0.46933532   -7.7214178    852.25351  0.014500026  0.012887383          821 
 4899000   0.46634537   -7.7008193     852.4645  0.014500655  0.012883409          865 
 4900000   0.46378074   -7.7165828    854.68061  0.014535384  0.012879436          837 
 4901000   0.46990462   -7.7002904    852.62127  0.014497403  0.012875468          760 
 4902000   0.47091151   -7.7180979     854.4314  0.014525218    0.0128715          808 
 4903000   0.47057657   -7.7158777    852.63516  0.014491725  0.012867529          855 
 4904000   0.46171837   -7.7407671    853.01725  0.014495263   0.01286356          829 
 4905000   0.45682544   -7.7139479    852.59946   0.01448521  0.012859591          873 
 4906000    0.4577633   -7.7220142    853.83679  0.014503275  0.012855628          826 
 4907000   0.46705042   -7.7198849    853.22127  0.014489866  0.012851665          823 
 4908000   0.46522124   -7.7255603    852.43703  0.014473598  0.012847704          871 
 4909000   0.45934741    -7.726387    853.20747  0.014483728  0.012843743          742 
 4910000   0.47527031   -7.7251165    853.33515  0.014482946  0.012839784          834 
 4911000   0.46825509   -7.7252095    853.76026   0.01448721  0.012835824          822 
 4912000   0.46442893   -7.7268924     853.2287  0.014475243  0.012831865          777 
 4913000   0.46954014   -7.7255332    852.53517  0.014460533  0.012827907          821 
 4914000   0.46746582   -7.7203778    853.34651  0.014471349  0.012823951          783 
 4915000   0.46047917   -7.7430184     852.1917  0.014448825  0.012819995          860 
 4916000   0.47029521   -7.7183338    851.76142  0.014438592  0.012816042          859 
 4917000   0.47472034   -7.7283424    852.40631  0.014446585  0.012812091          887 
 4918000     0.462024   -7.7221573    853.06472  0.014454804  0.012808138          873 
 4919000   0.46217136   -7.7241945    851.81329  0.014430665  0.012804193          738 
 4920000   0.47016314   -7.7212323    853.93024  0.014463588  0.012800245          839 
 4921000   0.45153423   -7.7194367    852.93745  0.014443837    0.0127963          717 
 4922000   0.46109418   -7.7291931    854.64025  0.014469732  0.012792357          895 
 4923000   0.47531788   -7.7122605    852.48331  0.014430281  0.012788411          800 
 4924000    0.4743147   -7.7272282    852.68192  0.014430712  0.012784472          841 
 4925000   0.47195153   -7.7508042      852.359  0.014422318  0.012780532          885 
 4926000   0.45566302   -7.7263515    853.61317  0.014440607  0.012776595          865 
 4927000   0.47096655   -7.7331661    853.46916  0.014435241  0.012772661          856 
 4928000   0.46011143   -7.7366011    854.35706  0.014447326  0.012768727          853 
 4929000   0.46471372   -7.7189428    854.43079  0.014445641  0.012764795          815 
 4930000   0.46269617   -7.7194174    852.06996  0.014402805  0.012760866          895 
 4931000   0.46154712   -7.7346921    852.68162  0.014410221  0.012756936          823 
 4932000   0.46463609     -7.73223    852.75615  0.014408559   0.01275301          798 
 4933000   0.46906974   -7.7452114    852.95472  0.014408993  0.012749086          855 
 4934000   0.45136253   -7.7307228    852.55843  0.014399379   0.01274516          830 
 4935000   0.45726441   -7.7173861    852.26325  0.014391477  0.012741232          725 
 4936000   0.46332676   -7.7189573     851.8398  0.014381412   0.01273731          821 
 4937000     0.456235   -7.7375924    852.89756  0.014396353   0.01273339          854 
 4938000   0.46700072   -7.7173704    852.13623   0.01438059  0.012729471          832 
 4939000   0.46353004   -7.7288633     853.3427  0.014398034  0.012725551          919 
 4940000    0.4588927   -7.7270539    851.55818  0.014365017  0.012721633          872 
 4941000   0.46178928   -7.7259336    853.16062  0.014389135  0.012717719          865 
 4942000    0.4666862   -7.7194823    851.87725  0.014364583  0.012713802          872 
 4943000   0.45605113   -7.7517068    852.14851   0.01436625   0.01270989          831 
 4944000   0.45814101   -7.7288944    853.16251  0.014380436  0.012705975          860 
 4945000   0.45864735   -7.7229911    852.60965  0.014368211  0.012702066          845 
 4946000   0.47148826   -7.7427144     852.8348    0.0143691  0.012698157          862 
 4947000   0.45568824   -7.7308134    852.86577  0.014366717   0.01269425          874 
 4948000   0.45736456   -7.7270677     851.8255  0.014346293  0.012690344          797 
 4949000   0.45441564   -7.7287761    853.60886  0.014373423  0.012686442          712 
 4950000   0.45604711   -7.7382507    852.12969  0.014345618  0.012682539          833 
 4951000   0.45495718   -7.7218761    852.25049  0.014344753  0.012678637          830 
 4952000   0.46088237   -7.7346423    852.70432  0.014349494  0.012674731          847 
 4953000   0.45639968    -7.735699    852.56248   0.01434421  0.012670831          824 
 4954000   0.46557848   -7.7312102    851.15674  0.014317668  0.012666933          827 
 4955000   0.45791749   -7.7130045    852.00622  0.014329065  0.012663035          831 
 4956000   0.46262124   -7.7506442    852.96714  0.014342332  0.012659141          855 
 4957000   0.46234759   -7.7574165    853.02831  0.014340467  0.012655245          846 
 4958000   0.45642762   -7.7328033    851.76939  0.014316414  0.012651348          905 
 4959000   0.45077241    -7.742127    852.59857  0.014327461  0.012647459          840 
 4960000   0.45129008   -7.7346473    853.05955  0.014332318  0.012643567          783 
 4961000   0.45226139   -7.7366492     852.3469  0.014317458  0.012639677          875 
 4962000   0.46454378   -7.7515852    852.57389  0.014318384  0.012635789          831 
 4963000   0.44861116    -7.738186    852.17515  0.014308804  0.012631904          836 
 4964000   0.46349175   -7.7367808    853.15085  0.014322301  0.012628017          850 
 4965000   0.45607086   -7.7368329    852.73469  0.014312432  0.012624134          864 
 4966000    0.4583402   -7.7352191    851.76785  0.014293325  0.012620252          823 
 4967000   0.45873626   -7.7324043     851.6028  0.014287679  0.012616369          903 
 4968000   0.45378381   -7.7435887    852.33757  0.014297128   0.01261249          840 
 4969000   0.45617525   -7.7374747    851.89826  0.014286883  0.012608617          859 
 4970000   0.44877491   -7.7268747    852.22813  0.014289539  0.012604741          847 
 4971000   0.47468253   -7.7367934    852.14989  0.014285353  0.012600868          864 
 4972000   0.45654303   -7.7271712    851.85086  0.014277468  0.012596996          834 
 4973000   0.45210057   -7.7314868    851.36122  0.014266392  0.012593122          820 
 4974000   0.44630637   -7.7344726    852.39128  0.014280781   0.01258925          842 
 4975000   0.45439789    -7.735929     852.2893  0.014276203   0.01258538          839 
 4976000   0.45762207   -7.7475865    851.65564  0.014262722  0.012581514          822 
 4977000   0.45533976   -7.7434048    851.44619  0.014256349  0.012577646          897 
 4978000     0.444302    -7.738897    852.80839  0.014276289  0.012573779          808 
 4979000   0.45509429   -7.7419981    852.46938  0.014267748  0.012569913          835 
 4980000   0.46140781   -7.7601885    853.10237  0.014275475   0.01256605          850 
 4981000   0.45099377   -7.7518407    852.70514  0.014265963  0.012562188          846 
 4982000   0.44877134   -7.7570731    852.01978  0.014251635  0.012558331          843 
 4983000   0.45493513   -7.7309636    852.02909  0.014248931  0.012554474          849 
 4984000   0.44481345   -7.7408042    852.67936  0.014256945   0.01255062          899 
 4985000   0.45558193   -7.7337398    853.48894  0.014267618   0.01254677          856 
 4986000   0.45728186   -7.7346961    851.29893  0.014228154  0.012542915          843 
 4987000    0.4544278   -7.7529203    851.75691  0.014232954  0.012539064          877 
 4988000   0.45335102   -7.7383956    851.05835   0.01421843  0.012535212          870 
 4989000    0.4557146   -7.7572792    852.43898  0.014238641  0.012531366          844 
 4990000   0.44924988   -7.7422851    852.06104  0.014229476  0.012527515          852 
 4991000   0.45673044   -7.7392455    850.73655  0.014204511  0.012523667          889 
 4992000    0.4462683    -7.752011    852.59905  0.014232757  0.012519822          894 
 4993000   0.46084421   -7.7486271    852.31107    0.0142251  0.012515976          910 
 4994000    0.4511094   -7.7501115     852.1733  0.014219952  0.012512134          844 
 4995000   0.45146633   -7.7432977    853.20762  0.014234361  0.012508295          855 
 4996000    0.4489866   -7.7443893    851.62774   0.01420516  0.012504457          870 
 4997000   0.45590651   -7.7362956      851.059  0.014192832  0.012500617          818 
 4998000   0.45877244   -7.7435871    853.52231  0.014231064  0.012496777          799 
 4999000   0.45303723   -7.7541771    852.58712  0.014212628   0.01249294          902 
 5000000   0.45173832   -7.7514497    851.84741  0.014197457  0.012489104          884 
 5001000    0.4610302    -7.736583     851.6936  0.014192055  0.012485274          881 
 5002000   0.44613287   -7.7640253    851.95229  0.014193527  0.012481443          893 
 5003000   0.45099998   -7.7451016    852.15599  0.014194083  0.012477612          822 
 5004000   0.45012835   -7.7417981     851.4116   0.01417885  0.012473786          860 
 5005000   0.45053997   -7.7493397    852.99439  0.014202371  0.012469961          723 
 5006000   0.45230652   -7.7571635    851.77328  0.014179206  0.012466135          849 
 5007000   0.44907689   -7.7542148    851.65246  0.014174364  0.012462311          912 
 5008000   0.44840183   -7.7368876    853.34712  0.014199732  0.012458488          893 
 5009000   0.45431854   -7.7458768    851.45238  0.014165375  0.012454665          796 
 5010000   0.45560384   -7.7591681    852.74615  0.014184068  0.012450844          819 
 5011000   0.45268358   -7.7447313    851.77517   0.01416509  0.012447023          859 
 5012000   0.45156837   -7.7232283    852.54729  0.014175101  0.012443208          892 
Loop time of 10851.8 on 48 procs for 5000000 steps with 4000 atoms

Performance: 79617.905 tau/day, 460.752 timesteps/s
99.4% CPU use with 48 MPI tasks x no OpenMP threads

MPI task timing breakdown:
Section |  min time  |  avg time  |  max time  |%varavg| %total
---------------------------------------------------------------
Pair    | 706.98     | 754.43     | 781.63     |  53.0 |  6.95
Neigh   | 68.432     | 69.504     | 72.47      |   9.4 |  0.64
Comm    | 606.92     | 636.45     | 694.71     |  72.5 |  5.86
Output  | 13.673     | 13.679     | 13.766     |   0.3 |  0.13
Modify  | 9212.7     | 9256.7     | 9296.4     |  22.5 | 85.30
Other   |            | 121.1      |            |       |  1.12

Nlocal:        83.3333 ave          91 max          75 min
Histogram: 2 2 0 6 6 14 13 2 2 1
Nghost:        1803.60 ave        1824 max        1787 min
Histogram: 3 3 10 6 6 8 6 1 2 3
Neighs:        11087.7 ave       12732 max        9843 min
Histogram: 2 2 9 8 11 6 6 3 0 1
FullNghs:      22174.0 ave       24189 max       20102 min
Histogram: 3 2 2 6 8 10 11 3 2 1

Total # of neighbors = 1064353
Ave neighs/atom = 266.08825
Neighbor list builds = 269542
Dangerous builds = 1

#clear
#
#next RN
#
#jump SELF
Total wall time: 3:00:54
