
units lj                  # Use reduced LJ style units
atom_style atomic         # Uncharged point particles
atom_modify map hash      # Needed for indexing of clusters etc
                          # Used to be able to find where atoms are in relation to each other.

lattice fcc 1.0 spacing 1 1 1
Lattice spacing in x,y,z = 1.5874011 1.5874011 1.5874011
region box block 0 10 0 10 0 10 units lattice
create_box 2 box
Created orthogonal box = (0.0000000 0.0000000 0.0000000) to (15.874011 15.874011 15.874011)
  3 by 4 by 4 MPI processor grid
create_atoms 1 box
Created 4000 atoms
  using lattice units in orthogonal box = (0.0000000 0.0000000 0.0000000) to (15.874011 15.874011 15.874011)
  create_atoms CPU = 0.018 seconds
set type 1 type/fraction 2 0.25 78393
Setting atom values ...
  1031 settings made for type/fraction
mass 1 1.0
mass 2 1.0
pair_style lj/cut  3.5
pair_modify tail  yes
pair_coeff 1  1  1.0  1.0   # Intearaction between 1 and 1 set with epsilon = 1 and sigma = 1
pair_coeff 1  2  1.5  0.8
pair_coeff 2  2  0.5  0.88

write_data data.0
System init for write_data ...
Neighbor list info ...
  update every 1 steps, delay 10 steps, check yes
  max neighbors/atom: 2000, page size: 100000
  master list distance cutoff = 3.8
  ghost atom cutoff = 3.8
  binsize = 1.9, bins = 9 9 9
  1 neighbor lists, perpetual/occasional/extra = 1 0 0
  (1) pair lj/cut, perpetual
      attributes: half, newton on
      pair build: half/bin/atomonly/newton
      stencil: half/bin/3d
      bin: standard
WARNING: Not all mixed pair coeffs generated from mixing. Use write_data with 'pair ij' option to store all pair coeffs. (../write_data.cpp:312)


#############################
#   M E L T   S Y S T E M   #
#############################

velocity all create 2.4 3143649 mom yes dist gaussian # Assign velocities
                                                    # Temperature 2.4, random number seed, zero linear momentum
                                                                                # Gaussian distribution

timestep 0.002   # simulation timestep
thermo 1000       # output thermodynamic data every 1000 steps bf 100

# Define a fix  in this case with index 1 applied to all
# particles in the simulation. This fix is for simulations
# in the anisotropic NPT ensemble. Note that we use the MTK
# correction.
fix 1 all npt temp 2.4 2.4 0.1 iso 5.68 5.68 0.5 mtk yes tchain 5 pchain 5 # Use NPT ensemble
                                                                         # Set temperature and pressure and damping
                                                                         # Numbers of thermostats in chain and in barostat
run 10000          # run for 10000 steps
Per MPI rank memory allocation (min/avg/max) = 3.642 | 3.644 | 3.648 Mbytes
Step Temp E_pair E_mol TotEng Press Volume 
       0          2.4   -6.7340002            0   -3.1349002   -3.8290783         4000 
    1000    2.3960464   -4.8922088            0   -1.2990377    5.8070505    4318.4555 
    2000    2.3695273    -4.954227            0   -1.4008246    5.8213445    4268.5602 
    3000    2.3737276   -4.9541218            0   -1.3944205    5.5279021    4306.8343 
    4000     2.374423   -4.9307861            0   -1.3700421    5.7605733    4291.8874 
    5000    2.3992492   -4.9618155            0   -1.3638414    5.4260614    4313.9538 
    6000    2.3384143   -4.9106119            0   -1.4038674    5.6190531    4318.7316 
    7000    2.3804457   -4.9063697            0   -1.3365937    5.8596928     4294.404 
    8000    2.3866544   -4.9797022            0   -1.4006156    5.6760987    4278.9891 
    9000    2.3434881   -4.9230437            0   -1.4086903    5.7534514    4292.5586 
   10000     2.408049   -4.8848208            0   -1.2736504    5.5439326    4337.4977 
Loop time of 2.34731 on 48 procs for 10000 steps with 4000 atoms

Performance: 736161.806 tau/day, 4260.196 timesteps/s
99.6% CPU use with 48 MPI tasks x no OpenMP threads

MPI task timing breakdown:
Section |  min time  |  avg time  |  max time  |%varavg| %total
---------------------------------------------------------------
Pair    | 1.0151     | 1.0821     | 1.1534     |   3.1 | 46.10
Neigh   | 0.19891    | 0.20862    | 0.2179     |   1.0 |  8.89
Comm    | 0.73576    | 0.80646    | 0.86117    |   3.5 | 34.36
Output  | 0.00024345 | 0.00024788 | 0.00032291 |   0.0 |  0.01
Modify  | 0.20985    | 0.23489    | 0.2626     |   2.8 | 10.01
Other   |            | 0.01501    |            |       |  0.64

Nlocal:        83.3333 ave          93 max          70 min
Histogram: 1 1 0 5 9 8 13 4 5 2
Nghost:        1552.12 ave        1581 max        1522 min
Histogram: 4 1 5 6 7 7 6 5 4 3
Neighs:        8800.58 ave       10059 max        7138 min
Histogram: 1 0 1 8 7 8 12 8 1 2

Total # of neighbors = 422428
Ave neighs/atom = 105.60700
Neighbor list builds = 904
Dangerous builds = 190

# Equilibrate just above the melting temperature to avoid step fn in T

fix 1 all npt temp 1.25 1.25 0.1 iso 5.68 5.68 0.5 mtk yes tchain 5 pchain 5
run 2000
Per MPI rank memory allocation (min/avg/max) = 3.643 | 3.645 | 3.649 Mbytes
Step Temp E_pair E_mol TotEng Press Volume 
   10000     2.408049   -4.8848208            0   -1.2736504    5.5439326    4337.4977 
   11000    1.2708124   -6.6813095            0   -4.7755674    5.7415973    3496.2822 
   12000    1.2465406   -6.7145563            0   -4.8452129    5.6536172    3486.8997 
Loop time of 0.542988 on 48 procs for 2000 steps with 4000 atoms

Performance: 636478.448 tau/day, 3683.324 timesteps/s
99.6% CPU use with 48 MPI tasks x no OpenMP threads

MPI task timing breakdown:
Section |  min time  |  avg time  |  max time  |%varavg| %total
---------------------------------------------------------------
Pair    | 0.24274    | 0.26396    | 0.2881     |   2.4 | 48.61
Neigh   | 0.035064   | 0.038366   | 0.041709   |   0.7 |  7.07
Comm    | 0.16305    | 0.18932    | 0.21091    |   2.9 | 34.87
Output  | 5.1683e-05 | 5.303e-05  | 6.8178e-05 |   0.0 |  0.01
Modify  | 0.041623   | 0.04657    | 0.050868   |   1.2 |  8.58
Other   |            | 0.004718   |            |       |  0.87

Nlocal:        83.3333 ave          97 max          72 min
Histogram: 1 2 2 9 16 9 6 1 1 1
Nghost:        1797.23 ave        1834 max        1771 min
Histogram: 2 4 5 14 12 3 3 2 2 1
Neighs:        10957.0 ave       13543 max        9568 min
Histogram: 2 6 10 17 6 3 1 2 0 1

Total # of neighbors = 525937
Ave neighs/atom = 131.48425
Neighbor list builds = 142
Dangerous builds = 7

#############################
# L I N E A R  Q U E N C H  #
#############################

# Define solid atoms. This closely follows ten Wolde  Ruiz-Montero and Frenkel  Faraday Discuss  1996  104  93-110
# Compute components of the per-atom q6 vector
compute q6 all orientorder/atom degrees 1 6 components 6 nnn NULL cutoff 1.3 # compute the Q6 parameter.
                                                                             # Use all neighbours within 1.3 unit cell.

# get number of connections
compute coord_number all coord/atom orientorder q6 0.5

# An atom is solid if it has 8 or more connections (of a possible 14)
variable is_solid atom c_coord_number>=8
group solid dynamic all var is_solid    # Must be dynamic to update
dynamic group solid defined

# do clustering
compute cluster solid cluster/atom 1.3 # Create a cluster where all atoms within are solid and max 1.3 units from another member

# define chunks one chunk per cluster
compute clus_chunks solid chunk/atom c_cluster nchunk every compress yes  # Says which atoms are in which chunk

# count the size of each chunk
compute size_chunks solid property/chunk clus_chunks count


# Find the maximum entry in the vector of chunk sizes
variable max_n equal max(c_size_chunks)


# Thermo style which includes this variable
# thermo_style custom step temp pe vol v_max_n

thermo ${N}  # Print the thermo information every 100 steps
thermo 1000  

# Reset the npt fix at a lower temperature (below freezing)
fix 1  all npt temp  ${temp} ${temp}  0.1  iso  5.68  5.68  0.5  mtk yes tchain  5  pchain  5
fix 1  all npt temp  0.45 ${temp}  0.1  iso  5.68  5.68  0.5  mtk yes tchain  5  pchain  5
fix 1  all npt temp  0.45 0.45  0.1  iso  5.68  5.68  0.5  mtk yes tchain  5  pchain  5

dump dmp2 all dcd ${N} traj.dcd
dump dmp2 all dcd 1000 traj.dcd


compute msd all msd com yes
variable twopoint equal c_msd[4]/6/(step*dt+1.0e-6)
fix 9 all vector 10 c_msd[4]
variable fit equal slope(f_9)/6/(10*dt)
thermo_style custom step temp pe c_msd[4] v_twopoint v_fit v_max_n

fix 1 all npt temp 1.25 ${temp} 0.1 iso 5.68 5.68 0.5 mtk yes tchain 5 pchain 5
fix 1 all npt temp 1.25 0.45 0.1 iso 5.68 5.68 0.5 mtk yes tchain 5 pchain 5
run 2000000 # 5000000  # Run for this many steps
Neighbor list info ...
  update every 1 steps, delay 10 steps, check yes
  max neighbors/atom: 2000, page size: 100000
  master list distance cutoff = 3.8
  ghost atom cutoff = 3.8
  binsize = 1.9, bins = 8 8 8
  4 neighbor lists, perpetual/occasional/extra = 1 3 0
  (1) pair lj/cut, perpetual
      attributes: half, newton on
      pair build: half/bin/atomonly/newton
      stencil: half/bin/3d
      bin: standard
  (2) compute orientorder/atom, occasional
      attributes: full, newton on
      pair build: full/bin/atomonly
      stencil: full/bin/3d
      bin: standard
  (3) compute coord/atom, occasional
      attributes: full, newton on
      pair build: full/bin/atomonly
      stencil: full/bin/3d
      bin: standard
  (4) compute cluster/atom, occasional
      attributes: full, newton on
      pair build: full/bin/atomonly
      stencil: full/bin/3d
      bin: standard
Per MPI rank memory allocation (min/avg/max) = 9.800 | 9.807 | 9.818 Mbytes
Step Temp PotEng c_msd[4] v_twopoint v_fit v_max_n 
   12000    1.2465406   -6.7145563 1.8356793e-30 1.2747773e-32 8.3333333e+20            6 
   13000    1.2539042    -6.707448   0.53067067 0.0034017349  0.044260916            1 
   14000    1.2395269   -6.7539851    1.0361732 0.0061676975  0.042011951            3 
   15000    1.2519275   -6.7023633    1.5199273 0.0084440403  0.041705852            2 
   16000    1.2384103    -6.720843    2.0301899  0.010573905  0.041555926            2 
   17000     1.220964   -6.7093705    2.5015385  0.012262443  0.041287597            1 
   18000    1.2534758   -6.7185098    2.9135825  0.013488808  0.040804408            3 
   19000    1.2122931    -6.717918    3.4109394   0.01496026  0.040270325            1 
   20000    1.2608334   -6.7278915    3.8826417  0.016177673  0.039894341            2 
   21000    1.2471144   -6.7068314    4.3785453  0.017375179  0.039913728            3 
   22000     1.224443   -6.7122276       4.8022  0.018190151  0.039800004            2 
   23000    1.2333261   -6.7300201     5.312781  0.019249206  0.039624958            2 
   24000    1.2709651   -6.7419139    5.7865406  0.020092154   0.03969238            1 
   25000    1.2464931   -6.7132681     6.227061   0.02075687   0.03967909            3 
   26000    1.2206283   -6.7004253    6.6813795  0.021414678  0.039572421            2 
   27000     1.238344   -6.7478902    7.1423878  0.022044406   0.03948243            1 
   28000    1.2904821   -6.7530926    7.5836593  0.022570414  0.039396345            2 
   29000    1.2066273   -6.7134934    8.1286141  0.023358086  0.039324318            1 
   30000     1.240812   -6.7712373    8.6159682  0.023933245  0.039328901            2 
   31000    1.2380526   -6.7577749    8.9806482  0.024141527  0.039291122            5 
   32000    1.2405223   -6.7166558    9.4354398  0.024571457  0.039188107            1 
   33000    1.2432624   -6.7477755    9.9253185  0.025063935  0.039098824            1 
   34000    1.2390225   -6.7549001    10.382463  0.025447213  0.039070183            2 
   35000    1.2128144   -6.7469919     10.94769  0.026065929  0.039051944            2 
   36000    1.2630387   -6.7340027    11.418362  0.026431394  0.039065966            1 
   37000    1.2559404   -6.7139734    11.967551  0.026953944  0.039112363            2 
   38000     1.236247   -6.7839674    12.377558  0.027143767  0.039168754            2 
   39000    1.2541493   -6.7448484    12.869924  0.027499838  0.039203089            1 
   40000     1.229008   -6.7680044    13.307294  0.027723529  0.039240583            3 
   41000    1.2264342   -6.7499551    13.839092  0.028128236  0.039273308            4 
   42000    1.2566029   -6.7482355    14.253355  0.028280466  0.039285115            3 
   43000    1.2200586   -6.7378442    14.688028   0.02846517  0.039288383            3 
   44000    1.2274225   -6.7214223     15.19644  0.028781137  0.039286355            1 
   45000    1.2234387   -6.7404966    15.847688  0.029347569  0.039326262            2 
   46000    1.2545158   -6.7201445    16.362237  0.029641734  0.039382991            2 
   47000    1.2588407   -6.7355655    16.853589   0.02988225  0.039466757            1 
   48000    1.2379249   -6.7418551    17.379246  0.030172303  0.039553654            3 
   49000    1.2439693   -6.7242995    17.898973   0.03044043  0.039644414            1 
   50000    1.2313384   -6.6982934    18.343784  0.030572972  0.039704856            1 
   51000    1.1941112    -6.752366    18.962583  0.030984613  0.039795303            1 
   52000    1.2454192   -6.7553742     19.54267  0.031318381  0.039911575            2 
   53000    1.2340276   -6.7494233    20.033029  0.031498473  0.040011985            2 
   54000    1.2281278   -6.7311701    20.334545   0.03138047  0.040076052            1 
   55000    1.2285505   -6.7365444    20.801317  0.031517146  0.040105329            2 
   56000    1.2235391   -6.7780234    21.325595  0.031734516  0.040143129            1 
   57000    1.2077034   -6.8058662    21.791535  0.031858969  0.040184261            3 
   58000    1.2463572   -6.7462318    22.319048  0.032067597  0.040226355            1 
   59000    1.2047508   -6.7722714    22.731581  0.032106752   0.04025669            2 
   60000    1.2239199   -6.7495166    23.089553  0.032068824  0.040262095            1 
   61000    1.2165345   -6.8072624    23.483099  0.032080736  0.040249227            3 
   62000    1.2245216   -6.7766095    24.024199   0.03229059  0.040236793            3 
   63000    1.2299003   -6.7633957    24.431813  0.032317212  0.040220998            2 
   64000    1.2034774   -6.7800879    24.945324  0.032480891  0.040204505            1 
   65000    1.2607666   -6.7534393    25.241619  0.032361049  0.040162317            2 
   66000    1.2098396    -6.775763    25.806277  0.032583683  0.040125459            2 
   67000    1.2040511   -6.7525954     26.26418   0.03266689  0.040082971            1 
   68000    1.2276472    -6.765974     26.74625  0.032777267  0.040053342            2 
   69000    1.2241352   -6.7802343    27.331063   0.03300853   0.04004122            4 
   70000    1.2225954   -6.7513723    27.771957  0.033061854  0.040031381            1 
   71000    1.2246337   -6.7836216    28.027485  0.032896109  0.039996303            1 
   72000    1.2609597   -6.7888103    28.505437  0.032992403  0.039952124            1 
   73000    1.2213185   -6.7589828     29.02722  0.033136095  0.039916784            2 
   74000    1.2046127   -6.7892159     29.40086  0.033109076  0.039879967            3 
   75000    1.2313554   -6.7658002    29.916412  0.033240458  0.039838143            2 
   76000    1.2780956   -6.7700385    30.371391  0.033301963  0.039804748            2 
   77000    1.2207775   -6.7645869    31.159195  0.033722072  0.039783851            2 
   78000    1.2294666   -6.7904841    31.529172  0.033685013  0.039772692            1 
   79000    1.2252687    -6.772631    32.060941  0.033819558  0.039764636            1 
   80000     1.233267   -6.7739176     32.61558  0.033974562  0.039766835            3 
   81000    1.2202722   -6.7787809    33.254274  0.034212215  0.039776271            2 
   82000    1.2213148   -6.7613607    33.756102  0.034304981  0.039804925            3 
   83000    1.2322531   -6.8141557    34.287054  0.034424753  0.039836921            3 
   84000    1.2378249   -6.7912042    34.565254  0.034290927  0.039857175            1 
   85000    1.2197598   -6.8182664    34.872482  0.034188707  0.039860444            1 
   86000    1.2414579   -6.7943387      35.4112  0.034313178  0.039853563            1 
   87000    1.2199931   -6.7889929    35.884519  0.034372144  0.039852499            3 
   88000    1.2302563   -6.8384277    36.426098   0.03449441   0.03985657            1 
   89000    1.2101976   -6.7978792    36.677673  0.034342391  0.039853577            1 
   90000    1.2276651   -6.7689827    37.311951  0.034548103  0.039841933            2 
   91000    1.1938334   -6.8117142    37.673594  0.034499628  0.039832734            5 
   92000    1.2041368    -6.822739      38.3362  0.034724819  0.039836414            1 
   93000    1.2069829   -6.7833376    38.909799  0.034865411  0.039842463            1 
   94000    1.2086595   -6.8199163    39.361452  0.034894904  0.039857091            1 
   95000     1.193986   -6.7525045     39.89555  0.034996096  0.039869264            1 
   96000    1.1999562   -6.8038748    40.177804  0.034876566  0.039872986            3 
   97000    1.2021196   -6.7911571    40.795678  0.035047833  0.039878611            2 
   98000    1.2113376   -6.7787761    41.194651  0.035029465  0.039883449            2 
   99000    1.2127232    -6.803189    41.478991  0.034914975  0.039877797            1 
  100000    1.2075317   -6.7749186     41.89728    0.0349144  0.039868366            2 
  101000    1.2184289   -6.8230174    42.176647  0.034799214   0.03984808            1 
  102000    1.2267129   -6.7896218    42.733449  0.034912949  0.039828492            1 
  103000    1.2056206   -6.7732605    43.482992  0.035180414  0.039820044            2 
  104000    1.2195652   -6.7950745    43.750485  0.035056479  0.039814507            1 
  105000    1.2423982   -6.7510673    44.494443   0.03531305  0.039808693            2 
  106000    1.2014274   -6.8170804    45.011185  0.035386152  0.039812859            1 
  107000     1.220715   -6.7673439    45.384101  0.035345873  0.039810841            1 
  108000    1.2200309   -6.7916376    45.620353   0.03520089  0.039803221            3 
  109000    1.2119387   -6.8213467     45.86659    0.0350662   0.03978476            2 
  110000    1.2356544   -6.8232276    46.358674  0.035120207  0.039761033            1 
  111000    1.2046365   -6.8035899    46.966748  0.035260321  0.039745525            2 
  112000    1.1859467   -6.8319795    47.199901  0.035118974  0.039722908            2 
  113000    1.2285317   -6.7608184    47.508592  0.035035835  0.039691169            2 
  114000    1.2270155   -6.8110705    47.754481  0.034908246  0.039646424            1 
  115000    1.1824486   -6.8425952    47.949083  0.034745712  0.039595198            1 
  116000    1.1899527   -6.8630414    48.230804  0.034648566  0.039538607            1 
  117000    1.2340779   -6.8316634     48.49784  0.034542621  0.039477366            3 
  118000    1.2144765    -6.814614    49.319698  0.034830295  0.039424079            1 
  119000    1.2003151   -6.8524424    49.603385  0.034736264  0.039374876            1 
  120000     1.218432   -6.8045309    50.002235  0.034723774  0.039320119            1 
  121000    1.1964878   -6.8048567    50.333952  0.034665256  0.039268466            1 
  122000    1.2075091   -6.8239003    50.792621  0.034694413  0.039213016            1 
  123000    1.1939751   -6.7896962     51.21046  0.034695433  0.039157698            4 
  124000    1.2026953   -6.8301659    51.523148  0.034625771  0.039100727            1 
  125000    1.2382532    -6.795003    52.170766  0.034780511  0.039047736            1 
  126000    1.2035134   -6.7843262    52.901389  0.034987691   0.03900824            1 
  127000    1.1809837   -6.8029043    53.304268  0.034976553  0.038976971            1 
  128000    1.2284152   -6.7887894    53.723837  0.034976456  0.038943235            1 
  129000    1.1878934   -6.8012065    53.913606  0.034827911  0.038908129            1 
  130000     1.189369   -6.8224183    54.522583  0.034950374  0.038875994            1 
  131000    1.1879039    -6.805999    55.074741  0.035034822   0.03884095            1 
  132000    1.1978018   -6.8377695    55.532172  0.035058189  0.038808199            2 
  133000     1.186929   -6.7951066    55.511017  0.034781339  0.038774304            2 
  134000    1.1812301   -6.8159657    56.485831  0.035128004  0.038741264            2 
  135000    1.2013426   -6.7767857    56.986511  0.035176859  0.038716862            3 
  136000    1.2045912   -6.8293038    57.248722  0.035078874  0.038691072            1 
  137000    1.2172926    -6.815952    57.616315   0.03504642  0.038664987            4 
  138000    1.1858382    -6.792203    58.067499  0.035064915  0.038635917            1 
  139000    1.2165714   -6.8277027    58.520437  0.035084195  0.038608103            1 
  140000      1.18745   -6.8391646    58.799263  0.034999561  0.038577474            2 
  141000    1.2010599   -6.8447341    59.118023   0.03493973  0.038546758            4 
  142000    1.1997501    -6.850846    59.558301  0.034952055  0.038512823            2 
  143000    1.2052521    -6.839287    59.980188  0.034953489  0.038482148            1 
  144000    1.1956101   -6.8581167    60.554121  0.035042894  0.038452158            1 
  145000    1.1983505   -6.8327272    60.919127  0.035010992  0.038423833            1 
  146000     1.201905   -6.7905094    61.463219  0.035081746  0.038399207            1 
  147000    1.1658785   -6.8190609    62.077903  0.035191555  0.038373287            3 
  148000    1.2189441   -6.8437547    62.496888  0.035189689  0.038349606            1 
  149000    1.2043034   -6.8557713    63.133713  0.035309683  0.038330083            1 
  150000    1.1741024   -6.8224342    63.341902  0.035189945  0.038312073            1 
  151000    1.1791623   -6.7927793    63.903854  0.035267028  0.038295204            3 
  152000    1.1930606    -6.830917     64.43912  0.035328465  0.038275552            1 
  153000     1.191604   -6.8205628    65.038611   0.03542408  0.038260652            3 
  154000    1.1968428   -6.8362574    65.150341  0.035254513  0.038247525            1 
  155000     1.184227   -6.8368246     65.77761  0.035364306  0.038233131            3 
  156000    1.2079842    -6.863539    66.192009  0.035358979  0.038214815            2 
  157000    1.2082521   -6.8269514    66.602535  0.035351664  0.038196089            1 
  158000    1.1986937   -6.8531458    66.939498  0.035305642  0.038177741            1 
  159000    1.1898789   -6.8294099    67.254075  0.035248467   0.03815767            1 
  160000    1.1845076   -6.8694311    67.213974  0.035007278  0.038137321            2 
  161000    1.1917235   -6.8360549    67.885255  0.035137295  0.038111081            2 
  162000    1.1735707   -6.8223879    68.605188  0.035290735  0.038085186            1 
  163000    1.2009416   -6.8524023    68.810882  0.035179387  0.038063133            2 
  164000    1.1841542    -6.853523     69.57233  0.035351794  0.038042515            1 
  165000    1.1687454   -6.8473719    69.911162  0.035308668  0.038024534            1 
  166000     1.187753    -6.847381    70.250082  0.035266105  0.038004649            2 
  167000    1.1881363   -6.8802036    70.490286  0.035174793  0.037982931            2 
  168000    1.2010484   -6.8711984    70.675123  0.035057104  0.037958282            1 
  169000    1.1955297   -6.8988308    71.040388  0.035029777  0.037932959            1 
  170000    1.1885039   -6.8589974    71.364983  0.034982835   0.03790435            2 
  171000    1.1976118   -6.8570091     71.74474  0.034963323  0.037877429            6 
  172000    1.1922797   -6.8599076    71.979722  0.034873896  0.037845239            2 
  173000    1.1788648   -6.8441749    72.730107   0.03503377  0.037816968            1 
  174000    1.1525914    -6.836322    72.770103  0.034851582  0.037783674            2 
  175000    1.1598907   -6.8257939    72.850811  0.034690862  0.037747174            2 
  176000    1.1715189   -6.8580214    73.377167  0.034742977  0.037708817            2 
  177000    1.1970672   -6.8535977    73.758792  0.034726361  0.037671617            2 
  178000    1.1962756   -6.8784618    74.253406  0.034762831  0.037632677            2 
  179000    1.1724852   -6.8538472    74.477749  0.034673068  0.037596036            4 
  180000    1.1840598   -6.8644611    74.887098  0.034669953  0.037559908            2 
  181000    1.2037906   -6.8519837    75.403223  0.034716033  0.037524257            1 
  182000    1.1736222   -6.9023495     75.65675  0.034641369  0.037490769            2 
  183000    1.1726236   -6.8729146    76.507864  0.034839647  0.037460741            2 
  184000    1.1717584   -6.8315883    76.961641  0.034855816   0.03743158            1 
  185000    1.1975726   -6.8940463    77.242678  0.034793999  0.037400447            2 
  186000     1.170101   -6.8903924    77.582504  0.034759186  0.037370739            1 
  187000    1.1711551   -6.8478187     78.20045  0.034848685   0.03733964            3 
  188000    1.1664543   -6.8341008     78.66135   0.03486762  0.037311638            3 
  189000    1.1810159   -6.8290277    79.102302  0.034877558   0.03728595            2 
  190000    1.1784979   -6.8784521    79.574062  0.034900904  0.037259879            1 
  191000    1.1879478   -6.8372459    79.759959  0.034799284  0.037233995            2 
  192000    1.1721816   -6.8596635    80.460799  0.034922222  0.037209832            2 
  193000    1.1713801    -6.868566    80.590979  0.034797486  0.037184808            1 
  194000    1.1954282   -6.8687402    80.796363  0.034706341  0.037157844            1 
  195000     1.154124   -6.8306775    81.653016  0.034894451  0.037131095            1 
  196000     1.180038   -6.8699093    81.891544  0.034817833  0.037108409            2 
  197000    1.1723048    -6.873004    82.502212  0.034899413  0.037085899            2 
  198000    1.1772653   -6.8287255    83.273329  0.035047697  0.037065941            5 
  199000    1.1833453   -6.8521094    83.453678  0.034947101  0.037049097            2 
  200000    1.1854962   -6.8919863    84.059741  0.035024892  0.037030786            2 
  201000    1.1646898   -6.8876304    84.058245  0.034850019  0.037013514            5 
  202000    1.1734188   -6.8504095    84.416475  0.034825278  0.036994252            1 
  203000    1.1522429   -6.8645104    85.281811  0.035008954  0.036976523            1 
  204000    1.1614954   -6.8786151     85.45487  0.034908035   0.03696108            1 
  205000    1.1942824   -6.9144442    86.498414  0.035161957  0.036948987            2 
  206000    1.1815801   -6.8370076    86.590932  0.035028694   0.03693653            1 
  207000    1.1778546   -6.9077075    86.958465  0.035007434  0.036922962            2 
  208000    1.1663575   -6.9232055    87.246672  0.034954596  0.036907613            2 
  209000    1.1671143   -6.9139543    87.522269  0.034897236  0.036890653            1 
  210000    1.1602281   -6.8650376    88.131833  0.034972949  0.036873061            3 
  211000    1.1698508   -6.8607566    88.418214  0.034920306  0.036856315            2 
  212000     1.130433   -6.9154512    88.529273  0.034799242  0.036836893            2 
  213000    1.1820162   -6.9045177    88.600379  0.034663685  0.036815483            1 
  214000    1.1686763   -6.8622247    89.212141   0.03473993  0.036792782            2 
  215000    1.1452136    -6.885587     89.85918  0.034829139  0.036771058            2 
  216000    1.1751788   -6.8637551    90.396291  0.034875112  0.036750081            2 
  217000    1.1801888   -6.8653188      90.8585  0.034891897  0.036729386            1 
  218000    1.1910038   -6.8879695    90.848224  0.034727914  0.036710211            2 
  219000    1.1462101    -6.903889    91.589937  0.034851574  0.036693288            6 
  220000     1.175639   -6.8871711    92.096488  0.034885033  0.036677624            2 
  221000    1.1734988   -6.8434094    92.342854  0.034820081  0.036661659            1 
  222000    1.1748825   -6.9243064    92.796454  0.034833504  0.036646491            1 
  223000    1.1617396   -6.8807556     93.41908   0.03490997  0.036631422            2 
  224000    1.1689839   -6.8422725    94.028533  0.034980853  0.036618329            2 
  225000    1.1709576   -6.9170854    94.374016  0.034953339  0.036606995            1 
  226000    1.1627293    -6.880622    94.562464  0.034868165  0.036593856            1 
  227000    1.1601638   -6.9686652    94.909168  0.034841838  0.036579975            2 
  228000    1.1527061   -6.9192342    95.192384  0.034792538  0.036565498            2 
  229000    1.1495486   -6.9232951    95.592848  0.034786335  0.036549284            1 
  230000    1.1647229   -6.9560502    95.808959  0.034713391  0.036533998            1 
  231000    1.1591931      -6.9051    96.447505  0.034793472  0.036517683            2 
  232000    1.1371315   -6.9096397    97.041209  0.034856756  0.036501358            2 
  233000    1.1758257   -6.8985708    97.677629  0.034934774   0.03648861            5 
  234000    1.1442699   -6.9077539    97.934701   0.03487703   0.03647489            1 
  235000    1.1565415   -6.9317176    97.899007   0.03471596  0.036458782            4 
  236000    1.1284813   -6.9022905    98.590444   0.03481301  0.036443606            1 
  237000    1.1645052   -6.9353797    98.705169  0.034706459  0.036428196            1 
  238000    1.1620976   -6.8746406    99.661287  0.034895409  0.036415482            3 
  239000      1.14391   -6.8889916    99.875624  0.034824137  0.036402028            3 
  240000    1.1538769   -6.8701263    100.16928  0.034781001  0.036389336            2 
  241000    1.1481286   -6.9495831    100.25619  0.034666733  0.036374039            1 
  242000    1.1675842    -6.866601    101.33713  0.034895706  0.036360033            2 
  243000    1.1707342   -6.9076489    101.51009  0.034811418  0.036346466            1 
  244000    1.1751147   -6.8883892    101.86511  0.034789998  0.036332075            1 
  245000    1.1493392   -6.9294511    102.60458  0.034899517  0.036318458            1 
  246000    1.1665202   -6.9202089    103.11414  0.034930263  0.036307544            3 
  247000    1.1819523    -6.871702    103.26649  0.034840246  0.036299078            2 
  248000    1.1528568   -6.8904604    104.04845  0.034962518  0.036287948            4 
  249000    1.1528631   -6.9179374    104.14411   0.03485412  0.036276224            3 
  250000    1.1229019   -6.9160945    104.47916  0.034826385  0.036261792            3 
  251000    1.1575207   -6.9340928    104.39094  0.034658345  0.036247097            2 
  252000    1.1774184   -6.9455175    104.85128  0.034673041  0.036232863            1 
  253000    1.1290041   -6.9402573    105.58899  0.034778981   0.03621999            1 
  254000    1.1482679   -6.9011228    106.01547  0.034781979  0.036208315            2 
  255000    1.1588384   -6.9198207    106.17277  0.034696984  0.036194559            1 
  256000    1.1696677   -6.9345496    106.43059  0.034645374  0.036179484            1 
  257000    1.1591206   -6.9337447    107.00468  0.034696717  0.036164956            1 
  258000    1.1493888    -6.930697      107.421  0.034696704  0.036149538            1 
  259000    1.1467542   -6.9433968    107.21631  0.034496881  0.036134332            2 
  260000    1.1464077   -6.9372688    108.17752  0.034672282  0.036118678            1 
  261000    1.1398562   -6.8972347    108.31414  0.034583057  0.036103017            1 
  262000    1.1622789   -6.9065799    108.89109  0.034634569  0.036088465            2 
  263000    1.1479301   -6.9693668    108.89026  0.034502616  0.036072931            1 
  264000    1.1072527   -6.9494033    109.50861  0.034567111  0.036056389            2 
  265000    1.1489091   -6.8906275    109.99428  0.034589397  0.036040925            1 
  266000    1.1543747   -6.9263785    109.73184  0.034377144  0.036025024            1 
  267000    1.1544878   -6.9304261    110.54311  0.034501595  0.036008295            2 
  268000    1.1628735   -6.9590253    110.53096   0.03436908  0.035992027            1 
  269000    1.1449705   -6.9444129    111.27808  0.034472762  0.035976082            1 
  270000    1.1442334   -6.9563188    111.84281  0.034519387  0.035962465            3 
  271000    1.1412519   -6.9376839    112.64806  0.034639624   0.03594976            1 
  272000    1.1337585   -6.9575767    113.00296  0.034621005  0.035937438            3 
  273000    1.1484893   -6.9516951      113.463  0.034634616  0.035925869            2 
  274000    1.1363499   -6.9617401    113.47717  0.034512521  0.035912155            1 
  275000    1.1588086    -6.925278    114.20523  0.034607644  0.035898106            1 
  276000     1.125097     -6.93909    113.88253  0.034384823   0.03588452            2 
  277000    1.1373697   -6.9746968    114.88071  0.034560985  0.035871548            2 
  278000    1.1586169   -6.9649181    115.41056  0.034595493  0.035859625            2 
  279000    1.1402458    -6.936886    115.70145  0.034558379   0.03584706            3 
  280000    1.1288316   -6.9214206    116.10442  0.034554888  0.035833439            2 
  281000    1.1231999   -6.9421075    116.60124  0.034579252  0.035820965            1 
  282000    1.1384494   -6.9252343    117.25357  0.034649401  0.035808925            2 
  283000     1.139296   -6.9663036    117.07628  0.034474759  0.035795568            2 
  284000     1.111811   -6.9560977    117.48095   0.03447211  0.035779395            1 
  285000    1.1405976   -6.9925737    117.47494  0.034349396  0.035763397            1 
  286000    1.1358369   -6.9390783    118.37941  0.034492834   0.03574933            1 
  287000    1.1631898   -6.9324272    118.66059  0.034454295  0.035735058            1 
  288000    1.1410106   -6.9318948    119.18434  0.034486209   0.03572137            1 
  289000    1.1381177   -6.9142322    119.87816  0.034566942  0.035708047            3 
  290000    1.1262581   -6.8954417    120.20827  0.034542606  0.035696332            2 
  291000    1.1506751   -6.9658628    119.98691  0.034360513   0.03568322            1 
  292000    1.1324034   -6.9350117    120.67812  0.034440104  0.035669337            1 
  293000    1.1384488   -6.9444147    120.92137  0.034391744  0.035656003            2 
  294000    1.1179536   -6.9637045    121.63017  0.034475671  0.035642906            1 
  295000    1.1259693    -6.946436    121.57966  0.034344536  0.035629443            1 
  296000    1.1305616   -6.9591896    121.86932  0.034310055  0.035615803            3 
  297000    1.1614072   -6.9371198    122.55133  0.034385894  0.035601534            2 
  298000    1.1396934   -6.9878256    122.69351  0.034310265  0.035586478            1 
  299000    1.1344322   -6.9632738    122.97695  0.034274512  0.035571583            2 
  300000    1.1299183    -6.971786    123.01755  0.034171541  0.035556052            2 
  301000    1.1715034   -6.9755442    123.49441  0.034190035  0.035540368            2 
  302000    1.1408641   -6.9833917    123.81057  0.034164065   0.03552354            3 
  303000    1.1138583   -6.9434323    124.13125  0.034139507  0.035505842            5 
  304000    1.1247493   -6.9708214    124.64789   0.03416883  0.035489674            1 
  305000    1.1172249   -6.9621173    125.21124  0.034210722  0.035474111            1 
  306000    1.1179377   -6.9863077    125.47354  0.034170353  0.035458489            1 
  307000    1.1591908   -6.9608424    125.62591   0.03410041  0.035443752            3 
  308000    1.1281076   -6.9674257    126.37868  0.034193366  0.035428715            2 
  309000    1.1074668   -6.9669773    126.62478  0.034149079  0.035413274            2 
  310000    1.1217315   -6.9770551    126.83334  0.034094984  0.035398662            2 
  311000    1.1303709   -6.9665769    127.51311    0.0341675  0.035385547            2 
  312000    1.1584919   -7.0313463    127.78395  0.034130329  0.035371433            4 
  313000    1.1482249   -6.9630852    128.83871  0.034302106  0.035357008            2 
  314000    1.1285659   -6.9583941    128.49619   0.03410196   0.03534324            2 
  315000    1.1410844   -6.9599817    129.22432  0.034186328  0.035328116            2 
  316000     1.118809   -6.9552334    129.36539  0.034115345  0.035313235            1 
  317000     1.132565   -6.9723954    129.48006   0.03403787  0.035297285            1 
  318000    1.1168096   -6.9861827    129.55093  0.033949405  0.035281744            1 
  319000    1.1150811   -6.9418351    130.51832  0.034095695  0.035266196            1 
  320000    1.1270911   -6.9460956    130.90767   0.03409054  0.035250982            2 
  321000     1.107593   -6.9197524    131.25184  0.034073685  0.035236811            3 
  322000     1.127983   -6.9890869    131.63246  0.034066371  0.035222528            2 
  323000    1.1514609   -6.9797653    131.61224  0.033955685  0.035207561            1 
  324000    1.1217249    -6.946881    132.84151  0.034167054  0.035192969            3 
  325000    1.1476826   -6.9625028    132.57147  0.033992684  0.035178224            2 
  326000    1.1426496   -7.0049801    132.57899  0.033890335  0.035161452            4 
  327000    1.1492635   -6.9635204    132.93373  0.033877096  0.035143708            2 
  328000     1.124494   -6.9889629    133.43502  0.033901173  0.035125682            2 
  329000    1.1247087   -7.0008081    133.76653  0.033882099  0.035109214            2 
  330000    1.1506184   -6.9783721    134.26823  0.033906119  0.035093812            1 
  331000    1.1257609   -6.9771277    134.44727  0.033848758  0.035077675            5 
  332000    1.1298268   -6.9845749    135.30711  0.033962629  0.035062594            1 
  333000    1.1418846   -7.0101172    135.42189  0.033889361  0.035048325            1 
  334000    1.0801924   -6.9928134    136.21834  0.033986613  0.035033918            4 
  335000     1.143737   -7.0033946    135.98171  0.033826295  0.035019412            1 
  336000     1.102469    -6.983398    136.96285  0.033968961  0.035005182            1 
  337000    1.1284164   -6.9803952    137.22059  0.033931896   0.03498991            1 
  338000     1.121151   -7.0038407    136.91182  0.033755379   0.03497495            1 
  339000    1.1093076   -6.9874515    137.07007  0.033694708  0.034958837            4 
  340000    1.1326576   -6.9232052    137.21086  0.033630113  0.034941391            3 
  341000    1.1137314   -6.9813658    137.72994  0.033658343  0.034922305            2 
  342000    1.1106329   -6.9969748    137.98634  0.033622404  0.034903607            1 
  343000    1.1111826   -6.9666531     138.2232  0.033581925  0.034884397            5 
  344000    1.1327553   -6.9555161    138.66265  0.033590759  0.034865791            1 
  345000    1.1151361   -7.0327678    138.52203  0.033459428  0.034847612            1 
  346000    1.1257985   -7.0291621    139.04103  0.033487724  0.034828537            2 
  347000    1.1025408   -6.9668918      139.814  0.033576849  0.034808574            1 
  348000    1.1306523   -7.0133495    140.05563  0.033538225  0.034790256            3 
  349000    1.1085251   -7.0002293    140.13861  0.033461941  0.034771935            2 
  350000    1.1076249   -7.0044523    140.65707  0.033489779    0.0347533            2 
  351000    1.1098122   -6.9672319    140.88816  0.033449231  0.034734673            2 
  352000    1.1014356    -7.029401    141.04709   0.03339183   0.03471521            1 
  353000     1.103571   -7.0180276    141.86539  0.033490414  0.034696688            1 
  354000    1.1328615   -7.0258088    141.65114  0.033345371  0.034678389            2 
  355000     1.122022   -7.0134304     142.5805  0.033469601  0.034660558            2 
  356000    1.1096382   -7.0183736    143.02772  0.033480271  0.034643225            2 
  357000    1.0998227   -7.0181984    143.63523  0.033528298   0.03462714            4 
  358000    1.1082993   -7.0197374    143.96619  0.033511683  0.034610347            2 
  359000    1.0953202   -7.0082159    144.11869  0.033453734  0.034592747            2 
  360000    1.1040075   -7.0116014    144.54312  0.033459055  0.034575467            1 
  361000    1.1445003   -7.0259068    144.81622  0.033429415  0.034559357            2 
  362000    1.1129059   -6.9836165    145.46936  0.033487421  0.034542895            3 
  363000    1.1093417   -7.0408276    144.89534  0.033263394  0.034526084            1 
  364000    1.1030509   -7.0612406    145.61515  0.033336801  0.034508829            2 
  365000    1.1091579   -6.9852078    146.45442  0.033437081  0.034490587            2 
  366000    1.1230597   -7.0405917    145.88588  0.033216275  0.034472545            2 
  367000    1.1055464   -6.9988433    147.14149  0.033410873  0.034455204            1 
  368000    1.0996949   -7.0174876    147.17104  0.033326775  0.034439301            2 
  369000    1.1076822   -7.0495892      147.768  0.033371274   0.03442312            2 
  370000    1.1116892   -7.0154149    148.20963  0.033380547   0.03440712            1 
  371000    1.1130458   -7.0322998    148.62429  0.033383713  0.034391035            3 
  372000    1.0952292   -7.0133976    148.17557  0.033193453  0.034374699            5 
  373000    1.0925736   -6.9875471    149.25844  0.033346389  0.034358533            2 
  374000    1.0953462   -7.0450099    149.03113   0.03320658  0.034342133            5 
  375000    1.0804025   -6.9782884    150.29695  0.033399323   0.03432607            1 
  376000     1.129499   -7.0110842    150.06335  0.033258721  0.034309843            2 
  377000    1.1049832   -7.0022745    150.65866  0.033302091  0.034293873            1 
  378000    1.1179949   -6.9963813     150.7824   0.03324127  0.034278268            2 
  379000    1.0948406   -7.0123506    151.23876  0.033253905  0.034262917            3 
  380000    1.1017747   -7.0047914    151.66975   0.03326091  0.034247671            3 
  381000    1.0892341   -7.0130251     152.1489  0.033278412  0.034232144            1 
  382000    1.0904657   -7.0098733     153.1618  0.033412261  0.034217555            1 
  383000    1.1334072   -7.0337597    152.78619  0.033243296  0.034201817            3 
  384000    1.1156596   -7.0148032    152.61297  0.033119134  0.034185872            2 
  385000    1.1182242   -7.0361514    152.91837  0.033099214  0.034168972            2 
  386000    1.0972504   -7.0504952     153.7557  0.033194235  0.034151907            3 
  387000    1.1052431   -7.0390093    153.72868  0.033102644   0.03413475            5 
  388000    1.1294296   -7.0126017    153.76151  0.033024378   0.03411703            2 
  389000    1.0831622   -7.0252981      153.917  0.032972794  0.034099108            1 
  390000    1.1086327   -7.0474712    153.86813  0.032877805  0.034080705            3 
  391000    1.0809127   -7.0798978    154.40354  0.032907831  0.034061984            2 
  392000    1.0741843   -7.0239412    155.15807  0.032984283  0.034042568            2 
  393000    1.1101638   -7.0140341    155.44884  0.032962009  0.034023498            2 
  394000    1.1002379    -7.071376    155.43448  0.032875314  0.034004668            3 
  395000    1.0887655   -7.0400081       155.52  0.032810126  0.033985463            2 
  396000    1.0961223   -7.0671394    155.14719  0.032648819  0.033965733            2 
  397000    1.0901473    -7.075668    155.93383  0.032731701   0.03394454            1 
  398000    1.0857782   -7.0567552    155.83329   0.03262841   0.03392401            2 
  399000    1.0860914   -7.0277648    157.03356  0.032797318  0.033903248            2 
  400000    1.0846414   -7.0206949    157.14967  0.032739515  0.033883412            2 
  401000    1.0735123   -7.0638795    157.47359  0.032725186  0.033863553            1 
  402000    1.1076776   -7.0789826    157.05851  0.032557733  0.033843109            2 
  403000    1.0942707   -7.0255711    157.24349  0.032515195  0.033822164            1 
  404000    1.1221103   -7.0152475     158.1851  0.032628939  0.033801601            1 
  405000     1.070317   -7.0105556    158.30752  0.032573563  0.033781816            1 
  406000    1.0656137   -7.0050243    159.11889  0.032659871  0.033762357            1 
  407000    1.1126567   -7.0818322    159.00535  0.032556377  0.033743721            3 
  408000    1.1056826   -7.0271696    159.74405   0.03262746  0.033724317            2 
  409000    1.1006765   -7.0564154    159.46091  0.032489997  0.033704408            2 
  410000     1.106875   -7.0548215    160.57586  0.032637371  0.033684557            1 
  411000     1.106299   -7.0606132    160.81309   0.03260606   0.03366521            1 
  412000    1.0840446   -7.0553696    161.15788  0.032596659  0.033646522            4 
  413000    1.0857622   -7.0296808    161.24604   0.03253552  0.033627153            1 
  414000    1.0813928   -7.0491151    162.11385  0.032631613  0.033608017            2 
  415000     1.068305    -7.033728    161.90965  0.032511977   0.03358907            3 
  416000    1.1006703   -7.0531449    162.23398  0.032498794  0.033570339            2 
  417000    1.1074422   -7.0240931    162.76358  0.032526694  0.033550387            2 
  418000    1.0881195    -7.033037    163.11553  0.032519045  0.033530836            5 
  419000    1.0686585   -7.0557901    163.14642  0.032447577  0.033511411            3 
  420000    1.0864544   -7.0351953    163.44847  0.032430252  0.033492992            1 
  421000    1.0877412   -7.0515617    163.90728  0.032444038  0.033473923            1 
  422000    1.1049879   -7.0320511    164.31382  0.032447437  0.033454298            1 
  423000    1.0689979   -7.0804758    163.90259  0.032289714  0.033434615            2 
  424000    1.1032031   -7.0685303     164.4069  0.032312676  0.033414641            1 
  425000    1.0667668   -7.0502593    164.30198  0.032216074  0.033394312            2 
  426000    1.0610479   -7.0501414    164.84946  0.032247546  0.033373951            2 
  427000    1.0946555   -7.0570369    165.38341  0.032276232  0.033353422            4 
  428000    1.0780517   -7.0675418    165.22027  0.032169056  0.033333645            2 
  429000    1.0819787   -7.0896519    165.33638  0.032116624  0.033312706            1 
  430000    1.1107568   -7.0678783    165.86914  0.032145182  0.033291856            2 
  431000    1.0914156   -7.0537578    165.91855  0.032080153  0.033270991            1 
  432000    1.0952419   -7.0646957    166.39644  0.032098078  0.033250459            3 
  433000    1.0948973   -7.0420339    167.06009  0.032151672  0.033229898            1 
  434000    1.0863515   -7.0781187    167.05951  0.032077479  0.033208629            3 
  435000    1.0932053   -7.1076097    167.32113  0.032053856  0.033187433            1 
  436000    1.0889881   -7.0433374    167.46391  0.032007627  0.033166383            3 
  437000    1.1048148   -7.0892989    167.60182  0.031960683  0.033144906            3 
  438000    1.0727564    -7.044852    168.63308   0.03208392  0.033122862            1 
  439000    1.0801166   -7.0669133     168.3275  0.031952829  0.033101067            2 
  440000     1.077754   -7.0873283    168.75759  0.031961665   0.03307902            1 
  441000    1.0950731   -7.0792067    168.86264   0.03190904  0.033057667            3 
  442000    1.0894506   -7.0854697    169.19218  0.031898979  0.033036243            2 
  443000    1.0919849   -7.0501363     170.0403  0.031986513  0.033015061            2 
  444000    1.0676524   -7.0329538    170.17399  0.031939562  0.032994084            1 
  445000    1.1030016   -7.0581694    170.24792  0.031881633  0.032973915            2 
  446000    1.0796149   -7.0985047    170.19921  0.031801048  0.032953409            3 
  447000    1.0753254   -7.0360594    171.68564  0.032007017  0.032933035            1 
  448000    1.0488925   -7.0551682    171.43664  0.031889256  0.032912935            2 
  449000    1.0922927   -7.0666911    172.11354  0.031943864  0.032892913            6 
  450000    1.0912285   -7.0604058    172.22338  0.031893218  0.032872838            1 
  451000    1.0682186   -7.1142695    172.18323  0.031815083  0.032852354            2 
  452000    1.0933406   -7.0502306    172.67037  0.031834508  0.032832181            3 
  453000    1.0584624   -7.1118947    172.71829  0.031773048   0.03281168            2 
  454000    1.0599284    -7.053789    173.47429  0.031841829  0.032791881            4 
  455000     1.070706   -7.1244148    173.18906  0.031719607    0.0327724            1 
  456000    1.0739413   -7.1018001    173.87847  0.031776036  0.032752144            1 
  457000    1.0985621   -7.0808886    174.61481  0.031840775    0.0327323            3 
  458000    1.0717836   -7.0725124    174.84491  0.031813121  0.032713372            2 
  459000    1.0646499    -7.087418    174.46198  0.031674289  0.032693554            2 
  460000    1.0743473   -7.0926953    174.70225  0.031648958   0.03267306            1 
  461000    1.0722114   -7.1302222    174.93433  0.031622259   0.03265282            1 
  462000    1.0769195   -7.1013995    175.14437  0.031591697  0.032632784            2 
  463000    1.0905136   -7.1072354    175.76935  0.031635952  0.032611669            2 
  464000    1.0582018   -7.1046879    175.82443  0.031577664  0.032591228            2 
  465000    1.0949196   -7.0755632    176.07709  0.031555035  0.032571563            3 
  466000    1.0590692   -7.0930394    176.74228  0.031606273  0.032551199            2 
  467000    1.0807783   -7.0903453    176.43271  0.031483354  0.032530471            1 
  468000    1.0742035   -7.1236033    176.57862  0.031442061   0.03250974            1 
  469000    1.0634039    -7.101076    176.80762   0.03141571  0.032489007            5 
  470000    1.0682437   -7.1052446    176.84433  0.031355377  0.032468044            1 
  471000    1.0808247   -7.1137131    177.18645  0.031349337  0.032446912            3 
  472000     1.054665   -7.1230741    177.76074  0.031384311  0.032424858            1 
  473000    1.0602193   -7.1372197    177.39193  0.031252982  0.032402684            3 
  474000    1.0881363   -7.0689574    178.44165  0.031371598  0.032380979            2 
  475000    1.0675127   -7.0806205    178.74317   0.03135845  0.032359485            2 
  476000    1.0757851   -7.0701343    178.69847  0.031284746   0.03233754            4 
  477000    1.0678676   -7.1111465      178.746  0.031227462  0.032315897            2 
  478000     1.053346   -7.1298663    179.16256  0.031234756  0.032294332            2 
  479000    1.0753884   -7.1250855     179.1111  0.031160595  0.032272715            1 
  480000    1.0853258   -7.1443003    178.83644  0.031047993  0.032250643            4 
  481000    1.0495086   -7.1016801    179.75446  0.031142492  0.032227999            3 
  482000    1.0904219   -7.0789639    179.62366  0.031055267  0.032205799            1 
  483000    1.0871679   -7.0953647    179.96379  0.031049653  0.032183243            1 
  484000    1.0685461   -7.1208269    180.29894  0.031043205  0.032160589            2 
  485000    1.0807107   -7.1277869    181.13522  0.031122891  0.032138313            1 
  486000    1.0775227   -7.1036861    181.01203  0.031037727  0.032116224            5 
  487000    1.0451022   -7.1466759     181.2718  0.031018446  0.032093859            3 
  488000    1.0898218   -7.1226659    181.53726  0.031000216  0.032071237            3 
  489000    1.0513447    -7.092691    181.68566   0.03096211  0.032049217            2 
  490000    1.0630518   -7.1109241    181.52334  0.030871317  0.032027117            2 
  491000    1.0588635   -7.1161142    181.74617  0.030846262  0.032004836            1 
  492000    1.0434969   -7.1213866    182.05752  0.030836301  0.031981984            1 
  493000    1.0392126     -7.11855    182.22522  0.030802099  0.031959288            3 
  494000    1.0514572   -7.0987516     183.2045  0.030904942  0.031936554            2 
  495000    1.0663847   -7.1094614    182.67991  0.030754193  0.031913174            1 
  496000    1.0701588   -7.1348751    182.70599  0.030696572  0.031889805            3 
  497000    1.0872302   -7.1144699    183.78489  0.030815708  0.031866391            7 
  498000    1.0589467   -7.1196137    182.63595   0.03056157  0.031842709            1 
  499000    1.0612207   -7.1173127    183.09482  0.030576957  0.031818641            2 
  500000    1.0649674   -7.0971149    184.04759  0.030674598  0.031795334            1 
  501000    1.0719067   -7.1151614    184.92792    0.0307598  0.031772116            3 
  502000    1.0475709   -7.1072741    185.50847  0.030794899  0.031749046            1 
  503000    1.0506152   -7.1344593    184.85309  0.030625097  0.031725831            3 
  504000    1.0588843   -7.1198565    184.96443  0.030582743  0.031702849            2 
  505000    1.0580653   -7.0923885     185.3881  0.030592096  0.031679352            2 
  506000    1.0649022   -7.1335203    185.60596  0.030567517  0.031656465            3 
  507000     1.067118   -7.1301156    185.57635  0.030502358  0.031632917            1 
  508000    1.0605086   -7.1154143    185.91657  0.030498125  0.031609561            3 
  509000    1.0285549   -7.1395804    186.02078  0.030455268  0.031585797            1 
  510000    1.0559562   -7.1183683    186.66351  0.030500574  0.031562205            2 
  511000    1.0584614   -7.1322689    186.94717  0.030487145   0.03153908            3 
  512000    1.0558414   -7.1657511    186.74745  0.030395093  0.031516277            3 
  513000    1.0656447   -7.1039828     187.9605  0.030532895  0.031492891            3 
  514000    1.0445013   -7.1237507    188.10835  0.030497463  0.031470151            2 
  515000    1.0595847   -7.1315586    187.92754  0.030408987  0.031447659            2 
  516000    1.0422851   -7.1647204    188.00878  0.030363175  0.031425421            2 
  517000    1.0541142   -7.1410897    188.79648  0.030431412  0.031402989            1 
  518000    1.0599966   -7.1167469    189.35272   0.03046215  0.031380933            2 
  519000    1.0728398   -7.1603376    189.71333  0.030461357  0.031359299            2 
  520000    1.0639301   -7.1477656    189.45412  0.030361238  0.031337686            1 
  521000    1.0540256   -7.1519447     189.7052  0.030343122  0.031316225            2 
  522000    1.0421853   -7.1307753    189.92482  0.030320054   0.03129445            1 
  523000    1.0611042   -7.1732023    190.16674  0.030300627  0.031272615            1 
  524000     1.065218   -7.1255189    190.19649  0.030247533  0.031250431            3 
  525000    1.0557602   -7.1044828    191.14312  0.030340177  0.031228583            2 
  526000    1.0469993   -7.1276148    190.80227  0.030228496  0.031206516            2 
  527000    1.0367449   -7.1576331    190.53975  0.030129626  0.031183847            2 
  528000    1.0506467   -7.1605683    191.28951  0.030190895   0.03116136            1 
  529000    1.0453951   -7.1240619    191.35944  0.030144839  0.031138518            2 
  530000     1.038731   -7.1795248    191.22887  0.030067432  0.031116026            3 
  531000    1.0443962   -7.1750155     191.4234  0.030041336  0.031093294            2 
  532000    1.0372675   -7.1724436    191.80527  0.030044686   0.03107099            1 
  533000    1.0308734   -7.1775626    192.39878  0.030081111  0.031049058            1 
  534000    1.0382189   -7.1843346    192.57013  0.030051518  0.031026612            3 
  535000    1.0314731    -7.158167     193.2955  0.030108333  0.031004221            1 
  536000    1.0508569   -7.1708509    192.96625  0.030000971  0.030981979            4 
  537000    1.0575769   -7.1759307    193.80004  0.030074494  0.030960404            1 
  538000    1.0418309   -7.1524055    194.07297  0.030060868  0.030938921            2 
  539000    1.0120639   -7.1510617    194.76057  0.030111405  0.030917417            3 
  540000    1.0530371   -7.1792386    195.12279  0.030111542  0.030896413            2 
  541000    1.0287892   -7.1811037    195.11811  0.030055162  0.030875371            3 
  542000    1.0229769   -7.1804241    195.83743  0.030110306  0.030854766            1 
  543000    1.0484775   -7.1269683    196.10339   0.03009567  0.030834561            2 
  544000    1.0312327   -7.1584519    195.98894  0.030022815  0.030814535            2 
  545000    1.0368888   -7.1585696    197.36555  0.030178219  0.030795273            2 
  546000    1.0478545    -7.147018    196.97152  0.030062809  0.030775785            3 
  547000    1.0579518   -7.1865131    197.27062  0.030053416  0.030756705            2 
  548000    1.0297471   -7.1559528    198.07553  0.030120975  0.030737329            4 
  549000    1.0471979   -7.1616159    198.37631  0.030111765  0.030718846            2 
  550000    1.0534164   -7.1567208    198.82171  0.030124501  0.030700062            2 
  551000    1.0503038   -7.1960261    197.95321  0.029938477  0.030681247            5 
  552000    1.0259279    -7.191615    199.06002  0.030051332  0.030662597            1 
  553000    1.0350349   -7.2006056    199.25872  0.030026932  0.030644277            3 
  554000    1.0255396    -7.242521     199.2148  0.029966125  0.030625202            3 
  555000    1.0225918   -7.1920431    199.57542  0.029966279  0.030606003            1 
  556000    1.0533469   -7.1933063    199.90284  0.029961456  0.030587448            6 
  557000    1.0152062     -7.20141     200.2218  0.029955386  0.030569246            2 
  558000    1.0281872   -7.1919709    200.64038  0.029964215  0.030550677            2 
  559000    1.0278456   -7.1916155    200.65088  0.029912176   0.03053253            2 
  560000    1.0314137   -7.1978014    201.56968  0.029995487  0.030514327            2 
  561000    1.0237454   -7.2216259    201.03395   0.02986244  0.030496285            1 
  562000    1.0346931   -7.1937132    201.50659  0.029879388  0.030477811            2 
  563000    1.0245193   -7.1637434    201.63477  0.029845288  0.030459574            1 
  564000    1.0393392       -7.174    202.05487  0.029854443  0.030440861            2 
  565000    1.0258282   -7.1862927    202.40021  0.029852539  0.030422526            1 
  566000    1.0343058   -7.1804269    202.59948  0.029829134  0.030404098            2 
  567000    1.0078134   -7.2139989    202.71912  0.029794109   0.03038537            2 
  568000    1.0335581   -7.1817135    203.25313  0.029820001  0.030366913            2 
  569000    1.0102189   -7.1937806    203.05505  0.029738584  0.030348386            2 
  570000    1.0200545   -7.1655722     203.2874  0.029720381  0.030330045            2 
  571000    1.0412238   -7.2189795    203.24374  0.029661958  0.030311299            2 
  572000    1.0365813    -7.166348    204.61636  0.029810076  0.030292642            3 
  573000    1.0291953   -7.1738773    204.16811  0.029692861  0.030274215            5 
  574000    1.0305927   -7.2106131    204.68438  0.029716083  0.030256105            2 
  575000    1.0298694   -7.1827084    204.45236  0.029630777  0.030237875            1 
  576000    1.0229057   -7.1912284    205.23422  0.029692451  0.030220061            2 
  577000    1.0350247   -7.2423148    204.98031  0.029604319  0.030201763            2 
  578000    1.0189025   -7.2453157    204.34241  0.029461132  0.030182815            3 
  579000    1.0015711   -7.2055338    205.51874  0.029579554  0.030164256            1 
  580000    1.0147618   -7.1838017    206.34041  0.029646611  0.030145775            1 
  581000   0.98595955   -7.1962296    205.79912  0.029517946  0.030127132            2 
  582000    1.0476528   -7.2157462    206.09312  0.029509325  0.030108296            1 
  583000    1.0210456   -7.1860542    206.54286  0.029522994  0.030088915            1 
  584000     1.039599   -7.2254901    206.88839  0.029521746  0.030070025            2 
  585000    1.0233716   -7.2127682    206.75317  0.029452019  0.030050899            2 
  586000    1.0128484   -7.2313134    206.52366  0.029369121  0.030031866            5 
  587000   0.99699365     -7.21496    207.66419  0.029481003   0.03001302            1 
  588000    1.0392123   -7.2066426    208.09961  0.029492575  0.029994318            2 
  589000    1.0294242   -7.2283988    208.16463  0.029451702  0.029975715            3 
  590000    1.0389058   -7.1795417    208.15121  0.029399888  0.029957152            3 
  591000     1.017363   -7.2190828    208.00015  0.029328843  0.029938532            2 
  592000    1.0237321   -7.2071543    208.91221  0.029407687  0.029919649            2 
  593000    1.0125514   -7.1965101    209.60616  0.029455615  0.029901445            2 
  594000    1.0297803   -7.1773284    209.67654  0.029415901   0.02988299            3 
  595000    1.0120027   -7.2189492    209.56903  0.029351405  0.029865168            2 
  596000    1.0330725   -7.2107849    209.36558  0.029273711  0.029847148            2 
  597000    1.0279989   -7.2152138    210.21798   0.02934366  0.029829004            2 
  598000     1.037302   -7.2245188    210.41282  0.029321741   0.02981108            2 
  599000    1.0240526   -7.2277692    210.18072  0.029240501  0.029793086            4 
  600000    1.0152203   -7.2349451    210.68459  0.029261749  0.029775016            2 
  601000    1.0147135   -7.2062764    210.80985  0.029230428  0.029756956            2 
  602000     1.008264   -7.1957109    211.33998  0.029255257  0.029738926            1 
  603000    1.0158461   -7.2567541     211.7129  0.029258278  0.029720678            2 
  604000    1.0179447   -7.1836291    211.54843  0.029187146  0.029702382            3 
  605000     1.028308   -7.2489343    212.02419  0.029204434  0.029684607            2 
  606000    1.0464116   -7.1524133    212.72909  0.029253175  0.029666584            2 
  607000   0.99575344   -7.2471115    212.28399  0.029143876  0.029648845            2 
  608000    1.0074646   -7.2468023    212.73944  0.029158366   0.02963077            3 
  609000    1.0206621   -7.2438863    213.13211  0.029164218  0.029612477            1 
  610000    1.0033466    -7.200068    213.28205  0.029136893  0.029594476            2 
  611000    1.0137129   -7.2249871    213.21759  0.029080414  0.029576139            2 
  612000    1.0119109   -7.2345864    213.77566  0.029108887  0.029557756            2 
  613000    1.0073204   -7.2245978     213.7228  0.029054214  0.029539313            3 
  614000    1.0102103   -7.2077104    213.69158  0.029002658  0.029521077            2 
  615000    1.0268816   -7.2183896      214.622  0.029081571  0.029503092            4 
  616000   0.99628737   -7.2627025    214.56288  0.029026364  0.029485082            1 
  617000    0.9915197   -7.2192498     214.2924  0.028942787  0.029467209            8 
  618000   0.99525273   -7.2248911    214.96057  0.028986053   0.02944909            2 
  619000    1.0092237   -7.1959385    215.74215  0.029044446  0.029431285            3 
  620000    1.0019982   -7.2385815    216.16567  0.029054526  0.029414007            4 
  621000    1.0096558   -7.2654319    215.65198  0.028938806  0.029396187            2 
  622000   0.99438837   -7.2415316    215.63753  0.028890344  0.029377792            1 
  623000    1.0056199   -7.2528465    216.00227  0.028892759  0.029359667            4 
  624000   0.99522031   -7.3024357    215.96777   0.02884185  0.029341498            5 
  625000     1.001361   -7.2543513    216.12365  0.028816487  0.029323688            2 
  626000     1.008758   -7.2260072    216.51167  0.028822108  0.029305965            1 
  627000    1.0082931   -7.2183983    216.66534  0.028796563   0.02928748            2 
  628000   0.99779644    -7.208585    217.57595  0.028871543   0.02926935            2 
  629000    1.0068156   -7.2301361    217.54452  0.028821479  0.029251443            2 
  630000    1.0022328   -7.2613813    217.25457  0.028737378  0.029233378            2 
  631000   0.99300499   -7.2439079    218.27877  0.028827095   0.02921521            1 
  632000    1.0022781   -7.2632972     217.5892  0.028690559  0.029197083            2 
  633000    1.0321294   -7.2199908    218.47815  0.028762264   0.02917955            2 
  634000     0.985146   -7.2454036    218.42834   0.02871035  0.029162071            1 
  635000    1.0157846   -7.2348173    218.99449  0.028739434  0.029144627            2 
  636000    1.0000849   -7.2172053    219.59507  0.028772938  0.029127344            2 
  637000    1.0089471   -7.2732985    220.00555  0.028781469  0.029110327            3 
  638000    1.0109322   -7.2456546    220.18685  0.028760038  0.029093296            3 
  639000    1.0117598   -7.2524802    220.30509   0.02873045  0.029076328            2 
  640000    1.0080202   -7.2471763    220.31064  0.028686282  0.029059482            3 
  641000    1.0004944   -7.2527661    220.95588  0.028725414  0.029042344            5 
  642000   0.97884563    -7.261752    220.86157  0.028668429  0.029024881            2 
  643000    1.0133809   -7.2438481    221.00442  0.028642356  0.029007748            4 
  644000   0.99683412   -7.2250234    220.54411  0.028538317  0.028990239            4 
  645000   0.98941628     -7.25033    220.71156  0.028515706  0.028972441            1 
  646000   0.99949149   -7.2443887    221.09831  0.028521454  0.028954488            2 
  647000    1.0000196   -7.2623508    221.95423  0.028587614  0.028936792            2 
  648000   0.98594115   -7.2350936    222.60772  0.028627536  0.028919023            1 
  649000   0.98266346   -7.2763338    221.23953  0.028407747  0.028901227            2 
  650000    1.0018239   -7.2571791    222.21533  0.028489145  0.028883361            6 
  651000   0.98223121   -7.2437134    222.67222  0.028503868  0.028865372            2 
  652000   0.99666154   -7.2526751    222.05446  0.028381193  0.028847334            4 
  653000   0.99576066   -7.2482947    222.20847  0.028357386   0.02882905            1 
  654000     0.978615   -7.2950582    222.62945  0.028367667  0.028810808            1 
  655000   0.97677067   -7.2680327    222.04515  0.028250018  0.028792047            1 
  656000   0.98863494   -7.2885984    222.29704  0.028238953  0.028773306            3 
  657000   0.98943963     -7.23453    223.55173  0.028355115   0.02875459            2 
  658000    1.0195044    -7.277926    222.48062   0.02817637  0.028735996            2 
  659000    0.9917045   -7.2755182    222.95985  0.028194215  0.028716946            5 
  660000   0.98509308   -7.2662711    223.53479   0.02822409  0.028698237            2 
  661000    0.9849384   -7.2806249     223.6104  0.028190923  0.028679236            1 
  662000   0.99937415   -7.2887484    223.56756  0.028142946  0.028660495            2 
  663000   0.98325431   -7.2700691    224.61299  0.028231899  0.028641966            1 
  664000     1.010647   -7.2867882    223.54831  0.028055762  0.028623118            2 
  665000    1.0039626   -7.2602341    224.24453  0.028100819  0.028604312            2 
  666000   0.99683182   -7.2520105    224.85159  0.028134583  0.028585534            2 
  667000   0.98726842   -7.2565746    225.14694  0.028129303  0.028566894            2 
  668000   0.98457216   -7.2763695    224.25294  0.027975666  0.028547923            1 
  669000   0.98797676   -7.2962098    224.75336  0.027996183  0.028529265            1 
  670000    0.9831998   -7.2990682     225.4925  0.028046331  0.028510546            4 
  671000   0.99340406   -7.2830663    225.84737  0.028048606  0.028492205            1 
  672000    1.0121784   -7.2568918    226.47977  0.028085289   0.02847393            2 
  673000   0.98485322   -7.3074513    225.63335   0.02793875  0.028455419            3 
  674000   0.99757257   -7.2772866    226.41672  0.027994154  0.028437102            4 
  675000   0.98734168    -7.269196    227.23599  0.028053826  0.028418655            8 
  676000   0.99592075   -7.3002268    226.64178  0.027939075  0.028400038            1 
  677000   0.97192225   -7.2886023    226.65037  0.027898864   0.02838134            1 
  678000   0.98806982   -7.2870881    226.86664  0.027884297  0.028362795            1 
  679000    1.0138851   -7.2531562    227.04282  0.027864853  0.028344162            1 
  680000   0.96957993   -7.2648516    227.59669  0.027891751   0.02832587            1 
  681000   0.98027878     -7.24692    227.34865  0.027820441  0.028307479            3 
  682000   0.98130371   -7.2779076    228.24632  0.027889336   0.02828909            2 
  683000   0.98148199   -7.2880501    227.64772  0.027775466  0.028270617            4 
  684000   0.97492707   -7.2664811    228.33986  0.027819184  0.028252089            2 
  685000   0.96861337   -7.3052553    228.54136  0.027803086    0.0282338            1 
  686000   0.98330201   -7.2982957    228.76384  0.027789582  0.028215703            3 
  687000   0.97932682   -7.2446729    229.63198  0.027854437  0.028197938            1 
  688000   0.97052916   -7.3224223    228.95401  0.027731833  0.028180291            1 
  689000   0.99071753   -7.3148101    229.50619  0.027758369  0.028162533            4 
  690000   0.96942782   -7.3031846    230.45124  0.027832276  0.028144761            2 
  691000   0.97590049    -7.271402    230.32139  0.027776338  0.028127041            2 
  692000   0.97507314   -7.2716453    230.44762  0.027751399  0.028109251            2 
  693000   0.98321891    -7.307463    230.49051  0.027716511   0.02809157            1 
  694000    0.9879382   -7.2881397    231.02753  0.027741057  0.028073845            2 
  695000   0.96273835   -7.3078527    231.71653  0.027783756  0.028056183            3 
  696000   0.95504555   -7.2834486    231.47865  0.027715356  0.028038564            2 
  697000   0.97212408   -7.2939059    231.42492  0.027669168  0.028020796            2 
  698000    0.9704273   -7.3059556    231.86198  0.027681707   0.02800343            2 
  699000   0.98103336   -7.3020827    232.20563  0.027683075  0.027986039            1 
  700000   0.96185011   -7.2936302    231.59501  0.027570834  0.027968436            1 
  701000   0.98146546   -7.3428406     231.5343  0.027524287  0.027950644            2 
  702000   0.97117472   -7.2947608    232.38065  0.027585547  0.027933028            2 
  703000   0.98918261   -7.3105275    232.54237  0.027565478  0.027915576            3 
  704000    0.9663686   -7.3361835    232.63581  0.027537383  0.027897683            2 
  705000   0.96339781   -7.2873038    232.76692  0.027513821  0.027879575            4 
  706000   0.95898044   -7.3335193    232.85332  0.027485047  0.027862037            1 
  707000   0.95884067   -7.3023119    233.52953  0.027525876  0.027844494            1 
  708000   0.97172653   -7.3028169    233.45103  0.027477757  0.027826872            2 
  709000   0.96048602    -7.280919    233.75317  0.027474514  0.027809224            1 
  710000   0.98252763   -7.2987706     233.9054  0.027453685  0.027791452            2 
  711000   0.97307333   -7.3165035    233.84025  0.027407437  0.027773557            2 
  712000   0.96291086   -7.3029842    234.45314  0.027440676  0.027755439            2 
  713000   0.95799937   -7.3072583     234.8683  0.027450713  0.027737518            1 
  714000   0.97414084    -7.319743    234.14668  0.027328044  0.027719682            3 
  715000   0.97737116   -7.3311591    234.68201  0.027352216  0.027701882            1 
  716000    0.9499522   -7.3099448    235.32133  0.027388423  0.027683987            7 
  717000   0.97440689   -7.3050846    234.98734  0.027311407  0.027666159            2 
  718000   0.97085832   -7.3375075     235.4401  0.027325917  0.027648074            2 
  719000   0.95654784   -7.3538294    234.77968  0.027211368  0.027630041       -1e+20 
  720000   0.98736005   -7.3357139    235.88454  0.027301451  0.027612294            2 
  721000   0.97586937   -7.3148382    235.84202   0.02725867  0.027594503            2 
  722000   0.98239979   -7.3433484    236.70579  0.027320613  0.027576859            2 
  723000   0.98429911   -7.3138946    236.23351   0.02722839  0.027559335            3 
  724000   0.97622602   -7.2796262    236.91982  0.027269777   0.02754181            4 
  725000   0.98689912   -7.3490035    236.53482  0.027187911  0.027524389            2 
  726000   0.95710787   -7.2883231    237.59181  0.027271787  0.027507056            2 
  727000    0.9427937   -7.3068321    237.09501  0.027177328  0.027490033            1 
  728000   0.97805145   -7.2885996     238.1072  0.027255861   0.02747282            2 
  729000   0.96638616   -7.3280595    237.55166  0.027154968  0.027455902            2 
  730000   0.95800039   -7.3493786     237.5829  0.027121335  0.027438608            2 
  731000   0.97801201   -7.3192571    238.20918   0.02715563  0.027421297            3 
  732000   0.95915428    -7.319741    238.31668  0.027130769  0.027404141            4 
  733000   0.96952331   -7.3414666    239.12057  0.027185149  0.027386913            2 
  734000   0.98995512     -7.33537    238.79278  0.027110897  0.027369761            2 
  735000    0.9618192   -7.3427816    239.15993  0.027115638  0.027352464            1 
  736000   0.97676044   -7.3479079     238.1776  0.026967573  0.027334844            1 
  737000   0.95197033   -7.3350104    239.35248  0.027063827  0.027317369            1 
  738000   0.93135016     -7.31628    239.53338  0.027047581  0.027300133            2 
  739000   0.97995577   -7.3358868    239.83717  0.027045238  0.027282934            4 
  740000   0.95557547   -7.3352427    239.70319  0.026993603  0.027265819            1 
  741000   0.96295938   -7.3690698    240.68036  0.027067067   0.02724865            1 
  742000   0.98417139    -7.332153     240.6357  0.027025572  0.027231667            1 
  743000   0.96441172    -7.346245    240.76302  0.027003479  0.027214544            1 
  744000   0.93358885   -7.3330643     240.9897  0.026992573  0.027197696            2 
  745000   0.97227568   -7.3504506    241.28557  0.026989437  0.027180867            3 
  746000   0.94866815   -7.3583919    241.06917  0.026929085  0.027164019            2 
  747000   0.95376044   -7.3621603    240.81186   0.02686433  0.027147103            4 
  748000    0.9477509   -7.3458895    241.30528  0.026883387  0.027130121            4 
  749000   0.93182898   -7.3477113    241.46542  0.026865311  0.027113102            2 
  750000   0.97053988   -7.3461828    241.51227  0.026834697  0.027096044            5 
  751000   0.97133942   -7.3584263    241.36926  0.026783096  0.027078877            3 
  752000   0.94435269   -7.3388873    241.68501   0.02678247  0.027061713            3 
  753000   0.95031875    -7.351176    242.28759  0.026813589  0.027044396            4 
  754000   0.95288202   -7.3566775    241.58925  0.026700846  0.027027142            3 
  755000   0.92248858   -7.3567497    242.30812  0.026744826  0.027009692            5 
  756000   0.95214452   -7.3518093    242.58987  0.026740506  0.026992368            3 
  757000   0.92875893   -7.3429231    243.02122  0.026752666  0.026975328            3 
  758000   0.96312325   -7.3462587    243.35229   0.02675377  0.026958123            3 
  759000    0.9773908   -7.3375807     242.7593  0.026653415  0.026940952            2 
  760000   0.96075699   -7.3540552    243.43921  0.026692896  0.026923856            3 
  761000   0.96744339    -7.327811    244.26807  0.026748584  0.026906919            2 
  762000   0.94638623   -7.3256856    244.33921  0.026721261  0.026890106            2 
  763000   0.95134112   -7.3799138    244.36781  0.026689363  0.026873154            2 
  764000   0.94279047   -7.3470086    244.19563  0.026635648  0.026856266            2 
  765000   0.92944343   -7.3466454    244.64947  0.026650269  0.026839559            2 
  766000   0.92520758   -7.3204625    244.58453  0.026608413  0.026822737            4 
  767000   0.96327296   -7.3426254    245.19151  0.026639668  0.026805789            1 
  768000   0.95040578   -7.3491166    245.30505  0.026617302  0.026789095            4 
  769000   0.93645491   -7.3446958     245.6419  0.026619191  0.026772112            3 
  770000   0.94430935   -7.3740815    245.36438  0.026554587  0.026755324            4 
  771000   0.93212543   -7.3817049    244.84851  0.026464387  0.026738268            1 
  772000   0.94371417   -7.3618735    245.28519  0.026477244  0.026721201            2 
  773000   0.93114566   -7.3422688    246.06231  0.026526769  0.026703991            2 
  774000   0.94451703   -7.3558957    245.51169  0.026433214   0.02668675            2 
  775000   0.92545764   -7.3596998    245.57455  0.026405866  0.026669439            4 
  776000   0.94538024   -7.3668046    245.00569  0.026310748  0.026651951            1 
  777000    0.9561572   -7.3769204    245.43734  0.026323181  0.026634558            3 
  778000   0.95918856   -7.3804771    246.17868  0.026368753  0.026617233            4 
  779000   0.95568405   -7.3575032    246.18483  0.026335562  0.026600037            2 
  780000    0.9453873   -7.3709418    246.89624  0.026377804  0.026582834            2 
  781000   0.93894977   -7.3697244    247.04178  0.026359558  0.026565873            7 
  782000   0.94832139   -7.3679942    246.98302  0.026319589  0.026548767            3 
  783000   0.93125416   -7.4072563    247.21613  0.026310784  0.026531398            1 
  784000   0.95889386    -7.383207    247.88617  0.026348445  0.026514413            2 
  785000   0.95027043   -7.3595682      247.731  0.026298408  0.026497697            4 
  786000   0.95140083    -7.363336    247.42311  0.026232306   0.02648071            2 
  787000   0.90819029   -7.3596007    248.44995  0.026307703  0.026463752            2 
  788000   0.92366318   -7.4028831    248.00225  0.026226972  0.026446727            3 
  789000   0.93137221   -7.3808822    247.97197  0.026190534  0.026429718            4 
  790000   0.95017322   -7.3622035     248.3386  0.026196055   0.02641283            3 
  791000   0.94958858   -7.3695347    249.35178  0.026269678  0.026395749            7 
  792000     0.923098   -7.4086947    247.94177   0.02608815  0.026378632            2 
  793000   0.92309373   -7.3954833    248.40827  0.026104274  0.026361208            2 
  794000   0.94436897   -7.3834096    248.67717  0.026099619  0.026344049            4 
  795000    0.9346162   -7.3880493    248.52158   0.02605048  0.026326858            2 
  796000   0.95546102   -7.3971909     248.9267  0.026060165  0.026309542            2 
  797000   0.94695299    -7.385698    249.70705   0.02610906  0.026292582            3 
  798000   0.90987175   -7.3779916    249.88307  0.026094724  0.026275617            2 
  799000    0.9395122   -7.4038309     249.5237  0.026024583   0.02625864            3 
  800000   0.93047939   -7.4062311    250.13971   0.02605622  0.026241605            2 
  801000   0.92321442   -7.3906888    249.96006     0.026005    0.0262246            3 
  802000   0.93512374   -7.3900258    251.16708  0.026097992  0.026207822            2 
  803000    0.9391545   -7.3967418    250.37909  0.025983716  0.026190947            3 
  804000   0.94479564   -7.3397976    251.02596  0.026018446  0.026174177            1 
  805000   0.91103167   -7.3601799     251.4719  0.026032288   0.02615759            3 
  806000   0.91979917   -7.3667057     251.4457  0.025997281  0.026140998            2 
  807000   0.93465383   -7.4002157    251.17277  0.025936883  0.026124242            4 
  808000   0.92486669   -7.3827406    251.59125  0.025947942  0.026107367            4 
  809000   0.94011081   -7.3804562    251.34803  0.025890815  0.026090494            2 
  810000   0.91935053   -7.4236115    251.50512  0.025875013  0.026073378            3 
  811000   0.91989445   -7.4043268    251.56766  0.025849533  0.026056203            4 
  812000    0.9462055   -7.3838223    251.71615  0.025832938  0.026039169            1 
  813000   0.91029833   -7.4107478    251.08695   0.02573667  0.026022127            1 
  814000   0.93581533   -7.4031327    251.96869   0.02579532  0.026004986            4 
  815000   0.92162019   -7.3881148    252.44243  0.025812109  0.025987504            3 
  816000   0.91889644   -7.3701344    252.50555  0.025786923  0.025970235            3 
  817000   0.94520109   -7.4238114    251.47955  0.025650708   0.02595291            3 
  818000   0.91457896   -7.4104407    252.38043  0.025711128  0.025935637            2 
  819000   0.92077025   -7.3883623    252.42227  0.025683992  0.025918299            1 
  820000   0.92489464   -7.4025291    252.45373  0.025655867  0.025900844            2 
  821000   0.92988096   -7.3949805    252.56363  0.025635772   0.02588338            2 
  822000   0.91690487   -7.4209635    252.06166  0.025553696  0.025865904            2 
  823000   0.94035735   -7.4366445    252.72899  0.025590218  0.025848384            3 
  824000   0.93377308    -7.409292    253.35198  0.025622166  0.025831094            3 
  825000   0.91980857   -7.4048923    252.47359  0.025502382  0.025813873            4 
  826000   0.92630334   -7.4370505    252.84186  0.025508663  0.025796389            4 
  827000   0.92414585   -7.4103203    253.52919  0.025547077  0.025778982            4 
  828000   0.91416937    -7.425338    253.27543  0.025490683  0.025761385            2 
  829000   0.90865348   -7.4758188    253.32255  0.025464671  0.025743703            1 
  830000    0.9273672   -7.4232888    254.29945  0.025532073   0.02572622            4 
  831000   0.93724194   -7.4366449    254.13169  0.025484526  0.025709049            4 
  832000   0.92126115   -7.4116501    253.90374  0.025431064  0.025692127            4 
  833000   0.93526794   -7.4374033    254.12228  0.025422397  0.025675133            2 
  834000   0.93373874   -7.4370371    254.49052  0.025428709  0.025658014            2 
  835000   0.92727214   -7.3806236    255.32097  0.025481135  0.025640935            1 
  836000   0.92223512   -7.4297135    254.62897  0.025381676  0.025623679            1 
  837000   0.94898633   -7.4278148    255.13745  0.025401976  0.025606408            3 
  838000   0.93157046   -7.4231091    255.39072   0.02539685  0.025589349            1 
  839000   0.93011528   -7.4373348    254.61317  0.025289349   0.02557219            2 
  840000   0.93432942   -7.4239986    255.38638  0.025335951  0.025554862            3 
  841000   0.92759931    -7.404975    255.50764  0.025317839  0.025537616            2 
  842000   0.92669234   -7.4169508    255.98578  0.025335093  0.025520272            3 
  843000   0.90691085   -7.4613588    255.54978   0.02526194   0.02550285            4 
  844000   0.93210953   -7.4266945    255.83886  0.025260551  0.025485459            5 
  845000   0.92168727   -7.4733748    255.53673  0.025200861  0.025468114            2 
  846000   0.92365753   -7.4646256    256.35063  0.025251244  0.025450826            3 
  847000   0.91321713   -7.4251661    255.99344  0.025186289   0.02543368            1 
  848000   0.93975287   -7.4229331    256.68511  0.025224558  0.025416389            6 
  849000   0.92043064   -7.4188339    256.44292  0.025171076  0.025399087            2 
  850000   0.92307323   -7.4674844    256.12017   0.02510982  0.025381737            6 
  851000   0.91538318   -7.4390531    256.10455  0.025078784  0.025364201            3 
  852000   0.91800197   -7.4673775     256.1694  0.025055693  0.025346724            2 
  853000   0.90707662   -7.4299041    256.87558  0.025095309   0.02532915            2 
  854000   0.90845617    -7.449236    257.43963  0.025120963  0.025311605            3 
  855000   0.90980043   -7.4168206    256.94056  0.025042939  0.025294432            2 
  856000   0.91342632   -7.4526268    257.69197  0.025086835  0.025277212            2 
  857000   0.90531029   -7.4524256    257.60996  0.025049588  0.025259872            2 
  858000   0.88879688   -7.4558086    257.65446  0.025024715  0.025242494            9 
  859000   0.90862766   -7.4689961    257.09737  0.024941537  0.025225113            3 
  860000   0.92502964   -7.4470363    257.73042  0.024973878  0.025207604            3 
  861000   0.90074168   -7.4528098    258.63192  0.025032125   0.02519028            2 
  862000   0.89007713   -7.4421934    258.27596  0.024968674  0.025172918            1 
  863000   0.90078353   -7.4086081    258.83458  0.024993683  0.025155555            4 
  864000   0.90490888   -7.4580587    258.57688  0.024939899  0.025138354            3 
  865000   0.91307626   -7.4787278    258.48878   0.02490258  0.025120908            2 
  866000    0.9076033   -7.4706707    258.53392  0.024878168  0.025103446            6 
  867000   0.91708463   -7.4520729    259.31588  0.024924633  0.025085892            2 
  868000   0.91186947   -7.4827739    258.94338  0.024860155  0.025068415            1 
  869000   0.88647157   -7.4385304    258.85561  0.024823131  0.025051024            2 
  870000   0.91766114   -7.4627103    259.47312  0.024853747  0.025033727            5 
  871000   0.88195818   -7.4648602    259.20983  0.024800022   0.02501641            1 
  872000   0.90791235   -7.4709818    259.09712   0.02476081  0.024998938            3 
  873000   0.90142075   -7.4829261    259.56018  0.024776649  0.024981519            5 
  874000   0.90946781   -7.4367162     259.9546  0.024785907  0.024964292            3 
  875000   0.90335579   -7.4410228    260.53376  0.024812739  0.024947243            3 
  876000   0.90828735   -7.4860863     260.1294  0.024745948  0.024930096            3 
  877000   0.92737811   -7.4688871    259.71002  0.024677881  0.024912675            4 
  878000    0.9094709   -7.4575271     259.5886   0.02463825  0.024895335            3 
  879000   0.88278115   -7.4573451    259.83401  0.024633486  0.024877916            2 
  880000    0.9074527   -7.4633111    260.29208  0.024648871  0.024860532            2 
  881000   0.88677019   -7.4566193    260.87645  0.024676168   0.02484305            3 
  882000   0.90160062   -7.4500023    260.99487   0.02465938  0.024825732            3 
  883000   0.90986862   -7.4992198      260.947  0.024626935  0.024808415            2 
  884000   0.88549778   -7.4623292    260.62258  0.024568493  0.024790912            3 
  885000   0.90468441   -7.4786603     260.9076  0.024567571  0.024773562            1 
  886000   0.90877488   -7.4832592     261.6223  0.024607063  0.024756221            2 
  887000   0.91629937   -7.4824668    261.26696  0.024545938  0.024739102            5 
  888000   0.90301338   -7.4616226    261.80296  0.024568596  0.024721767            3 
  889000   0.91099636   -7.4983952    261.22325  0.024486619   0.02470447            2 
  890000    0.9086777   -7.4705025    262.25804  0.024555996  0.024687316            3 
  891000   0.90809639   -7.4885311    261.83659  0.024489019  0.024670217            2 
  892000   0.86908588   -7.4882535    262.19021  0.024494601  0.024653133            3 
  893000   0.92336795   -7.4896201    261.68939  0.024420435  0.024636207            2 
  894000   0.90616315   -7.4911436     263.2118   0.02453503   0.02461941            2 
  895000   0.90278282   -7.5221837    262.92258  0.024480687  0.024602591            5 
  896000    0.8885467   -7.4590448    262.86888   0.02444837  0.024585708            3 
  897000   0.89311299   -7.4643016    262.32994  0.024371046  0.024568881            2 
  898000   0.89938571    -7.478039    263.38383  0.024441707  0.024551913            1 
  899000   0.89812035   -7.4876335    262.77429  0.024358017  0.024535091            3 
  900000   0.88720338   -7.4953694    262.67134   0.02432142  0.024518078            2 
  901000   0.92554991   -7.4686287     263.3461  0.024356835  0.024501033            2 
  902000   0.90022934   -7.4674244    263.44595  0.024339057  0.024484164            3 
  903000   0.89956404   -7.5025509     263.9253   0.02435634  0.024467297            3 
  904000   0.89115562   -7.4918122    263.55822  0.024295559  0.024450273            3 
  905000   0.89870588   -7.4747083    263.74402  0.024285822  0.024433236            2 
  906000   0.87832615    -7.499668    263.60784  0.024246491  0.024416174            2 
  907000   0.89553408   -7.4925822     263.7884  0.024236347  0.024399034            2 
  908000   0.86909468   -7.4689211    263.87688  0.024217775  0.024381913            5 
  909000   0.91473405   -7.4934344     264.0282  0.024205005  0.024364959            2 
  910000   0.88536891   -7.5166712    264.28622  0.024202035  0.024348025            4 
  911000   0.90864944   -7.4654098    264.97703   0.02423866  0.024331019            1 
  912000   0.88862106   -7.4858032    264.76102  0.024192344   0.02431412            5 
  913000   0.87463283   -7.4786153    265.43028  0.024226933  0.024297354            7 
  914000   0.89855326   -7.4792232    265.09521  0.024169877  0.024280589            2 
  915000   0.86744615   -7.4965669    265.64501  0.024193534   0.02426399            2 
  916000   0.89569485   -7.5172133    265.63263  0.024165996  0.024247176            2 
  917000   0.90244685   -7.5036501    264.89652  0.024072748  0.024230463            3 
  918000   0.87616352   -7.5043514    265.16033  0.024070473  0.024213757            2 
  919000   0.89549143   -7.5410592    265.36301   0.02406266  0.024196937            5 
  920000   0.88907164   -7.4667437    265.95078  0.024089745    0.0241802            1 
  921000   0.88112137   -7.4888344     266.3154   0.02409658  0.024163578            3 
  922000   0.89899219   -7.5289406    266.65659  0.024101283  0.024146885            2 
  923000   0.89182426   -7.5195624    265.76685   0.02399484  0.024130118            5 
  924000   0.88026182   -7.5292874    266.43509  0.024029138   0.02411332            3 
  925000   0.88670734   -7.4913245    266.65981  0.024023406  0.024096618            6 
  926000   0.89153406   -7.4925812    266.24237  0.023959896  0.024079881            5 
  927000    0.8969172   -7.5278661    266.41817  0.023949854  0.024063087            2 
  928000   0.87547444   -7.5295097    265.88738  0.023876381  0.024046343            2 
  929000   0.87207427   -7.5140611    265.75674  0.023838961  0.024029566            2 
  930000   0.89351596   -7.5114638    266.21493  0.023854384   0.02401277            3 
  931000   0.89372693   -7.5405876    266.84678  0.023885319  0.023995868            5 
  932000   0.87599671   -7.5348629    266.48966   0.02382776  0.023978999            4 
  933000   0.86791122   -7.5226439     267.0673  0.023853814  0.023962135            2 
  934000   0.86989543   -7.5313349     266.9649  0.023819138  0.023945331            4 
  935000   0.90265222   -7.5327953    267.58743  0.023849147  0.023928706            3 
  936000   0.86622999   -7.4879501    268.03003  0.023863072  0.023912179            3 
  937000   0.87160489   -7.5000341    268.07935  0.023841991  0.023895802            5 
  938000   0.89734252   -7.5178131    267.28384  0.023745899  0.023879341            3 
  939000   0.88650214   -7.5211238    267.54392  0.023743692  0.023862762            3 
  940000   0.89450033   -7.4920904      268.374  0.023792021  0.023846214            1 
  941000   0.88945697   -7.5248724    267.96969  0.023730932  0.023829602            4 
  942000   0.88567799    -7.502226    268.30798  0.023735667  0.023813016            3 
  943000   0.87135946   -7.5073399    267.84041  0.023669177  0.023796384            1 
  944000   0.86881716    -7.509908    268.84085   0.02373242  0.023779818            6 
  945000   0.87258678    -7.554889    267.59235  0.023597209  0.023762991            6 
  946000   0.86371351   -7.5311586    268.42164  0.023645317  0.023746237            5 
  947000   0.87641329   -7.5415816    268.05639  0.023588207  0.023729381            1 
  948000   0.86646753   -7.5075917    269.02449  0.023648425  0.023712693            3 
  949000   0.88624862   -7.5323362    268.80806  0.023604501  0.023695999            2 
  950000   0.89278287   -7.5425018    268.32631  0.023537395   0.02367933            4 
  951000   0.87250607   -7.5437926    268.78862  0.023553157  0.023662524            3 
  952000   0.86780115   -7.5351063    269.41549  0.023583289  0.023645847            3 
  953000   0.88401961   -7.5321885    269.77096  0.023589626  0.023629259            2 
  954000   0.87067963   -7.5271518    268.99273  0.023496919  0.023612717            5 
  955000   0.89191352   -7.5300434    269.00829  0.023473672  0.023595902            2 
  956000   0.87671453   -7.5575255    269.30801  0.023475245  0.023579001            3 
  957000   0.87403393   -7.5216717    269.23265  0.023444153  0.023562164            2 
  958000   0.86497284    -7.506125    269.92855  0.023480215  0.023545298            2 
  959000   0.86859638   -7.5352996    269.10753  0.023384388   0.02352847            2 
  960000   0.87139866   -7.5265738    270.34798  0.023467707  0.023511619            6 
  961000   0.87292884   -7.5439791    269.65304  0.023383025  0.023494868            2 
  962000   0.85470014   -7.5601811    270.34666  0.023418803  0.023478199            5 
  963000   0.86788624   -7.5197678    270.05324  0.023369093  0.023461432            1 
  964000   0.86176957   -7.5487518    269.59659  0.023305376  0.023444684            3 
  965000   0.87677881   -7.5806295    270.32661  0.023344267   0.02342799            4 
  966000   0.86865835   -7.5536761    270.41797  0.023327982  0.023411322            4 
  967000   0.88228109   -7.5554541    271.03875  0.023357355  0.023394727            2 
  968000   0.86314218   -7.5278295    270.48083  0.023285196  0.023378162            3 
  969000   0.85614221    -7.533128     271.0957  0.023314043  0.023361774            3 
  970000   0.85530329   -7.5768297    271.39867  0.023316037  0.023345334            2 
  971000   0.86470966   -7.5311851    271.69124  0.023317133  0.023328949            4 
  972000   0.86127011   -7.5468092    271.79873   0.02330236  0.023312592            4 
  973000   0.86971333   -7.5380836    271.73707   0.02327313  0.023296185            3 
  974000   0.86061833   -7.5402103    272.11064  0.023281198  0.023279782            1 
  975000   0.86608756   -7.5306616    271.31866  0.023189629  0.023263503            2 
  976000   0.86169674   -7.5807047    271.18806  0.023154718  0.023247167            2 
  977000   0.85780384   -7.5607114    272.01735  0.023201753  0.023230646            2 
  978000   0.86423139   -7.5725287    271.97877  0.023174742  0.023214175            2 
  979000   0.87949272   -7.5685761    271.55122  0.023114676  0.023197728            2 
  980000   0.88006626   -7.5646381    272.25265  0.023150736  0.023181233            2 
  981000   0.85074405   -7.5535037    272.76504  0.023170662  0.023164971            2 
  982000   0.86162493   -7.5557419    272.95542  0.023163223  0.023148725            1 
  983000   0.85176232   -7.5318705    271.88532  0.023048942  0.023132421            8 
  984000   0.85373063   -7.5661336    272.03659  0.023038329  0.023115979            1 
  985000    0.8589718   -7.5570328    272.38132  0.023044105   0.02309954            6 
  986000   0.87529646   -7.5986015    272.24335  0.023009073   0.02308308            4 
  987000   0.86861952   -7.5801736     272.3705  0.022996496  0.023066648            3 
  988000   0.86850921   -7.5731213     272.5485  0.022988234  0.023050063            2 
  989000   0.85787972    -7.552074    272.93437  0.022997504  0.023033562            2 
  990000   0.85374868   -7.5573477    273.31081  0.023005961  0.023017269            3 
  991000   0.85443634   -7.5559087    273.37344  0.022988012  0.023000898            2 
  992000   0.85806308   -7.5488576    273.74737  0.022996251  0.022984576            2 
  993000   0.87013426   -7.5547883    272.86125  0.022898729  0.022968356            2 
  994000   0.86657812   -7.6012151    273.46214  0.022926068  0.022952088            3 
  995000   0.84583318   -7.5558387    274.46303  0.022986853  0.022935848            5 
  996000   0.86408542   -7.5693973    274.35572  0.022954796  0.022919665            3 
  997000   0.85937559   -7.5697611    273.88639  0.022892543  0.022903602            3 
  998000   0.86413402   -7.5748846    274.25424  0.022900321   0.02288758            6 
  999000   0.84723301   -7.5252624    274.90452  0.022931641  0.022871518            5 
 1000000   0.85143854   -7.5542753    275.55447  0.022962873  0.022855571            1 
 1001000   0.84518364    -7.549501    274.94808  0.022889451  0.022839472            3 
 1002000   0.86880693   -7.5547445    275.31774   0.02289735  0.022823541            2 
 1003000   0.86554719   -7.5682381    274.51215   0.02280759  0.022807449            2 
 1004000   0.86920558   -7.5648081    275.35216  0.022854595  0.022791459            2 
 1005000   0.85771994    -7.566106    274.99862  0.022802539  0.022775421            5 
 1006000   0.85675881   -7.5863485    274.72875  0.022757517  0.022759247            2 
 1007000   0.85058667   -7.5688091    275.28549  0.022780991  0.022743053            2 
 1008000   0.82607982   -7.5926405    274.88889  0.022725603  0.022726909            3 
 1009000   0.85598321   -7.5757484    274.90624  0.022704512  0.022710763            3 
 1010000   0.87448126   -7.5744253    275.78129  0.022754232  0.022694708            1 
 1011000   0.84633416    -7.629676    275.32083  0.022693771  0.022678562            3 
 1012000   0.87440489   -7.6096251    274.66235  0.022617124  0.022662228            4 
 1013000   0.84398297   -7.6085716    275.31891  0.022648808  0.022645917            2 
 1014000   0.84114287   -7.6238485     274.6669  0.022572888  0.022629527            2 
 1015000   0.84316022   -7.5941704    275.08166  0.022584701  0.022613269            3 
 1016000   0.85043173   -7.6001933    275.12665  0.022566162   0.02259702            2 
 1017000   0.83593458   -7.6102312    276.24606  0.022635698  0.022580747            2 
 1018000    0.8604608   -7.5641964    275.83573  0.022579873  0.022564425            4 
 1019000   0.86142832   -7.5894481    276.05281  0.022575467  0.022548171            3 
 1020000   0.84359459   -7.5495023    277.01438  0.022631894  0.022532128            2 
 1021000   0.84389472   -7.5775728    276.16764  0.022540617  0.022516172            4 
 1022000   0.84397096   -7.6040491    276.49258  0.022545057  0.022500135            1 
 1023000    0.8174823    -7.575691    277.15309  0.022576824  0.022484333            4 
 1024000   0.84209732   -7.5728669    276.86248  0.022531126   0.02246839            3 
 1025000   0.83945701    -7.617878    276.23395  0.022458045  0.022452348            2 
 1026000   0.83960054   -7.5935186    276.22236  0.022435214  0.022436173            2 
 1027000   0.85036423   -7.6013592    276.76661  0.022457531    0.0224201            4 
 1028000   0.84587463   -7.5755842    277.26734  0.022476276  0.022404047            2 
 1029000   0.84922811   -7.6007944    276.50159  0.022392419   0.02238798            2 
 1030000   0.84502685   -7.6042645    276.55052  0.022374638  0.022371848            2 
 1031000   0.83250784   -7.6109927    276.37481  0.022338733  0.022355609            2 
 1032000   0.83182491   -7.6060308    276.67274  0.022341145  0.022339234            3 
 1033000   0.85761609   -7.5714344    277.13079  0.022356469  0.022323027            3 
 1034000   0.84948056   -7.6045688    276.86155  0.022313149  0.022306793            3 
 1035000   0.85071746   -7.6254964    276.51685  0.022263836  0.022290588            5 
 1036000   0.85410226   -7.6002097    277.42341  0.022315268  0.022274462            2 
 1037000   0.83848931   -7.6250553    277.56098  0.022304804  0.022258245            4 
 1038000   0.81616017   -7.5857863    277.45521  0.022274824  0.022242112            4 
 1039000   0.82494604   -7.6304448    277.30253   0.02224114  0.022226001            5 
 1040000   0.83104547     -7.61671    277.33793  0.022222591  0.022209879            2 
 1041000   0.84482732   -7.6196998    277.77008  0.022235837  0.022193636            2 
 1042000   0.84683922   -7.6205903    277.61959  0.022202462  0.022177433            4 
 1043000   0.83642063   -7.6228641    278.22806  0.022229791  0.022161317            5 
 1044000   0.82324361   -7.6406929    277.64344  0.022161833  0.022145159            3 
 1045000   0.84605094   -7.6424282    277.69162  0.022144468  0.022129045            3 
 1046000   0.85153851    -7.624351    278.04913  0.022151779  0.022112947            1 
 1047000   0.83729855   -7.6337392    278.67129  0.022180141  0.022096909            2 
 1048000   0.85603259   -7.6548911    278.18171  0.022120047  0.022080832            2 
 1049000    0.8432544   -7.6417076    277.65729    0.0220573  0.022064789            3 
 1050000    0.8500962   -7.6136068    279.01734  0.022144233  0.022048964            3 
 1051000   0.83006747    -7.628442    278.78755  0.022104944  0.022033034            2 
 1052000   0.83349452    -7.583995    278.02501  0.022023527  0.022017129            2 
 1053000   0.83823086   -7.5932464    278.78397  0.022062675  0.022001284            4 
 1054000   0.83244457   -7.6265709    277.98661  0.021978701  0.021985374            1 
 1055000   0.83266182   -7.6113985     278.9879  0.022036959  0.021969463            3 
 1056000   0.83268345   -7.5913437    279.48307  0.022055166  0.021953564            2 
 1057000   0.82663589   -7.6524653    279.01074  0.021997062  0.021937749            2 
 1058000   0.82184834   -7.6362997    278.91863  0.021969016  0.021921795            2 
 1059000   0.83550852   -7.6288876    279.54173  0.021997303  0.021905771            3 
 1060000   0.84267574   -7.6302551    278.90249  0.021926296  0.021889696            3 
 1061000   0.81538678   -7.6232524    278.97339  0.021911199  0.021873692            9 
 1062000   0.83912685   -7.6348396    278.51484  0.021854586  0.021857547            5 
 1063000   0.82855343   -7.6723075    278.95292  0.021868369  0.021841323            5 
 1064000   0.83647713   -7.6487483    278.67252  0.021825855  0.021825099            6 
 1065000   0.82784242   -7.6314941    278.21656  0.021769684  0.021809024            4 
 1066000   0.82034434   -7.6461611    279.25345   0.02183032   0.02179299            2 
 1067000   0.82930257   -7.6679105    279.29945  0.021813453  0.021777047            2 
 1068000   0.80325503   -7.6392548    279.25385   0.02178947  0.021760922            4 
 1069000   0.82982932   -7.6195685    279.20259  0.021765091  0.021744969            2 
 1070000    0.8245277   -7.6252191    280.18853  0.021821536  0.021728979            2 
 1071000   0.83707477   -7.6338857    279.70011  0.021763158  0.021713043            4 
 1072000   0.83645105   -7.6661492    279.56486  0.021732343  0.021697077           10 
 1073000   0.82660516   -7.6579558     280.1209  0.021755273   0.02168109            2 
 1074000   0.84085249   -7.6424065    279.95492  0.021722138  0.021665148            2 
 1075000   0.81373638   -7.6778042    279.92022  0.021699242  0.021649169            2 
 1076000   0.81092497   -7.6521292    280.40667  0.021716749  0.021633293            2 
 1077000   0.82598997   -7.6456583    280.55655  0.021708182  0.021617418            4 
 1078000   0.82825457   -7.6478876    280.69709   0.02169891  0.021601439            3 
 1079000   0.82697828   -7.6712394    280.12954  0.021634966   0.02158552            5 
 1080000   0.81941679   -7.6795327    279.56163  0.021571113  0.021569456            2 
 1081000   0.81366342   -7.6556784    280.53599  0.021626271  0.021553599            8 
 1082000   0.82265602   -7.6678244    280.42317  0.021597595  0.021537605            2 
 1083000   0.81694385   -7.6520997    280.88443  0.021613145  0.021521753            2 
 1084000    0.8185481   -7.6532684    280.60097  0.021571415  0.021506023            4 
 1085000    0.8310719    -7.669922    281.42843  0.021615087  0.021490385            1 
 1086000   0.82138148   -7.6655955    281.57677  0.021606566  0.021474726            5 
 1087000   0.81746793   -7.6710309    282.11808  0.021628188  0.021459074            2 
 1088000   0.82009691   -7.6354096    281.41623  0.021554552  0.021443462            4 
 1089000   0.82473151   -7.6097832    281.51521  0.021542333  0.021427828            6 
 1090000   0.81268288   -7.6566944    281.68112  0.021535254  0.021412219            3 
 1091000   0.82810206   -7.6742042    281.22494   0.02148067  0.021396615            5 
 1092000   0.80900674   -7.6573527    281.80119  0.021504974  0.021380913            2 
 1093000   0.81089302   -7.6417125    281.63842   0.02147289  0.021365124            5 
 1094000   0.81755457    -7.693614    281.61984  0.021451847  0.021349356            3 
 1095000   0.79198138   -7.6581999    281.70594  0.021438808  0.021333629            7 
 1096000    0.8234927   -7.6752859    281.44074  0.021399083  0.021317815            4 
 1097000   0.82441128   -7.6548251    282.01527   0.02142322  0.021302097            3 
 1098000    0.8161642   -7.6704523    282.25301  0.021421753   0.02128646            3 
 1099000   0.80523742   -7.6673466    282.17396  0.021396266  0.021270839            4 
 1100000    0.8304662   -7.6761798    282.35093  0.021390222  0.021255206            3 
 1101000    0.8166942    -7.667265    282.51694  0.021383359  0.021239577            1 
 1102000   0.81148529   -7.6910389     282.2212  0.021341591  0.021223943            3 
 1103000   0.82596629   -7.6569996    282.32029  0.021329729  0.021208408            1 
 1104000   0.81431616   -7.6725781    281.94336  0.021281957  0.021192799            4 
 1105000   0.79965922   -7.6896809     282.4327    0.0212996  0.021177161       -1e+20 
 1106000   0.81931284   -7.6916457    282.71382  0.021301523  0.021161491            2 
 1107000   0.81105671    -7.669787    282.92989  0.021298546  0.021145928            2 
 1108000   0.81768017   -7.6710414    283.19698  0.021299412  0.021130415            4 
 1109000   0.83003205   -7.6843099    282.39198  0.021219716  0.021114836            6 
 1110000   0.83002345   -7.6756496    282.34098  0.021196771    0.0210992            3 
 1111000   0.82140455   -7.7092519     282.4762  0.021187834  0.021083485            5 
 1112000   0.80768963   -7.6943068    281.85054  0.021121893  0.021067836            6 
 1113000   0.81052123   -7.7114985    282.97054  0.021186773  0.021052145            2 
 1114000   0.80859953   -7.7051857    282.40525  0.021125467  0.021036447            3 
 1115000   0.81833722   -7.7231982    282.33565  0.021101319  0.021020687            3 
 1116000   0.80121828   -7.6775998    282.90754  0.021125115  0.021005024            2 
 1117000    0.8019197   -7.6535235    283.34662   0.02113896  0.020989422            2 
 1118000   0.81010673    -7.654166    282.82655  0.021081288   0.02097366            2 
 1119000   0.80761268   -7.7147122    282.72624  0.021054978  0.020957963            3 
 1120000   0.80800603   -7.7123547    283.11366  0.021065004  0.020942381            5 
 1121000   0.81618795   -7.6999703    283.07022  0.021042984   0.02092678            3 
 1122000   0.81655559   -7.6987675    283.72635  0.021072961  0.020911126            2 
 1123000   0.78920537   -7.7261575    282.67646  0.020976288  0.020895441            3 
 1124000   0.80492992   -7.7068712    282.94185  0.020977302  0.020879769            2 
 1125000   0.78991553     -7.68709    283.07293  0.020968365  0.020864156            1 
 1126000   0.81799435   -7.7126514    283.30865  0.020967189  0.020848612            4 
 1127000   0.81547277   -7.6992321    283.72054   0.02097904  0.020833093            4 
 1128000   0.80565538   -7.6875561    283.74005  0.020961883  0.020817538            4 
 1129000   0.81599793   -7.6756349    284.48536  0.020998329  0.020802001            6 
 1130000   0.78933229    -7.677924    283.56755  0.020912061  0.020786485            7 
 1131000   0.79355348   -7.6557762    283.76796  0.020908338  0.020771001            2 
 1132000   0.80460095   -7.6719992    284.03249  0.020909341  0.020755608            6 
 1133000   0.80623923   -7.6959245    284.11705  0.020897106  0.020740313            3 
 1134000   0.79258908   -7.6648214     284.4446  0.020902748  0.020724987            1 
 1135000   0.80058436   -7.7025718    284.00427  0.020852002  0.020709712            3 
 1136000   0.81857084   -7.6797182    285.08574   0.02091298  0.020694417            2 
 1137000   0.79806593   -7.7017873    285.18857  0.020902123  0.020679263            4 
 1138000   0.81726561    -7.691529    283.80073  0.020782128  0.020664019            3 
 1139000   0.80525412   -7.7085734    284.54852  0.020818593  0.020648759            2 
 1140000   0.78346773   -7.7032727    285.06558  0.020838127  0.020633584            5 
 1141000   0.79568037   -7.7089167    285.54184  0.020854648  0.020618381            3 
 1142000   0.80287338   -7.7181774    284.74206  0.020778026  0.020603212            4 
 1143000   0.80370174   -7.6980295    285.15306  0.020789812  0.020587976            3 
 1144000   0.81429366    -7.711288    285.48496  0.020795816  0.020572738            5 
 1145000   0.79036494   -7.7068201    284.81946  0.020729218  0.020557482            3 
 1146000     0.793173     -7.69965    285.97683   0.02079529   0.02054228            4 
 1147000   0.79056135    -7.704449    285.32204  0.020729587  0.020527142            3 
 1148000   0.81049173   -7.7348721     284.9417  0.020683921  0.020511922            8 
 1149000   0.79580522   -7.7030546    285.88189  0.020734109  0.020496924            4 
 1150000   0.78728106   -7.7126478    285.35743  0.020678074  0.020481855            2 
 1151000    0.7835872   -7.7045625    285.31396  0.020656962  0.020466625            2 
 1152000   0.80115729   -7.7114225     284.6427  0.020590473  0.020451452            2 
 1153000    0.7949056   -7.7165622    286.14369    0.0206811  0.020436261            1 
 1154000   0.79250863   -7.7177143    285.83742  0.020641061  0.020421157            3 
 1155000   0.77155499    -7.695339    286.11124  0.020642947  0.020406143            6 
 1156000   0.81270867   -7.7320134    285.30142  0.020566711  0.020391077            2 
 1157000   0.80058405   -7.7332701     285.8666  0.020589642  0.020375957            2 
 1158000   0.80013032   -7.7346671    286.46554  0.020614964  0.020360915            3 
 1159000   0.80140223   -7.7474171    285.95648  0.020560575  0.020345905            2 
 1160000   0.81077076   -7.7270499    286.29268  0.020567003  0.020330907            4 
 1161000    0.7802602   -7.7093705    286.61212  0.020572217  0.020315914            6 
 1162000   0.80243927   -7.7395746    286.48426  0.020545343  0.020300972            4 
 1163000   0.79239134   -7.7332568    286.53097  0.020531024  0.020286049            3 
 1164000   0.79481354   -7.7315004     286.3499  0.020500423  0.020271145            7 
 1165000   0.77324542   -7.7078353    286.78915  0.020514245  0.020256268            3 
 1166000   0.78210844   -7.7165872    287.50249  0.020547634  0.020241468            5 
 1167000   0.79285457   -7.7276618    287.48703  0.020528922  0.020226733            2 
 1168000   0.77041855   -7.7466194    287.41468  0.020506185  0.020211946            3 
 1169000     0.783368   -7.7435728    287.74791  0.020512397  0.020197246            5 
 1170000   0.77911448   -7.7234928    287.12354  0.020450395  0.020182527            2 
 1171000   0.78047502    -7.757893    287.93254  0.020490502  0.020167883            6 
 1172000   0.79360485   -7.7324643    287.84362  0.020466696  0.020153088            2 
 1173000     0.790414   -7.7138725    287.83574  0.020448689  0.020138439            3 
 1174000   0.79555776   -7.7378241    287.69122  0.020421012  0.020123826            2 
 1175000   0.76996066   -7.7269701    287.39914  0.020382918  0.020109132            3 
 1176000   0.78831093   -7.7566493    287.41373  0.020366619  0.020094379            4 
 1177000   0.77423171   -7.7275884    287.68504  0.020368525   0.02007959            2 
 1178000   0.77372693   -7.7620664    287.66106  0.020349537  0.020064864            3 
 1179000   0.78440862   -7.7344188    287.75878  0.020339185   0.02005008            4 
 1180000   0.78832266   -7.7809519    287.84323  0.020327912  0.020035318            1 
 1181000   0.77746325   -7.7555677    287.89093  0.020314065  0.020020544            3 
 1182000   0.78052285   -7.7385013    287.62189  0.020277911  0.020005751            2 
 1183000   0.78478573   -7.7797302    287.50551  0.020252572  0.019990945            2 
 1184000   0.78929612   -7.7697991    286.97055  0.020197814  0.019976057            6 
 1185000    0.7845459   -7.7761592    287.79298  0.020238606  0.019961218            3 
 1186000   0.78660491   -7.7304562    287.56899  0.020205803  0.019946397            6 
 1187000   0.77946928   -7.7719803    288.03479  0.020221482  0.019931599            5 
 1188000   0.77687701   -7.7444738    288.34523  0.020226237  0.019916853            2 
 1189000   0.79238472   -7.7401232     288.2479  0.020202404  0.019902173            3 
 1190000   0.77633911   -7.7635053    287.93174  0.020163287  0.019887485            3 
 1191000   0.77591533   -7.7782713    288.07564  0.020156426   0.01987275            4 
 1192000   0.77898786    -7.750983    287.38908  0.020091518   0.01985806            2 
 1193000   0.77499503   -7.7536304    288.05533  0.020121216  0.019843363            3 
 1194000   0.77019033   -7.7414582    287.71569  0.020080659  0.019828695            3 
 1195000   0.77212127   -7.7500463    287.65407  0.020059558  0.019813919            3 
 1196000    0.7627428   -7.7548268    288.10669  0.020074323  0.019799155            3 
 1197000   0.78070181   -7.7737596    287.93711  0.020045747  0.019784418            4 
 1198000   0.76901305   -7.7704395    288.09092  0.020039713  0.019769591            1 
 1199000    0.7698711   -7.7700103    287.68095  0.019994506  0.019754841            3 
 1200000   0.77294719   -7.7834418    287.97075  0.019997969  0.019740143            1 
 1201000   0.77384372   -7.7634016     287.9554  0.019980253  0.019725339            2 
 1202000   0.78811203   -7.7664164    287.85013  0.019956332  0.019710506            3 
 1203000   0.77987932   -7.7667528    288.10197  0.019957188  0.019695612            5 
 1204000    0.7692774   -7.7873421    288.00649  0.019934004  0.019680692            6 
 1205000   0.78103259   -7.7506412    289.15665  0.019997002  0.019665865            2 
 1206000   0.77101418   -7.7723759    288.26886  0.019919075  0.019651026            2 
 1207000   0.76505932   -7.8041558    288.67153  0.019930373  0.019636241            2 
 1208000   0.78073909    -7.758806    288.34011  0.019891012   0.01962145            2 
 1209000   0.76250636   -7.7734529    288.17402  0.019863111  0.019606735            2 
 1210000   0.78746725   -7.7802883    289.22849  0.019919317  0.019592043            2 
 1211000   0.75350981   -7.8016641    288.85584  0.019877226  0.019577251            3 
 1212000   0.76959202   -7.7646053    288.73346  0.019852411  0.019562485            3 
 1213000   0.77595276   -7.7776124    288.29292  0.019805779  0.019547722            2 
 1214000    0.7661139   -7.7906062    288.33621  0.019792436  0.019532983            6 
 1215000   0.79162661   -7.7705525    288.56807  0.019792049   0.01951823            3 
 1216000   0.75835494   -7.8013928    288.75523  0.019788599  0.019503467            2 
 1217000   0.76205762   -7.7931874    288.88723  0.019781377  0.019488773            4 
 1218000   0.77740062   -7.8008293    289.22647  0.019788347  0.019474097            4 
 1219000   0.77037448   -7.8273697    288.31837  0.019710033  0.019459379            4 
 1220000    0.7598958   -7.7942525    289.03202  0.019742624  0.019444657            4 
 1221000   0.77673633   -7.8071687    289.33414  0.019747075  0.019429905            2 
 1222000   0.76847149   -7.7701599    289.21023  0.019722465  0.019415312            3 
 1223000   0.78973903   -7.7701859    289.01824  0.019693257  0.019400676            3 
 1224000   0.77856093   -7.7956807    289.94543  0.019740293  0.019386087            5 
 1225000    0.7522096   -7.7740636    289.14175  0.019669507   0.01937144            2 
 1226000   0.75214733   -7.7937612    288.67049  0.019621431  0.019356746            4 
 1227000   0.76024518   -7.7969108    288.64479  0.019603694  0.019342142            2 
 1228000   0.76772621   -7.7966474    288.89283  0.019604562  0.019327486            3 
 1229000   0.76712416   -7.8119506    289.32848   0.01961815  0.019312804            2 
 1230000   0.76231296   -7.8115755    289.28934  0.019599549  0.019298161            1 
 1231000   0.76430524   -7.7816655    289.46267   0.01959536  0.019283535            1 
 1232000   0.76669345    -7.798988    289.57236  0.019586875  0.019268912            2 
 1233000   0.75296524    -7.778223    289.88082  0.019591837  0.019254345            4 
 1234000   0.75007456    -7.803211    288.65389  0.019493105  0.019239789            3 
 1235000   0.75344007   -7.7811198    288.33153  0.019455569  0.019225159            3 
 1236000   0.76234409   -7.7659418    289.17958  0.019497005  0.019210535            3 
 1237000   0.74858653   -7.7942894    289.76792  0.019520878  0.019195915            4 
 1238000   0.75521804   -7.8015144    288.95241  0.019450216  0.019181277            2 
 1239000   0.76838589   -7.8196257     289.3038  0.019458152  0.019166625            2 
 1240000   0.76059721    -7.804635    288.98325  0.019420917  0.019151902            3 
 1241000   0.76918192   -7.8041677    288.96805  0.019404247   0.01913712            3 
 1242000   0.74639163   -7.8158875    289.87483  0.019449465   0.01912241            5 
 1243000   0.75085331   -7.8145848    290.04059  0.019444931   0.01910769            4 
 1244000   0.75635057   -7.8155124    289.68589  0.019405539  0.019093012            4 
 1245000   0.76971508   -7.8063973     289.0116  0.019344819  0.019078262            5 
 1246000   0.75871125   -7.8111152    289.58249  0.019367475  0.019063541            2 
 1247000   0.76644956   -7.8121631     288.7657  0.019297361  0.019048738            4 
 1248000   0.75786671   -7.8008506     288.4496  0.019260791  0.019033933            2 
 1249000   0.76233716   -7.7982288     289.4305  0.019310815  0.019019099            3 
 1250000   0.75133726   -7.8216502    289.02855   0.01926857  0.019004332            3 
 1251000   0.75603513   -7.7987624    289.87083  0.019309275  0.018989581            4 
 1252000   0.75000922   -7.8467965    289.19319  0.019248748  0.018974894            7 
 1253000   0.74961752   -7.8284197    288.66984  0.019198579  0.018960164            3 
 1254000   0.75087082   -7.8324936    289.62532  0.019246765   0.01894545            3 
 1255000   0.75429067   -7.8350233     289.7284  0.019238274  0.018930782            2 
 1256000   0.76449034   -7.8347837    289.32631  0.019196278  0.018916083            4 
 1257000   0.76772635   -7.8440235    289.66175  0.019203245  0.018901416            2 
 1258000   0.76016622    -7.826252    289.54468  0.019180226   0.01888674            2 
 1259000   0.75453333    -7.834165    289.03151  0.019131024  0.018872004            3 
 1260000   0.74461111   -7.8463043    289.76596  0.019164416  0.018857278            1 
 1261000   0.75733721   -7.8161019     289.4774  0.019130148    0.0188426            3 
 1262000   0.76060733   -7.8070891    290.13615  0.019158488  0.018827904            2 
 1263000   0.74897548   -7.8148889    289.35243  0.019091609  0.018813318            5 
 1264000     0.753205    -7.809924     289.8988  0.019112526  0.018798772            3 
 1265000   0.75627071   -7.8019976    289.68889   0.01908359  0.018784296            3 
 1266000   0.74805316   -7.8515588    289.72295  0.019070758  0.018769768            2 
 1267000   0.73318412   -7.8463122    290.10296    0.0190807  0.018755215            5 
 1268000    0.7486411   -7.8415188    289.87123  0.019050422   0.01874067            5 
 1269000   0.73492685   -7.8340928    290.20526  0.019057346  0.018726155            4 
 1270000   0.77868908   -7.8388699    289.88909  0.019021594  0.018711686            3 
 1271000   0.74901478     -7.80835    290.32254  0.019035047  0.018697206            8 
 1272000   0.72363835   -7.8334245    289.81821  0.018987042  0.018682752            3 
 1273000   0.74611712   -7.8376805    289.87586  0.018975901  0.018668246            2 
 1274000   0.72481587   -7.8483937    290.13571  0.018978003  0.018653714            3 
 1275000   0.72516343   -7.8159848    290.43931  0.018982961  0.018639132            2 
 1276000   0.74984729   -7.8610187    289.49076  0.018906137  0.018624592            3 
 1277000   0.75225733   -7.8076703    290.17185  0.018935777  0.018610096            4 
 1278000   0.73504329    -7.828942    290.98903  0.018974246  0.018595657            3 
 1279000   0.73931786    -7.839428    290.57915  0.018932705  0.018581271            3 
 1280000   0.75394336   -7.8262065    290.76499  0.018930012  0.018566911            4 
 1281000   0.74414971   -7.8330447    290.36419  0.018889161  0.018552478            7 
 1282000   0.74760968   -7.8245109    290.34464  0.018873156  0.018538012            3 
 1283000   0.73223134   -7.8525868    290.38722  0.018861212  0.018523569            4 
 1284000   0.73480124   -7.8760776    290.12122  0.018829258  0.018509104            3 
 1285000   0.73737249   -7.8404812    290.15971  0.018817102  0.018494628            3 
 1286000   0.74946235    -7.850682    289.88442  0.018784631  0.018480134            3 
 1287000   0.74786696    -7.836864    289.81863  0.018765775   0.01846567            4 
 1288000   0.73864677   -7.8518196    289.20365  0.018711416  0.018451139            2 
 1289000   0.72385885   -7.8915381    289.93693  0.018744307  0.018436601            3 
 1290000   0.72126965   -7.8714123    290.13171  0.018742358   0.01842207            2 
 1291000   0.73404473   -7.8624623    290.20493  0.018732567  0.018407568            3 
 1292000   0.74151831   -7.8778817     290.3144  0.018725129  0.018393072            3 
 1293000   0.75650171   -7.8474773    290.83374  0.018744118  0.018378568            2 
 1294000   0.73953143   -7.8636922    289.97178  0.018674123  0.018364098            8 
 1295000   0.72588076   -7.8848376    290.14722  0.018670992  0.018349596            3 
 1296000    0.7403416   -7.8741872    290.15893  0.018657339  0.018335192            6 
 1297000   0.72753364   -7.8899404    290.45968  0.018662277  0.018320728            3 
 1298000    0.7300657    -7.896639     289.9849  0.018617418  0.018306241            2 
 1299000   0.72293554   -7.8743878    290.39778  0.018629573  0.018291812            3 
 1300000    0.7474001   -7.8764157    290.35627  0.018612581  0.018277458            4 
 1301000   0.70040813   -7.8565147      290.202  0.018588393   0.01826305            5 
 1302000   0.72539411   -7.8588877    290.68332  0.018604923  0.018248705            3 
 1303000    0.7330552   -7.8422632    291.55595  0.018646454  0.018234464            4 
 1304000   0.73494493   -7.8183914    291.62209  0.018636381  0.018220259            2 
 1305000   0.73460608   -7.8506496    291.23494  0.018597378   0.01820608            4 
 1306000   0.71822127   -7.8609386    291.24443  0.018583744  0.018191896            3 
 1307000   0.74071283   -7.8643723    292.29123  0.018636268  0.018177756            2 
 1308000   0.72409631   -7.8178987    291.30361  0.018559098   0.01816369            5 
 1309000   0.73088418   -7.8339459    291.77963  0.018575225  0.018149686            2 
 1310000   0.72884185   -7.8548418    291.81812  0.018563494  0.018135657            4 
 1311000   0.74563162   -7.8498693    291.74821   0.01854489  0.018121679            3 
 1312000   0.73061094    -7.843474    292.14467  0.018555937  0.018107734            3 
 1313000   0.71802891   -7.8349276    291.65492  0.018510721  0.018093767            5 
 1314000   0.72312248   -7.8516917    292.16543   0.01852901  0.018079776            5 
 1315000   0.73628272    -7.864422    291.32921  0.018461927  0.018065745            4 
 1316000   0.73458327    -7.863936    291.06314   0.01843105  0.018051721            2 
 1317000   0.73741836   -7.8584364    291.62962  0.018452899  0.018037625            3 
 1318000   0.72121912   -7.8875503     291.7337  0.018445479  0.018023547            2 
 1319000   0.71736576    -7.883964    291.21639  0.018398812   0.01800947            2 
 1320000   0.72891277   -7.8609908     291.2374  0.018386199  0.017995387            2 
 1321000   0.74341503   -7.8632393    291.45691  0.018386129  0.017981311            7 
 1322000   0.72474856    -7.862225    291.79956   0.01839382  0.017967259            2 
 1323000   0.72109541   -7.8680511    291.40071  0.018354794  0.017953202            4 
 1324000   0.72532668   -7.8903938    291.89356  0.018371951  0.017939146            6 
 1325000   0.72972029   -7.8974317      292.112  0.018371824  0.017925084            3 
 1326000   0.73028592   -7.8730132    290.98985  0.018287447   0.01791105            4 
 1327000   0.73951323   -7.8774453    291.61878  0.018313161  0.017897049            2 
 1328000   0.72902168   -7.8731855    291.62829  0.018299968  0.017883026            3 
 1329000   0.72085515   -7.8783882    291.78296  0.018295897  0.017868984            3 
 1330000   0.72016311   -7.8866055    292.10182  0.018302119   0.01785496            3 
 1331000   0.71874695   -7.8598067    292.35979  0.018304519  0.017840981            4 
 1332000   0.71639556   -7.8699262    291.98639  0.018267417  0.017826958            3 
 1333000    0.7217595   -7.8785618    291.72789  0.018237552  0.017812948            3 
 1334000    0.7205566   -7.8810917    291.67676  0.018220687  0.017798944            5 
 1335000   0.70704271   -7.8902343    291.92894   0.01822278   0.01778497            3 
 1336000   0.70874132   -7.9050238    291.57521  0.018187076  0.017770968            6 
 1337000   0.72380648   -7.8681915    291.95677  0.018197256   0.01775702            6 
 1338000   0.72522708   -7.8740457    292.58001  0.018222472  0.017743154            3 
 1339000   0.72192587   -7.8815709    292.08601  0.018178119  0.017729299            3 
 1340000    0.7219285   -7.8763613    291.96376  0.018156951  0.017715448            3 
 1341000   0.71645452   -7.8900069    292.50922  0.018177307  0.017701594            1 
 1342000   0.72182557   -7.9029769    292.11546  0.018139311  0.017687722            5 
 1343000   0.72459904    -7.912981    291.87619  0.018110957  0.017673853            1 
 1344000   0.71520056   -7.8986375    292.59169  0.018141846  0.017660025            3 
 1345000   0.72750044   -7.9072057    291.70443  0.018073384   0.01764618            3 
 1346000   0.73699861   -7.9020217    292.07306   0.01808278  0.017632298            2 
 1347000   0.71133569   -7.9203734    291.89473  0.018058323  0.017618432            3 
 1348000   0.72365711   -7.9081154    291.93045  0.018047134  0.017604547            4 
 1349000   0.71517476   -7.9314791    291.61823   0.01801447  0.017590647            3 
 1350000   0.70742751   -7.9166665    291.95908  0.018022165  0.017576756            3 
 1351000   0.70833258   -7.9058131    291.86755   0.01800318  0.017562896            3 
 1352000   0.71732831   -7.9049464    292.18674  0.018009538  0.017549054            3 
 1353000   0.71333129   -7.9312447    291.52696   0.01795559  0.017535233            2 
 1354000   0.71378815   -7.9286489    291.76713   0.01795711  0.017521331            1 
 1355000   0.72544788   -7.9114317    292.39979  0.017982767  0.017507502            6 
 1356000   0.70051381   -7.9116073    292.73289  0.017989976  0.017493773            3 
 1357000   0.71132922   -7.9107758     292.0727  0.017936177  0.017480056            5 
 1358000    0.7041878   -7.9013209    292.24347  0.017933448  0.017466395            5 
 1359000   0.70343034   -7.8788538    292.95741  0.017964031  0.017452746            3 
 1360000   0.70890674   -7.9260066    292.51448  0.017923681  0.017439041            3 
 1361000   0.71821291   -7.9135848    292.54053  0.017912107  0.017425394            3 
 1362000   0.71337316   -7.9156864    292.85716  0.017918328  0.017411783            3 
 1363000   0.69901125    -7.905334    292.35668  0.017874583  0.017398172            4 
 1364000   0.69550515   -7.8765547    293.08022  0.017905683  0.017384581            4 
 1365000    0.7185077   -7.8905265    292.80506  0.017875766   0.01737104            3 
 1366000   0.71462612   -7.9258287    293.25089  0.017889879  0.017357534            3 
 1367000   0.69241715   -7.9215996    293.16836   0.01787176  0.017343963            3 
 1368000   0.68832449   -7.9140144    292.75279  0.017833381  0.017330409            2 
 1369000   0.70515138   -7.9116067    293.30376  0.017853893  0.017316903            4 
 1370000   0.70148871   -7.9200827    292.85297  0.017813441  0.017303363            2 
 1371000   0.70938959   -7.9359832     292.5505  0.017782063  0.017289812            2 
 1372000   0.71861285   -7.9437947    292.16125   0.01774546   0.01727623            3 
 1373000    0.7133916   -7.9114859    293.11059  0.017790155  0.017262637            4 
 1374000   0.69301009   -7.9331567    293.16363  0.017780424  0.017249086            4 
 1375000   0.69508882   -7.9257696    293.30173  0.017775862  0.017235578            2 
 1376000   0.70091313    -7.937132    293.87444  0.017797629  0.017222109            5 
 1377000   0.70039801   -7.9438332    293.53287  0.017764032  0.017208594            3 
 1378000   0.70524697   -7.9425467    293.12469  0.017726457  0.017195082            5 
 1379000   0.71024069   -7.9567286     293.0933  0.017711706  0.017181575            5 
 1380000   0.70906375   -7.9369053     292.9631  0.017691009  0.017168092            4 
 1381000   0.69455886   -7.9431714    292.66193  0.017660025  0.017154646            3 
 1382000   0.70559516   -7.9386794    293.14746  0.017676523  0.017141182            2 
 1383000   0.70307256   -7.9644023    293.17898  0.017665641  0.017127693            3 
 1384000   0.68956528   -7.9400901    293.53784  0.017674484  0.017114222            2 
 1385000   0.70804266   -7.9489201    292.91853   0.01762446  0.017100772            5 
 1386000   0.69688992   -7.9352429    293.08695   0.01762187  0.017087306            3 
 1387000   0.70751095   -7.9424107    292.82473  0.017593411  0.017073908            3 
 1388000   0.69864348   -7.9561618    293.38624  0.017614448  0.017060537            2 
 1389000   0.70040877   -7.9298201    293.04646  0.017581381  0.017047148            2 
 1390000   0.69318961   -7.9468193     293.6214  0.017603202  0.017033831            6 
 1391000    0.6906442   -7.9556413    293.60931  0.017589822   0.01702049            3 
 1392000   0.70950683   -7.9593112    293.09431  0.017546355  0.017007155            5 
 1393000    0.6870624   -7.9249878    293.76348  0.017573791  0.016993838            1 
 1394000   0.69583072   -7.9478686    293.55328  0.017548618  0.016980564            2 
 1395000   0.71022497   -7.9532597    293.36348    0.0175247  0.016967241            3 
 1396000   0.69679904   -7.9541172     292.7402   0.01747494  0.016953924            3 
 1397000   0.70032716   -7.9523997    292.75656  0.017463407  0.016940578            1 
 1398000   0.70733869   -7.9780416    293.31467  0.017484184  0.016927224            5 
 1399000   0.69927707   -7.9715434    292.90006  0.017446989  0.016913849            2 
 1400000     0.701933   -7.9761343    292.78606  0.017427742  0.016900457            3 
 1401000   0.70001045    -7.986155    292.97448  0.017426509  0.016887139            6 
 1402000   0.69178654   -7.9637747    294.16994  0.017485137  0.016873893            4 
 1403000   0.67937694   -7.9696263    293.89154  0.017456138   0.01686065            3 
 1404000   0.68318493   -7.9430096    294.07675  0.017454698   0.01684747            4 
 1405000    0.6840051   -7.9715955    293.55786  0.017411498  0.016834308            3 
 1406000   0.69035384   -7.9753838    293.40484  0.017390045  0.016821091            2 
 1407000   0.67587323   -7.9833803    292.68758  0.017335204  0.016807877            4 
 1408000   0.69790954   -7.9761745     293.5691  0.017375065  0.016794666            4 
 1409000   0.68039416   -7.9736734    293.88138  0.017381203  0.016781461            4 
 1410000   0.69444634    -7.978108    293.21802   0.01732967  0.016768258            2 
 1411000   0.69082666   -7.9641825    294.42948  0.017388937  0.016755114            2 
 1412000   0.68986955   -7.9555855     293.9681  0.017349392  0.016741967            3 
 1413000   0.68992433   -7.9791882    292.88798  0.017273412  0.016728832            4 
 1414000   0.68162948   -7.9997949    293.82629  0.017316495  0.016715672            3 
 1415000   0.68657886   -7.9917676    293.43173  0.017281021  0.016702526            3 
 1416000   0.68725525   -7.9664689    294.02912  0.017303974  0.016689357            4 
 1417000   0.69235557   -7.9726534    293.71561  0.017273324  0.016676222            2 
 1418000   0.68128724   -7.9826456    293.45439  0.017245791  0.016663077            3 
 1419000   0.68966692   -7.9825614    293.16789  0.017216813  0.016649993            3 
 1420000   0.67264392   -7.9908998    293.92113  0.017248893  0.016636902            3 
 1421000   0.69751684   -7.9705694    294.12718  0.017248838  0.016623859            6 
 1422000   0.67466243   -7.9958773    293.56376  0.017203689  0.016610781            5 
 1423000   0.67747097   -8.0176384     292.8394   0.01714918  0.016597657            2 
 1424000   0.67956279   -7.9769718    293.51691  0.017176785  0.016584547            5 
 1425000   0.69052039   -7.9735477    294.46687  0.017220285  0.016571464            2 
 1426000   0.69104946   -7.9854687    294.56348  0.017213855  0.016558394            2 
 1427000    0.6911809   -8.0071765    293.96021  0.017166562  0.016545362            3 
 1428000   0.66548603   -7.9764596    293.82683  0.017146757  0.016532295            4 
 1429000   0.68486165   -7.9683144     293.8619  0.017136803  0.016519282            3 
 1430000   0.68379634   -7.9857225    293.46238  0.017101537  0.016506274            5 
 1431000   0.70429061   -7.9747413    294.01268  0.017121633  0.016493287            5 
 1432000   0.65240725   -8.0213523    293.63073  0.017087449   0.01648029            3 
 1433000    0.6838262   -8.0040327     294.3295  0.017116161  0.016467322            4 
 1434000   0.68330577    -8.001121    293.99771  0.017084943  0.016454349            5 
 1435000   0.69328021   -7.9980113    293.80369   0.01706177  0.016441341            3 
 1436000   0.68286697   -8.0059484     293.5431  0.017034767  0.016428357            3 
 1437000   0.67699192   -7.9950657    294.08145  0.017054132  0.016415345            5 
 1438000   0.66595736   -7.9987062    293.65343  0.017017468  0.016402385            3 
 1439000   0.66616615   -7.9804722    293.95094  0.017022871  0.016389446            4 
 1440000   0.68376412   -7.9897058    294.53625  0.017044922  0.016376545            2 
 1441000   0.69252137   -7.9821231    294.01621  0.017003019  0.016363641            3 
 1442000   0.69202583   -7.9865607    293.51289  0.016962141  0.016350732            3 
 1443000   0.67245616   -7.9916904    293.47178  0.016948012  0.016337831            3 
 1444000   0.67572732   -7.9839485    293.25626  0.016923838  0.016324905            6 
 1445000   0.68486438   -8.0218805    293.70019  0.016937727  0.016311993            3 
 1446000   0.68135516   -7.9978356    293.81149  0.016932428  0.016299057            3 
 1447000   0.68352159   -8.0019685    293.55223  0.016905795  0.016286144            3 
 1448000   0.67872074   -7.9870982    293.50299  0.016891286  0.016273206            3 
 1449000   0.68315356   -8.0019754    294.03464  0.016910204  0.016260255            4 
 1450000   0.67382295   -8.0143324    293.80552  0.016885375  0.016247301            4 
 1451000     0.686807   -8.0017916    293.65906  0.016865326  0.016234324            4 
 1452000   0.67962956   -8.0214627    293.51563  0.016845479   0.01622134            3 
 1453000   0.67659013   -8.0270315    293.47415  0.016831506  0.016208381            4 
 1454000    0.6748863   -8.0363779     293.3201  0.016811101  0.016195409            6 
 1455000    0.6823228     -8.06071    293.57187  0.016813967  0.016182401            3 
 1456000   0.66827297   -8.0390447    293.44937  0.016795408  0.016169443            3 
 1457000   0.67097479   -8.0130825    293.60641  0.016792862  0.016156484            4 
 1458000   0.65341297   -8.0043673    293.28423   0.01676293  0.016143526            2 
 1459000   0.66614595   -8.0337307    293.09835  0.016740824  0.016130591            3 
 1460000   0.67576237   -8.0237198    293.38215  0.016745557  0.016117666            8 
 1461000   0.67148804   -8.0149164    294.16279  0.016778621  0.016104776            3 
 1462000   0.66906002     -8.00498    293.50758  0.016729798   0.01609189            3 
 1463000   0.66003437   -8.0180594    292.91204   0.01668444  0.016079009            2 
 1464000   0.66408136   -8.0341341    294.39772  0.016757612  0.016066146            3 
 1465000   0.66362246   -8.0378797    293.78456  0.016711295   0.01605329            4 
 1466000   0.67025757   -8.0597759    293.25369  0.016669718  0.016040435            2 
 1467000   0.68565655   -8.0375312     293.2029  0.016655471  0.016027598            4 
 1468000   0.67503566   -8.0285189    293.98103  0.016688297  0.016014755            3 
 1469000   0.66508436   -8.0449814     293.4019  0.016644083  0.016001898            4 
 1470000   0.68108516   -8.0319976     292.9238  0.016605658  0.015989079            9 
 1471000   0.65256849   -8.0436055    293.41642  0.016622276   0.01597625            5 
 1472000   0.66192475   -8.0421032    293.58591  0.016620579  0.015963408            2 
 1473000   0.66314618   -8.0393451    293.54856  0.016607183  0.015950621            3 
 1474000   0.65851108   -8.0242826    293.49827  0.016593073  0.015937861            3 
 1475000   0.67379839   -8.0315088    293.95769  0.016607779  0.015925109            2 
 1476000   0.66389416   -8.0497811     293.7928  0.016587218  0.015912363            3 
 1477000   0.65432924   -8.0567435    293.89596  0.016581808   0.01589958            2 
 1478000   0.66963621   -8.0654653    293.15914  0.016529045    0.0158868            2 
 1479000   0.67535739    -8.056774    293.53988  0.016539322  0.015874017            4 
 1480000   0.66594835   -8.0592875    293.22771  0.016510569  0.015861229            2 
 1481000   0.65508676   -8.0720259    292.41604   0.01645375  0.015848395            4 
 1482000   0.66683351   -8.0595886    293.85248  0.016523419  0.015835577            4 
 1483000    0.6539558   -8.0580449    292.86819  0.016456968  0.015822786            3 
 1484000   0.67283103   -8.0912376    292.83321  0.016443913  0.015809993            3 
 1485000   0.66149847   -8.0865818    292.51208  0.016414819  0.015797208            3 
 1486000   0.65764065   -8.0599313    293.02042   0.01643228   0.01578443            3 
 1487000   0.65889492   -8.0668959    293.60438  0.016453955  0.015771675            3 
 1488000   0.66455152   -8.0523438    293.18679  0.016419511  0.015758941            1 
 1489000   0.65140277   -8.0669259    293.73788  0.016439326  0.015746213            4 
 1490000   0.66478766   -8.0525442    293.09785  0.016392497  0.015733554            2 
 1491000   0.66543704   -8.0624808    292.96092   0.01637385  0.015720894            4 
 1492000   0.64675139   -8.0744673    293.33381  0.016383702  0.015708254            5 
 1493000   0.65225705   -8.0702094    292.88192  0.016347506  0.015695585            3 
 1494000   0.65922266   -8.0630926    293.80162  0.016387863  0.015682932            2 
 1495000   0.64628457   -8.0854492    293.44714  0.016357142  0.015670308            4 
 1496000    0.6475098   -8.0564498    293.54002  0.016351382  0.015657666            4 
 1497000   0.66746252   -8.0359894    294.36353  0.016386302  0.015645064            3 
 1498000   0.64823017   -8.0584406     293.0844  0.016304206   0.01563246            3 
 1499000   0.65901508   -8.0513016    293.41764  0.016311854  0.015619863            3 
 1500000   0.66009886   -8.0607786    293.11727  0.016284293  0.015607249            3 
 1501000   0.66840289   -8.0520681     293.6771  0.016304525   0.01559464            3 
 1502000   0.64904047   -8.0673935    293.36712  0.016276471  0.015582058            5 
 1503000     0.649718    -8.065885    293.12624  0.016252287  0.015569479            2 
 1504000   0.63615142   -8.0794167    293.06749  0.016238225  0.015556912            3 
 1505000   0.66054209   -8.0892677    293.83571  0.016269973   0.01554434            2 
 1506000   0.63701442   -8.0639246    293.20405  0.016224217  0.015531781            3 
 1507000   0.65157257   -8.0682184    293.63781  0.016237437  0.015519252            8 
 1508000   0.64706101   -8.0869602    293.88129  0.016240124  0.015506719            6 
 1509000   0.63876676   -8.0552633    293.22265  0.016192989  0.015494191            5 
 1510000   0.66646329   -8.0674128    293.55993  0.016200879  0.015481678            3 
 1511000   0.67011276   -8.0522791    293.54581  0.016189379  0.015469185            2 
 1512000    0.6508014   -8.0553768    293.09875  0.016154031  0.015456691            9 
 1513000   0.65763055   -8.0792808    293.28475    0.0161536  0.015444194            3 
 1514000   0.63676922   -8.0816171    293.50101  0.016154833  0.015431727            5 
 1515000   0.62420726   -8.0689933    293.36188  0.016136517  0.015419287            3 
 1516000   0.64929784   -8.0873199    293.32766  0.016123992  0.015406823            4 
 1517000   0.65353144   -8.0769567    293.45336  0.016120268  0.015394389            3 
 1518000   0.64404524   -8.0702889    293.36857  0.016104994  0.015381934            4 
 1519000   0.63783753   -8.0870909    293.37083  0.016094515  0.015369506            4 
 1520000   0.63890554   -8.0650869    293.49269  0.016090608  0.015357079            4 
 1521000   0.65144835   -8.0797081     293.6294  0.016087519  0.015344646            4 
 1522000   0.64144502   -8.0873269    293.31265  0.016059606  0.015332241            2 
 1523000   0.64304057   -8.0858424    293.90411  0.016081424   0.01531987            5 
 1524000    0.6521366   -8.0662598    293.27792  0.016036632  0.015307489            2 
 1525000    0.6512781   -8.0837572    293.69858  0.016049103  0.015295107            3 
 1526000   0.63612621    -8.102846    293.66279  0.016036631  0.015282732            1 
 1527000   0.63888349   -8.1238731    292.88875  0.015983887   0.01527032            2 
 1528000    0.6441051   -8.0842547    293.56833  0.016010489   0.01525795            3 
 1529000   0.64360441   -8.1196587    293.12745  0.015975989  0.015245556            2 
 1530000   0.64401849   -8.0956603    293.17036  0.015967885  0.015233202            2 
 1531000   0.64577282   -8.0814105    293.04359  0.015950554  0.015220865            2 
 1532000   0.64155627    -8.092352    292.73999  0.015923629  0.015208537            4 
 1533000   0.63775143   -8.0895548    293.22094  0.015939386  0.015196191            3 
 1534000   0.62874215   -8.0996889    292.67632  0.015899409  0.015183855            3 
 1535000   0.66339676   -8.1180031     293.3567  0.015925988   0.01517151            3 
 1536000   0.63715077   -8.1152865    293.09415  0.015901375  0.015159167            3 
 1537000   0.63235725   -8.0977451    292.71083  0.015870247   0.01514684            7 
 1538000   0.64807623   -8.1214841    293.38178  0.015896282  0.015134519            3 
 1539000   0.63180951   -8.0936864     292.7821  0.015853482  0.015122222            7 
 1540000    0.6453868   -8.1086033    293.49565  0.015881799   0.01510992            8 
 1541000    0.6325161   -8.0863752    293.07697  0.015848852  0.015097653            3 
 1542000   0.63781242   -8.1049355    292.98752   0.01583374  0.015085373            4 
 1543000    0.6340268    -8.111531    292.98806  0.015823507  0.015073144            4 
 1544000   0.63723489   -8.1195602    293.76387  0.015855131  0.015060913            4 
 1545000   0.63529049   -8.1231989    292.89258  0.015797874  0.015048687            3 
 1546000   0.63416792   -8.0963587    293.47466  0.015819031  0.015036482            2 
 1547000   0.63541681   -8.1193017    293.26046  0.015797267   0.01502424            5 
 1548000   0.62887277    -8.126054    293.04884   0.01577567  0.015012013            3 
 1549000   0.64660373   -8.1263669    292.64453  0.015743734  0.014999791            5 
 1550000   0.62841575    -8.109763    293.08873  0.015757458  0.014987542            5 
 1551000   0.62521202   -8.1248039     293.4944  0.015769095  0.014975319            1 
 1552000   0.62774979   -8.1403912    292.58827  0.015710281  0.014963068            2 
 1553000   0.62584007   -8.1415849    292.68996  0.015705621  0.014950826            5 
 1554000   0.62514481   -8.1263121    292.67555  0.015694742  0.014938621            2 
 1555000   0.63716298   -8.1413209     293.0162  0.015702904  0.014926397            2 
 1556000   0.63003298   -8.1219011    293.00561  0.015692246  0.014914174            3 
 1557000   0.63216568   -8.1108839    292.98025   0.01568081  0.014902031            5 
 1558000   0.62426765   -8.1399897    292.94493  0.015668856  0.014889854            2 
 1559000   0.62010007   -8.1368902    292.91627  0.015657273  0.014877666            5 
 1560000   0.61549193   -8.1238663    292.72694  0.015637123  0.014865495            3 
 1561000   0.63190076    -8.127832    293.12037  0.015648109  0.014853343            2 
 1562000   0.63461528    -8.134313    292.67079  0.015614105  0.014841214            3 
 1563000   0.62169871   -8.1199121    292.66328  0.015603715  0.014829055            3 
 1564000   0.61012229   -8.1203278    293.07056  0.015615439  0.014816931            4 
 1565000   0.62295539   -8.1297831    293.24236  0.015614609  0.014804832            2 
 1566000   0.61837282   -8.1288313    292.56999  0.015568858  0.014792733            6 
 1567000   0.63963567   -8.1353112    293.09725  0.015586963  0.014780649            5 
 1568000   0.62726504   -8.1537392    293.35268  0.015590597  0.014768571            3 
 1569000   0.62072399   -8.1294206    292.64077  0.015542849  0.014756491            3 
 1570000   0.61751556   -8.1417291    293.28824  0.015567317  0.014744441            3 
 1571000    0.6390206    -8.138597    292.55769  0.015518655  0.014732398            3 
 1572000   0.62370523   -8.1545672    292.58822  0.015510402  0.014720359            3 
 1573000   0.62749978   -8.1216142    292.80863  0.015512218  0.014708341            4 
 1574000   0.63187656   -8.1335512     293.1582   0.01552087  0.014696354            3 
 1575000   0.63440946   -8.1298204    292.79528  0.015491814  0.014684368            3 
 1576000   0.62344308   -8.1460669    293.69809  0.015529721  0.014672399            2 
 1577000   0.62481028    -8.129129    292.86051  0.015475613  0.014660442            3 
 1578000   0.62915393   -8.1367332    293.28239  0.015488086  0.014648478            2 
 1579000   0.62420585   -8.1281952    293.22173  0.015475075  0.014636548            2 
 1580000   0.61953688   -8.1287293    293.71111  0.015491092   0.01462465            3 
 1581000   0.61871527   -8.1342444    293.00315  0.015443978  0.014612743            7 
 1582000   0.62646225   -8.1192897    292.81979  0.015424557  0.014600843            2 
 1583000   0.60690668   -8.1330941    293.14745  0.015432062  0.014588938            3 
 1584000   0.62257745   -8.1373004    292.95005  0.015411934  0.014577045            3 
 1585000   0.62567851   -8.1496792    293.23846  0.015417374  0.014565172            2 
 1586000   0.62094608   -8.1278047    293.02081  0.015396218  0.014553304            7 
 1587000   0.62537711   -8.1555647    293.20511  0.015396193  0.014541406            2 
 1588000    0.6161877   -8.1489622    292.96481  0.015373888  0.014529517            2 
 1589000   0.60974509   -8.1485623     293.4407   0.01538917  0.014517652            3 
 1590000   0.61464736   -8.1469636    293.01153  0.015356998  0.014505788            2 
 1591000   0.60925436   -8.1460244    292.88325  0.015340627  0.014493938            3 
 1592000   0.64050285   -8.1661432    293.18564  0.015346819    0.0144821            3 
 1593000   0.61722505   -8.1318115    292.94408  0.015324549  0.014470269            3 
 1594000   0.62877133   -8.1518142    293.13364  0.015324845  0.014458427            2 
 1595000   0.61626711    -8.169381    292.50952  0.015282629  0.014446593            3 
 1596000   0.62062346   -8.1541986    292.50692  0.015272917  0.014434738            4 
 1597000   0.61804688   -8.1571492    292.66949  0.015271837  0.014422897            3 
 1598000    0.6268366   -8.1577203    292.42659  0.015249613  0.014411082            3 
 1599000   0.61543539   -8.1604696    292.32033  0.015234539  0.014399277            4 
 1600000   0.61293577   -8.1398348    292.91791  0.015256141  0.014387467            4 
 1601000   0.59878558   -8.1547809    293.11617  0.015256932  0.014375684            4 
 1602000   0.62138891   -8.1369346    292.72015  0.015226808  0.014363935            3 
 1603000   0.62754977   -8.1270102    292.86311   0.01522474  0.014352156            9 
 1604000    0.6092152   -8.1632771    292.14938  0.015178168  0.014340372            3 
 1605000   0.60435471   -8.1561683    292.62645  0.015193481   0.01432862            4 
 1606000   0.61188196   -8.1595589    293.08184   0.01520765  0.014316879            4 
 1607000   0.61494858   -8.1466148    292.64691  0.015175633   0.01430513            3 
 1608000   0.62653185   -8.1651633    292.60009  0.015163769  0.014293398            4 
 1609000   0.62413872   -8.1568387    292.75411  0.015162322  0.014281665            3 
 1610000   0.60648767   -8.1648198    292.24174  0.015126384  0.014269956            4 
 1611000     0.614512   -8.1550835    292.72209  0.015141842  0.014258281            5 
 1612000   0.61239884   -8.1707953    292.54435  0.015123261  0.014246601            5 
 1613000   0.61187115   -8.1898395    293.13711  0.015144509  0.014234929            2 
 1614000   0.61922458   -8.1730747    292.19907  0.015086693  0.014223249            5 
 1615000   0.60546978   -8.1692744    293.08748  0.015123193  0.014211575            2 
 1616000   0.61097463   -8.1664826    292.69017  0.015093346  0.014199897            2 
 1617000   0.60523248   -8.1831235    292.17793  0.015057613  0.014188252            1 
 1618000   0.60711127   -8.1718492    292.49653  0.015064716   0.01417662            3 
 1619000   0.60999813   -8.1627777    291.97321  0.015028475  0.014164986            5 
 1620000    0.6063028   -8.1522032    292.54429  0.015048574  0.014153375            4 
 1621000   0.60720806   -8.1746432    292.71121  0.015047872  0.014141765            2 
 1622000    0.6222096   -8.1566763    292.98667  0.015052747  0.014130145            1 
 1623000   0.61442399   -8.1808649    292.34727  0.015010642  0.014118532            2 
 1624000   0.59990876   -8.1557277     291.9861  0.014982866  0.014106921            3 
 1625000   0.59682997   -8.1774557     292.8137  0.015016087  0.014095319            2 
 1626000   0.61299526    -8.191761    292.51608  0.014991599  0.014083745            3 
 1627000   0.59694259   -8.1817636    292.52561  0.014982873  0.014072176            3 
 1628000   0.59600391    -8.173545     292.2438  0.014959244  0.014060605            5 
 1629000   0.60389009   -8.1809361    292.25977  0.014950878  0.014049037            9 
 1630000   0.59753078   -8.1743017    292.42384  0.014950094  0.014037479            5 
 1631000   0.60739367   -8.1755404    292.20003  0.014929493  0.014025953           13 
 1632000   0.60124485   -8.1773219    292.92087  0.014957152  0.014014424           10 
 1633000    0.5874779   -8.1990655    292.95691  0.014949832  0.014002886            5 
 1634000   0.61366033   -8.1815836    292.68928  0.014927034  0.013991364            3 
 1635000   0.60087112    -8.202136     292.3429   0.01490025  0.013979841            6 
 1636000   0.60915577   -8.1621827    292.27165  0.014887513  0.013968355            4 
 1637000   0.61558612   -8.1915726    292.29653  0.014879685  0.013956854            5 
 1638000   0.59994572    -8.189455    291.82865  0.014846797  0.013945357            4 
 1639000   0.61246254   -8.2096905    292.57389   0.01487563  0.013933866            9 
 1640000   0.60558266   -8.1843787    292.51399  0.014863516  0.013922386            6 
 1641000   0.59311946   -8.2037455    292.04576  0.014830681   0.01391092            4 
 1642000   0.60619414   -8.2007046    291.76225   0.01480726  0.013899442            9 
 1643000   0.59530767   -8.1861312    292.01356  0.014810994  0.013887991            3 
 1644000   0.59371849   -8.1984778    292.49405  0.014826341  0.013876543            5 
 1645000   0.59575542    -8.193595    292.27187  0.014806073  0.013865117            5 
 1646000   0.58429378   -8.2020193    291.71248  0.014768757  0.013853717            9 
 1647000   0.59820595   -8.2067229    292.24636  0.014786802  0.013842298            4 
 1648000   0.59105152   -8.1999047    291.82826  0.014756688  0.013830883            4 
 1649000   0.60560693   -8.2013261    291.81707  0.014747173  0.013819462            3 
 1650000   0.58790675    -8.206951    292.07939  0.014751484  0.013808046            3 
 1651000   0.58301063   -8.2055914    292.31833   0.01475461  0.013796653            4 
 1652000   0.58919615   -8.2283536    291.52608  0.014705714  0.013785239            2 
 1653000   0.58415076    -8.207955    292.08897  0.014725195  0.013773835            4 
 1654000   0.60426485   -8.2171598    291.37333  0.014680236  0.013762463            3 
 1655000    0.5978846   -8.2341586    292.07228   0.01470656  0.013751114            4 
 1656000   0.59043071   -8.2197275    292.21049  0.014704634  0.013739747            5 
 1657000    0.5974436   -8.2246888    292.08278  0.014689337    0.0137284            3 
 1658000   0.59236672    -8.214037    291.61694  0.014657064   0.01371704            6 
 1659000   0.59089602   -8.2146063    291.61655  0.014648209   0.01370571           13 
 1660000    0.5951131   -8.2001476    291.32512  0.014624755   0.01369438            5 
 1661000    0.5821358   -8.2173873    291.31028  0.014615206  0.013683039            4 
 1662000    0.5847222   -8.2199334    291.68805  0.014625354  0.013671701            5 
 1663000   0.59905251   -8.2206544    292.07147  0.014635772  0.013660392            3 
 1664000   0.58306111   -8.2043899    291.51662   0.01459919  0.013649079            9 
 1665000   0.59665588   -8.2198971      291.582  0.014593694  0.013637749            7 
 1666000   0.59887768   -8.2339784    291.96205  0.014603944  0.013626463            3 
 1667000   0.59270811   -8.2370798    291.78411  0.014586288   0.01361518            8 
 1668000   0.58934388   -8.2076729    291.39126  0.014557917  0.013603915           10 
 1669000   0.60062514   -8.2108241    291.54701  0.014556971  0.013592668            9 
 1670000   0.59016833   -8.2158861    292.01726   0.01457172   0.01358142            6 
 1671000    0.5744695   -8.2132605    292.10125  0.014567188  0.013570179            5 
 1672000    0.5773899   -8.2274773    292.21635  0.014564212  0.013558971            9 
 1673000   0.58205617   -8.2150384    291.66795   0.01452819  0.013547763           11 
 1674000    0.5925303   -8.2217834    291.45726  0.014509023  0.013536587            9 
 1675000   0.58336084    -8.218995    291.48935  0.014501958  0.013525397           12 
 1676000    0.5763965   -8.2379488    291.77924  0.014507719  0.013514207            5 
 1677000   0.57981391   -8.2145615    291.50953  0.014485666  0.013503022            6 
 1678000   0.57626052   -8.2209856    291.14919  0.014459137  0.013491848            5 
 1679000    0.5796992   -8.2167085    291.46016   0.01446596  0.013480681            6 
 1680000    0.6012666   -8.2311338     291.3898  0.014453859  0.013469525            7 
 1681000   0.58145003   -8.2378255    291.60551  0.014455954  0.013458374            6 
 1682000   0.57581111   -8.2212947    291.49128    0.0144417  0.013447231            4 
 1683000   0.58461764   -8.2099003    291.40959  0.014429074  0.013436085            8 
 1684000   0.58062744   -8.2398188    291.06353  0.014403381  0.013424955            8 
 1685000    0.5861391   -8.2219206    291.05375   0.01439435  0.013413841            6 
 1686000   0.58280571   -8.2170132    291.57317  0.014411485  0.013402743            9 
 1687000   0.58745654   -8.2416317    291.40582  0.014394676  0.013391654            6 
 1688000   0.59030735   -8.2239685    291.28459  0.014380163  0.013380577            6 
 1689000   0.58234297   -8.2329757    291.71554  0.014392912  0.013369524            8 
 1690000   0.57191141    -8.233929    291.46433  0.014372008  0.013358457            4 
 1691000   0.57445228   -8.2687612     291.4936  0.014364952  0.013347401            5 
 1692000   0.57039667   -8.2484491    291.56786  0.014360119  0.013336338            9 
 1693000   0.56891278    -8.244476    291.34958  0.014340893  0.013325273            9 
 1694000   0.56895067    -8.240435    291.22073  0.014326089  0.013314227            9 
 1695000   0.56623965   -8.2338012    291.11231  0.014312307  0.013303204           11 
 1696000   0.58265909   -8.2270418     291.5777  0.014326734  0.013292196            8 
 1697000   0.57749307    -8.232907    291.84726  0.014331529  0.013281205            8 
 1698000   0.58599059   -8.2373589    291.73005  0.014317336  0.013270214            8 
 1699000   0.58071789    -8.256563    291.39932  0.014292688  0.013259244            7 
 1700000   0.56765501   -8.2606877    291.17714  0.014273389  0.013248269            9 
 1701000   0.56635603    -8.251422    291.41246  0.014276527  0.013237293           10 
 1702000   0.57350153   -8.2373496    290.99206  0.014247555  0.013226339            7 
 1703000   0.57576784   -8.2377054    291.01589  0.014240355  0.013215387            7 
 1704000   0.57737532   -8.2402796    291.33203  0.014247458  0.013204438            6 
 1705000   0.57409581     -8.25475    290.98155  0.014221972  0.013193527            9 
 1706000   0.58787623   -8.2473055    291.32155  0.014230244  0.013182615            9 
 1707000   0.56845953   -8.2364348    291.04588  0.014208449   0.01317172            8 
 1708000   0.57774058    -8.241888     291.2928  0.014212178  0.013160845            8 
 1709000   0.57660179   -8.2729435    290.86976  0.014183234   0.01314996            4 
 1710000   0.56809458    -8.246594    291.11966  0.014187118   0.01313908            5 
 1711000   0.56917631   -8.2619583    291.02304   0.01417412  0.013128208            5 
 1712000   0.57093571   -8.2331455    291.44032  0.014186153  0.013117359            8 
 1713000   0.56822722   -8.2452195    291.43227  0.014177479  0.013106513            4 
 1714000   0.57905027   -8.2547622    290.73497  0.014135306  0.013095673            4 
 1715000   0.56871167   -8.2325807    291.69643  0.014173782  0.013084849            7 
 1716000   0.55847844   -8.2462066    291.90741  0.014175768  0.013074025            8 
 1717000   0.54974705   -8.2695732    291.18412  0.014132407  0.013063223           10 
 1718000   0.57525072   -8.2625537    291.27235  0.014128461  0.013052427            6 
 1719000   0.57480921     -8.23837    291.31758  0.014122435  0.013041629            8 
 1720000   0.57968659   -8.2655993    291.65462  0.014130553  0.013030847            7 
 1721000   0.56645759   -8.2488613    291.10866  0.014095907  0.013020069           12 
 1722000   0.56106971   -8.2638311    291.28277  0.014096146  0.013009297           11 
 1723000   0.55867429   -8.2613505    291.54282  0.014100543  0.012998546            8 
 1724000   0.56708024   -8.2755688     291.1708  0.014074381  0.012987793            8 
 1725000    0.5509604   -8.2600382    291.13556   0.01406452  0.012977072            7 
 1726000   0.56628332   -8.2726247    291.09723  0.014054521  0.012966344            7 
 1727000   0.57109569   -8.2803197    291.00837  0.014042095  0.012955612           11 
 1728000   0.56536095   -8.2758553    290.91718  0.014029571  0.012944898            7 
 1729000   0.57566729   -8.2471599    291.05888  0.014028286  0.012934209            5 
 1730000   0.55616695   -8.2745055     291.7006  0.014051089  0.012923531            7 
 1731000   0.56301999   -8.2675854    290.86831  0.014002903  0.012912856            5 
 1732000   0.57505089   -8.2684267    291.28848  0.014015035  0.012902175            6 
 1733000   0.56321424   -8.2714006    290.97459  0.013991854  0.012891524            7 
 1734000   0.55757063   -8.2701648    291.25009  0.013997025  0.012880875            6 
 1735000   0.56893559   -8.2703889    291.18387  0.013985777  0.012870237            5 
 1736000   0.55412888   -8.2654139    291.25308  0.013981043  0.012859608            3 
 1737000   0.56523616   -8.2545685    291.01788   0.01396171  0.012849017            6 
 1738000    0.5635849   -8.2731644    291.00226  0.013952928  0.012838432            5 
 1739000   0.56543479   -8.2825121    290.84728  0.013937477  0.012827838            3 
 1740000   0.56543159   -8.2539023    291.64537   0.01396769  0.012817261           10 
 1741000   0.56239984   -8.2657613    290.91856  0.013924878  0.012806688            5 
 1742000   0.55442954   -8.2778378    291.04652  0.013923006   0.01279614            6 
 1743000   0.55238547   -8.2903707    290.99415  0.013912514  0.012785603            3 
 1744000   0.54615566   -8.2838478    290.60483  0.013885934  0.012775057            4 
 1745000   0.55647323   -8.2612596     291.2463   0.01390861  0.012764528            5 
 1746000   0.56151172   -8.2901468    291.03603  0.013890609  0.012754008            5 
 1747000   0.55566915   -8.2912102     291.2108  0.013890994    0.0127435            7 
 1748000   0.54610657   -8.2740357    291.19005  0.013882058     0.012733            5 
 1749000    0.5471135   -8.2561048    290.37684  0.013835375  0.012722513            4 
 1750000   0.55333174   -8.2855303    290.91544  0.013853116  0.012712025            3 
 1751000    0.5537972    -8.286268    290.75691   0.01383766  0.012701558            6 
 1752000   0.55539957   -8.3070272    291.25777  0.013853585  0.012691086            4 
 1753000   0.54688619   -8.2869677    290.60659  0.013814726  0.012680633            6 
 1754000   0.56183555   -8.3064014    290.81594  0.013816797  0.012670191            7 
 1755000    0.5466095   -8.2864275    291.13725  0.013824181   0.01265977           12 
 1756000   0.55412651   -8.3040544    290.95483  0.013807651  0.012649346            3 
 1757000   0.55195901    -8.294148    291.38469  0.013820181  0.012638929            3 
 1758000   0.55266032   -8.3016391    291.16541  0.013801925  0.012628517            5 
 1759000   0.54407182   -8.2920747    290.98425  0.013785496  0.012618115            6 
 1760000   0.55601998   -8.2800873    291.03134  0.013779893  0.012607739            6 
 1761000   0.54599255   -8.2818373     290.9456   0.01376801  0.012597363            8 
 1762000    0.5449579   -8.2894764    290.50141  0.013739189  0.012586996            9 
 1763000   0.54845162   -8.2914884    290.92526   0.01375143   0.01257665            6 
 1764000   0.54970813   -8.2834196    290.54792  0.013725809  0.012566292            5 
 1765000   0.53897362   -8.2948792    290.65897  0.013723275  0.012555948           10 
 1766000   0.55539708   -8.2973114    290.61451  0.013713407  0.012545609            4 
 1767000   0.55072783   -8.2943129    291.10811  0.013728924  0.012535276            8 
 1768000   0.55041079   -8.3054716    290.64407  0.013699287  0.012524951            8 
 1769000   0.55869644   -8.3086203    290.21383  0.013671275  0.012514634            6 
 1770000   0.54093965   -8.3110717    290.63553  0.013683405  0.012504313            7 
 1771000   0.54555392    -8.306181    290.65198  0.013676453  0.012494004            7 
 1772000   0.56332631   -8.2831156    290.25246  0.013649946  0.012483698            6 
 1773000   0.54584417   -8.2996833    290.52882  0.013655237   0.01247343           13 
 1774000   0.54545053   -8.3167817    290.21255  0.013632683  0.012463156            7 
 1775000   0.53810778   -8.3149504    290.33071   0.01363055  0.012452891           10 
 1776000   0.55461383   -8.3140365    290.34479  0.013623535   0.01244264            7 
 1777000    0.5486095   -8.2925671    290.79481  0.013636973  0.012432407            3 
 1778000   0.55416647   -8.2950397    290.70975  0.013625316  0.012422176            3 
 1779000   0.53384019   -8.3109572     291.0604  0.013634083  0.012411961            3 
 1780000   0.53443894    -8.312301    290.92505  0.013620086   0.01240176            9 
 1781000   0.53554274   -8.2861242    290.79165  0.013606197  0.012391556            5 
 1782000   0.54430708   -8.2915809    290.86184  0.013601845  0.012381376            3 
 1783000   0.53343593   -8.3090719    290.46256  0.013575554  0.012371204            7 
 1784000   0.53959786   -8.3068171    290.74089  0.013580946   0.01236104            6 
 1785000   0.54056107   -8.2974769    291.21264  0.013595361  0.012350879            6 
 1786000   0.53726725   -8.2934998    290.33074    0.0135466  0.012340734            6 
 1787000    0.5455626   -8.3136207    290.78558  0.013560231  0.012330614            8 
 1788000   0.54013848   -8.3075945    290.40423  0.013534873   0.01232049            6 
 1789000   0.53860189    -8.305009    290.58993  0.013535957  0.012310368           11 
 1790000   0.53069306     -8.31393    290.40872  0.013519959  0.012300238            4 
 1791000   0.53899791   -8.3113801    290.64061    0.0135232  0.012290128           10 
 1792000   0.54155473   -8.3202758    290.66512  0.013516793  0.012280021           10 
 1793000   0.55100834   -8.3279968    290.31723  0.013493086  0.012269922            9 
 1794000    0.5344283   -8.3273083     290.5213  0.013495044  0.012259839            6 
 1795000   0.53803385   -8.3112388    290.35169  0.013479651  0.012249754           11 
 1796000   0.52776097   -8.3007151    290.61195  0.013484222  0.012239684            7 
 1797000   0.53281734   -8.3172385    290.40786  0.013467254  0.012229618            7 
 1798000    0.5401212   -8.3209455    290.57359  0.013467445  0.012219568           12 
 1799000   0.53581198   -8.3221331    290.64988  0.013463493  0.012209515            6 
 1800000   0.54386006   -8.3234426    290.68912   0.01345783  0.012199487            3 
 1801000   0.53069479   -8.3272485    290.49612  0.013441427  0.012189461            4 
 1802000   0.53806094   -8.3308177    290.55955  0.013436901  0.012179455            6 
 1803000   0.52179279   -8.3121866    290.55508  0.013429242  0.012169449            6 
 1804000   0.54232586   -8.3137099    290.39546  0.013414424  0.012159465            9 
 1805000   0.52029503   -8.3190787    290.77809  0.013424658  0.012149488            9 
 1806000   0.52236492   -8.3278052    290.47579  0.013403276  0.012139517            8 
 1807000   0.54219148   -8.3325005    290.00019  0.013373925  0.012129563            3 
 1808000   0.54505221   -8.3242541    290.93413  0.013409574  0.012119616           10 
 1809000    0.5328187   -8.3297959    291.02602  0.013406395   0.01210967            8 
 1810000   0.52599199   -8.3187741    290.26721  0.013364052  0.012099731            6 
 1811000   0.53288588    -8.335387    290.43025  0.013364175  0.012089798            8 
 1812000    0.5323505   -8.3279952    289.85299  0.013330252  0.012079893            6 
 1813000   0.52291342   -8.3528891    290.41734  0.013348839  0.012069975            7 
 1814000   0.51911549   -8.3409275    290.31627  0.013336837  0.012060078            5 
 1815000   0.52562181    -8.340188    290.58717  0.013341927  0.012050194            3 
 1816000   0.51883692   -8.3421743     290.6567  0.013337771  0.012040327            6 
 1817000   0.53009578   -8.3344118    290.25505  0.013312009  0.012030471            4 
 1818000   0.53059637   -8.3317246    290.86279  0.013332544  0.012020618            5 
 1819000   0.53004237   -8.3077484    290.18069  0.013293966  0.012010783            6 
 1820000   0.52291106   -8.3408125    290.30624   0.01329241  0.012000952            7 
 1821000   0.52638575   -8.3338521    289.73401  0.013258924  0.011991121            6 
 1822000   0.53421179   -8.3345989    290.46603  0.013285128  0.011981292            7 
 1823000   0.52423926   -8.3357194    289.95486  0.013254473  0.011971477            5 
 1824000   0.52490285   -8.3458841     290.3782  0.013266548  0.011961669            7 
 1825000   0.52593829   -8.3449382    289.99193  0.013241641  0.011951886            7 
 1826000   0.51636038    -8.343024    290.44289  0.013254969  0.011942108            8 
 1827000   0.52319235   -8.3339733    290.24364  0.013238626   0.01193235            2 
 1828000   0.52527614   -8.3454477     290.2349  0.013230985  0.011922588            2 
 1829000   0.51811789   -8.3443585      290.454  0.013233734  0.011912839            9 
 1830000   0.53128289   -8.3525983    290.58622  0.013232524  0.011903105            2 
 1831000   0.53051892   -8.3412979     290.3701  0.013215461  0.011893374            7 
 1832000   0.52119517   -8.3559546    290.13029  0.013197338  0.011883655            9 
 1833000     0.529123   -8.3320699    289.95436  0.013182141  0.011873944            9 
 1834000   0.52494039   -8.3685484    290.41811  0.013196024  0.011864241            8 
 1835000   0.50955246   -8.3405173    290.38915  0.013187518  0.011854553            3 
 1836000   0.50745077   -8.3382565    290.21374  0.013172374  0.011844873           11 
 1837000   0.52250263   -8.3182867    289.84503  0.013148477  0.011835201            4 
 1838000   0.52724174   -8.3453121    289.88081  0.013142946  0.011825541            9 
 1839000    0.5249148    -8.345593    290.36364  0.013157678  0.011815886            3 
 1840000    0.5096639   -8.3574415    290.36718  0.013150687  0.011806237            4 
 1841000   0.51507274    -8.353539    289.80945  0.013118299  0.011796597            4 
 1842000    0.5119711   -8.3531134    289.99832  0.013119721  0.011786964            9 
 1843000   0.51999339   -8.3588418    290.34847  0.013128435  0.011777344            3 
 1844000   0.52134744   -8.3529077    290.02775  0.013106822  0.011767718            5 
 1845000   0.52425708   -8.3501123    290.14918  0.013105202  0.011758114            4 
 1846000   0.50908169   -8.3474161    290.25721   0.01310298  0.011748524            8 
 1847000   0.51286022   -8.3490252    290.27524  0.013096699  0.011738948            4 
 1848000   0.51584921   -8.3465415    290.00245  0.013077311   0.01172938            6 
 1849000   0.51438279   -8.3484843    290.17565  0.013078044  0.011719822            5 
 1850000   0.51739101   -8.3526028    290.11695  0.013068331  0.011710278            7 
 1851000   0.52232102   -8.3557733    290.17271  0.013063781  0.011700741            3 
 1852000   0.50818282    -8.344807    290.12009   0.01305436  0.011691214            4 
 1853000   0.50393406   -8.3594325    290.20212  0.013051004  0.011681698            6 
 1854000   0.51095533   -8.3320228    290.35264   0.01305073  0.011672186            5 
 1855000   0.51512902   -8.3597829    290.64563  0.013056857  0.011662685            5 
 1856000    0.5038975   -8.3656051    290.05521  0.013023312  0.011653192            7 
 1857000   0.51455823   -8.3515455    290.00198   0.01301391  0.011643708            6 
 1858000   0.51095842   -8.3549232    290.48445  0.013028545  0.011634231            7 
 1859000   0.51478009   -8.3484388    290.14319  0.013006239  0.011624755            7 
 1860000   0.50590138   -8.3590612    290.39363  0.013010467  0.011615302            4 
 1861000   0.50097575   -8.3572649    290.11364  0.012990939  0.011605861            6 
 1862000   0.49490721   -8.3683149    290.19343  0.012987533  0.011596413            5 
 1863000   0.50465515   -8.3547382    289.67595  0.012957414  0.011586974            9 
 1864000   0.50343461    -8.359423    289.91125  0.012960982  0.011577546            5 
 1865000   0.51381083   -8.3609114    289.86128    0.0129518  0.011568122            8 
 1866000   0.50203279   -8.3709822    289.97169   0.01294979  0.011558703            8 
 1867000   0.49892703   -8.3539808    289.53594  0.012923404  0.011549295            6 
 1868000   0.51277098   -8.3798126    289.59452  0.012919099  0.011539893            6 
 1869000   0.50179957   -8.3580617    289.94432  0.012927783  0.011530513            9 
 1870000   0.51021763   -8.3609584      289.639  0.012907264  0.011521138            4 
 1871000   0.51242607   -8.3685033     289.9907   0.01291603  0.011511764            7 
 1872000   0.50602555   -8.3588169    289.88177  0.012904281  0.011502404            9 
 1873000   0.50894425   -8.3799912     289.4803  0.012879529  0.011493049            7 
 1874000   0.51178141   -8.3597793     290.1417  0.012902068  0.011483709            7 
 1875000   0.49563664   -8.3677588    289.82537  0.012881128  0.011474382            9 
 1876000   0.50392895    -8.369051    290.19409   0.01289064  0.011465068            6 
 1877000   0.50724812   -8.3610057    290.47748  0.012896354   0.01145575            4 
 1878000   0.52382601   -8.3661381     289.2593  0.012835432  0.011446448            6 
 1879000    0.5023998   -8.3876194    289.58291  0.012842953  0.011437145            4 
 1880000   0.50661579   -8.3649303    289.50881  0.012832837   0.01142786            7 
 1881000   0.49148246    -8.372977    289.46274  0.012823974  0.011418584            5 
 1882000   0.50640888    -8.369507    290.04073  0.012842753  0.011409316            5 
 1883000   0.50861258   -8.3781929    290.11411   0.01283918  0.011400058            9 
 1884000   0.49700805   -8.3801431    289.63506  0.012811176  0.011390795            7 
 1885000   0.50588568    -8.396959    289.72302  0.012808268  0.011381542            9 
 1886000   0.51466932   -8.3739698    289.84367  0.012806808  0.011372309            5 
 1887000    0.4961944   -8.3843696    289.94049  0.012804297   0.01136308            5 
 1888000   0.50377686   -8.3604089    289.63992  0.012784248  0.011353864            5 
 1889000   0.49514186   -8.3817473    289.68651  0.012779535  0.011344651            6 
 1890000   0.50560458   -8.3833605    289.84352  0.012779696  0.011335458            5 
 1891000   0.49046027   -8.3909477    289.59204  0.012761856  0.011326272            5 
 1892000   0.49668994   -8.3785384    289.32927  0.012743537  0.011317079            7 
 1893000   0.50032911   -8.3892595    289.83185   0.01275893  0.011307905            3 
 1894000   0.50095039   -8.3824727    289.87955  0.012754292  0.011298742            9 
 1895000   0.50199265   -8.3839697    289.92185  0.012749422  0.011289591            5 
 1896000    0.4938065   -8.3655249    289.60734  0.012728874  0.011280448            6 
 1897000   0.49680123   -8.3818714     289.6098  0.012722272  0.011271316            9 
 1898000   0.49618604   -8.3780145    289.49781  0.012710652  0.011262197            5 
 1899000    0.4983648   -8.3896447    289.67811  0.012711871  0.011253076            8 
 1900000   0.48758323   -8.3787075    289.63519  0.012703298  0.011243976            9 
 1901000   0.48838861   -8.3982461    289.96127   0.01271091  0.011234882            8 
 1902000   0.50549657   -8.3828236    289.79641  0.012697004  0.011225793            7 
 1903000   0.50242497   -8.3844616    289.96598  0.012697757  0.011216712            6 
 1904000    0.4887619   -8.3807746    289.80655   0.01268411   0.01120764            5 
 1905000   0.47463236   -8.3915604    289.77063   0.01267588   0.01119857            7 
 1906000   0.48849426   -8.3911305    289.68365  0.012665427  0.011189503            8 
 1907000   0.49602722   -8.3815673    289.83422  0.012665365  0.011180453            3 
 1908000   0.50301011   -8.4106387    289.74299  0.012654743  0.011171413            4 
 1909000   0.49960004   -8.3801669    289.24314  0.012626294  0.011162384            8 
 1910000   0.49527374   -8.3781756     289.7253   0.01264072  0.011153355            8 
 1911000   0.48214936   -8.3893922    289.70186  0.012633083   0.01114434           11 
 1912000   0.49757997     -8.40686    289.47258  0.012616483   0.01113533            6 
 1913000   0.48779534   -8.3938306     289.7111  0.012620278  0.011126331            9 
 1914000    0.4857837   -8.3881453    289.61345  0.012609433  0.011117347            8 
 1915000   0.49445222   -8.3915089    289.70422  0.012606798  0.011108372            5 
 1916000   0.48633016   -8.3829083    290.09918  0.012617397  0.011099403            4 
 1917000   0.49615539   -8.3956121    289.76597   0.01259633  0.011090434            6 
 1918000   0.49690648   -8.3895367    289.27756  0.012568542  0.011081483            7 
 1919000   0.49742878   -8.3899713    289.14886  0.012556403  0.011072532            4 
 1920000   0.47899371   -8.4031809    289.30752   0.01255675  0.011063584            8 
 1921000   0.48328547    -8.398097    289.21934  0.012546388  0.011054641            5 
 1922000   0.49224995   -8.3888099    289.24719  0.012541068  0.011045719           19 
 1923000   0.49597434   -8.3977899    289.35996  0.012539433  0.011036791            6 
 1924000   0.48109179    -8.396866    289.33474  0.012531823  0.011027873            5 
 1925000   0.47749706   -8.3874497    289.61901  0.012537619  0.011018973            5 
 1926000   0.48038899   -8.4001431     289.5333  0.012527401  0.011010082            4 
 1927000   0.47905331   -8.3960583    289.33847  0.012512475  0.011001189            5 
 1928000   0.49428775   -8.4080402    289.09107  0.012495292   0.01099231            8 
 1929000   0.48801779   -8.4003317    288.76747  0.012474835  0.010983447            6 
 1930000    0.4766348   -8.4052237    289.41859  0.012496485  0.010974585            2 
 1931000   0.47675797   -8.4089794     289.5154  0.012494191  0.010965734            5 
 1932000   0.47767513   -8.3964763    288.80588  0.012457121  0.010956885            2 
 1933000   0.48368615   -8.3986863     289.1008   0.01246339  0.010948053            6 
 1934000   0.48571339   -8.4240254    289.10727  0.012457225  0.010939224            8 
 1935000   0.48641051   -8.4034795    289.09492  0.012450255  0.010930396            6 
 1936000   0.48004351   -8.4235341    289.27146  0.012451423  0.010921586            7 
 1937000   0.47956104   -8.4125176     289.4761  0.012453799  0.010912788            3 
 1938000   0.47902555   -8.3927526    289.51514  0.012449051  0.010903995            6 
 1939000   0.47413557   -8.4139046    289.50239  0.012442083  0.010895209            9 
 1940000   0.47773508   -8.4141426    288.93688  0.012411378  0.010886432            7 
 1941000   0.47496767   -8.4242487    289.16275  0.012414681  0.010877672            5 
 1942000   0.48445174   -8.4014519    289.31298  0.012414735  0.010868915            2 
 1943000   0.47182523   -8.3940902    289.93176  0.012434884  0.010860166            5 
 1944000   0.47598629    -8.424653    289.05957    0.0123911  0.010851431            4 
 1945000   0.48492771   -8.4135386    289.04194  0.012383973  0.010842699            5 
 1946000   0.47471636   -8.4092123    289.53573  0.012398755   0.01083397            7 
 1947000   0.48116314   -8.4103007    289.52401  0.012391886  0.010825262            6 
 1948000   0.48836247   -8.4175979    289.61023  0.012389212  0.010816563            6 
 1949000   0.49080632   -8.3982697    289.25558  0.012367692  0.010807869            5 
 1950000   0.46520596   -8.4108018    289.03722  0.012352018  0.010799186            4 
 1951000   0.47846369   -8.4169223    289.26034  0.012355217  0.010790515            1 
 1952000   0.47133614    -8.411852    289.12143  0.012342957   0.01078185            4 
 1953000    0.4781539   -8.4035969    288.95534   0.01232955   0.01077319            3 
 1954000   0.48512285   -8.4011797    288.99991  0.012325141  0.010764531            5 
 1955000   0.46601443   -8.4191886    289.05707  0.012321273  0.010755881            4 
 1956000   0.47308491   -8.4203609    288.92016  0.012309141   0.01074725            6 
 1957000   0.47329568   -8.4249554    288.83481  0.012299217  0.010738611            4 
 1958000   0.45999216   -8.4130988    288.73229  0.012288572  0.010729981            5 
 1959000   0.46673817   -8.4226738    289.47009  0.012313684  0.010721364            6 
 1960000   0.47572922   -8.4108683    288.73504   0.01227615  0.010712757            4 
 1961000   0.47129541   -8.4114561    288.89581  0.012276722  0.010704153            6 
 1962000    0.4582057   -8.4219779    288.69034  0.012261737  0.010695555            4 
 1963000   0.46865779   -8.4134319    289.06035  0.012271198   0.01068697            4 
 1964000   0.45641988   -8.4030181    288.95248  0.012260373   0.01067839            5 
 1965000   0.47069871   -8.4333012     289.2258  0.012265725  0.010669832            5 
 1966000   0.47933577   -8.4354244    288.89434  0.012245437   0.01066128            4 
 1967000    0.4604055   -8.4249088    289.14615  0.012249879  0.010652729            3 
 1968000   0.47196529    -8.407453    289.50456  0.012258831  0.010644201            6 
 1969000   0.46944609   -8.4219111    288.79958  0.012222769  0.010635681            4 
 1970000    0.4680582   -8.4309034    288.94958  0.012222909  0.010627166            5 
 1971000   0.46575526   -8.4173104    289.02916  0.012220073   0.01061865            3 
 1972000   0.47200387    -8.432597    288.92294  0.012209387  0.010610154            4 
 1973000   0.45664371   -8.4216493    288.94902  0.012204301  0.010601667            5 
 1974000   0.46514259    -8.422741    288.72782   0.01218878  0.010593197            2 
 1975000   0.46638689     -8.42759    289.21331  0.012203093  0.010584737            2 
 1976000   0.46824498   -8.4225938    289.00877  0.012188292  0.010576268            2 
 1977000    0.4532091   -8.4178638    288.92476  0.012178585  0.010567812            3 
 1978000    0.4676255   -8.4279168    289.10776  0.012180138   0.01055937            4 
 1979000   0.46703449    -8.432916    288.73254  0.012158184  0.010550927            3 
 1980000   0.45352077   -8.4324405    288.72187  0.012151594  0.010542499            5 
 1981000   0.46584125   -8.4244122    288.85638  0.012151118   0.01053408            4 
 1982000   0.45417819   -8.4363537    288.81336  0.012143178  0.010525661            6 
 1983000   0.45924861   -8.4451282    288.78436  0.012135836  0.010517246            3 
 1984000   0.45464913   -8.4530754    288.74289  0.012127977  0.010508843            4 
 1985000    0.4610726   -8.4476839    288.77099  0.012123048  0.010500453            7 
 1986000    0.4600803   -8.4383847    288.85692  0.012120549  0.010492068            4 
 1987000    0.4539395   -8.4373283    288.41604  0.012095959  0.010483683            6 
 1988000   0.46855374   -8.4496624    288.89761  0.012110061  0.010475312            7 
 1989000    0.4717813   -8.4477412    288.84047  0.012101578   0.01046694            6 
 1990000   0.46524864   -8.4382815    288.63418  0.012086858   0.01045858            7 
 1991000   0.45662665   -8.4461008     288.6427  0.012081144  0.010450233            4 
 1992000   0.46152711   -8.4564475    288.40737  0.012065235  0.010441888            4 
 1993000   0.45431678    -8.443623    288.48644  0.012062487  0.010433558            5 
 1994000   0.46244708    -8.434845    288.24818   0.01204648  0.010425235            3 
 1995000   0.46134426   -8.4468017    288.50882  0.012051329  0.010416924            3 
 1996000   0.45077268   -8.4385697    288.91473  0.012062238  0.010408628            4 
 1997000   0.45459704   -8.4539522    288.59525  0.012042866  0.010400329            2 
 1998000   0.46013258   -8.4374496    288.38684  0.012028146  0.010392041            4 
 1999000   0.46653844   -8.4532002     288.9651  0.012046236   0.01038376            4 
 2000000   0.45284862   -8.4502677    288.38657  0.012016107  0.010375489            6 
 2001000   0.45418075   -8.4636385    288.51319  0.012015375  0.010367225            5 
 2002000   0.46298147   -8.4531282      288.909  0.012025849  0.010358965            6 
 2003000    0.4533928   -8.4583523    288.88888  0.012019008  0.010350711            5 
 2004000   0.45487828   -8.4540912     288.6992  0.012005123  0.010342472            7 
 2005000   0.45495666    -8.440421    288.76094  0.012001702  0.010334238            4 
 2006000   0.45032552   -8.4405902    288.96552  0.012004217  0.010326017            2 
 2007000   0.45697658   -8.4386675    288.08686  0.011961753  0.010317796            3 
 2008000   0.45404937   -8.4339665    288.38346  0.011968105  0.010309583            4 
 2009000    0.4519542   -8.4512247    288.26928  0.011957412  0.010301378            4 
 2010000    0.4473041   -8.4437395    288.67154   0.01196814  0.010293181            5 
 2011000   0.45479962   -8.4604564    288.35627  0.011949124  0.010284989            4 
 2012000    0.4491742   -8.4583714    288.37432  0.011943933  0.010276811            6 
Loop time of 4670.52 on 48 procs for 2000000 steps with 4000 atoms

Performance: 73996.083 tau/day, 428.218 timesteps/s
99.4% CPU use with 48 MPI tasks x no OpenMP threads

MPI task timing breakdown:
Section |  min time  |  avg time  |  max time  |%varavg| %total
---------------------------------------------------------------
Pair    | 292.49     | 317.95     | 337.41     |  62.3 |  6.81
Neigh   | 30.574     | 31.983     | 33.333     |  12.8 |  0.68
Comm    | 292.05     | 315.06     | 345.78     |  73.7 |  6.75
Output  | 4.1895     | 4.1915     | 4.2282     |   0.3 |  0.09
Modify  | 3952.1     | 3961.1     | 3970.7     |   6.4 | 84.81
Other   |            | 40.29      |            |       |  0.86

Nlocal:        83.3333 ave          92 max          76 min
Histogram: 2 4 5 9 5 11 7 1 3 1
Nghost:        1991.98 ave        2016 max        1972 min
Histogram: 3 5 7 8 5 8 3 2 3 4
Neighs:        12797.2 ave       14393 max       11022 min
Histogram: 2 2 1 8 5 15 6 4 4 1
FullNghs:      25594.5 ave       28389 max       23134 min
Histogram: 2 3 8 5 6 11 6 3 2 2

Total # of neighbors = 1228538
Ave neighs/atom = 307.13450
Neighbor list builds = 107335
Dangerous builds = 0

#clear
#
#next RN
#
#jump SELF
Total wall time: 1:17:53
