
units lj                  # Use reduced LJ style units
atom_style atomic         # Uncharged point particles
atom_modify map hash      # Needed for indexing of clusters etc
                          # Used to be able to find where atoms are in relation to each other.

lattice fcc 1.0 spacing 1 1 1
Lattice spacing in x,y,z = 1.5874011 1.5874011 1.5874011
region box block 0 10 0 10 0 10 units lattice
create_box 2 box
Created orthogonal box = (0.0000000 0.0000000 0.0000000) to (15.874011 15.874011 15.874011)
  3 by 4 by 4 MPI processor grid
create_atoms 1 box
Created 4000 atoms
  using lattice units in orthogonal box = (0.0000000 0.0000000 0.0000000) to (15.874011 15.874011 15.874011)
  create_atoms CPU = 0.017 seconds
set type 1 type/fraction 2 0.68 78393
Setting atom values ...
  2740 settings made for type/fraction
mass 1 1.0
mass 2 1.0
pair_style lj/cut  3.5
pair_modify tail  yes
pair_coeff 1  1  1.0  1.0   # Intearaction between 1 and 1 set with epsilon = 1 and sigma = 1
pair_coeff 1  2  1.5  0.8
pair_coeff 2  2  0.5  0.88

write_data data.0
System init for write_data ...
Neighbor list info ...
  update every 1 steps, delay 10 steps, check yes
  max neighbors/atom: 2000, page size: 100000
  master list distance cutoff = 3.8
  ghost atom cutoff = 3.8
  binsize = 1.9, bins = 9 9 9
  1 neighbor lists, perpetual/occasional/extra = 1 0 0
  (1) pair lj/cut, perpetual
      attributes: half, newton on
      pair build: half/bin/atomonly/newton
      stencil: half/bin/3d
      bin: standard
WARNING: Not all mixed pair coeffs generated from mixing. Use write_data with 'pair ij' option to store all pair coeffs. (../write_data.cpp:312)


#############################
#   M E L T   S Y S T E M   #
#############################

velocity all create 2.4 5833274 mom yes dist gaussian # Assign velocities
                                                    # Temperature 2.4, random number seed, zero linear momentum
                                                                                # Gaussian distribution

timestep 0.002   # simulation timestep
thermo 1000       # output thermodynamic data every 1000 steps bf 100

# Define a fix  in this case with index 1 applied to all
# particles in the simulation. This fix is for simulations
# in the anisotropic NPT ensemble. Note that we use the MTK
# correction.
fix 1 all npt temp 2.4 2.4 0.1 iso 5.68 5.68 0.5 mtk yes tchain 5 pchain 5 # Use NPT ensemble
                                                                         # Set temperature and pressure and damping
                                                                         # Numbers of thermostats in chain and in barostat
run 10000          # run for 10000 steps
Per MPI rank memory allocation (min/avg/max) = 3.642 | 3.644 | 3.648 Mbytes
Step Temp E_pair E_mol TotEng Press Volume 
       0          2.4   -4.2819815            0  -0.68288149   -3.8317514         4000 
    1000     2.412621   -3.9775332            0  -0.35950641    5.7975553    3614.0546 
    2000    2.3501398   -3.9308139            0   -0.4064855    5.7005981    3627.2907 
    3000    2.4296704   -3.9525238            0   -0.3089293     5.694689    3631.8309 
    4000    2.4153577   -3.9420435            0  -0.31991272    5.8157073    3621.1348 
    5000    2.3689295   -3.8912448            0  -0.33873892    5.6718353    3660.2829 
    6000    2.3593648   -3.8757423            0  -0.33757976    5.6304643    3671.7504 
    7000    2.3805569   -3.9396549            0  -0.36971228    5.4156423     3654.036 
    8000     2.447852   -3.8695621            0  -0.19870206    5.8570769    3680.0017 
    9000    2.3888025    -3.956686            0  -0.37437803    5.6486865    3639.6604 
   10000    2.3180089   -3.9241232            0  -0.44797921    5.2854444    3677.8968 
Loop time of 2.61605 on 48 procs for 10000 steps with 4000 atoms

Performance: 660537.010 tau/day, 3822.552 timesteps/s
99.5% CPU use with 48 MPI tasks x no OpenMP threads

MPI task timing breakdown:
Section |  min time  |  avg time  |  max time  |%varavg| %total
---------------------------------------------------------------
Pair    | 1.2007     | 1.2561     | 1.322      |   2.7 | 48.02
Neigh   | 0.21647    | 0.22383    | 0.23646    |   0.8 |  8.56
Comm    | 0.80041    | 0.8716     | 0.92553    |   3.1 | 33.32
Output  | 0.00024912 | 0.00025557 | 0.0003277  |   0.0 |  0.01
Modify  | 0.22188    | 0.24901    | 0.27489    |   2.6 |  9.52
Other   |            | 0.01525    |            |       |  0.58

Nlocal:        83.3333 ave          91 max          75 min
Histogram: 3 4 2 5 3 13 8 2 5 3
Nghost:        1743.40 ave        1774 max        1717 min
Histogram: 3 2 7 8 10 4 7 2 3 2
Neighs:        10388.7 ave       11691 max        9035 min
Histogram: 1 6 4 4 10 7 4 6 2 4

Total # of neighbors = 498658
Ave neighs/atom = 124.66450
Neighbor list builds = 911
Dangerous builds = 242

# Equilibrate just above the melting temperature to avoid step fn in T

fix 1 all npt temp 1.25 1.25 0.1 iso 5.68 5.68 0.5 mtk yes tchain 5 pchain 5
run 2000
Per MPI rank memory allocation (min/avg/max) = 3.644 | 3.646 | 3.649 Mbytes
Step Temp E_pair E_mol TotEng Press Volume 
   10000    2.3180089   -3.9241232            0  -0.44797921    5.2854444    3677.8968 
   11000    1.2360794   -5.7917855            0     -3.93813    5.4188956    2789.8186 
   12000    1.2412332   -5.8461451            0   -3.9847607    5.7728538    2764.2485 
Loop time of 0.656332 on 48 procs for 2000 steps with 4000 atoms

Performance: 526562.797 tau/day, 3047.238 timesteps/s
99.7% CPU use with 48 MPI tasks x no OpenMP threads

MPI task timing breakdown:
Section |  min time  |  avg time  |  max time  |%varavg| %total
---------------------------------------------------------------
Pair    | 0.29823    | 0.32167    | 0.34944    |   1.8 | 49.01
Neigh   | 0.040939   | 0.043734   | 0.047455   |   0.6 |  6.66
Comm    | 0.21296    | 0.24253    | 0.27031    |   2.4 | 36.95
Output  | 5.171e-05  | 5.3353e-05 | 6.8911e-05 |   0.0 |  0.01
Modify  | 0.040825   | 0.043559   | 0.046161   |   0.8 |  6.64
Other   |            | 0.004783   |            |       |  0.73

Nlocal:        83.3333 ave          89 max          78 min
Histogram: 4 4 8 3 6 3 8 6 3 3
Nghost:        2110.17 ave        2127 max        2095 min
Histogram: 2 6 3 7 9 8 3 7 1 2
Neighs:        13812.6 ave       15357 max       12532 min
Histogram: 3 4 9 3 10 6 2 8 2 1

Total # of neighbors = 663005
Ave neighs/atom = 165.75125
Neighbor list builds = 144
Dangerous builds = 17

#############################
# L I N E A R  Q U E N C H  #
#############################

# Define solid atoms. This closely follows ten Wolde  Ruiz-Montero and Frenkel  Faraday Discuss  1996  104  93-110
# Compute components of the per-atom q6 vector
compute q6 all orientorder/atom degrees 1 6 components 6 nnn NULL cutoff 1.3 # compute the Q6 parameter.
                                                                             # Use all neighbours within 1.3 unit cell.

# get number of connections
compute coord_number all coord/atom orientorder q6 0.5

# An atom is solid if it has 8 or more connections (of a possible 14)
variable is_solid atom c_coord_number>=8
group solid dynamic all var is_solid    # Must be dynamic to update
dynamic group solid defined

# do clustering
compute cluster solid cluster/atom 1.3 # Create a cluster where all atoms within are solid and max 1.3 units from another member

# define chunks one chunk per cluster
compute clus_chunks solid chunk/atom c_cluster nchunk every compress yes  # Says which atoms are in which chunk

# count the size of each chunk
compute size_chunks solid property/chunk clus_chunks count


# Find the maximum entry in the vector of chunk sizes
variable max_n equal max(c_size_chunks)


# Thermo style which includes this variable
# thermo_style custom step temp pe vol v_max_n

thermo ${N}  # Print the thermo information every 100 steps
thermo 1000  

# Reset the npt fix at a lower temperature (below freezing)
fix 1  all npt temp  ${temp} ${temp}  0.1  iso  5.68  5.68  0.5  mtk yes tchain  5  pchain  5
fix 1  all npt temp  0.45 ${temp}  0.1  iso  5.68  5.68  0.5  mtk yes tchain  5  pchain  5
fix 1  all npt temp  0.45 0.45  0.1  iso  5.68  5.68  0.5  mtk yes tchain  5  pchain  5

dump dmp2 all dcd ${N} traj.dcd
dump dmp2 all dcd 1000 traj.dcd


compute msd all msd com yes
variable twopoint equal c_msd[4]/6/(step*dt+1.0e-6)
fix 9 all vector 10 c_msd[4]
variable fit equal slope(f_9)/6/(10*dt)
thermo_style custom step temp pe c_msd[4] v_twopoint v_fit v_max_n

fix 1 all npt temp 1.25 ${temp} 0.1 iso 5.68 5.68 0.5 mtk yes tchain 5 pchain 5
fix 1 all npt temp 1.25 0.45 0.1 iso 5.68 5.68 0.5 mtk yes tchain 5 pchain 5
run 500000 # 5000000  # Run for this many steps
Neighbor list info ...
  update every 1 steps, delay 10 steps, check yes
  max neighbors/atom: 2000, page size: 100000
  master list distance cutoff = 3.8
  ghost atom cutoff = 3.8
  binsize = 1.9, bins = 8 8 8
  4 neighbor lists, perpetual/occasional/extra = 1 3 0
  (1) pair lj/cut, perpetual
      attributes: half, newton on
      pair build: half/bin/atomonly/newton
      stencil: half/bin/3d
      bin: standard
  (2) compute orientorder/atom, occasional
      attributes: full, newton on
      pair build: full/bin/atomonly
      stencil: full/bin/3d
      bin: standard
  (3) compute coord/atom, occasional
      attributes: full, newton on
      pair build: full/bin/atomonly
      stencil: full/bin/3d
      bin: standard
  (4) compute cluster/atom, occasional
      attributes: full, newton on
      pair build: full/bin/atomonly
      stencil: full/bin/3d
      bin: standard
Per MPI rank memory allocation (min/avg/max) = 9.846 | 9.851 | 9.857 Mbytes
Step Temp PotEng c_msd[4] v_twopoint v_fit v_max_n 
   12000    1.2412332   -5.8461451 9.7227107e-31 6.7518821e-33 8.3333333e+20            2 
   13000    1.2573071   -5.8624171   0.58020383 0.0037192552  0.047517324            2 
   14000    1.2358695   -5.8933579    1.0835075 0.0064494491  0.045260095            5 
   15000    1.2355882   -5.8535557    1.6339208 0.0090773375  0.044527577            4 
   16000    1.2640959   -5.8650375    2.2039488    0.0114789  0.045070705            2 
   17000    1.2715671   -5.8878772    2.8169487  0.013808572  0.045811556            1 
   18000    1.2797703   -5.8951896    3.3901344  0.015695066  0.046779408            1 
   19000    1.2170615   -5.8758199    3.9451422  0.017303255  0.047041576            1 
   20000    1.2157944   -5.9395796     4.503896  0.018766233  0.047145832            3 
   21000    1.2336114   -5.8518438    5.1190239  0.020313586  0.047417853            4 
   22000    1.2465184   -5.9519087    5.6030248  0.021223578  0.047422166            2 
   23000    1.2440689    -5.852007    6.1664159  0.022342086  0.047181206            2 
   24000    1.2169128   -5.8726211     6.804793  0.023627753  0.047178946            2 
   25000    1.2346529   -5.9170574    7.3109384  0.024369794  0.047170567            2 
   26000    1.2489154   -5.8823426     7.817174  0.025055044  0.047026925            4 
   27000    1.2234373   -5.9388002    8.4112721  0.025960716   0.04699732            4 
   28000    1.2390745   -5.9178094    8.8964507  0.026477531  0.046887495            2 
   29000    1.2287922   -5.8860346    9.4534519  0.027165091  0.046709768            3 
   30000    1.2257063   -5.8819824    10.059199  0.027942219  0.046630071            1 
   31000    1.2269112   -5.9601095    10.472838  0.028152789    0.0464745            3 
   32000    1.2326174   -5.9073177    10.983317  0.028602387  0.046292647            3 
   33000    1.2325335   -5.9515171    11.461234  0.028942509  0.046059975            2 
   34000    1.1988345   -5.9593034     11.98806  0.029382501  0.045857175            1 
   35000    1.2164081   -5.8607591    12.680909   0.03019264  0.045735009            2 
   36000    1.1910934   -5.9358237    13.266901  0.030710419  0.045714886            3 
   37000     1.181968   -5.9437097    13.972907  0.031470511  0.045777993            4 
   38000    1.1772065   -5.9756226    14.489385  0.031774966  0.045857436            3 
   39000    1.2091259     -5.98034    14.961115  0.031968193  0.045898919            3 
   40000    1.2066147   -6.0014508    15.544791   0.03238498  0.045942706            3 
   41000    1.2037696   -5.9559805    15.992705  0.032505497  0.045933253            4 
   42000    1.2020139   -5.9530324    16.546999  0.032831346  0.045916999            5 
   43000    1.1714501   -5.9946356    16.943911  0.032837036  0.045860406            3 
   44000    1.2123401   -5.9204933    17.507194  0.033157564  0.045778418            1 
   45000    1.2103484   -6.0041891    17.931232  0.033205985   0.04569932            3 
   46000    1.1755566   -5.9697977    18.583232  0.033665276  0.045616247            3 
   47000     1.189018   -5.9949711    19.064559  0.033802408  0.045540606            3 
   48000    1.1884545   -6.0001166    19.667001  0.034144098  0.045484132            2 
   49000    1.2009574   -5.9932861     20.07429  0.034139949  0.045434538            2 
   50000      1.19796   -6.0113184    20.638313  0.034397188  0.045357308            3 
   51000    1.1938285   -6.0822814    21.103941  0.034483564  0.045298275            5 
   52000    1.1729852    -6.013788    21.656203  0.034705453  0.045222958            2 
   53000    1.1944628   -6.0128819    22.182557  0.034878234  0.045148313            3 
   54000    1.1703454   -6.0067376    22.791949   0.03517276  0.045104226            2 
   55000    1.1573917    -6.001304    23.334703  0.035355611   0.04504499            2 
   56000    1.1649014   -6.0308521    23.592759  0.035108273  0.044963811            1 
   57000    1.1853608   -6.0445693     23.97007  0.035043962   0.04486356            2 
   58000    1.1802028     -6.04196    24.349138  0.034984393  0.044744907            2 
   59000    1.1949925   -5.9876941    24.953629  0.035245239   0.04460689            2 
   60000    1.1606677   -6.0376656    25.053179  0.034796082  0.044448106            2 
   61000    1.1726674   -5.9996647    25.655198  0.035048084  0.044277047            3 
   62000    1.1396663     -6.07621    25.882914  0.034788863   0.04409186            4 
   63000    1.1872879   -6.0185612    26.521735   0.03508166  0.043918195            3 
   64000    1.1540647   -6.0363677    26.923151  0.035056186  0.043778206            2 
   65000    1.1603539   -6.0584056     27.59581  0.035379244  0.043658377            3 
   66000    1.1467869   -6.0467832    28.058954  0.035427972  0.043553747            3 
   67000    1.1520339   -6.0800377    28.435366  0.035367371   0.04344765            2 
   68000    1.1649523   -6.0622601    29.225905   0.03581606   0.04334998            5 
   69000    1.1614339   -6.0335111    29.615262  0.035767225  0.043276712            5 
   70000    1.1691452   -6.0742128    30.051685  0.035775815  0.043183182            3 
   71000    1.1671497    -6.032035    30.559182  0.035867584  0.043084506            4 
   72000    1.1629927   -6.0409095    30.802847  0.035651443      0.04298            5 
   73000    1.1527152   -6.0398842    31.261568  0.035686721  0.042878564            2 
   74000    1.1780595   -6.0808904    31.501179    0.0354743  0.042765304            3 
   75000    1.1454919   -6.1063623    31.890474  0.035433859  0.042643861            4 
   76000    1.1559916   -6.0687521    32.500771   0.03563681  0.042522739            2 
   77000    1.1526008   -6.1222604    33.013329  0.035728711   0.04241669            3 
   78000    1.1291536   -6.1206164    33.380463  0.035662887  0.042330578            2 
   79000    1.1281661   -6.1321305    33.727465  0.035577495  0.042234609            2 
   80000    1.1698594   -6.1456475    34.119632  0.035541283  0.042127158            5 
   81000     1.155339   -6.0758694    34.587368  0.035583712  0.042007162            3 
   82000    1.1420775   -6.1087344    34.854141  0.035420875  0.041880233            3 
   83000    1.1165577   -6.1094254    35.074709  0.035215571   0.04174161            2 
   84000    1.1439802    -6.106874     35.57074  0.035288432  0.041599604            2 
   85000    1.1359465    -6.130456      35.6222  0.034923726  0.041449069            2 
   86000    1.1388721   -6.1124469    36.289211  0.035163964  0.041306452            3 
   87000    1.1314746   -6.0831656    36.494443  0.034956363  0.041167218            6 
   88000    1.1468377   -6.1260855    36.827427  0.034874457  0.041019792            6 
   89000    1.1370455   -6.1236428    37.336044  0.034958843  0.040883485            2 
   90000     1.128161   -6.1204995    37.990837  0.035176701  0.040753848            3 
   91000    1.1070335   -6.1540891    38.248564  0.035026158  0.040636581            2 
   92000    1.1375525    -6.131556    38.865012  0.035203815  0.040517748            3 
   93000    1.0971655   -6.1452293    39.115347  0.035049594  0.040405908            2 
   94000    1.1143012   -6.1670948    39.429758  0.034955459  0.040288322            5 
   95000    1.1004264   -6.1648456    39.851041  0.034957053  0.040176297            3 
   96000    1.1276285   -6.1846638    40.150998  0.034853297  0.040060595            2 
   97000    1.0963344   -6.1636334    40.545699  0.034833075  0.039942047            3 
   98000    1.1035406   -6.1834493    41.023006  0.034883509   0.03983343            2 
   99000    1.1162027   -6.2045165     41.53994  0.034966279  0.039731139            8 
  100000    1.1246734   -6.2092197    41.684458  0.034737048  0.039628622            3 
  101000     1.105375   -6.1826356    41.848102  0.034528137  0.039512131            2 
  102000    1.1211306   -6.2112399    42.340832  0.034592183  0.039393037            5 
  103000    1.1022135   -6.2111213    42.862591  0.034678472   0.03928045            3 
  104000    1.0989309   -6.1848926    43.149274  0.034574739  0.039172752            4 
  105000    1.1121678   -6.2303899    43.474044  0.034503209  0.039061513            4 
  106000     1.099822   -6.1784515    43.836541  0.034462689  0.038951975            3 
  107000    1.1231761    -6.184185    43.968003  0.034242993  0.038834103            6 
  108000    1.0990475   -6.2062451    44.192634  0.034099255  0.038716392            3 
  109000    1.0798806    -6.229561    44.444141  0.033978701  0.038589259           12 
  110000    1.0831305   -6.1891708    44.725571  0.033883008  0.038459486            3 
  111000    1.0875039   -6.2025961    44.981676  0.033770027  0.038325972            4 
  112000    1.0952098    -6.216167    45.450446  0.033817296  0.038197047            2 
  113000    1.0851462   -6.2666289    45.961868  0.033895183  0.038075794            3 
  114000    1.0748756   -6.2535412    46.434937  0.033943667  0.037963417            2 
  115000    1.0835687   -6.2479547    46.638208  0.033795802  0.037848521            3 
  116000    1.0970016   -6.2448721    46.985412  0.033753888  0.037731052            4 
  117000      1.08647   -6.2362877    47.566567  0.033879321  0.037623659            2 
  118000    1.0884911   -6.2313409    47.690986  0.033680075  0.037513394            3 
  119000    1.0591311   -6.2830648    48.016778  0.033625195   0.03740557            4 
  120000    1.0882476   -6.2664996    48.322792  0.033557494  0.037301985            3 
  121000     1.055878   -6.2539871    48.873942   0.03365974  0.037199615            8 
  122000    1.0810197   -6.2903204    48.996397  0.033467484  0.037092416            3 
  123000     1.077164   -6.3024201    49.137796   0.03329119  0.036986802            4 
  124000    1.0597206   -6.3084252    49.507072  0.033270881  0.036880415            4 
  125000     1.064204   -6.2955202    49.781021  0.033187347  0.036774772            4 
  126000    1.0710164   -6.3256046    50.051548  0.033102875  0.036667061            5 
  127000    1.0844006   -6.2993356    50.519566  0.033149321  0.036561679           12 
  128000    1.0559285   -6.2999139    50.735698  0.033031053   0.03645681            3 
  129000    1.0581838   -6.2979193     51.21952  0.033087545  0.036353092            5 
  130000    1.0601167   -6.3118543    51.393319  0.032944435  0.036249924            3 
  131000     1.097486   -6.3126637    51.560654  0.032799398  0.036144139            3 
  132000    1.0664458   -6.3097636    51.782485  0.032690963  0.036035344            5 
  133000    1.0791298    -6.301942    52.150724  0.032675892  0.035925802            3 
  134000    1.0568107   -6.3482759    52.462499  0.032625932  0.035817934            5 
  135000    1.0680884   -6.3221426    52.777082  0.032578446  0.035714127            2 
  136000    1.0613533   -6.3170833    53.268719  0.032640147  0.035613324            6 
  137000    1.0436891   -6.3330062    53.564116  0.032581579  0.035513791            3 
  138000    1.0456638   -6.3395517    53.726701   0.03244366  0.035416005            4 
  139000    1.0692954   -6.3040677    54.046036    0.0324017  0.035315419            4 
  140000    1.0509845   -6.3557133    54.229486  0.032279456   0.03521494            4 
  141000    1.0387669   -6.3630863    54.310634  0.032098483  0.035110943            4 
  142000    1.0317841   -6.3624945    54.759894  0.032136088   0.03500868            3 
  143000    1.0507985   -6.3444524    54.950078   0.03202219  0.034906237            4 
  144000    1.0202074   -6.3183937    55.509562  0.032123589  0.034803917            3 
  145000    1.0601326   -6.3301677     55.73769  0.032033155   0.03470438            3 
  146000    1.0418955   -6.3486574    55.629063  0.031751748  0.034604608            3 
  147000    1.0258849   -6.3723929     56.13761  0.031824042  0.034500333            2 
  148000    1.0412265   -6.3682065    56.368925  0.031739259  0.034398192            4 
  149000    1.0394052   -6.3849229    56.639127  0.031677364  0.034296503            5 
  150000    1.0397721    -6.367607     56.68502  0.031491678  0.034195229            5 
  151000    1.0081448   -6.3673665    57.039093  0.031478528  0.034094218            2 
  152000    1.0172927   -6.3725675    57.463425  0.031504071   0.03399333            4 
  153000    1.0212284   -6.4159587    57.570226  0.031356332  0.033892669            2 
  154000    1.0314102   -6.4156523    57.547124  0.031140218  0.033789494            4 
  155000    1.0380263   -6.4590257    57.914966  0.031137078    0.0336839            3 
  156000   0.98447418   -6.3830912    58.273089  0.031128787  0.033580571            4 
  157000    1.0454629   -6.4035075    58.755162  0.031186391  0.033483218            7 
  158000    1.0010621   -6.4229128    58.777032  0.031000544  0.033382448            5 
  159000    1.0271727   -6.4220372    58.984785  0.030914457  0.033282488            3 
  160000    1.0163544   -6.4483277    59.401956  0.030938519  0.033185561            4 
  161000    1.0194231   -6.4404093    59.774737  0.030939305  0.033090591            2 
  162000     1.005669   -6.4388396    59.787453  0.030754862  0.032994309            5 
  163000    1.0142178    -6.462209    59.953526  0.030651087  0.032898989            5 
  164000    1.0141831   -6.4475886    60.172553  0.030575484  0.032802206            4 
  165000    1.0020839   -6.4540466    60.407641   0.03050891  0.032705081            4 
  166000    1.0154285   -6.4664166    60.445283  0.030344018  0.032606129           10 
  167000   0.99400767   -6.4531052    60.749137  0.030313941  0.032506105            4 
  168000   0.99781204   -6.4658744    61.163301  0.030338939  0.032407097            3 
  169000   0.99201248   -6.4430511    61.711195  0.030429583  0.032311877            4 
  170000    1.0039642   -6.4715437    61.672095  0.030231419  0.032219246            3 
  171000   0.98480931   -6.4490593    61.690882  0.030063783  0.032125582            3 
  172000   0.98808808   -6.4878466    61.851427  0.029966777  0.032030996            5 
  173000   0.99360091   -6.4820382    62.089616  0.029908293  0.031937571            5 
  174000    1.0139367   -6.4665539    62.434852  0.029901749  0.031842809            4 
  175000   0.98421312   -6.4506487    62.819354  0.029913978  0.031751038            3 
  176000   0.99194322   -6.5048379    62.548946  0.029615978  0.031658106            5 
  177000   0.97720145   -6.5068427    63.058734  0.029688669  0.031564276            3 
  178000   0.98555477   -6.4863011    63.071978   0.02952808  0.031470404            9 
  179000   0.99372054   -6.5113275    63.281237  0.029460538  0.031374337            6 
  180000   0.99091079   -6.5001523    63.471049  0.029384745  0.031279451            2 
  181000   0.98114541   -6.5016729    63.751193  0.029351378  0.031185321            2 
  182000   0.96298815   -6.5144749    63.713732  0.029172954  0.031089426            7 
  183000   0.96666535   -6.5053617    64.052492  0.029167801  0.030994712            4 
  184000   0.99391982   -6.5387066    64.342735  0.029140731  0.030900419            5 
  185000   0.97404378   -6.5059412    64.640492  0.029117339  0.030806688            7 
  186000   0.97831358   -6.5311138    64.917688  0.029084986  0.030716475            5 
  187000    0.9767786   -6.5329892    65.062055  0.028993786  0.030626467            7 
  188000   0.98055568   -6.5315357    65.179745  0.028891731  0.030534356           11 
  189000   0.95400656   -6.5096426    65.477501   0.02887015  0.030439743            3 
  190000    0.9705285   -6.5228372     65.50933  0.028732162  0.030346673            3 
  191000   0.97160229   -6.5566142    65.359942  0.028516554  0.030253902            7 
  192000   0.96469919     -6.56375    65.491179  0.028424991   0.03015733            6 
  193000   0.97261118   -6.5644107    65.734839  0.028382918  0.030061047            6 
  194000   0.95896842   -6.6082598    65.532461  0.028149682  0.029964281            3 
  195000   0.94051584   -6.5795493    65.769493  0.028106621  0.029866244            5 
  196000   0.93596526   -6.5637145    66.198299  0.028145535  0.029769528            6 
  197000   0.96312228   -6.5693513     66.35135  0.028067407  0.029672655            8 
  198000   0.96240016   -6.5827353    66.339785  0.027920785  0.029577168            8 
  199000   0.93809585   -6.5624008    66.671414  0.027919352  0.029482923            2 
  200000   0.92064277   -6.5856773    66.581246  0.027742186  0.029387908            7 
  201000   0.95038549   -6.5612214    66.991788  0.027774373  0.029292959            5 
  202000   0.92099506   -6.5872186    67.146336  0.027700634  0.029199794            5 
  203000   0.96784408   -6.6075745    67.272602  0.027616011  0.029107063            7 
  204000   0.94026602   -6.6167979    67.068934   0.02739744  0.029012295            5 
  205000   0.93432277   -6.5798994    67.583193  0.027472842  0.028918093            5 
  206000   0.93530153   -6.5873743    67.803737  0.027428696  0.028823659            4 
  207000   0.94883833   -6.6292669    67.595948  0.027212539  0.028730836            3 
  208000   0.92802918   -6.6459683    68.067162  0.027270498  0.028637556           11 
  209000   0.93048523   -6.6187234    68.265233  0.027218992  0.028547369           10 
  210000    0.9369665   -6.6037831    68.429689  0.027154639  0.028457752            4 
  211000   0.92214055   -6.6517416    68.560252  0.027077509   0.02836797            5 
  212000   0.92791476   -6.6263399    68.619392  0.026973031  0.028278305            5 
  213000   0.91869384   -6.6808125    68.858075  0.026939779  0.028188467            6 
  214000   0.90444248   -6.6582591    68.931668   0.02684255  0.028097847            8 
  215000   0.89608416   -6.6520844    69.098259  0.026782271  0.028007688           12 
  216000   0.91144492   -6.6616694    69.174974  0.026687876  0.027917161            5 
  217000   0.95579892   -6.6460335    69.368277  0.026639123  0.027827158            3 
  218000   0.92129257   -6.6568261    69.639526  0.026620614   0.02773676           13 
  219000   0.93914022   -6.6524899     69.73058  0.026533706  0.027648001            4 
  220000   0.90591152   -6.6568267    69.787745  0.026434752   0.02756019            3 
  221000    0.9213977   -6.7034812    69.849929  0.026338585  0.027473421            6 
  222000   0.94020421   -6.6905389    69.903467   0.02624004  0.027384826           11 
  223000   0.91092968   -6.7042896    69.989639  0.026154573  0.027296498            4 
  224000   0.91071501   -6.7192336    70.238567  0.026130419  0.027208424            4 
  225000   0.90196684   -6.7001317    70.425181    0.0260834  0.027120943            5 
  226000   0.91209045   -6.6941203    70.763855  0.026092867   0.02703337           12 
  227000   0.90728636   -6.7166964    70.816257  0.025997157  0.026947654            6 
  228000   0.92297359   -6.6999162     71.00542  0.025952273  0.026863055           16 
  229000   0.89044884    -6.729261     71.04844    0.0258546   0.02677775            5 
  230000   0.90151963   -6.7232308    70.878046  0.025680451  0.026691608            6 
  231000   0.91717137   -6.7088063     71.20991  0.025689001  0.026606215           11 
  232000   0.87631739    -6.756997     71.21328  0.025579483  0.026521126            9 
  233000   0.89885301    -6.685479      71.6583  0.025628863  0.026437559            8 
  234000    0.8782518   -6.7300205    71.703792  0.025535538  0.026354407            5 
  235000   0.89905267   -6.7348899    71.811274  0.025464991  0.026271758            8 
  236000   0.88619731    -6.773268    71.864954  0.025376043  0.026189502            4 
  237000    0.8925695   -6.7531046      71.6652  0.025198734  0.026105553            8 
  238000   0.88731111   -6.7759805    71.886972  0.025170508  0.026020985            6 
  239000   0.88799712   -6.7786786    71.992941  0.025102141  0.025936435            7 
  240000   0.88761024   -6.7582371    72.089894  0.025031213  0.025852786            6 
  241000   0.88157896   -6.7830984    72.239379  0.024979038  0.025770377            3 
  242000   0.87743317   -6.7690228    72.432098  0.024942182  0.025687605            4 
  243000   0.90371573    -6.760548    72.634097  0.024908812  0.025604944            9 
  244000   0.88755013   -6.7595376    72.775843  0.024855137  0.025523702            4 
  245000   0.86837764   -6.8070158    72.540764  0.024673729  0.025441994           11 
  246000    0.8952699   -6.7825754    72.687703  0.024623206  0.025359309           11 
  247000   0.86873211   -6.7844613     72.78172  0.024555236  0.025276818           12 
  248000   0.87827361   -6.8010576    72.802411  0.024463176  0.025194687            3 
  249000   0.86268718   -6.8022763    72.991784  0.024428308  0.025112555            6 
  250000   0.87033545   -6.8242354    72.913316  0.024304438  0.025031129            7 
  251000   0.86591253   -6.8319815    73.192485  0.024300294  0.024949191            5 
  252000   0.88892894   -6.8092229    73.256778  0.024225125  0.024867254            6 
  253000   0.86065468   -6.7870298     73.42945  0.024186248  0.024786447            8 
  254000   0.83779349    -6.782912    73.542347  0.024128066  0.024706447            3 
  255000   0.85041823   -6.8113904    73.517334  0.024025273   0.02462618            7 
  256000   0.86074586   -6.8295745    73.681025  0.023984709   0.02454613            7 
  257000   0.86264923   -6.8454082    73.775414  0.023921989  0.024466227            7 
  258000   0.84169234   -6.8135909    74.018671  0.023907839  0.024387608            8 
  259000   0.85977477   -6.8426799    73.966157  0.023798635  0.024309278            8 
  260000   0.84931239   -6.8289391    74.357746  0.023832611  0.024231391            8 
  261000   0.85432727   -6.8645642    74.173466   0.02368246   0.02415318           11 
  262000   0.83987907   -6.8658064    74.304844  0.023633856  0.024074826            6 
  263000   0.85772507   -6.8278515    74.466891  0.023595339  0.023996575            9 
  264000   0.84899863   -6.8431506    74.538901  0.023528693  0.023919307            7 
  265000   0.84976079   -6.8950654    74.818573  0.023527853  0.023842939           12 
  266000   0.83374384   -6.8855466     74.83626  0.023444944   0.02376817            6 
  267000   0.83552549   -6.8989737     74.71048  0.023317878  0.023692824           14 
  268000   0.84234482   -6.8717604    75.018245  0.023326569   0.02361709            5 
  269000   0.83653418   -6.9073647    74.760373  0.023159967  0.023541022            7 
  270000   0.85889034   -6.9011818    75.013379  0.023152277  0.023464143            8 
  271000    0.8310596   -6.9140551    75.083366  0.023088366  0.023387599            7 
  272000   0.82781331    -6.887769    75.122058  0.023015336  0.023310694            5 
  273000    0.8450159   -6.9067133    75.143614  0.022937611  0.023234331           19 
  274000   0.83876206   -6.9427823    74.890347   0.02277687  0.023156999           10 
  275000   0.83131305   -6.9174015    75.004675  0.022728689  0.023080447           13 
  276000   0.84422787    -6.949762     74.90416   0.02261599  0.023003681            4 
  277000   0.81042231   -6.9238452    75.246612  0.022637368  0.022926825            8 
  278000   0.82889213   -6.9628312    75.253509  0.022558006  0.022851139           23 
  279000   0.82884223   -6.9199761    75.351228   0.02250634  0.022775198            6 
  280000   0.79924309   -6.9550895    75.359858  0.022428529  0.022698943            5 
  281000   0.80315519   -6.9113068    75.422908   0.02236741  0.022623199            7 
  282000   0.83940539   -6.9268861    75.389266  0.022278152   0.02254783           11 
  283000   0.80534666   -6.9616851    75.367948  0.022193153  0.022472224           23 
  284000   0.82437818   -6.9768198    75.535007  0.022164028  0.022396267            8 
  285000   0.81836645   -6.9649349    75.589997  0.022102338   0.02232141           10 
  286000   0.80239791   -6.9307179    75.681089  0.022051599  0.022247002           11 
  287000   0.80784836   -6.9760014    75.487816  0.021918646  0.022171903            9 
  288000   0.78738746   -6.9859361    75.576755  0.021868274  0.022096815            9 
  289000   0.81008261   -6.9636121    75.903499  0.021886822  0.022022485            9 
  290000   0.80333432   -6.9726745    75.961311  0.021827963  0.021948495            8 
  291000   0.80824215    -6.984337     75.78173  0.021701526  0.021874078            9 
  292000   0.80390593   -6.9978395    75.891206  0.021658449  0.021800051            8 
  293000   0.80809048   -7.0067231    75.989606  0.021612516  0.021726166           12 
  294000   0.79452732    -7.032177    75.912191  0.021517061  0.021651863           15 
  295000   0.79782519   -7.0187395    75.949882  0.021454769  0.021577767            8 
  296000   0.79843683   -7.0655587    75.853905  0.021355266  0.021503709            8 
  297000   0.80440456   -7.0473481    75.942288  0.021308162  0.021429485           13 
  298000   0.78238656   -7.0409106    76.126685  0.021288223  0.021355635           18 
  299000   0.80097572    -7.066418    75.872532  0.021146191  0.021281421            5 
  300000   0.79917238   -7.0660054    76.178825  0.021160785  0.021207661           14 
  301000   0.77821053   -7.0586331    76.342634  0.021135834  0.021134729            8 
  302000   0.79111213    -7.066948    76.410326  0.021084527  0.021062526            5 
  303000   0.78502193   -7.0708778     76.14121  0.020940927   0.02099064           11 
  304000   0.78554845   -7.0818397    76.294318  0.020914013  0.020918257            6 
  305000   0.79633262   -7.0794303    76.389619  0.020871481  0.020846556           12 
  306000   0.76474195   -7.0515084    76.563264  0.020850562  0.020775666            4 
  307000   0.77760851   -7.0674241    76.468456   0.02075691  0.020705429           12 
  308000   0.79576694    -7.052973    76.776176  0.020772775  0.020635565           17 
  309000   0.78954366   -7.0592031    76.752807  0.020699247  0.020566344            7 
  310000   0.77095364   -7.0916799    76.364982  0.020528221  0.020497012           14 
  311000   0.76062065   -7.0509228    76.847717  0.020591564  0.020427448           29 
  312000   0.77609046   -7.1000965     76.58573   0.02045559  0.020357936           20 
  313000   0.78295541    -7.083543     76.83608   0.02045689  0.020288948           11 
  314000   0.75523442   -7.0914104    76.724453  0.020362116  0.020219928           13 
  315000     0.755672   -7.1326915    76.798656  0.020317105  0.020150808           10 
  316000   0.75955271   -7.1486835    76.778408   0.02024747  0.020082061           22 
  317000   0.75887318    -7.168745    76.753446  0.020177036  0.020012959           26 
  318000   0.76954516   -7.1427285    76.778741  0.020120215  0.019943979           14 
  319000   0.74720306   -7.1398481    76.801515  0.020063092  0.019875572           16 
  320000   0.78290858   -7.1320626    77.030721  0.020060084  0.019807771           13 
  321000   0.76337457   -7.1605534    77.009757  0.019992149  0.019739842           18 
  322000   0.74514211   -7.1720348    76.861498  0.019891692  0.019672353           13 
  323000   0.75535143   -7.1647947    77.018212   0.01987054  0.019604844           22 
  324000   0.75209628   -7.1715299    76.933022    0.0197873  0.019537752           19 
  325000   0.75066872   -7.1741523    76.784298  0.019688282  0.019470437           15 
  326000   0.76077976   -7.1630827     76.90078  0.019657663  0.019403038           11 
  327000   0.75357017   -7.1831782     76.98685  0.019619483  0.019336107           13 
  328000   0.73382804   -7.1790093    77.133142  0.019596835  0.019269596           10 
  329000   0.73646208   -7.1977576    76.818764   0.01945764  0.019202809           13 
  330000   0.75469214   -7.1854768    76.843824  0.019405006  0.019136202            9 
  331000   0.72494469   -7.2073401    77.041553  0.019396161  0.019070057           19 
  332000   0.74109782   -7.2010389    77.042338  0.019337936  0.019004105           13 
  333000    0.7426672   -7.1934946    76.960222  0.019259315  0.018938175           15 
  334000   0.73951543    -7.196227    77.057231  0.019225856  0.018871938           12 
  335000   0.73823282   -7.2015782    77.115771  0.019183027  0.018806451           13 
  336000   0.71658798    -7.192607    76.989521  0.019094623  0.018740611           13 
  337000   0.72687783   -7.1920903     76.99561  0.019039468  0.018675252           33 
  338000   0.74151926   -7.1973416    77.173508  0.019026999  0.018610107           17 
  339000   0.73609318   -7.2068414    77.021131  0.018933415  0.018545218           15 
  340000    0.7205159   -7.2316561    77.009125  0.018874786  0.018480464           24 
  341000   0.73459093   -7.2099467    77.277792  0.018885091  0.018415877           20 
  342000   0.72950803   -7.2265356    77.358564  0.018849553  0.018351844           21 
  343000   0.71610696   -7.2304162    77.069994  0.018724488  0.018288018           11 
  344000   0.72824862   -7.2370574    77.320502  0.018730742  0.018224354           26 
  345000   0.71368599   -7.2480405     77.29221  0.018669616  0.018160897           26 
  346000   0.71352784   -7.2557475    77.142333   0.01857956  0.018097509           26 
  347000   0.70470959   -7.2394959    77.226702  0.018546278  0.018034385           25 
  348000    0.7099094   -7.2646991    77.116174  0.018466517  0.017971508           42 
  349000   0.71093082    -7.256419    77.120391  0.018414611  0.017908591           22 
  350000    0.7063187   -7.2748703     77.19478  0.018379709  0.017845692           38 
  351000   0.71715478   -7.2999253    77.086751  0.018301698  0.017782751           27 
  352000   0.70580404   -7.3017872     76.93789  0.018214463  0.017719971           39 
  353000   0.71395877   -7.2912884    77.127101  0.018207531  0.017657399           53 
  354000   0.70426033   -7.3117182    76.912499  0.018105579  0.017594578           45 
  355000   0.69882246   -7.3091496    76.946367  0.018062527  0.017531906           71 
  356000   0.70637727   -7.2970853    77.032619   0.01803198  0.017469292           27 
  357000   0.71014095   -7.2831777    77.062603  0.017988469  0.017406952           52 
  358000   0.70237434   -7.3043374     76.93981  0.017909639  0.017344949           95 
  359000   0.70309781   -7.3290298    76.996989  0.017873024  0.017282883           38 
  360000   0.67682939   -7.2938243    77.040212  0.017833382  0.017221216           75 
  361000   0.68230351   -7.3081418    77.024043   0.01778025  0.017159655           56 
  362000   0.68602962   -7.3170678    76.831024    0.0176867  0.017098518           48 
  363000   0.68721729   -7.3152935    77.037909   0.01768547  0.017037188           61 
  364000   0.68401097   -7.3167899    76.783736  0.017578694  0.016976259           32 
  365000   0.68119906   -7.3554085    76.787859  0.017531475  0.016915204           42 
  366000   0.69879976   -7.3372313    76.749163  0.017474764  0.016854319           48 
  367000   0.68905384   -7.3633793     76.85938  0.017452175  0.016793628           31 
  368000   0.67086333   -7.3538928    77.105054  0.017460384    0.0167335          105 
  369000   0.69460882    -7.349588    76.853391  0.017356231   0.01667369           25 
  370000   0.68087344   -7.3281631    77.003625  0.017343159  0.016614199           28 
  371000    0.6994648   -7.3846129     76.89332  0.017271635   0.01655485           47 
  372000   0.67244844   -7.3774777    76.985498  0.017245855  0.016495572           37 
  373000   0.67963404   -7.3753952    76.944586  0.017190479  0.016436409           99 
  374000   0.68076667   -7.3742552     77.02399  0.017162208  0.016377352           58 
  375000   0.66653778   -7.4057901    76.747658  0.017055035  0.016318749           50 
  376000   0.66898138   -7.4046605    77.063512  0.017079679  0.016260338           43 
  377000   0.67523068   -7.4109991    76.876721  0.016993086  0.016202473           65 
  378000   0.66753931   -7.3925227    76.950274  0.016964346  0.016144601           44 
  379000   0.65439907   -7.3855771    77.074347  0.016946866  0.016086788           48 
  380000    0.6603279   -7.4100191    76.860025  0.016855269  0.016029344           36 
  381000   0.66693253   -7.4094317    76.963069  0.016833567  0.015972348           50 
  382000   0.66023863   -7.4121956    76.924407  0.016781066  0.015915436           26 
  383000   0.65124349   -7.4431514     76.86383  0.016724071  0.015858553           49 
  384000   0.64167777   -7.4459134    76.828193  0.016672785  0.015801945          108 
  385000   0.64679606   -7.4145737    76.976277  0.016661532  0.015745588           82 
  386000   0.66042436   -7.4283673    76.933481  0.016609128  0.015689533           46 
  387000   0.65595944    -7.417967    77.096919  0.016601404   0.01563385           62 
  388000   0.63714541   -7.4141046    76.889898  0.016514153  0.015578138           59 
  389000   0.64430461   -7.4487524    76.965173  0.016487826  0.015522734           60 
  390000   0.64453254   -7.4338309    76.955773  0.016443541  0.015467613          104 
  391000   0.65492929   -7.4628134    76.702428  0.016347491    0.0154127           40 
  392000   0.63722936   -7.4814892     76.70472  0.016306275  0.015357932           39 
  393000   0.65289083   -7.4607659     76.89688   0.01630553  0.015303259           59 
  394000    0.6514779   -7.4846741    76.722361  0.016227234  0.015248718           88 
  395000    0.6377993   -7.4636657     76.90046  0.016223726  0.015194492           81 
  396000   0.63446245   -7.4666587    76.923432  0.016187591  0.015140584          144 
  397000   0.63451242    -7.506448    76.952718  0.016152964  0.015086733          114 
  398000   0.63691711   -7.4750703    76.882574  0.016097691  0.015033103          107 
  399000   0.64135987   -7.4883386    76.943294  0.016070028  0.014979812           87 
  400000   0.62781897   -7.4917355    76.748539  0.015989279  0.014926466          168 
  401000   0.63174972   -7.4964207    76.819923   0.01596424  0.014873372           51 
  402000   0.63293138    -7.495566    76.799539  0.015920302  0.014820438          132 
  403000   0.64452026   -7.5177532    76.654816  0.015850872  0.014767458           64 
  404000   0.61872944   -7.5320145     76.67591  0.015815988  0.014714628           76 
  405000   0.62562255   -7.5095591    76.714862  0.015784951  0.014662187           73 
  406000   0.60436629   -7.5168005    76.658402  0.015734483  0.014609874          226 
  407000   0.61924189   -7.5357029    76.695675  0.015703455  0.014557861          104 
  408000   0.61411849   -7.5326498    76.760026   0.01567811  0.014505956           65 
  409000   0.62249584   -7.5259567    76.574058  0.015601886   0.01445439           91 
  410000   0.61264907   -7.5364397    76.633073  0.015575828  0.014402918           84 
  411000   0.61328238   -7.5360784    76.631314  0.015537574  0.014351636           81 
  412000   0.60616309   -7.5174358    76.671536  0.015507997  0.014300639           59 
  413000   0.59760727   -7.5420833    76.644054  0.015464902  0.014249905           95 
  414000   0.61191359   -7.5651862    76.731424  0.015445134  0.014199225           79 
  415000   0.61180471   -7.5750349    76.620658  0.015385674  0.014148853           93 
  416000    0.5986664   -7.5450832    76.689261  0.015362432  0.014098544           77 
  417000   0.60511089   -7.5558306    76.567338  0.015301227  0.014048593           85 
  418000   0.58451978   -7.5816684     76.41658  0.015234565  0.013998672          271 
  419000   0.58563373   -7.5639417    76.547634  0.015224271  0.013948864          148 
  420000   0.60723253   -7.5730134    76.375186  0.015153807  0.013899319          184 
  421000   0.59999605   -7.5665946    76.628354  0.015167924  0.013849986           95 
  422000   0.59661935   -7.5879045    76.419542  0.015090747  0.013800924          176 
  423000   0.60516412   -7.5800999    76.472375   0.01506548  0.013751982          213 
  424000    0.5891193   -7.5852167    76.472254  0.015029924  0.013703295          152 
  425000   0.59362372   -7.5921923    76.744242  0.015047891  0.013654953           67 
  426000   0.58938015   -7.5894569    76.606082   0.01498554  0.013606843          230 
  427000   0.57699072   -7.6094374    76.546709  0.014938858  0.013558935          223 
  428000   0.58396615   -7.6054973    76.442018   0.01488357  0.013511161          109 
  429000   0.58633765   -7.6010634    76.577356  0.014875166   0.01346349           85 
  430000   0.59253685   -7.6001725    76.382353  0.014802782   0.01341597          200 
  431000   0.57868905   -7.6086497    76.489638   0.01478918  0.013368513          203 
  432000    0.5812411   -7.6291251    76.349522  0.014727917  0.013321258          174 
  433000   0.57210564   -7.6348139    76.428759  0.014709153  0.013274212          273 
  434000   0.57475205   -7.6148084    76.579894  0.014704281  0.013227373          112 
  435000   0.56596244   -7.6203572    76.440545  0.014643783  0.013180758          149 
  436000   0.58000138   -7.6142462    76.423157  0.014606872  0.013134358           99 
  437000   0.56788975   -7.6440614    76.381689   0.01456554  0.013088048          119 
  438000   0.57876757   -7.6300013    76.268697  0.014510787  0.013042025          316 
  439000   0.56492337   -7.6445043    76.159342  0.014456974  0.012996028          144 
  440000   0.56180457   -7.6279311    76.454078  0.014479939  0.012950267          116 
  441000   0.56743874   -7.6456769    76.187871  0.014396801  0.012904689          268 
  442000   0.56679853   -7.6556938    76.267491   0.01437924  0.012859471           96 
  443000   0.54177383    -7.671322    76.224327  0.014338662  0.012814423          116 
  444000   0.56394103   -7.6706597    76.228179  0.014307091   0.01276941          262 
  445000   0.55155392   -7.6510828    76.324687  0.014293013  0.012724499          133 
  446000   0.55698829   -7.6614788    76.135399  0.014225598  0.012679872          141 
  447000   0.55673603   -7.6645066    76.267027  0.014218312  0.012635398          187 
  448000   0.55462276    -7.663986    76.279002  0.014188802  0.012591127           93 
  449000   0.54649343   -7.6736065    76.237425  0.014149485  0.012546994           62 
  450000   0.53548776   -7.6643967    76.229072  0.014116495  0.012503139          103 
  451000   0.54386734   -7.6698145    76.313101  0.014100721  0.012459477          153 
  452000   0.55640519   -7.6903035    76.228131  0.014053859  0.012415902          178 
  453000    0.5482064   -7.6781418    76.305378  0.014037045  0.012372554          143 
  454000   0.54209378   -7.6748304    76.148141  0.013977265  0.012329392          221 
  455000    0.5461583   -7.6937155    76.250466  0.013965287  0.012286389          175 
  456000   0.53800147   -7.6811847    76.239888  0.013932728  0.012243692          158 
  457000   0.54028977   -7.6824505    76.219651   0.01389855  0.012201146          221 
  458000   0.53905738   -7.6871652    76.170216   0.01385921  0.012158784          267 
  459000   0.53989659   -7.6685172    75.996958   0.01379756  0.012116506          360 
  460000   0.52276366   -7.6885234    76.086058  0.013783706  0.012074379          112 
  461000   0.52935896    -7.707234    76.126645  0.013761143  0.012032388          278 
  462000   0.54171279   -7.7188163     76.09344  0.013725368  0.011990514          184 
  463000   0.52987205   -7.7226292    75.934866  0.013667182  0.011948754           96 
  464000   0.52425112   -7.7108969    76.129461  0.013672676  0.011907306          162 
  465000   0.52173032    -7.705802    76.051689  0.013629335  0.011865961          340 
  466000   0.54724564   -7.7266323    75.941397  0.013580364  0.011824865          256 
  467000    0.5109784   -7.7126815    75.940817  0.013551181  0.011783874          318 
  468000   0.52906754   -7.7252636    75.988957  0.013530797  0.011743048          215 
  469000   0.51435334   -7.7436378    75.930058  0.013491482  0.011702403          136 
  470000   0.51739593   -7.7272368    75.982795  0.013472127  0.011661911          122 
  471000   0.53000037   -7.7250327    75.936195  0.013435279  0.011621632          130 
  472000   0.51877793   -7.7282491    75.859166  0.013393214  0.011581511          119 
  473000   0.51593986   -7.7451772    75.921613  0.013375901  0.011541547          240 
  474000   0.51968944   -7.7368836    76.052625  0.013370715  0.011501745          351 
  475000    0.5132628   -7.7471647    75.974171  0.013328802  0.011462153          299 
  476000     0.518997   -7.7565444     75.98495  0.013302687  0.011422705          208 
  477000   0.51023821   -7.7408937     75.88584  0.013257484  0.011383369          382 
  478000   0.50000088   -7.7606461    75.954534  0.013241725  0.011344175          281 
  479000   0.51606293   -7.7760085    75.909704  0.013206281  0.011305239          377 
  480000   0.49170194   -7.7583183    75.851108  0.013168595  0.011266422          413 
  481000    0.4977123    -7.761888    75.799669  0.013132306  0.011227789          310 
  482000   0.50532589   -7.7685901    75.859573  0.013115417  0.011189359          230 
  483000   0.48709697   -7.7807053    75.763993  0.013071772   0.01115108          325 
  484000   0.49789466     -7.77071    75.744533  0.013041414  0.011112864          258 
  485000   0.48847445    -7.778043    75.860884  0.013034516  0.011074851          312 
  486000   0.49665545   -7.7754729     75.76964  0.012992051  0.011036994          325 
  487000   0.48960678   -7.7710352    75.751269  0.012962229  0.010999273          244 
  488000   0.48511702   -7.7845736    75.735436  0.012932964  0.010961708          437 
  489000    0.4837443   -7.7842971    75.752949    0.0129095  0.010924274          340 
  490000    0.4858359   -7.7882197    75.699183  0.012874011  0.010887061          283 
  491000   0.47984958   -7.7883917    75.712793  0.012850101  0.010849972          332 
  492000   0.48499676   -7.7948955    75.749399  0.012830183  0.010813015          388 
  493000   0.48108251   -7.7897915    75.668748  0.012790525  0.010776299          177 
  494000   0.47915605   -7.7879458    75.782803  0.012783874  0.010739705          363 
  495000   0.47847557   -7.7935786    75.716733  0.012746925  0.010703278          276 
  496000   0.48463633   -7.8022243    75.544554  0.012692297  0.010666965          382 
  497000   0.47979811   -7.8057511     75.84819  0.012717671  0.010630899          208 
  498000   0.47400913    -7.801771    75.639529  0.012657217  0.010594943          416 
  499000   0.48551196   -7.8017134    75.732926  0.012647449  0.010559118          393 
  500000   0.47726455   -7.7990845    75.613109  0.012602185  0.010523431          318 
  501000   0.46905499   -7.8291683    75.575139  0.012570715  0.010487845          442 
  502000   0.46421999   -7.8124409    75.608507  0.012551213  0.010452375          308 
  503000     0.471035   -7.8188287      75.6542   0.01253383  0.010417114          428 
  504000    0.4633004    -7.818796    75.641404  0.012506846  0.010382016          467 
  505000   0.46046489   -7.8321912    75.548251  0.012466708  0.010347024          446 
  506000    0.4602758   -7.8300978     75.67284  0.012462589   0.01031225          421 
  507000   0.46124972   -7.8305086    75.555588  0.012418736  0.010277578          362 
  508000   0.46537347   -7.8385714     75.65054  0.012409865  0.010243045          383 
  509000   0.44999938   -7.8415076    75.606506  0.012378275  0.010208692          430 
  510000   0.45801463   -7.8308264    75.488184  0.012334671   0.01017447          539 
  511000   0.44669856   -7.8500161    75.565384  0.012323122  0.010140415          466 
  512000   0.44971598     -7.83152     75.48084  0.012285293  0.010106463          345 
Loop time of 1311.36 on 48 procs for 500000 steps with 4000 atoms

Performance: 65885.972 tau/day, 381.285 timesteps/s
99.4% CPU use with 48 MPI tasks x no OpenMP threads

MPI task timing breakdown:
Section |  min time  |  avg time  |  max time  |%varavg| %total
---------------------------------------------------------------
Pair    | 93.21      | 100.25     | 106.7      |  31.0 |  7.64
Neigh   | 9.2205     | 9.5234     | 9.9527     |   5.7 |  0.73
Comm    | 84.293     | 91.62      | 97.95      |  33.2 |  6.99
Output  | 0.97947    | 0.98023    | 1.0019     |   0.3 |  0.07
Modify  | 1091.8     | 1095.5     | 1100       |   6.1 | 83.54
Other   |            | 13.46      |            |       |  1.03

Nlocal:        83.3333 ave          89 max          76 min
Histogram: 4 0 1 13 1 4 11 5 3 6
Nghost:        2418.88 ave        2442 max        2396 min
Histogram: 1 2 4 8 5 14 10 2 1 1
Neighs:        16799.4 ave       19257 max       14113 min
Histogram: 2 3 3 5 9 11 4 5 3 3
FullNghs:      33596.5 ave       36163 max       30633 min
Histogram: 4 0 4 9 4 7 7 5 4 4

Total # of neighbors = 1612634
Ave neighs/atom = 403.15850
Neighbor list builds = 26695
Dangerous builds = 0

#clear
#
#next RN
#
#jump SELF
Total wall time: 0:21:55
