
units lj                  # Use reduced LJ style units
atom_style atomic         # Uncharged point particles
atom_modify map hash      # Needed for indexing of clusters etc
                          # Used to be able to find where atoms are in relation to each other.

lattice fcc 1.0 spacing 1 1 1
Lattice spacing in x,y,z = 1.5874011 1.5874011 1.5874011
region box block 0 10 0 10 0 10 units lattice
create_box 2 box
Created orthogonal box = (0.0000000 0.0000000 0.0000000) to (15.874011 15.874011 15.874011)
  3 by 4 by 4 MPI processor grid
create_atoms 1 box
Created 4000 atoms
  using lattice units in orthogonal box = (0.0000000 0.0000000 0.0000000) to (15.874011 15.874011 15.874011)
  create_atoms CPU = 0.003 seconds
set type 1 type/fraction 2 0.48 78393
Setting atom values ...
  1918 settings made for type/fraction
mass 1 1.0
mass 2 1.0
pair_style lj/cut  3.5
pair_modify tail  yes
pair_coeff 1  1  1.0  1.0   # Intearaction between 1 and 1 set with epsilon = 1 and sigma = 1
pair_coeff 1  2  1.5  0.8
pair_coeff 2  2  0.5  0.88

write_data data.0
System init for write_data ...
Neighbor list info ...
  update every 1 steps, delay 10 steps, check yes
  max neighbors/atom: 2000, page size: 100000
  master list distance cutoff = 3.8
  ghost atom cutoff = 3.8
  binsize = 1.9, bins = 9 9 9
  1 neighbor lists, perpetual/occasional/extra = 1 0 0
  (1) pair lj/cut, perpetual
      attributes: half, newton on
      pair build: half/bin/atomonly/newton
      stencil: half/bin/3d
      bin: standard
WARNING: Not all mixed pair coeffs generated from mixing. Use write_data with 'pair ij' option to store all pair coeffs. (../write_data.cpp:312)


#############################
#   M E L T   S Y S T E M   #
#############################

velocity all create 2.4 8172548 mom yes dist gaussian # Assign velocities
                                                    # Temperature 2.4, random number seed, zero linear momentum
                                                                                # Gaussian distribution

timestep 0.002   # simulation timestep
thermo 1000       # output thermodynamic data every 1000 steps bf 100

# Define a fix  in this case with index 1 applied to all
# particles in the simulation. This fix is for simulations
# in the anisotropic NPT ensemble. Note that we use the MTK
# correction.
fix 1 all npt temp 2.4 2.4 0.1 iso 5.68 5.68 0.5 mtk yes tchain 5 pchain 5 # Use NPT ensemble
                                                                         # Set temperature and pressure and damping
                                                                         # Numbers of thermostats in chain and in barostat
run 10000          # run for 10000 steps
Per MPI rank memory allocation (min/avg/max) = 3.642 | 3.644 | 3.648 Mbytes
Step Temp E_pair E_mol TotEng Press Volume 
       0          2.4   -5.4168687            0   -1.8177687   -4.2006027         4000 
    1000    2.3383961   -4.9488466            0   -1.4421294    6.0162988    3691.9122 
    2000    2.3256665   -4.8969523            0   -1.4093247    5.7976204    3737.7159 
    3000    2.3888329   -4.8881191            0   -1.3057656    5.6602882    3757.1424 
    4000     2.383179   -4.9539045            0   -1.3800297    5.8517307    3703.3959 
    5000    2.4022104   -4.9327902            0   -1.3303754    5.5693691    3746.4986 
    6000    2.3628207   -4.9815298            0   -1.4381848    5.5457298     3719.866 
    7000    2.3906567   -4.9258276            0    -1.340739    5.8152517    3735.9613 
    8000    2.4049765   -4.9466795            0   -1.3401167    5.6616087    3735.2211 
    9000    2.4233088   -4.8845146            0   -1.2504601    5.6982676    3756.3559 
   10000    2.4227457   -4.9527547            0   -1.3195446    5.2391857    3765.9728 
Loop time of 2.67307 on 48 procs for 10000 steps with 4000 atoms

Performance: 646447.985 tau/day, 3741.018 timesteps/s
99.6% CPU use with 48 MPI tasks x no OpenMP threads

MPI task timing breakdown:
Section |  min time  |  avg time  |  max time  |%varavg| %total
---------------------------------------------------------------
Pair    | 1.184      | 1.2392     | 1.31       |   2.5 | 46.36
Neigh   | 0.2137     | 0.22039    | 0.22748    |   0.8 |  8.24
Comm    | 0.83674    | 0.90874    | 0.96846    |   3.2 | 34.00
Output  | 0.00024809 | 0.00025439 | 0.00041368 |   0.0 |  0.01
Modify  | 0.24706    | 0.28877    | 0.34984    |   4.7 | 10.80
Other   |            | 0.01569    |            |       |  0.59

Nlocal:        83.3333 ave          91 max          75 min
Histogram: 1 4 4 9 4 7 7 4 5 3
Nghost:        1714.48 ave        1736 max        1690 min
Histogram: 2 1 5 6 6 10 8 4 3 3
Neighs:        10137.1 ave       11431 max        8996 min
Histogram: 5 3 2 8 9 6 6 6 1 2

Total # of neighbors = 486582
Ave neighs/atom = 121.64550
Neighbor list builds = 901
Dangerous builds = 172

# Equilibrate just above the melting temperature to avoid step fn in T

fix 1 all npt temp 1.25 1.25 0.1 iso 5.68 5.68 0.5 mtk yes tchain 5 pchain 5
run 2000
Per MPI rank memory allocation (min/avg/max) = 3.644 | 3.646 | 3.649 Mbytes
Step Temp E_pair E_mol TotEng Press Volume 
   10000    2.4227457   -4.9527547            0   -1.3195446    5.2391857    3765.9728 
   11000    1.2437727   -7.0403224            0   -5.1751298    5.3578465    2927.0775 
   12000    1.2441747    -7.144496            0   -5.2787005    5.4836361    2897.6167 
Loop time of 0.640106 on 48 procs for 2000 steps with 4000 atoms

Performance: 539910.522 tau/day, 3124.482 timesteps/s
99.7% CPU use with 48 MPI tasks x no OpenMP threads

MPI task timing breakdown:
Section |  min time  |  avg time  |  max time  |%varavg| %total
---------------------------------------------------------------
Pair    | 0.28811    | 0.31325    | 0.33412    |   1.8 | 48.94
Neigh   | 0.039978   | 0.04281    | 0.047202   |   0.6 |  6.69
Comm    | 0.21157    | 0.23294    | 0.26386    |   2.5 | 36.39
Output  | 5.1494e-05 | 5.3081e-05 | 6.9213e-05 |   0.0 |  0.01
Modify  | 0.042132   | 0.04617    | 0.049644   |   1.0 |  7.21
Other   |            | 0.004886   |            |       |  0.76

Nlocal:        83.3333 ave          92 max          78 min
Histogram: 7 1 11 9 3 10 4 0 1 2
Nghost:        2043.73 ave        2063 max        2014 min
Histogram: 1 3 0 5 8 5 4 10 8 4
Neighs:        13190.1 ave       15193 max       11883 min
Histogram: 2 7 7 10 10 5 4 1 1 1

Total # of neighbors = 633124
Ave neighs/atom = 158.28100
Neighbor list builds = 143
Dangerous builds = 12

#############################
# L I N E A R  Q U E N C H  #
#############################

# Define solid atoms. This closely follows ten Wolde  Ruiz-Montero and Frenkel  Faraday Discuss  1996  104  93-110
# Compute components of the per-atom q6 vector
compute q6 all orientorder/atom degrees 1 6 components 6 nnn NULL cutoff 1.3 # compute the Q6 parameter.
                                                                             # Use all neighbours within 1.3 unit cell.

# get number of connections
compute coord_number all coord/atom orientorder q6 0.5

# An atom is solid if it has 8 or more connections (of a possible 14)
variable is_solid atom c_coord_number>=8
group solid dynamic all var is_solid    # Must be dynamic to update
dynamic group solid defined

# do clustering
compute cluster solid cluster/atom 1.3 # Create a cluster where all atoms within are solid and max 1.3 units from another member

# define chunks one chunk per cluster
compute clus_chunks solid chunk/atom c_cluster nchunk every compress yes  # Says which atoms are in which chunk

# count the size of each chunk
compute size_chunks solid property/chunk clus_chunks count


# Find the maximum entry in the vector of chunk sizes
variable max_n equal max(c_size_chunks)


# Thermo style which includes this variable
# thermo_style custom step temp pe vol v_max_n

thermo ${N}  # Print the thermo information every 100 steps
thermo 1000  

# Reset the npt fix at a lower temperature (below freezing)
fix 1  all npt temp  ${temp} ${temp}  0.1  iso  5.68  5.68  0.5  mtk yes tchain  5  pchain  5
fix 1  all npt temp  0.45 ${temp}  0.1  iso  5.68  5.68  0.5  mtk yes tchain  5  pchain  5
fix 1  all npt temp  0.45 0.45  0.1  iso  5.68  5.68  0.5  mtk yes tchain  5  pchain  5

dump dmp2 all dcd ${N} traj.dcd
dump dmp2 all dcd 1000 traj.dcd


compute msd all msd com yes
variable twopoint equal c_msd[4]/6/(step*dt+1.0e-6)
fix 9 all vector 10 c_msd[4]
variable fit equal slope(f_9)/6/(10*dt)
thermo_style custom step temp pe c_msd[4] v_twopoint v_fit v_max_n

fix 1 all npt temp 1.25 ${temp} 0.1 iso 5.68 5.68 0.5 mtk yes tchain 5 pchain 5
fix 1 all npt temp 1.25 0.45 0.1 iso 5.68 5.68 0.5 mtk yes tchain 5 pchain 5
run 2000000 # 5000000  # Run for this many steps
Neighbor list info ...
  update every 1 steps, delay 10 steps, check yes
  max neighbors/atom: 2000, page size: 100000
  master list distance cutoff = 3.8
  ghost atom cutoff = 3.8
  binsize = 1.9, bins = 8 8 8
  4 neighbor lists, perpetual/occasional/extra = 1 3 0
  (1) pair lj/cut, perpetual
      attributes: half, newton on
      pair build: half/bin/atomonly/newton
      stencil: half/bin/3d
      bin: standard
  (2) compute orientorder/atom, occasional
      attributes: full, newton on
      pair build: full/bin/atomonly
      stencil: full/bin/3d
      bin: standard
  (3) compute coord/atom, occasional
      attributes: full, newton on
      pair build: full/bin/atomonly
      stencil: full/bin/3d
      bin: standard
  (4) compute cluster/atom, occasional
      attributes: full, newton on
      pair build: full/bin/atomonly
      stencil: full/bin/3d
      bin: standard
Per MPI rank memory allocation (min/avg/max) = 9.833 | 9.843 | 9.850 Mbytes
Step Temp PotEng c_msd[4] v_twopoint v_fit v_max_n 
   12000    1.2441747    -7.144496 9.7108777e-31 6.7436648e-33 8.3333333e+20            3 
   13000    1.2464626   -7.0849471   0.46133506 0.0029572759  0.037582412            1 
   14000    1.2462529   -7.0997093   0.84031959 0.0050019022  0.034058675            2 
   15000    1.2544225   -7.0984136    1.2264417 0.0068135646   0.03301828            2 
   16000    1.2400211   -7.1547216     1.599642 0.0083314687  0.032404512            2 
   17000    1.2332538   -7.1160291    2.0109571 0.0098576325  0.032191036            2 
   18000    1.2571146   -7.1419729      2.38537  0.011043379  0.032352606            1 
   19000     1.243475   -7.1507716    2.7487791  0.012056048  0.032128851            2 
   20000    1.2430566   -7.1405298     3.134402  0.013060008  0.031859897            1 
   21000    1.2562873   -7.1509115    3.5563916  0.014112665  0.032015379            4 
   22000    1.2296897   -7.1436584     4.006987  0.015177981  0.032387627            2 
   23000    1.2318853   -7.1292584    4.3589866  0.015793429   0.03254944            1 
   24000    1.2116594   -7.1595133    4.6982277   0.01631329  0.032565251            3 
   25000    1.2499914   -7.1295864    5.0841174  0.016947058  0.032483527            2 
   26000    1.2540199   -7.1614701     5.447183  0.017458919  0.032358858            2 
   27000    1.2184769   -7.1421354    5.7630415  0.017787165  0.032219075            2 
   28000    1.2580622   -7.1375883    6.1061645  0.018173108  0.031991026            3 
   29000    1.2379178   -7.1907305    6.4831023  0.018629604  0.031842403            2 
   30000    1.2086331   -7.1548727    6.8842799  0.019122999  0.031750148            3 
   31000    1.2355825   -7.1364728    7.3365327  0.019721862  0.031681191            1 
   32000    1.2497749    -7.126881    7.6389674  0.019893144  0.031656209            1 
   33000    1.2573064   -7.1273494    8.0487606  0.020325153  0.031594604            1 
   34000    1.2445692   -7.1662278    8.5218468  0.020886879  0.031623616            2 
   35000    1.2296118   -7.1802585    8.9322735  0.021267318  0.031666406            1 
   36000    1.2362742   -7.1932619    9.2903571  0.021505456  0.031734675            4 
   37000    1.2327873   -7.1726285    9.6943767  0.021834181  0.031794542            2 
   38000    1.2434384   -7.1518219    10.149071  0.022256734  0.031868427            2 
   39000    1.2633603   -7.1417605    10.494024  0.022423127  0.031922423            1 
   40000     1.220788   -7.1393712     10.77769   0.02245352  0.031927168            1 
   41000     1.246184   -7.1485414    11.148875  0.022660315  0.031901893            1 
   42000    1.2254533   -7.1854353    11.573677  0.022963644  0.031893008            2 
   43000    1.2521508   -7.1307266    12.121913   0.02349208  0.031959868            1 
   44000    1.2527343   -7.1929596    12.548755  0.023766582  0.032043004            3 
   45000    1.1842986   -7.1771486    12.929226  0.023943011  0.032127384            1 
   46000    1.2483574   -7.1804042    13.448091  0.024362483  0.032217676            3 
   47000    1.2433613   -7.2322369    13.816731  0.024497751  0.032336627            2 
   48000    1.2477583   -7.1881871    14.385022  0.024973996   0.03246499            2 
   49000    1.2442928   -7.1784333      14.8372  0.025233333  0.032603622            2 
   50000    1.2421734   -7.1747113    15.373756  0.025622927  0.032766741            2 
   51000    1.2227486   -7.1924591    15.874294  0.025938389  0.032948004            1 
   52000    1.2226791   -7.1997809    16.177724   0.02592584  0.033093531            2 
   53000    1.2273816   -7.1666678    16.641336  0.026165622   0.03321371            2 
   54000    1.2250585   -7.1768831    16.932869   0.02613097  0.033310538            3 
   55000    1.2118897   -7.1132741    17.263945  0.026157493  0.033369067            1 
   56000    1.2215309   -7.2103463    17.497123  0.026037385  0.033410203            2 
   57000    1.2364864    -7.197688    17.967806  0.026268721  0.033413841            3 
   58000    1.2434224    -7.156471    18.266843  0.026245463  0.033424512            1 
   59000    1.2259606   -7.1680542    18.635403  0.026321191  0.033405007            2 
   60000    1.2494934   -7.1709702    19.009321  0.026401834   0.03339006            2 
   61000    1.2235721   -7.1583855    19.510226  0.026653314  0.033379379            1 
   62000    1.1804203   -7.2086525    19.733999  0.026524192  0.033364061            4 
   63000    1.2284762   -7.1883739    20.156911   0.02666258  0.033336581            2 
   64000    1.2596681    -7.168921    20.441795   0.02661692  0.033304485            1 
   65000    1.2177118   -7.1636301    20.886974  0.026778172   0.03325095            1 
   66000    1.2219513    -7.156623    21.271696  0.026858201  0.033217504            3 
   67000    1.2505114   -7.2319187    21.553458  0.026807784  0.033175942            1 
   68000     1.215626    -7.149439    21.882986  0.026817385  0.033121773            4 
   69000    1.2539818   -7.1737022    22.163648  0.026767691  0.033069105            1 
   70000    1.2296951    -7.167721    22.502334  0.026788492     0.033007            2 
   71000    1.2557996    -7.254337    22.844504  0.026812798  0.032948635            1 
   72000    1.2451177    -7.204697    23.312601  0.026982177  0.032891368            2 
   73000    1.2151452   -7.2075752    23.429229  0.026745695  0.032831977            1 
   74000    1.2181662   -7.2284419    23.958941  0.026980789  0.032775875            4 
   75000    1.2096648   -7.1609645    24.535899   0.02726211  0.032734174            1 
   76000     1.198915   -7.1879143    24.864005  0.027263164  0.032698974            3 
   77000    1.2201701   -7.1545881    25.143231  0.027211289  0.032665469            3 
   78000      1.24363   -7.2138568    25.428948  0.027167679  0.032624898            1 
   79000    1.1999626   -7.2224922    25.866821  0.027285676   0.03258398            1 
   80000    1.2078332   -7.1947035    26.283942  0.027379106  0.032543382            2 
   81000    1.2035949   -7.1714913    26.536651  0.027301081  0.032497681            1 
   82000    1.2147169   -7.2189362    27.053764  0.027493662  0.032462298            2 
   83000     1.251508   -7.1854204     27.29454  0.027404156  0.032424347            1 
   84000    1.2145018   -7.2602026    27.529228  0.027310742  0.032381699            5 
   85000    1.2064097   -7.1753336    28.073096  0.027522643  0.032336148            2 
   86000    1.2293189   -7.2378068    28.283084  0.027406089  0.032295725            2 
   87000    1.2088509   -7.2071761    28.754364  0.027542494  0.032257549            6 
   88000    1.2341652   -7.2053725    29.129447  0.027584704  0.032221972            3 
   89000    1.2114136   -7.1818242    29.576727  0.027693565  0.032187115            3 
   90000    1.2438294   -7.1846172    30.011327  0.027788266   0.03215921            3 
   91000    1.2379728   -7.1402894    30.410913  0.027848822  0.032131624            1 
   92000    1.2084596   -7.1832359    30.559286  0.027680512  0.032104721            2 
   93000    1.2123273    -7.197363    30.827534  0.027623238  0.032061616            1 
   94000    1.1985753   -7.2306625    31.161887  0.027625786  0.032016072            3 
   95000    1.2159026   -7.2130246    31.757735  0.027857662  0.031985497            1 
   96000    1.2301602   -7.2582774    32.018191  0.027793569  0.031954719            1 
   97000    1.2051202   -7.2071297    32.299824  0.027748989  0.031922901            2 
   98000     1.219564   -7.2355193    32.750796  0.027849316  0.031892968            1 
   99000    1.2179459   -7.2580576    33.073404  0.027839565  0.031860769            2 
  100000    1.2348299   -7.2315064    33.393457  0.027827881  0.031827294            2 
  101000    1.2452264   -7.2073391    33.851435  0.027930227  0.031798535            2 
  102000    1.2221608   -7.1870728    34.352538  0.028065799   0.03177533            6 
  103000    1.2279714   -7.2207121    34.603475  0.027996339  0.031752674            3 
  104000    1.2116483    -7.224813    34.998361  0.028043558  0.031729561            1 
  105000    1.2051069   -7.2291341    35.521525  0.028191686  0.031711023            3 
  106000    1.1975766   -7.1963403    35.812034  0.028154115  0.031694717            1 
  107000    1.2042963   -7.2044867    36.295685  0.028267667  0.031682796            1 
  108000    1.2120656   -7.2660282    36.686071  0.028307154  0.031674301            2 
  109000    1.2192995    -7.217235     36.95145  0.028250344   0.03166265            2 
  110000    1.2224588    -7.278032    37.101166  0.028106944  0.031647473            1 
  111000    1.1983483   -7.2438347    37.636263  0.028255453  0.031633313            5 
  112000    1.2344886   -7.2531672    37.757685  0.028093516  0.031614674            2 
  113000    1.2059003   -7.2311687    38.324081  0.028262597  0.031597089            2 
  114000    1.2064583   -7.2378044    38.717435  0.028302218  0.031577402            1 
  115000    1.2266495   -7.2325847    38.984862    0.0282499  0.031561064            2 
  116000    1.1962842   -7.2401467    39.453545  0.028343064   0.03154706            2 
  117000    1.2222248   -7.2198575    39.842702  0.028377992  0.031529664            1 
  118000    1.2391151   -7.2472896    39.927107  0.028197109   0.03150851            1 
  119000    1.1929503   -7.2301173    40.437641  0.028317676  0.031490821            2 
  120000    1.1786609   -7.2515034    40.777181  0.028317487  0.031475923            3 
  121000    1.2095537    -7.286514     41.01526  0.028247424   0.03145583            2 
  122000    1.1854675   -7.2598646    41.522043  0.028362051  0.031438958            2 
  123000    1.1903023   -7.2444325     41.85374  0.028356192  0.031425906            2 
  124000      1.19539   -7.2420188    42.354734  0.028464203   0.03141509            1 
  125000    1.1715727   -7.2123165    42.798649  0.028532432  0.031402402            1 
  126000    1.2106901   -7.1921223    43.262361  0.028612673  0.031393441            2 
  127000    1.2038364    -7.231165    43.508372    0.0285488  0.031386975            3 
  128000    1.2101922   -7.2678734    43.717813  0.028462118   0.03137869            1 
  129000    1.2241001   -7.2238683    44.222626  0.028567588  0.031366187            2 
  130000    1.1788445    -7.282047    44.413601  0.028470257  0.031354926            2 
  131000    1.1961446   -7.2378432    44.983277  0.028615316  0.031341297            3 
  132000    1.2201931   -7.2465475    45.140452   0.02849776  0.031326739            2 
  133000    1.1951995   -7.2112232    45.571282  0.028553435  0.031310695            2 
  134000    1.1995701   -7.2667852    45.862825  0.028521657  0.031294158            2 
  135000    1.1705528   -7.2523645     46.30973  0.028586253  0.031279179            1 
  136000    1.2155231   -7.2450692    46.529026  0.028510433  0.031269337            3 
  137000    1.1953403   -7.2480691    47.042109  0.028614421  0.031259262            1 
  138000     1.217606   -7.2285274    47.195715  0.028499828  0.031239763            3 
  139000    1.1787191   -7.2814637    47.184662  0.028288167  0.031216242            3 
  140000    1.2050555   -7.2559325    47.737504  0.028415181  0.031190983            1 
  141000     1.174229    -7.276179    48.072893  0.028411875   0.03116731            5 
  142000    1.1903475   -7.2402084    48.129351  0.028244924  0.031141384            3 
  143000    1.1941488   -7.2535679    48.596157  0.028319438  0.031116505            3 
  144000    1.2056831   -7.2827935    48.894524  0.028295442  0.031086258            1 
  145000     1.183492   -7.2713666    49.079455  0.028206583  0.031057742            1 
  146000    1.1800005   -7.2803296    49.316115  0.028148468  0.031025913            5 
  147000    1.2213174    -7.307836    49.638605  0.028139799  0.030993468            3 
  148000    1.1696942   -7.2887571    50.023081  0.028166149  0.030961481            2 
  149000    1.2133023   -7.2247566    50.598806  0.028299108  0.030933288            1 
  150000    1.2111106   -7.2408829    50.586544  0.028103635  0.030903205            3 
  151000    1.1959683   -7.3009801     50.79546  0.028032814  0.030869702            1 
  152000    1.1805259   -7.2384627    51.483649  0.028225684   0.03083832            3 
  153000    1.1710277   -7.2736834    51.746237  0.028184225  0.030810048            2 
  154000    1.1890665   -7.2501772    52.326214  0.028315051  0.030785042            3 
  155000    1.1900862   -7.2645826    52.826072  0.028401114  0.030765022            2 
  156000    1.1802759   -7.2563554    53.184803  0.028410685   0.03074375            1 
  157000    1.1987909   -7.3011981    53.273025  0.028276553  0.030719112            1 
  158000    1.1841972   -7.2805564    53.527465  0.028231785  0.030694506            4 
  159000    1.2105465   -7.2776436     53.87075  0.028234146  0.030671421            2 
  160000    1.1985556   -7.2710208    54.304586  0.028283638  0.030649508            4 
  161000    1.1995805   -7.2349953    54.816429  0.028372893  0.030627989            1 
  162000      1.20627   -7.2577748     55.07803   0.02833232  0.030604719            5 
  163000    1.1720312   -7.2968619     55.16304  0.028201963  0.030582212            2 
  164000     1.188689   -7.2864968    55.671105  0.028288163  0.030557841            2 
  165000    1.2325949   -7.2847088    55.993635  0.028279613  0.030534538            2 
  166000    1.1792366   -7.2487379    56.385487  0.028305967  0.030513566            1 
  167000    1.1960176   -7.2716407    56.562592  0.028224846  0.030492779            4 
  168000    1.1527865   -7.3093116    56.617618  0.028084136  0.030468932            2 
  169000    1.1863146   -7.3382559    57.018449  0.028115606  0.030440781            2 
  170000    1.2188136   -7.2858937    57.419854  0.028146987  0.030415768            1 
  171000    1.1670113    -7.282892    57.556439  0.028048947  0.030389676            1 
  172000    1.2002889   -7.3193531    58.116509  0.028157223  0.030365227            3 
  173000    1.2084751   -7.3400473    58.142487  0.028006978  0.030340792            3 
  174000    1.1702427   -7.2711552    58.691545  0.028108977  0.030315161            3 
  175000    1.2003867   -7.2771674    59.269907  0.028223765  0.030293852            2 
  176000    1.1849741   -7.2325734    59.864638  0.028344999   0.03027389            3 
  177000     1.183496   -7.2808726    60.135645  0.028312451  0.030256299            2 
  178000    1.1499327   -7.3338551    60.407706  0.028280761  0.030239194            4 
  179000    1.1525731   -7.3107109     60.62861   0.02822561  0.030223037            3 
  180000    1.1936834   -7.3030694    60.841349  0.028167291  0.030205387            1 
  181000    1.1926826   -7.2896413    61.395669  0.028266882   0.03018537            1 
  182000    1.1697699   -7.3120192    61.599129  0.028204729  0.030163977            1 
  183000    1.1710009   -7.3063319     61.90268  0.028188834  0.030144455            3 
  184000    1.1742336   -7.2706471    62.353166  0.028239659  0.030125307            3 
  185000    1.1831352   -7.2814582    62.568039  0.028183801  0.030105417            5 
  186000    1.2001779   -7.3212174     62.57963  0.028037469  0.030084934            2 
  187000    1.1818403   -7.3618498     63.01906   0.02808336  0.030064345            2 
  188000    1.1792723   -7.3659901    63.427025  0.028114816  0.030044965            2 
  189000    1.1679007   -7.2987613    63.740379  0.028104223    0.0300263            2 
  190000    1.1801297   -7.3853169    64.039826  0.028087643  0.030005474            4 
  191000    1.1446681   -7.2699969    64.077094  0.027956847  0.029982975            3 
  192000    1.1678154   -7.2787075     64.79839  0.028124301  0.029960837            3 
  193000    1.1928425   -7.2920451    65.220155  0.028160689  0.029940483            2 
  194000    1.1863918   -7.2829522    65.728439  0.028233866  0.029924007            5 
  195000    1.1747457    -7.323092    65.726366   0.02808819  0.029906214            3 
  196000    1.1835714   -7.3079179    66.149765    0.0281249  0.029887491            2 
  197000      1.18736    -7.299457    66.639164  0.028189155  0.029869552            2 
  198000    1.1566485   -7.2938131    66.641237  0.028047658  0.029850474            2 
  199000    1.1626489   -7.3415462    66.953029  0.028037282  0.029830294            5 
  200000      1.16826   -7.3323667    67.322857   0.02805119  0.029812473            1 
  201000     1.161359   -7.3492992      67.5261  0.027995896  0.029792844            4 
  202000    1.1664493   -7.3001052    67.934945  0.028025967  0.029772759            2 
  203000    1.1730643   -7.3090062    68.092912  0.027952755  0.029751891            2 
  204000    1.1629703   -7.3367508    68.245353  0.027878004  0.029732227            1 
  205000    1.1829248   -7.3251363    68.733056  0.027940267  0.029710654            2 
  206000    1.1610512   -7.3066962     69.38549  0.028068564  0.029692008            1 
  207000    1.1578222   -7.3077844    69.612236  0.028024249  0.029676086            3 
  208000    1.1683769   -7.3285391    70.025202  0.028054969  0.029659913            2 
  209000    1.1925041   -7.3111333    70.323803  0.028039794  0.029643299            1 
  210000    1.1555398   -7.3151899    70.575751   0.02800625  0.029627519            2 
  211000    1.1745228   -7.3278333    71.019277  0.028048688  0.029611504            2 
  212000    1.1812904   -7.3556255    71.361462  0.028050889  0.029596396            3 
  213000    1.1857292   -7.2895045    71.748318  0.028070547  0.029581576            5 
  214000    1.1813974   -7.3000748    72.023112  0.028046383  0.029567869            2 
  215000    1.1387538   -7.3585076     71.75912  0.027813612  0.029550238            2 
  216000    1.1806662    -7.352827    72.432265  0.027944547  0.029531162            2 
  217000    1.1733662   -7.3437319    72.691831   0.02791545  0.029511642            3 
  218000    1.1957821   -7.3560044    73.334899  0.028033218   0.02949526            3 
  219000    1.1874401   -7.3720226    73.308807  0.027895284  0.029478633            1 
  220000    1.1591338   -7.3933784    73.639076  0.027893589  0.029460519            2 
  221000    1.1313992   -7.3499188    73.873094  0.027855616  0.029442495            2 
  222000    1.1714565   -7.3640494    74.405876  0.027930134  0.029424051            1 
  223000    1.1715229    -7.363025    74.683208  0.027908523  0.029404832            2 
  224000    1.1632244   -7.3702529    74.871678  0.027854047   0.02938601            2 
  225000    1.1633559   -7.3111068     75.50072  0.027963229  0.029368982            2 
  226000    1.1690782   -7.3308408    75.738119  0.027927035  0.029351357            1 
  227000    1.1799766   -7.3039182    76.163407  0.027960135    0.0293359            2 
  228000    1.1516427   -7.3471036    76.343172  0.027903206   0.02932014            5 
  229000    1.1558444   -7.3625045    76.481348   0.02783164   0.02930297            2 
  230000      1.15779   -7.3484572    77.157553  0.027955635  0.029285554            3 
  231000    1.1330844     -7.34732     77.10509  0.027815689  0.029269272            2 
  232000    1.1578454   -7.3356294     77.28134  0.027759102  0.029251855            3 
  233000    1.1671514   -7.3567334    77.517136  0.027724297   0.02923427            2 
  234000    1.1616312   -7.3708223    78.154967  0.027832965  0.029216202            1 
  235000    1.1743271   -7.3721364    78.153055  0.027713849  0.029199086            3 
  236000    1.1730086   -7.3299081    78.597391  0.027753316  0.029181412            5 
  237000    1.1676118   -7.3785668    79.022765  0.027785782  0.029162789            2 
  238000    1.1627592   -7.3604435    79.000273   0.02766116  0.029143416            3 
  239000    1.1904598   -7.3587132    79.251805  0.027633126   0.02912435            1 
  240000    1.1634725   -7.3280521    79.566533  0.027627268  0.029103954            5 
  241000    1.1514128   -7.3770954    79.560182  0.027510436   0.02908366            2 
  242000    1.1780642   -7.3819931    79.730688  0.027455471  0.029061456            3 
  243000    1.1548895    -7.376683    80.489257  0.027602626  0.029040082            4 
  244000    1.1501373   -7.3637209    80.824938  0.027604145  0.029020656            1 
  245000    1.1632488   -7.3477456    81.026247  0.027559948  0.029001344            1 
  246000    1.1710927   -7.3482472    81.404872  0.027576176  0.028981867            1 
  247000    1.1513805   -7.3193713     81.70322  0.027565189  0.028962817            4 
  248000     1.177498   -7.3861415    82.232441  0.027631868  0.028943155            1 
  249000     1.142745    -7.311762    82.466007  0.027599065   0.02892514            2 
  250000    1.1622897   -7.3728528    82.691196  0.027563732  0.028907677            3 
  251000    1.1550202   -7.3554209    83.165405  0.027611356  0.028887831            2 
  252000    1.1536436   -7.3572287      83.2633   0.02753416  0.028868565            2 
  253000    1.1666262   -7.3791017    83.235397  0.027416139  0.028849489            1 
  254000    1.1671967   -7.3945801    84.007967  0.027561669  0.028830181            4 
  255000    1.1494221   -7.3726946    84.390988  0.027578754  0.028813476            4 
  256000    1.1479311   -7.3553944    84.795531  0.027602712  0.028797982            2 
  257000    1.1907442   -7.3915356    85.086529  0.027589666  0.028782899            1 
  258000    1.1571341   -7.3714912    85.588078  0.027644728  0.028766026            2 
  259000    1.1494541   -7.3871857    85.598002  0.027541185  0.028749701            5 
  260000    1.1557928   -7.4081819    85.381548  0.027365881  0.028731163            2 
  261000    1.1631705   -7.3599831    86.168262  0.027512216  0.028711763            4 
  262000    1.1512756   -7.3594429    86.446037  0.027495559  0.028693602            3 
  263000    1.1274959   -7.3986488    86.380449  0.027370231   0.02867437            3 
  264000    1.1512412   -7.3434502     86.72854  0.027376433  0.028656223            1 
  265000    1.1418263   -7.3644709    87.128909  0.027399028  0.028638537            5 
  266000    1.1300926   -7.3421296    87.227571  0.027326933  0.028620191            5 
  267000    1.1567598   -7.3397801    87.821912  0.027410085  0.028601388            5 
  268000    1.1575607   -7.4055288    87.448463  0.027191686  0.028581376            2 
  269000    1.1375642   -7.3779533    88.386548   0.02738121  0.028561137            4 
  270000    1.1650487   -7.3736325    88.322349  0.027259984  0.028541488            5 
  271000    1.1635046   -7.3948359    88.515789  0.027218877  0.028522049            1 
  272000    1.1167432   -7.4472752    88.597658   0.02714389  0.028501627            2 
  273000    1.1545941   -7.3545955    89.122277  0.027204602  0.028481432            3 
  274000    1.1566809    -7.395688    89.283415  0.027154323  0.028461125            2 
  275000    1.1519776   -7.3652614    89.538098  0.027132757  0.028441704            1 
  276000    1.1076592   -7.3788921     90.01558  0.027178617  0.028420369            2 
  277000     1.171079   -7.4337637    89.920984  0.027052041   0.02839891            3 
  278000    1.1593883   -7.4149864    89.899469  0.026948282  0.028377984            1 
  279000    1.1227761   -7.3979914    90.812488  0.027124399  0.028358152            2 
  280000    1.1555106   -7.4070538    90.613551  0.026968319  0.028339288            2 
  281000    1.1612488   -7.4053432    91.156232  0.027033283  0.028319499            2 
  282000    1.1301195   -7.3986786    91.525294  0.027046482  0.028299118            4 
  283000    1.1668147   -7.3676573    92.128989  0.027128677  0.028279971            2 
  284000     1.137051   -7.3612832    92.263432  0.027072603  0.028262164            1 
  285000    1.1145388   -7.3683867     92.79294  0.027132439  0.028244812            2 
  286000    1.1563539   -7.4287137    93.095598  0.027125757   0.02822715            1 
  287000    1.1318628   -7.4142485    93.559033  0.027165805  0.028210182            5 
  288000    1.1533969   -7.3805193    93.943629  0.027182763  0.028194528            1 
  289000    1.1349837   -7.4242909      94.1994  0.027162457  0.028178693            3 
  290000    1.1476661   -7.4045269    94.643716   0.02719647  0.028163036            2 
  291000    1.1466862   -7.3916623    94.885861  0.027172354  0.028146729            1 
  292000    1.1255078   -7.4371271    94.910076  0.027086209  0.028129987            3 
  293000    1.1316104   -7.4437244    95.119024  0.027053192  0.028112389            2 
  294000    1.1151506   -7.4466196    95.324869  0.027019521   0.02809541            2 
  295000    1.1200829   -7.4042022    95.777989  0.027055929  0.028079823            3 
  296000    1.1294069   -7.4684844    95.792851  0.026968708  0.028062255            3 
  297000    1.1541744   -7.4482995    96.019806  0.026941584  0.028045173            4 
  298000    1.1075713   -7.4259564    96.245673  0.026914338  0.028028418            2 
  299000    1.1297774    -7.344219    97.352479  0.027132798  0.028012716            3 
  300000    1.1538663   -7.4368267    97.464171  0.027073381  0.027998294            2 
  301000    1.1448639   -7.3967209    97.860354  0.027093121  0.027982308            4 
  302000     1.142527   -7.4195595    97.787999  0.026983443  0.027966936            5 
  303000    1.1088272   -7.3865748    98.040531  0.026963843  0.027950515            3 
  304000    1.1373481   -7.4120159    97.968924  0.026855517  0.027933368            3 
  305000    1.1212794   -7.4522748    98.722352   0.02697332    0.0279157            3 
  306000    1.1311518   -7.4555565    98.581189  0.026846729  0.027898919            4 
  307000    1.1189897   -7.4257785    98.914875  0.026849857  0.027882517            2 
  308000    1.1365161    -7.459301    99.443129  0.026905608   0.02786659            1 
  309000    1.1574127   -7.4064644    99.794071   0.02691318  0.027849954            2 
  310000    1.1358195   -7.3874105    100.25346  0.026949855  0.027833968            4 
  311000    1.1181131   -7.4436568    100.26161  0.026865383  0.027818371            2 
  312000    1.1386508   -7.4291326     100.6297  0.026877591  0.027802278            2 
  313000    1.1439308   -7.4480624    100.66325  0.026800652  0.027785968            1 
  314000    1.1354897   -7.4353787    101.27562  0.026877818   0.02776942            2 
  315000    1.1043865   -7.4605137    101.58989  0.026875631  0.027753728            6 
  316000    1.1393274   -7.4398299    101.92297   0.02687842  0.027737923            2 
  317000    1.1124153   -7.4319945     101.9724  0.026806624  0.027722658            3 
  318000    1.0841138   -7.4175223    102.21562  0.026786063  0.027706189            2 
  319000    1.1413705   -7.4609334    102.09205  0.026669813  0.027689582            2 
  320000    1.1188085   -7.4343241    102.82981  0.026778596  0.027672961            2 
  321000    1.1188888   -7.4771166    103.00458  0.026740546   0.02765619            4 
  322000    1.1142979   -7.4095638     103.4658  0.026776862  0.027639517            5 
  323000    1.1194722   -7.3967908    103.79498  0.026778891  0.027623289            3 
  324000    1.1413527   -7.4470521    103.59126  0.026643842  0.027607417            4 
  325000    1.1302012   -7.4367439    103.88749  0.026637818  0.027590718            5 
  326000    1.1255371   -7.4968714    103.91769  0.026563828  0.027572629            3 
  327000    1.1286389   -7.4441777    104.17616  0.026548462  0.027554477            4 
  328000    1.1125959   -7.4793274    104.11453  0.026451862  0.027535398            3 
  329000    1.1262618   -7.4310917    104.31317  0.026421777  0.027516158            2 
  330000    1.1410089   -7.4162944    104.63695  0.026423472  0.027496845            2 
  331000     1.115807    -7.479628    104.69766  0.026358929  0.027476351            3 
  332000    1.1418431   -7.4396838    104.82622  0.026311802  0.027455134            4 
  333000    1.1559423   -7.4603736    104.79253  0.026224356  0.027433083            1 
  334000    1.1224757   -7.4372419    105.07634  0.026216651  0.027410792            2 
  335000    1.1102772   -7.4390761    105.38061  0.026214081  0.027387961            1 
  336000     1.130724   -7.4774949    105.70937  0.026217601  0.027365315            2 
  337000    1.1174089   -7.4720057    105.83726  0.026171428  0.027343148            3 
  338000    1.1032573   -7.4475272    106.38225  0.026228366   0.02732084            3 
  339000    1.1151819    -7.446811    106.60789  0.026206463  0.027299543            2 
  340000    1.1452407   -7.4552034    107.14081  0.026260003  0.027278691            3 
  341000    1.1237225   -7.4775344    106.76745  0.026091752  0.027257784            1 
  342000      1.12981    -7.456934    107.13779  0.026105699  0.027236679            1 
  343000    1.1115644   -7.4622845    107.05481  0.026009429  0.027213397            1 
  344000    1.0839142   -7.4228775     107.6627   0.02608108  0.027190961            4 
  345000    1.1130752   -7.4461826    107.78191  0.026034278  0.027168422            6 
  346000    1.0822998   -7.4521903    108.20464  0.026060847  0.027145598            2 
  347000     1.120428    -7.452313    108.15739  0.025974397  0.027122629            4 
  348000    1.1387168   -7.4853685    108.46355  0.025973072   0.02710075            2 
  349000    1.1021415   -7.4444138    108.85177  0.025991348  0.027078538            2 
  350000     1.121244    -7.495983    108.84228  0.025914828  0.027055425            3 
  351000    1.1378163   -7.4764912    109.80787  0.026070245  0.027033139            3 
  352000    1.1156757   -7.4837671     109.6175  0.025951112  0.027011539            2 
  353000    1.1124075   -7.4536389    110.14025  0.026001003  0.026990371            1 
  354000    1.1288653   -7.4748364    110.33369  0.025973091  0.026969844            1 
  355000      1.10091     -7.44733    110.67108  0.025979126  0.026949086            3 
  356000    1.1089618   -7.4792015    110.43308  0.025850441  0.026928411            3 
  357000    1.0940304   -7.4308278    111.20858  0.025959053    0.0269068            4 
  358000    1.1374015    -7.471366     111.1605   0.02587535  0.026885372            6 
  359000    1.1231126   -7.4737685    111.67451  0.025922587  0.026864451            5 
  360000    1.1151904   -7.4991793    111.38323  0.025783155  0.026842994            2 
  361000    1.1030586   -7.4840249    111.77133  0.025801323  0.026822397            4 
  362000    1.1068799   -7.4950984    112.45455  0.025887327  0.026801714            2 
  363000    1.0984667    -7.440202    112.46991  0.025819539  0.026781213            3 
  364000    1.1198536   -7.4081529     112.8423  0.025833859  0.026760489            3 
  365000    1.1295533   -7.4486092    112.54053  0.025694184  0.026739404            4 
  366000    1.1239325    -7.466949    113.44457   0.02582982  0.026718693            6 
  367000    1.1210623   -7.4703027    113.39107   0.02574729  0.026698456            3 
  368000    1.1286443   -7.5075437    113.58921  0.025722194  0.026677942            2 
  369000    1.1244773   -7.4870027    113.82668  0.025706116  0.026657413            1 
  370000    1.0954719   -7.5182933    113.83094  0.025637598  0.026636407            2 
  371000    1.0975847   -7.4507561    114.37473  0.025690641  0.026615908            2 
  372000    1.1128088   -7.4950974     113.9792  0.025532974  0.026595634            2 
  373000     1.107293   -7.4711558    114.82267  0.025652964  0.026574186            2 
  374000     1.112018    -7.509364    115.04057  0.025632925  0.026553606            2 
  375000    1.1085913   -7.4605203    115.22709   0.02560602  0.026532546            3 
  376000    1.1219861    -7.523509    115.33231  0.025561238  0.026512129            5 
  377000    1.0806254   -7.4875921     115.6523  0.025564168  0.026491549            2 
  378000    1.1072168   -7.5392621      115.615  0.025488316  0.026471008            2 
  379000    1.1139587   -7.5127791     116.4008  0.025593844   0.02645022            2 
  380000    1.0933015    -7.484183    116.71834  0.025596127  0.026430337            2 
  381000    1.0918042   -7.5143023    116.65011  0.025514022  0.026410309            5 
  382000    1.1027231   -7.5166502    116.86868  0.025494912  0.026390007            1 
  383000    1.1087318   -7.4952079    117.44264   0.02555323  0.026370291            2 
  384000     1.082368   -7.5125822     116.9414  0.025377908  0.026349488            2 
  385000    1.0952062   -7.5129794    117.50644  0.025434293  0.026329262            1 
  386000    1.0926875   -7.5533227    117.41133  0.025347869  0.026308783            1 
  387000    1.1004634   -7.5208809    117.70372  0.025345331  0.026287892            2 
  388000    1.0918938   -7.4452697    118.62048  0.025476907  0.026267296            2 
  389000    1.0931791   -7.4821795    118.80013  0.025449899  0.026247066            1 
  390000    1.1196594   -7.4805116    118.87337  0.025400292  0.026226879            3 
  391000    1.1054684   -7.4779254    118.79731   0.02531912  0.026206207            2 
  392000     1.113432   -7.5057701    119.01057  0.025299867  0.026185789            7 
  393000    1.1014211   -7.4744265    119.49656  0.025338542  0.026165562            4 
  394000     1.082818    -7.531454    119.37373  0.025248252  0.026145178            2 
  395000    1.0797183   -7.5061759    119.99562  0.025315532  0.026125498            2 
  396000    1.1217924   -7.4974852      120.651   0.02538952   0.02610563            2 
  397000     1.100729   -7.5187178    120.62873  0.025320892  0.026086589            4 
  398000    1.0991843    -7.482247     120.8994  0.025313945  0.026067722            1 
  399000     1.097735   -7.5224104    121.31413  0.025337119  0.026049857            2 
  400000    1.0983504   -7.5550228    121.17502  0.025244795  0.026030969            4 
  401000    1.1118661   -7.5095002    122.07373  0.025368605  0.026012437            6 
  402000    1.0884745   -7.5143831    121.78051  0.025244716  0.025993372            2 
  403000    1.0909704   -7.5299776    122.04439   0.02523664  0.025973902            1 
  404000    1.0970912   -7.5524225     121.7322  0.025109776  0.025954045            5 
  405000    1.0919583   -7.5510423    121.80762  0.025063297  0.025934297            1 
  406000    1.1024275   -7.5467275    122.93217  0.025232383  0.025915048            1 
  407000    1.1032788   -7.4729032    122.96973  0.025178077  0.025896438            3 
  408000    1.1068019    -7.523435    123.21714  0.025166899   0.02587725            1 
  409000    1.0982588   -7.5534297    123.08238   0.02507791  0.025857536            3 
  410000    1.1023257   -7.5858499    123.05677  0.025011538  0.025837498            3 
  411000    1.0994368    -7.546567    123.12443  0.024964403  0.025817019            3 
  412000     1.065147   -7.4941156    123.63881   0.02500785  0.025797357            3 
  413000    1.0703784   -7.5139203    123.84223  0.024988343  0.025777534            3 
  414000    1.0839396   -7.4780402    124.11203  0.024982292  0.025757687            1 
  415000    1.0769208   -7.5385902    123.90429   0.02488038  0.025738311            2 
  416000    1.1048461   -7.4936537    125.01459  0.025042987  0.025718974            4 
  417000     1.113797   -7.5845837    124.50613   0.02488132  0.025699605            2 
  418000    1.0803003   -7.4924464    125.42197  0.025004379  0.025679983            2 
  419000    1.1108438   -7.5773227    125.22245  0.024905022  0.025660252            2 
  420000    1.1059606   -7.5440626    125.29107   0.02485934  0.025639814            1 
  421000    1.0799415   -7.5743485    125.41843  0.024825501  0.025620246            3 
  422000    1.1024198   -7.5545196    125.94842  0.024871331  0.025600877            3 
  423000    1.0953102   -7.6032976    125.51097  0.024726354  0.025581028            3 
  424000    1.0677622   -7.5732275    125.77729   0.02472038  0.025560563            2 
  425000    1.0850957   -7.5457736    126.36549  0.024777547  0.025540118            3 
  426000    1.0865562    -7.580604    126.55632  0.024756713  0.025519664            3 
  427000    1.0614314   -7.5357327    126.77971  0.024742332  0.025499689            1 
  428000    1.0744134   -7.5782762    127.11379  0.024749571  0.025480001            3 
  429000    1.0549087   -7.5257618    127.79168  0.024823559  0.025460631            5 
  430000    1.0727767   -7.5478591    127.54459  0.024717943  0.025440833            2 
  431000    1.0601292   -7.5643365    127.92766  0.024734659  0.025421453            2 
  432000    1.0671083   -7.5914735    127.91587   0.02467513  0.025402605            4 
  433000    1.0709103   -7.5648737    128.21142  0.024675022  0.025383438            1 
  434000    1.0856485   -7.5481415    128.74274  0.024720188  0.025364817            2 
  435000    1.0903255   -7.5437459    128.95924  0.024704835  0.025346327            1 
  436000    1.0862649   -7.5795027    129.14921  0.024684482  0.025327765            2 
  437000    1.0914738   -7.5486602    129.67376  0.024728024  0.025309056            1 
  438000    1.0686073    -7.625674    128.92021  0.024528199  0.025290014            3 
  439000    1.0731968   -7.5771901    129.52677  0.024587466  0.025271443            2 
  440000    1.0976217   -7.5732337    130.13481  0.024646745  0.025253365            4 
  441000    1.0607407   -7.5488833    130.65257  0.024688695  0.025235039            2 
  442000    1.0699268   -7.6003306    130.20825  0.024549066  0.025216894            1 
  443000    1.0684181   -7.5368715    130.70531  0.024587154   0.02519853            2 
  444000    1.0999893   -7.5710728    130.98349  0.024583988  0.025180029            5 
  445000     1.069548    -7.597645    130.87416   0.02450827  0.025161449            5 
  446000    1.0812769   -7.5606777    131.88679  0.024642524  0.025143078            1 
  447000    1.0727874   -7.5816671    131.76773  0.024565199  0.025125111            6 
  448000    1.0728928   -7.5802939    131.87533  0.024530382  0.025106688            3 
  449000    1.0965749   -7.5797318    131.79558  0.024460946  0.025089025            2 
  450000    1.0459833   -7.5660933     131.8458  0.024415889  0.025070406            3 
  451000    1.0947284   -7.6058652    132.05982  0.024401297  0.025051601            2 
  452000    1.0787412    -7.566449    132.07088   0.02434935  0.025032029            6 
  453000    1.0877907   -7.6294189     132.0769  0.024296706  0.025012851            2 
  454000    1.1116561   -7.6135729     132.4971  0.024320319  0.024993686            3 
  455000    1.0702658   -7.5880132     132.8549    0.0243324  0.024974398            5 
  456000    1.0773105   -7.5960529    133.05171  0.024315005  0.024954933            2 
  457000    1.0835516    -7.551056    133.10273  0.024271103   0.02493554            3 
  458000    1.0523756   -7.6335894    132.96556  0.024193151  0.024916097            3 
  459000    1.0645515   -7.5371995    133.59869  0.024255391  0.024896638            3 
  460000    1.0741849   -7.5698513    133.34398  0.024156517  0.024877452            1 
  461000    1.0946594   -7.5366654    133.63384  0.024156515  0.024857772            2 
  462000    1.0641271   -7.5896781    134.03266  0.024176166  0.024838121            2 
  463000    1.0762672   -7.5636577    134.24641  0.024162421  0.024818642            2 
  464000    1.0563923   -7.6488036     133.6199  0.023997826  0.024798375            4 
  465000    1.0558512   -7.5949239    134.21484  0.024052838  0.024778039            2 
  466000    1.0640985   -7.6030671    134.05466  0.023972579  0.024757254            2 
  467000    1.0887754   -7.5569462     135.4373  0.024167969  0.024736946            3 
  468000    1.0866576   -7.6049616    134.60525  0.023968171  0.024717531            4 
  469000    1.0622988   -7.5843478    135.32502  0.024044957  0.024697824            1 
  470000    1.0372946   -7.6301647    135.33841  0.023996171  0.024678006            4 
  471000    1.0422978   -7.6076038    135.55219  0.023983049  0.024658177            6 
  472000    1.0639729   -7.5389872    136.36589  0.024075899  0.024638589            1 
  473000    1.0412126    -7.612662     136.3022  0.024013777  0.024618991            2 
  474000    1.0642086   -7.6497595    135.62898  0.023844757  0.024599466            1 
  475000    1.0630244   -7.5623308    136.37805  0.023925974  0.024579624            1 
  476000    1.0738907   -7.6340859    136.64959  0.023923248  0.024559835            2 
  477000    1.0515516   -7.6547245    136.78197  0.023896221  0.024540252            5 
  478000    1.0492639   -7.6365957    137.14632  0.023909749  0.024520853            3 
  479000    1.0660169   -7.6257337    136.60367  0.023765426  0.024501257            2 
  480000    1.0791499   -7.6493552    137.33654  0.023843149  0.024481362            4 
  481000    1.0913557   -7.6359793     137.5475  0.023830127  0.024461421            4 
  482000    1.0444812   -7.6523706    137.12787  0.023708138  0.024441765            2 
  483000    1.0810521   -7.6435293    137.67407  0.023753289  0.024422124            1 
  484000    1.0536557   -7.6521064    138.24068   0.02380177  0.024402729           11 
  485000    1.0572791    -7.633022    138.30978  0.023764567  0.024383194            2 
  486000    1.0564656   -7.6108433     138.1412  0.023686763  0.024363193            3 
  487000    1.0997764   -7.6481944    138.22495  0.023652455  0.024343008            2 
  488000    1.0500065   -7.6660523    138.32272  0.023620683  0.024323053            3 
  489000    1.0748013   -7.5780257    139.30491   0.02373976   0.02430342            6 
  490000    1.0650915   -7.6289987    139.09589  0.023655764  0.024283999            2 
  491000    1.0169607   -7.6299987    139.47747  0.023672347   0.02426477            2 
  492000     1.050329   -7.6281253    139.56575  0.023639185  0.024245846            3 
  493000    1.0513969   -7.6166214    139.96472  0.023658675  0.024226922            2 
  494000    1.0557608   -7.6389308    140.07372  0.023629169  0.024208008            1 
  495000     1.047697   -7.5878171    140.41711  0.023639244  0.024189238            4 
  496000    1.0579894   -7.6212684     141.2432  0.023730376   0.02417086            1 
  497000    1.0665611   -7.6897154     140.5305  0.023563128   0.02415288            3 
  498000    1.0607176   -7.5906384      141.408  0.023662651  0.024134611            2 
  499000    1.0536833   -7.6321643    141.49282  0.023629396  0.024116481            3 
  500000    1.0434862   -7.6432514    141.56625  0.023594376  0.024098185            2 
  501000    1.0332499   -7.6120555     141.2278  0.023490985  0.024079743            2 
  502000    1.0589808   -7.6582039    141.90689  0.023556921  0.024060846            2 
  503000     1.066819   -7.6247228    141.99897  0.023525344  0.024042249            7 
  504000    1.0800121   -7.6734688    141.88522  0.023459858  0.024023726            3 
  505000    1.0669982   -7.6572502    142.25613  0.023474609  0.024005242            2 
  506000     1.050913   -7.6238252    142.47542  0.023464331  0.023986537            3 
  507000    1.0666287   -7.6741506    142.38244  0.023402768  0.023968075            2 
  508000    1.0571438   -7.6365583    142.51713  0.023378794  0.023949464            3 
  509000    1.0711844   -7.6985943    142.55998  0.023339879  0.023930935            5 
  510000     1.036932   -7.6690779    143.24395  0.023405874  0.023912319            3 
  511000    1.0390196    -7.617275    143.98941  0.023481639  0.023893658            2 
  512000       1.0556   -7.6732349    143.93378  0.023426722  0.023875221            3 
  513000    1.0658505   -7.6331026    144.43362  0.023462252  0.023856922            2 
  514000    1.0419881   -7.6002624    144.64077   0.02345019   0.02383897            2 
  515000    1.0539917   -7.6343202    144.64242  0.023404923  0.023821106            4 
  516000    1.0303001   -7.6524772    144.55042  0.023344707  0.023803202            1 
  517000     1.045626   -7.6623405    144.78216  0.023336906  0.023785064            2 
  518000    1.0467911   -7.6505913    144.60127  0.023262752  0.023766617            1 
  519000    1.0384794   -7.6449758     145.1671  0.023308783    0.0237485            3 
  520000    1.0327909   -7.6619749    145.43232  0.023306462  0.023730446            3 
  521000    1.0493157   -7.6239371    145.64313  0.023295446   0.02371236            4 
  522000    1.0287096   -7.6138154     145.9133   0.02329395  0.023694491            2 
  523000     1.057206   -7.6778811    145.49533  0.023182813  0.023677251            4 
  524000    1.0277524   -7.6474576    146.50547  0.023299216  0.023659892            3 
  525000    1.0486671   -7.6552789    146.88795  0.023315548  0.023642771            2 
  526000    1.0383181   -7.6966856    146.59426  0.023224693  0.023625641            6 
  527000     1.062433    -7.668653    146.79899  0.023212997  0.023608323            2 
  528000    1.0365379   -7.6549433    147.36766  0.023258784  0.023590973            2 
  529000    1.0351568   -7.6455602    147.13643  0.023178391  0.023573229            2 
  530000    1.0613269   -7.6531537    147.17749  0.023141116  0.023555552            3 
  531000    1.0446953   -7.7101938    147.24559  0.023108222  0.023537804            3 
  532000    1.0597925   -7.6661144    147.76988  0.023146911  0.023520348            5 
  533000    1.0284226   -7.6831935     148.1498  0.023162882  0.023503196            3 
  534000    1.0311358    -7.667888    148.15619  0.023120504  0.023486091            2 
  535000    1.0320416   -7.6771571    148.21166  0.023085928  0.023468672            4 
  536000    1.0371786    -7.654747    148.35782  0.023065581  0.023450842            2 
  537000    1.0527984    -7.658531     148.9124  0.023108691  0.023433443            3 
  538000    1.0209777   -7.7428976    148.20093  0.022955534  0.023415969            2 
  539000    1.0483326   -7.6842132    148.89179  0.023019757  0.023398421            4 
  540000     1.013664   -7.6678151    149.43687  0.023061245  0.023380772            2 
  541000    1.0516812   -7.6931679    149.01699  0.022953942  0.023362941            4 
  542000    1.0383333    -7.680576    149.46644  0.022980695  0.023345095            3 
  543000    1.0312142   -7.6833964    149.68881  0.022972501  0.023327699            1 
  544000    1.0334853   -7.6678494    149.93683  0.022968264  0.023309913            3 
  545000    1.0371913   -7.7208283    149.07522  0.022794376  0.023292263            3 
  546000    1.0351484   -7.6839282    149.72994  0.022852554  0.023274378            3 
  547000    1.0253025   -7.7017615    149.77948  0.022818324  0.023256132            3 
  548000    1.0111719   -7.6965534    150.07021  0.022820896  0.023237968            3 
  549000    1.0360275    -7.660225    150.33577  0.022819637  0.023219842            2 
  550000    1.0252717   -7.6612343     150.6681    0.0228285  0.023201712            1 
  551000    1.0478687   -7.6904049    150.26873  0.022726669  0.023183573            4 
  552000    1.0570371   -7.7094603    150.76811  0.022760887   0.02316544            2 
  553000    1.0647312   -7.7043556    151.18027  0.022781837  0.023147034            2 
  554000    1.0284864   -7.7110364    150.93453   0.02270375  0.023128688            3 
  555000     1.035551   -7.6665426    151.83169  0.022797551  0.023110951            1 
  556000    1.0497672   -7.7324092    151.10193  0.022647171  0.023092651            3 
  557000    1.0099307   -7.7161993    151.52381  0.022669631  0.023074663            1 
  558000    1.0431305   -7.7246074    151.57015  0.022635924  0.023056462            4 
  559000    1.0347474   -7.7039474    151.53157  0.022589679  0.023038115            5 
  560000    1.0276148   -7.6738015    152.06164  0.022628221  0.023019763            3 
  561000    1.0403823   -7.6710166    152.13114  0.022598208  0.023001821            3 
  562000    1.0368376   -7.7129937    151.62134  0.022482406   0.02298363            1 
  563000    1.0383664   -7.7123411    152.16267  0.022522598  0.022965066            2 
  564000    1.0284015   -7.6947773     152.4432  0.022524113  0.022946424            6 
  565000    1.0469233     -7.67979    152.68474  0.022519874  0.022928371            2 
  566000    1.0191646   -7.7126979    152.44053   0.02244413  0.022910075            4 
  567000    1.0180255     -7.67844    152.90168  0.022472322  0.022891958            8 
  568000    1.0336192   -7.7001043    152.87828  0.022429326  0.022873926            1 
  569000    1.0218645   -7.7047941    153.48327  0.022478511  0.022855663            1 
  570000    1.0245155   -7.7424425    153.12562  0.022386786  0.022837045            4 
  571000    1.0137203   -7.7145423    153.59498  0.022416079  0.022818253            2 
  572000    1.0396172   -7.7066517    153.80382  0.022407317  0.022799578            4 
  573000    1.0497394   -7.6708977    153.73683  0.022358469  0.022781203            3 
  574000    1.0274809   -7.6631661    153.83364  0.022333571  0.022762631            4 
  575000    1.0336241   -7.7522718    153.42822  0.022235973  0.022743719            3 
  576000    1.0275598   -7.7165309    153.76874  0.022246636  0.022724676            4 
  577000    1.0260043   -7.7284833    153.92331  0.022230402  0.022705744            5 
  578000    1.0276037   -7.7266614    153.96943  0.022198592  0.022686458            2 
  579000     1.038886   -7.6960146    154.03101  0.022169115  0.022667217            1 
  580000    1.0331073   -7.7330353    154.18367  0.022152827  0.022648119            4 
  581000    0.9968113   -7.7198856    154.92218  0.022220622  0.022629543            2 
  582000    1.0293378   -7.7364817    155.11742  0.022210398  0.022611152            3 
  583000    1.0150704    -7.695154    154.95278  0.022148768  0.022592359            4 
  584000    1.0297893   -7.7005278    154.97373  0.022113831  0.022573643            3 
  585000     1.024193   -7.7346972    155.19517  0.022107575  0.022555138            2 
  586000    1.0222745   -7.7083168    155.89015  0.022168679  0.022536354            2 
  587000     1.021528   -7.7490494    155.59522  0.022089043  0.022517916            3 
  588000    1.0410936   -7.6768607    156.42875  0.022169608  0.022499702            2 
  589000     1.034702   -7.6988896    156.34639  0.022120315  0.022481689            2 
  590000      1.02143   -7.6942567    156.67676  0.022129486  0.022463664            3 
  591000    1.0401712   -7.6889159    157.50635  0.022209018  0.022445714            3 
  592000    1.0046166   -7.7160877    157.02953  0.022104382  0.022427562            2 
  593000     1.019023   -7.7303083    156.96174  0.022057581  0.022409544            2 
  594000    1.0064951   -7.7045536    157.13887  0.022045295  0.022391161            3 
  595000    1.0003893   -7.7568522    156.78001  0.021957985   0.02237293            3 
  596000    1.0361944   -7.7311528     157.1905  0.021978538   0.02235453            5 
  597000    1.0318183   -7.7480059    157.39968  0.021970921  0.022336339            2 
  598000     1.023598   -7.6987526    158.05718  0.022025806  0.022318449            3 
  599000   0.98990496   -7.7832828    158.00336  0.021981547  0.022300736            4 
  600000    1.0323283   -7.7378592    158.15246  0.021965619  0.022282985            5 
  601000    1.0073159   -7.7587268    158.15731  0.021929744  0.022265313            2 
  602000    1.0058984   -7.7417129    157.88151  0.021855138  0.022247195            3 
  603000   0.99538183   -7.7303636    158.72473  0.021935425  0.022229405            3 
  604000    1.0139284   -7.7931291    158.40728  0.021855308  0.022211401            4 
  605000    1.0322397   -7.7189533    158.88624  0.021885157  0.022193511            2 
  606000    1.0238971   -7.7544603    158.42668  0.021785847  0.022175383            2 
  607000    1.0146692    -7.734436    158.95626  0.021822661  0.022157036            2 
  608000    1.0088704   -7.7735316    158.67119  0.021747697  0.022138803            4 
  609000    1.0204364   -7.7574414    158.87109  0.021739339  0.022120499            1 
  610000   0.99965204   -7.7402928    159.63204  0.021807656  0.022102657            2 
  611000    1.0235665   -7.7332996    159.27598  0.021723401  0.022084588            2 
  612000    1.0243807   -7.7260182    159.68248  0.021743257    0.0220664            2 
  613000    1.0275435   -7.7691493     159.3752  0.021666014    0.0220484            2 
  614000    1.0033073   -7.7468493    159.92727  0.021705656  0.022030412            1 
  615000    1.0117721   -7.7391402     159.7478  0.021646044  0.022012588            4 
  616000    1.0178768   -7.7394667    160.40904  0.021700357  0.021994834            3 
  617000    1.0249071   -7.7637172    160.29799  0.021650188  0.021977106            4 
  618000    1.0246493   -7.7348468    160.58994  0.021654523   0.02195954            2 
  619000    1.0237624   -7.7473422    160.77628  0.021644626  0.021942256            3 
  620000    1.0057925    -7.762591    161.17468  0.021663264  0.021924824            5 
  621000   0.99307039    -7.799268    161.31041  0.021646593  0.021907432            2 
  622000    1.0037649   -7.7706705    161.46618   0.02163266  0.021890087            2 
  623000    1.0512887   -7.7712583    160.97194  0.021531827  0.021872491            6 
  624000   0.97701824   -7.7598986    161.87651  0.021618124  0.021855051            4 
  625000   0.99863681   -7.7773438    161.56167  0.021541556  0.021837656            3 
  626000   0.99138726   -7.7555303    162.27578  0.021602208  0.021820242            3 
  627000   0.99769891   -7.7585777     162.4303   0.02158829  0.021802816            7 
  628000   0.99333707    -7.766417    161.90077  0.021483647  0.021785333            4 
  629000    1.0075488   -7.8052615    161.74886  0.021429366  0.021767896            4 
  630000    1.0055245   -7.7548436    162.56464  0.021503259  0.021750118            1 
  631000    1.0166085   -7.7784229    162.18364  0.021418865  0.021732409            4 
  632000   0.99140013   -7.7717081    162.46371  0.021421903  0.021714699            5 
  633000    1.0174462   -7.7680645    162.79899    0.0214322  0.021696932            3 
  634000    1.0006609   -7.7461341    163.01572  0.021426882  0.021679383            6 
  635000    1.0076885   -7.8179038    162.61371  0.021340382   0.02166176            5 
  636000   0.99818556   -7.7770906    163.30924  0.021397961  0.021643975            2 
  637000   0.98609684   -7.7584621    162.82288  0.021300743  0.021626301            4 
  638000   0.98964603    -7.778978    162.96376  0.021285757  0.021608664            3 
  639000   0.98114409   -7.7647032    163.56195  0.021330458   0.02159123            3 
  640000    1.0135997   -7.7625523    163.74524  0.021320994  0.021573554            3 
  641000   0.95629398   -7.8039055    163.61138   0.02127033  0.021555664            3 
  642000    1.0056763   -7.7801819    163.72654  0.021252147  0.021537911            4 
  643000   0.98644057   -7.7843004    164.41616  0.021308471  0.021520242            3 
  644000   0.99907799   -7.7978149    164.14227  0.021239942  0.021502997            6 
  645000   0.98293577   -7.7694251    164.32248  0.021230294  0.021485505            4 
  646000   0.98293072   -7.7788735    164.45238  0.021214188  0.021467988            2 
  647000    1.0027184   -7.8172125    164.24253   0.02115437  0.021450553            6 
  648000   0.98555185   -7.7976251    164.65904  0.021175288  0.021432962            4 
  649000   0.99170308   -7.8032263    164.50313  0.021122641  0.021415562           10 
  650000   0.97594157   -7.7634097    165.07262  0.021163156  0.021398224            2 
  651000   0.99912394   -7.7834904    165.72203  0.021213777  0.021381322            5 
  652000    0.9875981   -7.7924546    165.72691  0.021181865   0.02136454            2 
  653000   0.96837317   -7.7849552    166.45165  0.021241916  0.021347859            3 
  654000   0.97437541   -7.8060265    166.18516  0.021175479  0.021331358            2 
  655000    1.0057084   -7.7901898    166.39613  0.021169991  0.021314773            2 
  656000   0.98850483   -7.8003104    166.05694  0.021094632  0.021298202            3 
  657000    1.0143143   -7.8135505    166.58633  0.021129672  0.021281642            2 
  658000    1.0097706   -7.7904013    166.44864  0.021080121  0.021265056            3 
  659000   0.97314147   -7.7769494    167.37475  0.021165244  0.021248613            7 
  660000   0.98672661   -7.7853074    167.10631  0.021099281  0.021232504            4 
  661000   0.97586391   -7.7759803    167.45284  0.021111048   0.02121627            5 
  662000   0.99911948   -7.7732651    167.40679  0.021073362  0.021200146            2 
  663000   0.99450685   -7.7959608    167.56195   0.02106108  0.021184047            4 
  664000   0.99409334   -7.7821137    168.10882  0.021097994  0.021168033            3 
  665000   0.96741808   -7.8208806    167.45585  0.020984443  0.021151802            5 
  666000   0.98269716   -7.8213962    167.83091  0.020999863  0.021135576            3 
  667000   0.99519352   -7.8105176    168.37105  0.021035864  0.021119341            6 
  668000   0.99352263    -7.838312    167.99131     0.020957  0.021103272            3 
  669000   0.99110655   -7.7935902        168.5  0.020989039  0.021087153            1 
  670000   0.96716456   -7.8433435    168.33361  0.020937016  0.021071062            2 
  671000   0.97101434   -7.8049278     168.4745  0.020923311   0.02105494            4 
  672000    1.0087682   -7.8109794    168.75992  0.020927569  0.021038867            2 
  673000    1.0013439   -7.7804133    169.23511  0.020955314  0.021023015            4 
  674000    0.9862457   -7.7926785     169.5064  0.020957765  0.021007244            2 
  675000   0.98439717   -7.7964087    169.78579  0.020961209  0.020991498            1 
  676000   0.97896433   -7.7987771    169.74308  0.020924936   0.02097571            2 
  677000   0.97967624   -7.8337769    168.90939  0.020791406  0.020959856            2 
  678000   0.99146943   -7.7938323     169.5826  0.020843485  0.020943665            2 
  679000   0.97242712   -7.8044086    169.68438   0.02082528  0.020927754            4 
  680000   0.99232408   -7.8109352    170.56147  0.020902141   0.02091198            4 
  681000   0.98167029   -7.8276398    170.18295  0.020825129  0.020896295            3 
  682000   0.97714672   -7.7891951    170.19677  0.020796282  0.020880488            3 
  683000   0.98101684   -7.8202405    170.37118  0.020787113  0.020864429            4 
  684000   0.97719605   -7.7970556    170.41807  0.020762435  0.020848587            3 
  685000   0.96781188    -7.835924    170.34136  0.020722793  0.020832513            2 
  686000   0.96552763   -7.8014602     170.6631   0.02073167  0.020816515            5 
  687000    0.9906755   -7.8209089    170.98858  0.020740973  0.020800495            2 
  688000   0.96871571    -7.811846     170.7391  0.020680608  0.020784546            6 
  689000   0.98273786   -7.8324909    171.29891    0.0207183  0.020768546            4 
  690000   0.97910528   -7.8393254    170.73053  0.020619629  0.020752646            3 
  691000   0.99684036   -7.8144433    171.36293  0.020666055  0.020736643            1 
  692000   0.99549119   -7.8557405    171.27827  0.020625996  0.020720789            3 
  693000   0.97896232   -7.8203742    171.74108  0.020651885  0.020704816            3 
  694000   0.98996763   -7.8482296     171.4223   0.02058385  0.020689141            5 
  695000   0.95951131   -7.7840937    172.09824   0.02063528  0.020673392            1 
  696000   0.96781185   -7.8294078    172.14208  0.020610881  0.020657668            3 
  697000   0.95694936   -7.8586169    172.25693  0.020595042  0.020642035            3 
  698000    0.9949085   -7.8420341     172.0141  0.020536545  0.020625952            3 
  699000   0.95327871   -7.8442853     172.2966  0.020540844  0.020609768            4 
  700000   0.97391628   -7.8658134    172.17378  0.020496878  0.020593604            3 
  701000   0.96673836   -7.8709836    171.86358  0.020430763  0.020577351            4 
  702000   0.96824315   -7.8610225    172.16915  0.020437933  0.020561282            2 
  703000   0.98947962   -7.8698352    172.56044  0.020455244  0.020544982            3 
  704000   0.96427386    -7.862448    172.90603  0.020467096   0.02052893            3 
  705000   0.97311472   -7.8375038    173.03392  0.020453183  0.020513105            7 
  706000   0.99654704   -7.8424881    173.10768  0.020432917  0.020497367            3 
  707000   0.97137326   -7.8506419    174.05389  0.020515545  0.020481774            3 
  708000   0.98671227   -7.8402293    173.54978  0.020427233  0.020466438            1 
  709000   0.97728499   -7.8412776    173.57043  0.020400849    0.0204509            2 
  710000    0.9553114   -7.8296235    173.84562  0.020404415  0.020435538            8 
  711000   0.98868181   -7.8471877    173.85646  0.020376988  0.020419898            7 
  712000   0.98588211   -7.8020276    174.02113  0.020367642  0.020404452            6 
  713000   0.96753289    -7.863799    174.37134  0.020380007  0.020388953            2 
  714000   0.97642341   -7.8713924    174.11082  0.020321057  0.020373368            4 
  715000   0.96935779   -7.8439341    174.91877  0.020386802  0.020357831            4 
  716000   0.97466789   -7.8425123    174.94234  0.020361073  0.020342222            4 
  717000   0.93372522   -7.8256477    174.52943  0.020284685  0.020326574            3 
  718000    0.9569382     -7.90348     174.6782    0.0202737  0.020310973            7 
  719000   0.97046987   -7.8555523    174.43708  0.020217557  0.020295418            4 
  720000    0.9502252   -7.8256928    174.82507  0.020234383  0.020279829            6 
  721000   0.95687215    -7.855185     175.0513  0.020232467  0.020264223            4 
  722000   0.97047841   -7.8893958    174.81474   0.02017714  0.020248481            4 
  723000   0.93692309    -7.867163    175.47125  0.020224902   0.02023283            4 
  724000   0.96062926   -7.8733332    175.19948  0.020165686  0.020217258            3 
  725000   0.95930824    -7.825732    175.87729  0.020215781  0.020201699            4 
  726000   0.96726934   -7.8548329    175.57686  0.020153451  0.020186197            2 
  727000   0.94452212   -7.8838702    175.51621  0.020118776  0.020170605            4 
  728000   0.94297845   -7.8838276    175.98505  0.020144809  0.020154958            9 
  729000   0.96165715   -7.8703414    176.13484  0.020134298  0.020139173            5 
  730000   0.94881932   -7.9030283    176.08277  0.020100772  0.020123426            2 
  731000   0.96314561   -7.8810245    176.07891  0.020072836  0.020107727            2 
  732000   0.95578815   -7.8891132    175.79427  0.020013009  0.020092031            5 
  733000   0.93728506   -7.8605779    176.13971  0.020024978  0.020076332            4 
  734000   0.94631671    -7.900401    176.47462   0.02003572  0.020060769            3 
  735000   0.96248575    -7.890125    176.23226  0.019980982  0.020045103            4 
  736000   0.97426454   -7.8732997    176.75651  0.020013191  0.020029441            3 
  737000   0.94985829   -7.9188872    176.77243  0.019987837  0.020013879            1 
  738000   0.97775509   -7.8979028      177.254  0.020015131  0.019998321            4 
  739000   0.95937213   -7.9129692    176.87722  0.019945559  0.019982795            2 
  740000   0.94141039   -7.8927541    177.43158  0.019981034  0.019967465            2 
  741000   0.92959098   -7.8973053    177.54099  0.019966373  0.019952301            3 
  742000   0.95219537    -7.895405    177.63834  0.019950397  0.019936912            1 
  743000   0.95396534   -7.8844021    178.04423   0.01996907  0.019921472            1 
  744000   0.96680285   -7.9109475    177.61551  0.019894211  0.019906026            2 
  745000   0.95757749   -7.9088505      177.347  0.019837472  0.019890405            3 
  746000   0.97570968   -7.9113582    177.42523  0.019819619  0.019874645            2 
  747000   0.96876301   -7.9020673    177.82091  0.019837228   0.01985884            2 
  748000   0.96679373   -7.8918731    177.99946    0.0198306   0.01984346            4 
  749000   0.96403772   -7.8967521     177.5487  0.019753972  0.019828114            6 
  750000   0.95565974   -7.9397708    178.05166  0.019783518  0.019812308            4 
  751000   0.94735825   -7.9291894    178.26555  0.019780909  0.019796599            5 
  752000   0.97499556   -7.9025567    177.93201  0.019717643  0.019780954            4 
  753000   0.94921647    -7.931586    178.66976  0.019773103  0.019765219            2 
  754000   0.96281395   -7.9455563    178.29504  0.019705464  0.019749768            3 
  755000   0.95686532   -7.9165191    179.04951   0.01976264  0.019734322            2 
  756000   0.94406004   -7.9308144    178.37712  0.019662381  0.019718725            2 
  757000   0.96985204   -7.8852686    179.67857  0.019779675   0.01970341            8 
  758000   0.96332814   -7.9428094    178.87872  0.019665646  0.019688219            3 
  759000   0.95599412   -7.9018437     179.7838  0.019739109  0.019673083            5 
  760000   0.93900024    -7.918455    179.66678  0.019700305  0.019657915            4 
  761000   0.94616548   -7.9040423    179.89081   0.01969895  0.019642709            3 
  762000   0.95315721   -7.9463765    180.18305  0.019705058  0.019627739            5 
  763000   0.94165816   -7.9340574    179.61276  0.019616946  0.019612658            3 
  764000   0.93280107   -7.9358255    179.87559  0.019619938  0.019597408            5 
  765000   0.93593848   -7.9389423    179.97343  0.019604949  0.019582285            2 
  766000   0.95833883   -7.9093388    180.17619  0.019601413  0.019567337            4 
  767000   0.94889133   -7.9608091    180.49061  0.019610019  0.019552445            4 
  768000   0.93546831   -7.9451481    180.51098  0.019586695  0.019537434            3 
  769000   0.94671771   -7.9231977     180.1087  0.019517631  0.019522505            3 
  770000   0.95307682   -7.9335901    180.97935   0.01958651  0.019507693            2 
  771000   0.92159656   -7.9073336    181.21675  0.019586765  0.019493048            4 
  772000   0.93565982   -7.8903534    181.54769  0.019597117   0.01947832            4 
  773000   0.91317316   -7.9377835    181.26461  0.019541247  0.019463579            3 
  774000   0.96091351   -7.9333121    181.11248  0.019499621  0.019448605            3 
  775000   0.93795948   -7.9312965    181.14611  0.019478077  0.019433574            8 
  776000   0.94297017   -7.9450138     180.8429  0.019420414  0.019418346            1 
  777000   0.93313483   -7.9484869     180.8151  0.019392439  0.019402974            4 
  778000    0.9327327   -7.9630161    181.11264  0.019399384  0.019387805            3 
  779000   0.94015099   -7.9365833    181.02356  0.019364951  0.019372599            4 
  780000   0.94775461   -7.9437831    181.68594  0.019410891  0.019357522            7 
  781000   0.93339472   -7.9275222    182.02034  0.019421718  0.019342508            6 
  782000    0.9419406   -7.9739662    181.58314  0.019350291  0.019327467            6 
  783000   0.94195348   -7.9687794    182.04243   0.01937446  0.019312176           11 
  784000   0.96145455   -7.9707441    181.20217  0.019260435  0.019297064            3 
  785000   0.93781601   -7.9787192    181.86669  0.019306443  0.019282025            4 
  786000   0.92182592   -7.9329404    182.75177  0.019375718  0.019266942            3 
  787000    0.9421838   -7.9634699    182.45371  0.019319537  0.019251929            4 
  788000   0.94194192   -7.9759116    182.62614  0.019313255  0.019236785            8 
  789000   0.92681008   -7.9758041    182.48978  0.019274375  0.019221765            5 
  790000   0.94331256   -7.9357579    183.10503  0.019314877  0.019206966            3 
  791000   0.94528175   -7.9440258    183.24471  0.019305174    0.0191924            6 
  792000   0.93151845   -7.9584979    182.88845  0.019243314  0.019177672            3 
  793000   0.92246372   -7.9765964    182.90039  0.019220301  0.019162782           13 
  794000   0.93076418   -7.9566002    183.07952  0.019214895  0.019147917            7 
  795000    0.9429875   -7.9496464    183.58479  0.019243688  0.019133181            4 
  796000   0.91983967   -7.9983058    182.63276  0.019119845  0.019118327            5 
  797000   0.93461828   -7.9686517    183.60942  0.019197973  0.019103561            3 
  798000   0.93145289   -7.9336828    183.69827  0.019183195  0.019088806            6 
  799000   0.93649447   -7.9627039    183.64439  0.019153566  0.019073938            6 
  800000   0.94318145   -7.9887354    183.39766  0.019103923  0.019059051            2 
  801000   0.93683261   -7.9866252    183.53805  0.019094679   0.01904427           12 
  802000   0.88963609   -7.9582839    183.60726  0.019078061  0.019029286           10 
  803000   0.91967937   -7.9611685    183.77587    0.0190718  0.019014396           10 
  804000   0.93286964   -7.9623363    183.87432  0.019058284  0.018999526            2 
  805000   0.92099141   -7.9543201    183.83175  0.019030201  0.018984585            2 
  806000   0.94857799   -7.9912479     184.0031  0.019024307  0.018969677            3 
  807000   0.92667413     -7.95979    184.85682  0.019088891  0.018954762            1 
  808000   0.93083978   -8.0096798    183.95852   0.01897262  0.018939759            3 
  809000   0.91852445   -7.9655195    184.43004  0.018997738  0.018924561            7 
  810000   0.94570638    -7.943396    184.32042  0.018963006  0.018909598            4 
  811000   0.92888335    -7.951703    184.28506  0.018935991  0.018894667            3 
  812000   0.93790417   -7.9626193    184.78728  0.018964212  0.018879734            2 
  813000   0.95115695   -7.9487347    185.46262  0.019010108  0.018865134            3 
  814000   0.93546609   -7.9614088    185.12651  0.018952345  0.018850556            5 
  815000   0.91931874   -7.9395336    185.73126  0.018990927  0.018836031            3 
  816000   0.91508533   -7.9496276    186.13832  0.019009223  0.018821472            2 
  817000   0.93979704   -7.9699439    185.63591  0.018934711   0.01880698            7 
  818000   0.91740244   -7.9795473    185.32277  0.018879662  0.018792407            3 
  819000   0.93114318   -7.9608942    185.29939  0.018854232  0.018777778            2 
  820000   0.92136739   -7.9567306    185.47824  0.018849414  0.018763195            5 
  821000   0.90841529   -8.0047247    185.79202  0.018858305   0.01874847            5 
  822000   0.94102508   -7.9690918    185.91535  0.018847866  0.018733859            2 
  823000   0.92306974   -7.9857168    185.72647  0.018805839   0.01871895            3 
  824000   0.90219579    -8.004096    185.60365  0.018770596  0.018704067            6 
  825000   0.93292943   -8.0039109    185.49243  0.018736609  0.018689246            9 
  826000   0.92461874    -8.008151    186.08942  0.018774154  0.018674532           19 
  827000   0.92961309    -8.028311    185.62017  0.018704169   0.01865963            5 
  828000   0.92384911   -7.9819893     186.7578  0.018796075  0.018644672            5 
  829000   0.93642369    -7.992788    186.32268  0.018729663  0.018629998            3 
  830000   0.91269679   -7.9766212    186.35101   0.01870994  0.018615214            6 
  831000   0.91898196   -7.9562539    186.60293  0.018712688  0.018600526            5 
  832000   0.92502656   -7.9625787    186.33804  0.018663666  0.018585787            2 
  833000   0.94001973   -7.9771884    186.58493  0.018665959   0.01857101            2 
  834000   0.90945759   -8.0159586    186.50506  0.018635597  0.018556259            4 
  835000   0.92375033   -8.0124308    186.74779  0.018637504  0.018541563            2 
  836000   0.93022753   -8.0119856    187.16957  0.018657254  0.018526893            2 
  837000   0.90972457    -7.996597    187.06409  0.018624461  0.018512126            2 
  838000   0.93787886   -8.0148406    186.51605  0.018547738  0.018497379            5 
  839000   0.93861516   -8.0221521    186.90785  0.018564546   0.01848254            2 
  840000   0.92836668   -8.0087826    187.25016  0.018576404  0.018467757            4 
  841000   0.90779953   -7.9970015    187.19468  0.018548819  0.018453014            5 
  842000   0.91421299   -7.9980242    187.38195  0.018545324  0.018438147            6 
  843000   0.91084751   -8.0117745    187.00549   0.01848611  0.018423437           10 
  844000   0.91605958   -7.9897497    187.56436  0.018519388  0.018408867            2 
  845000   0.92111013    -7.984807    187.58415  0.018499423  0.018394271            2 
  846000   0.92456424   -8.0019664    187.64817  0.018483862  0.018379639            2 
  847000   0.91570514   -8.0019617    188.19446  0.018515787  0.018364904            3 
  848000   0.91513996   -8.0528986     187.7085  0.018446197  0.018350111            3 
  849000   0.89119341   -8.0421287    187.35706  0.018389974  0.018335323           10 
  850000   0.89531122   -8.0304324    188.18196  0.018449212  0.018320632            6 
  851000   0.92142031   -8.0612412    187.53416  0.018364097  0.018305844            6 
  852000   0.90693669   -8.0476499    188.59151  0.018445961  0.018291149            3 
  853000   0.90881144   -8.0336555    187.81238   0.01834822  0.018276551            5 
  854000    0.9013196   -8.0528224    187.76578  0.018322188  0.018261829            3 
  855000   0.90126591   -8.0351473    188.48043  0.018370412  0.018247039            3 
  856000   0.92305072   -8.0468184    188.22823    0.0183244  0.018232379            5 
  857000   0.90221016   -8.0397602    188.88593  0.018366971  0.018217659            4 
  858000   0.92952333   -8.0461267     188.4217  0.018300476  0.018202865            8 
  859000   0.90057248   -8.0598726    187.92349  0.018230839  0.018188048            4 
  860000   0.91441932   -8.0621315    187.92827  0.018210104  0.018173088            7 
  861000   0.89476424   -8.0424414    188.57291  0.018251346  0.018158209            5 
  862000   0.90976336   -8.0703313    187.86306  0.018161548  0.018143304            6 
  863000   0.90699155   -8.0452528    187.84316  0.018138582   0.01812816            4 
  864000   0.90964689    -8.064677    188.19946  0.018151954  0.018113168            5 
  865000   0.89902895   -8.0283812    188.56206  0.018165902  0.018098068            9 
  866000   0.90764336   -8.0176478    188.47146  0.018136207   0.01808314            7 
  867000   0.91956428   -8.0372867    188.24076  0.018093115  0.018068093            6 
  868000   0.90770537   -8.0251442    188.60412  0.018107154  0.018053087            3 
  869000   0.91950174   -8.0827415    188.25582  0.018052917  0.018037976            5 
  870000   0.89796722   -8.0562629    188.26953  0.018033479  0.018022756            1 
  871000   0.91097466   -8.0380893    188.93549  0.018076491  0.018007619            5 
  872000   0.90584039   -8.0566288    188.88081  0.018050536  0.017992661            5 
  873000   0.89173051    -8.045793    188.88322   0.01803009  0.017977815            1 
  874000   0.88560618   -8.0576732    189.17095  0.018036894  0.017962814            2 
  875000   0.90631586   -8.0015486    189.05619  0.018005351  0.017947946            4 
  876000   0.90382913   -8.0450491    189.55661  0.018032402  0.017933075            3 
  877000   0.91204696   -8.0858282    189.10016  0.017968468  0.017918213            7 
  878000   0.89794518   -8.0753997    189.17009   0.01795464  0.017903064            5 
  879000   0.88874813   -8.0692768    188.75937  0.017895276  0.017887906            6 
  880000   0.91054239   -8.0792675    189.02289  0.017899895  0.017872711            6 
  881000   0.88771731   -8.0645462    189.17696  0.017894151  0.017857569           11 
  882000    0.8912066   -8.0509175    189.53691  0.017907871  0.017842391            8 
  883000   0.91621094   -8.0614489    189.54731  0.017888572  0.017827312            3 
  884000   0.92160267   -8.0456512     188.9966  0.017816422   0.01781231            4 
  885000   0.89906352   -8.0692243    189.63035  0.017855965  0.017797191            5 
  886000   0.92236464   -8.0535373    189.65002  0.017837662  0.017782087            6 
  887000    0.9138072   -8.0706959    189.89986  0.017841024  0.017767204            4 
  888000   0.89004582   -8.0265564    189.92326  0.017823129   0.01775232            4 
  889000   0.89135651   -8.0956744    189.99001  0.017809337  0.017737418            2 
  890000   0.89578962   -8.0460984    189.98537  0.017788892    0.0177224            4 
  891000    0.8932895   -8.0638193    190.02984  0.017773086   0.01770738            2 
  892000   0.91838225   -8.0782212    189.48803  0.017702544  0.017692104           12 
  893000   0.86303319   -8.0655331    189.70796  0.017703244  0.017676824            3 
  894000   0.88036368    -8.100254    189.93454  0.017704562  0.017661503            7 
  895000   0.90680522   -8.0577199    190.06761   0.01769717  0.017646234            4 
  896000   0.89314569   -8.0738239    189.48926  0.017623629  0.017630864            5 
  897000   0.89194864   -8.1000994    189.70115  0.017623667  0.017615501            2 
  898000   0.89501179   -8.1105521    189.76744  0.017610193  0.017600098            4 
  899000   0.90499042   -8.1090344    189.82062  0.017595534  0.017584639            5 
  900000   0.89155867   -8.1158382    190.01589  0.017594064  0.017569263            7 
  901000   0.91860817   -8.0954784    189.91338  0.017565056  0.017553966            4 
  902000   0.89947951   -8.0858329    190.02386  0.017555789  0.017538716            5 
  903000   0.91009249   -8.0877165    190.24904  0.017557128  0.017523356            3 
  904000   0.91263554   -8.0931307    190.45135  0.017556356  0.017508074            9 
  905000   0.87023817   -8.0791885     190.5046   0.01754186  0.017492772            6 
  906000   0.89263676   -8.0494343    190.83482  0.017552871  0.017477616            3 
  907000   0.89061132   -8.0800928    190.44962  0.017498127  0.017462461            2 
  908000   0.91220225   -8.0903409    190.79117  0.017510203  0.017447245            4 
  909000   0.88982797   -8.1046024    190.65274  0.017478249  0.017432066            7 
  910000   0.88720481   -8.0894325    190.42368  0.017438066  0.017416828            2 
  911000   0.88380602   -8.0739128    190.77352  0.017450926  0.017401585            6 
  912000   0.89542168   -8.1116052    190.46764  0.017403842  0.017386368            6 
  913000   0.90028162   -8.1073841    190.22417  0.017362557  0.017371028            4 
  914000   0.91589816   -8.0926717    190.62201  0.017379833  0.017355706            6 
  915000   0.88749067   -8.0988826     191.1437  0.017408352  0.017340447            5 
  916000   0.87849043   -8.0963659    190.49436  0.017330273  0.017325182            7 
  917000   0.88289268   -8.1216199    190.74489  0.017334142  0.017309895            5 
  918000   0.89351883   -8.0772626    190.62548  0.017304419  0.017294579            2 
  919000   0.89251426   -8.0832429    190.88198  0.017308848   0.01727916            2 
  920000   0.87600899     -8.09999     190.6544   0.01726942  0.017263837            5 
  921000   0.88786033   -8.1406741    190.70644  0.017255378  0.017248405            3 
  922000   0.88036808   -8.1380876    190.50539  0.017218492  0.017232937            4 
  923000    0.8883639    -8.119397     190.4505  0.017194881  0.017217521            4 
  924000   0.89727177   -8.1442109    190.82062  0.017209652  0.017202215            3 
  925000   0.91272974   -8.1566004    190.96429   0.01720399   0.01718688            4 
  926000   0.88887062   -8.1249667    190.66304  0.017158301  0.017171564            3 
  927000   0.88191377   -8.1188993    191.00167  0.017170233  0.017156313            7 
  928000   0.89866004   -8.1301748     191.3215  0.017180451  0.017141061            6 
  929000    0.9008272   -8.1153721    191.31564  0.017161431  0.017125729            1 
  930000   0.89843929   -8.1242144    191.31143  0.017142601  0.017110394            4 
  931000   0.88336975   -8.0949788    191.50005  0.017141072  0.017095005            2 
  932000   0.87117367    -8.127963    190.90722  0.017069673  0.017079635            4 
  933000   0.89255931   -8.1123942    191.43457  0.017098479  0.017064146            4 
  934000   0.88053049   -8.1161138    191.52756  0.017088469  0.017048796            4 
  935000   0.87125837   -8.1067852    191.31688  0.017051415    0.0170335            7 
  936000   0.88334673   -8.1124085    191.28594  0.017030443    0.0170181            7 
  937000   0.89474449   -8.1259175    191.30784  0.017014215  0.017002626            6 
  938000   0.86764155   -8.1490718     191.0832  0.016976119  0.016987194            6 
  939000   0.89027672   -8.1169258    191.34185  0.016980995  0.016971801           19 
  940000   0.88981828   -8.1082386    191.78508  0.017002224  0.016956535           11 
  941000   0.86846043   -8.1249832    191.55246  0.016963555  0.016941174           25 
  942000   0.89474878   -8.1032189    191.63164  0.016952551  0.016925713            7 
  943000   0.88119663   -8.1139911    191.82888  0.016952005  0.016910293            5 
  944000   0.90434637    -8.091187    191.75285  0.016927335  0.016894953            8 
  945000   0.87171828   -8.1441247    191.47255  0.016884704  0.016879585            4 
  946000   0.88214364    -8.094089    191.90909  0.016905311  0.016864261            7 
  947000    0.8821744   -8.1091458    191.43595  0.016845824  0.016848892            2 
  948000   0.88702136   -8.1219192    191.95134   0.01687336  0.016833512            3 
  949000    0.8721023   -8.1618608    191.97302  0.016857484  0.016818136           11 
  950000    0.8781185   -8.1613647    191.62041  0.016808808  0.016802753           10 
  951000   0.87454097   -8.1266903    191.82592  0.016809141  0.016787397            5 
  952000   0.88520636    -8.157445    192.03192  0.016809517  0.016772102            4 
  953000   0.88369247   -8.1372289      191.802  0.016771774  0.016756798            6 
  954000   0.89233448   -8.1511594    192.34379  0.016801519  0.016741589           10 
  955000   0.87183312   -8.1413369    191.77556  0.016734342  0.016726328           14 
  956000   0.86767679   -8.1272985    191.89183  0.016726972  0.016711025           11 
  957000   0.88326881   -8.1378674      192.567  0.016768286   0.01669577            5 
  958000   0.87480106   -8.1059728    192.59716  0.016753406  0.016680637            9 
  959000   0.88294267    -8.086096    192.51929   0.01672917  0.016665562            6 
  960000   0.88103786    -8.118222    192.53181  0.016712831   0.01665048            8 
  961000   0.85376052   -8.1153504    192.67752  0.016708075  0.016635368            5 
  962000    0.8636896   -8.1247242    192.72066  0.016694444  0.016620294           10 
  963000   0.87907217   -8.1346168    192.99174  0.016700566  0.016605118            6 
  964000   0.87738706   -8.1434486    192.29935  0.016623388  0.016589894            8 
  965000    0.8660505   -8.1699243    192.54325  0.016627224  0.016574588           16 
  966000   0.88245623   -8.1574894     192.4549  0.016602389  0.016559335           16 
  967000   0.86071958   -8.1716807    192.56216  0.016594464  0.016544163            8 
  968000    0.8674254    -8.168278    192.95682  0.016611296  0.016528955            5 
  969000   0.87519202   -8.1652185    192.76288  0.016577475  0.016513787            9 
  970000   0.88090741   -8.1928249    192.38248  0.016527704  0.016498663            7 
  971000   0.87688228   -8.1444001    192.77498  0.016544369   0.01648348            4 
  972000   0.89005749   -8.1641396    192.49933  0.016503715  0.016468258            5 
  973000   0.88305211   -8.1303652    193.23731  0.016549958  0.016453166            6 
  974000   0.85196521   -8.1417475    192.62188  0.016480311  0.016438094            8 
  975000   0.86128661    -8.177651    192.77018  0.016476084   0.01642299            5 
  976000   0.86865763   -8.1868426    193.27504  0.016502309  0.016407919            9 
  977000   0.84614871   -8.1605389    193.44307   0.01649975  0.016392907            6 
  978000   0.87587251   -8.1762417     193.2302  0.016464741   0.01637796            4 
  979000   0.87744343   -8.1692762    193.31604   0.01645523  0.016362904            7 
  980000   0.86545148   -8.1572128     193.4943  0.016453597  0.016347909            5 
  981000   0.84382332   -8.1628227    193.72891  0.016456755  0.016332976            2 
  982000   0.86495416   -8.1879576    193.11954  0.016388284   0.01631797            5 
  983000    0.8733122   -8.1743966    193.10121  0.016370059  0.016302971            4 
  984000   0.88099963   -8.1717692     193.6055   0.01639613  0.016287979            5 
  985000   0.85428593    -8.186333    193.66305  0.016384353  0.016272932            4 
  986000   0.85775051   -8.1587101    193.58048  0.016360757  0.016257971            5 
  987000   0.83422582   -8.1597345    194.00363  0.016379908  0.016243253            9 
  988000   0.88679484   -8.1665387    194.02021  0.016364727  0.016228452           10 
  989000   0.86733847   -8.1971292    193.58933  0.016311875  0.016213553           20 
  990000   0.86536107    -8.200686    193.23794   0.01626582  0.016198626            8 
  991000   0.88666357    -8.210149    193.48198  0.016269928  0.016183669            7 
  992000   0.84472081   -8.1967761    193.26286   0.01623512  0.016168781           10 
  993000    0.8622137   -8.1675956    193.79509  0.016263434  0.016153878           10 
  994000   0.85551248   -8.2251755    193.70108  0.016239192  0.016138946           12 
  995000   0.86538799   -8.1731868    193.44228  0.016201196  0.016124154            8 
  996000   0.84482583   -8.2001478    193.94039  0.016226606  0.016109304            4 
  997000   0.85338642   -8.2066333    194.23461  0.016234922  0.016094455            4 
  998000   0.85800403   -8.2065727    193.43246  0.016151675  0.016079579            4 
  999000   0.86237308   -8.1971212     194.0083  0.016183542  0.016064734            4 
 1000000   0.86269888   -8.1810368     194.0648  0.016172067   0.01604993           10 
 1001000   0.85064349   -8.2063295    193.95626  0.016146874  0.016035205            9 
 1002000   0.86729051   -8.1559437    194.32307  0.016161266  0.016020504            4 
 1003000   0.85998677   -8.2050354    193.97514  0.016116246  0.016005771            8 
 1004000   0.83940928   -8.1796608    194.77862  0.016166884  0.015991031           13 
 1005000   0.85436929   -8.1680916    194.61884  0.016137549  0.015976393           16 
 1006000   0.86226767   -8.1812227    194.71254   0.01612927   0.01596176            8 
 1007000      0.86255   -8.2438683    193.96443  0.016051343  0.015947073            9 
 1008000   0.85399227   -8.1952056     194.8131  0.016105581  0.015932349            6 
 1009000    0.8527358   -8.2158469    194.42996  0.016057975  0.015917773            4 
 1010000   0.84095544   -8.2229682    193.89422  0.015997873  0.015903073            9 
 1011000   0.85187404     -8.24083    194.18073  0.016005665  0.015888287            8 
 1012000   0.86678137   -8.2231118    194.11128   0.01598413  0.015873492            8 
 1013000   0.84346961    -8.256333    194.13175  0.015970035  0.015858794            5 
 1014000   0.86738164   -8.2292212    194.29046  0.015967329  0.015843997            6 
 1015000   0.83641061   -8.2000637    194.69887  0.015985129   0.01582937            9 
 1016000   0.84681261   -8.1852353    194.76938  0.015975179  0.015814801            7 
 1017000   0.84161296   -8.2019938    194.42412   0.01593118   0.01580014            5 
 1018000   0.84591792   -8.2067963    194.55464  0.015926215  0.015785533            4 
 1019000   0.84940294   -8.1972181    194.92145  0.015940583  0.015770928            9 
 1020000   0.83620572   -8.2162952     194.7823  0.015913587  0.015756391           11 
 1021000   0.85962889   -8.2330008    194.36163  0.015863666  0.015741822           10 
 1022000   0.83824525   -8.1996901    194.89967  0.015892015  0.015727269            7 
 1023000   0.85113263   -8.2166429    194.54649   0.01584771  0.015712821           12 
 1024000   0.84203203   -8.2197351    194.85658  0.015857469  0.015698329            6 
 1025000   0.84950537   -8.2382966    195.01639  0.015854991  0.015683731            5 
 1026000   0.86858997   -8.2353554    194.82538  0.015824023  0.015669141            4 
 1027000   0.82918549   -8.2439002      194.742   0.01580185  0.015654563            7 
 1028000   0.85346435    -8.246238    194.30121  0.015750747  0.015639941            3 
 1029000   0.83360686   -8.2387888    194.87159  0.015781632   0.01562536            9 
 1030000   0.83709324   -8.2786631    194.56051  0.015741142  0.015610714            3 
 1031000   0.83965398   -8.2198571    194.82414  0.015747183  0.015596138            9 
 1032000   0.84457908   -8.2600524    194.78812  0.015729015  0.015581565            3 
 1033000   0.84226456   -8.2009305    195.37654  0.015761257  0.015567075           11 
 1034000   0.85328091   -8.2199531    195.02331  0.015717546  0.015552675            5 
 1035000   0.85334051   -8.2570722    195.31587  0.015725916  0.015538228            6 
 1036000   0.84410132   -8.2192953    195.32662  0.015711601  0.015523765            3 
 1037000   0.83182348   -8.2130508    195.65045  0.015722472  0.015509424            3 
 1038000    0.8529552   -8.2429233    195.67535  0.015709325  0.015495043            3 
 1039000   0.85036932   -8.2171673    195.22183   0.01565783  0.015480701            3 
 1040000   0.83769452   -8.2488563    195.81602  0.015690386   0.01546638            4 
 1041000   0.83256144   -8.2490685    195.74953  0.015669991  0.015452019            7 
 1042000   0.84626427   -8.2598682    195.57911  0.015641323  0.015437702            3 
 1043000   0.81373068   -8.2498239     195.2573  0.015600615  0.015423406            8 
 1044000   0.83189139   -8.2614086    195.76286  0.015626027   0.01540904            5 
 1045000   0.85229527   -8.2072737    195.26271  0.015571189  0.015394758            3 
 1046000   0.83246244   -8.1991024    195.46193  0.015572174  0.015380475            8 
 1047000   0.85521117   -8.2373075    195.49112  0.015559624  0.015366135           15 
 1048000    0.8310987   -8.2159112    196.06181  0.015590157  0.015351828            5 
 1049000   0.83673069   -8.2577595    195.53133  0.015533153  0.015337454            7 
 1050000   0.85367658   -8.2217574    195.47279  0.015513714   0.01532307            3 
 1051000   0.82920852   -8.2525584    195.36185  0.015490156  0.015308776            4 
 1052000    0.8252936   -8.2320242    195.61825  0.015495742  0.015294532            6 
 1053000   0.84472692   -8.2237354    195.74968  0.015491427  0.015280221            2 
 1054000    0.8404888   -8.2648969    195.84166  0.015484002  0.015265991            2 
 1055000   0.83170955   -8.2623844    196.13378  0.015492399  0.015251733            6 
 1056000   0.81782348   -8.2289523    196.00022  0.015467189  0.015237474            5 
 1057000   0.84123331   -8.2757675    195.77348   0.01543468  0.015223229            5 
 1058000   0.82372215   -8.2335795    195.74999  0.015418241  0.015208948            6 
 1059000   0.83621073   -8.2494275    195.57875  0.015390207  0.015194739            3 
 1060000   0.82080783   -8.2412959     195.9842  0.015407563  0.015180556            4 
 1061000    0.8154279   -8.2132466    196.09965  0.015402109  0.015166465            9 
 1062000   0.84211931   -8.2314248    196.35122  0.015407346  0.015152428            6 
 1063000   0.84156104   -8.2449942    196.03969   0.01536843  0.015138261            5 
 1064000   0.81795273   -8.2536897    195.97223  0.015348702  0.015124187            8 
 1065000   0.82886572   -8.2330551    196.07816  0.015342579  0.015110051            4 
 1066000   0.82508445   -8.2302466    196.41232  0.015354309   0.01509598            9 
 1067000   0.82468041   -8.2345854    196.37328   0.01533687  0.015081964            8 
 1068000   0.82566274   -8.2634006    195.79002  0.015276999  0.015067874            5 
 1069000   0.82085401   -8.2705039    196.14868  0.015290667  0.015053744           13 
 1070000   0.82021446   -8.2701064    196.30214  0.015288329  0.015039637            6 
 1071000   0.83405102    -8.249876    196.19103  0.015265409  0.015025531            5 
 1072000   0.82238851   -8.2772498    196.35153  0.015263645  0.015011507            4 
 1073000   0.81361144    -8.262356    196.31735  0.015246765    0.0149975            3 
 1074000   0.82379951   -8.2756352    196.50907  0.015247445  0.014983527            6 
 1075000   0.81224628   -8.2610967    196.85541  0.015260109  0.014969557            5 
 1076000   0.83286087   -8.2342254    196.63553  0.015228898  0.014955656            9 
 1077000   0.82897762   -8.2675862      196.241  0.015184231  0.014941747            6 
 1078000   0.81884717   -8.2843619    196.04503  0.015154996  0.014927743            8 
 1079000   0.82668893   -8.2808006    195.92686  0.015131824  0.014913676            4 
 1080000   0.81589484   -8.2591827    196.52198  0.015163733  0.014899605            8 
 1081000   0.82152223   -8.2996868    196.44386  0.015143683  0.014885525           10 
 1082000   0.81819469   -8.2743681    196.06113   0.01510021   0.01487149            2 
 1083000   0.83068908   -8.2902975    196.36852   0.01510992  0.014857465            5 
 1084000    0.8165702   -8.2869344    196.25684  0.015087395  0.014843545            3 
 1085000   0.83867196   -8.2884069    195.87912  0.015044479  0.014829479            5 
 1086000   0.80726227   -8.2957484    196.52498  0.015080186  0.014815456            4 
 1087000   0.79619008   -8.3019081    196.00927  0.015026777  0.014801468            5 
 1088000   0.80737671   -8.2912297    196.69404  0.015065413  0.014787492            4 
 1089000   0.81512233   -8.2989693    196.23249   0.01501626  0.014773479            6 
 1090000   0.82463859   -8.3083291    196.79985   0.01504586  0.014759518            7 
 1091000    0.8304556   -8.2878219    196.60297  0.015017031  0.014745564            9 
 1092000   0.81419962   -8.2751367    196.92893  0.015028154  0.014731679           15 
 1093000   0.83855258   -8.3062959    196.50573  0.014982138  0.014717807           12 
 1094000   0.81890723   -8.2804411    196.97876  0.015004476  0.014703953            4 
 1095000   0.82205109   -8.2980148    196.54861  0.014958037  0.014690062            6 
 1096000    0.8156092   -8.2820216    196.50629  0.014941171  0.014676161            9 
 1097000   0.82243194   -8.2654015    196.88192  0.014956086  0.014662296           11 
 1098000   0.81192592   -8.2710091    196.61352  0.014922095  0.014648499            4 
 1099000   0.81785474   -8.2931257    196.69923  0.014915016   0.01463463           10 
 1100000   0.80152986   -8.3101092    196.50596  0.014886815  0.014620784           11 
 1101000   0.79185212   -8.3095462    196.55741  0.014877188  0.014606958            7 
 1102000    0.8284801    -8.347961    196.43825  0.014854677  0.014593025            7 
 1103000   0.79615461   -8.3283302     196.3822  0.014836975  0.014579097            6 
 1104000   0.80882098   -8.3365224    196.27133  0.014815167  0.014565099            6 
 1105000   0.81885451   -8.3094963    196.17484  0.014794483  0.014551116            4 
 1106000   0.82372458   -8.3385837    196.85406  0.014832283  0.014537211            5 
 1107000   0.81272432   -8.3301412     196.2731  0.014775151  0.014523307            5 
 1108000   0.81956642   -8.3441877    196.14715  0.014752343  0.014509327            9 
 1109000   0.81794864    -8.338516    196.23805  0.014745871  0.014495379            5 
 1110000   0.82199488   -8.3083914    196.23152  0.014732096  0.014481458            7 
 1111000   0.81854348   -8.3155501    196.91857   0.01477037  0.014467572            5 
 1112000   0.80319015    -8.294115    196.84873  0.014751853  0.014453757            4 
 1113000   0.80382475   -8.3087925    196.70895  0.014728134  0.014439888            6 
 1114000   0.79666749   -8.3278065    196.31472  0.014685422  0.014426068            4 
 1115000   0.80461408   -8.3183597     196.5348  0.014688699  0.014412274            5 
 1116000   0.82201932   -8.3580371    196.55328  0.014676918  0.014398447            5 
 1117000    0.8044911   -8.3422812    196.26304  0.014642125  0.014384644            6 
 1118000   0.82621622   -8.3099598    196.76495  0.014666439   0.01437087            9 
 1119000   0.81595574   -8.3336057    196.94299  0.014666592  0.014357105           13 
 1120000   0.81528931   -8.3273769    197.09242  0.014664615  0.014343391           11 
 1121000   0.78125074   -8.3382764    196.89675  0.014636987  0.014329658            7 
 1122000   0.79936137   -8.3241852    197.45857  0.014665669  0.014315981           15 
 1123000   0.81315556   -8.3327497    196.91919  0.014612585  0.014302372            5 
 1124000   0.82753895   -8.3283649    197.23623  0.014623089  0.014288732            4 
 1125000   0.82046338    -8.347122    196.53856  0.014558412    0.0142751           15 
 1126000   0.81753856   -8.3153526    197.17702  0.014592734  0.014261449           10 
 1127000   0.80065347   -8.3250992    196.92741  0.014561329  0.014247841           16 
 1128000   0.81562717   -8.3508447    196.88796  0.014545506  0.014234182           15 
 1129000   0.80453386   -8.3818361    196.81682  0.014527371  0.014220464           18 
 1130000   0.81277312   -8.3411582     197.0944  0.014534985   0.01420677           22 
 1131000   0.81844122   -8.3711099    197.13192  0.014524898  0.014193085           11 
 1132000   0.81530058   -8.3706407    196.75038   0.01448398  0.014179362            9 
 1133000   0.81251268   -8.3561949    196.90786  0.014482779  0.014165674            6 
 1134000   0.78834295   -8.3349485    196.93589  0.014472067  0.014152074           27 
 1135000   0.79742046   -8.3555038    196.80992  0.014450067   0.01413855           18 
 1136000   0.79575307   -8.3737399    197.04356  0.014454486  0.014124996            6 
 1137000   0.80296318   -8.3731333    197.33471  0.014463112  0.014111446           12 
 1138000   0.80245993    -8.366934    197.13114  0.014435496  0.014097819           21 
 1139000   0.79052595   -8.3870461    196.75359    0.0143952  0.014084169           38 
 1140000   0.79082244   -8.3963634    196.60044  0.014371377  0.014070553           12 
 1141000   0.78190268   -8.3571753     196.8852  0.014379579  0.014056981           25 
 1142000   0.80808341   -8.3488478    197.02426  0.014377135  0.014043445           30 
 1143000   0.79632006   -8.3720657    196.81286  0.014349144  0.014029894           20 
 1144000   0.79607013    -8.370119    197.07503  0.014355699  0.014016437            5 
 1145000   0.79038354   -8.3302417    197.07758  0.014343346  0.014003042           16 
 1146000   0.79086545   -8.3484239    197.14183  0.014335503  0.013989544           24 
 1147000   0.80201756   -8.3863198    197.22854  0.014329304  0.013976117           44 
 1148000   0.78249445   -8.3511523    196.95006  0.014296607  0.013962676           34 
 1149000   0.79811158   -8.4029692    196.91446  0.014281582  0.013949233           22 
 1150000   0.78890384   -8.3283318    197.61009  0.014319572  0.013935889            9 
 1151000   0.81370322   -8.3739679    197.43252  0.014294275  0.013922604           18 
 1152000   0.79987486   -8.3702032    197.53493  0.014289274  0.013909271           19 
 1153000   0.79023303   -8.3781054    197.22001  0.014254121  0.013895906           17 
 1154000   0.78889667   -8.3810231    197.33745  0.014250249  0.013882557           34 
 1155000   0.81095451    -8.410033    197.01901  0.014214936  0.013869181           35 
 1156000   0.78562726   -8.4016664    197.02717  0.014203228  0.013855729           23 
 1157000   0.78219803   -8.4091108    196.90846  0.014182401   0.01384233           43 
 1158000   0.79820967   -8.3919052    197.04187  0.014179755  0.013828939           24 
 1159000   0.78573628   -8.3840146    197.78699  0.014221095  0.013815596           49 
 1160000   0.78847975   -8.3862888    197.77939   0.01420829  0.013802336           56 
 1161000    0.7898044   -8.4081097    197.07846  0.014145741  0.013789037           77 
 1162000   0.79931713   -8.3989939     197.1312   0.01413735  0.013775723           71 
 1163000   0.78971457   -8.4169821    196.92615  0.014110501  0.013762386           46 
 1164000   0.79663039   -8.4098788    197.11588  0.014111961  0.013749007           77 
 1165000   0.78260913   -8.4418099    196.79657  0.014077008  0.013735653           75 
 1166000   0.80374224   -8.4290124    197.01929  0.014080853  0.013722277           75 
 1167000   0.80844967    -8.412474    197.06233   0.01407186  0.013708967           84 
 1168000   0.79473324   -8.4194929    197.07746  0.014060892  0.013695704          107 
 1169000   0.77448317   -8.3853227    198.08483  0.014120675  0.013682464          107 
 1170000   0.78258952   -8.4043903    196.86782  0.014021925  0.013669262           49 
 1171000   0.78597847   -8.4360426    197.17404  0.014031742  0.013656032           56 
 1172000   0.78858002   -8.4218781    197.40091  0.014035901   0.01364282           64 
 1173000   0.79066932   -8.4309661    197.63393   0.01404049  0.013629583           60 
 1174000   0.78903149   -8.4448698    196.90133  0.013976528    0.0136164           57 
 1175000    0.7740576   -8.4546419    197.35818  0.013997034  0.013603237           61 
 1176000   0.76785743   -8.4358039    196.94446  0.013955815  0.013590042           41 
 1177000   0.78403477   -8.4334714    197.04819  0.013951302  0.013576918           34 
 1178000   0.79118939   -8.4396011    197.41944  0.013965722    0.0135638           63 
 1179000   0.78442909   -8.4533907    196.98026  0.013922835  0.013550653           72 
 1180000   0.77318179   -8.4456214    197.63914  0.013957567  0.013537543           30 
 1181000   0.77054127   -8.4608125     197.5742  0.013941165  0.013524434           62 
 1182000    0.7801891   -8.4436749    197.66728  0.013935933  0.013511312           46 
 1183000   0.79450145   -8.4488156      197.261  0.013895534  0.013498218           60 
 1184000   0.77802049   -8.4644388    197.56682  0.013905322  0.013485131           57 
 1185000   0.77105794   -8.4448851    197.34883  0.013878258  0.013472069           57 
 1186000   0.79681879   -8.4502739    197.41981  0.013871544  0.013458995           81 
 1187000   0.77875345   -8.4409733    197.57157  0.013870512  0.013445962           98 
 1188000   0.75363665   -8.4482223    197.49487  0.013853456  0.013432934           67 
 1189000   0.77438671   -8.4429586    197.13475  0.013816565  0.013419921           62 
 1190000   0.76605596   -8.4235357    197.52454  0.013832251  0.013406885           63 
 1191000   0.76890426   -8.4364774    197.86633  0.013844551  0.013393906           81 
 1192000   0.77155653   -8.4376339    197.80494  0.013828645  0.013380916           88 
 1193000   0.78104058   -8.4319198    197.84949  0.013820165  0.013367968          115 
 1194000   0.78872682   -8.4597355    197.34363  0.013773285  0.013355023           91 
 1195000   0.78536459   -8.4297101    197.62111   0.01378111  0.013342068           89 
 1196000   0.76110465   -8.4442976    197.42287  0.013755774  0.013329166           86 
 1197000   0.77899195   -8.4172156    197.53664  0.013752203  0.013316305           94 
 1198000   0.78799474   -8.4485973    197.47499  0.013736435  0.013303422           99 
 1199000   0.77437549   -8.4275983    197.97961  0.013760051  0.013290588           82 
 1200000   0.77710647   -8.4268609    197.72936  0.013731206  0.013277783           68 
 1201000   0.77581805   -8.4670504    197.32573  0.013691766  0.013264965           90 
 1202000   0.77071253   -8.4554444    197.52373  0.013694102  0.013252178           92 
 1203000   0.78062683   -8.4652225    197.46558  0.013678691  0.013239349           48 
 1204000   0.77526816   -8.4645142    198.00782   0.01370486  0.013226565           81 
 1205000   0.77023948   -8.4221885    197.87216  0.013684105  0.013213804           87 
 1206000   0.77306758   -8.4273502    197.81634  0.013668901  0.013201084           70 
 1207000   0.76082376   -8.4303443    197.78085  0.013655126  0.013188374           68 
 1208000   0.78665734   -8.4087421    198.03064  0.013661054  0.013175693           50 
 1209000   0.77681344   -8.4407437    197.90129  0.013640839  0.013163019           72 
 1210000   0.77125879   -8.4533309    197.93377  0.013631802  0.013150327           66 
 1211000   0.77157573   -8.4377512    198.00704  0.013625588  0.013137692           59 
 1212000   0.77097402   -8.4440353    198.14285  0.013623683   0.01312502           93 
 1213000   0.75326317   -8.4592744    197.99943  0.013602599  0.013112352           69 
 1214000   0.75838923   -8.4312783    198.50846  0.013626336  0.013099698           63 
 1215000   0.76445799   -8.4695284    198.04237  0.013583153  0.013087045           94 
 1216000   0.76959724   -8.4855585    197.84639  0.013558552  0.013074388           92 
 1217000   0.76683685   -8.4676868    198.04762   0.01356119  0.013061746           94 
 1218000   0.77930631   -8.4691584    198.00829  0.013547365  0.013049131           76 
 1219000   0.76736642   -8.4611595    197.78044  0.013520676  0.013036483           76 
 1220000   0.76649533   -8.4776408    197.55817   0.01349441  0.013023914           82 
 1221000   0.78742003    -8.466499    198.27432  0.013532236  0.013011356           70 
 1222000   0.74968835    -8.462731    198.17818  0.013514606   0.01299883           69 
 1223000   0.76370248   -8.4483585    197.76562  0.013475444  0.012986308           97 
 1224000   0.75627875   -8.5026829    198.01131  0.013481162  0.012973765           92 
 1225000   0.76245153   -8.4609255    197.96759  0.013467183  0.012961201           93 
 1226000   0.78000312   -8.4712002    198.01118  0.013459161  0.012948655           95 
 1227000   0.76137863   -8.4804204    197.92543  0.013442368  0.012936115          142 
 1228000   0.76493353   -8.4777254    198.20784  0.013450586  0.012923596          107 
 1229000   0.76614824    -8.467187     197.7876  0.013411147  0.012911095          107 
 1230000   0.74313791   -8.4668783    198.23807  0.013430763  0.012898653          114 
 1231000   0.76755166   -8.4803622     198.3345  0.013426381   0.01288618          119 
 1232000   0.76365999   -8.4806661    197.98762   0.01339202  0.012873712          142 
 1233000   0.76934604   -8.4627418     197.8679  0.013373067  0.012861268          129 
 1234000   0.78380868   -8.4779229    198.37883  0.013396733  0.012848837          127 
 1235000   0.78075083   -8.4940746    198.16705  0.013371595  0.012836419          126 
 1236000   0.75700618   -8.4937446    198.57991  0.013388613  0.012824034          165 
 1237000    0.7650717   -8.4620559    197.70319  0.013318727  0.012811667          182 
 1238000    0.7600049    -8.495779    198.12658  0.013336469  0.012799345          169 
 1239000   0.75778953   -8.4442906    198.98625  0.013383525  0.012787012          173 
 1240000   0.75628357   -8.4781986    198.72361  0.013355082  0.012774695          175 
 1241000   0.76673077   -8.4965406    198.03753  0.013298249    0.0127624          172 
 1242000   0.75831211    -8.484915    198.58606  0.013324346  0.012750107          185 
 1243000   0.76126076     -8.50051    198.13932  0.013283677  0.012737815          191 
 1244000   0.76199975    -8.518209    197.97998  0.013262325  0.012725499          196 
 1245000   0.75285492   -8.4957899     198.4172  0.013280937  0.012713193          176 
 1246000   0.73950561   -8.5050974    197.97748   0.01324087  0.012700834          205 
 1247000   0.77073139   -8.5142438    197.98555   0.01323079  0.012688518          209 
 1248000   0.76676978   -8.5172326    197.51714  0.013188911   0.01267616          193 
 1249000    0.7551109   -8.5156301    197.89499  0.013203562  0.012663812          201 
 1250000   0.76834989   -8.5270852    197.80591  0.013187061  0.012651491          176 
 1251000    0.7531833   -8.5287018    198.07017  0.013194123  0.012639234          176 
 1252000   0.74887966   -8.5288819    197.96613  0.013176659  0.012626968          193 
 1253000    0.7472861   -8.4984829    198.31344  0.013189242  0.012614763          204 
 1254000   0.76130096   -8.5384881    197.99511   0.01315757  0.012602551          224 
 1255000   0.75052597   -8.5317647    198.21771  0.013161866  0.012590347          228 
 1256000   0.74671251   -8.5244531    198.17244  0.013148384  0.012578136          216 
 1257000   0.77844938    -8.530277    198.11596  0.013134179  0.012565949          222 
 1258000   0.75584389   -8.5310083     198.1414  0.013125424  0.012553783          231 
 1259000   0.74836131   -8.5408478    197.74371  0.013088675  0.012541552          224 
 1260000   0.75954558    -8.540643    198.03175  0.013097338  0.012529357          224 
 1261000   0.73913891    -8.541429    197.96945  0.013082834  0.012517148          226 
 1262000   0.75577106    -8.548872    197.96496  0.013072171  0.012504947          235 
 1263000   0.75982526   -8.5375821    197.92726  0.013059334  0.012492789          247 
 1264000   0.73457781   -8.5401286    197.62311   0.01302895  0.012480639          246 
 1265000   0.75491141   -8.5361553    198.24469  0.013059597  0.012468499          229 
 1266000   0.76420716   -8.5619919    198.07209  0.013037921  0.012456385          252 
 1267000   0.74991115   -8.5595144    198.26243  0.013040149  0.012444226          268 
 1268000   0.73648083   -8.5817565    197.51665  0.012980853  0.012432082          265 
 1269000   0.74824173   -8.5615818    197.69284  0.012982193  0.012419968          298 
 1270000   0.74195654   -8.5545791    197.56298   0.01296345  0.012407833          335 
 1271000   0.76127784   -8.5776169    198.07205  0.012986628   0.01239572          268 
 1272000   0.74821999   -8.5474189    197.81452  0.012959547  0.012383637          290 
 1273000   0.73733246   -8.5885685    197.73346   0.01294406  0.012371567          308 
 1274000   0.75493502   -8.5383369     198.4555  0.012981129  0.012359502          280 
 1275000   0.74798748   -8.5668528    197.85169  0.012931483   0.01234745          294 
 1276000   0.74033266   -8.5637736    198.10612  0.012937965  0.012335428          347 
 1277000   0.75914023   -8.5622839    198.37678  0.012945496  0.012323447          311 
 1278000   0.72620973   -8.5798507    198.03799  0.012913275   0.01231148          312 
 1279000   0.74398282   -8.5776296    197.94095  0.012896856  0.012299481          317 
 1280000   0.72687777   -8.5799306    198.08779  0.012896341  0.012287522          343 
 1281000   0.73838568   -8.5930568    197.56519  0.012852276  0.012275541          369 
 1282000   0.74097574   -8.5999354    198.02589  0.012872198  0.012263586          345 
 1283000   0.73732389   -8.5972888     197.9667   0.01285832  0.012251672          335 
 1284000   0.72832488   -8.5785369     198.2372  0.012865862  0.012239753          323 
 1285000   0.74402729   -8.5928181    198.18901  0.012852724  0.012227815          336 
 1286000   0.75188655   -8.5719562    198.06928  0.012834972   0.01221594          366 
 1287000   0.74551754   -8.5992009    198.10707  0.012827445  0.012204073          362 
 1288000   0.74460152   -8.6071378    197.76212  0.012795168  0.012192147          360 
 1289000   0.74113264   -8.6075378    198.17334  0.012811827  0.012180262          364 
 1290000   0.72873783   -8.6560135    197.61328  0.012765716  0.012168357          388 
 1291000   0.73765195   -8.5858771    198.05167  0.012784125   0.01215649          393 
 1292000   0.72735315   -8.6245204    197.89753  0.012764288  0.012144634          374 
 1293000   0.75550946   -8.6204141    198.09196  0.012766948  0.012132773          363 
 1294000   0.74238167   -8.6070233    197.68847  0.012731097  0.012120896          386 
 1295000   0.74164001   -8.6302535    197.64784  0.012718651  0.012108997          394 
 1296000   0.72152347   -8.6222658    197.63819  0.012708217   0.01209713          376 
 1297000   0.72658321   -8.6016757    197.89946  0.012715206  0.012085285          377 
 1298000   0.73199246   -8.5819076    197.91564  0.012706448  0.012073465          403 
 1299000   0.72350024   -8.6130234    197.85139  0.012692545  0.012061671          420 
 1300000   0.73573234   -8.6350306    197.88788  0.012685121  0.012049878          399 
 1301000   0.72834443   -8.6239803    197.91843  0.012677327   0.01203813          459 
 1302000   0.72411788   -8.5970854     198.0705  0.012677323  0.012026406          442 
 1303000   0.72060822   -8.6010341    197.91732  0.012657798  0.012014732          408 
 1304000   0.74244056   -8.6076956    197.85286  0.012643971   0.01200304          386 
 1305000   0.72512016   -8.6109878    198.11187  0.012650822  0.011991353          437 
 1306000   0.73643308   -8.6248963    197.98419  0.012632988  0.011979706          436 
 1307000   0.72695156   -8.6069314    197.88031  0.012616699  0.011968052          412 
 1308000   0.71641957   -8.5920554    198.49245  0.012646053  0.011956387          506 
 1309000   0.73435817    -8.597928    198.25925  0.012621546  0.011944791          471 
 1310000   0.73633415   -8.6436049    197.79557  0.012582416  0.011933197          408 
 1311000   0.72632474   -8.6241897    198.05974   0.01258961  0.011921606          456 
 1312000   0.74380597   -8.6409716    198.28463  0.012594298   0.01190997          435 
 1313000   0.73898314   -8.6352715    198.32965  0.012587564  0.011898371          442 
 1314000   0.73662998   -8.6272509    198.46401  0.012586505  0.011886767          446 
 1315000   0.71772517    -8.633704    197.84895  0.012537956  0.011875202          481 
 1316000   0.74957861   -8.6367004    197.82858  0.012527139  0.011863644          445 
 1317000   0.71589939   -8.6449796    197.53804  0.012499243  0.011852114          489 
 1318000   0.72435258   -8.6365467    197.88162  0.012511483   0.01184058          462 
 1319000   0.71917432   -8.6063452    198.40306  0.012534942  0.011829071          472 
 1320000   0.72553923   -8.6424571    198.39755  0.012525098  0.011817577          492 
 1321000   0.74265261   -8.6291709    198.27511  0.012507892  0.011806108          463 
 1322000   0.73682439   -8.6202687    198.04875  0.012484162  0.011794644          442 
 1323000   0.72929773   -8.6157338    198.34277  0.012493246  0.011783174          496 
 1324000   0.73906134   -8.6264093    198.47303  0.012492009  0.011771725          488 
 1325000   0.72208506   -8.6419767    197.58803   0.01242692  0.011760236          514 
 1326000     0.718958   -8.6398855    197.80709  0.012431315  0.011748759          503 
 1327000   0.71649667   -8.6621843    197.73359  0.012417332  0.011737284          529 
 1328000   0.73154896    -8.635952    198.06006  0.012428467  0.011725835          529 
 1329000   0.72893801   -8.6583327    198.00904  0.012415917  0.011714362          523 
 1330000   0.72840191    -8.652335    197.95772  0.012403366  0.011702895          525 
 1331000   0.71695459   -8.6550327    197.86796  0.012388427  0.011691455          513 
 1332000   0.71953977   -8.6589913    197.51609  0.012357113  0.011680006          536 
 1333000   0.71885337    -8.689653    197.51918  0.012348036  0.011668535          533 
 1334000   0.70968425   -8.6381764     197.8873  0.012361776  0.011657071          502 
 1335000   0.71852586   -8.6925549    197.76653  0.012344977  0.011645621          511 
 1336000   0.73462584   -8.6732885    197.92062  0.012345348  0.011634175          508 
 1337000   0.73568177   -8.6554278    197.64278  0.012318797  0.011622749          545 
 1338000   0.72314103   -8.6542856    198.00313  0.012332033  0.011611345          535 
 1339000    0.7181827   -8.6798095    197.89766   0.01231626  0.011599965          519 
 1340000   0.71549844    -8.654326    197.99268  0.012312978  0.011588586          520 
 1341000   0.71201541   -8.6704435    197.51324  0.012274002  0.011577175          559 
 1342000   0.71339614   -8.6795384    197.61367  0.012271092  0.011565772          523 
 1343000   0.70963302   -8.7012849    197.53317   0.01225696  0.011554371          536 
 1344000   0.72288777   -8.7238395    197.17799  0.012225818  0.011542944          535 
 1345000   0.70934062   -8.6715632    197.43899  0.012232899  0.011531556          548 
 1346000   0.71359808   -8.6902575    197.71739  0.012241047  0.011520178          547 
 1347000   0.71313876   -8.6932778     197.5493   0.01222156  0.011508824          530 
 1348000   0.70104463   -8.7070417    197.33981  0.012199543  0.011497469          573 
 1349000   0.72555263   -8.6741405    197.01564  0.012170474  0.011486125          524 
 1350000   0.70603286   -8.6936497    197.56016  0.012195071  0.011474807          547 
 1351000   0.72289857    -8.674671     197.4121  0.012176912  0.011463527          550 
 1352000   0.70609352   -8.6729749    197.31514  0.012161929  0.011452256          588 
 1353000   0.70088002   -8.6940709    197.16443  0.012143658   0.01144097          578 
 1354000   0.70917845   -8.7156431    197.65922  0.012165142  0.011429693          573 
 1355000   0.71270424   -8.7026821    197.02463  0.012117136  0.011418439          548 
 1356000   0.72291301   -8.6899295    197.79691  0.012155661  0.011407167          579 
 1357000   0.70466121   -8.6907154    197.26933  0.012114304  0.011395926          550 
 1358000   0.71433906   -8.6934976    197.74917  0.012134829  0.011384682          560 
 1359000    0.7130403   -8.6941303    197.61852  0.012117888  0.011373454          586 
 1360000   0.71106606   -8.7117235    197.94645  0.012129072  0.011362262          611 
 1361000   0.71740012   -8.7065412    197.67988  0.012103838  0.011351077          561 
 1362000   0.71506585   -8.7117526    197.09562  0.012059204  0.011339892          562 
 1363000   0.71879735   -8.7222217    197.50846  0.012075597  0.011328712          589 
 1364000   0.70664672   -8.6913181    197.65386  0.012075627  0.011317546          602 
 1365000   0.72699963   -8.7090694    197.68409  0.012068626  0.011306391          615 
 1366000   0.70216424   -8.6816843     197.5865  0.012053837  0.011295239          594 
 1367000   0.70905723    -8.725676    197.51673  0.012040766  0.011284077          597 
 1368000   0.70227488    -8.713456    197.53154  0.012032866  0.011272913          609 
 1369000   0.70239828   -8.7197916    197.37527  0.012014565  0.011261779          627 
 1370000   0.71189838   -8.7213064    196.73222   0.01196668  0.011250665          639 
 1371000   0.70410975   -8.7127355    197.27484  0.011990934  0.011239581          611 
 1372000   0.69997384   -8.7139841    196.91347  0.011960245  0.011228503          612 
 1373000   0.69837261   -8.7132282    197.28734  0.011974226  0.011217407          625 
 1374000   0.70414016   -8.7529387    197.07862  0.011952852  0.011206317          613 
 1375000   0.69775342    -8.714665    197.46107  0.011967338  0.011195232          604 
 1376000      0.68715   -8.6930655    197.40077  0.011954988  0.011184168          621 
 1377000   0.70550129   -8.7294728    197.23855  0.011936489  0.011173104          672 
 1378000   0.70109565   -8.7577679    196.80163  0.011901405  0.011162026          650 
 1379000   0.71168944   -8.7291206    197.22905  0.011918603  0.011150969          688 
 1380000   0.69921684   -8.7033957    197.83144  0.011946343  0.011139932          684 
 1381000   0.71306656   -8.7294104    197.52696  0.011919319   0.01112891          646 
 1382000   0.70039146   -8.7574409    197.01225  0.011879658  0.011117895          644 
 1383000   0.70837082    -8.751912    196.92011  0.011865516  0.011106868          658 
 1384000   0.70006149   -8.7346963    196.83887  0.011852052  0.011095843          660 
 1385000   0.70980049   -8.7789585    196.65031  0.011832149  0.011084831          685 
 1386000    0.6891525   -8.7600603     196.9778  0.011843302  0.011073827          675 
 1387000   0.69906231   -8.7676526     196.9719  0.011834409   0.01106283          706 
 1388000   0.70074716   -8.7455561    197.08965  0.011832952  0.011051855          691 
 1389000   0.69520666   -8.7352102    197.10314  0.011825242  0.011040898          692 
 1390000   0.67955159    -8.772041    196.97236  0.011808894  0.011029963          707 
 1391000   0.70255257   -8.7604073    196.90005  0.011796073  0.011019028          682 
 1392000   0.67622417   -8.7422517    196.45684  0.011761066  0.011008117          675 
 1393000    0.7038355   -8.7364031    197.04135   0.01178759  0.010997214          732 
 1394000   0.69462304   -8.7324077    197.25549  0.011791935  0.010986355          689 
 1395000   0.69439714   -8.7528104    197.00483  0.011768508  0.010975478          725 
 1396000   0.69741464   -8.7533612    197.04313  0.011762365  0.010964598          667 
 1397000   0.69281113   -8.7530949    197.28635  0.011768453  0.010953761          729 
 1398000    0.6920606   -8.7437897    196.93375  0.011739017  0.010942928          709 
 1399000   0.68911132    -8.755578    196.93131  0.011730481  0.010932101          726 
 1400000   0.68057626   -8.7658044    197.34237   0.01174657  0.010921293          735 
 1401000    0.6887838    -8.742014    197.30252  0.011735815  0.010910469          748 
 1402000   0.68715931   -8.7554694    196.78394   0.01169662  0.010899681          729 
 1403000   0.69061942   -8.7440536    197.24044  0.011715398  0.010888897          759 
 1404000   0.68605541    -8.762447    197.22124  0.011705914  0.010878128          736 
 1405000   0.70254971    -8.771377    197.24273  0.011698857  0.010867381          776 
 1406000   0.67582432   -8.7681048    196.85908  0.011667798  0.010856615          816 
 1407000   0.72072993   -8.7565456    197.25992  0.011683246  0.010845875          757 
 1408000   0.67373145   -8.7618979    196.66154  0.011639532  0.010835158          777 
 1409000    0.6852162    -8.775305    197.15609  0.011660521  0.010824461          805 
 1410000   0.67883763   -8.7292691    197.27247   0.01165913  0.010813766          787 
 1411000   0.69399413   -8.7560939    197.23133  0.011648437  0.010803077          790 
 1412000   0.67891897   -8.7718074    197.02539  0.011628033  0.010792415          807 
 1413000   0.69503608   -8.7828809     196.7006  0.011600649  0.010781765          837 
 1414000   0.66670238    -8.751201    196.94163   0.01160665  0.010771128          820 
 1415000   0.69324561   -8.7780522     197.1584  0.011611213  0.010760501          839 
 1416000   0.69306591   -8.7862813    196.84316  0.011584461  0.010749881          862 
 1417000   0.69807902   -8.7862248    197.12225  0.011592699  0.010739286          854 
 1418000   0.67624792   -8.7849146    196.98709  0.011576581  0.010728689          868 
 1419000    0.6684556    -8.780626    197.04578  0.011571869  0.010718118          900 
 1420000    0.6903494   -8.8019158    196.98663  0.011560248  0.010707556          892 
 1421000   0.69974037     -8.80585    197.00189  0.011553008  0.010697012          878 
 1422000   0.67627327   -8.7653859    196.95459  0.011542111  0.010686473          916 
 1423000   0.68254312   -8.8004664    196.77173  0.011523292  0.010675938          875 
 1424000   0.67418927    -8.768917    197.25613  0.011543547  0.010665404          882 
 1425000   0.67531045   -8.7692491    196.98379   0.01151952  0.010654879          859 
 1426000   0.67948145   -8.8068841    196.90284  0.011506711  0.010644341          952 
 1427000   0.68282521   -8.8122993    196.91022  0.011499078  0.010633821          916 
 1428000   0.68575929   -8.7969498    196.97661    0.0114949  0.010623312          920 
 1429000   0.68652082   -8.7998041    196.97129  0.011486546  0.010612794          900 
 1430000   0.67842668   -8.8051114    196.56509  0.011454842  0.010602293          947 
 1431000   0.68183353   -8.8371805     196.6944  0.011454367  0.010591812          896 
 1432000   0.66549907   -8.8295413    196.84278  0.011455004  0.010581326          926 
 1433000   0.68906829   -8.8179164    196.76827  0.011442677  0.010570881          950 
 1434000   0.69459934   -8.8047386    196.79443  0.011436217  0.010560436          935 
 1435000    0.6862767   -8.8409081     196.7242   0.01142417      0.01055          941 
 1436000   0.67922669   -8.8079244    196.42781  0.011399014  0.010539565          954 
 1437000   0.68725165   -8.8365256    196.73366  0.011408818  0.010529135          957 
 1438000   0.68367135   -8.8228042    196.32319  0.011377097  0.010518711          968 
 1439000   0.68022795   -8.8304596    196.45934  0.011377076  0.010508289          971 
 1440000   0.69082012   -8.8243008    196.69392   0.01138275  0.010497868         1000 
 1441000   0.69245119   -8.8037243    196.80004  0.011380988  0.010487468          999 
 1442000   0.68733411   -8.8272654    196.57958  0.011360355  0.010477078          996 
 1443000    0.6782689    -8.838911    196.80041  0.011365235  0.010466695          950 
 1444000   0.67911119   -8.8369331    196.73671  0.011353688  0.010456306          979 
 1445000    0.6648538   -8.8180462    197.41751  0.011385093  0.010445954          993 
 1446000   0.67987771   -8.8284138    196.69537  0.011335602  0.010435596          979 
 1447000   0.66857547   -8.8285134    196.56641  0.011320341  0.010425285          977 
 1448000   0.67591374   -8.8110505    196.70079  0.011320257  0.010414972         1028 
 1449000   0.67118288   -8.8471613    197.01877  0.011330732  0.010404665          995 
 1450000   0.67632306   -8.8487764    196.60636  0.011299216  0.010394393         1047 
 1451000   0.67337426   -8.8519717     196.8025  0.011302693  0.010384124         1004 
 1452000   0.66915934   -8.8460331    196.33046  0.011267818  0.010373844         1079 
 1453000   0.66973014   -8.8380148    196.50749  0.011270216  0.010363596         1059 
 1454000   0.68052199   -8.8526419    196.39817    0.0112562  0.010353346         1064 
 1455000   0.68841266   -8.8341776    197.02377  0.011284294  0.010343136         1043 
 1456000   0.66392064   -8.8559698    196.25328  0.011232445  0.010332922         1079 
 1457000   0.66188601   -8.8608707    196.53069  0.011240602  0.010322698         1053 
 1458000   0.67310746   -8.8523639    196.45955  0.011228827  0.010312505         1064 
 1459000   0.66570748   -8.8698468     196.5298  0.011225143   0.01030232         1108 
 1460000   0.66311585   -8.8542194     196.7417  0.011229549  0.010292131         1093 
 1461000   0.66715644   -8.8723603    196.40307  0.011202548  0.010281956         1112 
 1462000   0.68109694   -8.8578696    196.62407  0.011207482  0.010271791         1076 
 1463000   0.67203967   -8.8457274     196.3977  0.011186928  0.010261651         1122 
 1464000    0.6619919    -8.871259    196.26865   0.01117194  0.010251491         1138 
 1465000   0.65677697   -8.8816784    196.34095  0.011168427  0.010241339         1092 
 1466000   0.68129142   -8.8654781    196.20548  0.011153108  0.010231204         1099 
 1467000   0.66943025    -8.859335    196.52336  0.011163563  0.010221085         1120 
 1468000   0.66517891   -8.8696635    196.04907  0.011129034  0.010210974         1117 
 1469000   0.67220804   -8.8595356    196.62351  0.011154045  0.010200872         1101 
 1470000   0.68191318   -8.8549097    196.36931  0.011132047  0.010190804         1136 
 1471000   0.67428429   -8.8876638    196.73384   0.01114513  0.010180744         1109 
 1472000   0.66979133   -8.8702642    196.61481   0.01113082  0.010170696         1175 
 1473000   0.65536135    -8.872962    196.29703  0.011105286  0.010160646         1154 
 1474000   0.66374706   -8.8694449    196.53966  0.011111469   0.01015062         1213 
 1475000   0.66546237   -8.8864768      196.634  0.011109266  0.010140597         1199 
 1476000   0.66042332   -8.8788595    196.24753   0.01107992  0.010130576         1242 
 1477000   0.65859866   -8.8923385     196.2208   0.01107091  0.010120582         1196 
 1478000   0.66659305   -8.8808176    196.16088  0.011060041  0.010110595         1208 
 1479000   0.66443161   -8.8697935    196.38456  0.011065166  0.010100617         1233 
 1480000   0.65663826   -8.8739195    195.98682  0.011035294  0.010090659         1242 
 1481000   0.66419161   -8.8942593    196.38927  0.011050488  0.010080708         1270 
 1482000   0.66955214   -8.8919852    196.65834  0.011058162  0.010070763         1238 
 1483000   0.66131046   -8.8910533     195.9215    0.0110093  0.010060816         1299 
 1484000    0.6507585   -8.8865973    195.89328  0.011000297  0.010050894         1270 
 1485000   0.64617397   -8.8857182    196.59076  0.011032029  0.010040966         1260 
 1486000   0.66281449   -8.9212624    196.13517  0.010999056  0.010031052         1257 
 1487000   0.65718321   -8.9189742    196.04258   0.01098647   0.01002114         1287 
 1488000   0.65894892   -8.8770661    195.95346  0.010974096  0.010011241         1250 
 1489000   0.65847613   -8.9112131    196.12406  0.010976274  0.010001345         1281 
 1490000   0.65367351   -8.9114825    195.81259  0.010951487 0.0099914665         1276 
 1491000   0.66234417   -8.9166325    196.13253  0.010962024 0.0099815925         1302 
 1492000   0.64525867   -8.9097843    195.99786  0.010947155  0.009971738         1283 
 1493000   0.67723171   -8.9006555    196.00389  0.010940159 0.0099618881         1316 
 1494000   0.65763156   -8.9091737    196.18421  0.010942894  0.009952031         1322 
 1495000   0.64423968   -8.9302716    196.49731  0.010953027 0.0099421774         1412 
 1496000   0.66316726   -8.8971498    195.73868  0.010903447 0.0099323467         1384 
 1497000   0.66038064   -8.9230964    196.03957  0.010912913 0.0099225168         1360 
 1498000   0.65449099   -8.9444113    195.88081  0.010896796 0.0099126845         1414 
 1499000   0.65047202   -8.9277914    195.81195  0.010885699 0.0099028501         1386 
 1500000    0.6529651   -8.9329039    195.83266  0.010879592 0.0098930227         1420 
 1501000   0.64783076   -8.9192555    195.50619  0.010854219 0.0098832197         1420 
 1502000     0.653426   -8.9396585    195.32712  0.010837057 0.0098734264         1423 
 1503000   0.66460351   -8.9244407     196.1338  0.010874573 0.0098636395         1439 
 1504000   0.64798951   -8.9447164    195.58233  0.010836787 0.0098538742         1433 
 1505000    0.6385843   -8.9247938    195.68071  0.010835034  0.009844116         1480 
 1506000   0.65759461   -8.9349488    195.88583   0.01083919 0.0098343888         1553 
 1507000   0.65377963   -8.9579408    195.55235  0.010813556 0.0098246687         1586 
 1508000   0.65447978   -8.9233882    195.91936  0.010826667 0.0098149494         1573 
 1509000   0.64222671   -8.9631726     195.8445  0.010815358 0.0098052536         1526 
 1510000   0.64582852   -8.9475515    195.75023  0.010802993 0.0097955472         1507 
 1511000   0.64662071   -8.9499249     196.0468  0.010812199 0.0097858559         1471 
 1512000   0.64780068   -8.9632205    195.82999  0.010793099 0.0097761669         1534 
 1513000   0.65987857   -8.9625958    195.91912  0.010790874 0.0097664955         1535 
 1514000   0.63398868   -8.9667057    195.82729  0.010778693 0.0097568063         1601 
 1515000   0.65321768   -8.9493878    195.98131   0.01078005 0.0097471353         1532 
 1516000   0.65611026   -8.9535579    195.47887   0.01074532 0.0097374646         1598 
 1517000   0.64450477   -8.9610989    195.68946  0.010749805 0.0097278048         1554 
 1518000   0.64998464   -8.9700919    195.60153  0.010737897 0.0097181478         1609 
 1519000   0.65500366   -8.9571862    195.97722  0.010751439 0.0097084945         1571 
 1520000   0.63730946   -8.9904167    195.54025  0.010720409 0.0096988675         1590 
 1521000   0.65717091   -8.9650243    195.65766  0.010719793 0.0096892413         1596 
 1522000   0.63784115   -8.9762157    195.42131  0.010699809 0.0096796223         1615 
 1523000   0.64371926   -8.9696534    195.44337   0.01069399 0.0096700346         1604 
 1524000   0.64840708   -8.9976852    195.43914  0.010686742 0.0096604404         1631 
 1525000   0.62511788   -8.9977802     195.5609  0.010686388 0.0096508416         1642 
 1526000   0.63904659   -8.9957832    195.50839  0.010676518 0.0096412668         1668 
 1527000   0.64242422   -8.9771492    195.38513  0.010662799 0.0096316972         1595 
 1528000   0.65780244   -8.9777246    195.18411  0.010644858 0.0096221503         1612 
 1529000   0.64323306   -8.9886734    195.48889  0.010654507 0.0096125999         1656 
 1530000   0.64663089   -9.0019507    195.14865  0.010629012 0.0096030656         1658 
 1531000   0.63240038   -8.9812267    195.50432  0.010641428 0.0095935362         1687 
 1532000   0.64449446   -8.9990331    195.27881  0.010622216 0.0095839961         1725 
 1533000   0.64379645   -8.9971371    195.43749  0.010623912  0.009574466         1675 
 1534000   0.64660582   -8.9786418    195.16113  0.010601973   0.00956495         1731 
 1535000   0.64906059   -8.9825056    195.46492  0.010611559 0.0095554522         1688 
 1536000   0.63056879   -8.9933425    195.31772  0.010596664 0.0095459627         1707 
 1537000   0.64229709   -8.9887292    195.21694  0.010584306 0.0095364825         1700 
 1538000   0.64004527   -9.0102034    195.30367  0.010582124 0.0095270152         1827 
 1539000   0.63417472   -9.0071619    195.31327  0.010575767 0.0095175612         1804 
 1540000    0.6382747    -9.010679    195.28966  0.010567622 0.0095081055         1823 
 1541000   0.64500869   -9.0054402    195.30998  0.010561863 0.0094986704         1795 
 1542000   0.63308322   -9.0196392    194.86609  0.010531025 0.0094892397         1822 
 1543000   0.64511778   -9.0138034     194.8896   0.01052547 0.0094798291         1855 
 1544000   0.64229279    -9.004887    195.12254  0.010531225 0.0094704166         1815 
 1545000   0.63931042   -9.0102401    195.03263  0.010519559  0.009461002         1844 
 1546000   0.65558036   -9.0235075    195.03266  0.010512756  0.009451624         1868 
 1547000   0.63789431   -9.0006865    195.21902     0.010516 0.0094422634         1802 
 1548000   0.63621544   -8.9875942    194.96513  0.010495539 0.0094328896         1867 
 1549000   0.63438121   -9.0280637    195.24436  0.010503785 0.0094235229         1892 
 1550000   0.62956576   -9.0026397    195.18284  0.010493701 0.0094141694         1951 
 1551000   0.63274691   -9.0345291    194.95783  0.010474846 0.0094047997         1898 
 1552000   0.62637606   -9.0318471    194.89462  0.010464702 0.0093954492         1915 
 1553000   0.62733265   -9.0249225     195.2085  0.010474807 0.0093860916         1899 
 1554000   0.65982304    -9.031778    195.17395  0.010466214 0.0093767525         1981 
 1555000   0.64101307   -9.0250551    194.91587  0.010445652 0.0093674173         1962 
 1556000   0.64162047   -9.0657272    194.85383  0.010435616 0.0093580963         1914 
 1557000   0.64503777   -9.0381122    195.08974  0.010441541 0.0093487842         1990 
 1558000   0.63503038   -9.0448945    194.92514  0.010426034 0.0093394993         1966 
 1559000   0.61505733   -9.0437394    194.41568  0.010392115  0.009330214         2002 
 1560000   0.62922126   -9.0136818    194.97084  0.010415109 0.0093209468         1975 
 1561000   0.63846587   -9.0201507    195.41567  0.010432184 0.0093116911         2017 
 1562000   0.63064462   -9.0311145    195.07994  0.010407594   0.00930246         2003 
 1563000   0.62293647    -9.006135     195.2663  0.010410871  0.009293242         1956 
 1564000   0.62220202   -9.0323356    194.94525  0.010387109 0.0092840168         1928 
 1565000   0.62299521   -9.0691145    195.09224  0.010388298 0.0092747919         1986 
 1566000   0.63260139   -9.0567987    194.72209  0.010361967 0.0092655683         1932 
 1567000   0.61944276    -9.045454    194.75828  0.010357279 0.0092563595         1962 
 1568000   0.62170208   -9.0567591    194.86051  0.010356107 0.0092471632         1987 
 1569000   0.63132585   -9.0701949    194.54574  0.010332788 0.0092379671         2006 
 1570000    0.6374159   -9.0488411    194.96186  0.010348294  0.009228793         1949 
 1571000   0.63744552   -9.0620965    194.70151  0.010327897 0.0092196109         1989 
 1572000   0.61351192   -9.0598858    194.65303  0.010318757 0.0092104362         2056 
 1573000   0.62670044   -9.0690079    194.70527  0.010314964 0.0092012637         2052 
 1574000    0.6277527   -9.0685774    194.70514  0.010308404 0.0091921146         2037 
 1575000    0.6258124   -9.0688227    194.97722  0.010316255 0.0091829661         2011 
 1576000   0.63084374   -9.0740091    194.70459  0.010295293 0.0091738332         2030 
 1577000   0.62390111   -9.0539186      195.013  0.010305062 0.0091647101         1989 
 1578000   0.62126492   -9.0651254    194.66766  0.010280295  0.009155588         2034 
 1579000   0.61641637    -9.073987    194.64074  0.010272363 0.0091464766         2023 
 1580000   0.63031365   -9.0775027    194.23949  0.010244699 0.0091373712         2025 
 1581000   0.62987686   -9.0494126    194.46041  0.010249864 0.0091282838         2073 
 1582000   0.62232267   -9.0801799    194.78534    0.0102605  0.009119218         2047 
 1583000   0.61198823   -9.0773845    194.78968  0.010254247 0.0091101637         2092 
 1584000   0.62398502     -9.07838    194.63045  0.010239397 0.0091011057         2093 
 1585000   0.61021507   -9.0746178    194.68143  0.010235617 0.0090920592         2138 
 1586000   0.60844397   -9.0750179    194.38776  0.010213733 0.0090830228         2157 
 1587000    0.6189985   -9.1150794    194.31822  0.010203645 0.0090740008         2133 
 1588000   0.61550732   -9.0893177    194.47542  0.010205469 0.0090649849         2116 
 1589000   0.62129745   -9.0899846    194.16473  0.010182753 0.0090559878         2105 
 1590000   0.63159231   -9.0897386    194.27413  0.010182082 0.0090469998         2147 
 1591000   0.61776146   -9.0881031    194.45009  0.010184899 0.0090380218         2156 
 1592000   0.61313248   -9.1003665    194.27138  0.010169147 0.0090290547         2157 
 1593000   0.61142918   -9.1098215    194.28607  0.010163532 0.0090200925         2149 
 1594000   0.61234553   -9.0970488    194.06725  0.010145716 0.0090111247         2158 
 1595000   0.60729429   -9.1001442    194.53399   0.01016374 0.0090021799         2157 
 1596000   0.62246791   -9.1122535    194.40216  0.010150489  0.008993245         2204 
 1597000   0.61231157   -9.1123818    194.57181  0.010152985 0.0089843186         2195 
 1598000   0.61359511   -9.1109301     194.4075  0.010138063 0.0089754039         2194 
 1599000   0.61640505   -9.1036924    194.21745  0.010121818 0.0089664964         2183 
 1600000   0.61826474    -9.099874    194.11867  0.010110347 0.0089575879         2207 
 1601000   0.60271507   -9.1059056    194.35692  0.010116434 0.0089486994         2195 
 1602000   0.62121291   -9.1005861    194.49367  0.010117232  0.008939827         2191 
 1603000   0.62879107   -9.1273736    193.92267  0.010081237 0.0089309589         2207 
 1604000   0.59592124   -9.1002553    194.32162  0.010095678 0.0089220854         2214 
 1605000   0.60965625   -9.1227962    194.25354  0.010085853 0.0089132293         2280 
 1606000   0.62838318   -9.1221716    194.26806  0.010080327 0.0089043884         2213 
 1607000   0.62541304   -9.1118563    193.85364  0.010052564 0.0088955535         2179 
 1608000   0.61273369   -9.1257874    194.24591  0.010066641 0.0088867239         2248 
 1609000    0.6061766   -9.1326834    194.02271  0.010048825 0.0088779159         2229 
 1610000   0.60678388   -9.1463922     193.9143  0.010036972  0.008869104         2249 
 1611000   0.60873818   -9.1254114    194.37427  0.010054535 0.0088603055         2222 
 1612000   0.61735226    -9.141947    193.80275  0.010018753  0.008851524         2260 
 1613000   0.60950582    -9.129083    194.05724  0.010025689 0.0088427456         2269 
 1614000   0.61591318   -9.1225907    194.34771  0.010034475 0.0088339783         2223 
 1615000   0.61236511   -9.1224288    194.14677  0.010017893 0.0088252177         2282 
 1616000   0.60554168   -9.1436519    194.00609   0.01000444 0.0088164693         2214 
 1617000    0.6143822   -9.1190734    194.19098  0.010007781 0.0088077516         2297 
 1618000   0.60309826   -9.1223595     194.4587  0.010015384  0.008799045         2221 
 1619000   0.60802911   -9.1176211    194.32217   0.01000217 0.0087903316         2250 
 1620000   0.61376836   -9.1336829    194.14738 0.0099870053  0.008781644         2326 
 1621000   0.60407716    -9.115353    194.17743 0.0099823891 0.0087729653         2309 
 1622000   0.61271958   -9.1465524    194.05312 0.0099698478 0.0087642933         2348 
 1623000    0.5825199   -9.1388414    194.12242 0.0099672633 0.0087556253         2253 
 1624000   0.61795798   -9.1210966    194.10869 0.0099604211 0.0087469602         2260 
 1625000    0.6060433   -9.1377262    193.78852  0.009937873 0.0087383133         2256 
 1626000   0.60156055    -9.170122    193.75938 0.0099302676 0.0087296679         2282 
 1627000   0.61317175   -9.1260263    194.08571 0.0099408784 0.0087210261         2231 
 1628000   0.60376815   -9.1583678    194.32024 0.0099467774 0.0087124032         2298 
 1629000   0.59467649   -9.1616244    193.67491 0.0099076588 0.0087037824         2325 
 1630000   0.60762198   -9.1698847    194.12088 0.0099243803 0.0086951731         2310 
 1631000   0.59695244   -9.1551338    193.94971 0.0099095497 0.0086865615         2357 
 1632000   0.59065725   -9.1446651    193.95308 0.0099036502 0.0086779617         2324 
 1633000   0.60761348   -9.1613398    194.04976 0.0099025188 0.0086693815         2293 
 1634000   0.60553638   -9.1564751    193.56183 0.0098715743   0.00866081         2333 
 1635000    0.6087764   -9.1515456     193.7417 0.0098747043 0.0086522384         2341 
 1636000   0.60549361   -9.1785384    193.68231 0.0098656431 0.0086436798         2353 
 1637000   0.58452931   -9.1677381    193.41497 0.0098460076 0.0086351289         2322 
 1638000   0.61473053   -9.1767255    193.67978 0.0098534689 0.0086265934         2373 
 1639000    0.6089222   -9.1649008    193.40671 0.0098335727 0.0086180616         2338 
 1640000   0.59999079   -9.1743571    194.17708 0.0098667218 0.0086095474         2357 
 1641000   0.58651998   -9.1536356    193.88669 0.0098459622 0.0086010502         2363 
 1642000   0.58712116   -9.1466752    193.64958 0.0098279323 0.0085925439         2315 
 1643000   0.60841422   -9.1840467    193.84347 0.0098317849 0.0085840619         2317 
 1644000   0.59960379    -9.182913    193.84539 0.0098259019 0.0085755875         2332 
 1645000   0.60104792   -9.1847075    193.23933 0.0097892266   0.00856712         2316 
 1646000   0.60406812   -9.1742676    193.51639 0.0097973061 0.0085586661         2292 
 1647000   0.60526157   -9.1803041    193.67902 0.0097995863 0.0085502145         2359 
 1648000   0.60129331   -9.1871711    193.36152  0.009777585 0.0085417775         2335 
 1649000   0.58262691   -9.1764489    193.83157 0.0097954097 0.0085333496         2335 
 1650000   0.59212163   -9.1673755    193.84392 0.0097900967 0.0085249429         2328 
 1651000   0.59627683   -9.1721132    193.60336  0.009772025 0.0085165448         2334 
 1652000   0.57736999   -9.1802351    193.52509 0.0097621614  0.008508163         2344 
 1653000   0.59072832   -9.1788427    193.50046 0.0097550144  0.008499784         2325 
 1654000   0.59154789   -9.1876144    193.57374 0.0097528084 0.0084914158         2337 
 1655000   0.59051623    -9.197339    193.64997 0.0097507538 0.0084830473         2349 
 1656000   0.59434287   -9.1820454    193.53633  0.009739147 0.0084746915         2333 
 1657000    0.5912685   -9.1734054    193.74395 0.0097437112 0.0084663442         2382 
 1658000   0.59143447   -9.1847259     193.9115 0.0097462557 0.0084580015         2387 
 1659000   0.59993305   -9.1800888    193.85335   0.00973746 0.0084496726         2374 
 1660000   0.60125857   -9.1734856    193.80701 0.0097292676 0.0084413559         2376 
 1661000   0.59385959   -9.1693915     193.7346 0.0097197771 0.0084330568         2321 
 1662000   0.58624885   -9.1984248    193.53477 0.0097039095 0.0084247557         2349 
 1663000   0.58561243   -9.1984208    193.46099  0.009694377  0.008416467         2317 
 1664000   0.60186733   -9.1781247    193.65727 0.0096983809  0.008408191         2363 
 1665000   0.59389855   -9.1930639    193.69402 0.0096943953 0.0083999201         2341 
 1666000   0.57461631   -9.1924741    193.79611 0.0096936827 0.0083916647         2357 
 1667000   0.57498194   -9.2053223    193.04441 0.0096502902  0.008383403         2354 
 1668000   0.58848461    -9.198302    193.46715 0.0096656252 0.0083751599         2353 
 1669000    0.5766466   -9.2132521    193.48612 0.0096607809 0.0083669288         2343 
 1670000   0.59285068   -9.1903902    193.11995 0.0096367238 0.0083587038         2361 
 1671000   0.58551394   -9.1870933    193.50017 0.0096499185 0.0083504891         2331 
 1672000   0.58147755   -9.2158349    193.56106 0.0096471819 0.0083422806         2382 
 1673000   0.59737813   -9.2017311    193.34956 0.0096308808 0.0083340811         2370 
 1674000   0.58251808   -9.1978298    193.53438 0.0096343279 0.0083258951         2399 
 1675000   0.57488694   -9.2111053    193.62001 0.0096328363 0.0083177214         2432 
 1676000   0.58450414    -9.219905    193.38833 0.0096155693  0.008309559         2369 
 1677000   0.58134916   -9.1989731     193.2727 0.0096040896 0.0083013975         2347 
 1678000   0.57877731    -9.220117    193.10979 0.0095902758 0.0082932457         2410 
 1679000   0.58604623   -9.1944897    193.09992 0.0095840739 0.0082851015         2431 
 1680000   0.59022213   -9.2149799    193.52934 0.0095996695 0.0082769835         2380 
 1681000   0.57968807   -9.2070361    193.46218 0.0095906295 0.0082688587         2386 
 1682000   0.58556503    -9.206663    193.38059 0.0095808852  0.008260749         2430 
 1683000    0.5723326   -9.2230994    193.45461 0.0095788579 0.0082526508         2372 
 1684000   0.58186953   -9.2153493    193.39672 0.0095703047 0.0082445579         2384 
 1685000   0.58143233   -9.2252955    193.22618 0.0095561911 0.0082364825         2407 
 1686000   0.57614601   -9.2222141    193.43521 0.0095608547  0.008228411         2429 
 1687000   0.57464062   -9.2027466     193.3856 0.0095527366 0.0082203569         2373 
 1688000   0.58675731   -9.2010578    193.17268 0.0095365662  0.008212312         2407 
 1689000    0.5850927   -9.1893532    193.31916 0.0095381468 0.0082042766         2344 
 1690000   0.57403751   -9.2217074     193.5603 0.0095443933 0.0081962567         2395 
 1691000   0.57726777   -9.2184274    193.24965 0.0095234402 0.0081882512         2383 
 1692000    0.5799873   -9.2386082    192.90704 0.0095009379  0.008180233         2438 
 1693000    0.5830304    -9.205829    193.41489 0.0095203232 0.0081722344         2388 
 1694000   0.56548413   -9.2040798    193.36537 0.0095122671 0.0081642478         2408 
 1695000   0.58208146   -9.2175374    193.17838  0.009497462  0.008156278         2408 
 1696000   0.58676651   -9.1932026    192.81632 0.0094740725 0.0081483146         2407 
 1697000   0.57549938   -9.2115706    193.39299 0.0094968077 0.0081403604         2432 
 1698000   0.58649208   -9.2228882    193.33499 0.0094883683 0.0081324141         2372 
 1699000   0.58514038   -9.2254657    193.31321 0.0094817153 0.0081244648         2406 
 1700000   0.56586049   -9.2285088    193.31485 0.0094762182 0.0081165393         2439 
 1701000   0.57700736   -9.2170739    193.58762 0.0094840106 0.0081086244         2397 
 1702000   0.56898535   -9.2479212    193.39155 0.0094688381 0.0081007167         2443 
 1703000   0.56893587   -9.2063487    193.28198 0.0094579163 0.0080928257         2460 
 1704000   0.56338024   -9.2257461    193.02276 0.0094396889 0.0080849297         2446 
 1705000   0.56947249    -9.226464     193.0034 0.0094332064 0.0080770511         2473 
 1706000   0.56694635   -9.2388758    192.84914 0.0094201418 0.0080691826         2438 
 1707000   0.57318089   -9.2178869    193.32144 0.0094376803 0.0080613244         2417 
 1708000   0.57968977   -9.2569641    192.92989 0.0094130509 0.0080534661         2417 
 1709000   0.57067384   -9.2200027    193.09055 0.0094153768 0.0080456302         2443 
 1710000   0.57359175   -9.2457558    193.15491 0.0094130074  0.008037798         2436 
 1711000   0.57194247   -9.2332786    193.03288 0.0094015624 0.0080299737         2427 
 1712000   0.56642991   -9.2177924    193.20388 0.0094043944 0.0080221704         2451 
 1713000   0.56262287   -9.2198537    193.39071 0.0094079931 0.0080143802         2437 
 1714000   0.57040069    -9.218618    192.85879 0.0093766428 0.0080065872         2454 
 1715000   0.57282591   -9.2166374    193.43422 0.0093991361 0.0079988127         2488 
 1716000   0.56445791    -9.248435     192.7918  0.009362461 0.0079910376         2465 
 1717000   0.56928359   -9.2374535    193.04339 0.0093692192 0.0079832726         2442 
 1718000   0.56585362   -9.2452433    193.28066 0.0093752747  0.007975514         2487 
 1719000   0.56621015   -9.2552482    193.02153 0.0093572587 0.0079677599         2491 
 1720000   0.56176548   -9.2406416    193.09227 0.0093552457 0.0079600217         2415 
 1721000   0.56408822   -9.2378682     193.1657 0.0093533651 0.0079522903         2435 
 1722000   0.57382429   -9.2545697    193.26594 0.0093527846 0.0079445705         2439 
 1723000   0.57424834   -9.2432066    193.19934 0.0093441354 0.0079368589         2484 
 1724000   0.56584644   -9.2480195    192.92831 0.0093256146 0.0079291623         2524 
 1725000   0.56358265   -9.2614481    192.94161 0.0093208505 0.0079214695         2434 
 1726000   0.56437286   -9.2550146    192.99897 0.0093182196 0.0079137891         2413 
 1727000   0.56689721   -9.2524689      193.089 0.0093171686 0.0079061067         2454 
 1728000   0.57166578   -9.2465668    192.76046 0.0092959326 0.0078984329         2473 
 1729000   0.58600735    -9.255344     192.9727 0.0093007858 0.0078907766         2439 
 1730000   0.56490417   -9.2619037     193.0172 0.0092975528 0.0078831312         2507 
 1731000   0.55449947   -9.2422693    192.90052 0.0092865644 0.0078754892         2450 
 1732000   0.56451646   -9.2532103    193.08346  0.009290005 0.0078678599         2459 
 1733000   0.55734079   -9.2502717     192.5846 0.0092606561 0.0078602365         2455 
 1734000   0.56278875   -9.2530919    192.85686 0.0092683996 0.0078526301         2473 
 1735000   0.55997222   -9.2421512    192.92095  0.009266136   0.00784503         2471 
 1736000   0.57055494   -9.2625349    192.94094 0.0092617576 0.0078374369         2441 
 1737000   0.55740121   -9.2607175    192.85792 0.0092524431 0.0078298547         2413 
 1738000   0.55671323   -9.2516186    192.96268 0.0092521422  0.007822284         2447 
 1739000   0.54552311   -9.2529251    192.51359 0.0092253015 0.0078147239         2455 
 1740000   0.55183877   -9.2618542    193.05943 0.0092461414 0.0078071646         2441 
 1741000   0.55318369   -9.2763788    192.48882 0.0092135181  0.007799609         2438 
 1742000    0.5612785   -9.2372423    193.04081 0.0092346349 0.0077920725         2470 
 1743000   0.55585974   -9.2648675    193.03156 0.0092288946  0.007784545         2471 
 1744000    0.5499732   -9.2685072     192.5298 0.0091996274 0.0077770336         2481 
 1745000   0.55442757    -9.253767    192.60237  0.009197821 0.0077695248         2480 
 1746000   0.56897915   -9.2623695    192.66139 0.0091953697 0.0077620294         2477 
 1747000   0.55052056    -9.262879     192.7906 0.0091962697 0.0077545393         2470 
 1748000   0.54747845   -9.2743874    193.07699  0.009204662 0.0077470651         2538 
 1749000   0.55660144   -9.2864292     192.8908  0.009190528 0.0077395941         2510 
 1750000   0.55319737   -9.2618817    192.62008 0.0091723846 0.0077321309         2516 
 1751000   0.55023138   -9.2489784    192.79693 0.0091755631 0.0077246806         2513 
 1752000   0.54552823    -9.265759    192.95188 0.0091776957 0.0077172367         2502 
 1753000   0.54298933   -9.2689991    192.70262 0.0091606114  0.007709807         2502 
 1754000   0.54863367    -9.278861    192.55394 0.0091483248 0.0077023848         2496 
 1755000   0.55081239   -9.2732248    192.88683 0.0091589188  0.007694974         2542 
 1756000   0.54997205   -9.2621949    192.83153 0.0091510787 0.0076875728         2537 
 1757000   0.55857764   -9.2899339    192.42624 0.0091266476 0.0076801733         2546 
 1758000    0.5513267   -9.2831708    192.82404 0.0091403131  0.007672783         2484 
 1759000   0.54840564   -9.2629231    192.63169 0.0091260041 0.0076654021         2463 
 1760000   0.54913387   -9.2712093    192.60274 0.0091194479 0.0076580281         2520 
 1761000   0.53227809    -9.270654    192.92657 0.0091295934 0.0076506622         2501 
 1762000   0.55255837   -9.2890228    192.61488 0.0091096706 0.0076433107         2538 
 1763000   0.55477606   -9.2819223    192.84885 0.0091155628 0.0076359702         2542 
 1764000    0.5489768   -9.2793611    193.01751  0.009118363 0.0076286388         2545 
 1765000   0.53820486   -9.2599051    192.94861 0.0091099437 0.0076213122         2566 
 1766000   0.55719562   -9.2854047     192.7471 0.0090952765 0.0076139993         2506 
 1767000   0.54018333   -9.2688186    193.08717  0.009106167 0.0076066905         2549 
 1768000   0.54366196   -9.2978957    192.47085 0.0090719669 0.0075993909         2544 
 1769000   0.54353553   -9.2918898    192.62682 0.0090741858 0.0075920961         2539 
 1770000    0.5405464   -9.2868716    192.70258 0.0090726263 0.0075848157         2497 
 1771000   0.55256913   -9.2910782     192.6045 0.0090628884 0.0075775454         2514 
 1772000   0.54131176    -9.290355    192.70212 0.0090623644 0.0075702914         2554 
 1773000   0.55145033   -9.2715775    192.48334 0.0090469702 0.0075630513         2507 
 1774000   0.54576586   -9.2865363    192.58026 0.0090464235 0.0075558167         2524 
 1775000    0.5430703   -9.2776757      192.559 0.0090403285 0.0075485876         2543 
 1776000   0.54057521   -9.2875711     192.5697 0.0090357406 0.0075413741         2529 
 1777000   0.53728597   -9.2924691    192.86043 0.0090442894  0.007534164         2536 
 1778000   0.55118412   -9.2902031    192.42183 0.0090186458  0.007526958         2533 
 1779000   0.55024205   -9.2872163    192.80056 0.0090313172 0.0075197628         2534 
 1780000    0.5435338   -9.3038082    192.85027 0.0090285707 0.0075125709         2553 
 1781000   0.53086697   -9.2835185    192.71878 0.0090173487 0.0075053887         2540 
 1782000   0.56148095   -9.2790468    192.54486 0.0090041552  0.007498226         2592 
 1783000   0.54841805   -9.2912057    192.62714 0.0090029508  0.007491069         2572 
 1784000   0.54956691   -9.2893901    192.38068 0.0089863921 0.0074839192         2573 
 1785000   0.54504864   -9.3028471    192.39316 0.0089819403 0.0074767782         2571 
 1786000   0.53136926   -9.3067678    192.57858 0.0089855625 0.0074696489         2568 
 1787000   0.54165669   -9.3027118    192.54246 0.0089788502 0.0074625196         2556 
 1788000   0.54456607   -9.3089516    192.30285 0.0089626609 0.0074554108         2524 
 1789000   0.54166102   -9.3195721    192.63073 0.0089729241 0.0074483028         2526 
 1790000   0.53021943   -9.2937666    192.36768 0.0089556649 0.0074412042         2523 
 1791000   0.54231826   -9.2939359    192.65214 0.0089639001 0.0074341135         2602 
 1792000   0.55723539   -9.2842762    192.75205  0.008963544 0.0074270358         2552 
 1793000    0.5354644   -9.3037396    192.60894 0.0089518933 0.0074199633         2582 
 1794000   0.53865982   -9.3051826    192.70111 0.0089511851 0.0074128929         2557 
 1795000   0.54125078   -9.3093726    192.44175 0.0089341576 0.0074058345         2578 
 1796000   0.53143793   -9.2999781    192.16615 0.0089163953 0.0073987835         2581 
 1797000   0.54443298   -9.2972128    192.68708 0.0089355908 0.0073917459         2596 
 1798000   0.53547572   -9.3065688    192.54661 0.0089241107 0.0073847131         2577 
 1799000   0.53895607   -9.3016519    192.30347 0.0089078872 0.0073776936         2532 
 1800000   0.54620347   -9.3118218    192.84825 0.0089281595 0.0073706823         2609 
 1801000   0.53381303   -9.2982008    192.53999 0.0089089391  0.007363678         2599 
 1802000   0.53277676   -9.3106413    192.71282 0.0089119874 0.0073566868         2576 
 1803000    0.5269494   -9.3158132    192.41747 0.0088933939 0.0073496976         2600 
 1804000   0.52822779   -9.3093637    192.21791 0.0088792455 0.0073427232         2587 
 1805000   0.53576652   -9.3008782    192.59121 0.0088915611 0.0073357536         2565 
 1806000   0.53194035     -9.30695    192.25789 0.0088712574  0.007328796         2586 
 1807000   0.53843094   -9.3193102     192.2169 0.0088644578 0.0073218482         2537 
 1808000   0.52964936   -9.3126004    192.43769 0.0088697315 0.0073149089         2579 
 1809000   0.53464504   -9.3135811    192.59058 0.0088718713 0.0073079769         2537 
 1810000   0.53912184   -9.3189054    192.57059 0.0088660493 0.0073010432         2583 
 1811000   0.52378076   -9.3159857    192.33689 0.0088503997 0.0072941184         2588 
 1812000   0.52443675   -9.3155621    192.42872 0.0088497386 0.0072872027         2613 
 1813000   0.52132058   -9.3091081    192.53341 0.0088496697 0.0072802915         2618 
 1814000   0.52671232   -9.3078204    192.76723 0.0088555323 0.0072733956         2594 
 1815000   0.52643534   -9.3083274    192.16991 0.0088232283 0.0072665088         2587 
 1816000   0.53206665   -9.2989706    192.27745 0.0088233044 0.0072596322         2602 
 1817000   0.52046201   -9.3143846    192.39989 0.0088240641 0.0072527602         2597 
 1818000   0.51129784   -9.3228851    192.28626 0.0088140017 0.0072459045         2596 
 1819000   0.53283776   -9.3070648    192.31054 0.0088102684 0.0072390517         2625 
 1820000   0.53874204   -9.3238108    192.66205 0.0088215223 0.0072322107         2588 
 1821000   0.52591652   -9.3311839    192.10894 0.0087913664 0.0072253754         2580 
 1822000    0.5236865   -9.3161353    192.11567  0.008786849 0.0072185502         2633 
 1823000   0.51521327   -9.3234198    192.47858 0.0087986185 0.0072117387         2613 
 1824000   0.52087428   -9.3094651    192.36083 0.0087884151 0.0072049338         2620 
 1825000   0.52308096   -9.3290279    192.40643 0.0087856818 0.0071981298         2613 
 1826000   0.53520252   -9.3168143    192.31394 0.0087766494 0.0071913369         2595 
 1827000   0.51850311   -9.3131453    192.55051 0.0087826358 0.0071845533         2620 
 1828000   0.50684577    -9.342728    192.46376 0.0087738769 0.0071777682         2600 
 1829000   0.52919324   -9.3462599     192.2496 0.0087593222  0.007170996         2657 
 1830000   0.53309885   -9.3138631    192.27468 0.0087556775 0.0071642357         2614 
 1831000   0.52133924   -9.3354499    191.77166 0.0087280021 0.0071574838         2612 
 1832000   0.52076456   -9.3155531    192.29797 0.0087471785 0.0071507383         2616 
 1833000   0.52289406   -9.3339546    192.21657 0.0087387057 0.0071440069         2633 
 1834000   0.52154389   -9.3351685    192.19287 0.0087328637 0.0071372745         2685 
 1835000   0.51752106    -9.347792    192.38678 0.0087369111 0.0071305575         2673 
 1836000   0.51928828    -9.329512    192.54131  0.008739166 0.0071238403         2722 
 1837000    0.5220969   -9.3388962    191.86935 0.0087039263  0.007117131         2631 
 1838000   0.51784359    -9.326495     192.3943 0.0087229913 0.0071104263         2668 
 1839000   0.51421271   -9.3343381    192.10566 0.0087051684 0.0071037299         2681 
 1840000   0.52233432   -9.3452555    192.33547 0.0087108454 0.0070970455         2669 
 1841000   0.51795232   -9.3575356    192.05898 0.0086935984 0.0070903662         2656 
 1842000   0.51280286    -9.363594    192.00108 0.0086862595 0.0070836967         2685 
 1843000    0.5302029   -9.3640634    191.91132 0.0086774876 0.0070770327         2679 
 1844000   0.50853025    -9.345306    192.02412 0.0086778797 0.0070703732         2697 
 1845000   0.52008642   -9.3523571    192.31104 0.0086861354 0.0070637234         2695 
 1846000   0.51501977   -9.3519486    192.23056 0.0086777969 0.0070570848         2697 
 1847000    0.5039891   -9.3454126    191.82749 0.0086549129 0.0070504578         2715 
 1848000     0.517189   -9.3546665    191.90808 0.0086538636  0.007043837         2687 
 1849000   0.51170494   -9.3631927    192.10196 0.0086579213 0.0070372139         2744 
 1850000   0.51617184   -9.3595172    191.96125 0.0086469033 0.0070305923         2711 
 1851000   0.51333391   -9.3554239    191.82268  0.008635993 0.0070239841         2731 
 1852000   0.52929161   -9.3517635    191.66249 0.0086241223 0.0070173819         2730 
 1853000    0.5241141    -9.381108    191.80703 0.0086259684 0.0070107891         2726 
 1854000   0.52267653   -9.3664022    191.81151 0.0086215169 0.0070042009         2641 
 1855000   0.51293971    -9.360297    192.00084 0.0086253748 0.0069976275         2698 
 1856000   0.51748307   -9.3614006    191.97908 0.0086197501  0.006991058         2725 
 1857000   0.50374894   -9.3768157    191.83628 0.0086087006 0.0069845004         2748 
 1858000   0.50899163    -9.351949    192.24211 0.0086222688 0.0069779488         2740 
 1859000   0.50814311   -9.3568855    191.99606 0.0086066013 0.0069713966         2766 
 1860000   0.52520187    -9.366901    191.90313 0.0085978103  0.006964865         2695 
 1861000    0.4994622   -9.3595772    191.80232 0.0085886765 0.0069583397         2700 
 1862000   0.50818928   -9.3720979    191.99395 0.0085926401 0.0069518199         2704 
 1863000   0.51184394   -9.3786687    191.88396 0.0085831081 0.0069453123         2719 
 1864000   0.50931107   -9.3713068    191.73443  0.008571818 0.0069388053         2696 
 1865000    0.5141616   -9.3674466    191.98976 0.0085786308 0.0069323085         2674 
 1866000   0.50824776   -9.3690068    191.83934  0.008567316 0.0069258271         2668 
 1867000   0.51620097   -9.3763491    192.04339  0.008571835 0.0069193447         2707 
 1868000   0.50359488   -9.3777669    191.78437 0.0085556908 0.0069128768         2705 
 1869000   0.50185949   -9.3767502    192.05713 0.0085632751 0.0069064167         2718 
 1870000   0.50567984   -9.3745671    191.83539 0.0085488142 0.0068999616         2694 
 1871000   0.50783888   -9.3755337    191.83444 0.0085442028 0.0068935191         2706 
 1872000   0.50216125   -9.3763155    191.93448 0.0085440918  0.006887084         2740 
 1873000   0.50191389   -9.3703762    191.73755 0.0085307682 0.0068806531         2709 
 1874000   0.50320062   -9.3793622    191.50151 0.0085157197 0.0068742241         2730 
 1875000   0.50261178   -9.3775008    191.98341 0.0085325959 0.0068678099         2707 
 1876000   0.49903083   -9.3698955    191.91333 0.0085249346 0.0068614089         2724 
 1877000   0.50642755    -9.357521    191.84549 0.0085173809 0.0068550028         2720 
 1878000    0.4889394   -9.3682733    191.96124 0.0085179818 0.0068486146         2709 
 1879000   0.51224201     -9.37603    191.95141 0.0085130125  0.006842232         2725 
 1880000   0.49776172    -9.385365    191.90053 0.0085062292 0.0068358547         2748 
 1881000   0.51105323   -9.3735573    191.87261   0.00850047  0.006829489         2726 
 1882000   0.50466663   -9.3820906    191.74835 0.0084904512 0.0068231287         2737 
 1883000   0.51317908   -9.3657501    191.86421 0.0084910695 0.0068167754         2665 
 1884000   0.50245975   -9.3644521    191.69073 0.0084788892 0.0068104334         2716 
 1885000   0.49354647   -9.3903235    191.79498 0.0084789999 0.0068040966         2713 
 1886000   0.49867216   -9.4002496    191.70871 0.0084706924 0.0067977678         2751 
 1887000    0.4867152   -9.3772456    191.66185 0.0084641338 0.0067914434         2749 
 1888000   0.49552711   -9.3824141    191.80485 0.0084659629 0.0067851307         2717 
 1889000   0.50648712   -9.3924294     191.5314 0.0084494179 0.0067788229         2711 
 1890000   0.49771807   -9.3946689    191.92819 0.0084624422 0.0067725264         2695 
 1891000    0.4901309   -9.3794159     191.6799 0.0084470256 0.0067662355         2765 
 1892000   0.50557779   -9.3927183    191.32911 0.0084271101  0.006759946         2758 
 1893000   0.49262049   -9.3771014    191.64773 0.0084366849 0.0067536664         2734 
 1894000   0.48813954   -9.3879306    191.59382 0.0084298582  0.006747401         2744 
 1895000   0.50083899   -9.3886222    191.43157  0.008418275 0.0067411436         2713 
 1896000   0.49377006    -9.372696    191.61131 0.0084217348 0.0067348919         2695 
 1897000   0.50547289   -9.3909708    191.47898  0.008411482  0.006728651         2749 
 1898000   0.50154091    -9.386587    191.84357 0.0084230579  0.006722418         2725 
 1899000    0.5003442   -9.3875772    191.52317 0.0084045625 0.0067161928         2753 
 1900000   0.50236889   -9.3752321    191.58779 0.0084029734 0.0067099696         2729 
 1901000   0.49971822    -9.386658    191.54531 0.0083966908 0.0067037577         2714 
 1902000   0.49115631   -9.3821457    191.67214 0.0083978329 0.0066975518         2760 
 1903000   0.49031098   -9.3802014    191.21855 0.0083735571  0.006691353         2735 
 1904000   0.48988518   -9.3948463     191.5988 0.0083858016 0.0066851618         2758 
 1905000   0.49303422   -9.3839274    191.64304 0.0083833353  0.006678981         2747 
 1906000   0.49443895   -9.3974103     191.5838 0.0083763468 0.0066728083         2755 
 1907000   0.51022288   -9.3861088    191.73015 0.0083783494 0.0066666456         2712 
 1908000   0.48776834   -9.3754015    191.59065 0.0083678655 0.0066604868         2733 
 1909000   0.48999171   -9.4027467    191.48752 0.0083589803 0.0066543397         2782 
 1910000   0.48289722   -9.3786381    191.73835 0.0083655474 0.0066481956         2704 
 1911000   0.48808701   -9.3987868    191.58617 0.0083545338 0.0066420615         2738 
 1912000   0.48846791   -9.4005875    191.46461 0.0083448664 0.0066359375         2690 
 1913000   0.48686438   -9.3897654     191.8129 0.0083556762  0.006629818         2717 
 1914000   0.47651922   -9.3997158    191.73971 0.0083481237 0.0066237056         2726 
 1915000   0.48748275   -9.3975028    191.64324 0.0083395666 0.0066176035         2745 
 1916000   0.50440134   -9.3990881    191.64139 0.0083351337 0.0066115107         2711 
 1917000   0.50341726   -9.4094902    191.66499 0.0083318116 0.0066054208         2749 
 1918000   0.48338747   -9.3986868    191.57618 0.0083236088 0.0065993379         2741 
 1919000   0.48879381   -9.4009428    191.55834 0.0083184966 0.0065932635         2724 
 1920000   0.48643043   -9.3863339    191.75928 0.0083228854 0.0065871932         2752 
 1921000   0.48107832   -9.4105728    191.58285 0.0083108994 0.0065811351         2763 
 1922000   0.50119497   -9.4039055    191.61133 0.0083078099 0.0065750871         2719 
 1923000   0.47549248   -9.3906687    191.64425 0.0083049164 0.0065690467         2752 
 1924000   0.48108604   -9.3993484    191.34202 0.0082875097 0.0065630076         2755 
 1925000   0.48477894   -9.3986585    191.44295 0.0082875734 0.0065569795         2737 
 1926000   0.47863411   -9.4020768    191.56899 0.0082887242 0.0065509613         2723 
 1927000   0.48427925   -9.4099661    191.63294 0.0082871881 0.0065449498         2744 
 1928000   0.48707279   -9.4077251    191.52758 0.0082783358 0.0065389381         2749 
 1929000    0.4769453    -9.429738    191.56703 0.0082757488 0.0065329349         2732 
 1930000   0.47688519   -9.4138519     191.4718  0.008267349  0.006526944         2723 
 1931000   0.47740971   -9.4221886    191.26971 0.0082543463 0.0065209537         2766 
 1932000   0.48323138   -9.4073293    191.61045 0.0082647711 0.0065149777         2768 
 1933000   0.47987903   -9.4099919    191.47122  0.008254493 0.0065090034         2762 
 1934000   0.47289999   -9.4191077     191.4473 0.0082491942 0.0065030367         2744 
 1935000   0.49118702   -9.4183431    191.41142  0.008243386 0.0064970814         2747 
 1936000    0.4881747   -9.4063376    191.54327 0.0082448032 0.0064911338         2707 
 1937000   0.48963095   -9.4244947     191.4701 0.0082373988 0.0064851913         2778 
 1938000   0.48983447   -9.4141727    191.71284 0.0082435861 0.0064792584         2750 
 1939000   0.48817354   -9.4111126    191.24657 0.0082192958  0.006473331         2744 
 1940000   0.47673522   -9.4294906    191.31953 0.0082181928 0.0064674052         2738 
 1941000   0.47128427      -9.4093     191.5849 0.0082253519 0.0064614902         2772 
 1942000   0.48479526   -9.4114831    191.19575 0.0082044178 0.0064555849         2745 
 1943000    0.4706226   -9.3991225    191.39216 0.0082086188 0.0064496827         2779 
 1944000   0.47750309   -9.4145289      191.562 0.0082116769 0.0064437934         2739 
 1945000   0.48508329    -9.420795    191.34294 0.0081980693 0.0064379047         2775 
 1946000   0.47608249   -9.4113265    191.64597 0.0082068334 0.0064320301         2737 
 1947000   0.46449239   -9.4121202    191.24937 0.0081856431  0.006426162         2763 
 1948000   0.47396668   -9.4238768    191.46844 0.0081908128 0.0064203003         2757 
 1949000    0.4698005   -9.4283326    191.29852 0.0081793448 0.0064144504         2766 
 1950000   0.47336721    -9.426026    191.54774 0.0081858008 0.0064085973         2731 
 1951000   0.47753681   -9.4318549    191.50635 0.0081798374 0.0064027584         2746 
 1952000   0.47439447   -9.4331192    191.44489  0.008173023  0.006396927         2773 
 1953000   0.46691998   -9.4080525    191.16272 0.0081567982 0.0063911016         2749 
 1954000   0.48003544   -9.4084648    191.51037 0.0081674499 0.0063852844         2773 
 1955000   0.48083005   -9.4145969     191.9253 0.0081809592 0.0063794739         2726 
 1956000   0.47282977     -9.42601    191.38371 0.0081537026 0.0063736718         2763 
 1957000    0.4767769   -9.4326951    191.09286 0.0081371515 0.0063678766         2756 
 1958000   0.46213483   -9.4201986    191.57341 0.0081534476 0.0063620883         2753 
 1959000   0.48135596   -9.4232526    191.24174 0.0081351769 0.0063563025         2725 
 1960000   0.46873969   -9.4169208    191.53627 0.0081435491  0.006350531         2740 
 1961000   0.47146339   -9.4217861    191.44598 0.0081355592 0.0063447648         2755 
 1962000   0.46620127   -9.4210779    191.42198 0.0081303934 0.0063390026         2753 
 1963000    0.4710341   -9.4408193    191.37863 0.0081244112  0.006333246         2755 
 1964000   0.47040636   -9.4287333    191.48028 0.0081245876 0.0063275022         2733 
 1965000   0.46889244    -9.419387    191.28879 0.0081123322 0.0063217591         2737 
 1966000   0.47473356   -9.4440576    191.25619 0.0081068239 0.0063160292         2748 
 1967000   0.47792535   -9.4339503    191.46524 0.0081115589 0.0063103034         2777 
 1968000    0.4644946   -9.4290889    191.15739 0.0080944016 0.0063045863         2754 
 1969000   0.46500586   -9.4425565    191.54369 0.0081066401 0.0062988743         2799 
 1970000   0.46470929   -9.4376332    191.39643 0.0080962956 0.0062931653         2758 
 1971000   0.45793279   -9.4393429    191.33207  0.008089467 0.0062874663         2754 
 1972000   0.46046275   -9.4304423    191.50522 0.0080926815 0.0062817757         2751 
 1973000   0.46149289   -9.4251093    191.17631  0.008074688 0.0062760905         2716 
 1974000   0.46902233   -9.4367061    191.21523 0.0080722403 0.0062704129         2728 
 1975000   0.45210038   -9.4404675    191.22189 0.0080684344 0.0062647441         2766 
 1976000   0.47525806      -9.4264     191.1018 0.0080592862 0.0062590833         2769 
 1977000   0.46371535   -9.4418783    191.19617 0.0080591879 0.0062534271         2776 
 1978000   0.45873736   -9.4343865    191.31876 0.0080602781 0.0062477775         2750 
 1979000   0.46071888   -9.4401657    191.50132 0.0080638927 0.0062421362         2759 
 1980000   0.45681786   -9.4276074    191.17207 0.0080459625 0.0062365002         2785 
 1981000   0.46547892   -9.4392327    191.19732 0.0080429633 0.0062308701         2746 
 1982000   0.46090275   -9.4453394    191.45155 0.0080495941 0.0062252415         2771 
 1983000   0.46476927   -9.4438018    191.18935 0.0080345165 0.0062196222         2758 
 1984000   0.45681726   -9.4321713    191.36702 0.0080379293 0.0062140081         2747 
 1985000   0.46357106   -9.4411659     191.3019  0.008031146 0.0062084058         2749 
 1986000   0.46720871   -9.4414085    191.28805 0.0080265209 0.0062028096         2738 
 1987000   0.46547842   -9.4327028     191.3258 0.0080240647 0.0061972179         2748 
 1988000    0.4639244   -9.4333775    191.08557 0.0080099585 0.0061916319         2758 
 1989000   0.44630152   -9.4394227    191.16994 0.0080094661 0.0061860571         2742 
 1990000   0.45512679   -9.4512376     191.2705 0.0080096524 0.0061804849         2740 
 1991000   0.45070968   -9.4307384    191.22416 0.0080036901 0.0061749209         2786 
 1992000   0.46030674   -9.4458333    191.59643 0.0080152457  0.006169365         2771 
 1993000   0.45785342    -9.449631    191.24436 0.0079965029 0.0061638123         2762 
 1994000    0.4633024   -9.4467726    191.28931 0.0079943709 0.0061582673         2761 
 1995000   0.46133509   -9.4319689    191.29211 0.0079904806 0.0061527307         2755 
 1996000    0.4569156   -9.4466193    191.09127 0.0079780922  0.006147203         2761 
 1997000   0.44987529   -9.4511721    190.81281 0.0079624777 0.0061416774         2758 
 1998000    0.4609894   -9.4501803    191.30243 0.0079789136 0.0061361604         2752 
 1999000   0.45739689   -9.4644329    191.17755 0.0079697162 0.0061306486         2769 
 2000000   0.45702283   -9.4557191    191.28837 0.0079703488 0.0061251436         2771 
 2001000   0.44965565   -9.4537916    191.22414 0.0079636908 0.0061196476         2743 
 2002000   0.45167449   -9.4651335    191.06424 0.0079530568 0.0061141567         2752 
 2003000   0.44360185    -9.446865     191.3845 0.0079624107 0.0061086726         2797 
 2004000   0.45029135   -9.4553002    191.03251 0.0079438005 0.0061031909         2756 
 2005000   0.44908008   -9.4510905    191.06119 0.0079410304 0.0060977196         2791 
 2006000   0.43545073   -9.4620006    190.83687 0.0079277529 0.0060922501         2768 
 2007000   0.46342658   -9.4499042    191.07675  0.007933763 0.0060867922         2776 
 2008000   0.44423332   -9.4487307    191.12374 0.0079317621  0.006081343         2764 
 2009000    0.4550386   -9.4486353     190.9539 0.0079207691 0.0060758946         2789 
 2010000    0.4581612    -9.457354    191.18212 0.0079262902 0.0060704518         2784 
 2011000   0.44502056   -9.4366354    191.02112 0.0079156769 0.0060650161         2784 
 2012000   0.45008044   -9.4514652    191.12242 0.0079159384 0.0060595872         2779 
Loop time of 5110.29 on 48 procs for 2000000 steps with 4000 atoms

Performance: 67628.235 tau/day, 391.367 timesteps/s
99.4% CPU use with 48 MPI tasks x no OpenMP threads

MPI task timing breakdown:
Section |  min time  |  avg time  |  max time  |%varavg| %total
---------------------------------------------------------------
Pair    | 356.78     | 390.14     | 432.57     | 100.0 |  7.63
Neigh   | 33.752     | 35.439     | 37.223     |  17.1 |  0.69
Comm    | 310.65     | 359.64     | 395.21     | 113.4 |  7.04
Output  | 5.33       | 5.332      | 5.3682     |   0.2 |  0.10
Modify  | 4259.5     | 4272.3     | 4288.6     |  11.0 | 83.60
Other   |            | 47.39      |            |       |  0.93

Nlocal:        83.3333 ave          90 max          76 min
Histogram: 2 3 6 6 3 9 2 9 4 4
Nghost:        2328.50 ave        2364 max        2296 min
Histogram: 3 4 7 5 4 9 7 5 2 2
Neighs:        15827.4 ave       18295 max       13594 min
Histogram: 4 4 5 8 5 5 7 4 2 4
FullNghs:      31655.9 ave       35129 max       28503 min
Histogram: 6 5 4 4 7 4 7 2 6 3

Total # of neighbors = 1519484
Ave neighs/atom = 379.87100
Neighbor list builds = 106500
Dangerous builds = 0

#clear
#
#next RN
#
#jump SELF
Total wall time: 1:25:13
