
units lj                  # Use reduced LJ style units
atom_style atomic         # Uncharged point particles
atom_modify map hash      # Needed for indexing of clusters etc
                          # Used to be able to find where atoms are in relation to each other.

lattice fcc 1.0 spacing 1 1 1
Lattice spacing in x,y,z = 1.5874011 1.5874011 1.5874011
region box block 0 10 0 10 0 10 units lattice
create_box 2 box
Created orthogonal box = (0.0000000 0.0000000 0.0000000) to (15.874011 15.874011 15.874011)
  3 by 4 by 4 MPI processor grid
create_atoms 1 box
Created 4000 atoms
  using lattice units in orthogonal box = (0.0000000 0.0000000 0.0000000) to (15.874011 15.874011 15.874011)
  create_atoms CPU = 0.003 seconds
set type 1 type/fraction 2 0.65 78393
Setting atom values ...
  2613 settings made for type/fraction
mass 1 1.0
mass 2 1.0
pair_style lj/cut  3.5
pair_modify tail  yes
pair_coeff 1  1  1.0  1.0   # Intearaction between 1 and 1 set with epsilon = 1 and sigma = 1
pair_coeff 1  2  1.5  0.8
pair_coeff 2  2  0.5  0.88

write_data data.0
System init for write_data ...
Neighbor list info ...
  update every 1 steps, delay 10 steps, check yes
  max neighbors/atom: 2000, page size: 100000
  master list distance cutoff = 3.8
  ghost atom cutoff = 3.8
  binsize = 1.9, bins = 9 9 9
  1 neighbor lists, perpetual/occasional/extra = 1 0 0
  (1) pair lj/cut, perpetual
      attributes: half, newton on
      pair build: half/bin/atomonly/newton
      stencil: half/bin/3d
      bin: standard
WARNING: Not all mixed pair coeffs generated from mixing. Use write_data with 'pair ij' option to store all pair coeffs. (../write_data.cpp:312)


#############################
#   M E L T   S Y S T E M   #
#############################

velocity all create 2.4 9580093 mom yes dist gaussian # Assign velocities
                                                    # Temperature 2.4, random number seed, zero linear momentum
                                                                                # Gaussian distribution

timestep 0.002   # simulation timestep
thermo 1000       # output thermodynamic data every 1000 steps bf 100

# Define a fix  in this case with index 1 applied to all
# particles in the simulation. This fix is for simulations
# in the anisotropic NPT ensemble. Note that we use the MTK
# correction.
fix 1 all npt temp 2.4 2.4 0.1 iso 5.68 5.68 0.5 mtk yes tchain 5 pchain 5 # Use NPT ensemble
                                                                         # Set temperature and pressure and damping
                                                                         # Numbers of thermostats in chain and in barostat
run 10000          # run for 10000 steps
Per MPI rank memory allocation (min/avg/max) = 3.642 | 3.644 | 3.648 Mbytes
Step Temp E_pair E_mol TotEng Press Volume 
       0          2.4   -4.4517567            0  -0.85265669   -3.9326408         4000 
    1000    2.4148062    -4.135924            0  -0.51462034     5.519609    3646.7781 
    2000    2.4108413   -4.2148878            0  -0.59952988    5.3760607    3621.4121 
    3000    2.4584848   -4.1469101            0  -0.46010474    5.9813003    3607.8642 
    4000    2.4191498   -4.1904333            0  -0.56261574    5.3819048    3632.6865 
    5000    2.3864609   -4.0940787            0  -0.51528227    5.6921296    3644.3162 
    6000    2.3841015   -4.1217348            0  -0.54647666    6.0405853    3613.0996 
    7000    2.4324168   -4.2177855            0  -0.57007244    5.5528451    3603.4175 
    8000    2.3900916   -4.2135288            0  -0.62928774    5.4724494    3605.2185 
    9000    2.3411973   -4.1644917            0  -0.65357365    5.5585026    3627.0624 
   10000    2.4247277   -4.1637476            0  -0.52756535    5.8469845    3606.7201 
Loop time of 2.72725 on 48 procs for 10000 steps with 4000 atoms

Performance: 633605.604 tau/day, 3666.699 timesteps/s
99.6% CPU use with 48 MPI tasks x no OpenMP threads

MPI task timing breakdown:
Section |  min time  |  avg time  |  max time  |%varavg| %total
---------------------------------------------------------------
Pair    | 1.198      | 1.2641     | 1.4216     |   3.6 | 46.35
Neigh   | 0.21626    | 0.22277    | 0.2455     |   1.0 |  8.17
Comm    | 0.81228    | 0.93293    | 1.037      |   4.4 | 34.21
Output  | 0.00025177 | 0.00025716 | 0.00033644 |   0.0 |  0.01
Modify  | 0.23605    | 0.29168    | 0.33476    |   5.1 | 10.70
Other   |            | 0.01552    |            |       |  0.57

Nlocal:        83.3333 ave          93 max          69 min
Histogram: 1 0 4 0 7 10 7 14 2 3
Nghost:        1755.35 ave        1782 max        1732 min
Histogram: 2 4 5 10 3 7 11 3 2 1
Neighs:        10587.4 ave       12009 max        8455 min
Histogram: 1 2 0 5 6 8 10 9 4 3

Total # of neighbors = 508194
Ave neighs/atom = 127.04850
Neighbor list builds = 902
Dangerous builds = 184

# Equilibrate just above the melting temperature to avoid step fn in T

fix 1 all npt temp 1.25 1.25 0.1 iso 5.68 5.68 0.5 mtk yes tchain 5 pchain 5
run 2000
Per MPI rank memory allocation (min/avg/max) = 3.644 | 3.646 | 3.650 Mbytes
Step Temp E_pair E_mol TotEng Press Volume 
   10000    2.4247277   -4.1637476            0  -0.52756535    5.8469845    3606.7201 
   11000    1.2536341   -6.1270589            0    -4.247078    5.6125597    2764.7324 
   12000    1.2523957   -6.1551098            0   -4.2769859    5.6116453    2758.9972 
Loop time of 0.926914 on 48 procs for 2000 steps with 4000 atoms

Performance: 372849.936 tau/day, 2157.696 timesteps/s
98.8% CPU use with 48 MPI tasks x no OpenMP threads

MPI task timing breakdown:
Section |  min time  |  avg time  |  max time  |%varavg| %total
---------------------------------------------------------------
Pair    | 0.29734    | 0.32222    | 0.36872    |   2.1 | 34.76
Neigh   | 0.041373   | 0.04289    | 0.044895   |   0.5 |  4.63
Comm    | 0.22683    | 0.27262    | 0.37933    |   5.9 | 29.41
Output  | 5.0078e-05 | 5.2319e-05 | 6.9147e-05 |   0.0 |  0.01
Modify  | 0.17667    | 0.28431    | 0.3219     |   5.7 | 30.67
Other   |            | 0.004819   |            |       |  0.52

Nlocal:        83.3333 ave          90 max          75 min
Histogram: 1 1 3 4 6 7 15 6 3 2
Nghost:        2110.52 ave        2130 max        2090 min
Histogram: 2 1 8 7 5 8 3 6 4 4
Neighs:        13835.4 ave       15390 max       12114 min
Histogram: 1 2 2 7 11 8 9 4 2 2

Total # of neighbors = 664100
Ave neighs/atom = 166.02500
Neighbor list builds = 141
Dangerous builds = 10

#############################
# L I N E A R  Q U E N C H  #
#############################

# Define solid atoms. This closely follows ten Wolde  Ruiz-Montero and Frenkel  Faraday Discuss  1996  104  93-110
# Compute components of the per-atom q6 vector
compute q6 all orientorder/atom degrees 1 6 components 6 nnn NULL cutoff 1.3 # compute the Q6 parameter.
                                                                             # Use all neighbours within 1.3 unit cell.

# get number of connections
compute coord_number all coord/atom orientorder q6 0.5

# An atom is solid if it has 8 or more connections (of a possible 14)
variable is_solid atom c_coord_number>=8
group solid dynamic all var is_solid    # Must be dynamic to update
dynamic group solid defined

# do clustering
compute cluster solid cluster/atom 1.3 # Create a cluster where all atoms within are solid and max 1.3 units from another member

# define chunks one chunk per cluster
compute clus_chunks solid chunk/atom c_cluster nchunk every compress yes  # Says which atoms are in which chunk

# count the size of each chunk
compute size_chunks solid property/chunk clus_chunks count


# Find the maximum entry in the vector of chunk sizes
variable max_n equal max(c_size_chunks)


# Thermo style which includes this variable
# thermo_style custom step temp pe vol v_max_n

thermo ${N}  # Print the thermo information every 100 steps
thermo 1000  

# Reset the npt fix at a lower temperature (below freezing)
fix 1  all npt temp  ${temp} ${temp}  0.1  iso  5.68  5.68  0.5  mtk yes tchain  5  pchain  5
fix 1  all npt temp  0.45 ${temp}  0.1  iso  5.68  5.68  0.5  mtk yes tchain  5  pchain  5
fix 1  all npt temp  0.45 0.45  0.1  iso  5.68  5.68  0.5  mtk yes tchain  5  pchain  5

dump dmp2 all dcd ${N} traj.dcd
dump dmp2 all dcd 1000 traj.dcd


compute msd all msd com yes
variable twopoint equal c_msd[4]/6/(step*dt+1.0e-6)
fix 9 all vector 10 c_msd[4]
variable fit equal slope(f_9)/6/(10*dt)
thermo_style custom step temp pe c_msd[4] v_twopoint v_fit v_max_n

fix 1 all npt temp 1.25 ${temp} 0.1 iso 5.68 5.68 0.5 mtk yes tchain 5 pchain 5
fix 1 all npt temp 1.25 0.45 0.1 iso 5.68 5.68 0.5 mtk yes tchain 5 pchain 5
run 5000000 # 5000000  # Run for this many steps
Neighbor list info ...
  update every 1 steps, delay 10 steps, check yes
  max neighbors/atom: 2000, page size: 100000
  master list distance cutoff = 3.8
  ghost atom cutoff = 3.8
  binsize = 1.9, bins = 8 8 8
  4 neighbor lists, perpetual/occasional/extra = 1 3 0
  (1) pair lj/cut, perpetual
      attributes: half, newton on
      pair build: half/bin/atomonly/newton
      stencil: half/bin/3d
      bin: standard
  (2) compute orientorder/atom, occasional
      attributes: full, newton on
      pair build: full/bin/atomonly
      stencil: full/bin/3d
      bin: standard
  (3) compute coord/atom, occasional
      attributes: full, newton on
      pair build: full/bin/atomonly
      stencil: full/bin/3d
      bin: standard
  (4) compute cluster/atom, occasional
      attributes: full, newton on
      pair build: full/bin/atomonly
      stencil: full/bin/3d
      bin: standard
Per MPI rank memory allocation (min/avg/max) = 9.845 | 9.851 | 9.855 Mbytes
Step Temp PotEng c_msd[4] v_twopoint v_fit v_max_n 
   12000    1.2523957   -6.1551098 3.9186665e-30 2.7212961e-32 8.3333333e+20            1 
   13000    1.2396593   -6.1297033   0.54253899 0.0034778139  0.044289981            4 
   14000    1.2358322   -6.1794586    1.0487641 0.0062426433   0.04277199            2 
   15000    1.2585206   -6.2264682    1.6115565 0.0089530915  0.043908095            4 
   16000    1.2312533   -6.1924814    2.1116133  0.010997985  0.044364483            3 
   17000    1.2498185   -6.2049443    2.6670719  0.013073882  0.044028599            2 
   18000    1.2349556   -6.1331092     3.154455  0.014603958  0.044046054            1 
   19000    1.2529205   -6.1562706     3.655645   0.01603353  0.043611707            1 
   20000     1.270243    -6.148816    4.2348104  0.017645043   0.04360936            3 
   21000    1.2304556   -6.2363663    4.6822168  0.018580225  0.043527393            2 
   22000    1.2286359   -6.2311235    5.1402699  0.019470719  0.043134717            4 
   23000    1.2793678   -6.1892088     5.644437  0.020450858  0.042911001            2 
   24000    1.2417437   -6.1851892    6.1477203  0.021346251  0.042676887            3 
   25000    1.2313663   -6.2527449    6.5546873  0.021848957  0.042416564            2 
   26000     1.267212   -6.1455383    7.0584734  0.022623312  0.042091719            1 
   27000    1.2474157   -6.1983019    7.4727969  0.023064187  0.041748643            3 
   28000     1.264143   -6.1809157    8.0128556  0.023847784  0.041537752            2 
   29000    1.2443975   -6.1912007    8.4597448  0.024309611   0.04139733            1 
   30000    1.2402664   -6.1437004     9.012164  0.025033789  0.041284574            3 
   31000    1.2442738   -6.1525481    9.5212677  0.025594805  0.041159786            3 
   32000    1.2465745   -6.2330666    9.9945385  0.026027444  0.041077269            2 
   33000    1.2375909   -6.1988091    10.545248  0.026629414  0.041026773            1 
   34000    1.2605162   -6.2054528    11.152436  0.027334402  0.041112742            4 
   35000    1.2489131   -6.2131552    11.692298  0.027838803  0.041260906            4 
   36000    1.2456365   -6.1694033     12.26448  0.028389999  0.041429705            2 
   37000     1.251809   -6.1826354    12.693955  0.028589988  0.041548033            4 
   38000    1.2489811   -6.2054304     13.14374  0.028823991  0.041615738            2 
   39000    1.2478856   -6.1950208    13.669876  0.029209136  0.041638706            1 
   40000    1.2629748   -6.2259667    14.076893  0.029326859  0.041666053            2 
   41000    1.2312809   -6.1721119      14.6055  0.029685975   0.04165363            5 
   42000    1.2454733   -6.2365285    15.017573  0.029796772  0.041628223            3 
   43000    1.2285377   -6.2208383    15.643383  0.030316633  0.041625572            2 
   44000      1.26021   -6.1983645    16.109628  0.030510659  0.041625115            2 
   45000    1.2290303   -6.2052536    16.604652  0.030749355  0.041632082            4 
   46000    1.2601635   -6.1849834    17.046767  0.030881824  0.041615845            3 
   47000    1.2227822    -6.233876    17.559563  0.031133977  0.041594316            2 
   48000    1.2658885   -6.2453655    17.985547  0.031224908  0.041573132            5 
   49000    1.2371368   -6.2171218    18.495043  0.031454154  0.041541522            2 
   50000    1.2621374   -6.1856202    18.919028  0.031531714  0.041506277            3 
   51000    1.2375564   -6.2128629    19.322484  0.031572686  0.041450252            3 
   52000    1.2413327   -6.2009622    19.846728  0.031805654  0.041367942            1 
   53000    1.2536036   -6.2067084    20.353622   0.03200255  0.041309228            3 
   54000    1.2617155   -6.2027191    20.737148  0.032001771  0.041250851            1 
   55000    1.2687906   -6.2675397    21.170976  0.032077235  0.041192086            4 
   56000    1.2614954   -6.2450839    21.575855  0.032106926  0.041120883            3 
   57000    1.2334733   -6.2206343    22.174083  0.032418249  0.041048409            5 
   58000     1.248077   -6.2264075    22.687423  0.032596872  0.041007271            2 
   59000    1.2516937   -6.1894607    23.197981  0.032765509  0.040972842            1 
   60000    1.2378658   -6.2385098    23.581712  0.032752378   0.04093229            4 
   61000    1.2045171   -6.1988386    24.120495  0.032951495  0.040891226            3 
   62000    1.2412353   -6.2198133    24.589518  0.033050427  0.040847109            1 
   63000    1.2521646   -6.2544365    24.968039  0.033026507  0.040802745            3 
   64000    1.2278223   -6.1941467    25.485863  0.033184718  0.040752495            3 
   65000    1.2627662   -6.2458154    25.854211  0.033146425  0.040719019            2 
   66000    1.2541739   -6.1698797    26.455334  0.033403199   0.04066385            4 
   67000    1.2606364   -6.1939825    26.861213  0.033409469  0.040619469            2 
   68000    1.2375167   -6.1811594    27.177973  0.033306339  0.040576084            3 
   69000    1.2447954   -6.2359915    27.605387   0.03333984  0.040518288            3 
   70000     1.232448   -6.2276778    28.114463  0.033469598  0.040468057            2 
   71000    1.2242627   -6.2433684    28.608838  0.033578448  0.040402725            4 
   72000    1.2430067   -6.1767447    29.088142   0.03366683  0.040354164            3 
   73000    1.2551401   -6.1954341    29.562909  0.033747613  0.040298029            1 
   74000    1.2641044   -6.2266049    29.816165  0.033576762  0.040235176            1 
   75000    1.2439602   -6.2080541    30.271366  0.033634851  0.040168307            1 
   76000    1.2596008   -6.2005958    30.696026  0.033657923  0.040100517            3 
   77000    1.2366356   -6.2287572    30.997303  0.033546864  0.040026796            3 
   78000    1.2312532   -6.2091192    31.674325   0.03384009   0.03996173            7 
   79000     1.254329   -6.1984768    31.981246  0.033735491  0.039901753            1 
   80000    1.2577756   -6.2421345    32.426484  0.033777587  0.039846688            3 
   81000    1.2557276   -6.2206604    33.244257  0.034201911  0.039805079            2 
   82000    1.2483029   -6.2136554    33.693514  0.034241375  0.039779554            3 
   83000    1.2560126   -6.1791432    34.129591  0.034266657  0.039764113            4 
   84000    1.2396924   -6.2645207    34.648484  0.034373496  0.039745206            3 
   85000    1.2441037    -6.224099    35.076774  0.034388994  0.039734109            3 
   86000    1.2327839   -6.2368862    35.544566  0.034442409    0.0397156            5 
   87000    1.2310682   -6.1855669    36.095248  0.034573992  0.039695439            3 
   88000    1.2396729   -6.2848803    36.523665  0.034586803  0.039682865            2 
   89000    1.2614166   -6.2489296    37.127977  0.034764023  0.039672593            2 
   90000    1.2751967   -6.2170559    37.529478  0.034749516  0.039665863            3 
   91000    1.2453765   -6.2775002    37.936425  0.034740316   0.03965742            4 
   92000    1.2407343   -6.2261801    38.670084   0.03502725  0.039653195            2 
   93000    1.2191065   -6.2238816     39.45744  0.035356129  0.039665765            4 
   94000    1.2594031   -6.2283597    39.944754  0.035412015   0.03968826            3 
   95000    1.2317123   -6.2208497     40.37294  0.035414859  0.039707626            2 
   96000    1.2314434   -6.2218977    41.069413  0.035650532  0.039735139            3 
   97000    1.2196467   -6.2165184    41.223903  0.035415724  0.039754732            3 
   98000    1.2004179   -6.2383181    41.731846  0.035486264  0.039768889            1 
   99000    1.2496636   -6.2386456    42.084849  0.035424957  0.039788041            2 
  100000    1.2165605   -6.2520731    42.646929  0.035539107  0.039798506            2 
  101000    1.2247931   -6.2456846    43.217072   0.03565765  0.039812847            2 
  102000    1.2186499   -6.1705981    43.832147  0.035810577  0.039829901            2 
  103000    1.2434646   -6.2399956    44.229244  0.035784178   0.03985243            2 
  104000    1.2460171   -6.2251654    44.860393  0.035945828  0.039874954            2 
  105000    1.2142604   -6.2532576     45.49083  0.036103833   0.03991094            4 
  106000    1.2339718   -6.2194667    46.247465   0.03635807  0.039952711            3 
  107000    1.1985543   -6.2094412    46.680758  0.036355731  0.039995898            4 
  108000    1.2533339   -6.1950362    47.231742  0.036444245  0.040040474            3 
  109000    1.2464676   -6.1549929    47.754811  0.036509794  0.040082478            3 
  110000    1.2313416    -6.186423     48.10857  0.036445886  0.040109504            3 
  111000    1.2379391   -6.2310906    48.481982  0.036397884  0.040125972            2 
  112000    1.2359001   -6.2621335    48.973216  0.036438405  0.040150502            1 
  113000    1.2037781   -6.2296555    49.500441   0.03650475  0.040177265            3 
  114000    1.2504795   -6.2286156    49.703908  0.036333266  0.040195087            2 
  115000    1.2113719   -6.2284589    50.008784  0.036238249  0.040201236            2 
  116000    1.2466246   -6.2102399     51.06763  0.036686516  0.040213581           10 
  117000    1.2511531   -6.2028628    51.540933  0.036710066  0.040233417            1 
  118000    1.2324203   -6.2120132    52.022738  0.036739222  0.040255241            2 
  119000    1.2190245   -6.2383552    52.508564  0.036770703  0.040272704            2 
  120000    1.2579934   -6.2115408    52.827326  0.036685643  0.040290348            8 
  121000     1.241767   -6.2236513    53.383643  0.036765594  0.040308603            1 
  122000    1.2384604   -6.2284925    54.096808  0.036951371  0.040330217            1 
  123000    1.2232673   -6.2486546    54.335176   0.03681245  0.040352393            1 
  124000    1.2457452   -6.2057524    54.874745  0.036878189  0.040368974            1 
  125000    1.2116709   -6.1979916    55.707037  0.037138024  0.040383505            2 
  126000    1.2490079   -6.2503848    55.978446  0.037022782  0.040399986            3 
  127000    1.2492159   -6.2723799     56.43009  0.037027618  0.040416489            1 
  128000    1.2275218   -6.2356472    56.936246  0.037067869  0.040436789            2 
  129000    1.2244703   -6.2378242    57.650638  0.037242014  0.040451589            2 
  130000    1.2267092   -6.2154832     58.13851  0.037268275  0.040470523            3 
  131000     1.233689   -6.2407767    58.432395  0.037170734   0.04048764            4 
  132000    1.2397779   -6.1533743    59.190246   0.03736758  0.040502991            4 
  133000    1.2700551   -6.2388113    59.261685  0.037131382  0.040521022            2 
  134000    1.2437081   -6.2297067    59.842668   0.03721559  0.040530164            6 
  135000    1.2185547   -6.2941249    60.217244  0.037171138  0.040541579            1 
  136000    1.2169265   -6.2553819     60.98647  0.037369161  0.040553338            2 
  137000    1.2072321   -6.2424415    61.587417  0.037461933  0.040568899            3 
  138000    1.2173197   -6.1859813    62.037365  0.037462177  0.040583444            2 
  139000    1.2020321   -6.2799646     62.43236  0.037429472  0.040599859            4 
  140000    1.2340555    -6.236903    62.991005  0.037494645  0.040614822            3 
  141000     1.229405   -6.2703666    63.516518  0.037539313  0.040628613            2 
  142000    1.1955906   -6.1917273    63.722625  0.037395907  0.040638211            3 
  143000    1.2022361   -6.2039345    64.385322  0.037520584  0.040649643            3 
  144000    1.2614649   -6.2446767    64.739957  0.037465253  0.040657327            2 
  145000    1.2457765   -6.2708165    65.178109  0.037458683   0.04066519            5 
  146000    1.2166363    -6.196829     66.10717  0.037732403  0.040676717            3 
  147000    1.1959576   -6.2435005    66.353594  0.037615416  0.040689696            2 
  148000    1.2000338   -6.2546731    66.655007  0.037530972  0.040697646            3 
  149000    1.2410238   -6.2275291    67.346317  0.037665725  0.040705184            2 
  150000    1.2325713   -6.2664865    67.967171  0.037759539  0.040715657            3 
  151000    1.2303413   -6.2129154    68.649584  0.037886084   0.04073172            2 
  152000    1.2283529   -6.2320857    69.273358  0.037978814  0.040746178            7 
  153000    1.2138492    -6.254043    69.762648  0.037997085  0.040766279            3 
  154000     1.222978   -6.2345053    69.958202   0.03785617   0.04078072            2 
  155000    1.2201181   -6.2478485    70.400031  0.037849479  0.040788972            3 
  156000    1.2373037   -6.2274306    70.834228  0.037838797  0.040795858            2 
  157000    1.2541087   -6.2638987    71.111566  0.037744993  0.040798192            2 
  158000    1.2492811   -6.2423908    71.512977  0.037717815  0.040799138            2 
  159000    1.2211955     -6.29102    71.952684   0.03771105  0.040795995            2 
  160000    1.2191652   -6.2547514    72.337147  0.037675597  0.040793945            2 
  161000    1.2237361   -6.2212446    73.177988  0.037876805   0.04079295            2 
  162000    1.2485267   -6.2453918    73.477244  0.037796936  0.040796735            5 
  163000    1.2205538   -6.2308374    74.381947   0.03802758   0.04080009            3 
  164000    1.2381442   -6.2189847    74.770863  0.037993325  0.040800291            2 
  165000    1.1959179   -6.2798962    74.689119  0.037721777  0.040798333            2 
  166000    1.2014656   -6.2823322     75.14393  0.037722856  0.040794677            3 
  167000    1.2173374   -6.2296934    75.850784  0.037849692  0.040792403            3 
  168000     1.200804   -6.2208199    75.882127  0.037639944  0.040782504            2 
  169000    1.2082474   -6.2875895    76.034519  0.037492366  0.040767827            2 
  170000    1.2346417   -6.2303197     76.90597  0.037699005  0.040758823            2 
  171000    1.2067305   -6.2366083    77.489206  0.037762771  0.040752356            3 
  172000    1.2374194   -6.2290966    78.010836  0.037795948  0.040749988            3 
  173000    1.2546454   -6.2368209    78.774973  0.037945555  0.040746344            4 
  174000    1.2269947   -6.2117965    79.204037  0.037932968  0.040743408            6 
  175000      1.23771   -6.2976491    79.309939  0.037766637  0.040739347            4 
  176000    1.2252629   -6.2460259    80.224364  0.037985021  0.040736306            3 
  177000    1.2427985   -6.2389442     80.56093  0.037928875  0.040734706            2 
  178000    1.2262176   -6.2987449    81.031673  0.037936176  0.040732181            3 
  179000      1.21416   -6.3096986    81.219258  0.037811573  0.040730428            1 
  180000    1.2325227    -6.251313    82.176013   0.03804445  0.040727326            3 
  181000    1.2284687    -6.199835    82.759387  0.038102848  0.040725379            2 
  182000    1.1874437    -6.251004    82.994255  0.038001032  0.040721813            1 
  183000    1.2070276   -6.2375242    82.884961  0.037743607  0.040715743            2 
  184000    1.2045779   -6.2471979    83.640821  0.037880806  0.040708033            3 
  185000    1.2298018   -6.2854883    83.646895  0.037678782  0.040697458            3 
  186000    1.2362339   -6.2552355    84.502007  0.037859322  0.040686951            2 
  187000    1.2317028    -6.237389    84.750013  0.037767385  0.040673765            5 
  188000    1.2104187   -6.2692299    85.040148  0.037695101   0.04066187            6 
  189000    1.2047094   -6.2951385    85.382798  0.037646736   0.04064817            2 
  190000    1.2321258   -6.2511515    85.758499  0.037613377  0.040631508            2 
  191000    1.2270356   -6.2896919    85.681884  0.037383021  0.040609844            3 
  192000    1.2098448   -6.2896089    86.272982   0.03744487  0.040587441            2 
  193000    1.2273915   -6.2541651    86.879224  0.037512618  0.040565807            1 
  194000    1.2363326   -6.2365633     87.65542  0.037652672  0.040545229            2 
  195000     1.212468   -6.2435475    88.169592  0.037679313  0.040525932            3 
  196000     1.227976    -6.234485    88.217479  0.037507431  0.040504346            3 
  197000    1.2346927   -6.2728398    88.971099  0.037635828  0.040483328            2 
  198000    1.1958064   -6.2588157    89.150858  0.037521405  0.040460957            1 
  199000    1.1984595   -6.2317826    89.727399  0.037574288  0.040439531            2 
  200000    1.2244038   -6.2792804    89.951048  0.037479603  0.040418228            3 
  201000    1.2418725   -6.2361887    90.238425  0.037412282  0.040396059            3 
  202000     1.212421   -6.2915215    90.372063  0.037282204  0.040370314            3 
  203000     1.226212   -6.2912861    90.809922  0.037278293  0.040342299            1 
  204000    1.2218154   -6.2318286    91.216305  0.037261562  0.040315431            3 
  205000    1.2180857   -6.2529414     92.04048  0.037414829  0.040288851            4 
  206000    1.1956954   -6.3025094    91.693556  0.037092862  0.040262982            8 
  207000    1.2182518   -6.2990031    92.380408   0.03719018  0.040235684            1 
  208000    1.2004539   -6.2390822    93.581235  0.037492482  0.040213757            2 
  209000    1.2169039    -6.256284    94.135962  0.037534275  0.040195062            6 
  210000    1.2159198   -6.2800531    94.376941  0.037451167  0.040173593            7 
  211000    1.2143278   -6.3499112    94.251076  0.037223963  0.040151917            3 
  212000    1.2107191   -6.2985645    95.313248  0.037465899  0.040132423            4 
  213000    1.2080949   -6.2963455    95.884589  0.037513532  0.040114802            2 
  214000    1.2467171   -6.3117293    96.487033  0.037572832  0.040096695            2 
  215000    1.2018997   -6.2382605    96.855151  0.037540756  0.040078922            1 
  216000    1.2114455    -6.252149    97.388271  0.037572635  0.040058551            2 
  217000    1.2333708   -6.2646836    97.620518  0.037488678  0.040042993            1 
  218000    1.2133571   -6.2324761    98.334425  0.037589612  0.040027138            4 
  219000    1.2287138   -6.2372151    98.631323  0.037530945  0.040011024            3 
  220000    1.1834718   -6.2824955    98.783707  0.037418071  0.039994039            3 
  221000    1.1882798   -6.2792744    99.706793   0.03759683  0.039979385            6 
  222000    1.2154253   -6.2489169    99.930865  0.037511586  0.039964972            1 
  223000    1.2605633   -6.2755215    100.87892  0.037697655  0.039949873            4 
  224000    1.2178484   -6.2120443    101.27133  0.037675345   0.03993541            2 
  225000    1.2340824   -6.2514805     101.4858  0.037587333  0.039924008            4 
  226000    1.2077581   -6.2892141    101.74367  0.037516102  0.039909184            2 
  227000    1.2095978   -6.2895045    102.52151  0.037636385  0.039893827            1 
  228000    1.2390402   -6.3120153    102.35471  0.037410348  0.039876047            3 
  229000    1.2064903   -6.2762099    102.97976  0.037474441  0.039858354            2 
  230000    1.2104799   -6.2979714     103.6192  0.037543187  0.039841812            2 
  231000    1.2090086   -6.3014322    103.63465  0.037386238    0.0398262            4 
  232000    1.2067127   -6.2897017     104.5949  0.037570008  0.039809853            1 
  233000    1.2004581    -6.278295    104.82592  0.037491387  0.039792092            2 
  234000    1.1990087   -6.2539872    105.25255  0.037483102  0.039777955            1 
  235000    1.1981067   -6.3372517    105.57475  0.037437853  0.039762044            1 
  236000    1.2312845    -6.224554    106.24919  0.037517368  0.039745478            2 
  237000    1.2453323    -6.258925    106.74596   0.03753374  0.039730981            1 
  238000    1.2304791   -6.2851401    107.45745  0.037625157  0.039717476            3 
  239000    1.2338454   -6.3111368    107.64368  0.037532664  0.039705824            3 
  240000    1.1993999   -6.3216512    108.38603   0.03763404  0.039694667            1 
  241000    1.2351387   -6.2839681    108.57218  0.037542249  0.039683352            2 
  242000     1.232143   -6.2779915    109.63463  0.037752971  0.039673171            5 
  243000    1.2064853   -6.2560915    109.99357  0.037720704  0.039663138            2 
  244000    1.2024339   -6.2957466    110.53241  0.037750139  0.039652961            2 
  245000    1.2072647   -6.2833187    110.65295  0.037637059  0.039643805            3 
  246000    1.2062413   -6.3245704    110.86033  0.037554313   0.03963469            2 
  247000    1.1941601   -6.3078767    111.55469  0.037636534  0.039625263            4 
  248000      1.22721   -6.2598333    112.29187  0.037732481  0.039616577            3 
  249000     1.203845   -6.3295477    112.15506  0.037535159  0.039606983            4 
  250000    1.2179332   -6.3304239    112.47289  0.037490964  0.039595859            1 
  251000    1.2177871   -6.2982657    113.89837  0.037814863  0.039585419            3 
  252000    1.1882963   -6.2762253    114.55074  0.037880535  0.039577287            3 
  253000    1.2409493   -6.2755889     114.7043  0.037781389  0.039569871            2 
  254000    1.1750468   -6.3488021    114.80965  0.037667207  0.039562526            5 
  255000     1.243795   -6.2899399    115.33785  0.037692107  0.039552599            3 
  256000    1.1954709   -6.2601576    115.77967  0.037688695  0.039544122            3 
  257000    1.2179922   -6.2398431    116.87606  0.037897554  0.039536339            1 
  258000    1.1976889    -6.283502    117.13122  0.037833082  0.039529118            2 
  259000    1.1814699   -6.3067687    117.23228  0.037719525  0.039523264            2 
  260000    1.2294735   -6.2321209    117.86376  0.037776845  0.039515858            2 
  261000    1.1863677   -6.3100532    117.96146  0.037663303  0.039510627            3 
  262000    1.1900245   -6.2896758    118.59693   0.03772167  0.039503201            2 
  263000    1.2125593   -6.2805943    119.12236  0.037744727  0.039497105            2 
  264000    1.1841282   -6.2643054    120.14117  0.037923349  0.039491214            3 
  265000    1.1910623   -6.3544441    119.85894  0.037691491  0.039483718            3 
  266000    1.1802528   -6.3330139    120.19019  0.037653567  0.039474832            2 
  267000    1.2227862   -6.3125352    121.11037  0.037799741  0.039466884            2 
  268000    1.2277027   -6.2385734    121.85661  0.037890738  0.039461232            4 
  269000    1.1935731   -6.2764648    122.07386   0.03781718  0.039455516            2 
  270000    1.2244991   -6.2811546    121.91033  0.037626644  0.039448275            2 
  271000    1.2030165   -6.3374735    122.16483  0.037566061  0.039439041            2 
  272000    1.2111428   -6.3144552    123.05606     0.037701  0.039430077            2 
  273000    1.2200221   -6.3228281    123.05771  0.037563403  0.039420847            2 
  274000    1.2164894   -6.2544819    124.12721  0.037751584  0.039412349            4 
  275000    1.1982065   -6.2855228    124.48065  0.037721409  0.039404847            2 
  276000    1.1985653    -6.296299    124.26361  0.037519205   0.03939663            3 
  277000    1.1872958   -6.2683948    125.56749  0.037776018  0.039387414            3 
  278000    1.1968913   -6.2913062    125.66499  0.037669361  0.039379384            2 
  279000    1.1744972   -6.3011571    126.01867  0.037639986   0.03937098            2 
  280000    1.1875544   -6.3096329    126.84754  0.037752245  0.039362853            2 
  281000    1.2198663   -6.2782673    127.29546   0.03775073  0.039355426            2 
  282000    1.1877778   -6.2656176     127.6194  0.037712588  0.039348037            2 
  283000    1.2009762   -6.3243947    127.72901  0.037611603   0.03933932            3 
  284000    1.2019979   -6.2991324    128.43622  0.037686684   0.03933104            2 
  285000    1.2215101   -6.2999103    128.88853  0.037686704  0.039321835            3 
  286000    1.1867666   -6.3155818    128.83972   0.03754071  0.039312396            1 
  287000    1.2259509   -6.2882058    129.75444  0.037675506  0.039304355            6 
  288000    1.2207109   -6.2908315    129.97602  0.037608803  0.039294411            1 
  289000     1.222077    -6.313291    130.01192  0.037489019  0.039282801            8 
  290000    1.1896937     -6.35082    130.22669  0.037421462   0.03927002            4 
  291000    1.2099176   -6.2600013    131.58595  0.037682116   0.03925767            6 
  292000    1.2155267   -6.2956007    131.66069  0.037574397  0.039245307            2 
  293000    1.1831264   -6.2917328    132.09791  0.037570508    0.0392344            4 
  294000    1.1959018   -6.2959041    132.44833  0.037542043  0.039225173            2 
  295000    1.1737438   -6.3730658    132.25408   0.03735991  0.039214429            2 
  296000    1.2231185   -6.3422716     132.6361  0.037341244  0.039202334            5 
  297000    1.2166977   -6.3386391    133.83856  0.037552906  0.039190965            4 
  298000    1.2004834   -6.3206273    133.85471  0.037431407   0.03918016            1 
  299000    1.2018605   -6.3118539    135.07462  0.037646215  0.039170434            3 
  300000    1.1871263   -6.3680682    134.60302  0.037389727    0.0391595            5 
  301000    1.2219183   -6.3056007    135.78688  0.037593267  0.039150483            6 
  302000    1.1980734   -6.3027105    136.65008  0.037706976  0.039142449            7 
  303000    1.2149142   -6.3134888    136.82374  0.037630292  0.039135386            8 
  304000      1.19709   -6.3021598    137.16019  0.037598737  0.039127503            3 
  305000    1.1860319   -6.3013121    137.79419  0.037648685  0.039119421            4 
  306000    1.1707882   -6.3208267    138.40104  0.037690916  0.039110773            5 
  307000    1.1982929   -6.3094238    138.55776  0.037610684   0.03910246            2 
  308000    1.2363766   -6.3048084    139.27501  0.037682632  0.039096795            2 
  309000     1.213954   -6.2838736    139.86755  0.037720481  0.039091479            4 
  310000    1.2046872   -6.3164315    140.43275   0.03775074  0.039085423            1 
  311000    1.2075135   -6.3414841    140.91779  0.037759323  0.039077608            1 
  312000    1.1833948   -6.3339172    140.90739   0.03763552  0.039070335            5 
  313000    1.1961806   -6.2656171    141.59338  0.037697917  0.039064684            3 
  314000    1.2256759    -6.309556    141.87194   0.03765179  0.039058685            1 
  315000    1.1870764   -6.3217482    142.13292  0.037601301  0.039051569            3 
  316000    1.1813379   -6.3136598    143.51298  0.037846251  0.039045966            2 
  317000    1.2064564   -6.2913301    143.80784  0.037804373  0.039041459            4 
  318000    1.1904434   -6.3180363    144.29385  0.037812854  0.039037477            2 
  319000    1.2016167   -6.2708188     144.7852  0.037822675  0.039032828            2 
  320000     1.210306   -6.2866702    145.42034  0.037869881  0.039028939            3 
  321000    1.2027926   -6.3294607    144.97885  0.037637292  0.039025235            3 
  322000    1.2037515   -6.3136093    145.85066   0.03774603  0.039020294            4 
  323000    1.2318376   -6.3081639    146.65584  0.037836905  0.039015958            2 
  324000    1.2113154   -6.2959914    147.00349   0.03780954  0.039012174            3 
  325000    1.1747634   -6.3204654    147.26944  0.037761395  0.039008552            4 
  326000    1.2007233   -6.3073298    148.00475  0.037833526  0.039003611            3 
  327000     1.188421   -6.3229972    148.25515  0.037781638  0.038998908            1 
  328000    1.2180671   -6.2931221     148.8191   0.03780973  0.038992624            4 
  329000    1.1967785   -6.2971531    149.28388  0.037812533  0.038987761            2 
  330000    1.2147559   -6.2771139    149.65241  0.037791013  0.038981891            3 
  331000    1.2122922   -6.3086664    149.96571  0.037755717  0.038977042            1 
  332000    1.2111924   -6.3127359    150.44277  0.037761739  0.038971531            3 
  333000    1.1894799   -6.3316377    150.78606  0.037734248  0.038966555            2 
  334000    1.1796301    -6.263786    151.75394  0.037862759  0.038961512            1 
  335000    1.2041474   -6.3381817    151.13315  0.037595311  0.038956826            5 
  336000    1.2145477   -6.3243636    151.92582  0.037680015  0.038951036            2 
  337000    1.1864501   -6.3075548    152.15105  0.037623898  0.038944175            3 
  338000    1.1977203   -6.2967589    152.69823  0.037647492   0.03893754            3 
  339000    1.1955529   -6.3143253    153.00717  0.037612381  0.038930233            3 
  340000    1.1774862    -6.316332    153.47642  0.037616768  0.038923126            2 
  341000    1.1886445    -6.343021     153.6574  0.037550684  0.038916037            3 
  342000    1.1926588   -6.3484007    154.19735  0.037572455  0.038908382            1 
  343000    1.1821863   -6.3232829    153.97268  0.037408328  0.038900601            1 
  344000    1.2356708   -6.3342719    154.95276  0.037537006  0.038891813            2 
  345000    1.1906975   -6.3386725    154.99712  0.037438919  0.038883474            2 
  346000    1.2240138   -6.3132753    156.00606  0.037573714   0.03887567            2 
  347000    1.2011226   -6.2872105    156.59036  0.037605753  0.038867026            2 
  348000    1.1825374   -6.3164978    156.43138  0.037459621  0.038858669            2 
  349000      1.19479     -6.27476    157.66379  0.037646559  0.038850047            6 
  350000    1.2089014   -6.3782639    156.81906  0.037337872  0.038841755            6 
  351000    1.1615929   -6.3219981    158.22785  0.037565967  0.038832725            2 
  352000    1.1814995   -6.3545111    158.07394  0.037422808  0.038824095            2 
  353000    1.1767645   -6.3144063    159.21546  0.037586274  0.038816815            4 
  354000    1.1809939   -6.3190795    159.09427   0.03745157  0.038809795            2 
  355000    1.1837071   -6.3351691    159.67865  0.037483251  0.038803353            2 
  356000    1.2028747     -6.31004    160.88249   0.03765976  0.038796364            4 
  357000    1.2164936   -6.3053204     161.1165  0.037608894  0.038788294            2 
  358000    1.1854782   -6.3671002    160.95513  0.037466277  0.038780665            4 
  359000    1.1836641   -6.3493885    161.15944   0.03740934  0.038772015            2 
  360000    1.1827711    -6.329599    161.64658   0.03741819  0.038762774           12 
  361000    1.1937458   -6.3592209    162.64084  0.037544054   0.03875539            1 
  362000     1.194892   -6.3716483    162.91875  0.037504316  0.038747272            2 
  363000    1.2011382    -6.339612    163.52321  0.037539762  0.038740884            2 
  364000    1.1810079   -6.3714623    163.45993  0.037422144  0.038733987            3 
  365000    1.1779049   -6.3139061    164.84748   0.03763641  0.038727727            7 
  366000    1.1889887   -6.3345125     164.1523  0.037375297  0.038719841            2 
  367000    1.2008966   -6.2946837    165.17489  0.037505651  0.038711184            3 
  368000    1.1735947   -6.3330668    165.22312  0.037414655   0.03870283            4 
  369000      1.20572   -6.3077118    165.99851  0.037488371  0.038694031            3 
  370000    1.2354335   -6.3761789    165.48002  0.037270275  0.038684848            2 
  371000    1.2091247   -6.3638263    165.92969   0.03727082  0.038675223            2 
  372000    1.1925905   -6.3558297    166.02415   0.03719179  0.038663817            3 
  373000    1.1727285   -6.3644678    166.26888  0.037146756  0.038652261            3 
  374000    1.1796954   -6.3285757    167.18135  0.037250747  0.038641601            2 
  375000    1.1964029   -6.3059115    168.09324  0.037354054  0.038630158            2 
  376000    1.1979803   -6.3396782    167.84664  0.037200053  0.038618991            1 
  377000    1.1814452   -6.3492537    168.38609  0.037220621  0.038608841            4 
  378000    1.2143166   -6.3001122     168.8472   0.03722381  0.038598352            5 
  379000    1.1752452    -6.335995    168.76344  0.037107176  0.038587144            2 
  380000    1.1821248   -6.3418349    169.08134  0.037079241  0.038575055            5 
  381000    1.1700268   -6.3561807    169.94156   0.03717007  0.038563166            2 
  382000    1.1666207   -6.3445798     170.6875  0.037235492  0.038552205            3 
  383000    1.1914317   -6.3286452    171.05302  0.037217803  0.038541339            3 
  384000    1.2026483   -6.3071493    171.17371  0.037147073  0.038530884            2 
  385000    1.1924883   -6.3771863    171.27333  0.037072149  0.038520507            3 
  386000    1.1941061    -6.355799    172.02712  0.037138842   0.03850967            2 
  387000    1.2051957   -6.3514642    173.09202  0.037272183  0.038499554            3 
  388000    1.1616077   -6.3031537    173.14055  0.037186544  0.038489482            2 
  389000    1.1953279   -6.3287378    173.63967  0.037197872   0.03847932            2 
  390000    1.2052536   -6.3242883    174.62058   0.03731209  0.038470292            2 
  391000    1.1691896   -6.3328831    174.46086  0.037182621  0.038460357            3 
  392000     1.191986    -6.305936    175.34459  0.037275637   0.03845014            2 
  393000    1.2071598   -6.3315444    175.46215  0.037205714    0.0384399            2 
  394000    1.2022475   -6.3775251    175.73884  0.037169806  0.038429599            1 
  395000    1.1879674   -6.3158712    176.23337  0.037180037  0.038419431            1 
  396000     1.185037   -6.3363784    176.72973    0.0371906  0.038408737            1 
  397000    1.2187082   -6.3110059    177.21384  0.037198538  0.038398334            3 
  398000    1.1777207   -6.3535904    177.47877  0.037160546   0.03838968            3 
  399000    1.1820927   -6.3071002    179.34644  0.037457486  0.038381251            3 
  400000    1.1698875   -6.3501996     178.4246  0.037171791  0.038373289            2 
  401000    1.1643706   -6.3833806    178.59774  0.037115075   0.03836497            4 
  402000    1.1925359   -6.3611064    179.64536  0.037239918  0.038357387            1 
  403000    1.1497701   -6.3405059    180.69142  0.037363816  0.038350775            5 
  404000     1.184714   -6.3340723    180.80467  0.037294692  0.038343631            4 
  405000    1.1968259   -6.3522596    180.92538  0.037227445  0.038335744            4 
  406000    1.1969539   -6.3187981    182.18515  0.037394325  0.038327215            2 
  407000    1.1978614    -6.366189    181.86694  0.037237294  0.038320795            4 
  408000    1.1716463   -6.3074932    182.48195   0.03727164  0.038313721            4 
  409000    1.1809498   -6.3047037    183.98067  0.037485874  0.038307484            6 
  410000    1.1825519    -6.322407    183.48334  0.037293361  0.038300876            2 
  411000    1.1669342   -6.3452762    184.10903  0.037329488  0.038293794            2 
  412000    1.1874881   -6.3868889    184.91205  0.037401305  0.038287478            2 
  413000    1.1877271   -6.3576978    185.00181  0.037328856  0.038281485            2 
  414000    1.1970167   -6.3535238    184.56321  0.037150404  0.038275021            3 
  415000    1.1988163   -6.3280965    186.14426  0.037378364  0.038268312            6 
  416000    1.1756517   -6.3323351    186.08836  0.037277315  0.038262369            2 
  417000    1.1761672   -6.2833003    187.00582  0.037371267  0.038255918            2 
  418000    1.1814612   -6.3063157    187.66895  0.037414066   0.03825069            2 
  419000    1.1350703   -6.3304768    187.94765  0.037380201  0.038244413            3 
  420000    1.2028017   -6.3179844    188.90211  0.037480576  0.038240404            1 
  421000     1.175116   -6.3176896    188.73836  0.037359136  0.038236627            3 
  422000    1.1783116   -6.3809608    189.23955  0.037369579  0.038232364            2 
  423000    1.1968035   -6.3450595    189.13557   0.03726075  0.038226773            3 
  424000    1.2006729   -6.3503175    190.00323  0.037343402  0.038221769            3 
  425000    1.1827972   -6.3270211    190.50106  0.037353149  0.038216751            2 
  426000    1.1785248   -6.3340121    190.58434  0.037281756  0.038211093            4 
  427000    1.1696605    -6.382723    191.08334  0.037291831  0.038204929            6 
  428000    1.1712947   -6.3512286    191.57451  0.037300334  0.038198923            1 
  429000    1.1938811   -6.3051697    192.73677  0.037439154  0.038193099            4 
  430000    1.1906719   -6.3393981    192.33182  0.037273609  0.038187422            1 
  431000    1.1775533   -6.3470478    192.26286  0.037173793  0.038182016            4 
  432000    1.1865787   -6.3627154    193.18865  0.037266329  0.038176977            2 
  433000    1.1745635   -6.3570751    193.43723  0.037228105   0.03817183            2 
  434000    1.1735437   -6.3446237    194.08011  0.037265766  0.038166493            2 
  435000    1.1876382   -6.3300544    194.55287  0.037270665  0.038160959            4 
  436000    1.1786324   -6.3815135    194.49184  0.037173517  0.038154578            2 
  437000    1.1920819   -6.3247107    195.48764  0.037278344   0.03814743            3 
  438000    1.1637776    -6.348805    195.87436  0.037266811  0.038141332            3 
  439000    1.1753623   -6.3658955    195.30088  0.037073059   0.03813483            1 
  440000    1.1869883   -6.3137095    197.12738   0.03733473  0.038129008            3 
  441000    1.1922883   -6.3373714    197.17309  0.037258709  0.038123122            3 
  442000    1.1729551   -6.3807517    197.20786  0.037180969  0.038117387            2 
  443000    1.1700195   -6.3275155    198.61265  0.037361297  0.038111357            3 
  444000    1.1968844   -6.4084421     198.2644  0.037211787  0.038105926            4 
  445000    1.1775895   -6.3465514    198.26283  0.037127871  0.038099143            2 
  446000    1.1652425   -6.3550691    199.44425  0.037265368  0.038092282            2 
  447000    1.1636882   -6.3463044    198.77996  0.037058158  0.038085018            5 
  448000    1.1657841   -6.3827498    199.11736  0.037038199   0.03807855            2 
  449000     1.194997   -6.3860974    200.06902  0.037132334  0.038071492            2 
  450000    1.1866029   -6.3784598    200.09511  0.037054649  0.038064692            2 
  451000    1.1937257   -6.3590846    201.30433  0.037195922  0.038058502            2 
  452000    1.1998964   -6.3902993    200.52723   0.03697036  0.038052049            4 
  453000    1.1857241   -6.3954736    201.17101  0.037007177  0.038045039            2 
  454000    1.1806536   -6.3716594    202.68929  0.037204347  0.038038371            2 
  455000    1.1760207    -6.361463    202.55101  0.037097255  0.038030998            2 
  456000    1.1819519   -6.3733961    202.91858  0.037083074  0.038024023            2 
  457000    1.2034462     -6.34889    203.55828  0.037118577  0.038017288            3 
  458000    1.1586865   -6.3843119    204.10928  0.037137787  0.038011088            3 
  459000    1.1841808   -6.3612262    204.25785  0.037083851  0.038004617            6 
  460000    1.2007619   -6.4413527    204.44307  0.037036789  0.037997916            3 
  461000    1.1728563   -6.3936984    205.67144  0.037178497  0.037991276            4 
  462000    1.1960056   -6.3915381     206.0408  0.037164646  0.037985668            4 
  463000    1.1712186   -6.3912908    206.40232  0.037149446  0.037979375            3 
  464000    1.1472164   -6.3826292    206.47225  0.037081942  0.037974086            3 
  465000     1.185185   -6.4275284    206.84403  0.037068822   0.03796804            3 
  466000    1.1678665   -6.3667752    208.23815  0.037238582  0.037963191            5 
  467000    1.1680226   -6.4364257    207.90516  0.037099421  0.037957826            4 
  468000    1.2038239   -6.3013677    209.48568  0.037301581  0.037952652            2 
  469000    1.1621345   -6.3618227    209.23554  0.037177602  0.037947793            2 
  470000    1.1832639   -6.3298923    210.16027  0.037262459  0.037943177            4 
  471000    1.1491622   -6.3921565    210.07105  0.037167561  0.037938073            4 
  472000    1.1749111   -6.4022563    211.15346  0.037279918  0.037933414            4 
  473000    1.1743301   -6.3509994    210.90409  0.037157168   0.03792817            3 
  474000    1.1854691   -6.3349911    211.62465  0.037205458  0.037922695            3 
  475000     1.172524   -6.3723133    210.60588    0.0369484  0.037916446            3 
  476000    1.1888704   -6.3366853    211.47814  0.037023483  0.037908645            2 
  477000    1.1832201    -6.327287    211.71921  0.036987981  0.037900638            2 
  478000    1.1836698   -6.3283412    212.60272  0.037064631  0.037893002            1 
  479000    1.1870765   -6.4121942    211.54722  0.036803622  0.037885087            3 
  480000    1.1550978   -6.3629488    212.51962  0.036895767  0.037876375            3 
  481000    1.1839031   -6.3382589    213.35365  0.036963558  0.037868522            2 
  482000    1.1786691   -6.3684816    212.97117  0.036820742  0.037860366            5 
  483000    1.1674619   -6.3546832    213.98988  0.036920269  0.037852715            1 
  484000    1.1553245   -6.3804504    215.12584  0.037039572  0.037845094            2 
  485000    1.1831929    -6.402813     214.8182  0.036910344  0.037837026            5 
  486000    1.1770544   -6.3607538     215.6352  0.036974486  0.037829134            2 
  487000    1.1848433   -6.3885137    215.01286   0.03679207  0.037821158            4 
  488000    1.1765322   -6.4077383     216.0355  0.036891308  0.037814091            2 
  489000     1.171872   -6.3606677      217.129  0.037002215  0.037807416            2 
  490000    1.2100284   -6.3773569    217.10559   0.03692272  0.037800776            2 
  491000    1.1611757   -6.4150042    217.52794  0.036919202  0.037793472            3 
  492000    1.1736101   -6.4107638    217.43892  0.036829086  0.037786399            2 
  493000    1.1496726   -6.3923409    217.83421  0.036821198  0.037778581            3 
  494000    1.1763753   -6.3617293    219.61628  0.037047281   0.03777144            5 
  495000    1.1754197    -6.398561    218.68131  0.036815036  0.037764588            3 
  496000    1.1719346   -6.4063853    218.70824  0.036745336  0.037756775            2 
  497000    1.1436583   -6.4043644    219.29038   0.03676901  0.037749081            5 
  498000    1.1623466    -6.363412    219.75789  0.036773408  0.037740368            4 
  499000    1.1913131   -6.3616219    220.20134   0.03677377  0.037731867            2 
  500000    1.1635992   -6.4271126     219.8819  0.036646983  0.037722699            4 
  501000    1.1973528   -6.4134532    220.77047  0.036721635  0.037713502            5 
  502000    1.1611123   -6.3864435    221.12722  0.036707706  0.037704189            2 
  503000    1.1841671    -6.405338    221.03615   0.03661964  0.037695361            4 
  504000     1.167013   -6.4498875    220.64381  0.036482112  0.037685401            4 
  505000    1.1710211   -6.3771131    221.08549  0.036482754  0.037674673            1 
  506000    1.1674458   -6.3907145      222.157  0.036587122  0.037664212            1 
  507000    1.1774569   -6.3643517    222.83173   0.03662586  0.037653502            5 
  508000     1.197462   -6.4165566    221.97013  0.036412423  0.037642467            3 
  509000    1.1637308   -6.3579293    222.61405  0.036446308  0.037631722            2 
  510000     1.158758   -6.3863923     222.3558  0.036332647  0.037620312            4 
  511000    1.1548567   -6.3376256      222.751  0.036325995  0.037608178            3 
  512000    1.1743429   -6.3341655    223.33419  0.036349965  0.037596282            3 
  513000    1.1462846   -6.3731994    224.61408  0.036487018  0.037585035            3 
  514000    1.1716333   -6.3668399    224.82306  0.036449913  0.037573448            3 
  515000    1.1690825   -6.3669654    224.41629  0.036313315   0.03756213            9 
  516000    1.1673827   -6.4098676    225.11257   0.03635539  0.037550004            5 
  517000     1.198596   -6.3805253    225.99053  0.036426585  0.037537993            4 
  518000     1.172438   -6.3685951    225.70485  0.036310304  0.037526081            4 
  519000    1.1583476   -6.3882854    226.77746  0.036412565  0.037515021            2 
  520000    1.1647011   -6.4221259    226.25859  0.036259389  0.037503514            2 
  521000    1.1619413    -6.381274    226.95896  0.036301817  0.037492291            2 
  522000    1.1683838   -6.3790687    227.35989  0.036296279   0.03748109            2 
  523000    1.1709384   -6.4041652    228.21972  0.036363881   0.03746981            3 
  524000    1.1645101   -6.4194173    228.02906  0.036264164  0.037458461            5 
  525000    1.1717294   -6.3807686     228.9374   0.03633927  0.037447679            3 
  526000    1.1563943   -6.3719703    229.17399  0.036307667  0.037436642            2 
  527000    1.1565746   -6.3899831    229.19275  0.036241737  0.037425301            1 
  528000    1.1671619   -6.3284376    230.41373  0.036365803  0.037413348            3 
  529000    1.1458828   -6.4035135    229.78912  0.036198664  0.037402174            4 
  530000    1.1583202   -6.3681182    231.52442  0.036403211  0.037391496            2 
  531000     1.165101   -6.3372869    231.80223  0.036378253  0.037380829            2 
  532000    1.1657667   -6.3891069    231.43514  0.036252371  0.037370491            1 
  533000    1.1540068   -6.3866151    231.68575  0.036223538  0.037359515            2 
  534000    1.1993916   -6.3545115    231.68933  0.036156262  0.037347807            1 
  535000    1.2004945   -6.4179032    231.87562  0.036117699  0.037336288            2 
  536000    1.1671451   -6.3819354    233.18962  0.036254605  0.037323972            3 
  537000    1.1703994   -6.3956079     232.4096  0.036066045  0.037310876            9 
  538000    1.1518233   -6.4137287    232.68018  0.036040919  0.037297754            4 
  539000    1.1614317   -6.4203178    233.00929  0.036024937  0.037285122            4 
  540000    1.1531155   -6.4068823    233.63652  0.036055018  0.037271738            2 
  541000    1.1572015   -6.3646912    234.20823  0.036076436  0.037258497            2 
  542000    1.1875903   -6.4034319    234.97657   0.03612801   0.03724617            2 
  543000    1.1685322   -6.3871283    235.30345  0.036111641  0.037234412            3 
  544000    1.1612788   -6.3910917    235.37447  0.036056138  0.037222076            5 
  545000    1.1555782   -6.4205981    235.31064  0.035980221  0.037209119            4 
  546000    1.1232141    -6.392715    235.67679  0.035970206  0.037195707            2 
  547000    1.1622242   -6.3674182    236.74632  0.036067385   0.03718296            2 
  548000    1.1668783   -6.3754261    236.86233   0.03601921  0.037170284            2 
  549000    1.1510935   -6.4234141    236.56135  0.035907916  0.037157876            2 
  550000    1.1632828   -6.3868226     237.3878  0.035967849  0.037144767            3 
  551000    1.1488999   -6.4276565    237.72545  0.035953637   0.03713201            3 
  552000    1.1417184   -6.3778606    238.05943  0.035938923  0.037119287            2 
  553000    1.1531763   -6.4114442    238.26855  0.035905448  0.037106639            2 
  554000    1.1603086   -6.4056671    239.04718  0.035957758  0.037094471            2 
  555000    1.1502314   -6.4064865    239.86319  0.036015495  0.037082361            2 
  556000    1.1760346   -6.4106989    239.72329   0.03592975  0.037069933            2 
  557000      1.15689   -6.4082193    240.37437  0.035962652  0.037058076            3 
  558000    1.1554783   -6.4254693    241.00896  0.035992975  0.037045747            2 
  559000    1.1532927    -6.417863     241.0498  0.035934675  0.037033906            1 
  560000    1.1470256   -6.4274339     241.6036  0.035952916  0.037022061            7 
  561000    1.1303865   -6.4009346    242.08616  0.035960511  0.037010611            3 
  562000     1.159396   -6.3514638    243.52199  0.036109428   0.03699992            2 
  563000    1.1367497   -6.3924729    242.61193  0.035910587  0.036989708            2 
  564000    1.1777666   -6.4542524     243.0765  0.035915559  0.036978271            3 
  565000    1.1609782   -6.3550154    244.67641  0.036087966  0.036967168            2 
  566000    1.2034063   -6.3918659    243.95807  0.035918443   0.03695629            3 
  567000    1.1746152    -6.440071    243.11437  0.035731095   0.03694502            2 
  568000    1.1751515   -6.4180518     244.1404  0.035818721  0.036933202            6 
  569000    1.1834553   -6.3950599    244.94732  0.035873949  0.036921846            2 
  570000    1.1626133   -6.4053918    245.21599  0.035850291  0.036910417            5 
  571000    1.1516637   -6.3665681    246.64408  0.035995925  0.036899228            4 
  572000    1.1691141   -6.4402143    246.44798  0.035904427  0.036887487            5 
  573000    1.1640423   -6.3623095    247.29523  0.035964984  0.036875728            3 
  574000    1.1435468   -6.3906935     247.5024  0.035932404   0.03686449            4 
  575000    1.1567367   -6.3830053    247.29798  0.035840287  0.036852631            2 
  576000    1.1682859   -6.4118872    247.88612  0.035863154  0.036840294            3 
  577000    1.1650788   -6.4030748    247.45187  0.035738283  0.036827857            2 
  578000    1.1537118   -6.4020595    248.32123  0.035801791  0.036815506            2 
  579000    1.1504688   -6.4055631    248.28165  0.035734261  0.036803396            7 
  580000    1.1682835   -6.4023996    248.71978    0.0357356  0.036791186            3 
  581000    1.1620681   -6.4159667    248.61472  0.035659025  0.036778891            3 
  582000    1.1542031   -6.4143621    248.97232  0.035648957    0.0367671            3 
  583000    1.1623887   -6.3949591    250.23547  0.035768363  0.036755035            7 
  584000    1.1519337   -6.3895991    250.30186  0.035716589  0.036743275            2 
  585000     1.161029   -6.4107833    250.02534  0.035616145  0.036730795            3 
  586000    1.1661932    -6.389168    251.40667  0.035751802  0.036719217            3 
  587000    1.1509803   -6.3896631    252.60093  0.035860439  0.036708622            2 
  588000    1.1819576   -6.4421277    251.70313  0.035672212  0.036697689            2 
  589000    1.1746538   -6.4256967     251.8945  0.035638724  0.036686406            1 
  590000    1.1705934   -6.4561883    252.38601  0.035647742  0.036674869            2 
  591000    1.1356038   -6.4483853    252.84076  0.035651546  0.036663048            3 
  592000    1.1580902   -6.3978466    253.53857  0.035689551  0.036651885            2 
  593000    1.1610459   -6.4474809    253.74768  0.035658752   0.03664025            4 
  594000    1.1525604   -6.4443629    254.53175  0.035708719  0.036629076            4 
  595000    1.1413255   -6.4495997    254.16833  0.035597805  0.036618193            4 
  596000    1.1544467   -6.3677555    256.14124  0.035813932  0.036607659            3 
  597000    1.1448719   -6.4208103    255.67102  0.035688306  0.036596632            2 
  598000    1.1766367   -6.4450662    255.69074  0.035631374  0.036585808            4 
  599000     1.190927   -6.4589582    255.94918  0.035607844  0.036574434            5 
  600000    1.1548022   -6.4762697     255.9854  0.035553528  0.036563433            5 
  601000    1.1624025     -6.42616    257.08543  0.035646898  0.036551712            3 
  602000    1.1545692   -6.3898805    257.49881  0.035644907  0.036540726            2 
  603000    1.1157818   -6.4187223     258.1014  0.035669071  0.036529788            6 
  604000     1.153756   -6.4533589    257.27826  0.035496449  0.036518684            4 
  605000    1.1519617    -6.413434    258.63823    0.0356251  0.036507624            4 
  606000    1.1474054   -6.4700187    257.41007  0.035397425  0.036496206            7 
  607000     1.167601   -6.4033601    259.31957  0.035601259  0.036485029            2 
  608000    1.1478144   -6.4197583    259.82947  0.035612592  0.036474417            5 
  609000    1.1834575   -6.4555902    260.11678   0.03559343  0.036463834            1 
  610000    1.1874807   -6.3941699     260.3698  0.035569645  0.036452668            2 
  611000    1.1740038   -6.4053833    260.32781  0.035505702  0.036441377            5 
  612000    1.1582186   -6.4415744    260.34768  0.035450392  0.036429769            3 
  613000    1.1914846   -6.4399171    260.33441  0.035390757   0.03641852            4 
  614000    1.1646053   -6.3908223    261.76305  0.035527015  0.036406951            3 
  615000    1.1675964   -6.4451787    262.48026  0.035566431  0.036395621            2 
  616000    1.1457861   -6.4165248    262.51221  0.035513016  0.036384418            2 
  617000    1.1437117   -6.4552788    261.77632  0.035356067  0.036373128            3 
  618000     1.154792    -6.415429    263.13902  0.035482608   0.03636153            2 
  619000    1.1631702    -6.411212    263.08366  0.035417832  0.036350359            3 
  620000    1.1253735   -6.4495206    263.44588  0.035409393   0.03633926            4 
  621000    1.1565897   -6.3964002    265.10385   0.03557486  0.036328269            5 
  622000    1.1633118   -6.4582281    264.57698  0.035447077   0.03631745            2 
  623000    1.1637691   -6.4488457    265.02692  0.035450364  0.036307293            4 
  624000     1.142796   -6.4566681    264.92006  0.035379282  0.036296641            4 
  625000    1.1647002   -6.4286719    265.84895  0.035446526  0.036285846            3 
  626000    1.1453848   -6.4844517    265.77704   0.03538033  0.036275408            2 
  627000    1.1600764    -6.455248    266.23446  0.035384697  0.036264593            2 
  628000    1.1646986     -6.48118    265.58127  0.035241677  0.036253888            4 
  629000      1.14942   -6.4088729    267.96202  0.035501063  0.036243289            3 
  630000    1.1419622   -6.4110925    268.15737  0.035470551  0.036232543            2 
  631000    1.1414206   -6.4836489    266.55646  0.035202913  0.036221441            3 
  632000    1.1613056    -6.442513    268.55684  0.035410975  0.036210985            2 
  633000    1.1575108   -6.4519909    268.36161  0.035329332  0.036200725            1 
  634000    1.1152992   -6.4385125    270.12398  0.035505254  0.036191221            3 
  635000    1.1493004   -6.4681216    269.18222  0.035325751  0.036181036            2 
  636000     1.151118   -6.4044783     269.9433   0.03536993  0.036170637            2 
  637000    1.1340958   -6.4305358    269.89314  0.035307842  0.036160268            3 
  638000    1.1287348   -6.4411305    270.31505  0.035307608  0.036149849            2 
  639000     1.153636   -6.4385655    270.97725  0.035338712   0.03613938            4 
  640000    1.1627205   -6.4524729    272.26937   0.03545174  0.036129315            2 
  641000    1.1477147   -6.4097818    273.23282  0.035521688  0.036119552            5 
  642000    1.1381313   -6.4504824    271.86557  0.035288885  0.036109566            3 
  643000    1.1602593   -6.4268996    272.84655  0.035361139  0.036099562            2 
  644000    1.1211618   -6.4338166    272.83973  0.035305348  0.036089136            2 
  645000    1.1517061   -6.4791887    272.82071  0.035248154  0.036078933            2 
  646000     1.157967   -6.4754254    272.71102   0.03517944  0.036068415            5 
  647000    1.1550672   -6.4170015    273.69805  0.035252195  0.036057706            3 
  648000    1.1428211   -6.4525658    273.86483  0.035219243  0.036047285            2 
  649000     1.126057   -6.4120627    274.08829  0.035193668  0.036036631            3 
  650000    1.1607771   -6.4174495    275.12039  0.035271845  0.036026145            2 
  651000    1.1566259   -6.4586571    274.61945  0.035153539   0.03601521            2 
  652000    1.1439287   -6.4533588    275.48063  0.035209692  0.036004612            4 
  653000    1.1698906   -6.4349017    276.43821  0.035277974  0.035994135            2 
  654000     1.130427   -6.4573132    276.56508  0.035240199  0.035984068            3 
  655000    1.1322299   -6.4256082    278.04423  0.035374583  0.035974238            5 
  656000    1.1552583   -6.4136088    277.51969  0.035254025  0.035965377            7 
  657000    1.1414288   -6.4269581    278.77099  0.035359081  0.035955682            4 
  658000    1.1336902    -6.472011    279.19613  0.035359186  0.035945961            3 
  659000     1.126445    -6.465134    279.08575  0.035291572  0.035936414            3 
  660000    1.1335239   -6.4419944    279.40156  0.035277975  0.035926493            2 
  661000     1.118615   -6.4348779     279.1977  0.035198903  0.035916619            4 
  662000    1.1322161   -6.4150661    279.97416  0.035243474  0.035907243            2 
  663000    1.1346412   -6.4655522    279.93569  0.035185482   0.03589749            2 
  664000    1.1291233   -6.4305518    281.18704  0.035289538  0.035888126            1 
  665000    1.1162976   -6.4760255    281.15319  0.035232229  0.035878981            4 
  666000    1.1370556   -6.4169488    281.64009  0.035240252  0.035870388            3 
  667000    1.1316501   -6.4186601    281.97026  0.035228668  0.035861698            3 
  668000    1.1472647   -6.4564469    281.43733  0.035109447  0.035852829            3 
  669000    1.1619829   -6.4598516    282.60025  0.035201824  0.035843732            2 
  670000    1.1121073   -6.4239663    282.12401  0.035090051  0.035834381            3 
  671000    1.1422217   -6.4674931    283.83028  0.035249662  0.035825255            2 
  672000    1.1648752    -6.449849    283.58603  0.035166919  0.035816324            2 
  673000    1.1668879    -6.417043     284.6562  0.035247176  0.035807336            1 
  674000    1.1545402   -6.4552891    284.61511  0.035189801  0.035798257            1 
  675000    1.1228548   -6.4542957    285.28502  0.035220373  0.035789452            3 
  676000    1.1388221   -6.4440513    285.24789  0.035163694  0.035780433            3 
  677000    1.1414481   -6.4438112    286.24249  0.035234181  0.035771965            3 
  678000    1.1524858   -6.3896113    286.66071  0.035233617  0.035763365            5 
  679000    1.1318544    -6.437661    286.85562  0.035205648  0.035754811            2 
  680000    1.1487286   -6.4879615    286.75453  0.035141486  0.035745482            2 
  681000    1.1768566   -6.4281921     287.3414  0.035161698    0.0357364            1 
  682000    1.1375266    -6.442422    287.55307  0.035136006  0.035727222            3 
  683000    1.1117345   -6.4415876     288.0078  0.035140044  0.035718184            6 
  684000    1.1148901   -6.4653198     287.4141  0.035016337  0.035708777            2 
  685000    1.1494081   -6.4274428     288.3168  0.035075037  0.035698555            3 
  686000    1.1479655   -6.4474451    288.88499  0.035092928  0.035688964            3 
  687000    1.1190036   -6.4660893    288.30717  0.034971758  0.035678926            2 
  688000    1.1331257   -6.4590996    288.23813  0.034912564  0.035669269            5 
  689000    1.1457779   -6.4893205    289.14757  0.034971889   0.03565927            8 
  690000    1.1224063   -6.4745753     288.9223  0.034893997  0.035649247            7 
  691000    1.1746895   -6.4611327     289.6458  0.034930752  0.035639373            2 
  692000     1.155521   -6.4417013    291.56937  0.035111919  0.035629684            2 
  693000    1.1221642   -6.4197226    291.53033  0.035056557  0.035620747            3 
  694000    1.1701819   -6.4607508    292.88967  0.035169269  0.035611611            2 
  695000     1.143952   -6.4615926    291.98603  0.035010316  0.035602519            3 
  696000    1.1578485   -6.5067225    291.76931  0.034934065   0.03559286            4 
  697000    1.1465578   -6.4701463    292.31939  0.034949712  0.035583558            6 
  698000    1.1532934   -6.5078734    291.51999  0.034804201  0.035574505            3 
  699000    1.1370393   -6.4933408    292.30943  0.034848526  0.035565043            1 
  700000    1.1459486   -6.4835503    293.17775  0.034902113  0.035555589            3 
  701000    1.1444624   -6.4830345    292.85396  0.034813833  0.035546168            2 
  702000     1.139136   -6.4557808    294.47938  0.034957191  0.035536543            3 
  703000    1.1397512   -6.4438302    294.15234  0.034868698  0.035527314            3 
  704000     1.150445   -6.4566168    293.92845  0.034792667  0.035518136            1 
  705000    1.1322074   -6.4366803    296.02288  0.034990884  0.035508375            3 
  706000    1.1174102   -6.4620527    294.94978  0.034814658  0.035499106            3 
  707000    1.1495112   -6.4837567    296.15027  0.034906915  0.035489745            3 
  708000     1.159649   -6.4273664    296.85684  0.034940777  0.035480169            3 
  709000     1.146707   -6.4580048    296.79969  0.034884777  0.035471084            7 
  710000    1.1409032   -6.4843804     296.8969  0.034847054    0.0354617            3 
  711000    1.1360554   -6.4816792    297.12021  0.034824216  0.035452459            3 
  712000     1.155263    -6.459806    298.14741   0.03489553   0.03544376            2 
  713000    1.1266718   -6.4585713     299.3252  0.034984245  0.035434964            4 
  714000    1.1248524   -6.4775756    298.93367   0.03488955  0.035426013            3 
  715000    1.1256241   -6.4370254      299.857  0.034948369   0.03541667            3 
  716000     1.125658    -6.457437    299.70609  0.034881994  0.035407677            2 
  717000    1.1515618   -6.4335667    300.25988  0.034897708   0.03539863            7 
  718000    1.1267872   -6.4397736    300.35303  0.034859916  0.035389414            4 
  719000    1.1164166   -6.5073075    299.31791  0.034691459  0.035380266            3 
  720000    1.1384631     -6.44696    301.70617  0.034919695  0.035371634            1 
  721000    1.1249917   -6.5047922    299.64682  0.034633243  0.035362305            3 
  722000    1.1162674   -6.5003772    300.63997  0.034699905  0.035352492            4 
  723000     1.138826   -6.4908255    301.35967  0.034734863  0.035342787            3 
  724000    1.1729368   -6.4711396    301.22156  0.034670989  0.035333332            3 
  725000    1.1450013   -6.4566413    302.13502  0.034728163  0.035324154            5 
  726000    1.1303543   -6.5187913    302.04547   0.03467005  0.035315294            3 
  727000    1.1677859   -6.4726326    303.39368    0.0347769  0.035306607            3 
  728000    1.1370703   -6.4867052    303.32784  0.034721593  0.035298289            6 
  729000    1.1324663   -6.4447565    304.80199  0.034842477  0.035289692            5 
  730000    1.1448032   -6.4669347    304.27056  0.034734082  0.035281594            3 
  731000    1.1515335   -6.4631814    305.47523  0.034823898  0.035273265            4 
  732000    1.1080086   -6.4426635    305.47926  0.034776783  0.035264468            3 
  733000    1.1433017     -6.47244    305.21521  0.034699319  0.035255985            3 
  734000    1.1383914    -6.483679    305.77933  0.034716091  0.035247719            4 
  735000    1.1166328   -6.4692795    307.17391  0.034826974  0.035239856            2 
  736000    1.1428132   -6.4334899    306.82042  0.034739631  0.035231827            2 
  737000    1.1437447   -6.5191264    306.74156  0.034683578  0.035223732            2 
  738000    1.1410612   -6.4316937     307.0763  0.034674379   0.03521544            5 
  739000    1.1102216   -6.4560083    307.67326  0.034694774    0.0352071            1 
  740000    1.1388034   -6.5044891    306.77384  0.034546603  0.035198434            3 
  741000    1.1532326   -6.4944375    307.96894  0.034634384  0.035189386            3 
  742000    1.1215238   -6.4560662    308.64073  0.034663154  0.035180033            4 
  743000    1.1410411   -6.4802136    308.49559  0.034600223  0.035171296            2 
  744000    1.1387959   -6.4899774    308.57099  0.034562162  0.035162563            4 
  745000    1.1331314   -6.4907292    308.47651  0.034505202  0.035153714            3 
  746000    1.0937968   -6.4767383    310.64906  0.034701637  0.035144842            4 
  747000    1.1265672   -6.4848735    311.47767   0.03474762  0.035136601            3 
  748000    1.1430535   -6.4665159    311.52624  0.034706577  0.035128361            6 
  749000    1.1302409   -6.4606939    311.31747  0.034637013  0.035120031            6 
  750000    1.1233256   -6.4750618    311.33647  0.034592941  0.035111458            1 
  751000    1.1275198   -6.4903561     311.8193  0.034600455  0.035102753            6 
  752000     1.123567    -6.477944    312.09317  0.034584793    0.0350938            4 
  753000    1.1062434   -6.4814253    311.67594  0.034492689  0.035084649            3 
  754000    1.1161213   -6.4944367    311.87902  0.034469388  0.035075156            2 
  755000    1.1269423   -6.5398474    312.30504  0.034470754  0.035065916            2 
  756000    1.1577916   -6.4740113    313.53087  0.034560281   0.03505689            3 
  757000    1.1377777   -6.4995139    313.58538  0.034520628  0.035047745            4 
  758000     1.114567    -6.487592    313.51654  0.034467518  0.035038839            3 
  759000    1.1298936   -6.4561553    315.42045  0.034631143  0.035030161            4 
  760000    1.1132408   -6.4335245    315.09964  0.034550399  0.035021697            5 
  761000    1.1432706   -6.4448288     315.2881  0.034525635  0.035012889           14 
  762000    1.1243439   -6.4463732    315.73892  0.034529628  0.035004023            3 
  763000    1.1110008   -6.5222587    315.85881  0.034497468  0.034995201            4 
  764000    1.1365087   -6.5074491    315.18973  0.034379333   0.03498662            2 
  765000    1.1386296   -6.4846801    316.62112  0.034490318  0.034978493            2 
  766000    1.1097387   -6.4633339    317.71471  0.034564264  0.034969865            3 
  767000    1.1092802   -6.4781466    316.94081  0.034435116  0.034961455            4 
  768000    1.1297027   -6.4847225    318.34384  0.034542517  0.034953477            2 
  769000    1.1217613   -6.4664278    318.80276   0.03454733  0.034945389            2 
  770000    1.1044291   -6.4546139    320.07983  0.034640674  0.034937486            2 
  771000    1.1137726   -6.5419613    318.68015  0.034444461  0.034929561            2 
  772000    1.1338106   -6.4968776    319.66782  0.034506458  0.034920798            2 
  773000    1.1321897   -6.5306394    319.09725  0.034400307  0.034912324            5 
  774000    1.1413886   -6.4736379    319.91537  0.034443946  0.034904386            4 
  775000    1.1103646   -6.5106673    320.61027  0.034474223  0.034896322            3 
  776000    1.1255953   -6.5077203    322.49335  0.034632017  0.034888022            4 
  777000    1.1201896   -6.5280987    319.82986  0.034301787  0.034879239            3 
  778000    1.1323073   -6.5176472    320.80578   0.03436223  0.034871077            2 
  779000    1.1332518   -6.4724596     321.7504   0.03441917  0.034862747            3 
  780000     1.126896   -6.4868992    322.31321  0.034435172  0.034854744            4 
  781000    1.1344556    -6.473591    322.55375  0.034416746  0.034846605            4 
  782000    1.1318198   -6.4916548    322.95487   0.03441548  0.034838329            5 
  783000    1.1262706   -6.5192529    323.46165  0.034425463  0.034830117            3 
  784000    1.1403527   -6.4813604    323.96569  0.034435129  0.034821989            4 
  785000    1.1089981   -6.4430763    324.75884  0.034475461  0.034813716            3 
  786000    1.1258555   -6.4873721    323.84287  0.034334485  0.034805219            2 
  787000    1.1284805   -6.4790516    324.55384  0.034366141  0.034797051            3 
  788000    1.0880957   -6.4790566    324.78556  0.034347034  0.034788848            3 
  789000    1.1142659   -6.5020251    325.89585   0.03442077  0.034780913            3 
  790000    1.1166555   -6.5681225    324.87188  0.034269185   0.03477272            2 
  791000    1.1385473   -6.5121132    326.79891  0.034428878  0.034764883            1 
  792000    1.1160043   -6.5012369    328.07402  0.034519573  0.034757101            3 
  793000     1.136084   -6.4756067    327.64125  0.034430565  0.034749545            2 
  794000    1.1079147   -6.4795414    327.86982   0.03441119  0.034742057            3 
  795000    1.1390766   -6.4983457    327.95479  0.034376813   0.03473453            4 
  796000    1.1190538   -6.4798255    328.48027  0.034388638  0.034726855            2 
  797000    1.1254841   -6.5010822    329.28066  0.034429179  0.034719195            9 
  798000    1.1297174   -6.5064868    328.66289  0.034321521  0.034711428            4 
  799000     1.134579   -6.5299139    329.64882  0.034381396  0.034703671            3 
  800000    1.1137619   -6.5044252    329.84758  0.034359123  0.034696271            3 
  801000    1.1610154   -6.4470167     331.8107  0.034520464  0.034689103            5 
  802000    1.1294574   -6.5481865    329.92686  0.034281677   0.03468144            2 
  803000    1.1446865   -6.5196434    329.66937  0.034212263  0.034673645            3 
  804000    1.1475783   -6.5176599    330.36229  0.034241531  0.034665763            4 
  805000    1.0779277   -6.5389887    330.75901  0.034240063  0.034657855            3 
  806000    1.1301742    -6.479862    331.92209  0.034317834  0.034649854            4 
  807000    1.1218484   -6.4946983    331.77845  0.034260476  0.034642177            3 
  808000    1.1391766   -6.5124103    332.84565  0.034328141  0.034634247            4 
  809000    1.1308774   -6.5279631    333.26028  0.034328418  0.034626748            2 
  810000    1.1055473   -6.5175272    334.65888  0.034429926  0.034619306            3 
  811000    1.1368335   -6.5281969    332.13673  0.034128312  0.034611902            3 
  812000    1.1231412   -6.4702799    334.20098   0.03429813    0.0346046            3 
  813000    1.1218484   -6.4840955    334.71261  0.034308386  0.034597435            4 
  814000    1.1104896   -6.5200714    333.56251  0.034148496  0.034589614            4 
  815000    1.1120574   -6.5354944    333.91118  0.034142247  0.034581101            4 
  816000    1.1547778   -6.5283553    334.11619  0.034121343   0.03457326            5 
  817000    1.1196027   -6.5070022    334.85434  0.034154869  0.034565539            4 
  818000    1.1152327   -6.4708465    335.63567  0.034192713  0.034558138            3 
  819000    1.1280453   -6.5166048    336.72311   0.03426161  0.034550648            3 
  820000     1.145566   -6.5219165     336.0388  0.034150285  0.034542644            5 
  821000     1.129687   -6.5186946    335.85732  0.034090267  0.034534764            6 
  822000    1.1314566   -6.5091489    336.90386  0.034154892  0.034526611            2 
  823000    1.1050749   -6.5192192     336.3896  0.034061321   0.03451847            6 
  824000    1.1181996   -6.5733841    336.82631  0.034064149  0.034510237            5 
  825000    1.1072285   -6.4917147    339.01639  0.034244079  0.034502536            2 
  826000    1.1304957   -6.5037842    338.43107   0.03414357  0.034494385            2 
  827000    1.1134608   -6.5351405     337.8209    0.0340408  0.034486367            3 
  828000    1.1475145   -6.5348491    338.60639  0.034078743  0.034478295            3 
  829000    1.1131494   -6.4875627     340.4341  0.034221361  0.034470363            3 
  830000    1.1199884   -6.5201535    339.76004  0.034112454  0.034462696            2 
  831000    1.1137853   -6.5336648    339.47077  0.034042396  0.034454617            4 
  832000    1.1293126   -6.5209434    339.26431    0.0339808  0.034446199            4 
  833000    1.1371111   -6.5117548    341.64587  0.034178259  0.034438234            2 
  834000    1.1242129   -6.5175955    341.12273  0.034085005  0.034430475            4 
  835000    1.1006642   -6.5555816    341.40805   0.03407266   0.03442253            2 
  836000    1.0682557    -6.510078    341.78467  0.034069445  0.034415243            6 
  837000    1.1343736   -6.4525438    344.10644    0.0342599  0.034408112            3 
  838000    1.1260597   -6.5061017    343.14929  0.034123835  0.034401344            3 
  839000    1.1428958    -6.491541    344.90138  0.034257189  0.034394428            3 
  840000    1.1131181   -6.5005413    343.65086  0.034092347  0.034387593            2 
  841000    1.1127697    -6.483069    344.99734   0.03418523  0.034380911            2 
  842000    1.1164905   -6.5342684    344.56117  0.034101462  0.034373901            5 
  843000    1.1609824   -6.5122101    344.17092  0.034022432  0.034366532            3 
  844000    1.1339226   -6.5356033    345.13115   0.03407693  0.034359008            4 
  845000    1.1151302    -6.513021     344.1815  0.033942949  0.034351561            5 
  846000    1.1003926   -6.5281845    345.30088  0.034013089  0.034343616            3 
  847000    1.0881467    -6.517547    345.69967  0.034012168  0.034335358            2 
  848000     1.131385   -6.5127342    344.88993  0.033892485  0.034327427            2 
  849000    1.0971891   -6.4976404    345.70461   0.03393253  0.034319197            2 
  850000    1.1264875   -6.5030595    347.35754   0.03405466  0.034311584            2 
  851000    1.1146483   -6.5308019    346.72544  0.033952746  0.034303572            2 
  852000    1.1246873   -6.4998807    347.69592  0.034007817  0.034295377            5 
  853000    1.1392658   -6.5446633    347.50551  0.033949346  0.034287405            2 
  854000    1.1232336   -6.5043649    349.01531   0.03405692  0.034279453            2 
  855000    1.1258526   -6.4985003    347.60593   0.03387972  0.034271728            7 
  856000    1.1143691   -6.5135404    348.54755   0.03393181  0.034264213            2 
  857000    1.1248942   -6.5108748    348.54295  0.033891768  0.034256489            3 
  858000    1.1146829   -6.5375969    349.60861   0.03395577  0.034248823            3 
  859000    1.1307978   -6.4912805    350.74151  0.034026146  0.034241252            3 
  860000     1.121888   -6.5215734    350.67399  0.033980037  0.034233849            3 
  861000    1.1205338   -6.4754983    352.87857  0.034153946  0.034226994            2 
  862000    1.1050982    -6.532084    350.94655  0.033927547  0.034219804            4 
  863000    1.1015152   -6.5150281    352.16719  0.034006102  0.034213358            2 
  864000    1.1199572   -6.5205285    352.62267  0.034010674  0.034206812            2 
  865000    1.1053578   -6.5613172    353.37613  0.034043943  0.034200216            3 
  866000    1.1283239   -6.5383552    354.02956   0.03406751   0.03419363            5 
  867000    1.1012403   -6.5177139     355.2238  0.034143002  0.034187268            3 
  868000    1.1150492   -6.5340499    354.79414  0.034062417  0.034181198            2 
  869000     1.115825   -6.5587867     355.1917  0.034061344  0.034175317            1 
  870000    1.1019826    -6.506554    357.40059  0.034233773  0.034169507            3 
  871000     1.131145   -6.5455545    356.15488  0.034075286  0.034163732            3 
  872000     1.104046   -6.5493228    356.16205  0.034036893  0.034157337            2 
  873000    1.1165209   -6.5695139    355.49905  0.033934617  0.034151333            3 
  874000     1.115493   -6.5731149    356.48885  0.033990165  0.034145065            3 
  875000     1.113946   -6.5158888    357.94893  0.034090375  0.034138686            3 
  876000    1.1068018   -6.5736711    358.23256   0.03407844  0.034132413            2 
  877000    1.0914591   -6.5332792    358.21275  0.034037699  0.034125911            6 
  878000    1.1147732   -6.5552184     358.5448  0.034030448  0.034119534            3 
  879000    1.1180435   -6.5451331    357.88182   0.03392888  0.034113344            3 
  880000    1.0972411   -6.5535442    357.71753  0.033874766  0.034106845            4 
  881000    1.1115686   -6.5400222    359.26054  0.033982268  0.034099925            2 
  882000    1.1041323    -6.510609    360.55372  0.034065922  0.034093269            3 
  883000    1.0881141   -6.5152745    359.32876  0.033911736  0.034086798            3 
  884000    1.1040746   -6.5209558    359.24324  0.033865313  0.034080074            2 
  885000    1.1271042   -6.5124611    360.81958  0.033975478  0.034073214            2 
  886000     1.112247    -6.566668    358.91198  0.033757711   0.03406652            2 
  887000    1.1304109   -6.5393193    359.96391   0.03381848  0.034059675            7 
  888000    1.1037027    -6.564021    361.23013  0.033899224  0.034052883            5 
  889000    1.1123721   -6.4931041    361.94323  0.033927937   0.03404658            3 
  890000    1.1081955   -6.5119926    362.77364  0.033967569  0.034040558            4 
  891000    1.1100141   -6.5177332    361.97335  0.033854597   0.03403419            3 
  892000    1.1238707   -6.5716661    361.76179  0.033796879  0.034027523            3 
  893000    1.1153236   -6.5926129    361.53915  0.033738256   0.03402084            3 
  894000    1.1053912    -6.510832    363.30504  0.033865123  0.034014196            3 
  895000    1.0870491   -6.5317939    364.17173  0.033907982  0.034007181            4 
  896000    1.1082379   -6.5689768    362.15032  0.033682136  0.033999793            2 
  897000    1.1083982   -6.5618269    362.97785  0.033721465  0.033992688            3 
  898000    1.1207865   -6.5304104    363.84965  0.033764816  0.033985752            5 
  899000    1.1175116   -6.5538132    363.79998  0.033722653  0.033978562            2 
  900000    1.1068655   -6.5239324     364.5015  0.033750139  0.033971704            3 
  901000    1.1140407   -6.5172361    365.43525  0.033799043  0.033965164            4 
  902000    1.1079183   -6.5553597    365.25496  0.033744915  0.033958463            4 
  903000    1.1050437   -6.5677839    366.12155  0.033787519  0.033951608            3 
  904000    1.1162202   -6.5541553    366.64875  0.033798741   0.03394503            2 
  905000    1.1125343   -6.5008694    366.75649  0.033771316  0.033938542            3 
  906000    1.1047082   -6.5485627    367.04984  0.033761023  0.033931894            2 
  907000    1.1236191   -6.5448715    367.51819  0.033766831  0.033925142            3 
  908000    1.1047123   -6.5377238     366.9533  0.033677799  0.033917966            4 
  909000     1.119546   -6.5230882    369.04839  0.033832819  0.033910926            3 
  910000     1.121772   -6.5315458    368.80705  0.033773539  0.033904317            6 
  911000     1.112828   -6.5800782    368.01312  0.033663842  0.033897679            3 
  912000    1.0949133   -6.5302121    368.64576  0.033684737   0.03389094            4 
  913000    1.0904134   -6.5258631    369.59117  0.033734133  0.033884262            5 
  914000    1.0930534    -6.534937    370.74679  0.033802589  0.033877672            3 
  915000    1.1051293   -6.5216909    371.55118  0.033838905  0.033871362            4 
  916000    1.1172559   -6.5339194    371.29283   0.03377846  0.033864806            7 
  917000    1.0920095   -6.5583932    371.24107   0.03373692  0.033858476            4 
  918000    1.0953867   -6.5300599    371.28742  0.033704377  0.033852274            5 
  919000    1.1421878   -6.5498977    372.01253  0.033733454  0.033845945            3 
  920000    1.1005843   -6.5449976    371.67827   0.03366651  0.033839069            3 
  921000    1.1080719   -6.5298453    372.23749  0.033680555  0.033832838            2 
  922000    1.0928807   -6.5929481    372.05258  0.033627312   0.03382611            7 
  923000    1.1101149   -6.4868099    374.64115   0.03382459  0.033819483            3 
  924000    1.0815957   -6.4998349     372.3043  0.033577228  0.033813099            2 
  925000    1.1171591   -6.5640952    372.44589  0.033553684  0.033806314            2 
  926000     1.106529   -6.5791597    373.58007  0.033619517  0.033799311            4 
  927000    1.1089294   -6.5848128    372.80818   0.03351386  0.033792282            4 
  928000    1.1093677   -6.5738554    374.03464  0.033587881  0.033784999            4 
  929000    1.1208375   -6.5454294    374.15225  0.033562276  0.033777824            3 
  930000    1.0947713   -6.5894242    373.92513  0.033505836  0.033770786            2 
  931000    1.0856749   -6.5833395    373.65094  0.033445304  0.033763683            1 
  932000    1.1043607   -6.5504871    375.77314  0.033599172  0.033756289            3 
  933000    1.0994233   -6.5616466    375.31408  0.033522158  0.033749401            7 
  934000    1.0902894    -6.532292    375.65444  0.033516634  0.033742252            3 
  935000    1.1190984    -6.558151    376.54591  0.033560242  0.033735036            4 
  936000     1.102429   -6.5335223    376.69475  0.033537638  0.033727909            3 
  937000    1.0851357    -6.584493    377.47785  0.033571491  0.033721003            2 
  938000     1.109135   -6.5995068    378.11247  0.033592082  0.033714102            2 
  939000    1.1266456   -6.5200554    378.39294  0.033581198  0.033707602            7 
  940000    1.0791336   -6.5893753    377.06047  0.033427347  0.033700961            2 
  941000    1.1078146   -6.5970664    377.31891   0.03341471  0.033693864            4 
  942000    1.0852282   -6.5828737    378.56953  0.033489873   0.03368691            3 
  943000    1.0782174   -6.5427432    379.23354  0.033513038  0.033679794            5 
  944000    1.0946326   -6.5733776    378.70571  0.033430942  0.033672602            3 
  945000    1.1144796   -6.5450953    379.25252  0.033443785  0.033665288            2 
  946000    1.0948043   -6.5682362    379.41946  0.033423138  0.033657883            3 
  947000    1.1022321   -6.5568285     379.3584  0.033382471  0.033650356            2 
  948000    1.1274458   -6.5701337    380.77144   0.03347147  0.033642538            2 
  949000    1.0835072   -6.5680815    379.16657  0.033295273   0.03363515            5 
  950000    1.0970781   -6.5592165    380.95655  0.033417241  0.033627603            2 
  951000      1.11167   -6.5454234    380.60254  0.033351081   0.03362035            3 
  952000    1.0940836   -6.5895107    379.06984  0.033181884  0.033612779            2 
  953000    1.1119304   -6.5850551    381.52896  0.033362098  0.033605301            2 
  954000    1.0928886   -6.5622652    381.17049  0.033295815  0.033597621            3 
  955000    1.0929823   -6.5442311    381.82882  0.033318396  0.033589971            5 
  956000    1.1158229   -6.5471196    381.26535  0.033234427  0.033581982            3 
  957000    1.1011914   -6.5538543     381.2799  0.033200966  0.033574283            2 
  958000    1.0975064   -6.6032348    380.24761  0.033076515  0.033566071            3 
  959000    1.1098491    -6.596408    382.05788  0.033199329  0.033558189            2 
  960000    1.1118242   -6.5498128    384.45567  0.033372888  0.033550546            6 
  961000     1.101144   -6.5237543    384.38244  0.033331811  0.033543004            4 
  962000    1.1464597   -6.5499546    384.33066  0.033292676  0.033535392            4 
  963000    1.1004065    -6.632091    382.46616   0.03309676  0.033527436            3 
  964000    1.0888721   -6.6107257    382.35457  0.033052781  0.033519358            4 
  965000    1.1051208   -6.6078388    383.29791  0.033099992  0.033511205            2 
  966000    1.0994837   -6.5744738    385.01372  0.033213744  0.033503384            3 
  967000    1.1274681   -6.5619531    386.06613   0.03327009  0.033495722            3 
  968000    1.1160638   -6.5861713     385.0442  0.033147744  0.033487884            2 
  969000    1.1355234   -6.5751098    386.02459   0.03319785  0.033480456            1 
  970000    1.0874818    -6.579646      385.362  0.033106701  0.033472811            3 
  971000    1.0958114    -6.597391    385.83461  0.033113166  0.033465066            5 
  972000    1.1036866   -6.5845171    388.31802  0.033292011  0.033457377            3 
  973000    1.0826495   -6.5984584    387.32068  0.033172377  0.033450102            1 
  974000    1.0972238   -6.5979332    387.02661   0.03311316  0.033442493            3 
  975000    1.0988011   -6.5811822    387.09218  0.033084801  0.033434798            4 
  976000    1.0824805   -6.5592433     388.2811  0.033152416  0.033427072            2 
  977000     1.095424   -6.5935783    388.52652  0.033139417   0.03341931            5 
  978000    1.0996915   -6.5512936    390.36957  0.033262574  0.033411523            6 
  979000     1.110165   -6.5653758    388.98772  0.033110973   0.03340405           11 
  980000    1.0655837   -6.5630544    391.09006  0.033255957  0.033396473            3 
  981000    1.1060715   -6.5627845    391.97911   0.03329758  0.033388984            9 
  982000    1.0795926    -6.589186    389.36349  0.033041708  0.033381657            5 
  983000    1.0771741   -6.5949421    391.79061  0.033213853  0.033373789            2 
  984000    1.0969443   -6.5586614    390.93614  0.033107735  0.033366283            4 
  985000    1.0798107   -6.5875897    392.31478  0.033190759  0.033358765            6 
  986000    1.0985232   -6.5992518     392.0901  0.033138109  0.033351243            6 
  987000     1.087962   -6.5803023    392.78973  0.033163605  0.033343532            5 
  988000    1.1089405   -6.6053325    390.80429  0.032962575  0.033335793            3 
  989000    1.0872305   -6.5714611    392.87262  0.033103524  0.033328408            3 
  990000    1.0927776   -6.5645519    393.21501  0.033098906   0.03332122            3 
  991000    1.0735565   -6.5216672    393.82452  0.033116761  0.033314378            3 
  992000    1.0904273   -6.5712682    394.02355  0.033100097  0.033307234            2 
  993000    1.0792101   -6.5319282    394.74865  0.033127614  0.033300307            3 
  994000    1.0951843   -6.6103906    394.43449  0.033067949  0.033293061            2 
  995000    1.1030871   -6.5403571    396.25039    0.0331868  0.033285904            4 
  996000    1.0778401   -6.5862135    394.95164  0.033044816  0.033278938            3 
  997000    1.0895411   -6.6217476    393.92528  0.032925884  0.033271797            2 
  998000    1.0802636   -6.5973371    397.11434   0.03315918  0.033264725            4 
  999000    1.0873061   -6.5834593    397.50955  0.033158955  0.033257566            4 
 1000000    1.1006451   -6.5700556     397.1236  0.033093633  0.033250847            2 
 1001000    1.0988133     -6.62522    396.76207  0.033030475  0.033243438            5 
 1002000    1.1079265   -6.5785011    396.31436  0.032960276  0.033236332            2 
 1003000     1.070592   -6.6197284    396.54868  0.032946883  0.033228861            4 
 1004000    1.0768161   -6.6149145    397.91563  0.033027526  0.033221334            5 
 1005000    1.0677084   -6.5777418    397.16325  0.032932276   0.03321415            8 
 1006000    1.0899451   -6.5750176    398.39285  0.033001396  0.033206843            4 
 1007000    1.0844175   -6.5735982    398.94388  0.033014223  0.033199704            4 
 1008000     1.105005   -6.5849021    399.47631  0.033025488  0.033192592            3 
 1009000    1.0882627   -6.5542783    400.37257  0.033066779  0.033185523            2 
 1010000    1.0929145   -6.6228347    400.40005  0.033036308  0.033178462            3 
 1011000    1.1157433   -6.6093363    400.18441  0.032985856  0.033171126            2 
 1012000    1.0866932   -6.6479121    400.06004  0.032943021  0.033164129            3 
 1013000    1.0970356    -6.556883    402.30432  0.033095123  0.033157539            3 
 1014000    1.0779433   -6.5944762    401.79075  0.033020278  0.033150739            6 
 1015000    1.0636518   -6.5445334    402.35314  0.033033919  0.033143813            3 
 1016000    1.1094423    -6.550082    403.18079  0.033069291   0.03313702           10 
 1017000    1.0782777   -6.5787251    401.44626  0.032894646  0.033130252            3 
 1018000     1.110474   -6.5895596    401.53323  0.032869452  0.033123155            3 
 1019000    1.0778205   -6.5607766    403.24507  0.032977189  0.033115867            3 
 1020000    1.1083717   -6.5735587    402.66593  0.032897543  0.033108685           14 
 1021000    1.0800549   -6.5792008     403.7971  0.032957648  0.033101686            4 
 1022000    1.0724894   -6.5816416    404.03597  0.032944877  0.033094647            4 
 1023000    1.1034157   -6.6089753    402.07236  0.032752717  0.033087376            3 
 1024000    1.1189059   -6.5652065    404.14685  0.032889555  0.033079944            3 
 1025000    1.1025466   -6.5584674    404.08245  0.032852232  0.033072738            2 
 1026000    1.0779228   -6.5893436    404.63202  0.032864849  0.033065129            4 
 1027000    1.0907941   -6.5797198    403.22696  0.032718838  0.033057618            2 
 1028000     1.089933   -6.5950018    405.00149   0.03283086  0.033050053            3 
 1029000    1.1006143   -6.5943058     404.4071  0.032750818  0.033042474            2 
 1030000    1.0877663   -6.6032272    404.83975  0.032754025   0.03303471            6 
 1031000    1.0674429   -6.6212219    405.85722  0.032804495  0.033026868            5 
 1032000    1.0712961   -6.6094966    404.57708  0.032669338  0.033018715            2 
 1033000    1.0962941    -6.589602    406.62036  0.032802546  0.033010825            4 
 1034000    1.0700125   -6.5797536    406.88301   0.03279199  0.033003307            2 
 1035000    1.0801779   -6.5550975    408.66512  0.032903794  0.032995812            3 
 1036000    1.0786402    -6.535113    408.17549  0.032832649  0.032988392            4 
 1037000    1.0933212   -6.5836176    408.03951   0.03279006  0.032981311            3 
 1038000    1.0713733   -6.5903385    409.56897   0.03288126  0.032973938            5 
 1039000    1.0874204   -6.5814032    408.27042  0.032745462  0.032966428            4 
 1040000     1.086129    -6.571352    409.46667  0.032809829  0.032959133            5 
 1041000    1.0803873   -6.6246904    408.72632  0.032719046  0.032951883            2 
 1042000    1.0868931   -6.5517826     410.5164  0.032830806   0.03294456            3 
 1043000    1.0912862   -6.6026362    409.05164  0.032682298  0.032937023            5 
 1044000    1.0786497   -6.6063507    408.65464  0.032619304  0.032929328            4 
 1045000    1.0790435   -6.6132452    409.56678  0.032660828  0.032921707            3 
 1046000    1.0878983   -6.5905216    409.79119  0.032647481  0.032913875            5 
 1047000    1.0961916   -6.6264133    409.82392  0.032618905  0.032906042            4 
 1048000    1.0624151   -6.5612163    410.87064  0.032671012  0.032898099            4 
 1049000    1.0805057   -6.5788552    411.38256  0.032680534  0.032890636            3 
 1050000    1.0684396   -6.6233584    410.23798   0.03255857  0.032882777            2 
 1051000    1.0598232   -6.6078778    411.36499  0.032616951  0.032875092            8 
 1052000      1.09133   -6.5733578    412.26203  0.032657005  0.032867632            2 
 1053000    1.0619769   -6.6095105    411.29794  0.032549694  0.032860132            4 
 1054000    1.0915251   -6.6744532    411.54233  0.032538135  0.032852571            5 
 1055000    1.0785394   -6.5908824    414.10767  0.032709927   0.03284496            4 
 1056000    1.1095232   -6.6498542    412.43765  0.032547163  0.032837399            6 
 1057000    1.0842897   -6.6206716    413.04778  0.032564473   0.03282965            4 
 1058000     1.091352   -6.6025355    413.63215  0.032579722  0.032821933            6 
 1059000     1.086742   -6.5903556    415.45423  0.032692338  0.032814425            3 
 1060000    1.1036448   -6.6238394     414.2461  0.032566518  0.032806876            4 
 1061000    1.0655991   -6.6220555    413.87086  0.032506351  0.032799352            4 
 1062000    1.0681312    -6.642594     413.4702  0.032444303  0.032791818            2 
 1063000    1.0807352    -6.599002    415.01959  0.032535245  0.032784122            4 
 1064000     1.103054   -6.6482843    412.37913  0.032297864  0.032776361            7 
 1065000    1.0905539   -6.6170975    415.84223  0.032538515  0.032768533            3 
 1066000    1.1223326   -6.5819718    416.01477   0.03252148  0.032761001            1 
 1067000    1.0583792   -6.5502047    419.05251   0.03272825   0.03275351            2 
 1068000    1.1017427   -6.6110927     416.6118  0.032507163  0.032746035            2 
 1069000    1.0970499   -6.6381056    416.51808  0.032469448  0.032738324            3 
 1070000    1.0758868   -6.6186575    416.50322  0.032437946  0.032730713            4 
 1071000    1.1046444   -6.6164494    418.75089  0.032582547  0.032723128            6 
 1072000     1.073602   -6.6515504    418.00444  0.032494126   0.03271552            3 
 1073000    1.0792798    -6.599522    418.50129   0.03250243  0.032708136            4 
 1074000    1.0811014   -6.6247985    417.84969  0.032421608  0.032700783            3 
 1075000    1.0876209   -6.6266517    419.26111  0.032500861   0.03269315            5 
 1076000    1.0814665   -6.6287782      419.392  0.032480793  0.032685634            5 
 1077000    1.0881834   -6.5836007     419.9115  0.032490831  0.032678315            2 
 1078000    1.0995181   -6.6378212    419.87584  0.032457934  0.032670829            3 
 1079000    1.0939956   -6.6373784    418.61902  0.032330786  0.032663246            8 
 1080000    1.0889636   -6.5790731    421.35852  0.032512232  0.032655457            3 
 1081000    1.0759198   -6.6180131    420.79356  0.032438603  0.032648033           10 
 1082000    1.1014653   -6.6156795    420.14539  0.032358702  0.032640608            3 
 1083000     1.088581   -6.5876853    421.76944  0.032453789  0.032633167            5 
 1084000    1.0932556   -6.6000687    421.54458  0.032406563  0.032625676            4 
 1085000    1.0853642   -6.5949543    422.57263  0.032455655  0.032618127            5 
 1086000    1.0621379   -6.5989739    422.10859  0.032390162  0.032610591            3 
 1087000      1.08652   -6.6226003    421.79894  0.032336625  0.032602869            4 
 1088000    1.0674191    -6.585876    423.31915  0.032423342  0.032595093            4 
 1089000    1.0569251   -6.6023445    421.76534  0.032274666  0.032587486            3 
 1090000    1.0686244   -6.5553161    422.63462  0.032311515  0.032579685            4 
 1091000    1.0822607   -6.6729053    421.27999  0.032178429  0.032571832            2 
 1092000    1.1157566   -6.6363507    423.62436  0.032327866  0.032563772            4 
 1093000    1.0702735   -6.5959013    424.52675   0.03236709  0.032556305            3 
 1094000    1.1047057   -6.6229266     425.2123  0.032389724  0.032548873            5 
 1095000    1.0771404   -6.6820865    422.23662  0.032133685  0.032541328            3 
 1096000    1.0721976   -6.6169746    424.40095  0.032268929  0.032533624            3 
 1097000    1.0705274   -6.6113452    424.76156  0.032266907  0.032525761            7 
 1098000    1.0931738   -6.6239474    424.81314  0.032241435  0.032517974            1 
 1099000    1.0624482   -6.6660796    423.69195  0.032127081  0.032509988            3 
 1100000    1.0726722   -6.6331773    424.89848  0.032189279  0.032502069            4 
 1101000    1.0488817    -6.613927    424.41248  0.032123257  0.032494085            7 
 1102000    1.0623797   -6.6463967    424.92865   0.03213314  0.032486079            4 
 1103000    1.0797812   -6.5997057    426.20441  0.032200393  0.032478001            3 
 1104000    1.0863086   -6.5880014    427.25059  0.032250196  0.032470055            2 
 1105000    1.0559788   -6.6295875    426.81296  0.032188006  0.032462076            3 
 1106000    1.0808452   -6.6341892    426.03213   0.03210007  0.032454108            3 
 1107000    1.0846818   -6.6216403     427.0909  0.032150775   0.03244632            6 
 1108000     1.084524   -6.6445654    426.16946  0.032052456  0.032438179            3 
 1109000    1.0884507   -6.6526704    426.60023  0.032055923  0.032430188            8 
 1110000    1.0900059   -6.6469396    427.14462  0.032067915  0.032422203            7 
 1111000    1.0883749   -6.6510199    426.39272  0.031982652   0.03241385            6 
 1112000    1.0602556   -6.6064102    428.28556   0.03209574  0.032405589            2 
 1113000    1.0946181   -6.6511961    427.09803   0.03197799  0.032397246            5 
 1114000    1.0896796   -6.6311118     428.8037  0.032076878  0.032389039            2 
 1115000     1.087377   -6.6157719    427.32267  0.031937419  0.032380823            2 
 1116000    1.0473955   -6.6199498    429.39506   0.03206355  0.032372482            8 
 1117000    1.0650124   -6.6216318    429.03534  0.032008008  0.032364103            4 
 1118000    1.0578959   -6.6070749    428.34994   0.03192829  0.032355598            4 
 1119000    1.0648629   -6.6379409     428.3093  0.031896731  0.032347094            3 
 1120000    1.0593202    -6.629374    430.47837   0.03202964  0.032338548            4 
 1121000    1.0838708   -6.6699829    429.19313  0.031905526  0.032330235            2 
 1122000    1.0662731   -6.6271332    429.06833   0.03186782  0.032321772            8 
 1123000    1.0650152   -6.6964853    428.58472  0.031803556  0.032313045            2 
 1124000    1.0736383    -6.676065    430.36528  0.031907271  0.032304431            3 
 1125000     1.069563   -6.6636016     429.5968  0.031821985  0.032295848            2 
 1126000    1.0740132   -6.6539672    430.73111  0.031877672  0.032287386            2 
 1127000    1.0903137   -6.6568785    431.23192  0.031886419  0.032279322            5 
 1128000    1.0620697   -6.6053264     434.1487  0.032073633  0.032271365            4 
 1129000    1.0647152   -6.6351955     433.1403  0.031970792  0.032263663            2 
 1130000     1.067835   -6.6604388      431.987  0.031857448  0.032255801            4 
 1131000    1.0848967   -6.6411544    434.25351  0.031996279  0.032247934            5 
 1132000    1.0560394    -6.630312    434.92755  0.032017634  0.032240156            2 
 1133000    1.0847733   -6.6510847    433.86716  0.031911383  0.032232058            5 
 1134000    1.0664431   -6.6304628     433.9894  0.031892225  0.032224081            3 
 1135000    1.0564417   -6.5991637     436.2093  0.032027114  0.032216281            2 
 1136000    1.1024081   -6.6059135    435.85518  0.031972945  0.032208194            3 
 1137000    1.0854077   -6.6150475     436.7233   0.03200845  0.032200196            3 
 1138000    1.0519736   -6.6113639    436.47582  0.031962201  0.032192177            4 
 1139000    1.0721414   -6.6509775    435.52415  0.031864512  0.032184133            4 
 1140000    1.0584523   -6.5971064    436.66789  0.031920167  0.032176103            4 
 1141000    1.0682043   -6.6582355    436.05456  0.031847397  0.032167896            4 
 1142000    1.0717963   -6.6490817     437.3539  0.031914324  0.032159809            4 
 1143000    1.0447977   -6.6202667     438.0255  0.031935367  0.032151618            4 
 1144000    1.0747335   -6.6407556    437.52144  0.031870734  0.032143592            3 
 1145000    1.0893398   -6.6295035    437.64096  0.031851598  0.032135473            2 
 1146000     1.074609   -6.6042496    436.94966  0.031773535  0.032127526            6 
 1147000    1.0439414   -6.6529084    438.07778  0.031827796  0.032119442            6 
 1148000    1.0503756   -6.6375672    439.77898  0.031923561  0.032111653            7 
 1149000    1.0894724   -6.5972615    439.62157  0.031884361  0.032104055            4 
 1150000    1.0429408   -6.6269249     439.4207  0.031842079   0.03209644            2 
 1151000    1.0579832   -6.6294536    439.19677  0.031798202  0.032088605            5 
 1152000    1.0798693   -6.6418866    440.62283  0.031873758  0.032080755            3 
 1153000    1.0603625   -6.6547615    441.40915  0.031902945   0.03207304            3 
 1154000     1.050581   -6.6702172    438.78689  0.031685939  0.032065243            2 
 1155000    1.0586515   -6.6489353     440.8275  0.031805736  0.032057285            4 
 1156000    1.0640673   -6.6536561    440.85831  0.031780443  0.032049253            2 
 1157000    1.0853256   -6.6785127    439.26716  0.031638373  0.032041066            3 
 1158000    1.0642724   -6.6985136    439.28606   0.03161241  0.032032905            4 
 1159000    1.0611494   -6.6058972    442.63697  0.031826069  0.032024668            3 
 1160000    1.0670164   -6.6603008    441.59954  0.031724105  0.032016586            6 
 1161000    1.0538564   -6.7166369    440.97936  0.031652265  0.032008235            4 
 1162000    1.0535748   -6.6699002    441.17555  0.031639095  0.032000055            2 
 1163000    1.0791578   -6.6276848    442.97162  0.031740586   0.03199205            5 
 1164000     1.055721   -6.6935926    442.26188  0.031662506   0.03198412            3 
 1165000    1.0801914   -6.6581353    443.73323  0.031740574   0.03197626            2 
 1166000    1.0587555   -6.6154479    445.19736  0.031817993  0.031968337            3 
 1167000    1.0682553   -6.6502529    444.18836  0.031718677  0.031960488            3 
 1168000    1.0487133   -6.6670097    443.17859  0.031619477  0.031952497            2 
 1169000     1.069488   -6.6300513    445.21571  0.031737647  0.031944463            3 
 1170000     1.055938   -6.6537796    445.26059  0.031713717  0.031936691            3 
 1171000    1.0752422   -6.6310461    445.04117   0.03167102  0.031928945            4 
 1172000    1.0822702   -6.6491951    445.70226  0.031691002  0.031920938            4 
 1173000     1.046004    -6.642338    445.65346  0.031660519  0.031913096            7 
 1174000    1.0647908   -6.6655002    445.17001  0.031599234  0.031905265           11 
 1175000     1.024629   -6.6522763    446.41298  0.031660495  0.031897406            3 
 1176000     1.070316   -6.6736777    444.32224   0.03148542  0.031889594            4 
 1177000     1.064382   -6.6567872    446.79679  0.031633871  0.031881639            3 
 1178000    1.0645731    -6.645845    446.61165   0.03159392  0.031873774            8 
 1179000    1.0648989   -6.6290395    447.52655  0.031631789  0.031865853            7 
 1180000    1.0803777   -6.6265483    447.36114  0.031593301  0.031857915            2 
 1181000    1.0733867   -6.6834273     446.2288   0.03148665  0.031850026            5 
 1182000    1.0572216   -6.6764252     449.1819   0.03166821  0.031842173            2 
 1183000    1.0620794   -6.6321708    447.60248  0.031530183  0.031834118            3 
 1184000    1.0492335   -6.6989371     448.5148  0.031567764  0.031826161            5 
 1185000    1.0550964   -6.6151825    449.67331  0.031622595   0.03181839            4 
 1186000    1.0620206   -6.6593202    448.57395  0.031518686  0.031810511            7 
 1187000    1.0445068   -6.6628502    449.80949  0.031578875  0.031802449            4 
 1188000    1.0864292   -6.6613435    448.68289  0.031473267  0.031794547            3 
 1189000    1.0575099   -6.6910774     448.2661  0.031417585  0.031786503            7 
 1190000    1.0628305   -6.7116121    448.66135  0.031418862  0.031778381            3 
 1191000     1.043512   -6.6925239    449.79119  0.031471536  0.031770189            4 
 1192000    1.0761862   -6.6810554    450.51387  0.031495656  0.031762283            7 
 1193000     1.050504   -6.6641856     450.9215   0.03149773  0.031754275            3 
 1194000    1.0810721   -6.6444145    450.26797  0.031425738  0.031746415            6 
 1195000    1.0602717   -6.6452973    450.97589  0.031448807  0.031738524            4 
 1196000    1.0940682   -6.6607318    449.67469  0.031331848  0.031730743            5 
 1197000    1.0678347    -6.619546    452.02249  0.031469123   0.03172293            2 
 1198000    1.0568905   -6.6958269    449.70032  0.031281324  0.031714725            4 
 1199000    1.0616346    -6.657086    452.57377  0.031454946   0.03170642            3 
 1200000    1.0694345   -6.6255489    452.38529  0.031415645  0.031698161            6 
 1201000    1.0488302    -6.674044    450.54116  0.031261529  0.031689883            2 
 1202000     1.033628   -6.6580321    453.37884  0.031432254  0.031681505            1 
 1203000    1.0458628   -6.6873832    450.91554  0.031235491  0.031672945           11 
 1204000    1.0541376   -6.6845642    452.00936  0.031285255  0.031664284            3 
 1205000    1.0521196   -6.6913513     451.4956  0.031223762  0.031655582            6 
 1206000    1.0594474   -6.7073147    451.60355  0.031205331  0.031646961            6 
 1207000    1.0604362   -6.6378472    452.84062  0.031264887  0.031638185            6 
 1208000    1.0635354   -6.6551726     452.7225  0.031230856  0.031629669            7 
 1209000    1.0475516   -6.6415286     453.9859  0.031292108  0.031621453            6 
 1210000    1.0590372   -6.6653481    454.81991  0.031323685   0.03161308            3 
 1211000    1.0541019   -6.6826057    453.71882  0.031222049  0.031604781            6 
 1212000    1.0637468    -6.668762    454.33473  0.031238636  0.031596464            3 
 1213000    1.0502111   -6.6742909    453.96281  0.031187333  0.031588121            3 
 1214000    1.0318307   -6.6756679    454.37417   0.03118988  0.031579627            9 
 1215000    1.0377896    -6.664948    454.45206  0.031169552  0.031571297            4 
 1216000    1.0542994   -6.6521643    455.39764   0.03120872  0.031562885            3 
 1217000    1.0577542   -6.6696585    454.61958  0.031129799  0.031554492            2 
 1218000    1.0584462   -6.6648816     455.8223  0.031186528  0.031545884            6 
 1219000     1.075091   -6.6597375    456.12988  0.031181972  0.031537293            3 
 1220000    1.0612236   -6.6891644    457.14552  0.031225787  0.031528634            6 
 1221000    1.0605386   -6.6601925    455.49259  0.031087401  0.031520117            4 
 1222000    1.0513372   -6.6832614    457.64715  0.031208889  0.031511561            4 
 1223000    1.0403146   -6.6778718    456.03853  0.031073762  0.031502728            3 
 1224000    1.0384763   -6.6798143    457.62422  0.031156333  0.031494226            3 
 1225000    1.0840659   -6.6672677     456.9896  0.031087728  0.031485541            5 
 1226000    1.0403466   -6.6794781    456.56734  0.031033669  0.031476931            3 
 1227000    1.0503127   -6.6516386    458.36055  0.031130165  0.031468222            4 
 1228000    1.0720282   -6.6499009    457.87707  0.031072005   0.03145964            2 
 1229000    1.0418626   -6.6766193    457.29932  0.031007548  0.031450903            4 
 1230000      1.06379   -6.6579135    458.41136   0.03105768  0.031442284            2 
 1231000    1.0804562   -6.6957041    458.96059  0.031069631  0.031433591            5 
 1232000    1.0896731   -6.6705481      458.851  0.031036999  0.031425127            7 
 1233000    1.0407697   -6.6165618    460.26459  0.031107366  0.031416423            5 
 1234000    1.0636639   -6.6688092    458.61354  0.030970661  0.031407967            5 
 1235000    1.0483584   -6.6525255    459.73925  0.031021542  0.031399521            3 
 1236000     1.052379   -6.6944187    459.27062  0.030964848  0.031390994            2 
 1237000    1.0527906   -6.6601607    461.75774  0.031107366  0.031382485            2 
 1238000    1.0621194   -6.6837187    461.15987  0.031041995  0.031373915            4 
 1239000    1.0679078   -6.6865807    459.96845  0.030936807  0.031365358            2 
 1240000    1.0724107   -6.6787268    460.37169  0.030938958  0.031356624            3 
 1241000    1.0527165   -6.7055941    460.24942  0.030905817  0.031348069            3 
 1242000    1.0678323    -6.686006    461.42522  0.030959824   0.03133952            4 
 1243000    1.0749671   -6.6520647    462.37817  0.030998805  0.031331051           10 
 1244000     1.046434   -6.6547403    462.51681  0.030983173  0.031322341            3 
 1245000    1.0560631   -6.6874217    461.17778   0.03086866  0.031313651            2 
 1246000    1.0392615   -6.6615326    461.27847   0.03085062  0.031305231            2 
 1247000    1.0578083   -6.6854024    461.85923   0.03086469  0.031296672           10 
 1248000    1.0653148   -6.7038249    461.57488  0.030820972  0.031287911            4 
 1249000    1.0575015   -6.6818801    462.82435   0.03087966  0.031279404            2 
 1250000    1.0335905    -6.712499    462.87833  0.030858556  0.031270485            4 
 1251000    1.0531912   -6.7225015    461.99682  0.030775168  0.031261652            3 
 1252000    1.0491724   -6.6674432    463.32633  0.030839079  0.031252841            2 
 1253000    1.0582792   -6.6615183    465.12727  0.030934242  0.031244045            2 
 1254000    1.0482862   -6.7014963    464.33476  0.030856909  0.031235451            3 
 1255000    1.0636287   -6.7433364    462.60344   0.03071736  0.031226791            3 
 1256000    1.0519631   -6.6883928    465.06891  0.030856483  0.031218142            2 
 1257000    1.0407701   -6.6551512    466.69318  0.030939617  0.031209498            6 
 1258000    1.0431542   -6.6830169    465.61215  0.030843412  0.031200858            5 
 1259000    1.0460364   -6.6699079    465.45369  0.030808425  0.031192202            2 
 1260000    1.0526312   -6.6513805    466.79578  0.030872737  0.031183498            5 
 1261000     1.020245   -6.7027441    465.99669  0.030795446  0.031174844            3 
 1262000    1.0745392   -6.6799573    465.18272  0.030717295  0.031166093            5 
 1263000    1.0548234   -6.6335493    465.98391  0.030745838  0.031157405            2 
 1264000    1.0623294   -6.6720262    466.62487   0.03076377  0.031148771            3 
 1265000    1.0564374   -6.6824941    468.60278  0.030869748  0.031139979            9 
 1266000    1.0420798   -6.7035968    467.09257  0.030745957  0.031131241            3 
 1267000    1.0367161   -6.6478928    467.99565  0.030781087   0.03112285            3 
 1268000    1.0433007   -6.7005396    468.11088  0.030764385  0.031114341            2 
 1269000    1.0484931   -6.6882607    468.42949  0.030761065  0.031105943            4 
 1270000    1.0481978    -6.694166    469.52454  0.030808697  0.031097538            7 
 1271000    1.0445885   -6.6378885    470.20393  0.030829002  0.031089046            2 
 1272000    1.0391587   -6.6994075    469.13192  0.030734533  0.031080723            5 
 1273000    1.0309991   -6.6608018    470.89777  0.030825986  0.031072569            3 
 1274000    1.0705645   -6.6954303    471.31463  0.030829057  0.031064259            3 
 1275000    1.0194975   -6.6850438    470.75994  0.030768623  0.031056042            5 
 1276000     1.047875   -6.6779171    470.50568  0.030727905   0.03104777            2 
 1277000    1.0385607   -6.6837053     470.5776  0.030708535  0.031039591            6 
 1278000    1.0408344   -6.6809795    471.09821  0.030718454  0.031031221            2 
 1279000     1.042767    -6.710264    470.69627  0.030668248  0.031022762            2 
 1280000    1.0568053   -6.6807985    470.98631  0.030663171  0.031014461            3 
 1281000    1.0181749   -6.6756667    472.07396   0.03070999  0.031006136            3 
 1282000     1.044208   -6.6718539     472.5939  0.030719832  0.030997695            2 
 1283000    1.0500827     -6.68157    473.40028  0.030748264  0.030989522            3 
 1284000    1.0572235   -6.6985409    472.93656  0.030694221  0.030981217            6 
 1285000    1.0303902   -6.7021397    472.67864  0.030653608  0.030972938            4 
 1286000    1.0570208   -6.6934848    472.84448  0.030640518  0.030964799            7 
 1287000    1.0384751   -6.7012749    473.64992  0.030668863  0.030956445            8 
 1288000    1.0451625   -6.6858757     474.1517  0.030677517  0.030948298            3 
 1289000    1.0610328   -6.7141872    473.51318  0.030612437   0.03094021            8 
 1290000    1.0428014   -6.7094143       473.28  0.030573643  0.030931886            2 
 1291000    1.0314713   -6.7298815    474.37691  0.030620766   0.03092348            2 
 1292000    1.0501793   -6.6971496    475.62301  0.030677438  0.030915325            5 
 1293000    1.0467674   -6.6839448    476.75482  0.030726657  0.030907244            2 
 1294000     1.057683   -6.6670041    476.44785  0.030683143  0.030899229            5 
 1295000    1.0442134   -6.6966252    477.28939  0.030713603  0.030891284            6 
 1296000     1.057417   -6.7222571    477.92316  0.030730656  0.030883216            7 
 1297000    1.0445363   -6.7367787    475.62141  0.030559073  0.030875192            6 
 1298000    1.0482555   -6.7008646    477.40279  0.030649897   0.03086718            7 
 1299000    1.0494121   -6.7016031    477.05964  0.030604288  0.030858837            4 
 1300000     1.050443   -6.7408245    476.73236  0.030559767  0.030850523            7 
 1301000    1.0566735   -6.6920285    477.71255  0.030599061  0.030842313            2 
 1302000    1.0249581   -6.7128452    479.46662  0.030687827   0.03083433            3 
 1303000    1.0461242   -6.7368884    478.38239  0.030594934  0.030826327            6 
 1304000    1.0488394   -6.6780375    478.85307  0.030601551  0.030818388            4 
 1305000    1.0508237   -6.7308633    479.19301  0.030599809  0.030810468            3 
 1306000    1.0150437   -6.7308031    477.65491  0.030478235  0.030802601            5 
 1307000    1.0305212   -6.6971257    478.77232  0.030526162  0.030794544            4 
 1308000    1.0457189   -6.7482093    478.83748  0.030506975  0.030786383            3 
 1309000    1.0415755   -6.7150423    479.11363   0.03050125  0.030778177            3 
 1310000    1.0359893   -6.7419933    477.77281  0.030392672  0.030769888            5 
 1311000     1.050114   -6.7339417    479.24391     0.030463  0.030761622            3 
 1312000    1.0632465   -6.7273071     479.1082  0.030431161  0.030753317            4 
 1313000    1.0537085   -6.6932314    480.72829  0.030510808  0.030745054            4 
 1314000    1.0576553   -6.7172859    479.21569   0.03039166  0.030736715            4 
 1315000    1.0463438   -6.7149122    479.87903  0.030410585  0.030728321            3 
 1316000    1.0423459   -6.6855642    480.71269  0.030440267  0.030719982            3 
 1317000    1.0404756   -6.7222957    479.90987  0.030366355  0.030711533            3 
 1318000    1.0300822    -6.787015      478.361  0.030245384  0.030702805            4 
 1319000    1.0601874   -6.6955529    479.75141  0.030310299  0.030694047            4 
 1320000    1.0285643   -6.7347988    480.36596  0.030326134  0.030685354            3 
 1321000    1.0542155   -6.7646714    481.12619  0.030351135  0.030676609            7 
 1322000    1.0294439   -6.7231966    481.87477  0.030375364  0.030668022            2 
 1323000    1.0618347   -6.7528232    481.45469  0.030325944  0.030659569            4 
 1324000    1.0408254   -6.7087257    482.01113  0.030338062   0.03065108            3 
 1325000    1.0453603    -6.712288    482.53804  0.030348304  0.030642572            3 
 1326000    1.0496755    -6.680211    483.28082  0.030372098  0.030634168            7 
 1327000    1.0304757   -6.7145569    481.65003  0.030246799   0.03062582            6 
 1328000    1.0307106   -6.7286097     484.0506  0.030374661   0.03061748            3 
 1329000    1.0452514   -6.7159212    484.01895  0.030349821  0.030609144            3 
 1330000    1.0296136   -6.7517203    482.34535   0.03022214  0.030600762            1 
 1331000    1.0385273   -6.6704319    484.55114  0.030337537  0.030592605            4 
 1332000    1.0225101   -6.7270827    483.78704  0.030266957  0.030584435            2 
 1333000    1.0453275   -6.7232377    486.44078  0.030410151  0.030576127            3 
 1334000     1.035348   -6.6862752    484.62539   0.03027395  0.030567967            3 
 1335000    1.0436842   -6.7300217    485.20789  0.030287634  0.030559751            4 
 1336000    1.0387829    -6.720037    486.53272    0.0303476  0.030551483            3 
 1337000    1.0175968   -6.7761695    483.65154  0.030145322  0.030543118            3 
 1338000    1.0289728   -6.6958127     485.4092  0.030232262  0.030534806            3 
 1339000    1.0282346   -6.7801187    485.78312  0.030232955  0.030526499            7 
 1340000    1.0431884   -6.7107173    486.68898  0.030266728  0.030518222            4 
 1341000    1.0303115   -6.7596229    485.79967  0.030188893  0.030509934            3 
 1342000      1.02091   -6.7254367    484.80096  0.030104382  0.030501438           11 
 1343000    1.0396458   -6.7303772      486.845  0.030208799  0.030493204            5 
 1344000    1.0357797   -6.7001523    487.98142  0.030256785  0.030484899            6 
 1345000    1.0284233   -6.7113844    488.50365  0.030266645  0.030476785            5 
 1346000    1.0204883   -6.7349053    487.47818   0.03018067  0.030468659            7 
 1347000    1.0280234   -6.6689978    489.63096  0.030291448  0.030460408            3 
 1348000    1.0393468   -6.6875653    488.24724  0.030183435  0.030452298            2 
 1349000    1.0249428   -6.7357612    487.96735   0.03014377  0.030444148            5 
 1350000    1.0229262   -6.7267741    488.89442  0.030178668  0.030435865            4 
 1351000    1.0475462   -6.7459807     489.7476  0.030208956  0.030427706            4 
 1352000    1.0089742   -6.7416056    488.93645  0.030136615  0.030419581            4 
 1353000    1.0533889   -6.7592015    488.25653  0.030072464  0.030411269            5 
 1354000    1.0377233   -6.7305521    489.80545  0.030145584  0.030403113            3 
 1355000     1.043527   -6.7157668    489.74958  0.030119901   0.03039492            6 
 1356000    1.0095081   -6.7624108     490.1579  0.030122781  0.030386718            4 
 1357000    1.0356125   -6.7377167    489.11617  0.030036611  0.030378327            6 
 1358000    1.0300948   -6.7492371     489.5109  0.030038715  0.030370125            4 
 1359000    1.0200348   -6.7581869    489.27811  0.030002337  0.030361721            2 
 1360000    1.0517345   -6.7219947    490.61734  0.030062337  0.030353374            5 
 1361000     1.044411   -6.7450939    490.76311  0.030049174  0.030345059            3 
 1362000    1.0247978   -6.7338895    491.43198  0.030068036  0.030336731            3 
 1363000    1.0456862   -6.7400566    490.51881  0.029990145   0.03032845            4 
 1364000    1.0488919   -6.7013241    493.43777  0.030146492  0.030320228            3 
 1365000    1.0297292   -6.7273138    492.27841  0.030053627  0.030312107            3 
 1366000    1.0220021   -6.7327227    492.04513  0.030017394  0.030303737            6 
 1367000    1.0365114   -6.7049258    493.27209  0.030070232  0.030295278            5 
 1368000    1.0139416   -6.7284236    491.97322  0.029969129  0.030287058            2 
 1369000    1.0144226   -6.7518375    493.29336  0.030027597  0.030278572            6 
 1370000    1.0258316   -6.7108199    494.35567  0.030070296  0.030270168            2 
 1371000    1.0289669   -6.7831321    490.23706  0.029798022  0.030261707            5 
 1372000    1.0350134   -6.7484912    492.70462  0.029926179  0.030253138            8 
 1373000    1.0605584   -6.7431422    491.56841  0.029835422   0.03024455            5 
 1374000     1.039555   -6.7810715    492.18417  0.029851054  0.030235856            4 
 1375000    1.0268172   -6.7727673    492.48716  0.029847707  0.030227052            2 
 1376000    1.0240701   -6.7639455    492.55607  0.029830188  0.030218215            3 
 1377000   0.99993556   -6.7111857    494.45933  0.029923707   0.03020941            3 
 1378000    1.0232339   -6.7310619    493.87252  0.029866504   0.03020079            3 
 1379000    1.0313141   -6.7304644    493.65442  0.029831666  0.030192316            4 
 1380000    1.0126674   -6.7269538     494.9882  0.029890592  0.030183772            8 
 1381000    1.0072204   -6.7445016    495.61843  0.029906977   0.03017526            3 
 1382000    1.0219231   -6.7634398    492.77561  0.029713918  0.030166551            5 
 1383000    1.0251362   -6.7373193    493.18325  0.029716995  0.030157611            4 
 1384000    1.0411809   -6.7445369    494.40797  0.029769266  0.030148883            3 
 1385000    1.0483437   -6.8006675    494.52293  0.029754689  0.030140068            2 
 1386000    1.0510312    -6.742347    494.67385  0.029742295  0.030131262            9 
 1387000     1.033452   -6.7642478    493.68994  0.029661736  0.030122497            7 
 1388000    1.0319194    -6.732267    494.47678  0.029687607  0.030113785            2 
 1389000    1.0346301   -6.7795481    494.53392  0.029669661  0.030105094            5 
 1390000    1.0167501   -6.7589299    494.62287  0.029653649  0.030096234            3 
 1391000    1.0332396   -6.7513239    495.88302  0.029707825  0.030087318            5 
 1392000    1.0411303   -6.7933497    493.25042   0.02952888  0.030078349            3 
 1393000    1.0499002   -6.7167088    496.34466  0.029692789  0.030069515            5 
 1394000    1.0045148   -6.7685986    494.29744  0.029549106  0.030060644            3 
 1395000    1.0262734   -6.7682808    493.17598  0.029460931  0.030051689            4 
 1396000     1.045179   -6.7218676    497.08211  0.029673001  0.030042689            4 
 1397000    1.0489954   -6.7656246    496.50217  0.029617166  0.030033852            4 
 1398000    1.0197151   -6.7285976    497.62541  0.029662936  0.030024733            3 
 1399000    1.0293857   -6.7631604    497.78469   0.02965122   0.03001567           11 
 1400000    1.0210699   -6.7130073     498.3889  0.029666006  0.030006757            5 
 1401000    1.0221606   -6.7433716    498.24183  0.029636083  0.029997846            9 
 1402000    1.0308207    -6.799259    496.04156  0.029484163  0.029988869            2 
 1403000    1.0224737   -6.8054502    496.29103  0.029477966  0.029979868            5 
 1404000    1.0237363   -6.7440878      498.848  0.029608737  0.029970893            4 
 1405000     1.040282   -6.7638515    497.84924  0.029528424   0.02996202            5 
 1406000    1.0245914   -6.7656385    499.22798  0.029589141  0.029953294            2 
 1407000    1.0696852     -6.74074    499.62639  0.029591707  0.029944688            3 
 1408000    1.0045927   -6.7245052    501.68818  0.029692719  0.029936201            3 
 1409000    1.0123894   -6.7360313     500.2438   0.02958622  0.029927554            5 
 1410000    1.0081522    -6.766883    500.99848  0.029609839  0.029918875            3 
 1411000     1.033746   -6.7533554    501.26661   0.02960469  0.029910188            6 
 1412000    1.0239302   -6.7807085    499.20518  0.029462062  0.029901428            4 
 1413000     1.007851   -6.7333708    502.20417   0.02961808  0.029892867            8 
 1414000    1.0069119   -6.7406501    501.57168  0.029559859  0.029884519            2 
 1415000    1.0168662   -6.7489684    501.39049  0.029528298  0.029876115            3 
 1416000    1.0189081   -6.7628038    502.35046   0.02956394  0.029867542            2 
 1417000    1.0273525   -6.7568233    503.75896  0.029625909  0.029859024            9 
 1418000    1.0045585   -6.7469666    505.27478  0.029694099  0.029850641            6 
 1419000    1.0269158   -6.7620537    503.70516  0.029580993  0.029842303            5 
 1420000     1.035198   -6.7828734     502.7612  0.029504765  0.029833819            6 
 1421000    1.0025465   -6.7959055    502.12151  0.029446488  0.029825158            4 
 1422000    1.0310447   -6.7711318    501.83801  0.029409166  0.029816405           10 
 1423000    1.0299944   -6.7731231    504.29964  0.029532656  0.029807811            7 
 1424000    1.0337608   -6.7680864    502.59582  0.029412209  0.029799299            8 
 1425000    1.0232595   -6.7777199    504.13329  0.029481479   0.02979065            2 
 1426000    1.0297368   -6.7718125    503.00512  0.029394876  0.029782144            9 
 1427000    1.0218386   -6.7327737    505.41062  0.029514752  0.029773601            2 
 1428000     1.042283   -6.7588381     503.1473  0.029362004  0.029765088            3 
 1429000    1.0265512   -6.8182703    503.70555  0.029374012  0.029756409            5 
 1430000    1.0185046   -6.7620773    505.23556  0.029442632  0.029747572            3 
 1431000    1.0404955   -6.7749978    503.62711   0.02932839  0.029738883            6 
 1432000     1.023169   -6.7788144    505.59997  0.029422717  0.029730148            3 
 1433000    1.0213594   -6.7456055     505.3691  0.029388759  0.029721331            5 
 1434000    1.0147562   -6.7656154     506.5572  0.029437308  0.029712435            3 
 1435000     1.028603   -6.7628161    504.99902  0.029326308  0.029703669            9 
 1436000    1.0224031   -6.7640968    505.88241   0.02935715  0.029694779           10 
 1437000    1.0352888   -6.7488021    507.76125  0.029445677  0.029686185            3 
 1438000    1.0284776   -6.7798931    505.60447  0.029300213  0.029677488            8 
 1439000    1.0090763    -6.769167    506.44131  0.029328313  0.029668818            8 
 1440000    1.0120738   -6.8009424    505.60741  0.029259688  0.029660143            6 
 1441000    1.0143118   -6.7478248    508.50242  0.029406802   0.02965164            7 
 1442000    1.0514416   -6.7611014    508.36208  0.029378299  0.029643126            3 
 1443000    1.0090565    -6.775069     507.7657  0.029323499  0.029634516            4 
 1444000    1.0229169   -6.7841467    509.07831  0.029378942    0.0296258            7 
 1445000     1.029043   -6.7826815    508.82517  0.029344012  0.029617173            7 
 1446000    1.0303384   -6.8223926    506.80428  0.029207255   0.02960875            4 
 1447000    1.0441105   -6.7703339    509.13107   0.02932107  0.029600174            3 
 1448000    1.0154136   -6.7870651    508.44993  0.029261621  0.029591704            3 
 1449000    1.0121536    -6.776069    510.37902  0.029352371   0.02958321            6 
 1450000     1.008261   -6.7877939    507.60216  0.029172538  0.029574541            1 
 1451000   0.99163938   -6.7759264    508.22006   0.02918792  0.029565816            4 
 1452000    1.0061282   -6.7874589    510.03551  0.029272011  0.029557165            5 
 1453000    1.0156828   -6.8029931    509.31248  0.029210397  0.029548355            4 
 1454000    1.0305448   -6.8057031    509.64776  0.029209523  0.029539767            2 
 1455000    1.0303489   -6.7765714    509.83493  0.029200168    0.0295309            2 
 1456000    1.0209875   -6.7797326    509.66011  0.029170107  0.029522311            3 
 1457000    1.0233334   -6.7698574    510.55399  0.029201212  0.029513702            5 
 1458000    1.0353494   -6.7954654    508.66853  0.029073418   0.02950499            5 
 1459000    1.0017571   -6.7688752    510.40875  0.029152887  0.029496409            5 
 1460000    1.0040069   -6.7856453    511.77111   0.02921068  0.029487824            3 
 1461000    1.0155826   -6.7747451    513.50996  0.029289868  0.029479413            8 
 1462000     1.018518   -6.7883178    511.83458  0.029174337  0.029470976            3 
 1463000   0.99609654   -6.7633455    514.45218  0.029303496   0.02946255            3 
 1464000   0.99676966   -6.7257011     512.7682  0.029187625  0.029454317            7 
 1465000    1.0463737   -6.8128176    511.30301  0.029084358  0.029446037            3 
 1466000    1.0336882   -6.7953429    513.84125  0.029208803  0.029437615            3 
 1467000      1.02315   -6.7997054    512.25811  0.029098961   0.02942908            4 
 1468000    1.0092967    -6.772305     513.4607  0.029147406  0.029420565            4 
 1469000    1.0063009   -6.7911792    512.10543  0.029050683  0.029411997            4 
 1470000    1.0211333   -6.7455154    514.90653  0.029189712  0.029403505            7 
 1471000    1.0100618   -6.7902953    514.50224  0.029146966  0.029395211            6 
 1472000    1.0352859   -6.7684123    513.47248  0.029068868  0.029386731            2 
 1473000    1.0177976   -6.7586153    514.89695  0.029129721  0.029378287            4 
 1474000    1.0308799   -6.8051852    513.73321  0.029044166  0.029369868            4 
 1475000     1.024064   -6.7940918    514.33658  0.029058564  0.029361509            3 
 1476000    1.0277087   -6.7593312    516.41895  0.029156445  0.029353145            3 
 1477000     1.007174    -6.777904    515.17365  0.029066444  0.029344847            3 
 1478000    1.0104865   -6.7883176    516.42731  0.029117462  0.029336523            4 
 1479000   0.99453771   -6.8106002    515.13661  0.029025051  0.029328047            5 
 1480000    1.0047978   -6.8023458    517.36687  0.029131017  0.029319631            7 
 1481000    1.0090887   -6.7985354    515.42258  0.029001946  0.029311154            4 
 1482000    1.0287509   -6.7801568    516.42079  0.029038506  0.029302737            3 
 1483000     1.032013   -6.7692046    517.02199  0.029052708  0.029294319            6 
 1484000   0.98718469   -6.8453249    515.87836  0.028968911  0.029285794            5 
 1485000    1.0239921   -6.7944344    516.99645  0.029012147  0.029277479            5 
 1486000   0.99863958   -6.8115416     516.5538  0.028967799   0.02926899            8 
 1487000    1.0139083   -6.8068241    516.68954  0.028955926   0.02926053            6 
 1488000    1.0071945    -6.752415    516.57349  0.028929967    0.0292522            2 
 1489000    1.0036908   -6.7825117    518.31209   0.02900784  0.029243991            3 
 1490000    1.0017487   -6.8133167    518.20721  0.028982506  0.029235709            3 
 1491000   0.99482855   -6.8033763    519.09819  0.029012866  0.029227474            3 
 1492000    1.0320741   -6.7756199      520.191  0.029054457  0.029219157            5 
 1493000     1.024712   -6.7458539    521.12092  0.029086901  0.029210905            4 
 1494000    1.0129428   -6.7885172    518.56437  0.028924831  0.029202728            6 
 1495000    1.0201322    -6.786461    520.66198  0.029022407  0.029194585            2 
 1496000    1.0267863   -6.7828688    520.10656  0.028972068  0.029186227            3 
 1497000    1.0054605   -6.7811872    520.42641  0.028970519  0.029178045            5 
 1498000   0.99759979   -6.7393389     520.7581  0.028969632  0.029169775            3 
 1499000    1.0130083   -6.7743821    522.05263  0.029022272  0.029161701            4 
 1500000   0.99930168   -6.7956242    521.30991  0.028961662  0.029153633            5 
 1501000    1.0107549   -6.7860999    519.83766   0.02886063  0.029145367            2 
 1502000    1.0260532    -6.782639    520.66107  0.028887099  0.029137074            5 
 1503000    1.0157269   -6.7905019    522.27247  0.028957223  0.029128868            5 
 1504000    1.0397994   -6.7735887    521.35184  0.028886959  0.029120634            2 
 1505000     1.003342   -6.7754422    521.04372  0.028850704  0.029112399            5 
 1506000    1.0172888   -6.7653782    522.91358  0.028935014  0.029104054            2 
 1507000    1.0097955   -6.8336198    520.35163  0.028774145  0.029095882            4 
 1508000    1.0173052   -6.7877917    522.13365  0.028853539  0.029087568            6 
 1509000    1.0102557   -6.7828916    522.89556  0.028876494  0.029079402            2 
 1510000   0.99410993   -6.7887849    523.44079  0.028887461   0.02907126            8 
 1511000    1.0201142   -6.8023965    524.54469  0.028929224  0.029063096            3 
 1512000    1.0015751   -6.7584245    522.91756  0.028820412  0.029054788            3 
 1513000    1.0171548   -6.8050526    522.64329  0.028786258  0.029046484            4 
 1514000    1.0229559    -6.822292    522.46973  0.028757691  0.029038184            7 
 1515000    1.0112441   -6.7797965    523.69555  0.028806136  0.029030009            3 
 1516000    1.0157612   -6.7572992     525.3611  0.028878688  0.029021922            2 
 1517000    0.9988259   -6.7562062    525.36058  0.028859623  0.029013714            7 
 1518000    1.0315553   -6.7912699    524.87236   0.02881381   0.02900543            9 
 1519000    1.0080799   -6.7737926    525.72739  0.028841749  0.028997278            4 
 1520000    1.0084377     -6.84904     524.5507  0.028758262  0.028989077            5 
 1521000    1.0051687   -6.7926812    525.03801  0.028766053  0.028980896            7 
 1522000   0.99659477   -6.7534425    525.36373  0.028764987  0.028972844            7 
 1523000     1.003338   -6.8261803    524.66432  0.028707831  0.028964741            4 
 1524000   0.98369707   -6.8259718    526.25576  0.028776015  0.028956302            4 
 1525000    1.0227911   -6.8194874    524.83004  0.028679237   0.02894803            4 
 1526000    1.0218172   -6.8146257    526.43034  0.028747834  0.028939763            3 
 1527000    1.0124916   -6.8202185     525.1914  0.028661395  0.028931441            2 
 1528000    1.0056703   -6.7975073    527.30684  0.028758008  0.028923213            3 
 1529000    1.0019128   -6.8306252    526.59822  0.028700579  0.028915002            2 
 1530000   0.98429736   -6.8619122    525.76142  0.028636243  0.028906758            3 
 1531000    1.0219759   -6.8247426    525.93078  0.028626757  0.028898549            3 
 1532000    1.0092216   -6.8322736    527.91325  0.028715908  0.028890445            4 
 1533000    1.0114398   -6.8101445     530.0732   0.02881459  0.028882365            2 
 1534000    0.9832369   -6.8117416    527.88952  0.028677179  0.028874266            4 
 1535000    1.0015318   -6.8454911    528.55887  0.028694835  0.028866153            4 
 1536000    1.0344265   -6.8083095    530.06572  0.028757906  0.028858158           11 
 1537000    1.0112707   -6.8178937    530.14288  0.028743379   0.02885021           10 
 1538000    1.0177576   -6.8186064    528.48484  0.028634853  0.028842257            4 
 1539000     1.015638   -6.8304345    528.58935  0.028621906  0.028834318            4 
 1540000    1.0024691   -6.8424484    529.16878  0.028634674  0.028826213            2 
 1541000   0.98642101   -6.7811916    532.56293  0.028799639  0.028818279            4 
 1542000    1.0013507   -6.8151519    531.00165  0.028696587  0.028810359            3 
 1543000    1.0039553    -6.837523    530.05745  0.028626996  0.028802447            5 
 1544000    1.0000678   -6.7584017    533.13051  0.028774315  0.028794576            4 
 1545000   0.98514326   -6.7826522    532.58284  0.028726151  0.028786763           10 
 1546000   0.99554576   -6.7788263    533.75613  0.028770813  0.028778871            4 
 1547000   0.99303698   -6.7874314    531.97482   0.02865626  0.028770981            3 
 1548000   0.99568605   -6.8082861    531.62506   0.02861892  0.028763065            5 
 1549000    1.0019326   -6.8214009    532.81209  0.028664304  0.028755331            4 
 1550000    1.0106662   -6.8104852    531.94564  0.028599228  0.028747522            3 
 1551000    1.0020333   -6.8200584    532.44978  0.028607876  0.028739732            7 
 1552000   0.99972721   -6.8237166    532.53938  0.028594254  0.028731939            9 
 1553000    1.0174556   -6.7873888    533.39978   0.02862201  0.028723997            3 
 1554000    1.0328558   -6.7879214    533.98178  0.028634801  0.028716149            5 
 1555000     1.009915   -6.8605718     531.9855  0.028509405  0.028708313            3 
 1556000    1.0239175   -6.8335137    531.73692   0.02847777  0.028700296            4 
 1557000    1.0019068   -6.8834089    531.61635  0.028453027  0.028692166            5 
 1558000    1.0107379   -6.7804503    534.70758  0.028600106  0.028684094            7 
 1559000     1.020547   -6.8199783    533.88287  0.028537678   0.02867612            4 
 1560000    1.0192755   -6.7961756    535.15037  0.028587092  0.028668338            3 
 1561000   0.98794074   -6.8174149     534.6924  0.028544331  0.028660401            5 
 1562000   0.98996725   -6.8445824    534.05463  0.028492031  0.028652488            3 
 1563000   0.99618032   -6.8464154    534.76394   0.02851162   0.02864442            4 
 1564000    1.0086523   -6.8346841    536.36179  0.028578527  0.028636359            4 
 1565000    1.0177411   -6.8565545    534.53736  0.028463118  0.028628271            6 
 1566000    1.0177546   -6.8551038    535.06534  0.028473038  0.028620269            2 
 1567000   0.99670893   -6.8355159    535.70514  0.028488893  0.028612157            5 
 1568000    1.0004074   -6.8057172    536.04854  0.028488974  0.028604196            3 
 1569000   0.98644619   -6.8345724    534.02161  0.028363162  0.028596177            3 
 1570000   0.99052226   -6.8453052    535.76171  0.028437458  0.028588078            8 
 1571000    1.0032913   -6.9126382    533.75775  0.028313057  0.028579877            5 
 1572000    1.0049087    -6.793683     540.0123  0.028626606  0.028571802            3 
 1573000   0.99336731   -6.8220317    537.26805  0.028463025  0.028564026            5 
 1574000   0.99752806   -6.8125258    537.82059  0.028474195  0.028556211            4 
 1575000   0.98071924   -6.8148968    538.69129  0.028502185  0.028548335            7 
 1576000    0.9785429   -6.8401226    536.72269  0.028380007  0.028540339            4 
 1577000    0.9807261   -6.8308639    537.60354  0.028408557  0.028532399            5 
 1578000   0.99853518   -6.7962448    539.80271  0.028506691  0.028524505            5 
 1579000    1.0133443    -6.809133    540.40551  0.028520451  0.028516746            6 
 1580000    1.0027962   -6.8218836    539.12347  0.028434782  0.028508967            3 
 1581000   0.99631455   -6.8085334    539.99288  0.028462623  0.028501297            4 
 1582000    1.0146678   -6.8339446    538.96463  0.028390467  0.028493643            8 
 1583000   0.99676849   -6.8788819    538.62298  0.028354548  0.028485941            2 
 1584000   0.98298133    -6.854411    538.32516  0.028320978  0.028478048            3 
 1585000    1.0029121   -6.8537946    539.34592  0.028356778  0.028470269            3 
 1586000   0.99702598    -6.808141    540.04818  0.028375798  0.028462442            4 
 1587000   0.99089712   -6.8342756    539.54055  0.028331262  0.028454632            6 
 1588000    1.0005898   -6.8662056     539.1328  0.028292024   0.02844672            3 
 1589000   0.99873936   -6.8493855    538.69019  0.028251006  0.028438563            8 
 1590000   0.98077791    -6.879053     538.1639  0.028205655  0.028430433            5 
 1591000    1.0106746   -6.8212586    541.67581  0.028371874  0.028422416            4 
 1592000   0.97798555   -6.7932473    540.30651  0.028282376  0.028414493            4 
 1593000   0.99917458   -6.8223616    540.94664  0.028298108  0.028406497            5 
 1594000    1.0016088   -6.8527162    539.59359  0.028209619  0.028398392            6 
 1595000    0.9733302   -6.8354007     542.8179  0.028360392  0.028390446            3 
 1596000   0.99796949   -6.8339747    540.35015  0.028213771  0.028382503            2 
 1597000    1.0096804   -6.8179305    543.02074  0.028335459  0.028374395            5 
 1598000    1.0047639   -6.8194544    542.27444  0.028278809  0.028366403            6 
 1599000   0.99117946   -6.8549233    541.41394  0.028216278  0.028358369            3 
 1600000    1.0003957   -6.8634174    541.75086   0.02821619  0.028350292            4 
 1601000    1.0074174    -6.845922     543.1141  0.028269524  0.028342233            4 
 1602000   0.98435977   -6.8360528    541.55152  0.028170595  0.028334192            6 
 1603000    1.0135431   -6.8368598    543.11866  0.028234491  0.028326146            6 
 1604000   0.99949198   -6.8100784    542.12463  0.028165245  0.028318181            4 
 1605000    1.0032606   -6.8369878    541.18633  0.028098979  0.028309945            3 
 1606000   0.99734859   -6.8239608     542.1347  0.028130692   0.02830181            3 
 1607000   0.97940413   -6.8326753    542.40119  0.028127006  0.028293708            5 
 1608000    1.0012583   -6.8306549    543.03416  0.028142318  0.028285691            3 
 1609000   0.98662897   -6.8016009    544.54294   0.02820297  0.028277662            9 
 1610000   0.96952438   -6.8817171    541.52468  0.028029228  0.028269617            5 
 1611000    1.0050757   -6.8183461    544.70206  0.028176188   0.02826163            7 
 1612000    1.0058585   -6.8189699    543.36596  0.028089638  0.028253781            4 
 1613000    1.0010361    -6.852215    542.98368  0.028052474  0.028245859            3 
 1614000    1.0099572   -6.8312908    545.14417  0.028146642  0.028237721            3 
 1615000    1.0071109   -6.8475944    544.50107   0.02809603   0.02822979            5 
 1616000    1.0048743   -6.8714186    543.71234  0.028037971  0.028221797            5 
 1617000   0.98107304   -6.8523248    544.77109  0.028075195  0.028213786           11 
 1618000   0.98791361   -6.8411136    546.16195  0.028129478    0.0282058            9 
 1619000   0.98282038   -6.8108367    547.02666  0.028156612  0.028197791           10 
 1620000   0.99669847   -6.8604069    543.59004  0.027962451  0.028189763            3 
 1621000   0.96459987   -6.8225015    546.74226  0.028107252  0.028181767            4 
 1622000    1.0146984   -6.8484987    546.51884  0.028078444  0.028173796            4 
 1623000   0.99570742   -6.8289788    547.63943  0.028118681  0.028165883            4 
 1624000   0.98799035   -6.8196732    546.99457  0.028068276  0.028158078            5 
 1625000   0.96813257   -6.8287345    545.97036   0.02799848  0.028150202            5 
 1626000    1.0120281   -6.8271788    546.89841  0.028028824  0.028142161            4 
 1627000   0.99457258   -6.8260366    546.87908  0.028010606  0.028133968            4 
 1628000    1.0092446   -6.8296456    547.34589  0.028017296  0.028125769            2 
 1629000   0.96571387   -6.8090055    548.79016   0.02807398  0.028117653            5 
 1630000    1.0144454   -6.8322529     546.9852  0.027964478   0.02810951            3 
 1631000   0.97633623   -6.8585637    546.64869   0.02793014  0.028101414            5 
 1632000    1.0143321   -6.8614748    546.24768  0.027892549  0.028093368            4 
 1633000    1.0118416   -6.8197976    546.88921  0.027908206  0.028085365            1 
 1634000   0.99163186   -6.8171936    547.88568  0.027941946  0.028077524            5 
 1635000   0.97963264   -6.8185344    550.12084  0.028038779   0.02806965            2 
 1636000   0.99223726   -6.8187139    550.38812  0.028035255  0.028061696            4 
 1637000   0.99107632   -6.8562708    548.42346  0.027918116  0.028053702            4 
 1638000    0.9728677   -6.8821061     547.9948  0.027879263  0.028045695           13 
 1639000   0.96405022   -6.8417591    550.49731  0.027989491  0.028037867            3 
 1640000   0.98503422   -6.8448234    549.58543  0.027926089  0.028030173            4 
 1641000    0.9924043   -6.8081083    551.51356  0.028006986  0.028022355            5 
 1642000   0.99183134   -6.8505599    549.14974  0.027869963  0.028014648            4 
 1643000    1.0157937   -6.8932576    550.34254  0.027913499  0.028006838            4 
 1644000   0.99284387   -6.8430282    551.08956  0.027934386  0.027999014            4 
 1645000   0.99165973   -6.8678301    550.28327  0.027876559  0.027991282            6 
 1646000    1.0108255   -6.8607384     551.2918  0.027910682  0.027983402            6 
 1647000   0.97392661   -6.8545219    551.65401  0.027912063  0.027975488            7 
 1648000   0.97951273   -6.8096148    552.78582  0.027952358  0.027967643            3 
 1649000   0.98860347   -6.8548257    551.53616  0.027872254  0.027959962            4 
 1650000    1.0086286   -6.8239173    551.44328  0.027850671  0.027952122            4 
 1651000    1.0013298   -6.8271798    552.73036  0.027898766  0.027944455            3 
 1652000   0.96055693   -6.8205073    552.45679  0.027868079  0.027936869            3 
 1653000   0.97970168   -6.8487074    552.36275  0.027846479  0.027929193           13 
 1654000   0.99490708   -6.8612955    553.98975  0.027911616  0.027921507            2 
 1655000   0.97596102   -6.8271417    555.35519  0.027963504  0.027913956            5 
 1656000    1.0134088   -6.8620308    553.14721  0.027835508  0.027906332            4 
 1657000   0.96823605   -6.8748887    552.83684    0.0278031  0.027898648            4 
 1658000   0.99515522   -6.8687234    553.28029  0.027808619  0.027890922            3 
 1659000   0.95687873   -6.8670869    553.96372  0.027826187  0.027883216            2 
 1660000   0.99243092   -6.8624766    554.70563  0.027846668  0.027875635            4 
 1661000   0.99079794   -6.8720344    554.51981   0.02782058  0.027867943            4 
 1662000   0.98073373     -6.87636    553.39714   0.02774755  0.027860195            9 
 1663000   0.99317234   -6.8409091    554.23845  0.027773023  0.027852457            6 
 1664000   0.97962122   -6.8438863    556.42016  0.027865593  0.027844771            5 
 1665000    0.9814729   -6.8441125    556.09083  0.027832374  0.027837128            3 
 1666000   0.98973639    -6.902838    554.85294  0.027753748  0.027829484            5 
 1667000   0.96720175   -6.8325869    556.98697   0.02784378  0.027821855            4 
 1668000   0.98433516   -6.8441839    557.40588  0.027848016  0.027814414            9 
 1669000   0.96252143   -6.8372888    558.29963  0.027875955  0.027806854            3 
 1670000   0.99406213   -6.8372973    557.14717  0.027801755  0.027799228            9 
 1671000   0.99701686   -6.8325862    556.80836   0.02776822  0.027791515            4 
 1672000   0.97461844   -6.8840081    553.73923  0.027598646    0.0277836            3 
 1673000   0.96477822   -6.8859708    554.93227  0.027641575  0.027775635            6 
 1674000   0.98938953   -6.9066794    555.72177  0.027664366  0.027767613            4 
 1675000   0.98608251   -6.8984713    554.62914   0.02759349  0.027759789            5 
 1676000   0.98647664     -6.86046    557.69083  0.027729258  0.027751862            4 
 1677000     0.985549    -6.870095     556.0591  0.027631639  0.027743938            2 
 1678000   0.98346485   -6.8745152     557.0317  0.027663473  0.027736087            4 
 1679000   0.98636495   -6.8588682    558.32649  0.027711261  0.027728315            4 
 1680000   0.99296355   -6.8601706    557.55579  0.027656537  0.027720489            2 
 1681000    1.0010508   -6.8778752    555.94158  0.027560062  0.027712636            6 
 1682000   0.98457663   -6.8396167    558.05419  0.027648345  0.027704828            5 
 1683000    0.9623661   -6.8835721    557.00488   0.02757996  0.027697019            4 
 1684000   0.99946979   -6.8508841    557.85465  0.027605634  0.027689256            5 
 1685000   0.98085299   -6.8223702    560.51325  0.027720734  0.027681646            5 
 1686000   0.97059074   -6.8440651    558.61589  0.027610513  0.027674047            4 
 1687000   0.98174046   -6.8850732    559.26002  0.027625964  0.027666283            6 
 1688000   0.96704294   -6.8864143    559.11933  0.027602653  0.027658412            4 
 1689000     1.004716   -6.8746103    559.07382  0.027584065  0.027650512            2 
 1690000   0.97223131   -6.8595967    559.57746  0.027592577  0.027642759            5 
 1691000   0.99082564   -6.8625357    559.19721  0.027557521  0.027634946            6 
 1692000   0.99213901   -6.9017182    559.03123  0.027533059  0.027627153            5 
 1693000   0.99189672    -6.881176    560.42119  0.027585213  0.027619223            5 
 1694000    0.9809521   -6.8771235    560.79674  0.027587404  0.027611475            3 
 1695000   0.98404746   -6.8501497    560.59667  0.027561292  0.027603741            3 
 1696000   0.98659164   -6.9134238    559.17068  0.027474974  0.027595946            4 
 1697000   0.97209978   -6.8724916    559.75475  0.027487465  0.027588043            5 
 1698000   0.96924665   -6.8846045    561.78589   0.02757096  0.027580122            3 
 1699000   0.98186058   -6.9148492    559.26552  0.027431112  0.027572117            5 
 1700000   0.97894552   -6.9007918    560.67516  0.027484076  0.027564103            7 
 1701000   0.96870463   -6.9121375    558.93849  0.027382838  0.027556105            7 
 1702000    0.9718081   -6.9071503    560.62782  0.027449462  0.027548004            5 
 1703000   0.99876566    -6.920956    559.54597  0.027380405   0.02754009            6 
 1704000   0.98527191   -6.9045594    559.73148   0.02737341  0.027532263            9 
 1705000   0.97973751   -6.8798782     560.2359  0.027382009  0.027524354            7 
 1706000   0.98879003    -6.889154    563.29228  0.027515254  0.027516482            7 
 1707000    1.0035012   -6.8598707    562.92045  0.027480983  0.027508671            7 
 1708000   0.99288418   -6.8596656     562.4391  0.027441408   0.02750091            7 
 1709000   0.97573461   -6.8693741    562.23105  0.027415206  0.027493256            7 
 1710000    0.9600485   -6.8792457    562.87912  0.027430756  0.027485387            9 
 1711000   0.97838518   -6.8872136    563.03556  0.027422344  0.027477677            6 
 1712000   0.96776485   -6.8796954    561.93528  0.027352769  0.027469903            6 
 1713000    0.9704144    -6.885021    563.08999  0.027392975  0.027462224            5 
 1714000   0.98665931   -6.8973956    562.50066   0.02734834  0.027454307            4 
 1715000   0.98841255   -6.8574775    563.98228  0.027404387  0.027446478            3 
 1716000   0.97417246    -6.866924    563.33389  0.027356929  0.027438705            3 
 1717000   0.99060113   -6.8904969    564.32585  0.027389141  0.027430866            7 
 1718000   0.97670718   -6.8787276    562.29756  0.027274814  0.027422978            5 
 1719000   0.96878627   -6.8902447    562.57608  0.027272449   0.02741505            8 
 1720000   0.96815929   -6.8697046    562.97744  0.027276039  0.027407092            7 
 1721000   0.97030216   -6.8957697    564.47098  0.027332509  0.027399124            5 
 1722000   0.97318734   -6.9034063    563.39587  0.027264608  0.027391233            5 
 1723000    1.0033709    -6.925455     563.7227  0.027264592  0.027383266            7 
 1724000   0.99653328   -6.9090402    562.46436  0.027187953   0.02737517            6 
 1725000   0.98489804   -6.8736378    565.28317  0.027308366  0.027367111            7 
 1726000   0.96645357   -6.9087143     562.0309   0.02713552  0.027359209            2 
 1727000   0.94227706   -6.8801117     565.3441  0.027279681  0.027351283            3 
 1728000   0.96260561   -6.8852754    564.86614  0.027240844  0.027343216            6 
 1729000    0.9797147   -6.9038542    563.68349  0.027168088  0.027335123            4 
 1730000   0.95811791   -6.9230158    563.35002  0.027136321  0.027327024            9 
 1731000    1.0057045   -6.9062742    564.07812  0.027155696  0.027318958            4 
 1732000   0.98764542   -6.8982393    563.76373  0.027124891   0.02731092            3 
 1733000   0.95823368   -6.8877227    565.10009  0.027173499  0.027302986            6 
 1734000    0.9488818   -6.8887606    565.13372  0.027159444  0.027295048            4 
 1735000   0.96862767   -6.8757289    565.57764  0.027165112  0.027287178            4 
 1736000      0.96162   -6.8985042    567.88383  0.027260169  0.027279274            6 
 1737000     0.991112   -6.9074843      565.159   0.02711375  0.027271317            5 
 1738000   0.99453966   -6.8923666    566.04564  0.027140661  0.027263413            6 
 1739000   0.98558419   -6.8973484    564.74814  0.027062878  0.027255532            6 
 1740000   0.98378234   -6.8813959    565.79631  0.027097524  0.027247634            4 
 1741000   0.94373679   -6.8887156    566.49924  0.027115606  0.027239684            3 
 1742000   0.97244746    -6.890152    566.33754  0.027092305  0.027231746            7 
 1743000   0.97766817   -6.9021379    566.53267  0.027086091  0.027223721            3 
 1744000      1.00061   -6.9069428    567.30887  0.027107649  0.027215791            6 
 1745000    0.9677521   -6.8496243    566.66129  0.027061188   0.02720775            8 
 1746000   0.98305802   -6.8757863    569.48214  0.027180323  0.027199716            3 
 1747000    0.9655916   -6.8753726     569.1816  0.027150429  0.027191781            2 
 1748000   0.97508365   -6.9528557    566.06568   0.02698635  0.027183756            5 
 1749000   0.97313064   -6.9292812     566.5273  0.026992915  0.027175669            5 
 1750000   0.97824873   -6.9271782    567.24966  0.027011889  0.027167511            7 
 1751000    0.9556147   -6.9176403    566.74249  0.026972325  0.027159361            3 
 1752000   0.97339018   -6.8761682    568.78344  0.027054007  0.027151345            3 
 1753000   0.98548096   -6.8909936    568.26164  0.027013769   0.02714331            4 
 1754000   0.97415158   -6.8809913    569.93958  0.027078087  0.027135291            7 
 1755000   0.97493181   -6.9151737    569.32111  0.027033291  0.027127397            5 
 1756000    0.9739374   -6.9263309    567.53975   0.02693336  0.027119374            6 
 1757000   0.96928475   -6.9412964    568.58576  0.026967642  0.027111352            4 
 1758000   0.97786133   -6.9652361    566.92957  0.026873795  0.027103318            3 
 1759000   0.96619691   -6.9335136    568.01004  0.026909704  0.027095254            3 
 1760000   0.96392436   -6.9255009    569.55121  0.026967387  0.027087262            3 
 1761000   0.97127337   -6.9161743    570.50197  0.026997064   0.02707926            5 
 1762000   0.96793004   -6.8749471    570.67062  0.026989719    0.0270714            2 
 1763000   0.96083743   -6.9188742    569.07649  0.026899059  0.027063476            4 
 1764000   0.98771497   -6.9290735    567.97797  0.026831914  0.027055412            4 
 1765000    0.9625773   -6.9295007    568.49681  0.026841209   0.02704729            5 
 1766000   0.96548133   -6.8874922     571.6408  0.026974368   0.02703932            4 
 1767000   0.96567133   -6.9229936    569.79465  0.026872036  0.027031138            8 
 1768000   0.96587764   -6.9100538    569.92501  0.026862981  0.027023061            6 
 1769000     0.952707   -6.9364204    569.99142  0.026850924  0.027014913           10 
 1770000   0.95912537   -6.9030091    570.66096  0.026867277  0.027006799            3 
 1771000   0.95398317   -6.9443757    570.56523  0.026847602  0.026998657            4 
 1772000    0.9698413   -6.9394589    570.93386  0.026849787  0.026990493           12 
 1773000    0.9533178   -6.9313818    571.49472  0.026861004  0.026982392            7 
 1774000   0.95022382   -6.9172748    571.85123  0.026862609  0.026974363            6 
 1775000   0.95807907    -6.909742     572.0242  0.026855596  0.026966389           11 
 1776000   0.96693197   -6.8996024    572.49759  0.026862687  0.026958399            9 
 1777000   0.96625897   -6.9159437    571.46613  0.026799199   0.02695037            8 
 1778000    0.9701437   -6.9414498    572.40593  0.026828175  0.026942217            5 
 1779000   0.96375829   -6.9318011    569.86518  0.026694078  0.026933857            5 
 1780000   0.96210306   -6.9430679    570.05946  0.026688177  0.026925556            5 
 1781000   0.96233314   -6.9033298    570.34201  0.026686412  0.026917291            3 
 1782000   0.96245313   -6.9110476    572.59242  0.026776675  0.026909035            6 
 1783000   0.96073646   -6.9414156    569.94869  0.026638095  0.026900802            6 
 1784000   0.95556859   -6.9414384    572.26155  0.026731201  0.026892344            5 
 1785000   0.97884707   -6.9459969    572.09212  0.026708315  0.026883958            4 
 1786000   0.94772764   -6.9318227    571.59052  0.026669957  0.026875664           11 
 1787000   0.96513217   -6.9171945    573.03716  0.026722494  0.026867381            3 
 1788000   0.95702462    -6.939646    570.92587  0.026609147  0.026859122           10 
 1789000   0.97238213   -6.8943779    573.36487  0.026707885   0.02685081            3 
 1790000   0.96109802   -6.9293451    572.74243  0.026663986  0.026842619            3 
 1791000   0.96736381   -6.9094864    572.99309  0.026660762  0.026834359            2 
 1792000    0.9787291   -6.9369606    572.86004  0.026639697  0.026826104            7 
 1793000   0.97365622   -6.9361431    571.46004  0.026559771   0.02681766            7 
 1794000   0.96633122   -6.9226153    570.91205  0.026519512  0.026809263            5 
 1795000   0.95964722   -6.9173172    571.20544  0.026518359  0.026800943            5 
 1796000   0.95932646   -6.9062722    573.87952  0.026627669  0.026792635            7 
 1797000     0.960313   -6.9073903    573.55387   0.02659775  0.026784411            2 
 1798000   0.96912344   -6.9483923    572.24276   0.02652219  0.026776162            4 
 1799000    0.9512954   -6.9458321    571.96271  0.026494474  0.026767957            4 
 1800000   0.95100323   -6.9714332    573.64906  0.026557827  0.026759674            4 
 1801000    0.9606909   -6.9046455    574.05262  0.026561754  0.026751439            5 
 1802000   0.95950049   -6.9257261    574.91598   0.02658694  0.026743101            2 
 1803000   0.97543585   -6.9111389    575.22462  0.026586459  0.026734906            4 
 1804000   0.95391366   -6.9375084    574.37353  0.026532406  0.026726723            4 
 1805000   0.94545189   -6.9269128    573.86418  0.026494191   0.02671858            7 
 1806000   0.97616666   -6.9351264    573.52689  0.026463958  0.026710306            4 
 1807000   0.95656136   -6.9694163     574.0987  0.026475683  0.026701991            3 
 1808000   0.96007291   -6.8850595     577.2048  0.026604203  0.026693905            3 
 1809000   0.93691319   -6.9384043    575.44623  0.026508487  0.026685868            6 
 1810000   0.95046439   -6.9113949    576.43164   0.02653921   0.02667763            4 
 1811000   0.96773254    -6.923117    575.04148  0.026460587  0.026669409            7 
 1812000    0.9806106    -6.922541    577.93673  0.026579136  0.026661332            5 
 1813000   0.97122092   -6.8956416    578.05029  0.026569695  0.026653202            5 
 1814000    0.9627577   -6.8807851    577.56995  0.026532982  0.026645244           10 
 1815000   0.96258804    -6.938717    576.73211  0.026479895  0.026637067           10 
 1816000   0.98148124   -6.8899567    578.82216  0.026561222  0.026629026            4 
 1817000   0.95535405   -6.9540609      576.817  0.026454641  0.026620917            4 
 1818000   0.93543362   -6.9127407    578.68619   0.02652577  0.026612825            5 
 1819000   0.95848379   -6.9028236    579.46247  0.026546751  0.026604744            3 
 1820000    0.9533652   -6.9768302    575.81725  0.026365259  0.026596704            7 
 1821000   0.95560632    -6.958166    577.49015  0.026427336  0.026588602           12 
 1822000   0.94448304   -6.9066528    577.56278  0.026416154  0.026580581            6 
 1823000   0.93742354   -6.9419567    577.21906  0.026385951  0.026572573            3 
 1824000   0.96134945   -6.9156774    578.28303  0.026420095  0.026564562            5 
 1825000   0.95532006   -6.9223635    580.22375  0.026494235  0.026556431            3 
 1826000   0.93407641   -6.9161263     579.3958   0.02644194  0.026548475            5 
 1827000   0.96671189   -6.9428315     580.7313  0.026488383  0.026540478            7 
 1828000   0.97396339   -6.9362274    579.51654  0.026418515  0.026532514            4 
 1829000    0.9413821   -6.9521107    578.90763  0.026376327  0.026524602            4 
 1830000   0.97097499   -6.9601843    579.31404  0.026380421  0.026516566            6 
 1831000   0.94511282    -6.993896     577.6479  0.026290183  0.026508372            7 
 1832000   0.94658714   -6.9758638    578.40839  0.026310425  0.026500199            4 
 1833000   0.94564756   -6.9301954    580.54001  0.026392981  0.026492096            6 
 1834000   0.96474135   -6.9183089    579.43577  0.026328416  0.026483941            8 
 1835000    0.9563344   -6.9504489    580.63238   0.02636841  0.026475791            5 
 1836000   0.94328316   -6.9514503    579.52722  0.026303886  0.026467721            2 
 1837000    0.9595457    -6.942397    580.92317  0.026352893  0.026459764            4 
 1838000   0.95719485   -6.9410014    580.28482  0.026309613  0.026451683            5 
 1839000    0.9566398   -6.9947924    580.14341  0.026288898  0.026443636            4 
 1840000    0.9577174   -6.9555987    582.57896  0.026384917  0.026435643            3 
 1841000   0.95473608   -6.9709281     579.5887   0.02623523   0.02642754            8 
 1842000   0.94718236   -6.9595189    579.61948   0.02622238  0.026419387           14 
 1843000   0.98021283   -6.9180835     582.0703  0.026318968  0.026411342            4 
 1844000   0.96724258    -6.964937    580.24809  0.026222347  0.026403369            4 
 1845000   0.96087315   -6.9947816    579.38805  0.026169288  0.026395186            6 
 1846000   0.94432752   -6.9682802    580.69471  0.026214098  0.026387033            2 
 1847000   0.98915359   -6.9465154    581.41807  0.026232542  0.026378844            9 
 1848000   0.96754641   -6.9565853    580.40688  0.026172749  0.026370697           10 
 1849000   0.95701119   -6.8985116    582.89767  0.026270852  0.026362774            3 
 1850000   0.94830099   -6.9310997    583.85779    0.0262999  0.026354927            3 
 1851000   0.95699686   -6.9578369    583.26215  0.026258876  0.026347016            6 
 1852000   0.96926098   -6.9324162    583.29736  0.026246281  0.026339022            6 
 1853000   0.93682894   -6.9534415    582.54186  0.026198141  0.026331048            4 
 1854000   0.94500041   -6.9467161    583.43866  0.026224319  0.026323023            3 
 1855000   0.97188743   -6.9948985    583.59171  0.026217058  0.026314882            6 
 1856000   0.95175919   -6.9682088    582.94857  0.026174056   0.02630677            2 
 1857000   0.95554179   -6.9433246    584.91237  0.026248087  0.026298825            3 
 1858000   0.94855507   -6.9563814    583.12296  0.026153703  0.026290818            5 
 1859000   0.96028472   -6.9845074    582.44538   0.02610926  0.026282821            8 
 1860000   0.94675922   -6.9340312    584.79765  0.026200611  0.026274835            6 
 1861000   0.94394695   -6.9651638    585.68966  0.026226476  0.026266864            4 
 1862000   0.96279602   -6.9589638    584.95183  0.026179369  0.026258949            4 
 1863000   0.93616948   -6.9970783    585.49674  0.026189691     0.026251            7 
 1864000   0.95042577   -6.9692607    585.69038  0.026184298  0.026243141            9 
 1865000   0.97165278   -6.9763667    584.84784  0.026132611  0.026235188            7 
 1866000   0.93084601   -6.9986681     584.2543    0.0260921  0.026227245           12 
 1867000    0.9638819   -6.9700581    585.71656  0.026143392   0.02621927            6 
 1868000   0.95753041   -6.9244871    586.98109  0.026185809  0.026211445            5 
 1869000   0.95025294   -6.9464657    588.14428  0.026223661  0.026203648            2 
 1870000   0.96779396   -6.9729942    587.18294  0.026166798  0.026195868            3 
 1871000   0.94053522   -6.9312168    587.92884  0.026186034  0.026188065            5 
 1872000   0.95895766   -6.9658875    586.80542  0.026122036  0.026180245            9 
 1873000   0.96131433   -6.9817973    587.61039  0.026143904  0.026172292            5 
 1874000    0.9486086   -6.9728443    587.54519  0.026127054  0.026164406           19 
 1875000    0.9591366   -6.9701711    585.85749   0.02603811  0.026156421            4 
 1876000    0.9618035   -6.9636202    586.06534  0.026033464  0.026148417            7 
 1877000   0.95255427   -6.9851435    586.42704  0.026035653  0.026140545            6 
 1878000   0.95601463   -6.9338089    587.44298   0.02606687   0.02613263            5 
 1879000   0.96788595   -6.9632205    587.43642  0.026052706   0.02612468            4 
 1880000   0.94886323   -6.9711522    586.47975  0.025996443  0.026116728            5 
 1881000   0.95080641    -6.963636    587.29729  0.026018841  0.026108726            7 
 1882000   0.93929461   -6.9290664    587.34633  0.026007188  0.026100698            6 
 1883000   0.94177567   -6.9508593    587.69688   0.02600889  0.026092816            5 
 1884000   0.96673978   -6.9624534    589.18476  0.026060897  0.026084928            4 
 1885000   0.94744081    -6.960318    589.10012   0.02604333  0.026077022            6 
 1886000   0.96417176   -6.9655548     586.5815  0.025918235  0.026069078            3 
 1887000    0.9425581   -6.9824613    586.25725   0.02589018  0.026061131           18 
 1888000   0.93974491   -6.9732832    588.32373  0.025967679  0.026053143            4 
 1889000   0.95453962   -6.9412389    586.13656  0.025857445   0.02604513            6 
 1890000   0.95230167   -6.9728638    588.63837  0.025954073  0.026037209            4 
 1891000   0.93823001   -6.9576536    588.60854  0.025939033  0.026029264            8 
 1892000   0.94359519   -6.9578079    588.51259  0.025921097  0.026021256            5 
 1893000   0.94803422   -6.9790321    588.94691  0.025926524  0.026013389            6 
 1894000   0.95519051   -6.9770552    588.40159  0.025888841  0.026005403            6 
 1895000   0.93793291   -6.9714588     589.5853  0.025927234  0.025997359            3 
 1896000   0.95331552   -6.9585687    589.03636  0.025889432  0.025989349            5 
 1897000   0.98695836   -6.9971059    589.21354  0.025883568   0.02598132            3 
 1898000   0.96055481   -7.0368018    586.95291  0.025770676  0.025973332            4 
 1899000   0.94768351   -6.9662213    591.34911  0.025950023  0.025965362            4 
 1900000    0.9498377   -7.0000295    588.60041  0.025815808  0.025957289            4 
 1901000   0.92999839   -6.9771375    590.59209  0.025889536   0.02594924            9 
 1902000   0.96219375   -6.9821463    588.84545  0.025799397  0.025941193            8 
 1903000   0.93009482   -7.0236317    589.18526  0.025800721  0.025933202            5 
 1904000   0.95234063   -6.9844587    591.13769  0.025872623  0.025925293            6 
 1905000   0.93931854    -6.981898     590.3739   0.02582563  0.025917483            7 
 1906000   0.94722824   -6.9727406    590.24525  0.025806455  0.025909613            4 
 1907000   0.95351008   -6.9541735    592.28421  0.025882023  0.025901815            5 
 1908000   0.95133954   -6.9479132    592.88758   0.02589481  0.025893898            4 
 1909000   0.96089147   -6.9691845    592.27429  0.025854474  0.025885995            5 
 1910000   0.93822643   -6.9728993    590.88375  0.025780268  0.025878066            5 
 1911000   0.96059025   -6.9515835    591.85932   0.02580932  0.025870062            4 
 1912000   0.94915452   -6.9718922    591.81142  0.025793734  0.025862138            5 
 1913000   0.94837595    -6.949203    592.12324  0.025793833   0.02585428            4 
 1914000   0.94103854   -6.9850043    590.95028  0.025729288  0.025846324           10 
 1915000   0.95468357    -6.982019    592.17089  0.025768968  0.025838442            6 
 1916000   0.93301792   -6.9558922    590.83746  0.025697523  0.025830628            3 
 1917000   0.94826322   -7.0019133    591.61836  0.025718065  0.025822696            5 
 1918000   0.94856855   -7.0148849    590.63895  0.025662102  0.025814781            3 
 1919000   0.94612016   -6.9365781    594.05591  0.025797113  0.025806915            4 
 1920000   0.92831205   -6.9466065    593.98126  0.025780437  0.025799056            9 
 1921000   0.93958028   -6.9827851    592.26159  0.025692417  0.025791256            8 
 1922000   0.92372119   -6.9986221    593.85447  0.025748112  0.025783434            4 
 1923000   0.93980362   -6.9750652    594.52383   0.02576373  0.025775554            3 
 1924000   0.93978032   -6.9439262    595.08412  0.025774607  0.025767658            5 
 1925000   0.94410148   -6.9616136    594.07179  0.025717393  0.025759851           17 
 1926000   0.93956634   -6.9545949    594.84078  0.025737313  0.025752121            6 
 1927000   0.94588756   -6.9792354    593.63726  0.025671911  0.025744248            5 
 1928000   0.94533901   -7.0097369    593.43678   0.02564993  0.025736368            8 
 1929000   0.93943269   -7.0182287    592.34262  0.025589365  0.025728485            9 
 1930000   0.94950941   -6.9532304    593.66665  0.025633275   0.02572065            5 
 1931000   0.95766681   -6.9768446    595.96425  0.025719155  0.025712928            7 
 1932000   0.93802715   -6.9418558    596.26488  0.025718809  0.025705128           12 
 1933000   0.94219138   -6.9336978    595.24126  0.025661375  0.025697256            5 
 1934000   0.94925317   -6.9613469    594.59948  0.025620453  0.025689496            7 
 1935000   0.93860736   -6.9735492    594.01334   0.02558197  0.025681661            8 
 1936000   0.93485748   -6.9937131    594.54204  0.025591513  0.025673762            5 
 1937000   0.95145601    -7.012841     594.2378  0.025565212  0.025665852            6 
 1938000   0.94678318   -7.0584461    593.10811  0.025503445  0.025657866            9 
 1939000   0.93136871     -7.02273    595.29277  0.025584183  0.025649911            6 
 1940000   0.94116066   -6.9957936    596.62617  0.025628272  0.025641985            4 
 1941000   0.95523594   -6.9905233    596.27419  0.025599957  0.025633985            3 
 1942000    0.9445905    -6.997489     595.8292   0.02556768  0.025625975            7 
 1943000   0.94469936   -7.0185631    597.01246  0.025605269  0.025618056            2 
 1944000   0.93636252    -6.982627    597.06418  0.025594315  0.025610292            3 
 1945000   0.95686201   -6.9919936    595.21108   0.02550176  0.025602514            5 
 1946000   0.92900043   -6.9860932    597.07554  0.025568497  0.025594667            4 
 1947000   0.93359251   -6.9864586    597.05192  0.025554353  0.025586801            4 
 1948000   0.91593831   -6.9627553     596.3056  0.025509308  0.025579013            6 
 1949000   0.93915617   -6.9821608    598.44507  0.025587698  0.025571308            3 
 1950000   0.91807538   -6.9931831    595.17588  0.025434867  0.025563492            5 
 1951000    0.9346574   -7.0179163    596.11039  0.025461746  0.025555593            6 
 1952000   0.94472589   -7.0207122    596.05691  0.025446419   0.02554765            7 
 1953000   0.92140047   -6.9858852    596.27684  0.025442773  0.025539757            4 
 1954000   0.93704139   -6.9800662     598.4822  0.025523806  0.025531927            3 
 1955000   0.96482475   -7.0196837    596.58368  0.025429824  0.025524052            8 
 1956000   0.93297731    -7.034772    596.48368  0.025412563  0.025516105            6 
 1957000   0.92699548    -6.966204    598.05433  0.025466459  0.025508213           10 
 1958000   0.93514173   -7.0377245     595.8128  0.025358053  0.025500252            7 
 1959000   0.95032937   -7.0324438    596.97345  0.025394481  0.025492325            6 
 1960000   0.93796429   -7.0151016    597.79191  0.025416323  0.025484331            2 
 1961000   0.93982527   -7.0659647    596.39807   0.02534413  0.025476406            9 
 1962000   0.94159989   -7.0228276    597.77821  0.025389832  0.025468423           10 
 1963000   0.94078716   -7.0059666    597.89321   0.02538178  0.025460598            4 
 1964000   0.95766308   -7.0124261    598.64734  0.025400855  0.025452663            7 
 1965000    0.9295966   -6.9976228    598.06952  0.025363423  0.025444793           13 
 1966000   0.93851076   -6.9854816    599.93866   0.02542975  0.025436922            6 
 1967000   0.92462711    -7.020151    599.16035  0.025383848  0.025429092            4 
 1968000   0.95847008   -7.0432415    598.92194  0.025360854  0.025421226            5 
 1969000   0.91990108   -7.0246454    599.23173  0.025361086  0.025413312            3 
 1970000   0.96782762   -6.9378923      600.642  0.025407868  0.025405543            4 
 1971000   0.94296938   -6.9653069    600.49617  0.025388811   0.02539773            5 
 1972000   0.94369941   -7.0061491    599.42473   0.02533066  0.025390004            9 
 1973000   0.91261825   -6.9768624    600.55145   0.02536541  0.025382298            8 
 1974000   0.92600479   -6.9663686    602.75972  0.025445784  0.025374601            6 
 1975000   0.94079806   -7.0092792    599.79026  0.025307606  0.025366804            4 
 1976000   0.94237248   -7.0329726    600.53999  0.025326417  0.025358963            9 
 1977000   0.93935744   -7.0196339    600.91566  0.025329441  0.025351145            9 
 1978000   0.95107417    -6.997758    599.50369  0.025257149  0.025343368            8 
 1979000   0.94412455   -7.0252651    600.85416  0.025301253  0.025335625            3 
 1980000   0.92358797   -7.0372287    600.92116  0.025291294  0.025327674            5 
 1981000   0.95198389   -7.0414976    599.96357  0.025238246  0.025319721            5 
 1982000    0.9261876   -7.0020895     600.7694  0.025259393  0.025311826           10 
 1983000   0.94145444   -7.0088584    600.14227    0.0252203  0.025303986            6 
 1984000   0.92974156   -7.0200014    600.58349  0.025226121  0.025296244            2 
 1985000   0.94139409   -7.0284938    601.85701  0.025266877  0.025288462            3 
 1986000   0.92837609   -7.0062356    601.10714   0.02522269  0.025280696            6 
 1987000   0.95009471   -7.0045492    604.27684  0.025342931  0.025272852            6 
 1988000   0.92990714   -7.0226854    603.43852  0.025295042  0.025265098            4 
 1989000   0.92991147   -6.9427204    606.44089  0.025408115  0.025257412            5 
 1990000   0.94163039    -7.013896    602.08234  0.025212828  0.025249666            6 
 1991000   0.93329827   -7.0015436    603.67241  0.025266717  0.025241893            9 
 1992000   0.91403077   -7.0264775    603.39834  0.025242568   0.02523413            7 
 1993000   0.91645661   -7.0099037    603.49494  0.025233941  0.025226406            2 
 1994000   0.93150429     -7.01824    601.53402  0.025139336  0.025218682            5 
 1995000   0.90951638   -7.0154942    604.14333  0.025235728  0.025210944            6 
 1996000   0.94819826   -7.0866764    600.87652  0.025086695  0.025203047            6 
 1997000   0.93155726   -6.9701022    603.97584  0.025203465  0.025195208            2 
 1998000   0.94088876   -7.0678796    601.83241  0.025101452  0.025187431           10 
 1999000   0.92604855   -7.0147682     603.8414  0.025172645  0.025179594           12 
 2000000   0.91722517   -7.0121263    604.51242  0.025188017  0.025171926            6 
 2001000   0.94571943   -7.0456876    602.93158  0.025109594  0.025164172           10 
 2002000   0.93872272   -7.0288063    604.01196  0.025142023  0.025156351            6 
 2003000   0.95107282   -7.0522827    602.19248  0.025053773  0.025148469            4 
 2004000    0.9585048   -7.0508709    604.01872  0.025117212  0.025140603            6 
 2005000   0.92141499   -7.0085411    604.93418  0.025142734  0.025132894            5 
 2006000   0.94279363     -7.04624    603.79895  0.025083041  0.025125053            4 
 2007000   0.93845337   -6.9768721    605.11476  0.025125177  0.025117282            5 
 2008000    0.9352167   -6.9934078    605.40946  0.025124895  0.025109611            3 
 2009000   0.90913094   -7.0288057    604.24436   0.02506406  0.025101885            4 
 2010000    0.9140955   -7.0247667    604.16603  0.025048343  0.025094253           17 
 2011000   0.91016771   -7.0291269     604.6167  0.025054563  0.025086584            4 
 2012000   0.89689576   -7.0123005    606.25641  0.025110024  0.025078898           16 
 2013000   0.93572781   -7.0406645     605.7033  0.025074652   0.02507134            9 
 2014000   0.90922043   -6.9938668     606.3063  0.025087152   0.02506374            4 
 2015000   0.92337683   -7.0479862    605.03365   0.02502207  0.025056114           12 
 2016000   0.92151646    -7.038256    607.22301  0.025100157  0.025048557           10 
 2017000   0.92340534   -7.0175574    606.75663  0.025068444  0.025040953            7 
 2018000   0.93439319   -7.0172294    606.84897  0.025059835  0.025033284            3 
 2019000   0.93356873   -7.0349708    606.33346  0.025026146  0.025025623            6 
 2020000   0.92141983   -7.0419825    606.93558  0.025038597  0.025017977            7 
 2021000   0.92396971    -7.030931    607.31503  0.025041853  0.025010269            5 
 2022000   0.92337662   -7.0165223    608.10031  0.025061833  0.025002671            9 
 2023000   0.90396731   -7.0648886    607.08106  0.025007458  0.024994915            4 
 2024000   0.92747878   -7.0387655    606.34253  0.024964696  0.024987188            4 
 2025000   0.92599872   -7.0123494    610.20456  0.025111299  0.024979548            8 
 2026000   0.92755794   -7.0502738    607.67045  0.024994671  0.024971938            6 
 2027000   0.90878616   -7.0197438    607.73215  0.024984877  0.024964239            5 
 2028000   0.90665813   -7.0369217    607.22558  0.024951741  0.024956683            3 
 2029000   0.95640362     -7.02968    608.43347  0.024989053  0.024949109            4 
 2030000   0.92980028   -7.0207951    608.94997  0.024997946   0.02494147            4 
 2031000   0.92127129   -7.0606667    606.68674  0.024892776  0.024933873            6 
 2032000   0.93735681    -7.001633    606.68228  0.024880343  0.024926261           20 
 2033000    0.9054269   -7.0160342    610.31029  0.025016818  0.024918661            6 
 2034000    0.9127022   -7.0045468    608.48388   0.02492969  0.024911096            3 
 2035000   0.92556628   -7.0451601    607.52149   0.02487803  0.024903439           14 
 2036000   0.91676675   -7.0087697    609.06851   0.02492913  0.024895848            3 
 2037000   0.93882015   -7.0557396    606.65988  0.024818356  0.024888231            5 
 2038000   0.95278447    -7.023899    608.53982  0.024883048   0.02488064            7 
 2039000   0.93291341    -7.051802    609.13601   0.02489521  0.024872931            4 
 2040000   0.93383844   -7.0312445    608.88813  0.024872881  0.024865258            6 
 2041000   0.95852487   -7.0476753    607.90373  0.024820502  0.024857588            8 
 2042000   0.91812736   -7.0227769    609.69527  0.024881459  0.024849837            8 
 2043000   0.93048265   -7.0751599    607.30762  0.024771889  0.024842042            3 
 2044000   0.90530269   -7.0414118    609.04227   0.02483049  0.024834229            4 
 2045000   0.94443275    -7.012049    609.53194  0.024838302  0.024826471            4 
 2046000   0.92728895   -7.0430226    609.33997  0.024818344  0.024818646           17 
 2047000   0.91812984   -7.0614644    609.77554  0.024823951  0.024810859           10 
 2048000   0.92838232    -7.017075    609.83103  0.024814088  0.024803188            7 
 2049000   0.92984636   -7.0366079    608.57454  0.024750876  0.024795499            5 
 2050000   0.92443297   -7.0335568    609.70424  0.024784725  0.024787832           11 
 2051000   0.92654646   -7.0045678    610.80702  0.024817448  0.024780057            5 
 2052000   0.91464696    -7.030033     610.3066  0.024785031  0.024772331            5 
 2053000    0.9163713   -7.0545049    608.70614  0.024707994  0.024764507            5 
 2054000   0.91396281   -7.0712072    609.52688  0.024729263  0.024756755            7 
 2055000   0.91265812   -7.0167799    608.68684  0.024683165  0.024749083            7 
 2056000   0.91472826   -7.0302335    612.04936  0.024807448  0.024741338            6 
 2057000   0.91000605   -7.0438621    609.78024  0.024703461  0.024733613            5 
 2058000   0.91937561   -7.0672397    608.75575  0.024649974  0.024725857            3 
 2059000   0.90879343   -7.0614671     609.6617  0.024674668  0.024718084           10 
 2060000   0.91425379    -7.053224     610.2262  0.024685526  0.024710293            6 
 2061000   0.93376166   -7.0822394    609.21744  0.024632761  0.024702476            6 
 2062000   0.93610496   -7.0391044    610.69822  0.024680659  0.024694789            5 
 2063000    0.9142825   -7.0191343    609.50727  0.024620588  0.024687129           11 
 2064000   0.92731545    -7.034955    610.33234  0.024641971  0.024679345           10 
 2065000   0.90555763   -7.0169043    611.08274  0.024660321   0.02467156           11 
 2066000   0.92158552   -7.0369856    612.83297  0.024718981  0.024663889            4 
 2067000   0.92628952   -7.0135983    612.70069  0.024701689  0.024656186            6 
 2068000   0.88944343   -7.0765656     611.0307  0.024622449  0.024648561            4 
 2069000   0.93620935   -7.0665931    611.15445  0.024615533   0.02464082            8 
 2070000   0.91654266   -7.0133603    612.64757  0.024663751  0.024633102            4 
 2071000   0.90491799   -7.0372942    610.73657  0.024574946  0.024625393            5 
 2072000   0.90013373   -7.0327045    612.65727  0.024640334   0.02461766            2 
 2073000   0.93112272   -7.0433653      611.574  0.024584901  0.024609925            5 
 2074000   0.91642776   -7.0509827    611.89594  0.024585983  0.024602197           14 
 2075000   0.90935598   -7.0330941     611.1673  0.024544871  0.024594413            5 
 2076000   0.90560246   -7.0679542    612.52669  0.024587616  0.024586663            6 
 2077000   0.95840883   -7.0482448    612.68144  0.024581987  0.024578868            8 
 2078000    0.9205461   -7.0505225     612.5651  0.024565491  0.024571158            5 
 2079000   0.93337761   -7.0563775    612.62741  0.024556173  0.024563427            6 
 2080000   0.92551154   -7.0627819    611.32277  0.024492098  0.024555651            4 
 2081000   0.93092421   -7.0444268    613.24812  0.024557429  0.024547832            5 
 2082000   0.92185382   -7.0734833    611.24601  0.024465498  0.024540074           24 
 2083000   0.94188361   -7.0644627    615.17108  0.024610781  0.024532226           11 
 2084000    0.9302772   -7.0363339    613.02322  0.024513085  0.024524452            5 
 2085000   0.92379397   -7.0865174    611.79929   0.02445241  0.024516722            7 
 2086000    0.9335818   -7.0946931    612.92412  0.024485623  0.024508936            5 
 2087000   0.91958452   -7.0439635    612.68527  0.024464353  0.024501198            8 
 2088000   0.91056376    -7.057593    612.75759  0.024455523   0.02449341            9 
 2089000   0.91347693   -7.0871622    612.22413  0.024422536  0.024485576            7 
 2090000   0.91312428   -7.0541502    612.46427  0.024420426  0.024477745           11 
 2091000   0.89668054   -7.0874232     612.4887   0.02440972   0.02446987            5 
 2092000   0.93753518    -7.030018    614.48197  0.024477453    0.0244621            7 
 2093000   0.91447209   -7.0614163    612.99689  0.024406629  0.024454346           11 
 2094000   0.91927167   -7.0508202    613.31717  0.024407719  0.024446563            8 
 2095000   0.91765243   -7.0647143    613.91205  0.024419732  0.024438777            4 
 2096000   0.91234409   -7.0560066    614.13309  0.024416869  0.024431005           19 
 2097000   0.91020698   -7.0273575    614.32034  0.024412667  0.024423245            7 
 2098000   0.91391137   -7.0706123    613.13926  0.024354117  0.024415509            9 
 2099000    0.9207285   -7.0894108    612.86628  0.024331677  0.024407626           13 
 2100000   0.92410204    -7.074717    614.03371  0.024366417  0.024399814           11 
 2101000   0.92009419    -7.061869    614.35574  0.024367592  0.024391995            6 
 2102000   0.90766217   -7.0173186    615.01052  0.024381959  0.024384291            7 
 2103000   0.92698814   -7.0946893    614.67696  0.024357147  0.024376577            7 
 2104000   0.90119965   -7.0612487    614.71935  0.024347249  0.024368753            3 
 2105000    0.9143386   -7.0492432    616.92299  0.024422921  0.024361041            2 
 2106000   0.91019072   -7.0625619    615.21293  0.024343658  0.024353295            6 
 2107000   0.90738814   -7.0983536    615.32266  0.024336444  0.024345506            4 
 2108000   0.92232938   -7.0660198    614.88171  0.024307468  0.024337732           13 
 2109000   0.91902332   -7.0677198    615.37728  0.024315524  0.024330148            5 
 2110000    0.9129487   -7.0569833    617.12776  0.024373134  0.024322498            6 
 2111000   0.91299223   -7.0627102    616.11979  0.024321798  0.024314761            5 
 2112000   0.92103395   -7.0655732    614.35371  0.024240598  0.024306984            4 
 2113000   0.90699391   -7.0587756    615.95661  0.024292341  0.024299305            7 
 2114000   0.92374187   -7.0801611    615.00926  0.024243506  0.024291665            8 
 2115000   0.93121863   -7.0673691    615.05942   0.02423402   0.02428393            6 
 2116000   0.89314938   -7.0666868    616.81107  0.024291551  0.024276205            4 
 2117000   0.91886259   -7.0720353    617.19644  0.024295246  0.024268457            9 
 2118000   0.91196577   -7.0333245    619.64166  0.024379983  0.024260747            4 
 2119000    0.9111096   -7.1149966    614.57124  0.024169075  0.024253043           10 
 2120000   0.91413409   -7.1004625    615.67775  0.024201169  0.024245228            9 
 2121000   0.91101959   -7.1097735    617.08988  0.024245241  0.024237363            6 
 2122000   0.90386623   -7.0545731    617.37662  0.024245076  0.024229599            8 
 2123000   0.88757622   -7.1094347    618.03272   0.02425941  0.024221829           12 
 2124000   0.91657512   -7.0867674    616.24164  0.024177716  0.024214178            4 
 2125000   0.91262282   -7.0798095    616.81202  0.024188707  0.024206501            5 
 2126000   0.91018138   -7.0767649    617.63249  0.024209489  0.024198738            8 
 2127000   0.89785546   -7.0644078    617.01244  0.024173814  0.024190926            7 
 2128000   0.92748118   -7.0768793     618.2195  0.024209723  0.024183215            7 
 2129000   0.90862172    -7.070668    615.85911  0.024105962  0.024175519            3 
 2130000   0.92233048   -7.0418948     618.7327  0.024207069  0.024167865            4 
 2131000     0.930209   -7.0711834    617.30534  0.024139893  0.024160193            5 
 2132000   0.89491874   -7.0476575    618.10404  0.024159789   0.02415257            5 
 2133000   0.89707831   -7.0515974    618.49793  0.024163851  0.024144963           10 
 2134000   0.90693579   -7.0509321    618.63754   0.02415798  0.024137281            5 
 2135000   0.89021371   -7.1014771    619.64644  0.024186044  0.024129612            4 
 2136000   0.93660218   -7.0895039     619.4923  0.024168707   0.02412194            3 
 2137000   0.92716025   -7.0861175    618.91683  0.024134957  0.024114327            5 
 2138000   0.91752357   -7.0965235    619.64578  0.024152081  0.024106717            6 
 2139000   0.90637304   -7.0786215    620.99655  0.024193414  0.024099106           12 
 2140000   0.93274497   -7.0807615    619.43518  0.024121308  0.024091497            5 
 2141000   0.89922274   -7.0691296    619.60105  0.024116497  0.024083938            4 
 2142000   0.91324278   -7.0902054    619.05337  0.024083931  0.024076336            5 
 2143000   0.88482561   -7.0345216    621.50585  0.024168061  0.024068757            6 
 2144000   0.90383963   -7.0363318     621.8192  0.024168968  0.024061289           11 
 2145000    0.9183125   -7.0462262    622.55054  0.024186113  0.024053804            5 
 2146000   0.90146415   -7.0648399    620.96748  0.024113369  0.024046276            4 
 2147000   0.90618941   -7.0622057    620.92071  0.024100322  0.024038663            4 
 2148000   0.93635142   -7.0744881    619.94571  0.024051277  0.024031052            7 
 2149000   0.89630146   -7.0771227    620.52723  0.024062635  0.024023395            8 
 2150000   0.90867376    -7.092162    620.64333  0.024055943  0.024015782            6 
 2151000   0.90929874   -7.0956161    620.35786    0.0240337  0.024008103            9 
 2152000   0.91031117   -7.0989095     620.5378    0.0240295  0.024000454            8 
 2153000   0.91058069   -7.0976852    621.74152   0.02406493  0.023992827           15 
 2154000   0.91421821   -7.0772196    621.38733  0.024040055  0.023985131            4 
 2155000   0.89736441   -7.0986784    620.64847  0.024000328  0.023977428            6 
 2156000   0.91187325   -7.1312734    620.66002  0.023989642  0.023969663            4 
 2157000   0.89984564   -7.1290704    619.82272  0.023946172  0.023961893            6 
 2158000   0.90354807   -7.1273726    620.50977  0.023961607  0.023954186           12 
 2159000   0.89293712   -7.1067511    619.70897  0.023919599  0.023946414            6 
 2160000   0.91906667   -7.0963214    619.08723  0.023884538  0.023938746            8 
 2161000   0.90138955   -7.1124778    620.01505  0.023909265  0.023930993            7 
 2162000   0.87410516   -7.1039427    619.58873  0.023881774  0.023923221            6 
 2163000   0.89755058   -7.0834102    621.13647  0.023930362  0.023915403            6 
 2164000   0.88836093   -7.0948474    621.03929  0.023915561  0.023907605            9 
 2165000   0.89507526   -7.1267062    621.20166  0.023910765  0.023899894            4 
 2166000   0.91214706   -7.1083685     620.1481  0.023859191  0.023892187            8 
 2167000   0.90060788   -7.1206873    621.80555  0.023911919  0.023884466            6 
 2168000   0.90665577   -7.0897681    621.25124  0.023879583    0.0238768            7 
 2169000   0.87807782   -7.1300678    620.78821  0.023850784  0.023869086            4 
 2170000    0.8965776   -7.0812915    622.68458  0.023912618  0.023861333            3 
 2171000   0.90648289   -7.1001219    622.05242  0.023877338  0.023853627            6 
 2172000   0.88660141   -7.1013197    621.70946  0.023853187   0.02384597            2 
 2173000   0.92205111   -7.1163188     621.3409  0.023828076  0.023838265            5 
 2174000   0.89020918   -7.1198088    621.48742  0.023822732  0.023830494            5 
 2175000   0.91122528   -7.0843167    622.36438  0.023845378  0.023822788            8 
 2176000   0.90136502   -7.1093042    623.18387  0.023865804  0.023815151            6 
 2177000   0.90089625   -7.0948482    623.71498  0.023875172  0.023807551            9 
 2178000   0.89453671   -7.0658245    624.21716  0.023883423  0.023800028            5 
 2179000   0.90107261   -7.0838885    623.88222  0.023859653  0.023792639            7 
 2180000   0.90246957   -7.0983648    624.94823  0.023889458  0.023785171            2 
 2181000   0.92603775   -7.1111676    624.94087  0.023878224  0.023777698            4 
 2182000   0.89817053   -7.1106912    624.80537  0.023862106  0.023770196            9 
 2183000   0.90428423   -7.1337227    624.34068  0.023833435  0.023762679            6 
 2184000   0.91493566   -7.1174723    623.91709   0.02380636  0.023755152            8 
 2185000   0.90890162   -7.1049897    624.80165  0.023829201   0.02374766            5 
 2186000   0.88637481   -7.1349272    625.35551  0.023839414  0.023740165            8 
 2187000   0.90268917   -7.1260814    624.50373  0.023796057  0.023732628            4 
 2188000   0.89859253    -7.109027    624.39754  0.023781137   0.02372513            3 
 2189000   0.90344753   -7.1001992    626.71672  0.023858562  0.023717655            6 
 2190000   0.90538852   -7.1255871    623.26913  0.023716481    0.0237101            4 
 2191000   0.90890217   -7.0993758    624.73013  0.023761225  0.023702573            5 
 2192000   0.90281195   -7.1233932    624.91921  0.023757574  0.023695073            3 
 2193000   0.91328386   -7.0936389    624.19606   0.02371926  0.023687552            4 
 2194000   0.90692339   -7.1343567    623.40013  0.023678218  0.023680008            4 
 2195000   0.91117027   -7.1300262    623.94626  0.023688165   0.02367241            7 
 2196000   0.89712157   -7.0886375    625.15161  0.023723118   0.02366482            5 
 2197000   0.89940496   -7.1226571    625.10988  0.023710738  0.023657205            6 
 2198000   0.92632278   -7.1086458    624.14816  0.023663488   0.02364969            8 
 2199000   0.89176668   -7.0798982    625.69456  0.023711329  0.023642113            5 
 2200000   0.88531235   -7.0646472    628.48241  0.023806152  0.023634658           13 
 2201000   0.91677175   -7.0844919    627.49364    0.0237579  0.023627189            4 
 2202000   0.89643626   -7.1135838    625.34158  0.023665667  0.023619727            5 
 2203000   0.89521657   -7.0869929    625.22871  0.023650655  0.023612179            9 
 2204000   0.89735012   -7.0890086    627.56237   0.02372816  0.023604633            6 
 2205000   0.90443372   -7.0929464     625.7624  0.023649373  0.023597069            6 
 2206000   0.91414776   -7.1439714    625.04957  0.023611724  0.023589568            8 
 2207000   0.88577331   -7.0859319    627.07958  0.023677676  0.023582058            4 
 2208000   0.89868073   -7.1062222    626.95543  0.023662267  0.023574587            5 
 2209000   0.91077025   -7.0824152    627.25356  0.023662802  0.023567142            4 
 2210000   0.89512891   -7.1244753     625.8898  0.023600671  0.023559669            9 
 2211000    0.8836895   -7.1132628     628.5293  0.023689481  0.023552198            7 
 2212000   0.91109391   -7.1007025    630.10679    0.0237382  0.023544829           22 
 2213000   0.87633954   -7.1065535    627.64919   0.02363493  0.023537415            5 
 2214000   0.90917954   -7.1016275      627.746  0.023627898  0.023529934            7 
 2215000   0.88444906   -7.1344993    626.97882  0.023588368  0.023522477            7 
 2216000   0.90595216   -7.0807351    628.83195  0.023647411   0.02351509            5 
 2217000   0.90180982    -7.115336    628.06354  0.023607861   0.02350773           14 
 2218000   0.90625671   -7.1336107    629.62378  0.023655838  0.023500449            6 
 2219000   0.91150178   -7.0814515    630.42662  0.023675328  0.023493137           14 
 2220000   0.88473992    -7.106458    631.43512  0.023702519  0.023485862            3 
 2221000   0.91913453   -7.1412577    630.17611  0.023644609  0.023478487            4 
 2222000   0.89777586   -7.1432636    630.76823  0.023656174  0.023471132            5 
 2223000   0.88219184   -7.0996407    632.11534  0.023696032  0.023463792           15 
 2224000   0.90610836   -7.1037472    628.60296  0.023553768  0.023456496            6 
 2225000    0.8929433    -7.088653    630.82667  0.023626467  0.023449117            5 
 2226000   0.89764926   -7.0970733    632.26565  0.023669723  0.023441882            5 
 2227000   0.89368366   -7.1370194    629.40277  0.023551967  0.023434597           15 
 2228000   0.89609919   -7.1324198    631.45079  0.023617998  0.023427231            8 
 2229000   0.90959356   -7.1420208    631.07154  0.023593223  0.023419885            6 
 2230000   0.90726331   -7.1513004    627.82553  0.023461343  0.023412514           11 
 2231000   0.88800387   -7.1369515    630.16582  0.023538242  0.023405224            6 
 2232000   0.88533215   -7.1169244    631.95912   0.02359465  0.023397966            4 
 2233000   0.88262555   -7.0993898    632.22345  0.023593949  0.023390712           11 
 2234000   0.89294342   -7.0922462    632.43149  0.023591148  0.023383484           15 
 2235000   0.90518827    -7.117864    631.36487  0.023540823  0.023376266            5 
 2236000   0.91015359   -7.1495267    631.31138  0.023528301  0.023368954            6 
 2237000   0.89940544   -7.1398497    628.66072   0.02341904  0.023361624            7 
 2238000   0.88129297   -7.1257577     632.8167  0.023563326  0.023354315            4 
 2239000   0.88556461   -7.1108626    631.07632  0.023488027  0.023347013            6 
 2240000    0.8789384   -7.1205028    630.67477  0.023462603  0.023339713            5 
 2241000   0.89942278   -7.1203567    630.74168  0.023454622  0.023332361            5 
 2242000   0.88478995   -7.1078749    631.83226  0.023484696   0.02332503            6 
 2243000    0.8971672   -7.1281213     630.6016  0.023428503  0.023317766           10 
 2244000   0.87171745   -7.1103256    631.66183  0.023457436  0.023310435            4 
 2245000   0.91399038   -7.1123151     633.0374  0.023498047  0.023303183            4 
 2246000    0.8942655   -7.1320445    630.25727  0.023384434  0.023295872            6 
 2247000   0.87900974   -7.1528269     631.2027   0.02340909  0.023288538            4 
 2248000   0.89629768   -7.1540713    630.05067  0.023355971  0.023281187            5 
 2249000   0.87830382   -7.1745727     631.6443  0.023404635  0.023273838            5 
 2250000   0.90537574   -7.1688676    632.05496  0.023409443  0.023266494            5 
 2251000   0.89131667   -7.1660147    631.76028  0.023388134  0.023259162           13 
 2252000   0.89659874   -7.1568694    631.84333  0.023380822  0.023251696           11 
 2253000     0.882675   -7.1367372    631.75334  0.023367116  0.023244343           10 
 2254000   0.88461986     -7.15007    631.94663  0.023363895  0.023236983            8 
 2255000   0.88203403   -7.1477133    633.02072  0.023393227  0.023229702            5 
 2256000   0.89366988   -7.1190964    632.60333   0.02336744  0.023222354            3 
 2257000   0.90369719   -7.0982543    632.62848  0.023358015  0.023215055            8 
 2258000   0.89373586   -7.0923969    635.05237  0.023437126  0.023207929            4 
 2259000   0.88686995   -7.1470216    633.74809  0.023378637   0.02320077            6 
 2260000   0.90473304   -7.1364669    636.67943   0.02347638  0.023193544            5 
 2261000   0.87511271   -7.1341096    634.09637  0.023370793  0.023186312           12 
 2262000   0.90342046   -7.1250006    634.24123  0.023365798  0.023179144            4 
 2263000   0.89881469    -7.148508    632.63077  0.023296169  0.023171945            8 
 2264000   0.88998415    -7.125228     634.8661  0.023368157   0.02316474            5 
 2265000   0.89292962   -7.1335793    633.73727  0.023316309  0.023157563           12 
 2266000   0.88997993   -7.1435251    634.10701  0.023319616  0.023150432            5 
 2267000   0.86759843   -7.1217674     636.4372  0.023394986  0.023143338            9 
 2268000   0.91091279    -7.126112    636.15014  0.023374123  0.023136188            5 
 2269000    0.8975409   -7.1591236    635.50846  0.023340255  0.023129033            8 
 2270000   0.88453975   -7.1915892    633.19608  0.023245084  0.023121824            5 
 2271000   0.87603228   -7.1131908    634.82997  0.023294803   0.02311461           14 
 2272000   0.90567748   -7.1461456    633.53681  0.023237119  0.023107375            8 
 2273000    0.8833684   -7.1339537    635.70044  0.023306219  0.023100212            4 
 2274000    0.9035008   -7.1325101    634.67347  0.023258336  0.023092983            8 
 2275000   0.89915573   -7.1818737    632.79009  0.023179124  0.023085665            7 
 2276000   0.90270825   -7.1772034    633.15284  0.023182222  0.023078287           10 
 2277000   0.87270287   -7.1363125    634.25795  0.023212485  0.023071013            7 
 2278000   0.88875948    -7.128828    634.53558  0.023212452  0.023063818            4 
 2279000   0.87215257   -7.1756603     634.0149  0.023183227  0.023056634            5 
 2280000   0.90181228   -7.1569612    636.27723  0.023255747  0.023049381            6 
 2281000   0.89361498     -7.16264     635.6277  0.023221821  0.023042155            3 
 2282000   0.88203556   -7.1546002    636.20225  0.023232627  0.023034949           11 
 2283000   0.88819436   -7.1682728     637.2276  0.023259877  0.023027708           12 
 2284000   0.89178148   -7.1559159     636.3538  0.023217812  0.023020521            4 
 2285000    0.8997136   -7.1471129    636.24029  0.023203512  0.023013357           13 
 2286000   0.87589602   -7.1472035    636.85477  0.023215761  0.023006166            4 
 2287000   0.88003752   -7.1425346    636.87739  0.023206434  0.022999007            9 
 2288000   0.87270458   -7.1414945    636.36288  0.023177552  0.022991814            7 
 2289000   0.88183749   -7.1641798    635.85191  0.023148824   0.02298459            5 
 2290000   0.87931902   -7.1666885     636.5668  0.023164731  0.022977413            7 
 2291000   0.87333697   -7.1794647    636.36195  0.023147168  0.022970215            3 
 2292000    0.8888037   -7.1634286    636.74738  0.023151083  0.022963036            6 
 2293000   0.87214892    -7.120685     639.2339  0.023231353  0.022955842            7 
 2294000   0.88437848   -7.1539946    637.28153  0.023150303  0.022948696            4 
 2295000   0.88949858   -7.1476994    635.97072  0.023092619  0.022941518            6 
 2296000   0.87542651   -7.1951469    636.82126  0.023113431  0.022934331            6 
 2297000   0.87581729   -7.1396495     637.6251  0.023132532  0.022927168            6 
 2298000    0.8726096   -7.1502674    638.15042  0.023141515  0.022919977           19 
 2299000   0.86290012   -7.1531956    636.63756  0.023076612  0.022912821           24 
 2300000   0.88022397   -7.1647805    639.31659  0.023163645  0.022905655           13 
 2301000   0.87584168   -7.1447628     637.6969  0.023094919  0.022898425            7 
 2302000   0.87220445   -7.1284441    637.15498  0.023065269  0.022891236            3 
 2303000   0.88873826    -7.164223    636.65367  0.023037113  0.022884105            5 
 2304000   0.88883712   -7.1853863    636.94781  0.023037754  0.022876912           10 
 2305000   0.89315379   -7.1787453    639.12484  0.023106466  0.022869734           11 
 2306000    0.8815797   -7.1487782    638.22109  0.023063786   0.02286255            6 
 2307000   0.88218523   -7.1476102    640.47099   0.02313506  0.022855425            5 
 2308000    0.8613861   -7.1176249    641.98843  0.023179825  0.022848302           10 
 2309000   0.87501592   -7.1393692    639.75885  0.023089319  0.022841194            3 
 2310000   0.87952702   -7.1381709    640.71387  0.023113776  0.022834133            8 
 2311000   0.89034945   -7.1165711    641.72597   0.02314027  0.022827093            8 
 2312000   0.89835883   -7.1646365    639.54002  0.023051471  0.022820001           12 
 2313000   0.89313062   -7.1671934    639.33761  0.023034213  0.022812976           27 
 2314000   0.87938544   -7.1319383     641.3757  0.023097655   0.02280596            6 
 2315000   0.88084735   -7.1800555    638.96272  0.023000818  0.022798916            6 
 2316000   0.87835856   -7.1296561    640.62851  0.023050824  0.022791862            6 
 2317000   0.86050253   -7.1335964    639.43249   0.02299786  0.022784816           14 
 2318000   0.88153744   -7.1566795     640.0599  0.023010494  0.022777741            2 
 2319000   0.87514907   -7.1893552    639.84046  0.022992686   0.02277068            5 
 2320000   0.86050355   -7.1876594    639.19616  0.022959632  0.022763562            9 
 2321000   0.87916149   -7.1643631    641.62788  0.023037049  0.022756514            6 
 2322000    0.8966988   -7.1846328     640.8431  0.022998963  0.022749439            4 
 2323000   0.88645935   -7.1538958    639.91188  0.022955657   0.02274236            9 
 2324000   0.89774089   -7.2066449    640.44893  0.022965036  0.022735254            5 
 2325000   0.87980236   -7.1985252    638.93122   0.02290076  0.022728136            6 
 2326000   0.88030453    -7.174999    638.92742  0.022890779  0.022720953            5 
 2327000   0.87489875   -7.1691189    639.19595  0.022890558  0.022713856           19 
 2328000   0.88618501   -7.1877082    640.32988  0.022921316  0.022706739            4 
 2329000   0.88491081   -7.1885022    639.75981  0.022891077  0.022699513            6 
 2330000   0.87081821   -7.1831543    641.49091  0.022943166  0.022692346            6 
 2331000   0.88595404   -7.1763474    641.18513  0.022922391  0.022685204            5 
 2332000   0.86603685   -7.1767813    640.40951  0.022884845  0.022678074           16 
 2333000   0.90060325   -7.1818571    640.07542  0.022863102  0.022670957            6 
 2334000   0.86925847    -7.130123    642.46108  0.022938485  0.022663849            5 
 2335000   0.89237395   -7.1596862    642.54529  0.022931666  0.022656749           12 
 2336000    0.8895682   -7.2012627    640.43148  0.022846443  0.022649566            9 
 2337000   0.88269694   -7.1818051    640.13503  0.022826096  0.022642485           16 
 2338000   0.88620513   -7.1420119    642.01876  0.022883474  0.022635371            9 
 2339000   0.88743808   -7.1956038    640.09214   0.02280505  0.022628215            6 
 2340000   0.86731213   -7.2116553    640.34378  0.022804266  0.022621004            9 
 2341000    0.8734386   -7.2004081    640.79688  0.022810653  0.022613831           11 
 2342000   0.86241492   -7.2075749    640.75099  0.022799281  0.022606655           10 
 2343000   0.86442294   -7.1625088    641.06162  0.022800598  0.022599541           13 
 2344000   0.86493197   -7.2269975    641.01768  0.022789309   0.02259241           18 
 2345000   0.87617373   -7.1710567    642.41125  0.022829113  0.022585259            8 
 2346000   0.87966648   -7.2041283    642.26768  0.022814283  0.022578173           11 
 2347000   0.88297401   -7.1641296    642.48351  0.022812225  0.022571052            8 
 2348000   0.85935479   -7.2001857    642.21019  0.022792809  0.022563879            4 
 2349000   0.88671464   -7.1519731    642.21067  0.022783123  0.022556763           12 
 2350000   0.90308373   -7.1541953    643.19409  0.022808301  0.022549679            5 
 2351000    0.8793173   -7.1867094      642.143  0.022761343  0.022542565            6 
 2352000   0.87857272   -7.1426215    642.32955  0.022758275   0.02253544           10 
 2353000   0.89557978   -7.1931989    641.96553  0.022735711  0.022528357            7 
 2354000   0.87703036   -7.1978798    641.34735  0.022704168  0.022521222            5 
 2355000   0.87096788   -7.1855828    641.36324   0.02269509  0.022514071           12 
 2356000   0.87679019   -7.1957793    641.70157  0.022697424   0.02250689           11 
 2357000   0.88019294   -7.1665349    642.39009  0.022712137  0.022499704            8 
 2358000   0.89082746   -7.2005895    642.54943  0.022708137  0.022492521           10 
 2359000     0.893894   -7.1777542    643.01208  0.022714854   0.02248531            6 
 2360000   0.86381716   -7.2219321    641.57528  0.022654494  0.022478103            6 
 2361000   0.88594166   -7.2055295    640.04376  0.022590843   0.02247083           15 
 2362000   0.87414961   -7.2053178    642.06058  0.022652434  0.022463595            5 
 2363000   0.87740494   -7.1481534    643.69654  0.022700541  0.022456442            5 
 2364000   0.85492845   -7.1779507    642.73636  0.022657091  0.022449282            8 
 2365000   0.86560053   -7.1664452    641.89677  0.022617927  0.022442133            8 
 2366000   0.89796952   -7.2007917     642.1524  0.022617371  0.022434946            6 
 2367000   0.87573626   -7.2086707    642.54218  0.022621539  0.022427728            6 
 2368000   0.87557481   -7.1965837    643.40987  0.022642521  0.022420508            6 
 2369000   0.87367139   -7.1589435    643.67514  0.022642294  0.022413288           12 
 2370000   0.87045008   -7.1583097     644.6613  0.022667416   0.02240612            6 
 2371000   0.85534192   -7.1893534    642.91727  0.022596558  0.022398936            5 
 2372000   0.89190386   -7.1939949    643.76244  0.022616724  0.022391754           10 
 2373000   0.87255599   -7.1908713    641.79906  0.022538245  0.022384558            7 
 2374000   0.88463108   -7.1905963    643.77566  0.022598135  0.022377366           15 
 2375000   0.87919678   -7.1844918    641.85262  0.022521144  0.022370191            7 
 2376000   0.86619714   -7.1989807     641.9417   0.02251479  0.022363042            7 
 2377000     0.884514   -7.1751325    644.72436  0.022602873  0.022355865            7 
 2378000   0.87453139   -7.2400138    641.69558  0.022487229  0.022348659            9 
 2379000   0.88757802   -7.2176999    642.76262  0.022515154  0.022341433            8 
 2380000   0.87083618   -7.1768178    643.60709  0.022535262  0.022334266            4 
 2381000   0.86714662   -7.1805238    644.80278  0.022567646  0.022327095            9 
 2382000   0.86188631   -7.1673814     645.2386  0.022573419  0.022319977            5 
 2383000   0.87681552   -7.1813694    643.84382   0.02251517   0.02231284            5 
 2384000   0.85084561   -7.1944934    642.71971  0.022466433  0.022305668           16 
 2385000   0.87273346   -7.2044405    643.99079  0.022501425  0.022298472            9 
 2386000   0.86850137   -7.1988213    643.51896  0.022475515  0.022291278           10 
 2387000   0.87564491   -7.1906486    642.70936  0.022437836  0.022284051            7 
 2388000   0.86065647   -7.1955096    643.84886  0.022468204  0.022276844           12 
 2389000   0.87350942      -7.1959     644.1524  0.022469387  0.022269688            5 
 2390000   0.87985513   -7.2106504    642.20634  0.022392132  0.022262472            6 
 2391000   0.85470815   -7.2214527    642.61892  0.022397146  0.022255226            6 
 2392000   0.87395592   -7.1980232    643.87595  0.022431576  0.022248007            4 
 2393000   0.87285637   -7.2223353    643.30167  0.022402203  0.022240816            7 
 2394000   0.87182935   -7.1683606    644.66289  0.022440229   0.02223361            8 
 2395000   0.85850053   -7.2134398    642.45001  0.022353862  0.022226435           12 
 2396000   0.85030178   -7.2409971    641.63862  0.022316313  0.022219204           19 
 2397000   0.86235616   -7.1862867    644.23974  0.022397432  0.022212026            9 
 2398000   0.87108287   -7.1737989    645.16295  0.022420175  0.022204814            6 
 2399000   0.86863506   -7.2058765    643.55458   0.02235496  0.022197605           11 
 2400000   0.87906195   -7.1790827    644.85634  0.022390845  0.022190449           14 
 2401000   0.87569273   -7.2150878    645.65464  0.022409227  0.022183247           16 
 2402000   0.87103935   -7.2187453    645.76197  0.022403621  0.022176046            9 
 2403000   0.87139907   -7.1852996    644.73725  0.022358762  0.022168866            7 
 2404000   0.83949066   -7.2082647    645.19868  0.022365456  0.022161701            5 
 2405000   0.86317758   -7.2479198    642.26565  0.022254527  0.022154458           17 
 2406000   0.86476679    -7.182455      645.838  0.022369008  0.022147246            8 
 2407000   0.86790797   -7.1874034    646.79421   0.02239282  0.022140094            5 
 2408000   0.86468173   -7.2154324    645.19913   0.02232832  0.022132938           13 
 2409000   0.88073738   -7.2492697     645.6163  0.022333482  0.022125785            7 
 2410000   0.85750946   -7.2246038    644.14033  0.022273179  0.022118577            4 
 2411000   0.87297424   -7.2215451    644.15286  0.022264374  0.022111379            9 
 2412000   0.87637334    -7.214348    645.90214   0.02231558  0.022104278           18 
 2413000   0.86114803   -7.2131629    644.91235  0.022272149  0.022097209            8 
 2414000   0.85745933   -7.1913871    645.91251  0.022297449  0.022090121           13 
 2415000    0.8659196   -7.2048706    647.25386  0.022334502  0.022083004           13 
 2416000   0.85898944   -7.2373872    646.66292  0.022304874  0.022075937            7 
 2417000   0.88523368   -7.1824313    646.19265  0.022279432  0.022068858            5 
 2418000   0.84065305   -7.2132425     645.6619  0.022251926  0.022061729            9 
 2419000   0.87537512   -7.1979346    647.12698  0.022293199  0.022054621            5 
 2420000    0.8542173   -7.1793972    648.42016  0.022328518  0.022047566            4 
 2421000   0.86047964   -7.1935045    646.62689  0.022257569  0.022040481            6 
 2422000   0.85684703    -7.203102    645.27178  0.022201754  0.022033334            9 
 2423000   0.87244857   -7.1947283    645.72749  0.022208264  0.022026186            5 
 2424000   0.86041614   -7.2204935    646.91891  0.022240062  0.022019009            9 
 2425000   0.86230782   -7.2381006    645.19653  0.022171702  0.022011813            6 
 2426000   0.84737035   -7.2278602     647.2682  0.022233725  0.022004683            4 
 2427000   0.84526901   -7.2256718    646.07424  0.022183568  0.021997559            7 
 2428000   0.86684054   -7.1899894    648.02628  0.022241429   0.02199045            5 
 2429000   0.86858322   -7.1953012    646.20947  0.022169942  0.021983411           12 
 2430000   0.85227292   -7.1720077    648.04335  0.022223709  0.021976368            8 
 2431000   0.87350062   -7.2086691    645.82643  0.022138572  0.021969279           11 
 2432000   0.85275438   -7.2830605    646.00952  0.022135743  0.021962119            6 
 2433000    0.8586093   -7.2274105    645.27027  0.022101325  0.021954924            6 
 2434000   0.85872253   -7.1953494    646.86476  0.022146835  0.021947781           14 
 2435000   0.86377109   -7.1993052    648.27663  0.022186059  0.021940697            5 
 2436000   0.85020148   -7.2362949    648.03636  0.022168731  0.021933629           14 
 2437000   0.85188057   -7.2128924    647.62416  0.022145539   0.02192659            6 
 2438000   0.88342492   -7.2244556    647.72255  0.022139819  0.021919546           14 
 2439000   0.87288073   -7.2342211    647.77604  0.022132569  0.021912498            7 
 2440000   0.84359561   -7.2257653    646.61739  0.022083927  0.021905374            7 
 2441000   0.86394416   -7.2218068      648.349  0.022133996  0.021898239           22 
 2442000   0.84852761    -7.207806    649.41062  0.022161159  0.021891226           12 
 2443000   0.85640776   -7.2400971    647.20675  0.022076912  0.021884135            6 
 2444000   0.86813328   -7.2283818    649.91885  0.022160354  0.021877122            8 
 2445000   0.86816303   -7.2297509    648.34745  0.022097732  0.021870101            6 
 2446000   0.85031932   -7.2496873     647.2759  0.022052191  0.021863009           21 
 2447000   0.85871761   -7.2166443    647.87408   0.02206355   0.02185595           20 
 2448000   0.86366165   -7.2222398     647.6216  0.022045942  0.021848884            7 
 2449000   0.85345737   -7.1646641    650.50608  0.022135092  0.021841846            9 
 2450000   0.84939888    -7.266381    647.47629  0.022023003  0.021834759           18 
 2451000   0.86157815   -7.2306877    647.62473  0.022019065  0.021827621            8 
 2452000   0.84889798   -7.2371458    648.79448  0.022049839  0.021820501           10 
 2453000   0.85178168   -7.2579958    645.40284   0.02192563  0.021813412            6 
 2454000   0.85579159   -7.2859969    646.57444   0.02195648  0.021806253            8 
 2455000    0.8944228   -7.2846109    645.64508  0.021915991  0.021799041           13 
 2456000   0.86131834   -7.2625013    647.10522   0.02195661  0.021791805           10 
 2457000   0.86694117   -7.2711326    647.18265    0.0219503  0.021784575           12 
 2458000   0.86891879   -7.2709582     648.0265  0.021969979  0.021777408           16 
 2459000   0.87536614   -7.2482259    649.59354   0.02201415  0.021770276           14 
 2460000    0.8704169   -7.2618376    647.79195  0.021944172   0.02176315            4 
 2461000   0.86919686   -7.2359805    648.59874  0.021962574  0.021756053           14 
 2462000   0.86122406   -7.2838748    646.41157  0.021879623  0.021748888            9 
 2463000   0.84451651   -7.2399562     647.6984  0.021914278  0.021741696            7 
 2464000   0.83358257    -7.251509     647.7316  0.021906507  0.021734556           14 
 2465000   0.85897071   -7.2463533    648.70846  0.021930644  0.021727406           13 
 2466000   0.85412641   -7.2567675     650.1369  0.021970022  0.021720315            6 
 2467000   0.85992519   -7.2559112    648.49779  0.021905749  0.021713181            6 
 2468000   0.84228552   -7.2225406    650.64025  0.021969214  0.021706122            6 
 2469000   0.84882608   -7.2434863    650.98514  0.021971957  0.021699053            6 
 2470000   0.87070217   -7.2235032    650.40612  0.021943526  0.021692072            7 
 2471000   0.86555951   -7.2111307    649.59701  0.021907359  0.021685029           11 
 2472000   0.87178824   -7.2315931    649.08875  0.021881363  0.021678024            6 
 2473000   0.86241811   -7.2376396    650.94834  0.021935178   0.02167104            7 
 2474000   0.85597159   -7.2458029    651.27268  0.021937237  0.021663992           11 
 2475000    0.8399371   -7.2500506     649.5471  0.021870273  0.021656987            8 
 2476000   0.84299153   -7.2149092     651.7624  0.021935999  0.021649994            8 
 2477000   0.84691353   -7.2196632     650.4599  0.021883323  0.021643025            5 
 2478000   0.84962668   -7.2803937      648.858  0.021820622  0.021636034            7 
 2479000   0.84585817   -7.2523909    652.19381  0.021923955  0.021629011            7 
 2480000   0.86917899   -7.2192448    652.63855  0.021930059  0.021622004            8 
 2481000   0.85632127   -7.2582082    651.18592  0.021872428  0.021614996           10 
 2482000   0.83940331   -7.2232447    653.06227  0.021926614   0.02160801            4 
 2483000    0.8461079   -7.2331799    651.05679  0.021850476  0.021601024            6 
 2484000   0.85632372   -7.2724672    650.24145  0.021814327  0.021594001            5 
 2485000   0.84720467   -7.2732644     650.4474  0.021812455  0.021586961            9 
 2486000   0.85538367   -7.2315876    652.17315   0.02186153  0.021579973            6 
 2487000    0.8570997   -7.2513435    651.59539   0.02183338   0.02157297           14 
 2488000   0.85840318   -7.2442538    651.50842  0.021821692  0.021565983            7 
 2489000   0.85752042    -7.265597    649.42698  0.021743236  0.021558973            8 
 2490000   0.85199076   -7.2702616    651.52411  0.021804689  0.021551927           12 
 2491000   0.85545233   -7.2471557    652.36508  0.021824069  0.021544869            4 
 2492000   0.85090314   -7.2519427    651.53461  0.021787541  0.021537858            5 
 2493000   0.84699177   -7.2414634    650.65884  0.021749527   0.02153081            8 
 2494000   0.85948697    -7.260395    650.25997  0.021727478  0.021523719           13 
 2495000   0.85836354    -7.313696    649.17872  0.021682656  0.021516645           18 
 2496000   0.85815139   -7.2762453    650.91181  0.021731831   0.02150955            6 
 2497000   0.88014489   -7.2814194    650.56136  0.021711432  0.021502489           15 
 2498000   0.84953801   -7.2621895    651.98328  0.021750176  0.021495479           11 
 2499000   0.85606719   -7.2650966    651.30075  0.021718712  0.021488509           16 
 2500000   0.85573559   -7.2506225    652.84069  0.021761356  0.021481548           14 
 2501000   0.85384016   -7.2172183    654.25839  0.021799893  0.021474624            6 
 2502000   0.87493129   -7.2169068    653.39912  0.021762561  0.021467721            6 
 2503000    0.8435702   -7.2792817     652.7598  0.021732581  0.021460749            7 
 2504000   0.85192444   -7.2335977    653.16171  0.021737277  0.021453786           23 
 2505000   0.85671823   -7.2680272     652.3422  0.021701337  0.021446853            5 
 2506000   0.84484435   -7.2720929    653.16315  0.021719977  0.021439831            9 
 2507000   0.84713862   -7.2715187    651.51931  0.021656672  0.021432843           10 
 2508000   0.84675314   -7.2554948     653.0551  0.021699066  0.021425859            5 
 2509000   0.86069844   -7.2512221    654.33053   0.02173278  0.021418872           11 
 2510000   0.86110436   -7.2366689    654.16086  0.021718488  0.021411935            9 
 2511000   0.85586712   -7.2667279    651.95797  0.021636731  0.021404958            7 
 2512000   0.85193196   -7.2343968    652.29522  0.021639305   0.02139801            7 
 2513000   0.86231036   -7.2675934    653.52682  0.021671535  0.021391048            4 
 2514000   0.83062855   -7.2280101    654.31375     0.021689  0.021384086            7 
 2515000   0.85721958   -7.2310866    653.51126  0.021653786  0.021377136            6 
 2516000   0.85019637   -7.2604168    652.99728  0.021628156  0.021370149            8 
 2517000   0.84862638   -7.2623189     651.7444  0.021578082  0.021363144            5 
 2518000   0.85828662   -7.2760071    652.87913  0.021607067  0.021356148           10 
 2519000   0.83837023   -7.2694428    652.21706  0.021576586  0.021349141           12 
 2520000   0.84790597   -7.2949952    652.30503  0.021570933   0.02134215           22 
 2521000   0.86402884   -7.2571537    653.45926  0.021600531   0.02133512           12 
 2522000   0.85661905   -7.2637774    654.43235  0.021624119  0.021328132            8 
 2523000   0.84536605   -7.2282393    655.34098   0.02164556  0.021321162            7 
 2524000   0.84249662   -7.2449878    654.70312  0.021615924  0.021314192            6 
 2525000   0.84990262   -7.2453138    654.17273  0.021589859  0.021307231            9 
 2526000   0.84443959   -7.2595406    652.72012   0.02153339  0.021300311           33 
 2527000   0.84334322   -7.2486538    654.32666  0.021577848  0.021293343           16 
 2528000    0.8472671   -7.2943655    652.37139  0.021504859  0.021286352           14 
 2529000   0.85007605   -7.2600757    656.04806  0.021617506  0.021279316           19 
 2530000   0.85838521   -7.2915326    654.48304  0.021557412  0.021272351           14 
 2531000   0.84676511   -7.2759065    652.39722  0.021480219  0.021265346           10 
 2532000   0.85572559   -7.2930603    652.81857  0.021485603  0.021258296           29 
 2533000   0.84578374   -7.2798635     653.4131   0.02149668  0.021251329           13 
 2534000   0.86060417   -7.2693231    653.63804  0.021495595  0.021244401           25 
 2535000   0.84863216   -7.2716967     654.8813  0.021527985  0.021237536           19 
 2536000    0.8341427   -7.2846065    655.59329  0.021542892  0.021230636            9 
 2537000   0.84139375   -7.2521136    657.50793  0.021597291  0.021223799           22 
 2538000   0.83474641   -7.2894277    653.32706  0.021451506  0.021216879            9 
 2539000   0.82872481   -7.2776264    654.35838  0.021476906  0.021209973           15 
 2540000   0.84262964   -7.2585461    657.30072  0.021564984    0.0212031           14 
 2541000    0.8690701     -7.22337    657.70156  0.021569643  0.021196226            5 
 2542000   0.82696354   -7.2325275    657.96826  0.021569901  0.021189404           12 
 2543000   0.84697786   -7.2452198     656.2072   0.02150371  0.021182573            7 
 2544000   0.85083982   -7.2234477    658.39048  0.021566774  0.021175829            6 
 2545000    0.8471291   -7.2427378    657.45539  0.021527681  0.021168965            7 
 2546000   0.86084424   -7.2664647    656.48174  0.021487357  0.021162133            6 
 2547000    0.8424829   -7.2815226    657.28671  0.021505258  0.021155262            7 
 2548000   0.85384503   -7.2431892    657.23096  0.021494995  0.021148454           16 
 2549000   0.85768517    -7.285103    655.67478  0.021435687   0.02114158            4 
 2550000   0.84387469    -7.274042    656.20946  0.021444754   0.02113471            8 
 2551000   0.85647631    -7.232222    656.33346  0.021440398   0.02112787            7 
 2552000   0.85335001   -7.2547739    656.95621  0.021452332   0.02112107            7 
 2553000   0.83084271   -7.2550314    656.42943  0.021426734  0.021114241            7 
 2554000   0.85773454   -7.2758259    655.46322  0.021386819  0.021107369            4 
 2555000   0.83164851   -7.2808741    655.06132   0.02136534  0.021100449            7 
 2556000   0.85126742   -7.2967436    654.54458  0.021340134  0.021093574            6 
 2557000   0.84844163   -7.2946493    654.40109  0.021327112  0.021086644           15 
 2558000   0.84760065   -7.2855298    656.27733  0.021379897   0.02107976           16 
 2559000   0.82485695    -7.293632     656.2118  0.021369409  0.021072881           12 
 2560000   0.85152893   -7.2735915     656.1189  0.021358037   0.02106601            9 
 2561000   0.82473996   -7.2493753    656.95651  0.021376953  0.021059177            6 
 2562000   0.83462576   -7.2655634    658.90523  0.021431994  0.021052335           26 
 2563000    0.8561051   -7.2781584    656.70874  0.021352215  0.021045507           10 
 2564000   0.86038079   -7.2954781    657.41716  0.021366912  0.021038649            9 
 2565000   0.83023399   -7.2817068    657.01365  0.021345473  0.021031807           10 
 2566000   0.81290796     -7.29897    656.74969  0.021328582  0.021024938           17 
 2567000   0.85912497   -7.2901109    656.31279   0.02130609  0.021018051            6 
 2568000   0.85212139   -7.2834418    656.87284  0.021315967  0.021011175           14 
 2569000   0.84981022   -7.3014125    658.16203  0.021349488   0.02100433            8 
 2570000   0.82724838   -7.2723896     657.8461  0.021330937  0.020997452            7 
 2571000   0.84461545   -7.2984579    658.31735  0.021337915  0.020990593           13 
 2572000   0.83828653   -7.2756188    658.48379  0.021335011  0.020983797           16 
 2573000    0.8347528   -7.2862262     659.5469  0.021361151  0.020977009            9 
 2574000   0.83909952   -7.2952911    659.52127  0.021352022  0.020970226            5 
 2575000   0.83327296   -7.2484019    660.23607  0.021366863   0.02096342            8 
 2576000   0.84321578   -7.3064222    656.65767  0.021242807  0.020956582           11 
 2577000   0.81382083   -7.3114397    656.96043  0.021244355  0.020949725            9 
 2578000   0.83406847   -7.2775984       658.65  0.021290729  0.020942875           23 
 2579000   0.84556209   -7.2417911    659.23615  0.021301414  0.020936099           10 
 2580000   0.85368936    -7.248364    659.63531   0.02130605  0.020929353           20 
 2581000     0.859407   -7.2866258     656.9047  0.021209631  0.020922548           11 
 2582000    0.8381522    -7.305786     658.1187  0.021240598  0.020915749           11 
 2583000   0.85224294   -7.2771345     658.0489  0.021230123   0.02090899            9 
 2584000   0.84396453   -7.2795813    660.44537  0.021299193  0.020902223           16 
 2585000   0.86001303   -7.3234278    657.04771  0.021181422  0.020895416           15 
 2586000   0.84229487   -7.2876936    657.73806  0.021195478  0.020888608            9 
 2587000   0.84557408   -7.2555186    659.45555  0.021242609  0.020881834            6 
 2588000   0.85043701   -7.3050791    658.19427  0.021193788  0.020875069            6 
 2589000   0.81797849   -7.2724209    660.08898  0.021246588  0.020868276            8 
 2590000   0.86163753   -7.3114525    657.01629   0.02113952   0.02086152           11 
 2591000   0.84317176   -7.3020856    658.43066  0.021176851  0.020854699           20 
 2592000   0.85316863    -7.315247    656.98057   0.02112206  0.020847905            7 
 2593000   0.84391694   -7.3317774    656.87442  0.021110503  0.020841101            8 
 2594000   0.82067137   -7.3053114    658.61675  0.021158338  0.020834278            8 
 2595000   0.84147672   -7.3233431    658.23905  0.021138055  0.020827441            6 
 2596000   0.81811109   -7.3112657    658.81001  0.021148241  0.020820604            6 
 2597000   0.85323664   -7.3198724    658.48387  0.021129632  0.020813742           11 
 2598000   0.83356781   -7.2999388    658.25986  0.021114314  0.020806915            6 
 2599000   0.82313377   -7.2974689    657.58583  0.021084578   0.02080006            6 
 2600000   0.83267398   -7.3249221    657.81364  0.021083771  0.020793201           10 
 2601000   0.83161671    -7.329895    657.30834  0.021059475  0.020786362            7 
 2602000   0.81887477   -7.3042213     659.5352    0.0211227  0.020779485            5 
 2603000   0.85596402   -7.3083913    657.58477  0.021052144  0.020772593           10 
 2604000   0.83427836   -7.3071326    658.29082  0.021066655   0.02076575           20 
 2605000   0.84625811   -7.2603142    659.90371  0.021110163  0.020758959            8 
 2606000   0.81808148   -7.2468658    661.89803  0.021165836  0.020752237            5 
 2607000   0.84813029   -7.3090816    658.46761  0.021048063  0.020745518            9 
 2608000   0.83941008   -7.3095759    661.42617  0.021134527  0.020738758            7 
 2609000    0.8463027   -7.3077698     660.9271  0.021110486  0.020731992            5 
 2610000   0.83259091   -7.2987413    660.31696  0.021082917  0.020725232            6 
 2611000   0.81881571   -7.3159871     659.7083  0.021055416  0.020718478           13 
 2612000   0.83052906   -7.3393108    660.42871  0.021070339    0.0207117           20 
 2613000   0.84178245   -7.3301386     659.7614  0.021040994  0.020704914           18 
 2614000     0.828243   -7.3067325    658.10475  0.020980131  0.020698123           10 
 2615000   0.84668392   -7.3098035    660.18703  0.021038465  0.020691364            9 
 2616000   0.81060301   -7.3129049    659.55723   0.02101036  0.020684596           20 
 2617000    0.8127897   -7.3205091     660.9093  0.021045386  0.020677829           15 
 2618000    0.8227427   -7.3311478    658.87103  0.020972467  0.020671066            7 
 2619000   0.84442189   -7.3415707    658.46407   0.02095151  0.020664303           15 
 2620000   0.83614362    -7.340231    657.80842   0.02092266  0.020657491            8 
 2621000   0.82419022   -7.3757685    660.13725  0.020988721  0.020650677           12 
 2622000   0.83293392   -7.3521003    659.76305  0.020968823  0.020643898            8 
 2623000   0.81228671   -7.3554586    660.34083  0.020979185  0.020637159            6 
 2624000   0.83680271    -7.331614    660.57004  0.020978469  0.020630444           11 
 2625000   0.82297295   -7.3457001    661.06363  0.020986147  0.020623737            7 
 2626000   0.82788131   -7.3421718    661.40628  0.020989029  0.020617009           10 
 2627000   0.81936043   -7.3324831    663.48378  0.021046941  0.020610324           13 
 2628000    0.8170375   -7.3072649    663.58329  0.021042088  0.020603668            6 
 2629000   0.82131243   -7.3361203    661.77459  0.020976752  0.020597015           11 
 2630000   0.82542751    -7.342153    661.74927  0.020967974   0.02059031           11 
 2631000   0.82163923   -7.2955855     661.8126  0.020962011  0.020583646           14 
 2632000   0.83244385    -7.329734    661.02619  0.020929147  0.020576989            9 
 2633000   0.83638469   -7.3238052    661.93658  0.020950012  0.020570292           23 
 2634000   0.82786685   -7.3322936    661.73377  0.020935642  0.020563598           25 
 2635000   0.82180057    -7.333182    661.74442  0.020928034  0.020556941           11 
 2636000   0.81505909   -7.3151235    662.57194  0.020946255  0.020550239           15 
 2637000   0.83173862   -7.3321263    661.96643  0.020919177  0.020543504            8 
 2638000   0.84116774    -7.327088    662.92632  0.020941569   0.02053679           20 
 2639000   0.81777749   -7.3564528    659.81208  0.020835294  0.020530079           24 
 2640000   0.83300973   -7.3733541    660.06565  0.020835406  0.020523354           23 
 2641000   0.83296944   -7.3442404    661.97928  0.020887898  0.020516652           11 
 2642000    0.8296399     -7.34332    661.99994  0.020880644  0.020509989           21 
 2643000   0.83498436   -7.3546671    661.45466  0.020855551  0.020503291           29 
 2644000   0.83633487   -7.3427272    661.90212  0.020861766  0.020496645            5 
 2645000   0.84934953   -7.3494819    662.20602  0.020863454  0.020489973           13 
 2646000   0.83260795   -7.3477507     662.6736  0.020870295  0.020483331           12 
 2647000   0.82412077   -7.3384726    662.68445  0.020862752  0.020476729            9 
 2648000   0.81288397   -7.3212549    662.97649  0.020864064  0.020470081           10 
 2649000   0.82110711   -7.3198318    663.06834  0.020859077  0.020463512           10 
 2650000   0.83113127    -7.302746    663.51979  0.020865402  0.020456891            5 
 2651000   0.82650162   -7.3327554    664.19173  0.020878654  0.020450264            9 
 2652000   0.83297222   -7.3037047    662.31437  0.020811789  0.020443659            7 
 2653000   0.83033864   -7.3190119    664.81143  0.020882379  0.020437012           18 
 2654000    0.8318492   -7.3114011    662.67488  0.020807425  0.020430358           11 
 2655000   0.84058151    -7.351846        661.8  0.020772128  0.020423747            6 
 2656000   0.83544964   -7.2795222     663.4697  0.020816695  0.020417139           14 
 2657000   0.82742822   -7.3254014    663.16927  0.020799438  0.020410556            7 
 2658000   0.81853508   -7.3411639    662.99247  0.020786069  0.020403936           13 
 2659000   0.82124753   -7.3443684    663.33435  0.020788967  0.020397249            9 
 2660000   0.83979948   -7.3526768    661.61476  0.020727279  0.020390581            7 
 2661000   0.83406787   -7.3298157    662.61221  0.020750727  0.020383919           10 
 2662000   0.82290616   -7.3448471    661.34705  0.020703326  0.020377267           12 
 2663000   0.80772718   -7.3474799    662.90825  0.020744406  0.020370581            7 
 2664000   0.83003406   -7.3529231    663.48746  0.020754738  0.020363884           11 
 2665000   0.82340704   -7.3425781    662.98806  0.020731334  0.020357206           11 
 2666000   0.81085555   -7.3585729    664.41904  0.020768287  0.020350508           17 
 2667000   0.81639598   -7.3281749    665.36564  0.020790077  0.020343873            6 
 2668000   0.82572334   -7.3521388    663.84001  0.020734633  0.020337212           19 
 2669000   0.83484339   -7.3366693    663.94508  0.020730145  0.020330577           10 
 2670000    0.8337157   -7.2983417    665.45888  0.020769628  0.020323928            6 
 2671000   0.83587121   -7.3529727    665.56738  0.020765237  0.020317285            8 
 2672000   0.81703686   -7.3063947    664.25423  0.020716512  0.020310691            6 
 2673000   0.82643172   -7.3086051     664.4067  0.020713515   0.02030407            7 
 2674000   0.83372679   -7.3413624    664.02824  0.020693974  0.020297457           13 
 2675000    0.8162152   -7.3600536     661.9665  0.020622009  0.020290793           13 
 2676000   0.84518286    -7.334574    663.00813   0.02064674  0.020284108           12 
 2677000   0.80913638   -7.3228616    663.91382  0.020667222  0.020277433            9 
 2678000   0.82242634   -7.3277671    663.73041  0.020653797   0.02027076            9 
 2679000   0.83102214   -7.3120539    665.50653  0.020701335  0.020264086           18 
 2680000   0.80863289   -7.3308608    661.59707  0.020572048  0.020257433           11 
 2681000   0.82598453   -7.3441563    664.31527  0.020648865  0.020250737           15 
 2682000   0.82732746   -7.3801198    662.70649  0.020591179  0.020244036            6 
 2683000   0.82921042    -7.369897    662.60908  0.020580478  0.020237322           14 
 2684000   0.83425031   -7.3600846    662.52026  0.020570053  0.020230643            7 
 2685000   0.80519905    -7.324807    663.13324  0.020581416  0.020223959           20 
 2686000    0.8320423   -7.3551297    663.25404  0.020577502   0.02021729           16 
 2687000   0.82166806   -7.3597407    664.16265  0.020598023  0.020210611           11 
 2688000   0.82736806   -7.3333332    663.71848   0.02057659  0.020203929            9 
 2689000   0.79944794   -7.3490001    662.89824  0.020543518  0.020197215           14 
 2690000   0.82393544   -7.3612083    662.79829  0.020532785   0.02019051           18 
 2691000   0.82120303   -7.3384301    663.63741   0.02055114  0.020183843            6 
 2692000   0.81495857   -7.3751417    662.42257  0.020505899  0.020177191           23 
 2693000   0.81625985   -7.3585267    663.55351  0.020533281  0.020170508           42 
 2694000   0.81570094   -7.3723643    664.68294  0.020560596  0.020163823            9 
 2695000   0.81809637   -7.3482705    663.50004   0.02051639  0.020157167           14 
 2696000   0.82131579   -7.3446678     663.8575  0.020519829  0.020150497           35 
 2697000   0.82765524   -7.3458876    664.53378  0.020533117  0.020143848           16 
 2698000   0.81635373    -7.351882    664.57918  0.020526908  0.020137181           14 
 2699000   0.80054625   -7.3592182    663.89348  0.020498132  0.020130512           11 
 2700000    0.8143368   -7.3707037    663.52321  0.020479111  0.020123811            6 
 2701000   0.80330475   -7.3581348    662.19614  0.020430586  0.020117078            8 
 2702000   0.81803407    -7.352156    663.64186  0.020467612  0.020110332            9 
 2703000   0.81977875   -7.3623779    662.26266  0.020417519  0.020103657           11 
 2704000   0.80257114   -7.3554001    663.63586  0.020452289  0.020096931           15 
 2705000    0.8100437   -7.3671409     662.2328  0.020401503   0.02009019           18 
 2706000   0.81464692    -7.395954    662.68936  0.020408024  0.020083425           10 
 2707000   0.83165145   -7.3677803    663.92803  0.020438617  0.020076682           15 
 2708000   0.82185132   -7.3847783    661.86613  0.020367619  0.020069927           19 
 2709000   0.81107161   -7.3901758    662.55077  0.020381161  0.020063169           11 
 2710000    0.8031539   -7.3534899    662.30952  0.020366222  0.020056465            5 
 2711000   0.83767232   -7.3583155    666.48321  0.020487004   0.02004975            9 
 2712000   0.82223334   -7.3841338    663.15544  0.020377195  0.020043037           32 
 2713000   0.84269748   -7.3588592    663.45203  0.020378795  0.020036319            7 
 2714000   0.81737501   -7.3688592    663.51724  0.020373288  0.020029616           13 
 2715000   0.80796002   -7.4027073    661.62303  0.020307644  0.020022869            9 
 2716000    0.8132677   -7.3733101    662.99814  0.020342358   0.02001613            3 
 2717000   0.80274609   -7.3576478    664.75124  0.020388641  0.020009354           11 
 2718000   0.83110061   -7.3532901    664.61368  0.020376922  0.020002676           14 
 2719000   0.80673228   -7.3752902    664.28182  0.020359257     0.019996           13 
 2720000   0.83003737   -7.3687234    664.82248  0.020368336  0.019989288            7 
 2721000   0.82979506   -7.3756691     665.1424  0.020370648  0.019982595            8 
 2722000   0.82535191   -7.3480718    665.07365   0.02036106  0.019975891            6 
 2723000   0.83005567   -7.3731351    665.49013  0.020366328  0.019969224           18 
 2724000   0.80793327   -7.3533279    664.92727  0.020341632  0.019962545            7 
 2725000   0.81719574   -7.3857421     663.6312  0.020294532  0.019955878           11 
 2726000   0.80167948   -7.3728815    664.82228  0.020323498  0.019949221            8 
 2727000   0.81203662   -7.3608564    664.88372  0.020317923  0.019942576            5 
 2728000   0.81692287   -7.3769887    664.82733  0.020308753  0.019935949            5 
 2729000   0.80278945   -7.3650876    664.32918  0.020286099  0.019929284           13 
 2730000    0.8073012   -7.3569376    665.78507  0.020323109  0.019922624            5 
 2731000   0.82440241   -7.3626724    665.36756  0.020302928  0.019915946           11 
 2732000   0.80285688   -7.3896301    665.26471  0.020292359  0.019909274            6 
 2733000   0.80289927   -7.3858752    663.55453  0.020232788  0.019902597            7 
 2734000   0.81409385   -7.3851566     664.6632  0.020259181  0.019895916           16 
 2735000   0.81829486   -7.3746699    667.22376  0.020329792   0.01988923           12 
 2736000   0.82416923   -7.3802178    665.04503  0.020256001  0.019882606           19 
 2737000    0.8235414   -7.3484629    667.46737  0.020322353  0.019875994           13 
 2738000    0.8110616   -7.3651202    664.44046  0.020222804  0.019869354           14 
 2739000   0.79436271   -7.3551714    665.51152  0.020248008  0.019862744           10 
 2740000   0.82552049   -7.3674681    665.40571    0.0202374  0.019856108           10 
 2741000   0.81575683   -7.4115817    664.33574  0.020197487  0.019849446           12 
 2742000   0.81001074   -7.3905445    665.65026  0.020230071  0.019842777           15 
 2743000   0.80256241   -7.3744351    666.74149  0.020255848  0.019836157            9 
 2744000   0.80939315   -7.3835748    663.83057  0.020160064  0.019829464           17 
 2745000    0.8214782   -7.3430423    667.06345  0.020250864  0.019822794           15 
 2746000   0.81367601   -7.4099891    665.02256  0.020181554  0.019816136           28 
 2747000   0.81925998   -7.4190475    665.96723  0.020202865  0.019809447           12 
 2748000   0.80704084   -7.3976566    665.42976  0.020179214  0.019802725           27 
 2749000   0.81155116   -7.3946929    664.16523  0.020133541  0.019796043            6 
 2750000   0.79096335   -7.3333457    666.87614  0.020208368  0.019789429           19 
 2751000   0.80093741   -7.3850006    667.33182  0.020214826  0.019782802           13 
 2752000   0.81834195    -7.366292    665.50521  0.020152168  0.019776189           10 
 2753000   0.80183872   -7.4372845    664.55095  0.020115963   0.01976957           15 
 2754000   0.82513164   -7.3834525    664.33011  0.020101976  0.019762869           25 
 2755000   0.79669224   -7.3828055    666.19632  0.020151129  0.019756176            8 
 2756000   0.79692207   -7.3781699    664.73709  0.020099694  0.019749498           11 
 2757000   0.79960047   -7.4081831    664.69864  0.020091242   0.01974279           22 
 2758000   0.81653674   -7.4269029      665.432  0.020106115  0.019736079           16 
 2759000   0.78603456   -7.4127245    664.21189  0.020061976  0.019729381           14 
 2760000   0.81559672   -7.3796664    666.54525  0.020125158  0.019722691           24 
 2761000   0.80841627   -7.4046214    665.26552  0.020079244  0.019715988           28 
 2762000   0.82622798   -7.4086709    665.76257  0.020086971   0.01970929           19 
 2763000   0.80327582     -7.39347    666.65737  0.020106689  0.019702616           16 
 2764000   0.81038822   -7.4090289     664.8722  0.020045592  0.019695925           19 
 2765000   0.80421138   -7.4190258    664.66802  0.020032189  0.019689228           20 
 2766000   0.81845778   -7.3857195    664.89881    0.0200319   0.01968254           28 
 2767000   0.80088016   -7.3691348    665.79834  0.020051751  0.019675879            8 
 2768000   0.80823342   -7.4126378     666.0359  0.020051659  0.019669196           15 
 2769000    0.8227645   -7.4067308    665.03758  0.020014373  0.019662568           32 
 2770000   0.80159824   -7.3997603    665.51555  0.020021527   0.01965592           14 
 2771000   0.81669166   -7.4179592    666.59156  0.020046661  0.019649256           23 
 2772000   0.79528976   -7.3964367    668.22948  0.020088669  0.019642578           30 
 2773000   0.81107011   -7.4355206    665.65095  0.020003935   0.01963592           26 
 2774000   0.79870805   -7.4237084    665.51999   0.01999279  0.019629269           19 
 2775000   0.78528153   -7.4386771    664.00671  0.019940141  0.019622593           32 
 2776000   0.80531647   -7.4685506    664.20728  0.019938979  0.019615895           17 
 2777000   0.81855334   -7.4209886      667.057  0.020017315  0.019609209           13 
 2778000   0.80814816   -7.4431817    665.92127   0.01997604  0.019602528           10 
 2779000   0.79200388   -7.4770235    664.24489  0.019918582  0.019595811           14 
 2780000   0.79479869    -7.423862    664.91485    0.0199315  0.019589093           32 
 2781000   0.80068318   -7.4722579    664.62876   0.01991576   0.01958232           39 
 2782000   0.79121498   -7.4243671    664.29838  0.019898705  0.019575576           39 
 2783000    0.8010499   -7.4329295    665.13545   0.01991662  0.019568892           18 
 2784000   0.79833402     -7.42886    666.33836  0.019945473  0.019562243           27 
 2785000   0.82833746   -7.4281168    666.96925  0.019957189  0.019555578           18 
 2786000   0.80095494   -7.4239687    664.67746  0.019881475  0.019548907           14 
 2787000   0.77618821   -7.4392373    664.09404  0.019856896  0.019542215           15 
 2788000   0.81085126   -7.3877208    668.35215  0.019977049  0.019535545           16 
 2789000   0.81005711   -7.4279048    666.64197  0.019918787  0.019528917           10 
 2790000   0.82076758   -7.4130917     666.2274  0.019899265  0.019522275           13 
 2791000   0.80609727   -7.4314533    666.20583  0.019891491  0.019515617           18 
 2792000   0.82275686   -7.4234294    665.46886  0.019862371  0.019508989           16 
 2793000   0.81878248   -7.4081201    667.60278  0.019918928   0.01950236           12 
 2794000   0.81231794   -7.4055017    666.44714  0.019877331  0.019495766           19 
 2795000   0.81345501   -7.4229409    667.02465  0.019887437  0.019489182           21 
 2796000   0.79875319   -7.4109549    665.14624   0.01982434  0.019482551           22 
 2797000   0.79957261   -7.3977209    668.42366  0.019914899   0.01947593           20 
 2798000   0.79574466   -7.4249983    666.74843  0.019857887  0.019469306           27 
 2799000   0.79055086   -7.4189827     668.3925  0.019899741   0.01946271           35 
 2800000    0.8134469   -7.4189845    667.49583  0.019865947  0.019456075           24 
 2801000   0.81469766   -7.4005187    668.11332  0.019877226  0.019449487           34 
 2802000   0.80582817   -7.4261399    668.68487   0.01988713  0.019442877           37 
 2803000    0.8144483   -7.4137143    666.74159  0.019822262  0.019436261           63 
 2804000   0.80552049    -7.405629    667.89304  0.019849413   0.01942966           36 
 2805000   0.81912033   -7.4115807    667.37611  0.019826979  0.019423082           44 
 2806000   0.81002669   -7.4038139    667.94535  0.019836819  0.019416485           50 
 2807000    0.7912232   -7.4260554     667.1404  0.019805855  0.019409889           42 
 2808000   0.80096014   -7.4175408    667.13658  0.019798688  0.019403314           52 
 2809000    0.7971798   -7.4109877    666.95948  0.019786385  0.019396757           36 
 2810000   0.81995824   -7.4038263    668.44373  0.019823361  0.019390208           44 
 2811000   0.81397684   -7.3807682    668.37469  0.019814262  0.019383686           14 
 2812000   0.80188497   -7.3915703    668.11421  0.019799496  0.019377171            6 
 2813000   0.79671532   -7.3972679    668.41711  0.019801431  0.019370676            9 
 2814000   0.81043406   -7.4244556    667.54766  0.019768647  0.019364137           15 
 2815000   0.79471889    -7.449981    667.33643  0.019755371  0.019357571           28 
 2816000   0.79845852   -7.4311152    668.82353  0.019792363  0.019351013           18 
 2817000   0.79858603    -7.400088    667.88394  0.019757542  0.019344452            9 
 2818000   0.80676201   -7.4047657    668.49928  0.019768727  0.019337913            8 
 2819000   0.80128044   -7.4039219    668.30614  0.019756005  0.019331389           10 
 2820000   0.80179915   -7.4308414    668.37966  0.019751172   0.01932487           18 
 2821000   0.81903858   -7.4217375     669.3716  0.019773473  0.019318346           18 
 2822000    0.7903977   -7.4462524    668.80782  0.019749817  0.019311834           11 
 2823000   0.81507734   -7.4216055    668.57055  0.019735817  0.019305323           10 
 2824000    0.7871172   -7.4265662    668.39222  0.019723566  0.019298838           12 
 2825000   0.79329597   -7.4160082     670.8191  0.019788174   0.01929239           15 
 2826000   0.81109422   -7.4004215    669.51158  0.019742615  0.019285951           12 
 2827000   0.81563122   -7.3982583    670.42712   0.01976262  0.019279516           16 
 2828000   0.80659025   -7.3675863    671.00972  0.019772799  0.019273084           12 
 2829000   0.81415239   -7.4141657    669.72563  0.019727985   0.01926662            7 
 2830000   0.78907058   -7.4137234     670.9802  0.019757956  0.019260184           13 
 2831000   0.80329703   -7.3889711    670.68391  0.019742256  0.019253764           17 
 2832000   0.80884205   -7.3739243    671.79239  0.019767902  0.019247355           10 
 2833000   0.79339446   -7.3810299    671.29757  0.019746369  0.019240964            8 
 2834000   0.81386847   -7.4171206    669.22064   0.01967833  0.019234586            5 
 2835000   0.80556218   -7.4452377    669.57186  0.019681712  0.019228156           18 
 2836000   0.80797617   -7.4306501    669.38402  0.019669253  0.019221712           11 
 2837000   0.80886349   -7.4110136    668.75944  0.019643974  0.019215288           14 
 2838000   0.79807881   -7.3999768    670.92323  0.019700588  0.019208836            7 
 2839000   0.79621425   -7.4634652    669.57676  0.019654126  0.019202392           16 
 2840000    0.8050882   -7.4359233    669.19504  0.019636005  0.019195914           12 
 2841000   0.79035541   -7.4320767     669.5561  0.019639684  0.019189433           12 
 2842000   0.80124446   -7.4409951    669.77998  0.019639338  0.019182981           10 
 2843000   0.78376325   -7.4033051    669.93597  0.019637002   0.01917654            7 
 2844000   0.79144652   -7.4188051    670.72392  0.019653186  0.019170108           11 
 2845000   0.78530337   -7.4176633    670.84029  0.019649686   0.01916367           18 
 2846000   0.80631234   -7.4417212    669.26035   0.01959652  0.019157209           20 
 2847000   0.79150887   -7.4364154     669.3707  0.019592867  0.019150768           41 
 2848000   0.78693812   -7.4516987    669.55404  0.019591352  0.019144294            9 
 2849000   0.78628605   -7.4034842    669.51342  0.019583287  0.019137835           12 
 2850000   0.81574403   -7.4360687    668.73478  0.019553649  0.019131384           12 
 2851000   0.80369628   -7.3951148    670.24254  0.019590861  0.019124921           22 
 2852000   0.80490848   -7.4280569     670.4727  0.019590717   0.01911847           26 
 2853000   0.78748005    -7.418046    669.34234  0.019550834  0.019112056           42 
 2854000    0.7960094   -7.4573538    669.46837  0.019547663  0.019105589           15 
 2855000   0.78828033   -7.4269284     668.8484   0.01952272  0.019099123           14 
 2856000   0.79286738   -7.4398704    672.09999  0.019610761  0.019092659           15 
 2857000   0.78770549   -7.4217209    671.07834  0.019574097  0.019086208           15 
 2858000   0.79946172   -7.4406097    669.17803  0.019511839  0.019079723           21 
 2859000   0.81651362   -7.3995957    669.25208  0.019507173  0.019073277           11 
 2860000   0.81774062   -7.4575419    669.13305  0.019496884  0.019066844           28 
 2861000   0.78657658   -7.4239598    670.56314  0.019531724  0.019060392           24 
 2862000   0.80960523   -7.4371868    671.36628  0.019548284  0.019053929           19 
 2863000   0.82210917   -7.4531011    670.96526  0.019529784  0.019047517           11 
 2864000   0.80930155   -7.4326047    671.80243  0.019547324  0.019041088           28 
 2865000   0.79859547   -7.4148223    672.16155  0.019550947  0.019034683           18 
 2866000    0.7910123   -7.3922857    672.40129  0.019551096  0.019028301            8 
 2867000   0.78677561   -7.4193469    671.64829   0.01952239   0.01902196           30 
 2868000   0.79735155    -7.396565    672.10484  0.019528848  0.019015601           23 
 2869000    0.7801256   -7.4131102    670.08556  0.019463389  0.019009216           34 
 2870000   0.78981205   -7.4150757    673.22204  0.019547678  0.019002833           35 
 2871000   0.79234586   -7.4152866    672.48469  0.019519467   0.01899642           33 
 2872000   0.78212413   -7.4282279    670.09288  0.019443271  0.018990003           20 
 2873000   0.80086975   -7.4341409       670.43  0.019446281  0.018983595           29 
 2874000   0.78631104   -7.4573744    671.08416  0.019458483  0.018977181           16 
 2875000   0.76926958    -7.448745    670.50185  0.019434836  0.018970787           15 
 2876000   0.80080016   -7.4516928    671.41021  0.019454399  0.018964365           21 
 2877000   0.81728023   -7.4292093    672.36087  0.019475173  0.018957984           19 
 2878000   0.78866054   -7.4292885    671.51518  0.019443919  0.018951597           27 
 2879000   0.79574401   -7.4800914    671.32892  0.019431774  0.018945158           29 
 2880000   0.78593974     -7.46236    670.41463  0.019398571  0.018938717           27 
 2881000   0.79145937   -7.4632922    671.21847  0.019415089  0.018932285           21 
 2882000   0.79427152   -7.4530308    671.31355  0.019411102  0.018925871           14 
 2883000   0.78972873   -7.4627131    670.55952  0.019382574   0.01891945           32 
 2884000   0.79274227   -7.4820325    671.02274  0.019389238  0.018913014            7 
 2885000   0.78177047   -7.4556245    671.89113  0.019407601  0.018906608           29 
 2886000   0.79682191   -7.4506052      672.295  0.019412537  0.018900204           21 
 2887000    0.7821493   -7.4664746    671.89228  0.019394189  0.018893818           15 
 2888000   0.79205733    -7.467843    670.43153  0.019345323  0.018887458           25 
 2889000   0.80464165   -7.4378836    673.27898  0.019420762  0.018881095           10 
 2890000   0.80383592   -7.4301707    672.31153  0.019386146  0.018874749           13 
 2891000   0.78234671   -7.4444822    671.80512  0.019364843  0.018868373            4 
 2892000   0.79105591   -7.4290536    672.15639  0.019368268  0.018862015           10 
 2893000   0.80692124    -7.474167    671.14507  0.019332442  0.018855622           14 
 2894000   0.78313294    -7.474572    671.73252  0.019342678  0.018849248           19 
 2895000   0.79261682   -7.4523246    671.33969  0.019324689  0.018842892           30 
 2896000   0.80848705   -7.4511051      672.926  0.019363662  0.018836521           20 
 2897000    0.7858711   -7.4725621    671.85564  0.019326189  0.018830152           14 
 2898000   0.78264097   -7.4655936     670.3896  0.019277364  0.018823749           12 
 2899000   0.79292734   -7.4658304    670.70718  0.019279843  0.018817349           23 
 2900000    0.7829646    -7.476113    670.63611  0.019271153    0.0188109           18 
 2901000   0.78559679   -7.4808471    670.76312  0.019268158  0.018804451           17 
 2902000   0.78775049   -7.4739163    671.33601  0.019277969  0.018798029           21 
 2903000   0.77928422   -7.4923695    671.22973  0.019268278  0.018791587           21 
 2904000   0.78304476   -7.4693108      668.457  0.019182076  0.018785123           20 
 2905000   0.79512273   -7.5056589    669.67358  0.019210372  0.018778693           70 
 2906000   0.78233855   -7.4740662    671.56995  0.019258143  0.018772238           52 
 2907000   0.79012323   -7.5014063    671.25172  0.019242395  0.018765783           50 
 2908000   0.79665975   -7.5092213    669.57591  0.019187755  0.018759337           30 
 2909000   0.78172957   -7.4890343    670.93615  0.019220126  0.018752873           34 
 2910000   0.80229181   -7.4776471     671.3679  0.019225885  0.018746469           14 
 2911000   0.78064414    -7.466085     670.3845  0.019191128  0.018740021           27 
 2912000   0.78101568   -7.4606829    671.38699  0.019213227  0.018733584           23 
 2913000   0.78824701   -7.5285715    670.07641  0.019169139  0.018727176           47 
 2914000   0.77500908   -7.4879905    669.77042   0.01915381  0.018720743           33 
 2915000   0.78449588   -7.4739655     671.4494  0.019195237  0.018714311           46 
 2916000   0.78679544   -7.4678608    671.68615   0.01919542  0.018707902           16 
 2917000   0.77933667    -7.470208    671.29148  0.019177565   0.01870147           18 
 2918000     0.778173   -7.4699188    670.30321  0.019142769  0.018695026           27 
 2919000   0.76694936   -7.4753151    670.98891  0.019155787  0.018688563           25 
 2920000   0.77455858   -7.4821382    670.41687  0.019132901  0.018682102           27 
 2921000   0.78198952   -7.4889891    673.16455   0.01920474  0.018675689           13 
 2922000   0.76857585   -7.4723294    671.50459  0.019150827  0.018669279           25 
 2923000   0.77367169   -7.4760631    671.37726  0.019140645  0.018662853           32 
 2924000   0.79848569   -7.4928754    670.55131  0.019110559  0.018656423           60 
 2925000   0.78995102   -7.4915676    671.69599  0.019136638  0.018650003           18 
 2926000   0.78758793   -7.4927341    671.12837  0.019113932  0.018643564           22 
 2927000   0.77170923   -7.4999287    671.74329  0.019124909  0.018637178           26 
 2928000   0.78498457   -7.4743412    671.50547  0.019111608  0.018630784           33 
 2929000   0.77576378   -7.4871225    671.52054  0.019105512  0.018624398           27 
 2930000   0.78842505   -7.5305801    670.83906  0.019079609  0.018618014           28 
 2931000   0.77368622   -7.4658546    670.77667  0.019071326  0.018611591           48 
 2932000   0.80308407   -7.5361361    670.42043  0.019054696  0.018605196           22 
 2933000   0.78467354    -7.502487    672.66972  0.019112107  0.018598794           20 
 2934000   0.76986929   -7.4891043    669.87406  0.019026189  0.018592369           25 
 2935000   0.80619396   -7.4932278    671.26057  0.019059073  0.018585976           11 
 2936000   0.76811826   -7.5114932    671.54927  0.019060776  0.018579576           42 
 2937000   0.78418246   -7.4922018    672.01583  0.019067524  0.018573188            9 
 2938000   0.78587603    -7.492368    670.28307  0.019011887  0.018566797           10 
 2939000   0.78594116   -7.4955443     671.4973  0.019039846  0.018560414            9 
 2940000   0.80144657   -7.4857196    672.36642  0.019058005  0.018554027           12 
 2941000   0.79105511    -7.499081    672.42238  0.019053111  0.018547653           38 
 2942000   0.77184933   -7.4919495    672.21019  0.019040624  0.018541269            8 
 2943000   0.78061046   -7.4861821     671.3167  0.019008854  0.018534902           15 
 2944000   0.78798407   -7.4742778    672.81166  0.019044714  0.018528535           10 
 2945000   0.78126066   -7.5002093    673.00405  0.019043691  0.018522176            9 
 2946000   0.78951991   -7.4552408    671.25851  0.018987851  0.018515829           11 
 2947000   0.76256461   -7.4679953    671.73673  0.018994931  0.018509499           17 
 2948000    0.7782171   -7.5040617    672.35088  0.019005848  0.018503143           15 
 2949000   0.77146687   -7.4798119    671.75092  0.018982449  0.018496789           19 
 2950000   0.76695527    -7.476937    673.96919  0.019038678   0.01849047           22 
 2951000   0.77627605   -7.4853698    671.88747   0.01897344  0.018484115           17 
 2952000   0.77440083   -7.5095143    671.69115  0.018961471  0.018477724           13 
 2953000   0.77888186   -7.4942541    672.57079  0.018979873  0.018471355            8 
 2954000   0.75608919   -7.4976511    671.28155  0.018937078  0.018464976           23 
 2955000    0.7770141   -7.5401852    671.32002  0.018931755  0.018458612           17 
 2956000   0.78497311   -7.4813382    672.50756  0.018958828  0.018452252           21 
 2957000   0.77497046   -7.4937618    670.51142  0.018896162  0.018445893           20 
 2958000   0.76960861    -7.501841    670.08441  0.018877744  0.018439509           16 
 2959000   0.76956522   -7.5222433    670.04406  0.018870228  0.018433119           21 
 2960000   0.77678867   -7.5005367    672.57216  0.018935027  0.018426724           17 
 2961000   0.76949121   -7.4687117    673.08216  0.018942986  0.018420377           33 
 2962000   0.76410752   -7.4794567     674.2695  0.018969995  0.018414027           15 
 2963000   0.78063218   -7.5115647    673.69011  0.018947298  0.018407648           12 
 2964000   0.77041114   -7.4871479    673.22007   0.01892769  0.018401287            7 
 2965000   0.77079256   -7.5140288    671.18602  0.018864138   0.01839489           20 
 2966000   0.76840944   -7.4973547    671.59046  0.018869141  0.018388496           21 
 2967000    0.7668323   -7.5356759    670.01641  0.018818571  0.018382066           16 
 2968000    0.7783981   -7.5459967    670.53448  0.018826777  0.018375633           36 
 2969000    0.7793449   -7.5152983    671.61664  0.018850809   0.01836922           13 
 2970000   0.77161836   -7.5128668    672.07783  0.018857403  0.018362817           12 
 2971000   0.78311306   -7.5187842    671.71314  0.018840826  0.018356424           10 
 2972000   0.76951538   -7.5316938     670.0915  0.018789017  0.018350022           39 
 2973000   0.76860386   -7.5164813    670.92228  0.018805984  0.018343601           34 
 2974000   0.76947237    -7.519682    671.92199  0.018827673  0.018337178           55 
 2975000   0.77702783   -7.4900055    672.25241    0.0188306  0.018330787           36 
 2976000   0.77449845   -7.5380043    670.79541  0.018783474  0.018324392           35 
 2977000   0.77865763   -7.5340898    671.61649  0.018800148  0.018317972           51 
 2978000   0.76617219   -7.5401421    672.48387  0.018818107  0.018311596           55 
 2979000   0.76976561   -7.5379304     670.0303  0.018743155  0.018305192           71 
 2980000   0.76714058    -7.511924    672.14606  0.018796031  0.018298804           49 
 2981000   0.78615154   -7.5184712    672.88033  0.018810252  0.018292438           34 
 2982000   0.76840228     -7.52217    670.51586  0.018737868  0.018286045           48 
 2983000   0.78328142   -7.5040912    671.76517  0.018766487  0.018279691           24 
 2984000    0.7823875   -7.5160849    673.22317  0.018800915  0.018273312           63 
 2985000   0.76754897   -7.5151827     671.8644  0.018756683   0.01826696           31 
 2986000   0.77707715   -7.4765111     671.2929  0.018734452  0.018260588           30 
 2987000   0.77786727   -7.4902581    672.82927  0.018771043  0.018254268           48 
 2988000   0.79549259   -7.5120941    671.50019  0.018727694   0.01824794           42 
 2989000    0.7769386   -7.5012656    672.24239  0.018742121  0.018241617           65 
 2990000   0.77609786   -7.5015086    672.96111  0.018755884  0.018235273           58 
 2991000    0.7773466   -7.5072072    672.76231  0.018744074  0.018228934           52 
 2992000   0.78885802   -7.4951786    673.20789   0.01875022  0.018222563           22 
 2993000   0.77081468    -7.508563    672.24815  0.018717233  0.018216224           56 
 2994000   0.77232831   -7.5215598    672.89462  0.018728975  0.018209894           49 
 2995000   0.77828329   -7.5048072    672.70231  0.018717371  0.018203555           66 
 2996000   0.78243535   -7.5034075     672.1694    0.0186963  0.018197242           87 
 2997000   0.78926092    -7.523952    673.31132  0.018721814  0.018190907           84 
 2998000   0.79174711   -7.5407561    672.29916  0.018687435  0.018184563           57 
 2999000   0.75150036   -7.5307966    671.61281  0.018662132  0.018178223           26 
 3000000   0.76355553   -7.5354115    671.30167  0.018647268  0.018171876           49 
 3001000   0.76295505   -7.5222026    673.71888  0.018708177  0.018165568           49 
 3002000   0.76350183   -7.5318668    672.25876  0.018661413  0.018159248           21 
 3003000   0.78693329   -7.5022174     673.1786  0.018680725  0.018152924           56 
 3004000   0.76103591   -7.4845338    673.05364   0.01867104  0.018146625           53 
 3005000   0.78228688   -7.5164165     671.5865   0.01862414  0.018140308           44 
 3006000   0.77801805   -7.5348398    671.27482  0.018609304   0.01813396           47 
 3007000   0.77498955   -7.5479143     671.7636  0.018616661  0.018127605           62 
 3008000   0.77508158   -7.5385489    672.57653  0.018632993  0.018121285           48 
 3009000   0.76865259   -7.5251878    671.26349  0.018590437  0.018114954           67 
 3010000   0.76118046   -7.5095785    673.33736  0.018641676   0.01810862          105 
 3011000   0.77701102   -7.5426135    672.56693  0.018614163  0.018102308           54 
 3012000   0.77604091   -7.5364552    671.74317  0.018585192  0.018096012           75 
 3013000   0.76915497   -7.5102396    673.64767  0.018631698  0.018089705           52 
 3014000   0.75924862   -7.5284772    670.62281  0.018541883  0.018083369           73 
 3015000   0.76451507   -7.5631552    671.27052  0.018553635  0.018077031           39 
 3016000    0.7477205   -7.5404279    671.79783  0.018562053  0.018070677           61 
 3017000   0.76896743   -7.5291662    671.62359  0.018551088  0.018064308           61 
 3018000   0.76751914   -7.5464516    672.46233    0.0185681  0.018057936           81 
 3019000   0.77672514   -7.5563259    671.56728  0.018537244  0.018051547           95 
 3020000   0.76461042    -7.519781    669.53219   0.01847495  0.018045176           91 
 3021000   0.77715818   -7.5530212    673.69724  0.018583726  0.018038826          105 
 3022000    0.7655223   -7.5398273    671.58447  0.018519316  0.018032473           89 
 3023000   0.78098643   -7.5389313    671.89203  0.018521668  0.018026157           79 
 3024000   0.76187586   -7.5542517    671.90257  0.018515834  0.018019826           99 
 3025000   0.77673521   -7.5813428    670.38657   0.01846795  0.018013493          114 
 3026000   0.77181029   -7.5417144    671.57881   0.01849468  0.018007133           66 
 3027000    0.7654167   -7.5374372    673.53209  0.018542344  0.018000807           68 
 3028000   0.75552303   -7.5401728    671.03273  0.018467435  0.017994483           79 
 3029000   0.77299059   -7.5499962    672.05391  0.018489433  0.017988165          108 
 3030000   0.76385569   -7.5472349    670.35202  0.018436524  0.017981821           88 
 3031000   0.75381355   -7.5518446    671.88005  0.018472453  0.017975479           93 
 3032000   0.77413118   -7.5140128    674.30389  0.018532978  0.017969168          120 
 3033000   0.76167672   -7.5301749    672.32079  0.018472381  0.017962909           94 
 3034000   0.77307821   -7.5208819    672.33952  0.018466807  0.017956615          150 
 3035000   0.76737927   -7.4986018    674.47598  0.018519385  0.017950333          128 
 3036000   0.76212491   -7.5181939    672.88069  0.018469496  0.017944085          142 
 3037000   0.77996445   -7.5147324    673.05972  0.018468327  0.017937805          119 
 3038000   0.76481449   -7.5422981    671.75962  0.018426586  0.017931497          154 
 3039000    0.7749839   -7.5310858    673.53259   0.01846914  0.017925216          108 
 3040000   0.76845809   -7.5082138    674.09191  0.018478397  0.017918928          172 
 3041000   0.77066847   -7.5511189    673.68597  0.018461196   0.01791263          133 
 3042000    0.7651139   -7.5625584    672.43435   0.01842084  0.017906313          142 
 3043000    0.7739472   -7.5933326    672.08815  0.018405306  0.017899984          178 
 3044000   0.76622486   -7.5329256    672.67873  0.018415427  0.017893681          173 
 3045000   0.77764332   -7.5471082    672.30306  0.018399098  0.017887409          185 
 3046000   0.76795758     -7.54559    672.59775   0.01840112  0.017881105          172 
 3047000   0.75688146   -7.5638836    672.30155   0.01838698  0.017874796          207 
 3048000   0.76802678   -7.5305543     671.5823  0.018361283   0.01786849          197 
 3049000   0.75457756   -7.5631331    672.21573  0.018372574  0.017862153          211 
 3050000   0.75438075   -7.5732177     670.5283  0.018320445  0.017855806          254 
 3051000   0.75829976   -7.5768132    671.15759  0.018331629  0.017849472          227 
 3052000   0.76724434   -7.5586722     672.9975   0.01837586  0.017843134          217 
 3053000   0.76616201   -7.5761232    671.32384  0.018324158  0.017836827          240 
 3054000   0.77615305   -7.5377813    671.70663  0.018328603  0.017830531          199 
 3055000   0.75896122   -7.5549545    672.03095   0.01833145  0.017824232          249 
 3056000   0.74133498   -7.5703133     671.2568  0.018304341  0.017817915          237 
 3057000    0.7657548   -7.5619233    671.04638  0.018292618  0.017811554          186 
 3058000    0.7451802    -7.549615      672.056  0.018314149  0.017805212          191 
 3059000   0.75107941    -7.558909    672.58586  0.018322596  0.017798862          181 
 3060000   0.78053903   -7.6024851    670.11834   0.01824941  0.017792486          190 
 3061000   0.76492158   -7.5788785    671.28669  0.018275256  0.017786137          181 
 3062000   0.74696495   -7.5896453    669.99901  0.018234243  0.017779779          203 
 3063000   0.74731238   -7.5772205    670.10438  0.018231156  0.017773407          236 
 3064000   0.75630273   -7.5736566     670.6969  0.018241321  0.017767048          168 
 3065000   0.75719591   -7.5769099    672.85299  0.018293991  0.017760704          216 
 3066000   0.76966268   -7.5863658     669.6155   0.01820003   0.01775433          185 
 3067000   0.76707151    -7.558296    671.96815  0.018258019  0.017747961          188 
 3068000   0.77052084   -7.5663812    670.26985  0.018205939  0.017741612          169 
 3069000   0.75436751     -7.59678    669.61748  0.018182293  0.017735248          217 
 3070000   0.74687643   -7.6055742    670.69638  0.018205656   0.01772891          184 
 3071000   0.74465941   -7.5682737    670.91236  0.018205589  0.017722576          191 
 3072000   0.75664336   -7.5765419    670.89232  0.018199119   0.01771626          170 
 3073000   0.76065664   -7.5512057    672.24201  0.018229798  0.017709953          151 
 3074000   0.76334092   -7.6005634    670.92684  0.018188214  0.017703627          142 
 3075000   0.74083888   -7.5543874    671.11286   0.01818734  0.017697305          135 
 3076000   0.77957223   -7.5763961    670.55839  0.018166406  0.017691024          167 
 3077000   0.76346702   -7.5822556    671.36727  0.018182409   0.01768474          208 
 3078000   0.76675453   -7.5733465    670.66429   0.01815747  0.017678396          163 
 3079000   0.75727492   -7.5821297    671.44529   0.01817271  0.017672071          238 
 3080000   0.74262888   -7.6038637    671.43016    0.0181664  0.017665743          223 
 3081000   0.76513867   -7.6188198    670.47201  0.018134589  0.017659392          184 
 3082000   0.76629606   -7.5819722    669.42268  0.018100332  0.017653054          219 
 3083000   0.74451578   -7.5591356    672.09023  0.018166565  0.017646717          250 
 3084000   0.75477822   -7.5797072    670.56091   0.01811935  0.017640398          295 
 3085000   0.75907305   -7.5928722    671.10807  0.018128257  0.017634057          256 
 3086000   0.76412844   -7.5970811    671.38735  0.018129924  0.017627722          283 
 3087000   0.74501756   -7.5930729    671.92728  0.018138627    0.0176214          251 
 3088000   0.74093629   -7.6269425    670.44487  0.018092748  0.017615052          245 
 3089000   0.75441268   -7.5936452    669.93341  0.018073093  0.017608693          291 
 3090000   0.75892994   -7.6291347    671.49554  0.018109373   0.01760235          282 
 3091000   0.76499331   -7.6287088     669.7969  0.018057719  0.017596031          328 
 3092000   0.76171317    -7.616601    670.63864  0.018074564  0.017589695          252 
 3093000   0.76216179   -7.6046969    671.58127  0.018094118  0.017583354          330 
 3094000   0.75635553   -7.6315176    669.50437   0.01803233   0.01757701          274 
 3095000    0.7648536   -7.6235004    669.14628  0.018016863  0.017570672          263 
 3096000    0.7527292   -7.6252477    670.23922  0.018040461  0.017564318          254 
 3097000    0.7690531   -7.6220091    669.22218   0.01800727  0.017557966          340 
 3098000    0.7609369   -7.6173222    670.04657  0.018023633  0.017551605          313 
 3099000   0.75876051   -7.6433509    669.56996  0.018005001  0.017545265          302 
 3100000   0.75445755    -7.651067     669.2611   0.01799089  0.017538872          337 
 3101000   0.75372099   -7.6342876    670.45595  0.018017198  0.017532488          303 
 3102000   0.75950629   -7.6301857    671.25758  0.018032924  0.017526127          317 
 3103000   0.75525756   -7.6534793    668.68647  0.017958064  0.017519785          278 
 3104000    0.7563912    -7.617434    669.52037  0.017974666  0.017513433          247 
 3105000   0.73894665   -7.6178408    669.90675  0.017979247  0.017507105          338 
 3106000   0.75630445   -7.6145881    670.07439  0.017977956  0.017500749          324 
 3107000   0.76916515   -7.6309232     671.5921  0.018012877  0.017494417          331 
 3108000   0.76133946   -7.6454816    670.74851  0.017984462  0.017488092          401 
 3109000   0.77251007   -7.6159975    669.70535  0.017950717  0.017481755          413 
 3110000     0.748468   -7.6289325    670.95102  0.017978323   0.01747545          279 
 3111000   0.74048621   -7.6108566    669.78829  0.017941399  0.017469134          285 
 3112000   0.76943876   -7.6376643    669.58052   0.01793007  0.017462788          297 
 3113000   0.76065859   -7.6201873    669.90415  0.017932973  0.017456454          338 
 3114000   0.75573932   -7.6231112      670.319  0.017938316  0.017450123          248 
 3115000   0.73436556   -7.6446762    670.87431  0.017947413  0.017443792          312 
 3116000   0.75042282   -7.6155507    670.56041  0.017933259  0.017437454          378 
 3117000   0.74551397   -7.6408787     669.2531  0.017892554  0.017431111          371 
 3118000   0.74849383   -7.6301626    668.54077  0.017867778  0.017424792          343 
 3119000   0.73595728   -7.6286862    671.09419  0.017930271  0.017418448          386 
 3120000   0.75225484   -7.6300657    669.59057  0.017884364  0.017412115          347 
 3121000    0.7349322   -7.6325781    669.43133  0.017874381  0.017405775          375 
 3122000   0.74138759   -7.6389567     670.5314   0.01789802  0.017399433          346 
 3123000   0.74098347   -7.6416422    669.77778  0.017872179  0.017393098          325 
 3124000   0.74538166   -7.6236968    671.77503  0.017919735   0.01738676          315 
 3125000    0.7591437   -7.6393821    669.31074  0.017848286  0.017380398          321 
 3126000   0.74879778   -7.6524418    668.24756  0.017814234  0.017374057          355 
 3127000   0.74636748   -7.6841177    667.91536  0.017799685  0.017367687          338 
 3128000   0.75622927    -7.647922    668.38114  0.017806403  0.017361324          326 
 3129000   0.77090409   -7.6362645    668.92863  0.017815293  0.017354955          332 
 3130000   0.73690346   -7.6331033    669.93089  0.017836286  0.017348602          343 
 3131000   0.74136426   -7.6236912    670.77601  0.017853082   0.01734227          375 
 3132000   0.75254187   -7.6462757     669.3937  0.017810603  0.017335957          434 
 3133000   0.73629073   -7.6032198    670.84062  0.017843404  0.017329644          363 
 3134000   0.74479333   -7.6240165    670.42753  0.017826726  0.017323341          437 
 3135000   0.74697344   -7.6434288    669.67097  0.017800929  0.017317014          379 
 3136000   0.76021563   -7.6515013     670.9427  0.017829047  0.017310677          416 
 3137000    0.7375044   -7.6578641    669.56774  0.017786838  0.017304338          440 
 3138000   0.73275016   -7.6637241    667.65935  0.017730491  0.017297975          408 
 3139000   0.76033659   -7.6773794    668.29591  0.017741741  0.017291607          411 
 3140000   0.74532794   -7.6489892    669.30717  0.017762929  0.017285262          389 
 3141000   0.75021055   -7.6374704    669.31282  0.017757424  0.017278927          406 
 3142000   0.75410891   -7.6491548    668.09281  0.017719415  0.017272598          388 
 3143000   0.74919661   -7.6845049    667.87163  0.017707913  0.017266255          399 
 3144000   0.74168158   -7.6633334    668.56031  0.017720534  0.017259887          416 
 3145000   0.75205716   -7.6722182    668.84366  0.017722407  0.017253551          437 
 3146000   0.74208732   -7.6650127    668.64061  0.017711396  0.017247201          460 
 3147000   0.76008772    -7.682056    668.74332  0.017708487  0.017240878          466 
 3148000   0.77541417   -7.6493747    669.78408  0.017730413  0.017234565          479 
 3149000   0.75371141   -7.6612499    670.60921  0.017746618  0.017228261          473 
 3150000   0.75699194   -7.6534934     670.6978  0.017743328  0.017221952          496 
 3151000   0.75361355   -7.6807815    667.41784  0.017650953   0.01721564          508 
 3152000   0.74764096   -7.6571359    670.13505  0.017717192  0.017209328          520 
 3153000   0.72645519   -7.6579581    667.49505  0.017641797  0.017202998          499 
 3154000   0.75408472   -7.6648899    669.01893  0.017676467  0.017196673          530 
 3155000   0.74161876   -7.6644454    669.49408  0.017683415  0.017190361          638 
 3156000   0.76132987   -7.6848221    669.51761  0.017678433  0.017184042          568 
 3157000   0.75936444   -7.6766622    668.04939  0.017634077  0.017177724          560 
 3158000   0.75038418   -7.6652756    669.03301  0.017654449  0.017171415          497 
 3159000   0.75548785   -7.6508716    670.05242  0.017675752  0.017165134          466 
 3160000   0.74804416   -7.6562016     669.9619  0.017667772  0.017158885          545 
 3161000   0.74317788   -7.6482922    669.57756   0.01765205  0.017152611          569 
 3162000   0.74284417   -7.6391605    669.99159  0.017657379  0.017146334          536 
 3163000   0.74388776   -7.6684643    669.03727  0.017626654  0.017140066          614 
 3164000   0.74523914   -7.6481885    669.20808  0.017625582  0.017133801          592 
 3165000   0.74582266   -7.6342675     670.2221  0.017646712  0.017127534          596 
 3166000   0.75117587   -7.6849038    670.08909  0.017637637  0.017121256          579 
 3167000   0.73361132   -7.6690758     668.0763  0.017579105  0.017114963          627 
 3168000   0.75406485   -7.6970912    668.14019  0.017575237  0.017108665          629 
 3169000   0.74208756    -7.692217    670.71101  0.017637294  0.017102379          626 
 3170000     0.744225   -7.6711248    669.84663  0.017609007  0.017096086          636 
 3171000   0.75960125   -7.6958515    668.42284  0.017566037   0.01708981          714 
 3172000   0.75670627   -7.6687583     670.7591  0.017621876   0.01708354          769 
 3173000   0.73934628   -7.6838698    669.75279  0.017589894  0.017077286          706 
 3174000   0.75001274   -7.6855725    669.79176  0.017585375   0.01707102          662 
 3175000    0.7404715   -7.6927249    668.81398  0.017554173  0.017064765          680 
 3176000   0.74223187   -7.6695696    668.60672  0.017543207   0.01705849          752 
 3177000   0.74890417   -7.7056412    666.36467  0.017478876  0.017052217          712 
 3178000   0.74367935   -7.6805746    669.90108  0.017566108  0.017045944          792 
 3179000   0.74798393   -7.6887659    669.74782  0.017556565  0.017039668          767 
 3180000   0.74370514   -7.6926341    668.85499  0.017527647  0.017033374          687 
 3181000    0.7498243   -7.6835822    668.22578  0.017505653  0.017027077          711 
 3182000   0.74437753   -7.7027369    668.12544  0.017497524  0.017020779          868 
 3183000   0.74330695   -7.7074863     668.0171   0.01748919   0.01701445          867 
 3184000   0.72580011   -7.7262776    668.03338  0.017484123  0.017008123          893 
 3185000   0.74130453   -7.6956921    669.40927  0.017514633  0.017001814          885 
 3186000   0.72628819   -7.7215773    669.34899  0.017507559  0.016995516          912 
 3187000   0.76133841   -7.7065064     667.9043   0.01746429  0.016989197          940 
 3188000   0.73994234   -7.7282995    668.98239  0.017486993  0.016982891          938 
 3189000    0.7374723   -7.7410495    669.00199  0.017482021  0.016976574          956 
 3190000   0.73802928     -7.70934    669.30004  0.017484327  0.016970271          916 
 3191000   0.75240931   -7.7273757    667.19178   0.01742379  0.016963969          942 
 3192000   0.74393335   -7.7415066    666.88667  0.017410366  0.016957638          964 
 3193000     0.729281   -7.7158875    668.00882    0.0174342  0.016951307         1014 
 3194000   0.73529531   -7.7320372     668.4756   0.01744092  0.016945002          979 
 3195000   0.73209787   -7.7157717    668.04311  0.017424181  0.016938711          952 
 3196000   0.72540406   -7.7107952     667.7893  0.017412111  0.016932393          942 
 3197000    0.7375697   -7.7534593    667.32732  0.017394623  0.016926093          981 
 3198000   0.75610964   -7.7327403    668.67199  0.017424223  0.016919788          949 
 3199000   0.76153555   -7.7519129     667.2565  0.017381903  0.016913484          990 
 3200000   0.74304645   -7.7243051    667.74272  0.017389133  0.016907173         1069 
 3201000   0.74028374   -7.7242687    667.37253  0.017374064  0.016900849         1013 
 3202000   0.73667963   -7.7406304    668.68228  0.017402724  0.016894539         1068 
 3203000   0.74623845   -7.7460384    666.91071    0.0173512  0.016888224         1137 
 3204000   0.73878922   -7.7378713    668.22943  0.017380083   0.01688191         1022 
 3205000   0.73886085   -7.7256755    669.33222  0.017403334  0.016875608          978 
 3206000      0.72018   -7.7489738    667.42303   0.01734828  0.016869318         1042 
 3207000   0.73522387   -7.7560127    667.75696  0.017351548  0.016863027         1202 
 3208000   0.73408402   -7.7513084     668.0831  0.017354611  0.016856734         1085 
 3209000   0.73041312   -7.7429684    667.19226  0.017326069   0.01685043         1090 
 3210000   0.74388365   -7.7387651    667.77854  0.017335892  0.016844145         1102 
 3211000   0.74126357   -7.7588032    667.96504  0.017335333  0.016837858         1118 
 3212000   0.72441618   -7.7581653    667.67209  0.017322335  0.016831588         1128 
 3213000   0.73996274   -7.7627525    668.60051  0.017341024  0.016825302         1158 
 3214000   0.73966521   -7.7738555      666.747   0.01728757  0.016819025         1139 
 3215000   0.73420771   -7.7764584    666.77928  0.017283029  0.016812747         1146 
 3216000     0.744079    -7.751088    667.85587  0.017305552  0.016806464         1212 
 3217000   0.73445731    -7.755731    667.79778  0.017298668  0.016800192         1192 
 3218000   0.73126522   -7.7524543    668.95108  0.017323158  0.016793927         1162 
 3219000   0.73358876   -7.7632045    667.95812  0.017292071  0.016787665         1124 
 3220000   0.73301229   -7.7636006    667.74241  0.017281118  0.016781409         1212 
 3221000   0.74039232   -7.7717537    666.96463  0.017255631  0.016775132         1197 
 3222000   0.73598496   -7.7717001    666.32193  0.017233652  0.016768868         1197 
 3223000   0.73003996   -7.7563268    668.22086  0.017277403  0.016762596         1294 
 3224000   0.72885833   -7.7615679     666.7123  0.017233052  0.016756322         1293 
 3225000   0.74679622   -7.7899547    666.26591  0.017216173  0.016750052         1271 
 3226000   0.73239756   -7.7736535    668.68572  0.017273345  0.016743771         1210 
 3227000   0.74752238   -7.7737126    667.49164  0.017237156  0.016737497         1402 
 3228000   0.73120297   -7.7937794    666.71545  0.017211779  0.016731219         1385 
 3229000   0.73479611   -7.7677971    666.38983  0.017198045  0.016724938         1440 
 3230000   0.75223088   -7.7943958    666.17212  0.017187103  0.016718656         1345 
 3231000   0.72684587   -7.8079696     668.0511  0.017230246  0.016712385         1494 
 3232000   0.72382876   -7.7674252      668.084  0.017225763  0.016706099         1399 
 3233000   0.73140522   -7.7687371    666.97644  0.017191887  0.016699817         1575 
 3234000   0.73916598   -7.7935039     666.1722  0.017165847  0.016693533         1474 
 3235000    0.7257833   -7.7766563    667.31488  0.017189976   0.01668724         1569 
 3236000   0.74854354   -7.7941772     666.1949  0.017155822  0.016680944         1742 
 3237000   0.71148697   -7.8050565      666.916  0.017169087   0.01667463         1667 
 3238000   0.71423104   -7.8295489    665.30603   0.01712235  0.016668323         1759 
 3239000   0.72905797   -7.8026403    666.52845  0.017148514  0.016662015         1748 
 3240000   0.74085884   -7.8071876    666.91629  0.017153197  0.016655723         1705 
 3241000   0.72457073   -7.8135324    665.33813  0.017107326  0.016649424         1831 
 3242000   0.72434519   -7.8168622    664.92536  0.017091439  0.016643115         1789 
 3243000    0.7212591   -7.8120164    665.19595  0.017093122  0.016636799         1720 
 3244000   0.70778608    -7.834117    665.24429  0.017089095  0.016630478         1697 
 3245000   0.73824954   -7.8331711    666.43393  0.017114379  0.016624155         1832 
 3246000   0.74158185   -7.8309693    665.48472  0.017084738  0.016617845         1764 
 3247000   0.73836247   -7.8244615    666.37446  0.017102311  0.016611529         1857 
 3248000   0.73063156   -7.8283545    665.92963  0.017085633  0.016605214         1890 
 3249000   0.74019614   -7.8542816    665.09801  0.017059044   0.01659888         1954 
 3250000   0.73573487   -7.8264931    664.97479  0.017050636   0.01659254         2004 
 3251000   0.72528949   -7.8527658    665.09984  0.017048596  0.016586203         2005 
 3252000   0.74611449   -7.8342496    664.16256  0.017019336   0.01657986         2054 
 3253000   0.71539871   -7.8551473    663.95796  0.017008862  0.016573495         2131 
 3254000   0.73716791    -7.891106    663.28322  0.016986356  0.016567114         2197 
 3255000   0.74403344   -7.8843526    662.86147   0.01697034  0.016560731         2239 
 3256000    0.7197692   -7.9082871    663.40717  0.016979094  0.016554347         2339 
 3257000   0.72272148   -7.9129134    662.76414  0.016957429  0.016547964         2314 
 3258000   0.73535913   -7.8825949    663.97828  0.016983279   0.01654156         2300 
 3259000   0.73310321     -7.88908    662.89557  0.016950383  0.016535161         2332 
 3260000   0.73485814   -7.8983697    662.84132  0.016943796   0.01652877         2384 
 3261000   0.73648654   -7.8987236    662.55747  0.016931347  0.016522374         2358 
 3262000   0.73966025   -7.8750066    662.48971  0.016924425  0.016515978         2434 
 3263000   0.71332104   -7.8797307    663.22932  0.016938128  0.016509583         2389 
 3264000   0.72272119   -7.9221027    662.35156  0.016910528  0.016503186         2379 
 3265000   0.72496796   -7.9005569    661.99588   0.01689627  0.016496769         2407 
 3266000   0.72744242   -7.9183593    662.82825  0.016912335  0.016490359         2495 
 3267000   0.72689666   -7.8943691     662.1379  0.016889549  0.016483941         2471 
 3268000   0.71889669   -7.9225565    659.61725  0.016820105   0.01647753         2512 
 3269000   0.71884418   -7.9236362    661.95902  0.016874656  0.016471103         2530 
 3270000    0.7225248   -7.9125728    662.08168  0.016872622  0.016464677         2432 
 3271000     0.726799   -7.9008257    661.78613  0.016859934  0.016458248         2456 
 3272000   0.72420961   -7.9440474    663.14881  0.016889487  0.016451836         2502 
 3273000   0.71553328   -7.9319062    662.11691  0.016858054  0.016445397         2519 
 3274000   0.73319767   -7.9417877    661.97752  0.016849357  0.016438979         2560 
 3275000   0.74718453   -7.9283056    662.84866  0.016866378  0.016432543         2508 
 3276000   0.73063769   -7.9365559    661.85402  0.016835928  0.016426108         2552 
 3277000    0.7175515   -7.9492167    660.42553  0.016794465  0.016419677         2547 
 3278000   0.73573694   -7.9684855    661.60809  0.016819404  0.016413256         2465 
 3279000   0.74105906     -7.93906    662.10927  0.016827012  0.016406834         2575 
 3280000   0.72717855   -7.9187805     661.5472  0.016807602  0.016400409         2493 
 3281000   0.73608701   -7.9538978    662.09143  0.016816302  0.016393997         2550 
 3282000   0.73389637   -7.9447434    659.95237  0.016756865   0.01638758         2637 
 3283000   0.72634149   -7.9361839    662.16642  0.016807961  0.016381171         2699 
 3284000   0.73659742   -7.9499356    662.76013  0.016817908  0.016374753         2741 
 3285000   0.73222999   -7.9522727    661.21083  0.016773486  0.016368332         2677 
 3286000    0.7400906   -7.9406441    662.07244  0.016790232  0.016361919         2756 
 3287000   0.72215233   -7.9756089    659.96738  0.016731756  0.016355486         2766 
 3288000   0.72701776   -7.9674261     661.1083  0.016755584  0.016349053         2661 
 3289000   0.73758316   -7.9537845    661.39386  0.016757724  0.016342617         2666 
 3290000   0.72304879   -7.9568189    660.46879  0.016729199  0.016336186         2759 
 3291000   0.72748208   -7.9603111    659.32155  0.016695066  0.016329756         2746 
 3292000   0.73071234   -7.9491835    661.33555  0.016740977  0.016323328         2739 
 3293000   0.74505356   -7.9617126    660.50685  0.016714922  0.016316899         2730 
 3294000   0.72282853   -7.9609646    660.06911  0.016698773  0.016310467         2794 
 3295000   0.72285961   -7.9831685    659.48257  0.016678871  0.016304032         2722 
 3296000   0.74507114   -7.9780511    659.33541   0.01667009  0.016297583         2705 
 3297000   0.73141961   -7.9734471    661.08785  0.016709328  0.016291138         2883 
 3298000   0.73447582   -7.9815255    660.78505   0.01669661  0.016284692         2797 
 3299000   0.73447459   -7.9876152    658.43678  0.016632231   0.01627825         2839 
 3300000   0.71191933   -7.9735839     660.4266  0.016677439   0.01627181         2926 
 3301000   0.71909786   -7.9793785    660.75805  0.016680755  0.016265366         2882 
 3302000    0.7205804   -7.9717206    659.94909  0.016655287  0.016258927         2812 
 3303000   0.73774307   -7.9914535    660.78719  0.016671389  0.016252487         2875 
 3304000   0.73462894   -7.9552092    659.85573   0.01664285  0.016246053         2796 
 3305000    0.7330441   -7.9894161    660.42799  0.016652244    0.0162396         2921 
 3306000   0.71975568   -7.9939439    660.24164  0.016642509  0.016233159         2851 
 3307000   0.72678198   -7.9995472    659.21869    0.0166117  0.016226724         2793 
 3308000   0.73451325   -7.9784294    660.47344  0.016638287  0.016220294         2865 
 3309000   0.70853116   -7.9849289     661.2768  0.016653491  0.016213862         2863 
 3310000   0.70788501   -8.0018767    660.08584  0.016618475  0.016207432         2839 
 3311000   0.71296355   -8.0145188     659.3297  0.016594425  0.016201014         2859 
 3312000   0.72660283   -7.9759119    660.66439  0.016622997  0.016194588         2774 
 3313000   0.71354908   -7.9953075    659.80507  0.016596365  0.016188164         2855 
 3314000    0.7284846   -8.0021673    658.97229  0.016570416  0.016181744         2900 
 3315000   0.73258084   -7.9943397    660.63518  0.016607219   0.01617533         2884 
 3316000   0.72572584   -7.9881179    660.63452  0.016602195   0.01616891         2941 
 3317000   0.72333164    -7.986043    659.37488  0.016565543  0.016162489         2893 
 3318000   0.72432075   -7.9891715    660.31535  0.016584171  0.016156066         2906 
 3319000   0.72207076   -7.9872865    659.95299  0.016570076  0.016149639         2851 
 3320000    0.7290005   -8.0046273    658.31324  0.016523927  0.016143217         2886 
 3321000   0.71291922   -7.9953287    658.93496  0.016534552  0.016136798         2910 
 3322000   0.71715394   -7.9990264    659.43742  0.016542179  0.016130378         2953 
 3323000    0.7022176   -8.0021966    659.86748  0.016547986  0.016123954         2979 
 3324000   0.72706929   -7.9839983    659.45573  0.016532685  0.016117538         2939 
 3325000   0.72315827   -7.9943671    660.50364  0.016553976  0.016111127         2887 
 3326000   0.72502569   -8.0255691    660.23382  0.016542239  0.016104726         2897 
 3327000   0.73149703   -8.0014763    659.61996  0.016521891   0.01609832         2982 
 3328000    0.7223963   -8.0107053    660.09148  0.016528733  0.016091917         2976 
 3329000   0.72956377   -8.0179413    658.87735  0.016493375  0.016085513         2954 
 3330000   0.71414827   -8.0074198     659.9223  0.016514572  0.016079114         3038 
 3331000   0.71952384   -7.9980542    659.64771  0.016502745  0.016072711         2977 
 3332000    0.7091292   -8.0211671    660.18443  0.016511215   0.01606631         3008 
 3333000   0.72310757   -7.9915794     659.7129  0.016494472  0.016059909         3068 
 3334000   0.70829844   -8.0296694    659.58007  0.016486204  0.016053521         3046 
 3335000   0.71497402   -8.0111847     659.4034  0.016476846  0.016047131         3065 
 3336000   0.71535422    -8.009857    659.78318  0.016481394  0.016040741         3064 
 3337000   0.71352206   -8.0325302    660.43734  0.016492791  0.016034333         3099 
 3338000   0.72296966   -7.9985964    658.52113  0.016440012  0.016027954         3105 
 3339000   0.72725042    -8.008912    659.27424  0.016453884  0.016021562         3124 
 3340000      0.72307   -8.0260423    660.20743  0.016472241  0.016015162         3139 
 3341000   0.71781384   -8.0152997    657.36508  0.016396415  0.016008768         3143 
 3342000   0.71118891   -8.0226727    659.08648  0.016434432  0.016002368         3092 
 3343000   0.70960164   -8.0101561    659.82295  0.016447875  0.015995979         3156 
 3344000   0.71389372   -8.0173255    659.53173  0.016435699   0.01598959         3224 
 3345000   0.71041569   -8.0053378    659.21394  0.016422869  0.015983181         3235 
 3346000   0.72178461   -8.0205057     660.6438  0.016453571  0.015976795         3143 
 3347000   0.73350748   -8.0259768    659.40216  0.016417741  0.015970418         3219 
 3348000   0.69804868   -8.0282075    659.65523  0.016419137  0.015964027         3214 
 3349000   0.70926459    -8.024801    657.37714  0.016357548   0.01595764         3196 
 3350000   0.71152424   -8.0078177    658.84392  0.016389152  0.015951254         3155 
 3351000    0.7066554   -8.0508106    658.87742  0.016385094  0.015944864         3192 
 3352000   0.70305137   -8.0370506    659.37448  0.016392564  0.015938475         3188 
 3353000   0.71847075   -8.0535528    657.10208  0.016331198  0.015932091         3230 
 3354000   0.72567955   -8.0401187     658.6126  0.016363859  0.015925707         3265 
 3355000   0.71119031   -8.0248224    657.98307  0.016343345  0.015919324         3320 
 3356000   0.71672971   -8.0518664    658.17103  0.016343142  0.015912936         3329 
 3357000    0.7137942    -8.056278    658.28748  0.016341165  0.015906552         3309 
 3358000   0.70519435   -8.0290119    657.71444  0.016322078  0.015900162         3299 
 3359000   0.72139866   -8.0445264    657.88689  0.016321497  0.015893775         3321 
 3360000   0.73708883   -8.0341723      657.653  0.016310838  0.015887389         3355 
 3361000   0.71983304   -8.0523816    658.36079  0.016323534  0.015881002         3423 
 3362000   0.71323102   -8.0599462    658.11416  0.016312566  0.015874609         3453 
 3363000   0.69660567   -8.0606524    656.81915  0.016275626  0.015868215         3445 
 3364000   0.71881771   -8.0697049    656.90447  0.016272901  0.015861811         3482 
 3365000   0.70527374    -8.048438    658.65538  0.016311426   0.01585542         3628 
 3366000   0.71141089   -8.0597469    656.07897  0.016242795  0.015849022         3648 
 3367000   0.71078695   -8.0582578     657.1094  0.016263474  0.015842625         3616 
 3368000   0.71624719   -8.0552384    656.98303  0.016255518  0.015836234         3574 
 3369000   0.71418206    -8.098021    656.82037   0.01624667  0.015829841         3622 
 3370000   0.70042025   -8.0476575    657.53069  0.016259414  0.015823453         3574 
 3371000   0.69623171   -8.0664888    656.45627   0.01622803   0.01581706         3581 
 3372000   0.70582995   -8.0995518    656.30775  0.016219547  0.015810669         3517 
 3373000   0.71346045   -8.0534536    656.29099  0.016214324  0.015804281         3542 
 3374000   0.70239587   -8.0576941    657.99384  0.016251577  0.015797894         3605 
 3375000   0.71467171   -8.0764967    657.43123   0.01623287  0.015791505         3580 
 3376000   0.70977295   -8.0662178    656.98762  0.016217111  0.015785128         3564 
 3377000   0.71023981   -8.0725999    656.65368  0.016204069  0.015778747         3561 
 3378000   0.69855958   -8.0844553    655.34708  0.016167039  0.015772366         3587 
 3379000   0.72108891   -8.0677754    657.05776  0.016204443  0.015765987         3573 
 3380000   0.70467919   -8.0830017    655.95701   0.01617251  0.015759623         3596 
 3381000   0.70832854   -8.0804178    656.32186  0.016176719  0.015753246         3597 
 3382000   0.71980696   -8.0680474      657.792  0.016208161  0.015746884         3615 
 3383000   0.71200603     -8.07564     655.7733  0.016153643  0.015740516         3574 
 3384000   0.71205459    -8.086333    657.09053  0.016181307  0.015734146         3593 
 3385000   0.70896451   -8.0597519    657.43842  0.016185092  0.015727784         3587 
 3386000   0.70821741   -8.0662131    656.37118  0.016154046  0.015721431         3588 
 3387000   0.71033239   -8.0580441    657.39165  0.016174384  0.015715077         3585 
 3388000   0.72205579   -8.0955869     657.1556  0.016163804  0.015708725         3488 
 3389000   0.69369273   -8.0662625    656.94245  0.016153793  0.015702389         3558 
 3390000   0.71459074     -8.08556    655.47803  0.016113029  0.015696037         3629 
 3391000   0.70703118   -8.0867006    655.69262  0.016113551  0.015689686         3579 
 3392000   0.70861117    -8.065938    657.83813  0.016161511  0.015683342         3587 
 3393000    0.7077884   -8.0837558    655.27981  0.016093914  0.015677007         3576 
 3394000   0.71793724   -8.1053797     655.5858  0.016096685  0.015670667         3561 
 3395000   0.70226121    -8.078472    656.68086  0.016118823  0.015664329         3626 
 3396000   0.71481357   -8.0738916    656.32255  0.016105284  0.015657982         3641 
 3397000   0.71386692   -8.0937175    657.45996  0.016128446  0.015651639         3611 
 3398000   0.70477473   -8.0594735    656.82012  0.016108008  0.015645302         3576 
 3399000   0.71194411   -8.0839802      656.693  0.016100152  0.015638964         3626 
 3400000   0.71165455   -8.0954054    657.70222  0.016120152  0.015632625         3692 
 3401000   0.68367055   -8.0872501    655.45349  0.016060313  0.015626291         3630 
 3402000   0.69625377   -8.0841117    655.69491  0.016061506  0.015619962         3590 
 3403000    0.7167673   -8.0824263    656.25495    0.0160705  0.015613637         3591 
 3404000   0.71674361   -8.0922988    657.50634  0.016096415   0.01560732         3598 
 3405000   0.70321535   -8.0925344    655.54051  0.016043576  0.015600995         3568 
 3406000   0.70511921   -8.0524375    657.11857  0.016077475  0.015594685         3650 
 3407000   0.70022909   -8.0994057    654.42066  0.016006767  0.015588361         3628 
 3408000    0.7107102   -8.0790554      656.114  0.016043476   0.01558205         3566 
 3409000   0.70475074   -8.0800104    656.85363   0.01605685  0.015575743         3595 
 3410000   0.69540213   -8.0944929     655.7971  0.016026322  0.015569434         3635 
 3411000   0.70171638   -8.0922351    656.86486   0.01604771  0.015563123         3634 
 3412000   0.69581227    -8.085948     656.8029  0.016041493  0.015556821         3620 
 3413000    0.7112247   -8.1034383    654.80336  0.015987972  0.015550516         3680 
 3414000    0.7125825   -8.1092244    656.33991  0.016020794  0.015544216         3598 
 3415000   0.69575371   -8.1086953     655.9398   0.01600634  0.015537915         3621 
 3416000    0.6944818   -8.1025221    655.00695  0.015978897  0.015531616         3639 
 3417000   0.70740783   -8.0997355    655.97109  0.015997734   0.01552532         3613 
 3418000   0.69331868   -8.0564169    656.56877  0.016007626  0.015519035         3573 
 3419000   0.70750899   -8.0909205    655.24009  0.015970559  0.015512747         3667 
 3420000   0.70259231   -8.1025163    656.00016  0.015984409  0.015506454         3657 
 3421000   0.71752733   -8.1184696    655.04733  0.015956527  0.015500161         3639 
 3422000   0.69608272   -8.0955089    655.65918  0.015966764  0.015493869         3702 
 3423000   0.69030271   -8.1008248    655.43022  0.015956525  0.015487592         3650 
 3424000   0.69842144   -8.1112387    655.18996  0.015946017  0.015481313         3672 
 3425000    0.6916348   -8.0801727    656.29837   0.01596833  0.015475034         3619 
 3426000   0.70164662   -8.0858127    656.24809  0.015962446   0.01546875         3678 
 3427000   0.71328748   -8.0971124    655.36928  0.015936419  0.015462472         3680 
 3428000   0.70156531   -8.0977586    655.67388  0.015939174  0.015456191         3647 
 3429000   0.70669556   -8.1128175    654.56508   0.01590758  0.015449911         3713 
 3430000   0.70117821    -8.096219    655.11727  0.015916357  0.015443637         3659 
 3431000   0.70848416   -8.0892544     656.7664  0.015951773  0.015437381         3681 
 3432000   0.71026747   -8.0921495    656.01854  0.015928966  0.015431116         3652 
 3433000   0.68949706   -8.1037595    655.43049  0.015910052  0.015424854         3664 
 3434000    0.7132042   -8.1004144    654.79743  0.015890056   0.01541859         3704 
 3435000   0.71301121   -8.1248269    655.99129  0.015914393  0.015412325         3675 
 3436000   0.70341255   -8.0860469    656.57812  0.015923994  0.015406076         3687 
 3437000   0.69059667   -8.1344184    655.65987  0.015897097  0.015399822         3637 
 3438000   0.70110802   -8.1112318    655.48794  0.015888306  0.015393568         3693 
 3439000   0.67944927   -8.1103199    655.84145  0.015892252  0.015387314         3749 
 3440000   0.71011308   -8.1025103    656.24707  0.015897458  0.015381063         3638 
 3441000   0.73059532   -8.1088264    655.80566  0.015882148  0.015374822         3731 
 3442000   0.69818389   -8.1118933    654.01397  0.015834156  0.015368577         3761 
 3443000    0.6961695   -8.1112461     655.4782  0.015864997  0.015362334         3700 
 3444000    0.7005441   -8.1292755    655.50598  0.015861062  0.015356087         3713 
 3445000   0.69649051   -8.1233489    654.62921  0.015835249  0.015349845         3715 
 3446000   0.70631827    -8.123762    654.55837  0.015828941  0.015343609         3777 
 3447000   0.70560204   -8.1042519    654.63196  0.015826128   0.01533737         3709 
 3448000   0.69823466   -8.1195255    656.12838  0.015857705  0.015331139         3647 
 3449000    0.6938775   -8.1103098    654.76378  0.015820136  0.015324906         3634 
 3450000   0.71488792   -8.1146526    654.75509   0.01581534  0.015318682         3731 
 3451000   0.69199926   -8.1063201    656.10679  0.015843398  0.015312458         3680 
 3452000   0.68911219   -8.1135338    656.23753  0.015841964  0.015306237         3638 
 3453000   0.69622134   -8.1342787    653.05472  0.015760564  0.015300011         3699 
 3454000   0.69546627   -8.1284314    655.28676  0.015809852  0.015293795         3699 
 3455000   0.70471012   -8.1105323    654.44681  0.015785017  0.015287593         3699 
 3456000   0.69014342   -8.1302075    655.48864  0.015805571  0.015281389         3679 
 3457000   0.70133999   -8.1232037    655.48769  0.015800976  0.015275183         3734 
 3458000   0.68498442   -8.1133724    654.68081  0.015776962  0.015268976         3711 
 3459000   0.69723609   -8.1305627    654.57914  0.015769951  0.015262774         3729 
 3460000   0.70041748   -8.1159043    655.07222  0.015777269  0.015256572         3678 
 3461000   0.69769158   -8.1326746    655.58941  0.015785163   0.01525037         3707 
 3462000   0.69120375    -8.116896    656.09747  0.015792833  0.015244174         3728 
 3463000   0.71244077   -8.1361624     655.0221  0.015762395  0.015237987         3712 
 3464000   0.71465385   -8.1048005    656.17781  0.015785648  0.015231807         3760 
 3465000   0.69365418   -8.1304974    655.50585  0.015764931  0.015225616         3707 
 3466000   0.70221001   -8.1247688    656.58923  0.015786431  0.015219429         3715 
 3467000   0.68946771   -8.1345628    655.13438  0.015746908  0.015213243         3756 
 3468000   0.69660441    -8.105866    655.72548  0.015756571  0.015207066         3653 
 3469000   0.69824154   -8.1348981    654.52978  0.015723306  0.015200889         3718 
 3470000   0.69865268   -8.1327188    654.70757  0.015723044  0.015194717         3702 
 3471000   0.70443646   -8.1063189    653.52072   0.01569002  0.015188541         3732 
 3472000   0.69683713    -8.122054    655.71955  0.015738276  0.015182366         3704 
 3473000   0.69928861   -8.1251548    655.88966  0.015737826    0.0151762         3722 
 3474000   0.70468308   -8.1032676     655.5517  0.015725189  0.015170041         3676 
 3475000   0.69628578   -8.1287641    654.97613  0.015706862  0.015163884         3766 
 3476000   0.69230173   -8.1416536    655.11664  0.015705711  0.015157718         3698 
 3477000   0.68782952   -8.1359474    653.26484  0.015656812  0.015151564         3746 
 3478000   0.69513286   -8.1253417    654.89891  0.015691463  0.015145417         3767 
 3479000   0.68812899   -8.1225521    655.64864  0.015704911  0.015139261         3766 
 3480000   0.69148081   -8.1140516    654.40292  0.015670568  0.015133105         3678 
 3481000    0.6909751   -8.1480489    653.86646  0.015653224  0.015126952         3742 
 3482000   0.68653104   -8.1449783    654.37273  0.015660845  0.015120799         3726 
 3483000   0.68493064   -8.1251619     655.2287  0.015676828  0.015114655         3746 
 3484000   0.70850173   -8.1105298    655.24961  0.015672828  0.015108513         3747 
 3485000    0.6874705   -8.1451985    655.37953  0.015671438  0.015102376         3715 
 3486000   0.70161397   -8.1503849    654.70449  0.015650805  0.015096243         3716 
 3487000   0.68831714   -8.1512189    654.65099  0.015645039  0.015090104         3729 
 3488000   0.70054314   -8.1103861    655.06048  0.015650336  0.015083967         3731 
 3489000   0.70249828     -8.13484    654.86362  0.015641149  0.015077837         3777 
 3490000   0.69519573   -8.1441755    654.60235  0.015630429  0.015071709         3761 
 3491000   0.69409711   -8.1333876    655.00094  0.015635466  0.015065587         3707 
 3492000   0.68557144   -8.1304399    654.25488  0.015613184  0.015059475         3699 
 3493000   0.69886939   -8.1095557    654.28979  0.015609547  0.015053358         3693 
 3494000   0.68978204   -8.1356037    656.21226  0.015650932  0.015047253         3762 
 3495000   0.68556307   -8.1405921    654.88062  0.015614703  0.015041147         3739 
 3496000    0.6874348   -8.1562156    653.78049  0.015584012   0.01503504         3775 
 3497000   0.70511403   -8.1427206     655.0874    0.0156107  0.015028939         3739 
 3498000   0.68517185   -8.1211909    653.71531   0.01557355  0.015022837         3723 
 3499000   0.68881565   -8.1393183    653.23033  0.015557548  0.015016738         3689 
 3500000   0.68883471   -8.1307505    654.94017  0.015593813  0.015010645         3710 
 3501000   0.69561789   -8.1366966    654.54812  0.015580028  0.015004546         3691 
 3502000   0.69112981   -8.1411322    654.34136  0.015570659  0.014998451         3669 
 3503000   0.69188198   -8.1246901    654.51071  0.015570242  0.014992363         3745 
 3504000    0.7021898    -8.120685    654.70877  0.015570509  0.014986277         3708 
 3505000   0.69824736   -8.1313136    653.82389  0.015545028  0.014980187         3746 
 3506000   0.70294808   -8.1448137    654.03911   0.01554571  0.014974112         3741 
 3507000   0.70324472   -8.1449831    655.98444  0.015587502  0.014968031         3754 
 3508000   0.68303707   -8.0980799    654.27188  0.015542377  0.014961951         3744 
 3509000   0.69237342   -8.1339059    653.74687  0.015525479  0.014955881         3726 
 3510000   0.70580258    -8.145799    654.23545  0.015532655  0.014949811         3715 
 3511000   0.68613419   -8.1317626    654.67585  0.015538684  0.014943745         3725 
 3512000   0.68954251   -8.1377067    654.00377  0.015518313  0.014937682         3713 
 3513000   0.68278478   -8.1315365    655.04465  0.015538587   0.01493162         3720 
 3514000   0.69672952   -8.1445423    653.61018  0.015500147  0.014925554         3754 
 3515000    0.6846749   -8.1508171    654.20486  0.015509836  0.014919499         3763 
 3516000   0.68001764   -8.1604569    655.18284  0.015528604  0.014913438         3730 
 3517000   0.69015257   -8.1601613    653.64098  0.015487655  0.014907382         3712 
 3518000   0.69675538   -8.1317783    654.44357  0.015502264  0.014901333         3710 
 3519000   0.69624188   -8.1657085    653.54445  0.015476566  0.014895287         3677 
 3520000    0.6857422   -8.1369932    654.64662  0.015498263  0.014889241         3740 
 3521000   0.68754436   -8.1209321    654.34478  0.015486717  0.014883203         3740 
 3522000   0.67616023   -8.1437426    653.87682  0.015471248  0.014877161         3769 
 3523000   0.69091369   -8.1544892    654.00542  0.015469898  0.014871131         3763 
 3524000   0.68396685   -8.1480375    654.22279  0.015470649    0.0148651         3766 
 3525000   0.68679036   -8.1447452    652.70173  0.015430301  0.014859064         3773 
 3526000   0.69381903   -8.1395036    654.21338  0.015461651  0.014853032         3752 
 3527000    0.6774026   -8.1567964    654.06985  0.015453876  0.014847009         3762 
 3528000   0.69671943    -8.148985     653.5863  0.015438074  0.014840984         3754 
 3529000    0.6996606   -8.1339872    654.16863  0.015447451  0.014834963         3732 
 3530000   0.67032731   -8.1453903    654.09766  0.015441399  0.014828951         3740 
 3531000   0.68334355   -8.1522913    653.80342  0.015430082  0.014822936         3755 
 3532000   0.69400543   -8.1387916    654.32074  0.015437919  0.014816922         3774 
 3533000   0.71120926   -8.1169095    655.87358  0.015470176   0.01481092         3775 
 3534000   0.66883582   -8.1493944    654.36795  0.015430295  0.014804924         3751 
 3535000   0.68986995   -8.1852883    652.90421  0.015391424   0.01479892         3776 
 3536000   0.67035958   -8.1526097    654.33159  0.015420711   0.01479291         3772 
 3537000   0.69018953   -8.1560472    654.60025   0.01542268  0.014786909         3773 
 3538000   0.68671081   -8.1769823     653.5392  0.015393329   0.01478091         3761 
 3539000   0.68263411   -8.1246101    655.91474  0.015444917  0.014774907         3736 
 3540000   0.69227133   -8.1395496     654.5973  0.015409541  0.014768916         3707 
 3541000   0.67270267   -8.1434632    655.04992  0.015415841  0.014762922         3756 
 3542000   0.68319902    -8.161927    653.41428  0.015373007  0.014756932         3727 
 3543000   0.68043968   -8.1491296    653.37985  0.015367858  0.014750952         3730 
 3544000    0.6698379   -8.1465708    652.81593  0.015350262  0.014744971         3694 
 3545000   0.68951212    -8.155819    653.32979  0.015358011  0.014738994         3797 
 3546000   0.68331449   -8.1496088    654.51046  0.015381427  0.014733018         3721 
 3547000   0.68598552   -8.1403168    654.30265  0.015372208  0.014727047         3746 
 3548000    0.6791953   -8.1400284    653.76421  0.015355229  0.014721077         3760 
 3549000   0.67610753   -8.1774256     652.9127  0.015330908  0.014715097         3719 
 3550000   0.67837249   -8.1436561    653.56275  0.015341849  0.014709125         3764 
 3551000   0.69035731   -8.1640091     653.2775  0.015330834  0.014703164         3696 
 3552000   0.71265721   -8.1469121     654.6639  0.015359044  0.014697197         3718 
 3553000   0.68500104    -8.137495     653.1355  0.015318874  0.014691243         3745 
 3554000   0.69123184   -8.1549413    653.30598  0.015318561  0.014685288         3774 
 3555000   0.68322885   -8.1583874    653.32803  0.015314769  0.014679336         3740 
 3556000   0.68028749   -8.1708872    653.37314  0.015311519  0.014673383         3758 
 3557000   0.70730963   -8.1487952    654.32718  0.015329566   0.01466744         3744 
 3558000   0.68688655   -8.1517722    653.01343  0.015294487  0.014661497         3702 
 3559000    0.6726109   -8.1473641    653.63668  0.015304783  0.014655554         3785 
 3560000   0.68326014   -8.1298655    654.25718  0.015315009  0.014649607         3754 
 3561000      0.69268   -8.1471337    653.93392  0.015303143   0.01464367         3741 
 3562000   0.68004982   -8.1236528    654.19818   0.01530503   0.01463774         3745 
 3563000   0.70030789   -8.1646792    654.05185  0.015297311  0.014631805         3773 
 3564000   0.65807788   -8.1472329    654.70353  0.015308257  0.014625876         3715 
 3565000   0.67334472   -8.1367567    654.66417  0.015303043  0.014619948         3758 
 3566000   0.68786676    -8.166981    652.54312  0.015249185  0.014614027         3738 
 3567000   0.66435194   -8.1526437    654.59512  0.015292849    0.0146081         3784 
 3568000   0.67397612    -8.167153    651.70774  0.015221126  0.014602175         3777 
 3569000   0.68811085   -8.1612734    653.62466   0.01526162  0.014596248         3772 
 3570000   0.68123158   -8.1523535     653.6915  0.015258905  0.014590324         3784 
 3571000   0.66291835   -8.1875409    652.18448  0.015219464  0.014584411         3793 
 3572000   0.67465383   -8.1690978     653.5983  0.015248187  0.014578487         3798 
 3573000   0.67367025   -8.1573864    653.64713  0.015245059  0.014572573         3786 
 3574000   0.66711972   -8.1598224    654.98435  0.015271972  0.014566663         3763 
 3575000   0.68304699   -8.1681888     653.9712  0.015244084  0.014560764         3756 
 3576000   0.69205058   -8.1678422    652.76602  0.015211736  0.014554849         3779 
 3577000   0.67465253   -8.1671121     653.9059  0.015234039  0.014548952         3748 
 3578000   0.68081554   -8.1708804     651.9025  0.015183121  0.014543058         3732 
 3579000   0.70048054   -8.1486769    652.94361   0.01520312   0.01453716         3784 
 3580000   0.67941886   -8.1601658    653.46929   0.01521111  0.014531269         3728 
 3581000   0.69088398   -8.1520322    654.32722  0.015226827  0.014525379         3693 
 3582000   0.67855531   -8.1777731     653.2775  0.015198155  0.014519494         3721 
 3583000   0.67440471   -8.1720197    654.25989  0.015216762  0.014513607         3755 
 3584000   0.70005758    -8.162973    654.39092  0.015215563  0.014507729         3688 
 3585000   0.68264305   -8.1679107    654.53191  0.015214596  0.014501854         3704 
 3586000   0.67850427    -8.159009    652.76218  0.015169227  0.014495981         3752 
 3587000   0.68071826   -8.1804453    652.27505  0.015153681  0.014490108         3780 
 3588000    0.6770844   -8.1770656    654.05258  0.015190742  0.014484234         3758 
 3589000   0.68373998   -8.1903408    653.67672  0.015177782  0.014478363         3749 
 3590000   0.67689148   -8.1650114    654.06233  0.015182505  0.014472488         3717 
 3591000   0.68186049   -8.1504449    654.73769   0.01519395  0.014466623         3779 
 3592000   0.66545708    -8.162296     653.6156  0.015163688  0.014460767         3742 
 3593000   0.67841837   -8.1821199    651.29639  0.015105677  0.014454907         3782 
 3594000    0.6818972   -8.1733755    653.68599  0.015156882  0.014449053         3692 
 3595000   0.67976549   -8.1692163    653.10658  0.015139235  0.014443198         3799 
 3596000   0.67339269   -8.1542459    655.07069  0.015180541  0.014437344         3739 
 3597000   0.67479084   -8.1773518    652.01829  0.015105604  0.014431497         3728 
 3598000   0.67517108   -8.1675588    654.10088  0.015149641  0.014425647         3725 
 3599000   0.66822246    -8.164856    652.63493  0.015111488  0.014419802         3750 
 3600000   0.67499014   -8.1587328    653.64421  0.015130653  0.014413966         3731 
 3601000   0.67455705   -8.1786852    653.50144  0.015123147  0.014408123         3755 
 3602000   0.68534599   -8.1746252    653.76462  0.015125037  0.014402287         3800 
 3603000   0.66685417   -8.1843606    653.85177  0.015122855  0.014396452         3744 
 3604000   0.69240755   -8.1641559     654.2268  0.015127331  0.014390619         3737 
 3605000   0.67825667   -8.1651878    653.78963  0.015113029  0.014384791         3785 
 3606000   0.67401708   -8.1873215     652.6064  0.015081494  0.014378964         3770 
 3607000   0.68654694    -8.187836    651.30431   0.01504723   0.01437315         3791 
 3608000    0.6725847   -8.1858243    653.10817  0.015084723  0.014367331         3760 
 3609000   0.67663067    -8.183874    653.00123  0.015078074   0.01436151         3755 
 3610000   0.67497081   -8.1840587    653.19998  0.015078485  0.014355703         3762 
 3611000   0.67845362   -8.1434088    654.62434   0.01510718  0.014349897         3675 
 3612000   0.67991948   -8.1885104    652.12737   0.01504539  0.014344093         3775 
 3613000   0.69518029   -8.1803268    653.19106  0.015065759  0.014338295         3803 
 3614000   0.67811162   -8.1744335     652.9745  0.015056597  0.014332492         3763 
 3615000   0.67529771   -8.1861076    652.82827  0.015049061  0.014326691         3804 
 3616000   0.66913413   -8.1703765    653.02059  0.015049331  0.014320894         3803 
 3617000   0.67583667   -8.1485812     653.5191  0.015056656  0.014315108         3744 
 3618000   0.66860048   -8.1708128    653.72545  0.015057247  0.014309318         3754 
 3619000   0.67074893   -8.1788488    652.90337  0.015034157  0.014303533         3756 
 3620000   0.66956877   -8.1731397     652.1474  0.015012601  0.014297741         3755 
 3621000   0.67612194   -8.1822705    651.24994  0.014987801  0.014291952         3776 
 3622000   0.67879458   -8.1855815    652.39764  0.015010069   0.01428617         3754 
 3623000   0.66741977   -8.1964504    653.24476  0.015025411  0.014280385         3734 
 3624000   0.65957676   -8.1866745    653.17745  0.015019717  0.014274613         3752 
 3625000   0.66856232   -8.1739952    652.49307  0.014999841  0.014268836         3776 
 3626000   0.66791735   -8.1731014    652.07144  0.014986014  0.014263072         3770 
 3627000   0.67428046   -8.1635268     652.6113  0.014994286  0.014257303         3766 
 3628000   0.66410316   -8.1890367    652.27046  0.014982324  0.014251536         3725 
 3629000    0.6714066   -8.1900153    653.40077  0.015004151  0.014245774         3747 
 3630000   0.67850148   -8.1884053    652.69635  0.014983846  0.014240007         3740 
 3631000    0.6660631   -8.1627176    653.24744  0.014992368   0.01423425         3685 
 3632000   0.67013618   -8.1976732     653.3514  0.014990625  0.014228494         3743 
 3633000   0.67189264   -8.1798177    653.03305  0.014979196  0.014222732         3765 
 3634000   0.66307088   -8.1872932    653.13346  0.014977377  0.014216981         3754 
 3635000   0.66411036   -8.1819865    652.45656  0.014957739  0.014211228         3757 
 3636000   0.66513358   -8.1770104    652.51085  0.014954869  0.014205486         3681 
 3637000   0.66725196   -8.1767564     652.9472  0.014960755  0.014199734         3696 
 3638000   0.66396788   -8.1701597    652.82417  0.014953825  0.014193992         3777 
 3639000   0.66701695   -8.1773237    652.78929  0.014948917  0.014188247         3760 
 3640000   0.65637008   -8.1872602    654.78651  0.014990534  0.014182505         3764 
 3641000   0.68850121   -8.1776628    652.17749  0.014926703  0.014176773         3783 
 3642000   0.65619837   -8.1956245    652.65551  0.014933542  0.014171042         3734 
 3643000   0.67228933   -8.1871819    652.18306  0.014918635  0.014165319         3728 
 3644000   0.68750071   -8.1921442    653.21725  0.014938192  0.014159595         3748 
 3645000   0.65810887   -8.1634118    652.04245  0.014907235   0.01415387         3785 
 3646000   0.67398747   -8.1960977    652.16524  0.014905953  0.014148154         3773 
 3647000   0.66584383   -8.1909532    652.28835  0.014904679  0.014142431         3758 
 3648000   0.66321727   -8.1793609     653.3143  0.014924029  0.014136718         3816 
 3649000    0.6726207   -8.1707967    653.62411  0.014927014  0.014130997         3767 
 3650000   0.66689508   -8.1966111    652.08491  0.014887783  0.014125279         3777 
 3651000   0.65704947   -8.1985836     652.4141  0.014891219  0.014119572         3802 
 3652000    0.6516066   -8.1823647    652.49011  0.014888876  0.014113858         3794 
 3653000   0.66051138   -8.1962502    653.41525  0.014905905   0.01410815         3765 
 3654000   0.66360845   -8.1759975    652.00744  0.014869719  0.014102447         3763 
 3655000   0.68425352   -8.1742997    652.09664  0.014867685  0.014096752         3816 
 3656000   0.67395474   -8.2009444    653.18199  0.014888357  0.014091056         3814 
 3657000    0.6917301   -8.2020444    651.46821  0.014845233  0.014085361         3821 
 3658000   0.66854559   -8.1976516    652.33895  0.014861011  0.014079668         3796 
 3659000   0.67420561   -8.1872338    653.09379  0.014874141  0.014073974         3757 
 3660000   0.66068658   -8.1952374    651.70982  0.014838566  0.014068282         3792 
 3661000   0.65058103   -8.2153718    651.88743  0.014838556  0.014062591         3776 
 3662000   0.65957508   -8.1841891    653.81128  0.014878283  0.014056904         3754 
 3663000   0.67042597   -8.1792175    651.75813  0.014827512  0.014051221         3739 
 3664000   0.67424877   -8.1658187     653.2041  0.014856352  0.014045545         3801 
 3665000   0.66575802   -8.2029368    650.91626  0.014800279  0.014039863         3770 
 3666000   0.65794454   -8.1959171    653.42173  0.014853194  0.014034191         3767 
 3667000   0.66405291   -8.1969606    652.19734  0.014821319  0.014028516         3788 
 3668000   0.65303711    -8.210005    651.74268  0.014806949  0.014022849         3818 
 3669000   0.65342129   -8.1972437    652.35539   0.01481683  0.014017181         3795 
 3670000   0.65902409   -8.1935764    651.38609  0.014790783   0.01401152         3762 
 3671000    0.6696444   -8.2101254    652.52015  0.014812498   0.01400586         3775 
 3672000   0.66948544   -8.2164884    653.58933  0.014832728    0.0140002         3753 
 3673000   0.66152077   -8.2023423    651.46683  0.014780534  0.013994545         3717 
 3674000    0.6477205   -8.2095285    651.38552  0.014774667  0.013988897         3800 
 3675000   0.66150612   -8.2013674    651.13492  0.014764964   0.01398324         3811 
 3676000   0.66485343   -8.1935878    652.19764  0.014785039  0.013977595         3776 
 3677000   0.65681881   -8.1688667    652.60004  0.014790138  0.013971952         3825 
 3678000    0.6761437   -8.2173741    651.00095  0.014749886  0.013966311         3777 
 3679000   0.66325253   -8.1852741     653.1208  0.014793893  0.013960669         3776 
 3680000   0.67406161   -8.2053956    651.58749  0.014755151  0.013955034         3809 
 3681000   0.66385509   -8.1952037    652.60732  0.014774231    0.0139494         3786 
 3682000   0.66139586   -8.2045725    652.74873  0.014773419   0.01394377         3801 
 3683000   0.65876981   -8.1752268    653.50986  0.014786629  0.013938146         3812 
 3684000   0.66777517   -8.1945755    651.92684  0.014746807  0.013932521         3755 
 3685000   0.64451206   -8.1700256    652.50099  0.014755789  0.013926902         3785 
 3686000   0.65027092   -8.1843449    652.08114  0.014742294  0.013921289         3780 
 3687000   0.64889217   -8.2081454    651.71912  0.014730113  0.013915678         3838 
 3688000   0.66098084   -8.1901123    650.60923   0.01470104  0.013910067         3812 
 3689000    0.6607238   -8.1971082    652.12506  0.014731297  0.013904452         3812 
 3690000   0.67103352   -8.1932544    650.82144  0.014697864  0.013898841         3810 
 3691000   0.67005787   -8.2015863    652.29405   0.01472713  0.013893239         3806 
 3692000   0.68343342   -8.2007863    652.52268  0.014728302  0.013887637         3810 
 3693000   0.65521344   -8.2069179    650.95795  0.014689005  0.013882039         3800 
 3694000   0.65729099    -8.189596     653.2359  0.014736417  0.013876449         3797 
 3695000    0.6632168   -8.2042883    652.90993  0.014725077  0.013870857         3793 
 3696000   0.66212757   -8.2086759    652.47911   0.01471138  0.013865267         3746 
 3697000   0.66836977    -8.204311    652.73898  0.014713258  0.013859676         3828 
 3698000   0.64339111    -8.204653    650.67103  0.014662679  0.013854089         3805 
 3699000   0.66270103   -8.1996385    651.43103  0.014675836  0.013848502         3742 
 3700000   0.66156053   -8.1985607    653.05671  0.014708484  0.013842912         3778 
 3701000   0.65573052   -8.2021894    651.62002  0.014672161  0.013837328         3799 
 3702000   0.66371893   -8.1969447    651.25882  0.014660067  0.013831751         3817 
 3703000   0.67234224   -8.1924786    651.31946  0.014657473  0.013826176         3814 
 3704000   0.66396264   -8.1953237    651.51314  0.014657873  0.013820611         3809 
 3705000   0.63826038   -8.1890283    651.06947  0.014643938  0.013815037         3739 
 3706000   0.65870246   -8.2095407    653.28515  0.014689808  0.013809468         3828 
 3707000   0.64443891   -8.1940067    651.62931  0.014648622  0.013803899         3804 
 3708000   0.67129923   -8.2110497    651.19446  0.014634899  0.013798337         3808 
 3709000   0.64944296   -8.2077901    651.83385  0.014645319  0.013792779         3794 
 3710000   0.65479954   -8.1949798    651.13699  0.014625718  0.013787225         3805 
 3711000   0.66204382   -8.2004579    652.02178  0.014641646  0.013781678         3751 
 3712000   0.66244774     -8.20489    652.76639  0.014654418  0.013776131         3799 
 3713000   0.66315599   -8.2047394     652.1817  0.014637348  0.013770584         3835 
 3714000   0.64230089   -8.2238322    652.21726  0.014634205  0.013765038         3818 
 3715000   0.66576037   -8.2160186    652.27185  0.014631491   0.01375949         3813 
 3716000   0.66288082   -8.1940385    651.70493   0.01461484  0.013753945         3810 
 3717000   0.65202684   -8.1894195    653.44588  0.014649939  0.013748408         3811 
 3718000   0.67140619   -8.2187453    652.17151  0.014617436  0.013742867         3830 
 3719000   0.65246867      -8.2135    651.50799  0.014598637  0.013737337         3777 
 3720000   0.64998976   -8.2052758     652.1004  0.014607984  0.013731805         3832 
 3721000   0.65802256   -8.2063547    650.61469  0.014570785  0.013726274         3806 
 3722000   0.64638308   -8.2104164    651.54312  0.014587657  0.013720749         3760 
 3723000   0.64134566   -8.2006188    651.41377  0.014580844  0.013715225         3816 
 3724000    0.6599852   -8.2045731    651.94496  0.014588815  0.013709707         3799 
 3725000   0.65354169   -8.2098534    652.23286  0.014591339  0.013704198         3794 
 3726000     0.650423   -8.1956434    652.34892  0.014590019  0.013698684         3823 
 3727000   0.64467865   -8.2203862    652.49076  0.014589275  0.013693169         3849 
 3728000   0.64783739   -8.2242814    652.52475  0.014586122  0.013687651         3808 
 3729000   0.66126724   -8.2048837    651.96585  0.014569721  0.013682139         3829 
 3730000   0.66818604    -8.223308    651.29763  0.014550885  0.013676626         3852 
 3731000    0.6409447    -8.220354     651.5934  0.014553592  0.013671117         3825 
 3732000   0.65813366   -8.2031338    650.79697  0.014531908  0.013665616         3859 
 3733000   0.66972767   -8.2196332    650.90963   0.01453053  0.013660117         3823 
 3734000   0.65760936   -8.1843405    652.10207  0.014553251  0.013654622         3792 
 3735000   0.65917677   -8.2173575    652.01451  0.014547401  0.013649124         3812 
 3736000   0.66364124   -8.2032272     652.5226   0.01455484  0.013643635         3853 
 3737000   0.64386553   -8.2267476    650.11399  0.014497235  0.013638147         3813 
 3738000    0.6556609   -8.2190912    652.44567  0.014545338  0.013632663         3791 
 3739000    0.6607425   -8.2065831    652.73318  0.014547855   0.01362718         3791 
 3740000   0.63533986   -8.2200212      651.366  0.014513503  0.013621696         3801 
 3741000   0.64740428   -8.2306472    651.84758  0.014520351  0.013616218         3827 
 3742000   0.64754856   -8.2237619    652.32681  0.014527143  0.013610746         3868 
 3743000   0.66208552   -8.2038041    652.75355  0.014532762   0.01360528         3794 
 3744000   0.66502234   -8.2518908    653.07969   0.01453614  0.013599817         3834 
 3745000   0.65021787   -8.2052441     651.7806  0.014503351  0.013594355         3812 
 3746000   0.64509737   -8.2097658    651.56795  0.014494749  0.013588891         3822 
 3747000   0.65649951   -8.2061691    651.88943   0.01449803  0.013583426         3797 
 3748000   0.64655683   -8.2069296    652.24127  0.014501985  0.013577966         3775 
 3749000   0.64881324   -8.2088725     650.8472  0.014467129  0.013572511         3784 
 3750000   0.65433714   -8.2086117    651.81465   0.01448477  0.013567064         3805 
 3751000   0.64825866   -8.2185321    651.80476  0.014480689  0.013561619         3803 
 3752000   0.64597885   -8.2122038    651.92292  0.014479454  0.013556171         3805 
 3753000   0.63869246   -8.2217531    651.84595  0.014473886  0.013550716         3855 
 3754000   0.63870149   -8.2223977    650.61598  0.014442727  0.013545273         3856 
 3755000   0.64489833   -8.2122774    652.56023  0.014482029  0.013539833         3782 
 3756000   0.65896214   -8.2428991    651.13726  0.014446602   0.01353439         3863 
 3757000   0.66209119   -8.2139963    651.39589  0.014448494  0.013528956         3834 
 3758000   0.64413828   -8.2063722    652.03536  0.014458829  0.013523517         3833 
 3759000   0.66124856   -8.1939418    650.65208  0.014424317  0.013518085         3820 
 3760000   0.64368174   -8.2250752    651.26732  0.014434116  0.013512653         3791 
 3761000   0.64820886   -8.2226418    650.30985  0.014409063  0.013507222         3869 
 3762000   0.64945826   -8.2306332    651.85896  0.014439548  0.013501801         3843 
 3763000   0.65215146   -8.2341436    650.83045  0.014412934  0.013496377         3785 
 3764000   0.65679451   -8.2168885    651.24852  0.014418361   0.01349096         3805 
 3765000   0.66005492   -8.2513785    649.65557  0.014379273  0.013485536         3814 
 3766000   0.65813599   -8.2258591    651.20474  0.014409735  0.013480119         3790 
 3767000   0.64333123   -8.2282996    652.31954  0.014430571  0.013474711         3784 
 3768000   0.65713514    -8.195512    651.54225  0.014409551  0.013469305         3808 
 3769000    0.6511737   -8.2423348    651.74316   0.01441017  0.013463905         3827 
 3770000   0.64896457    -8.234602    650.66503  0.014382516    0.0134585         3842 
 3771000   0.63868012   -8.2214778    650.36065  0.014371976  0.013453097         3779 
 3772000   0.65010215   -8.2047091    652.69936  0.014419834  0.013447697         3819 
 3773000   0.66505964   -8.2191058    650.71383  0.014372158  0.013442303         3805 
 3774000   0.65003516   -8.2303507    651.12875  0.014377512  0.013436906         3782 
 3775000   0.63336572   -8.2222183    651.00189  0.014370903  0.013431515         3792 
 3776000   0.64877368   -8.2284153    651.81558  0.014385054  0.013426123         3829 
 3777000   0.64538687     -8.21839    651.80681  0.014381052  0.013420743         3781 
 3778000   0.63902378   -8.2248635    650.17203  0.014341187   0.01341536         3804 
 3779000   0.64642895   -8.2267992    651.92722  0.014376096  0.013409981         3827 
 3780000   0.65379515   -8.2111222    651.40382  0.014360754  0.013404605         3803 
 3781000    0.6525112   -8.2275608    651.98039  0.014369664  0.013399235         3804 
 3782000   0.64757861   -8.2206531    651.27348  0.014350288  0.013393865         3818 
 3783000   0.64745586   -8.2199986    652.19249  0.014366739  0.013388488         3830 
 3784000   0.64110055   -8.2207106    650.25349  0.014320241  0.013383121         3806 
 3785000   0.64140589   -8.2439767    650.23935  0.014316146  0.013377755         3825 
 3786000   0.64739783   -8.2231392    650.61047  0.014320533  0.013372397         3841 
 3787000   0.65449139   -8.2341203    650.92391  0.014323649  0.013367032         3828 
 3788000   0.64127108   -8.2248727    650.96669  0.014320809  0.013361671         3798 
 3789000   0.64668034   -8.2268148    651.32228   0.01432485  0.013356314         3814 
 3790000   0.65275256   -8.2156985    651.24202  0.014319306  0.013350959         3808 
 3791000   0.66081945    -8.213384    650.84431  0.014306786  0.013345606         3802 
 3792000   0.65488939   -8.2539653    651.34869  0.014314097  0.013340261         3794 
 3793000   0.65139621   -8.2242913    652.18259  0.014328645  0.013334913         3815 
 3794000   0.65594095   -8.2271837    650.72879  0.014292936  0.013329576         3824 
 3795000    0.6409731   -8.2211293    651.58408  0.014307951  0.013324233         3814 
 3796000   0.65075816    -8.252814    650.45976    0.0142795  0.013318886         3828 
 3797000   0.64270943   -8.2190064    651.08028  0.014289357  0.013313548         3792 
 3798000   0.63591231   -8.2166529    651.90107  0.014303604  0.013308219         3836 
 3799000   0.64393123   -8.2285041    651.55764  0.014292306  0.013302882         3838 
 3800000    0.6506749   -8.2372873    651.22241  0.014281193  0.013297552         3815 
 3801000   0.63826833   -8.2325737    651.53277   0.01428424  0.013292223         3786 
 3802000   0.65032429   -8.2459484    651.51519  0.014280098  0.013286905         3819 
 3803000   0.64393269   -8.2419503    650.44506  0.014252894  0.013281579         3797 
 3804000    0.6452223   -8.2384392    651.01393  0.014261609  0.013276264         3812 
 3805000   0.64704481   -8.2337011    650.72588  0.014251552  0.013270955         3842 
 3806000   0.64942893   -8.2262708    653.12061  0.014300241  0.013265642         3815 
 3807000    0.6287615   -8.2265504    651.10736  0.014252416  0.013260334         3833 
 3808000   0.65635495   -8.2130007    650.50195  0.014235424  0.013255029         3818 
 3809000   0.64552595   -8.2264819    650.27067  0.014226627  0.013249725         3823 
 3810000   0.64941303   -8.2366094    652.10762  0.014263071  0.013244421         3837 
 3811000   0.64679465   -8.2371501    651.28584  0.014241359  0.013239125         3798 
 3812000   0.65068834   -8.2350269    650.19317  0.014213737  0.013233828         3806 
 3813000   0.63032925   -8.2446655    650.19323   0.01421001  0.013228531         3854 
 3814000    0.6350103    -8.248438    651.18379  0.014227928  0.013223237         3801 
 3815000   0.63845352   -8.2070785     650.7381  0.014214463  0.013217949         3795 
 3816000   0.64396304   -8.2311265    651.02171  0.014216931  0.013212662         3840 
 3817000   0.64377583   -8.2428421    649.56753  0.014181459  0.013207377         3842 
 3818000   0.64963475   -8.2386773    650.51783  0.014198486  0.013202097         3804 
 3819000   0.63897301   -8.2401937     649.1416  0.014164738  0.013196821         3848 
 3820000   0.63791367    -8.251238    651.04367  0.014202523  0.013191543         3836 
 3821000   0.64404326    -8.217515    651.25701  0.014203459  0.013186269         3816 
 3822000   0.64181733   -8.2465092    651.14099  0.014197213  0.013181001         3803 
 3823000   0.63346341   -8.2574653    649.89247  0.014166285  0.013175729         3828 
 3824000   0.63475799   -8.2684695    650.55542  0.014177027   0.01317046         3834 
 3825000   0.63365574   -8.2549416    650.57532  0.014173754  0.013165193         3805 
 3826000   0.65856533   -8.2405653    650.32034  0.014164496  0.013159925         3781 
 3827000   0.64318264   -8.2452957    651.36262   0.01418349  0.013154663         3772 
 3828000   0.65846581   -8.2291145    649.93429  0.014148691  0.013149405         3831 
 3829000   0.64012168   -8.2524867    650.88364  0.014165658  0.013144144         3857 
 3830000   0.63890384   -8.2478565    651.27527   0.01417048  0.013138894         3847 
 3831000   0.64484788   -8.2305207    650.91403  0.014158924  0.013133648         3832 
 3832000   0.64190258   -8.2188482    652.32233  0.014185854  0.013128404         3852 
 3833000   0.64532996   -8.2245792    652.54431   0.01418698  0.013123166         3803 
 3834000   0.62816339   -8.2284304    651.54359  0.014161528  0.013117925         3810 
 3835000    0.6371318    -8.228593    650.82663  0.014142256  0.013112679         3804 
 3836000   0.63920513   -8.2394754    650.94814  0.014141209  0.013107444         3819 
 3837000   0.63810636   -8.2416183    651.09914  0.014140803   0.01310221         3819 
 3838000   0.64171059   -8.2570768    650.92979  0.014133442  0.013096978         3853 
 3839000   0.64987858   -8.2328359    650.85864  0.014128216  0.013091755         3825 
 3840000   0.63795835   -8.2106621    650.93963  0.014126294  0.013086533         3816 
 3841000   0.63796164   -8.2374604    650.95062  0.014122855  0.013081314         3818 
 3842000   0.63831665   -8.2572472    650.63883  0.014112416  0.013076096         3796 
 3843000   0.64686638    -8.228274     650.9062  0.014114542  0.013070882         3822 
 3844000   0.62950041   -8.2307441    650.70451  0.014106497  0.013065665         3860 
 3845000   0.64292945   -8.2337142    651.07188  0.014110791  0.013060455         3806 
 3846000   0.63735682   -8.2555457    650.52684  0.014095312  0.013055247         3850 
 3847000   0.63078761     -8.23121      650.529  0.014091695  0.013050035         3843 
 3848000   0.64202832   -8.2489583    651.51474   0.01410938  0.013044829         3788 
 3849000   0.63347297     -8.24084     650.7072  0.014088231   0.01303963         3847 
 3850000   0.63320344   -8.2424452    650.70154  0.014084449  0.013034428         3827 
 3851000    0.6406081   -8.2320351     650.4967  0.014076359  0.013029234         3801 
 3852000   0.64121403   -8.2440873    650.81487  0.014079588  0.013024037         3800 
 3853000   0.63200302   -8.2691116    649.94337  0.014057085  0.013018841         3836 
 3854000   0.66078054   -8.2324461    650.52987  0.014066119   0.01301365         3838 
 3855000   0.62526756   -8.2451672    649.81598  0.014047038  0.013008461         3793 
 3856000   0.62740209    -8.235909    651.61999  0.014082382  0.013003274         3794 
 3857000   0.63734258   -8.2469817     650.4969  0.014054466  0.012998088         3829 
 3858000   0.62581347   -8.2474558    650.65007  0.014054131  0.012992903         3804 
 3859000   0.62482965   -8.2476077     649.3844  0.014023158  0.012987725         3841 
 3860000   0.65347244   -8.2500849    650.90362  0.014052323  0.012982554         3861 
 3861000   0.63411405   -8.2400754    650.98101  0.014050354  0.012977375         3849 
 3862000   0.65652954   -8.2256024    649.88433  0.014023052    0.0129722         3790 
 3863000   0.63677248   -8.2656265    650.01458  0.014022232  0.012967035         3811 
 3864000   0.63286147   -8.2499413    650.12866  0.014021063  0.012961875         3826 
 3865000   0.64420903   -8.2341024    650.81826  0.014032304  0.012956712         3841 
 3866000   0.63228174   -8.2479285    652.17497  0.014057919  0.012951547         3847 
 3867000   0.63372867   -8.2404819    650.25911  0.014012997  0.012946389         3791 
 3868000   0.63581678   -8.2498332    651.07913  0.014027041  0.012941231         3834 
 3869000   0.63740471   -8.2211642    650.80201  0.014017447  0.012936071         3830 
 3870000   0.62140957   -8.2218067    650.01453  0.013996868  0.012930914         3774 
 3871000   0.63794547    -8.267294    649.95521  0.013991975  0.012925762         3799 
 3872000   0.62886605   -8.2306804    651.02616   0.01401141  0.012920618         3793 
 3873000   0.63469591   -8.2340243    650.41926  0.013994734  0.012915469         3794 
 3874000    0.6471309   -8.2594996    649.86165  0.013979127  0.012910327         3837 
 3875000   0.62542189   -8.2458758    651.03077  0.014000662  0.012905185         3799 
 3876000   0.62876385   -8.2483978    649.75297  0.013969577  0.012900046         3811 
 3877000   0.62983051   -8.2441096    648.78372  0.013945141  0.012894907         3815 
 3878000   0.62508734   -8.2560121    649.87374  0.013964968  0.012889777         3810 
 3879000   0.62665024   -8.2566937    649.85217  0.013960904  0.012884645         3836 
 3880000     0.626014   -8.2184654    650.90152  0.013979844  0.012879519         3800 
 3881000   0.62447812   -8.2355359    650.49951  0.013967609   0.01287439         3810 
 3882000   0.62648137   -8.2266098    650.42179  0.013962343  0.012869264         3799 
 3883000   0.64252221   -8.2337171     650.8718  0.013968405  0.012864145         3784 
 3884000   0.62879664   -8.2661349    649.46195   0.01393456  0.012859028         3796 
 3885000   0.63866474   -8.2472475    649.55407  0.013932949  0.012853912         3837 
 3886000   0.63536886   -8.2310626    650.91791   0.01395861  0.012848801         3819 
 3887000   0.62928889     -8.25231    650.01586   0.01393568  0.012843688         3809 
 3888000   0.63786063    -8.261542     650.1712  0.013935425  0.012838576         3814 
 3889000   0.62031481   -8.2583296    650.14752  0.013931335  0.012833471         3823 
 3890000   0.63002881   -8.2308083    651.09798  0.013948114  0.012828372         3831 
 3891000   0.62256598   -8.2475122    650.50862  0.013931907  0.012823271         3812 
 3892000   0.62784485   -8.2697951    649.60942  0.013909075  0.012818171         3830 
 3893000   0.63270107   -8.2605052     649.6151  0.013905623  0.012813083         3805 
 3894000   0.62557376    -8.268438    650.85439  0.013928574  0.012807989         3820 
 3895000   0.63551539   -8.2248604    651.25474  0.013933563  0.012802901         3802 
 3896000   0.63053028   -8.2449121    650.88745  0.013922131  0.012797815         3770 
 3897000     0.633083    -8.240418     650.0564  0.013900787  0.012792724         3824 
 3898000   0.62976206   -8.2687379    649.89336  0.013893735   0.01278764         3804 
 3899000    0.6212834   -8.2640058     649.2572  0.013876575  0.012782561         3813 
 3900000   0.62265793   -8.2501081    650.22911  0.013893784  0.012777481         3835 
 3901000   0.62700357   -8.2493539    649.67896   0.01387847  0.012772406         3812 
 3902000   0.62405844   -8.2519481    649.92602   0.01388019  0.012767335         3810 
 3903000   0.63671677   -8.2611341    649.46554  0.013866802  0.012762265         3776 
 3904000   0.62821073   -8.2632283      650.299  0.013881041  0.012757195         3816 
 3905000   0.63284323   -8.2352673    651.38585   0.01390068   0.01275213         3809 
 3906000   0.62982499   -8.2584462    650.35596  0.013875148  0.012747064         3831 
 3907000   0.62760522   -8.2646218    651.15795  0.013888703  0.012741999         3795 
 3908000   0.62824728   -8.2777116    649.13848  0.013842086  0.012736942         3826 
 3909000   0.63202582   -8.2624994    649.77292   0.01385207  0.012731885         3802 
 3910000   0.61677152   -8.2628808    650.76727   0.01386972  0.012726833         3812 
 3911000   0.62415637   -8.2854948     649.0943  0.013830527  0.012721785         3859 
 3912000   0.62085254   -8.2591063    651.75082  0.013883581  0.012716732         3800 
 3913000   0.62131779   -8.2493812     649.8003  0.013838493  0.012711687         3807 
 3914000   0.62549298   -8.2567753    650.56162  0.013851167  0.012706646         3826 
 3915000   0.64002191   -8.2643677    649.87054  0.013832919  0.012701606         3819 
 3916000   0.64015999   -8.2262906     650.5309  0.013843439  0.012696568         3807 
 3917000   0.63777136   -8.2579706    650.13118  0.013831401  0.012691537         3825 
 3918000    0.6190152   -8.2443756     649.6079  0.013816741  0.012686501         3837 
 3919000   0.61567715   -8.2517845    650.37256  0.013829475  0.012681471         3824 
 3920000   0.61664193   -8.2586534    650.34836  0.013825433   0.01267645         3823 
 3921000   0.62751373   -8.2462393    650.51777  0.013825507  0.012671418         3839 
 3922000   0.61600743   -8.2595856    650.09408   0.01381298  0.012666392         3846 
 3923000   0.62307772   -8.2513496    650.70243  0.013822382  0.012661376         3791 
 3924000   0.62659799   -8.2738524    649.34711  0.013790076  0.012656357         3821 
 3925000   0.60539648   -8.2566458    650.14776  0.013803562  0.012651343         3829 
 3926000   0.62400066   -8.2664661     648.9937   0.01377555  0.012646327         3841 
 3927000   0.62747531    -8.255415    649.44632  0.013781647  0.012641315         3838 
 3928000   0.62027019   -8.2624774    649.52578  0.013779824  0.012636309         3826 
 3929000   0.62861606    -8.271307    648.27638  0.013749817  0.012631304         3858 
 3930000   0.63311742   -8.2786511    649.07466  0.013763245  0.012626298         3833 
 3931000   0.62117988   -8.2610506    648.80261  0.013753977  0.012621292         3867 
 3932000   0.62684406   -8.2625669    649.69057  0.013769298  0.012616295         3843 
 3933000   0.61588171    -8.258811    649.26542  0.013756789  0.012611302         3827 
 3934000   0.61444516   -8.2747619    650.17314   0.01377252  0.012606311         3852 
 3935000   0.61752527   -8.2823592    648.92603   0.01374261  0.012601321         3817 
 3936000   0.61697774   -8.2586002     650.5041  0.013772529  0.012596329         3834 
 3937000   0.61542725   -8.2649979    649.92106   0.01375669  0.012591342         3878 
 3938000   0.61545156   -8.2628213    650.36559  0.013762603  0.012586357         3824 
 3939000   0.62493428   -8.2621346    650.55507  0.013763118  0.012581372         3832 
 3940000   0.61425861   -8.2672759    649.27348  0.013732519  0.012576389         3851 
 3941000   0.62981452   -8.2594524    649.80123  0.013740193  0.012571411         3814 
 3942000   0.62586125   -8.2589405    648.67851  0.013712974  0.012566435         3827 
 3943000   0.61940099   -8.2544477    649.93445   0.01373604  0.012561459         3854 
 3944000   0.61831915    -8.266347     650.0341  0.013734662  0.012556494         3872 
 3945000   0.62128356   -8.2659189    649.17245   0.01371298  0.012551523         3842 
 3946000   0.62405989   -8.2596892    650.32249  0.013733791  0.012546559         3832 
 3947000   0.61701894   -8.2553106    649.30963  0.013708927  0.012541591         3859 
 3948000   0.61349832   -8.2723394    648.91032  0.013697026  0.012536631         3836 
 3949000   0.61688451   -8.2659303    650.14069  0.013719522  0.012531674         3828 
 3950000   0.61756149   -8.2510263    649.09094  0.013693902   0.01252672         3818 
 3951000   0.63048783   -8.2755804    649.71838  0.013703669  0.012521773         3808 
 3952000   0.61407519   -8.2559439    649.06482  0.013686421  0.012516821         3809 
 3953000   0.61395875    -8.274053    649.36415  0.013689269  0.012511874         3833 
 3954000   0.59910589   -8.2624699    648.73577  0.013672563   0.01250693         3826 
 3955000   0.61382145   -8.2704288    648.80012  0.013670462  0.012501985         3840 
 3956000   0.62024054   -8.2661971    650.01241  0.013692543  0.012497047         3834 
 3957000    0.6097762   -8.2615167    649.34291  0.013674983  0.012492106         3830 
 3958000   0.62035985   -8.2869909    649.11438  0.013666717  0.012487168         3834 
 3959000   0.60945131   -8.2689581    650.40323  0.013690394  0.012482229         3853 
 3960000   0.62800613   -8.2630865    649.21176  0.013661864  0.012477298         3863 
 3961000   0.60730366   -8.2724569    650.12916  0.013677715  0.012472365         3850 
 3962000    0.6007723    -8.262185    648.48819  0.013639748   0.01246744         3809 
 3963000   0.61093447    -8.270925    649.10274  0.013649229  0.012462512         3854 
 3964000   0.62626387   -8.2831312    649.27498  0.013649407  0.012457591         3831 
 3965000   0.61531107   -8.2627836    650.37477  0.013669079  0.012452669         3849 
 3966000   0.61620462   -8.2743935    648.62587  0.013628885  0.012447747         3830 
 3967000   0.61317712   -8.2898006    649.13748  0.013636196  0.012442828         3857 
 3968000   0.61445446   -8.2655539    648.59714  0.013621412  0.012437916         3851 
 3969000   0.62288738    -8.281887    649.06977  0.013627903  0.012433005         3827 
 3970000   0.60851107   -8.2661504    649.53966  0.013634334  0.012428091         3837 
 3971000   0.61718744   -8.2620448    650.87812  0.013658988  0.012423182         3838 
 3972000   0.61818503   -8.2780818    648.99249  0.013615989  0.012418283         3847 
 3973000   0.61653145   -8.2833432    649.51224  0.013623463  0.012413382         3819 
 3974000   0.62957214   -8.2869782    649.28657  0.013615303  0.012408474         3844 
 3975000   0.61602689   -8.2762357    649.49392  0.013616225  0.012403578         3819 
 3976000   0.62804054    -8.278782    649.14349  0.013605455  0.012398681         3828 
 3977000   0.60961397   -8.2795379    648.43473  0.013587183  0.012393791         3879 
 3978000   0.62679359   -8.2759855    649.79222  0.013612205  0.012388897         3857 
 3979000   0.61940909   -8.2567668    649.60143  0.013604788  0.012384005         3873 
 3980000   0.61399102   -8.2943294    648.61662   0.01358075  0.012379125         3886 
 3981000   0.62424671   -8.2728668    648.71388  0.013579375  0.012374247         3820 
 3982000     0.620919   -8.2645378    649.96601  0.013602168  0.012369369         3804 
 3983000   0.62137716   -8.2755714    649.98037  0.013599054  0.012364491         3834 
 3984000   0.60559146   -8.2534617    650.05248  0.013597149  0.012359618         3868 
 3985000   0.61407355   -8.2791415    648.48451  0.013560947  0.012354747         3842 
 3986000   0.63160883    -8.291087    647.51883  0.013537356  0.012349875         3814 
 3987000   0.61324743    -8.279253    650.00239  0.013585871  0.012345011         3848 
 3988000   0.62112456   -8.2901014    648.86099  0.013558613  0.012340144         3838 
 3989000   0.61742502   -8.2728417     649.8482  0.013575838  0.012335287         3857 
 3990000   0.60641631   -8.2692173    649.71895  0.013569736  0.012330425         3811 
 3991000   0.60416789   -8.2799716    650.57247  0.013584157  0.012325569         3855 
 3992000     0.599576   -8.2692577    649.43324  0.013556973  0.012320717         3864 
 3993000    0.5989897   -8.2739639    650.08707  0.013567223  0.012315869         3821 
 3994000   0.60775935   -8.2711707    649.49612  0.013551496  0.012311019         3814 
 3995000   0.62653405   -8.2938657    649.12775   0.01354042  0.012306175         3818 
 3996000   0.60767105   -8.2682554    650.41387  0.013563853  0.012301337         3846 
 3997000   0.61852579    -8.280502    650.32323   0.01355857  0.012296493         3845 
 3998000   0.61684367   -8.2708565    649.13835  0.013530481  0.012291653         3817 
 3999000   0.59841177   -8.2948616    649.32534  0.013530994  0.012286814         3840 
 4000000    0.6133422   -8.2948064    649.41117  0.013529399  0.012281981         3831 
 4001000   0.61090999   -8.2602719    649.41275  0.013526051  0.012277147         3804 
 4002000   0.62058946   -8.2861719    648.54228  0.013504545  0.012272319         3835 
 4003000   0.60699517   -8.2733512    649.21734  0.013515225  0.012267489         3847 
 4004000    0.6091507   -8.2918693    648.37296  0.013494276  0.012262662         3819 
 4005000   0.60530273   -8.2867416    649.13311  0.013506723  0.012257836         3817 
 4006000   0.61833754   -8.2947323    649.41107  0.013509134  0.012253013         3853 
 4007000   0.62446379   -8.2867355    648.66384  0.013490222  0.012248192         3839 
 4008000   0.61286619    -8.265531    650.24657  0.013519764  0.012243375         3852 
 4009000   0.59922848   -8.2694305    648.84213  0.013487198  0.012238561         3815 
 4010000   0.59311834   -8.2907483    649.14856  0.013490203  0.012233749         3832 
 4011000   0.59119898   -8.2926948    648.97576  0.013483249  0.012228935         3862 
 4012000     0.605397   -8.2737711    649.85843  0.013498223  0.012224128         3821 
 4013000   0.61235704   -8.2869592    649.25568  0.013482342  0.012219322         3845 
 4014000   0.59532579   -8.2734582    649.09268  0.013475599  0.012214524         3838 
 4015000   0.62166192   -8.2771577     648.9011  0.013468267  0.012209723         3809 
 4016000    0.6131932   -8.2798886    649.44875  0.013476277  0.012204922         3818 
 4017000   0.61240043    -8.295726    649.40221  0.013471957  0.012200125         3828 
 4018000   0.60566094   -8.2909049    649.06742  0.013461661  0.012195335         3835 
 4019000   0.61481567   -8.2696686     649.6391  0.013470165  0.012190541         3848 
 4020000   0.61615241   -8.2768816    649.84349  0.013471051  0.012185751         3856 
 4021000   0.60195585   -8.2902219    648.50774  0.013440018  0.012180966         3811 
 4022000   0.61699486     -8.26882    648.63988  0.013439414   0.01217618         3822 
 4023000   0.61903394   -8.2859695    648.68061  0.013436917  0.012171399         3837 
 4024000   0.60301515   -8.2782227    648.75635  0.013435146  0.012166613         3849 
 4025000   0.61188808    -8.292403    649.99015  0.013457353  0.012161834         3844 
 4026000   0.60190545   -8.2857991    649.51289  0.013444132   0.01215705         3858 
 4027000   0.60884398   -8.2852889    648.75901  0.013425193  0.012152275         3847 
 4028000   0.60481032   -8.2972039    650.17378  0.013451129    0.0121475         3853 
 4029000   0.59766773   -8.2925976    648.91092   0.01342167  0.012142731         3845 
 4030000   0.60303329   -8.2773176    648.80267  0.013416102  0.012137964         3867 
 4031000   0.60863541    -8.308268    648.62888   0.01340918  0.012133196         3859 
 4032000   0.61835665   -8.2869974    649.28364  0.013419387  0.012128432         3838 
 4033000   0.58813149   -8.3021314    649.12637   0.01341281  0.012123671         3865 
 4034000    0.6004278    -8.301042    648.55861  0.013397757  0.012118911         3866 
 4035000   0.60688688   -8.2685222    648.71827  0.013397734  0.012114158         3851 
 4036000   0.60977022   -8.2883634     649.4748  0.013410035  0.012109406         3855 
 4037000   0.59969103   -8.2981847    649.57417  0.013408764  0.012104656         3862 
 4038000   0.60842928   -8.2980672    648.94354  0.013392429  0.012099908         3816 
 4039000   0.61032747     -8.29205    648.51208  0.013380211  0.012095157         3854 
 4040000   0.60621075   -8.2982979    649.07904  0.013388594  0.012090411         3833 
 4041000   0.61422593   -8.2963406    648.50273  0.013373396  0.012085676         3804 
 4042000    0.6017435   -8.2844441    648.24505  0.013364775  0.012080937         3832 
 4043000   0.61203055   -8.2778964    648.50781  0.013366885  0.012076201         3844 
 4044000   0.60096616   -8.2837051     648.3486  0.013360299  0.012071464         3808 
 4045000   0.60333364    -8.288228      649.019  0.013370807  0.012066728         3807 
 4046000   0.60285398   -8.2897551    648.87116  0.013364458  0.012062002         3826 
 4047000   0.58732415   -8.2865894    648.87483  0.013361231  0.012057275         3802 
 4048000   0.60191848   -8.2954702    648.48354  0.013349875   0.01205255         3826 
 4049000   0.61532269   -8.2938153    648.13191  0.013339341  0.012047824         3840 
 4050000   0.61154746   -8.2995933    649.57791  0.013365801  0.012043106         3830 
 4051000   0.59799832   -8.2750665    650.20288  0.013375357  0.012038392         3827 
 4052000   0.60425154   -8.2964956    647.63713  0.013319289  0.012033675         3852 
 4053000   0.59469156   -8.2840682    649.94835  0.013363524  0.012028968         3813 
 4054000    0.5937477   -8.2885281    647.85895  0.013317278  0.012024253         3876 
 4055000   0.58720978   -8.2998521    648.95846   0.01333659  0.012019542         3848 
 4056000   0.60559644   -8.2853502    650.11627   0.01335709  0.012014839         3853 
 4057000   0.60662001   -8.3000184    649.71595  0.013345575  0.012010133         3857 
 4058000   0.60758555   -8.2975475    648.16076  0.013310349  0.012005431         3869 
 4059000   0.59280971   -8.3032481    648.67347  0.013317596  0.012000733         3802 
 4060000   0.59981627   -8.3156519    648.22991  0.013305212  0.011996035         3834 
 4061000   0.61416863   -8.2927854    649.58685   0.01332978  0.011991339         3836 
 4062000   0.60344375   -8.2808018     649.4865   0.01332444  0.011986646         3824 
 4063000   0.59243996   -8.2768552    649.30732  0.013317486  0.011981953         3867 
 4064000   0.60334998   -8.3131983    648.56676  0.013299023  0.011977267         3868 
 4065000   0.60485879   -8.3065029     648.4893  0.013294164  0.011972579         3846 
 4066000   0.60379042   -8.3212232    648.36141  0.013288273  0.011967895         3859 
 4067000    0.5975395   -8.2993119     647.3448  0.013264175  0.011963211         3868 
 4068000   0.60128295   -8.2803799    648.89934  0.013292759  0.011958533         3866 
 4069000   0.59762681   -8.3120012    648.48147  0.013280934   0.01195385         3844 
 4070000   0.59384949   -8.3063001    647.92281  0.013266233  0.011949175         3876 
 4071000   0.60027906   -8.2944539    649.11741  0.013287428    0.0119445         3830 
 4072000   0.61008499   -8.3017446    648.44847  0.013270474  0.011939826         3856 
 4073000   0.59850108   -8.3112413    648.34814  0.013265164  0.011935152         3832 
 4074000   0.60573007    -8.286935      648.638  0.013267837  0.011930483         3820 
 4075000   0.58577522   -8.3008658    648.55617  0.013262907  0.011925818         3835 
 4076000   0.59389532   -8.2914468    648.28639  0.013254138  0.011921151         3831 
 4077000   0.60773651   -8.3091832    647.35091  0.013231766  0.011916496         3852 
 4078000   0.59276248   -8.3008496    647.86226   0.01323897  0.011911833         3841 
 4079000   0.60229083   -8.2855182    648.51587  0.013249078  0.011907175         3860 
 4080000   0.59225264   -8.3214342    648.34346  0.013242309  0.011902518         3847 
 4081000   0.58939003   -8.2944221    648.55035  0.013243289  0.011897864         3806 
 4082000   0.60114794   -8.3031862    649.52613  0.013259965  0.011893213         3876 
 4083000   0.59778916   -8.3119144    648.10008  0.013227612  0.011888564         3851 
 4084000   0.60280791   -8.3120935    648.52009  0.013232943  0.011883918         3829 
 4085000   0.59145454   -8.3077806    648.80513  0.013235519  0.011879277         3859 
 4086000   0.59899041   -8.3061589    647.83055  0.013212403  0.011874635         3862 
 4087000   0.59429424   -8.2858098    648.59484  0.013224754  0.011870001         3827 
 4088000   0.60985646   -8.2988314    648.98438   0.01322946  0.011865365         3835 
 4089000   0.61099216   -8.2938146    648.80598  0.013222589  0.011860732         3822 
 4090000   0.59435162   -8.3021545      647.231  0.013187266  0.011856103         3864 
 4091000   0.59832914   -8.2971708    649.67818  0.013233891  0.011851473         3863 
 4092000   0.59632082   -8.2966245    648.96226  0.013216077  0.011846849         3874 
 4093000   0.59678455   -8.2909377    648.07101  0.013194703  0.011842223         3827 
 4094000   0.60205891   -8.3097282    648.73219  0.013204938  0.011837601         3854 
 4095000   0.59973761   -8.3135198    648.75219   0.01320212  0.011832979         3864 
 4096000   0.59154189   -8.3156903    648.25603  0.013188803  0.011828359         3859 
 4097000   0.61341251   -8.2982611     647.5502  0.013171227  0.011823739         3898 
 4098000   0.60069548    -8.318354    648.47701   0.01318686  0.011819128         3877 
 4099000   0.59862714   -8.3087561     648.3822  0.013181715  0.011814517         3841 
 4100000   0.59263299   -8.3216889    647.40046  0.013158546  0.011809904         3878 
 4101000   0.60194908   -8.3255142    647.14822  0.013150212  0.011805297         3859 
 4102000    0.5975018   -8.2992091    647.16487  0.013147344   0.01180069         3852 
 4103000   0.60045337   -8.3222015     647.8917  0.013158902  0.011796087         3858 
 4104000   0.59151386   -8.2990723     648.4164   0.01316635  0.011791489         3865 
 4105000   0.60052278   -8.3163502    648.21525  0.013159059  0.011786893         3858 
 4106000   0.59434896   -8.2958632    648.23544  0.013156264  0.011782292         3840 
 4107000   0.60528196   -8.2929956    647.78448   0.01314391  0.011777702         3827 
 4108000   0.59356931   -8.2855975    648.05321  0.013146162  0.011773112         3859 
 4109000   0.58672425   -8.2870656    648.35697  0.013149123  0.011768521         3798 
 4110000   0.60100612   -8.3251044    646.75428  0.013113428  0.011763933         3890 
 4111000   0.58435773    -8.306816    648.97047  0.013155162  0.011759346         3823 
 4112000   0.60388917   -8.3109387    647.83956  0.013129044  0.011754766         3839 
 4113000   0.59551295   -8.2884855    647.24329  0.013113771  0.011750187         3862 
 4114000   0.58678612   -8.3101242    647.98111  0.013125529  0.011745611         3847 
 4115000   0.59495886   -8.3044231     648.0414   0.01312356   0.01174104         3837 
 4116000   0.59775683   -8.3075303    648.29915   0.01312559  0.011736462         3833 
 4117000   0.58206478   -8.2888804    649.14656  0.013139555  0.011731891         3813 
 4118000   0.58588459   -8.3321656     647.4605  0.013102244  0.011727324         3827 
 4119000   0.60538035   -8.3199961    647.41428  0.013098128  0.011722756         3860 
 4120000   0.61006479     -8.31607    647.06941  0.013087974   0.01171819         3840 
 4121000   0.59074763   -8.2974285    647.26301  0.013088712  0.011713631         3819 
 4122000   0.57887822   -8.3078002    647.69135  0.013094197  0.011709069         3845 
 4123000   0.58997831   -8.3194588    648.34852  0.013104303  0.011704511         3887 
 4124000   0.59910408   -8.2980689    648.64826  0.013107183  0.011699954         3833 
 4125000    0.5817076   -8.3269107    647.71697  0.013085191    0.0116954         3890 
 4126000   0.57679422   -8.2982127    648.67397  0.013101349  0.011690848         3838 
 4127000   0.59902279   -8.3132277    647.51684  0.013074809  0.011686296         3848 
 4128000   0.59097268   -8.3220108    648.22464   0.01308593  0.011681755         3849 
 4129000   0.58233672   -8.2975119    647.57924  0.013069735  0.011677215         3820 
 4130000   0.57781023   -8.3173694    647.97717    0.0130746  0.011672675         3849 
 4131000    0.5882221   -8.3257524    648.47522  0.013081482  0.011668132         3866 
 4132000   0.58620207    -8.313777    648.55352  0.013079895  0.011663596         3856 
 4133000   0.58668136   -8.3029983    647.84808  0.013062507  0.011659058         3833 
 4134000   0.58244888   -8.3300362     646.3197  0.013028538   0.01165452         3797 
 4135000   0.59298725   -8.2880419    649.25595  0.013084562  0.011649993         3850 
 4136000   0.59757607   -8.3155994    647.64899  0.013049021  0.011645467         3831 
 4137000   0.59199897   -8.3008216    648.42657   0.01306153  0.011640945         3846 
 4138000   0.58624804   -8.3178231    647.77945  0.013045341  0.011636423         3801 
 4139000   0.58113505   -8.3120192    648.48026  0.013056299  0.011631902         3850 
 4140000   0.58661791   -8.3257997    647.52719  0.013033961  0.011627385         3845 
 4141000   0.58323643   -8.3304094    647.72837  0.013034862   0.01162287         3865 
 4142000   0.59177846   -8.3144327    648.16195  0.013040438  0.011618357         3793 
 4143000   0.60633263   -8.3060588    648.73541  0.013048825  0.011613844         3813 
 4144000    0.5944376   -8.3225473    646.61574  0.013003051  0.011609335         3858 
 4145000   0.59065063   -8.3222319    647.47099  0.013017109  0.011604823         3863 
 4146000   0.59343394   -8.3181698    647.42001  0.013012944  0.011600322         3864 
 4147000   0.59046332   -8.3062834     648.3669  0.013028834  0.011595821         3888 
 4148000   0.59195845   -8.3300502    647.39213   0.01300611  0.011591321         3848 
 4149000   0.57464995   -8.3298973    646.86899  0.012992468  0.011586819         3884 
 4150000    0.5909035   -8.3056132    649.01079  0.013032345  0.011582324         3835 
 4151000   0.60429871   -8.3109732    647.69136  0.013002717  0.011577832         3873 
 4152000   0.59259924   -8.3271398    648.28495  0.013011499   0.01157334         3827 
 4153000   0.58606745   -8.3114963    647.46182   0.01299185   0.01156885         3851 
 4154000   0.58683494    -8.312942    646.72275  0.012973896  0.011564362         3837 
 4155000   0.58943798   -8.3308721    647.34117  0.012983176  0.011559876         3852 
 4156000   0.58088493   -8.3174995    647.34938  0.012980217  0.011555393         3877 
 4157000   0.59145655    -8.301648    646.98665  0.012969823  0.011550911         3826 
 4158000   0.60029135   -8.3252892    647.46951  0.012976381  0.011546433         3842 
 4159000   0.58540375   -8.3204194    647.41383  0.012972145  0.011541954         3858 
 4160000   0.58170651   -8.3177435    648.11336   0.01298304  0.011537481         3829 
 4161000   0.57985413   -8.3327531    647.95202  0.012976689  0.011533012         3861 
 4162000   0.57905229   -8.3243429    647.70347  0.012968594  0.011528541         3861 
 4163000   0.60130486   -8.3006013     648.8464  0.012988358  0.011524071         3827 
 4164000    0.5940748   -8.3208039    647.72322  0.012962761  0.011519609         3871 
 4165000   0.58135123   -8.3338785     646.2397  0.012929966  0.011515146         3876 
 4166000   0.57616535   -8.3083031    647.22601  0.012946592  0.011510684         3847 
 4167000   0.58839691   -8.3354247    645.41673  0.012907302  0.011506226         3850 
 4168000   0.59552841   -8.3430501    647.57473  0.012947351  0.011501769         3851 
 4169000   0.57486694   -8.3182577    647.70265  0.012946803  0.011497314         3855 
 4170000   0.58447004   -8.3179295    648.31806  0.012955996  0.011492865         3832 
 4171000   0.58123512   -8.3222812    648.34935  0.012953515  0.011488412         3880 
 4172000   0.57715046   -8.3245703    647.34232  0.012930296  0.011483964         3852 
 4173000   0.58714253   -8.3221708    648.26595  0.012945642   0.01147952         3840 
 4174000   0.57698414   -8.3260715    646.23756  0.012902044  0.011475076         3879 
 4175000   0.57953955   -8.3261918    648.26459  0.012939413  0.011470635         3858 
 4176000    0.5985892   -8.3355054    648.20076  0.012935041  0.011466197         3863 
 4177000   0.57513724   -8.3218433    646.77024  0.012903404  0.011461758         3872 
 4178000   0.57389638   -8.3491865    647.57214   0.01291631  0.011457322         3853 
 4179000   0.58708097   -8.3239806    649.02361  0.012942163  0.011452887         3868 
 4180000   0.57684967   -8.3272479    647.43722  0.012907441  0.011448452         3870 
 4181000   0.58439602   -8.3140523    648.55313  0.012926595  0.011444022         3855 
 4182000   0.58846589   -8.3236252    648.00832  0.012912648  0.011439595         3840 
 4183000   0.59074877   -8.3254257    647.98285  0.012909054  0.011435176         3845 
 4184000   0.57827879   -8.3331711    647.04547  0.012887298  0.011430752         3857 
 4185000   0.59284548   -8.3326132    648.27271  0.012908656  0.011426335         3833 
 4186000   0.57064839   -8.3238065    648.55867  0.012911265  0.011421911         3864 
 4187000   0.57605293   -8.3311715    647.77582    0.0128926  0.011417495         3845 
 4188000   0.58841887   -8.3403859    647.58103  0.012885646  0.011413084         3828 
 4189000   0.57835785   -8.3236015    648.33488  0.012897567   0.01140867         3869 
 4190000   0.57814067   -8.3418997    646.87662  0.012865486  0.011404258         3849 
 4191000   0.57319278   -8.3321721    647.22814  0.012869405  0.011399848         3867 
 4192000    0.5890335   -8.3259436    647.91709  0.012880031  0.011395441         3870 
 4193000   0.57275614   -8.3332191    647.96863  0.012877984  0.011391036         3867 
 4194000   0.58402984   -8.3522362    647.09736  0.012857601  0.011386635         3873 
 4195000   0.59273691   -8.3450811    645.81974  0.012829156  0.011382232         3872 
 4196000   0.57789905   -8.3468278    647.60042  0.012861464  0.011377837         3856 
 4197000   0.57228349   -8.3258817    646.79546  0.012842416  0.011373439         3847 
 4198000   0.58789206   -8.3328116    646.89399  0.012841313  0.011369046         3837 
 4199000   0.58274265   -8.3192499    646.67396  0.012833888  0.011364655         3820 
 4200000   0.58492094   -8.3435946    647.41157  0.012845468  0.011360267         3890 
 4201000   0.56388544    -8.327664    647.63343  0.012846811  0.011355879         3829 
 4202000   0.58525682   -8.3165984     646.8826  0.012828863  0.011351494         3838 
 4203000   0.57030563   -8.3479678    646.61798  0.012820564  0.011347115         3842 
 4204000   0.57426529   -8.3289633    646.99912   0.01282507   0.01134273         3839 
 4205000   0.58049106   -8.3466878     647.1731  0.012825468  0.011338348         3855 
 4206000    0.5891098   -8.3156922    647.02463  0.012819477  0.011333974         3869 
 4207000   0.57723564   -8.3405839    647.42829  0.012824425  0.011329599         3880 
 4208000   0.58072856   -8.3476314    647.13957   0.01281566  0.011325226         3832 
 4209000   0.56725276   -8.3427285    648.29371  0.012835466  0.011320855         3843 
 4210000   0.57490175   -8.3392241    647.31118  0.012812969  0.011316488         3835 
 4211000   0.59534021   -8.3336003    647.53308  0.012814317  0.011312125         3849 
 4212000    0.5851118   -8.3543234    647.29824  0.012806629   0.01130776         3817 
 4213000   0.57757237   -8.3218887     647.2162  0.012801966  0.011303399         3859 
 4214000    0.5874332   -8.3202829    647.52501  0.012805035  0.011299042         3857 
 4215000   0.56687235   -8.3258193    647.49597  0.012801423  0.011294689         3863 
 4216000   0.58321547   -8.3459958    647.48684  0.012798206  0.011290331         3837 
 4217000   0.58772358   -8.3295753    647.66149  0.012798622  0.011285979         3869 
 4218000   0.56852664    -8.321412     646.1947  0.012766609  0.011281627         3856 
 4219000   0.57902983   -8.3566261    646.43509  0.012768331  0.011277281         3872 
 4220000   0.57201282   -8.3394992    647.21521  0.012780711  0.011272931         3855 
 4221000   0.57223791   -8.3168347    647.34028  0.012780152  0.011268586         3860 
 4222000   0.57485261   -8.3197461    647.93012  0.012788768   0.01126425         3832 
 4223000   0.57765302   -8.3382341     646.4943  0.012757406  0.011259912         3833 
 4224000   0.57748292   -8.3336833    646.65827  0.012757621  0.011255573         3816 
 4225000   0.58460786   -8.3313182    647.25041   0.01276628  0.011251238         3836 
 4226000   0.58195649   -8.3364916    647.53783  0.012768927  0.011246902         3856 
 4227000    0.5766919   -8.3453025    648.14913  0.012777958  0.011242574         3838 
 4228000    0.5650726   -8.3409562    646.66868  0.012745756  0.011238247         3834 
 4229000   0.57825762   -8.3485825    647.19102  0.012753035  0.011233918         3855 
 4230000   0.57172081   -8.3507429     646.3513  0.012733477  0.011229597         3847 
 4231000   0.57313125   -8.3404501    646.97488   0.01274275  0.011225276         3854 
 4232000   0.56710656   -8.3274346    647.19428  0.012744059  0.011220956         3860 
 4233000   0.57846184   -8.3254927    647.41659  0.012745425  0.011216635         3876 
 4234000   0.58750882   -8.3436751    647.36776  0.012741453  0.011212318         3878 
 4235000    0.5863354    -8.328887    646.26173  0.012716681  0.011208008         3833 
 4236000   0.57171144   -8.3454562    646.58414  0.012720022  0.011203698         3846 
 4237000   0.57108855   -8.3444716    646.61312  0.012717589  0.011199389         3859 
 4238000   0.55796489   -8.3280211    647.28054  0.012727712   0.01119508         3858 
 4239000   0.57721442   -8.3470277     646.1322  0.012702135  0.011190773         3852 
 4240000   0.56971042   -8.3370372     647.2093  0.012720309  0.011186473         3862 
 4241000   0.57995675   -8.3476712    646.25873  0.012698631  0.011182171         3847 
 4242000   0.57528808   -8.3537921    647.44914  0.012719023  0.011177874         3865 
 4243000   0.56857735   -8.3541232    646.88249  0.012704896  0.011173574         3873 
 4244000    0.5816205   -8.3418248    647.18526  0.012707848  0.011169278         3831 
 4245000   0.56144865   -8.3416855    647.30516  0.012707208  0.011164987         3865 
 4246000     0.584115   -8.3445724    647.00673  0.012698358  0.011160696         3801 
 4247000    0.5690494   -8.3365481    648.07105  0.012716252  0.011156406         3836 
 4248000   0.57208233   -8.3479046    647.16529   0.01269549  0.011152122         3855 
 4249000   0.56960439   -8.3342515    647.74431  0.012703858   0.01114784         3808 
 4250000   0.57227345   -8.3545737    646.72238  0.012680831  0.011143562         3855 
 4251000   0.56845581   -8.3413167    647.24467  0.012688086  0.011139279         3842 
 4252000   0.56478429    -8.349372    646.63141  0.012673083  0.011134997         3872 
 4253000   0.57455059   -8.3569366    645.99158  0.012657567   0.01113072         3861 
 4254000   0.57297553   -8.3497356    648.03342   0.01269459  0.011126447         3848 
 4255000   0.56693795   -8.3578846    646.87763   0.01266897  0.011122172         3822 
 4256000   0.57330875   -8.3604724    646.24281  0.012653564  0.011117905         3855 
 4257000   0.57510973   -8.3481125    646.08167  0.012647437  0.011113635         3842 
 4258000   0.57948283   -8.3442758     646.7355  0.012657263  0.011109365         3857 
 4259000   0.58600065   -8.3327725    646.35631  0.012646872  0.011105103         3858 
 4260000   0.56727759   -8.3269352    646.30872  0.012642972   0.01110084         3846 
 4261000   0.56836001    -8.343467    646.05875  0.012635116  0.011096579         3836 
 4262000   0.56352953   -8.3572975    644.73849  0.012606337  0.011092321         3867 
 4263000   0.56132815   -8.3560827    646.59352  0.012639642  0.011088062         3863 
 4264000   0.56978694   -8.3352223    646.14489   0.01262791  0.011083808         3865 
 4265000   0.56337359   -8.3475584    647.77594  0.012656818  0.011079557         3885 
 4266000   0.57209926   -8.3445833     647.7471  0.012653288  0.011075308         3859 
 4267000   0.57285281   -8.3485515    646.42931  0.012624586  0.011071064         3886 
 4268000   0.55785191    -8.350684    646.89592  0.012630739  0.011066819         3870 
 4269000   0.57693412   -8.3540547    646.07453  0.012611746  0.011062577         3842 
 4270000   0.56920731   -8.3369981     646.5598  0.012618263  0.011058336         3850 
 4271000   0.57083347   -8.3432221    646.82138  0.012620413  0.011054098         3857 
 4272000   0.55575601   -8.3413758    647.46507  0.012630015  0.011049866         3845 
 4273000   0.57908147   -8.3482384     647.0245  0.012618467  0.011045628         3881 
 4274000   0.56133524    -8.358562      646.632  0.012607862  0.011041397         3861 
 4275000    0.5684635   -8.3489402    646.03269   0.01259323  0.011037168         3862 
 4276000   0.55902175   -8.3686674    646.36478  0.012596757  0.011032938         3895 
 4277000   0.56616153   -8.3588332    646.77234  0.012601752  0.011028712         3870 
 4278000   0.56561876   -8.3509382     648.2826  0.012628226  0.011024488         3853 
 4279000   0.57401215   -8.3529468    647.12428  0.012602716  0.011020265         3855 
 4280000   0.55538746   -8.3434466    646.22135  0.012582191  0.011016045         3868 
 4281000   0.57358692   -8.3732324    645.32075  0.012561721  0.011011826         3871 
 4282000   0.55738971   -8.3563789    646.21908   0.01257627   0.01100761         3878 
 4283000   0.56724867   -8.3602977    645.89661   0.01256706  0.011003395         3878 
 4284000    0.5737362   -8.3445623    646.15334   0.01256912  0.010999184         3877 
 4285000    0.5728574   -8.3564883    646.54975  0.012573896  0.010994974         3862 
 4286000   0.56501174    -8.347706    646.53219  0.012570621  0.010990767         3860 
 4287000   0.55728431    -8.346373    646.71884  0.012571317  0.010986563         3849 
 4288000   0.55919141   -8.3521633    646.30178   0.01256028  0.010982361         3831 
 4289000   0.55611733   -8.3498948    646.76232    0.0125663  0.010978158         3824 
 4290000   0.55278188   -8.3391897    647.23418  0.012572537  0.010973958         3850 
 4291000   0.56587774   -8.3335821    646.94849  0.012564058  0.010969759         3862 
 4292000   0.56847177   -8.3325481    647.06127  0.012563321  0.010965564         3852 
 4293000   0.56626978   -8.3590039    647.09457  0.012561041  0.010961372         3872 
 4294000   0.56563044   -8.3480107    645.38238  0.012524887  0.010957183         3875 
 4295000   0.56123457    -8.348952    646.18188  0.012537483  0.010952997         3875 
 4296000   0.56668848   -8.3536641    647.30526  0.012556356  0.010948811         3849 
 4297000   0.55816202    -8.349148    646.78459  0.012543336  0.010944623         3860 
 4298000   0.56174175    -8.363195    646.38718  0.012532712  0.010940437         3888 
 4299000   0.56760121   -8.3429669    646.80752  0.012537945  0.010936261         3869 
 4300000   0.56114989   -8.3301332    646.74467  0.012533811  0.010932088         3877 
 4301000    0.5648028   -8.3551693    645.96231  0.012515739  0.010927913         3857 
 4302000     0.554139   -8.3596593    646.60693  0.012525316  0.010923742         3886 
 4303000   0.56374029   -8.3738573    644.61983  0.012483923  0.010919567         3853 
 4304000    0.5613218   -8.3483449    646.47339   0.01251691  0.010915394         3914 
 4305000   0.56720861   -8.3719711    646.16362  0.012508007   0.01091123         3850 
 4306000   0.55656359   -8.3550162    646.77153  0.012516867  0.010907065         3874 
 4307000   0.56886747   -8.3390793    646.20613  0.012503021  0.010902902         3866 
 4308000    0.5574923   -8.3470452    646.31722  0.012502267   0.01089874         3870 
 4309000   0.56634508   -8.3554762    646.21701  0.012497428  0.010894576         3864 
 4310000   0.55462954   -8.3688281    646.71605  0.012504177   0.01089042         3852 
 4311000   0.54725128   -8.3400962    647.20155  0.012510662  0.010886264         3856 
 4312000   0.57213053   -8.3439974    646.82985  0.012500577  0.010882112         3855 
 4313000   0.55162927   -8.3546104    647.31952   0.01250714  0.010877962         3875 
 4314000   0.55737264    -8.365748    645.17136  0.012462744   0.01087381         3843 
 4315000    0.5509309   -8.3533901    646.67304  0.012488858   0.01086966         3846 
 4316000   0.57817813   -8.3673475    646.70269  0.012486536  0.010865513         3885 
 4317000   0.55138288   -8.3718179    646.13708  0.012472726  0.010861367         3857 
 4318000   0.56372441   -8.3734342    645.53629  0.012458242  0.010857226         3869 
 4319000   0.55760687   -8.3800782    645.95315  0.012463401  0.010853084         3859 
 4320000   0.55494474   -8.3653753     645.9347   0.01246016  0.010848946         3864 
 4321000   0.56434796   -8.3744783    645.60054  0.012450832  0.010844812         3874 
 4322000    0.5552948   -8.3522297    645.93327  0.012454367  0.010840682         3813 
 4323000    0.5671621   -8.3848068    646.05474  0.012453827   0.01083655         3863 
 4324000   0.56044796   -8.3779437    646.43285  0.012458234  0.010832419         3869 
 4325000   0.55140969   -8.3727716    647.15251   0.01246922  0.010828289         3879 
 4326000   0.56391747   -8.3583379    647.55193  0.012474032  0.010824165         3888 
 4327000   0.55591912   -8.3674801    645.67367  0.012434975  0.010820039         3873 
 4328000   0.56920728    -8.369131    645.54603  0.012429645  0.010815917         3889 
 4329000    0.5548094   -8.3525108    647.21123  0.012458829  0.010811799         3872 
 4330000   0.55442799   -8.3572674    646.39934  0.012440326  0.010807677         3864 
 4331000   0.56542602   -8.3533822    646.43464  0.012438133   0.01080356         3841 
 4332000   0.55548002   -8.3723401    646.32967  0.012433242  0.010799447         3876 
 4333000   0.55971059   -8.3732006    646.72582  0.012437992  0.010795338         3868 
 4334000   0.56683386    -8.366852    645.82435  0.012417789  0.010791228         3863 
 4335000      0.55202   -8.3732378    645.80001  0.012414456  0.010787119         3858 
 4336000   0.55495804   -8.3399344    646.12084  0.012417759  0.010783015         3858 
 4337000   0.56120561   -8.3580681    646.24075    0.0124172  0.010778915         3886 
 4338000   0.55765242   -8.3662883    646.70716  0.012423297  0.010774812         3879 
 4339000   0.56387321   -8.3598888    645.60802  0.012399324  0.010770709         3836 
 4340000   0.56868677   -8.3637983    646.46986  0.012413016  0.010766612         3855 
 4341000   0.55489136   -8.3795532    645.88057  0.012398844   0.01076252         3836 
 4342000   0.55121201   -8.3516756    645.48878  0.012388469  0.010758428         3878 
 4343000   0.55249245   -8.3623353    644.73366  0.012371127  0.010754336         3857 
 4344000   0.56561332   -8.3719288    646.87922  0.012409439  0.010750246         3872 
 4345000   0.54841838   -8.3482093    647.04673  0.012409795  0.010746156         3884 
 4346000   0.56569751   -8.3883941    645.69969  0.012381111  0.010742069         3848 
 4347000   0.55369062   -8.3708503     645.5673  0.012375725  0.010737988         3857 
 4348000   0.54571926   -8.3687276    646.77676  0.012396059  0.010733906         3879 
 4349000   0.54356793   -8.3550941    646.32838  0.012384617  0.010729825         3859 
 4350000   0.54390484    -8.367524    645.75674  0.012370819  0.010725746         3896 
 4351000   0.56254394    -8.369942     646.3925  0.012380152  0.010721671         3887 
 4352000   0.54594734   -8.3855415    646.49803  0.012379328  0.010717596         3895 
 4353000   0.54443758   -8.3544536    647.35197  0.012392832   0.01071352         3860 
 4354000   0.56741448   -8.3648829    646.44829   0.01237269  0.010709453         3869 
 4355000   0.55882749   -8.3575214    644.75732  0.012337492  0.010705386         3881 
 4356000   0.55273289   -8.3676171    645.54562   0.01234974  0.010701317         3874 
 4357000   0.57499618   -8.3773649    644.58213  0.012328478  0.010697257         3876 
 4358000   0.54999134   -8.3740562    645.71399  0.012347292  0.010693197         3887 
 4359000   0.54941617   -8.3590361    644.38189  0.012318993  0.010689139         3848 
 4360000   0.54340524   -8.3741331    646.10697  0.012349139  0.010685083         3872 
 4361000   0.53563566   -8.3705258    645.67363  0.012338027  0.010681028         3880 
 4362000   0.57481489   -8.3618413    645.74058  0.012336478  0.010676973         3841 
 4363000   0.54970318   -8.3608507    646.03163  0.012339209  0.010672923         3863 
 4364000   0.55288936   -8.3768804    646.40643  0.012343539  0.010668875         3857 
 4365000   0.55282458   -8.3536328    646.71083  0.012346522  0.010664828         3851 
 4366000   0.55883689     -8.37044    645.78182  0.012325962  0.010660781         3831 
 4367000   0.53632735    -8.371448     645.1664  0.012311396  0.010656738         3880 
 4368000   0.54726153   -8.3696369    646.32868  0.012330752  0.010652693         3876 
 4369000   0.55712909   -8.3738321      646.363  0.012328584  0.010648654         3850 
 4370000     0.560022   -8.3756438      645.682  0.012312776  0.010644614         3872 
 4371000   0.54886367   -8.3881843     645.0307  0.012297542  0.010640579         3852 
 4372000   0.55706195   -8.3481286    646.86658  0.012329723  0.010636544         3835 
 4373000   0.55636347   -8.3826243    646.45951  0.012319146  0.010632512         3869 
 4374000   0.55302965   -8.3641666    645.95853  0.012306785  0.010628481         3899 
 4375000   0.56224675   -8.3638272    645.29371  0.012291309  0.010624451         3878 
 4376000   0.55948937   -8.3690667    645.64452   0.01229518  0.010620423         3896 
 4377000   0.55629165   -8.3719258    646.74102  0.012313248  0.010616401         3876 
 4378000   0.54469634   -8.3727411    646.17299  0.012299623  0.010612379         3856 
 4379000   0.54770658   -8.3779574    646.42452  0.012301601  0.010608357         3881 
 4380000   0.55269192   -8.3694962    644.95198  0.012270776  0.010604336         3870 
 4381000   0.54995903   -8.3762957    645.57219  0.012279772  0.010600317         3837 
 4382000   0.54190437   -8.3865684     646.3143  0.012291083  0.010596306         3885 
 4383000   0.54904745     -8.37346    647.08306  0.012302895  0.010592299         3862 
 4384000   0.55111404   -8.3892355    645.88195  0.012277257  0.010588289         3869 
 4385000   0.55770176   -8.3789537    646.28315  0.012282082  0.010584279         3871 
 4386000   0.54849486   -8.3896294    645.99344  0.012273777  0.010580274         3857 
 4387000   0.56179545   -8.3794405    646.00862  0.012271268  0.010576272         3856 
 4388000   0.56684918   -8.3747758    646.23221  0.012272717  0.010572272         3824 
 4389000   0.54370486   -8.3764956    646.53006  0.012275576   0.01056827         3893 
 4390000   0.55352396   -8.3706125    646.04553  0.012263583  0.010564268         3872 
 4391000   0.54675315   -8.3813367    645.93831  0.012258755  0.010560271         3862 
 4392000   0.54275937   -8.3611684    646.24082  0.012261703  0.010556278         3852 
 4393000   0.53929639   -8.4006921    645.64997  0.012247704  0.010552283         3883 
 4394000   0.54485578   -8.3804527    645.70284   0.01224592  0.010548293         3836 
 4395000   0.55538215    -8.363078    644.53918  0.012221069  0.010544309         3875 
 4396000   0.53246968   -8.3821562    644.92597  0.012225621  0.010540322         3910 
 4397000   0.54842264   -8.3700061     645.1274  0.012226658  0.010536339         3854 
 4398000   0.54376685   -8.3631609    646.48202  0.012249546  0.010532355         3862 
 4399000   0.54180136   -8.3829811    645.57645  0.012229606  0.010528375         3881 
 4400000   0.54558801   -8.3813207    646.37535  0.012241957  0.010524398         3862 
 4401000   0.53016224   -8.3789271    645.12046  0.012215414  0.010520421         3860 
 4402000   0.53935142   -8.3707716    646.12496  0.012231655  0.010516447         3860 
 4403000   0.54738033   -8.3801537    647.28352  0.012250805  0.010512473         3862 
 4404000   0.54712907    -8.391675    645.91528  0.012222133  0.010508501         3859 
 4405000   0.55185611   -8.3936893     645.8415  0.012217962  0.010504534         3875 
 4406000   0.55789007    -8.371558    644.82211  0.012195909  0.010500567         3883 
 4407000    0.5308248   -8.3827264    645.61411  0.012208118    0.0104966         3887 
 4408000   0.54985064   -8.3683416    645.67753  0.012206547  0.010492637         3856 
 4409000   0.53286069   -8.3857143    645.38197  0.012198192  0.010488677         3860 
 4410000   0.54173573   -8.3970559    645.84289  0.012204136  0.010484717         3902 
 4411000   0.54374357   -8.3752784     646.6024  0.012215718  0.010480758         3880 
 4412000   0.54928086    -8.384429    646.55866  0.012212123    0.0104768         3860 
 4413000   0.54476725   -8.3926218    645.07305  0.012181302  0.010472845         3901 
 4414000   0.53766175   -8.3816394    645.10221  0.012179093  0.010468891         3865 
 4415000   0.53787809   -8.3777428    646.20108  0.012197076  0.010464941         3870 
 4416000    0.5489585   -8.4037164    644.88806  0.012169536  0.010460993         3840 
 4417000   0.55523091   -8.3871099    645.69607  0.012182025  0.010457048         3867 
 4418000   0.54810817   -8.3812224    644.55101   0.01215767  0.010453104         3870 
 4419000   0.55792129    -8.388495    644.76783  0.012159007  0.010449162         3860 
 4420000   0.53686368   -8.4003409    646.23527  0.012183923   0.01044522         3886 
 4421000   0.54735562   -8.3836496    645.59931   0.01216918  0.010441277         3877 
 4422000   0.55197485   -8.3795193    644.68959  0.012149284  0.010437343         3874 
 4423000   0.53492139   -8.3633863    646.00567  0.012171333  0.010433408         3867 
 4424000   0.55539936   -8.3908877    644.77815  0.012145459  0.010429475         3855 
 4425000   0.54729893   -8.3976222    645.24215  0.012151453  0.010425545         3896 
 4426000   0.54115094   -8.3670522    644.96773  0.012143541  0.010421616         3878 
 4427000   0.53091813   -8.3969226    645.13285  0.012143906  0.010417691         3851 
 4428000   0.54880223   -8.3800114    646.26293  0.012162431  0.010413763         3862 
 4429000     0.537021   -8.3858558    646.69094  0.012167738  0.010409836         3873 
 4430000   0.54326602   -8.3974963    645.23469  0.012137598  0.010405913         3882 
 4431000   0.54731948   -8.3962976    644.69741  0.012124754   0.01040199         3887 
 4432000   0.55299931   -8.3868827     645.5069  0.012137239  0.010398074         3852 
 4433000   0.55208539    -8.382879     645.3149  0.012130891  0.010394157         3875 
 4434000    0.5297619    -8.391479    644.56536  0.012114069  0.010390242         3897 
 4435000   0.54030254   -8.4018699    645.88448  0.012136123  0.010386328         3868 
 4436000   0.53873388   -8.3951653     644.9343  0.012115538  0.010382417         3871 
 4437000   0.54695872   -8.3770328    645.26497  0.012119018  0.010378506         3863 
 4438000   0.54211256   -8.3725359    645.40195  0.012118859  0.010374597         3858 
 4439000   0.52915416   -8.3932466    645.28137  0.012113865   0.01037069         3847 
 4440000   0.53900525   -8.3864955      645.423  0.012113795  0.010366782         3865 
 4441000   0.54740631   -8.3961732    643.68586  0.012078471  0.010362878         3863 
 4442000   0.54435284   -8.3968915    645.12066  0.012102669  0.010358977         3845 
 4443000   0.53259796   -8.4124317    644.87897  0.012095412  0.010355076         3875 
 4444000   0.54702555   -8.3857492    646.32765  0.012119855   0.01035118         3853 
 4445000   0.54928437   -8.4178728    644.67407  0.012086128  0.010347283         3885 
 4446000   0.54582385   -8.4037743    644.75506  0.012084928  0.010343391         3885 
 4447000   0.54050082   -8.3863428    644.63135  0.012079892    0.0103395         3851 
 4448000   0.53852379   -8.4097995    643.61938  0.012058217  0.010335608         3901 
 4449000   0.53734841   -8.3890254    645.68749  0.012094244  0.010331716         3840 
 4450000   0.54627723    -8.382421    644.41533  0.012067703  0.010327831         3885 
 4451000   0.53801742   -8.3747618    645.58185  0.012086832  0.010323949         3848 
 4452000   0.54533068   -8.4076113    645.25477  0.012077994  0.010320065         3876 
 4453000   0.53878723    -8.387988     645.5904  0.012081563  0.010316185         3858 
 4454000   0.52833477   -8.4001002    644.78027  0.012063693  0.010312304         3874 
 4455000   0.54288502   -8.3919218    645.39389  0.012072463  0.010308426         3876 
 4456000   0.54071343   -8.3980841    644.33456  0.012049943  0.010304549         3852 
 4457000   0.54122737   -8.4062021    644.46553  0.012049688  0.010300677         3864 
 4458000   0.54532019   -8.3965864    645.91614  0.012074102  0.010296806         3899 
 4459000   0.54474898   -8.3925154    645.42641  0.012062241  0.010292937         3873 
 4460000   0.54445924   -8.4016519     644.9538  0.012050706  0.010289069         3862 
 4461000   0.54764398    -8.409362    644.80493  0.012045224  0.010285206         3864 
 4462000   0.53370068   -8.3883984    644.98828  0.012045949   0.01028134         3853 
 4463000   0.53347787   -8.3895845     645.4663  0.012052175  0.010277479         3882 
 4464000    0.5332418   -8.4076609    645.38793  0.012048012  0.010273619         3864 
 4465000   0.52909499   -8.3958493    646.25427  0.012061483  0.010269761         3865 
 4466000   0.54144487   -8.4105791    645.12229   0.01203766  0.010265903         3858 
 4467000   0.54324043   -8.4094945    645.21044   0.01203661  0.010262046         3866 
 4468000   0.52907073   -8.3952693    643.49877  0.012001991  0.010258192         3881 
 4469000   0.52631302   -8.3817173    645.46474  0.012035965  0.010254344         3856 
 4470000   0.53551058   -8.3913933      644.008  0.012006115  0.010250492         3845 
 4471000    0.5436205   -8.3978404    644.99951   0.01202191  0.010246648         3884 
 4472000   0.53989989   -8.3913403    645.19793  0.012022919  0.010242802         3868 
 4473000   0.54786634   -8.3945222    645.40929  0.012024169  0.010238962         3905 
 4474000   0.53390852   -8.3987132    645.63627  0.012025709   0.01023512         3878 
 4475000   0.53590129   -8.3885155    645.71189   0.01202443  0.010231281         3864 
 4476000   0.52429756   -8.4048346    645.49011  0.012017614  0.010227444         3869 
 4477000   0.54275287   -8.3890082    644.16103  0.011990191  0.010223606         3885 
 4478000   0.53004339   -8.4100683    644.83306   0.01200002   0.01021977         3878 
 4479000   0.53946333   -8.4084577    645.01708  0.012000764  0.010215938         3884 
 4480000   0.53533656   -8.4117223    644.77976  0.011993671  0.010212107         3871 
 4481000   0.53976331   -8.4101511     645.3796   0.01200215  0.010208279         3875 
 4482000   0.54070883    -8.399054    644.96605  0.011991783  0.010204454         3883 
 4483000   0.54032016   -8.3917103    644.68683  0.011983918   0.01020063         3891 
 4484000   0.53812499   -8.4063315     643.4456  0.011958177  0.010196808         3889 
 4485000   0.54036027   -8.4143572    643.44469  0.011955494  0.010192987         3882 
 4486000   0.53050496   -8.3897501    644.45328  0.011971565  0.010189167         3875 
 4487000   0.52266961   -8.4065041    644.25417  0.011965199   0.01018535         3881 
 4488000    0.5340734   -8.4114051    645.37222  0.011983293  0.010181533         3872 
 4489000   0.53560569   -8.3986351    644.18406  0.011958567  0.010177718         3865 
 4490000   0.54010656   -8.3952429    643.33949  0.011940228  0.010173906         3904 
 4491000   0.53189696    -8.412881    644.18895  0.011953332  0.010170097         3859 
 4492000   0.52928031   -8.3923496    644.33811  0.011953438  0.010166287         3892 
 4493000   0.52523392   -8.3789005    645.02177  0.011963457  0.010162483         3845 
 4494000   0.53071264    -8.403103    644.37847  0.011948867  0.010158679         3833 
 4495000   0.53203958   -8.3952841    644.72374  0.011952609  0.010154877         3897 
 4496000   0.53473919   -8.4065265     645.1255  0.011957397  0.010151079         3838 
 4497000   0.52875747   -8.4124472    643.85452  0.011931186  0.010147279         3872 
 4498000   0.53151713   -8.4017722    645.25207  0.011954426  0.010143483         3887 
 4499000   0.53253162   -8.3975518    645.62936  0.011958757  0.010139687         3885 
 4500000   0.53232914   -8.4138925    644.08643  0.011927526  0.010135892         3900 
 4501000   0.52412395   -8.3997085    644.01511  0.011923556    0.0101321         3888 
 4502000   0.54442172   -8.4095268    644.02519  0.011921094  0.010128307         3868 
 4503000   0.53621061   -8.4025777    645.84009  0.011952034  0.010124519         3847 
 4504000    0.5325359   -8.4072475     645.8397  0.011949373  0.010120735         3865 
 4505000   0.54159399   -8.3966318    644.98253  0.011930864  0.010116952         3871 
 4506000   0.53202813    -8.417812    643.83566  0.011907007  0.010113171         3875 
 4507000   0.53348048   -8.4107058    645.07688  0.011927315  0.010109392         3883 
 4508000   0.52847496   -8.4204887    644.47577  0.011913557  0.010105607         3888 
 4509000   0.52466329   -8.4009646    644.61249  0.011913441  0.010101829         3879 
 4510000   0.52340337   -8.4015061    643.62243  0.011892506  0.010098054         3895 
 4511000   0.53348501   -8.3968401    644.44881  0.011905136   0.01009428         3861 
 4512000   0.53178033   -8.4061374    644.70084  0.011907152  0.010090508         3860 
 4513000   0.53893329   -8.4238408    644.33362  0.011897733  0.010086736         3884 
 4514000   0.52401869   -8.4085557    644.10999  0.011890969  0.010082969         3862 
 4515000   0.52551687   -8.4183618    644.07654  0.011887718  0.010079203         3870 
 4516000   0.53512258   -8.4149138    644.17054   0.01188682  0.010075439         3883 
 4517000   0.52306132   -8.4022455    644.40491  0.011888512  0.010071679         3831 
 4518000   0.53003593   -8.4176738    642.82356  0.011856713  0.010067921         3863 
 4519000   0.53443643   -8.4250201    644.98115  0.011893877  0.010064163         3867 
 4520000   0.53048927   -8.4129367    644.24112  0.011877602  0.010060409         3862 
 4521000   0.53530955   -8.3967659    644.65408  0.011882586  0.010056655         3888 
 4522000   0.52656568   -8.4150755    644.80728  0.011882782  0.010052903         3867 
 4523000   0.51752334   -8.4002123     645.4794  0.011892538  0.010049152         3875 
 4524000   0.53040328   -8.4326741    644.44939  0.011870936  0.010045402         3863 
 4525000   0.54203098   -8.4147168    644.91648  0.011876915  0.010041656         3884 
 4526000   0.53776161   -8.4108898    643.55916    0.0118493   0.01003791         3853 
 4527000   0.51980102   -8.4143628    643.62577  0.011847908  0.010034166         3871 
 4528000    0.5227692   -8.4196853    644.29632  0.011857632  0.010030423         3878 
 4529000    0.5213942   -8.4170864    643.01697  0.011831474   0.01002668         3889 
 4530000   0.53202324   -8.4227416    645.56205  0.011875682  0.010022939         3891 
 4531000   0.51718733   -8.4095239    642.72618  0.011820904  0.010019199         3871 
 4532000   0.52252894   -8.4014029    644.47588  0.011850469  0.010015464         3874 
 4533000    0.5198711   -8.4297962    644.65062  0.011851067  0.010011731         3842 
 4534000   0.52757915   -8.4356218    644.20628  0.011840286  0.010008001         3827 
 4535000   0.52235302   -8.3944876    643.04324  0.011816304  0.010004273         3849 
 4536000   0.52112103   -8.4110515     645.0064  0.011849765  0.010000543         3827 
 4537000   0.52689915   -8.4281155    644.95023  0.011846121 0.0099968202         3878 
 4538000   0.51747165   -8.4130294     644.8296  0.011841296 0.0099930942         3877 
 4539000   0.51974543   -8.3963636     644.4615  0.011831929  0.009989374         3821 
 4540000   0.51704076   -8.4168164     644.7049   0.01183379  0.009985654         3848 
 4541000   0.53454314   -8.4264107    643.78078  0.011814226 0.0099819363         3865 
 4542000   0.51857911   -8.4010834    644.38686  0.011822744 0.0099782188         3865 
 4543000   0.51985078   -8.4172755     644.8091  0.011827887 0.0099745067         3843 
 4544000   0.52124989   -8.4222911    643.40616  0.011799556 0.0099707949         3892 
 4545000   0.52467563   -8.4107982    644.17205  0.011811002   0.00996708         3861 
 4546000   0.52403589   -8.4368159     644.3804  0.011812223 0.0099633684         3894 
 4547000   0.52922592   -8.4297229    643.90836  0.011800974  0.009959662         3907 
 4548000   0.53193965   -8.4349818    644.41948  0.011807745 0.0099559549         3889 
 4549000   0.52164694   -8.4154471    643.81905   0.01179415 0.0099522505         3864 
 4550000    0.5343241   -8.4104212    644.90107  0.011811375 0.0099485493         3881 
 4551000   0.51069134   -8.4245915    644.61553  0.011803551 0.0099448467         3883 
 4552000   0.52686609   -8.4155534    643.78708  0.011785792 0.0099411442         3865 
 4553000   0.52536253   -8.4255347    644.84276  0.011802525 0.0099374431         3846 
 4554000    0.5201036   -8.4048539    643.79783  0.011780812 0.0099337499         3874 
 4555000   0.52704646   -8.4263817    643.45917   0.01177203 0.0099300574         3897 
 4556000    0.5246079   -8.4142702     644.2639  0.011784166 0.0099263615         3858 
 4557000   0.51083639   -8.4076353    644.08501  0.011778308 0.0099226678         3840 
 4558000   0.52232132   -8.4279579    643.73877  0.011769394 0.0099189808         3863 
 4559000   0.53203667   -8.4124463    643.52237  0.011762857 0.0099152963         3862 
 4560000   0.52460206   -8.4185388    644.05179  0.011769952 0.0099116109         3880 
 4561000   0.51526577   -8.4171106    644.73764  0.011779903 0.0099079265         3866 
 4562000     0.521746   -8.4060282    644.03817  0.011764543 0.0099042428         3867 
 4563000   0.52766831    -8.423147    644.50641  0.011770517 0.0099005622         3883 
 4564000   0.52410538   -8.4220903    645.54385   0.01178688 0.0098968817         3869 
 4565000   0.52937686   -8.4125537    644.43069  0.011763978 0.0098932057         3868 
 4566000    0.5180735   -8.4288839    643.34029    0.0117415 0.0098895288         3896 
 4567000    0.5369193    -8.417498    643.72398  0.011745931 0.0098858555         3878 
 4568000   0.53002223   -8.4379088    644.46986  0.011756966 0.0098821841         3884 
 4569000   0.51888479   -8.4286028    644.39996  0.011753118  0.009878513         3878 
 4570000   0.52632887   -8.4284384    643.80059  0.011739617 0.0098748446         3872 
 4571000   0.52768964   -8.4075176    645.01987  0.011759277 0.0098711798         3838 
 4572000    0.5257268   -8.4215638    643.98217  0.011737791 0.0098675164         3876 
 4573000   0.50993712   -8.4214915    643.66061  0.011729365 0.0098638527         3866 
 4574000   0.52031593   -8.4344385    642.77341  0.011710636 0.0098601895         3875 
 4575000   0.52013977    -8.427989    643.11313  0.011714265 0.0098565298         3856 
 4576000   0.50937861    -8.419278    644.42679  0.011735628 0.0098528735         3886 
 4577000   0.51090134   -8.4231092    643.56115  0.011717303 0.0098492172         3854 
 4578000   0.50827091   -8.4350407    644.88402  0.011738824 0.0098455642         3890 
 4579000   0.52555901   -8.4085379    644.71983  0.011733272 0.0098419121         3849 
 4580000   0.51433131   -8.4235513    643.54074  0.011709257 0.0098382633         3869 
 4581000   0.51130964   -8.4287809    643.04635  0.011697707 0.0098346156         3877 
 4582000   0.53014466   -8.4173731     644.0484  0.011713378 0.0098309671         3883 
 4583000   0.50763125   -8.4089432    644.21835  0.011713913 0.0098273221         3853 
 4584000   0.51302403   -8.4506659    643.96209  0.011706699 0.0098236797         3809 
 4585000    0.5225901   -8.4387875    643.47585  0.011695308 0.0098200374         3891 
 4586000   0.52306352   -8.4278883     644.2485  0.011706798  0.009816398         3873 
 4587000   0.51511485   -8.4411751    644.52624  0.011709292 0.0098127599         3894 
 4588000   0.53501869   -8.4425384    644.40382  0.011704516 0.0098091248         3857 
 4589000   0.51752806   -8.4138249     643.6931  0.011689059 0.0098054916         3889 
 4590000   0.50801762   -8.4206442    643.67793  0.011686237 0.0098018592         3832 
 4591000   0.51511372   -8.4129583    645.20482  0.011711407 0.0097982299         3907 
 4592000   0.51569221   -8.4253017    643.02064  0.011669219 0.0097946013         3865 
 4593000   0.51435625   -8.4209562    643.44361  0.011674352 0.0097909767         3893 
 4594000   0.50732363   -8.4404401    643.67997  0.011676099 0.0097873519         3880 
 4595000   0.52633357   -8.4471616    643.43473   0.01166911 0.0097837274         3890 
 4596000   0.52139108   -8.4230416    643.88864  0.011674801 0.0097801037         3867 
 4597000   0.51812628   -8.4307311    643.93501  0.011673102 0.0097764837         3863 
 4598000   0.51813983   -8.4407718    644.37894  0.011678609 0.0097728656         3880 
 4599000   0.51777433   -8.4384294     643.2818   0.01165619 0.0097692507         3889 
 4600000   0.52577685   -8.4328522    643.94681  0.011665703 0.0097656332         3868 
 4601000    0.5094093   -8.4510507    644.13109  0.011666505  0.009762019         3878 
 4602000   0.52215595   -8.4490684    642.80583  0.011639972  0.009758406         3878 
 4603000   0.51568213   -8.4307496     643.6659  0.011653014 0.0097547974         3834 
 4604000   0.52522546   -8.4518675    643.21517  0.011642325 0.0097511906         3892 
 4605000    0.5083663   -8.4376857    643.88692  0.011651953 0.0097475833         3855 
 4606000   0.50507368   -8.4478694    643.32975  0.011639343 0.0097439761         3871 
 4607000   0.52829674    -8.428691    644.13386  0.011651361 0.0097403697         3842 
 4608000   0.50615772   -8.4367405    644.33444   0.01165246 0.0097367679         3880 
 4609000   0.51282396   -8.4312451    644.02059  0.011644257  0.009733168         3915 
 4610000     0.507493   -8.4253285     643.7581  0.011636987 0.0097295711         3911 
 4611000   0.50893059   -8.4390239     643.2312   0.01162494 0.0097259776         3868 
 4612000   0.53033969   -8.4359407    643.89624  0.011634436 0.0097223852         3876 
 4613000   0.50731194   -8.4427193    643.71738  0.011628683 0.0097187946         3888 
 4614000   0.51037529   -8.4332177    642.89006   0.01161122 0.0097152029         3886 
 4615000   0.51066693   -8.4331695    644.30656  0.011634282 0.0097116151         3854 
 4616000   0.50662034   -8.4314716    642.57684  0.011600535 0.0097080272         3892 
 4617000   0.51207476   -8.4464134    644.15821  0.011626565 0.0097044412         3902 
 4618000   0.50263846   -8.4349934    644.56385  0.011631367 0.0097008549         3853 
 4619000   0.51365323   -8.4517388    643.28412  0.011605761 0.0096972727         3865 
 4620000   0.51456811   -8.4344036    643.41034  0.011605526 0.0096936917         3872 
 4621000   0.50783324   -8.4335602    643.78229  0.011609722 0.0096901145         3854 
 4622000   0.51633395   -8.4262098    643.50047  0.011602129 0.0096865357         3837 
 4623000   0.50721087    -8.435139    643.38758  0.011597584 0.0096829612         3887 
 4624000   0.52247199   -8.4383271    642.93231  0.011586871 0.0096793869         3871 
 4625000   0.50892772   -8.4340031    643.86197  0.011601117 0.0096758123         3889 
 4626000   0.51110196   -8.4304236    642.19315  0.011568546 0.0096722425         3892 
 4627000   0.51098112    -8.436577    642.65649  0.011574391 0.0096686733         3881 
 4628000   0.52115366   -8.4304177     642.9495  0.011577166 0.0096651036         3874 
 4629000   0.50651824   -8.4232456    643.54806  0.011585441 0.0096615389         3864 
 4630000    0.5143219   -8.4337374    643.60798  0.011584017 0.0096579789         3849 
 4631000   0.51106297   -8.4406049    643.47486   0.01157912 0.0096544138         3884 
 4632000   0.51722743   -8.4103823    643.29922   0.01157346 0.0096508546         3880 
 4633000   0.51855942   -8.4268175    644.06019   0.01158465 0.0096472987         3894 
 4634000   0.50500407   -8.4355608    642.83231  0.011560069 0.0096437434         3878 
 4635000   0.49824082   -8.4262064    643.01535  0.011560866 0.0096401859         3877 
 4636000   0.50485087   -8.4534524     643.5322  0.011567663  0.009636632         3882 
 4637000   0.49989733   -8.4430601    643.33524  0.011561628 0.0096330797         3872 
 4638000   0.50887601   -8.4167485    643.52608  0.011562564 0.0096295295         3876 
 4639000   0.51423199   -8.4449301    643.59296  0.011561273 0.0096259823         3895 
 4640000   0.50979206    -8.442926    642.77292  0.011544054 0.0096224315         3882 
 4641000   0.50418023   -8.4425836    642.81776  0.011542372 0.0096188858         3866 
 4642000   0.49701823   -8.4484919    643.84345  0.011558298 0.0096153379         3900 
 4643000   0.50869932   -8.4261761    643.25606  0.011545266 0.0096117912         3886 
 4644000    0.5034247   -8.4317272    642.82235  0.011534998 0.0096082497         3879 
 4645000   0.50603568    -8.433613    642.79824  0.011532082 0.0096047094         3898 
 4646000   0.50796068   -8.4494459    644.18093    0.0115544 0.0096011717         3871 
 4647000   0.50116778     -8.44618    643.63327  0.011542093 0.0095976394         3875 
 4648000     0.501822   -8.4374302    642.86749   0.01152588 0.0095941047         3860 
 4649000   0.49778945   -8.4381478    642.87789  0.011523587 0.0095905712         3875 
 4650000   0.50223324   -8.4442742    642.34165  0.011511499 0.0095870378         3879 
 4651000   0.51026473   -8.4426781     643.2144  0.011524661 0.0095835062         3898 
 4652000   0.50832337   -8.4476816    643.25918  0.011522986 0.0095799791         3883 
 4653000   0.49822205    -8.447116    642.81557  0.011512565 0.0095764529         3892 
 4654000   0.50237328   -8.4563692    643.22274  0.011517382 0.0095729284         3870 
 4655000   0.50369566    -8.452071    643.78922  0.011525049 0.0095694075         3884 
 4656000    0.5049217   -8.4574723    643.25035  0.011512929 0.0095658868         3870 
 4657000   0.50545591   -8.4364631    643.86266  0.011521413  0.009562366         3889 
 4658000   0.50349016   -8.4601554    642.87301  0.011501235 0.0095588471         3863 
 4659000   0.50730747   -8.4553922    643.18177  0.011504289 0.0095553283         3886 
 4660000   0.50185075   -8.4629109    642.72025  0.011493567 0.0095518149         3890 
 4661000   0.50758625   -8.4301624    642.85654  0.011493538 0.0095483004         3888 
 4662000   0.50936144    -8.440163    642.92468   0.01149229 0.0095447878         3893 
 4663000   0.49554262    -8.459774    643.49221  0.011499968 0.0095412779         3885 
 4664000   0.50417489   -8.4512851    643.91148  0.011504993 0.0095377681         3877 
 4665000   0.50547831   -8.4500454    643.08204  0.011487711 0.0095342652         3874 
 4666000   0.50304014   -8.4334925    643.59134  0.011494345 0.0095307595         3893 
 4667000   0.51295816   -8.4418749    643.26095  0.011485982 0.0095272591         3870 
 4668000   0.50028633   -8.4429949    642.85683  0.011476307 0.0095237592         3876 
 4669000   0.51226723   -8.4314283    642.56972  0.011468725 0.0095202598         3906 
 4670000   0.51599997   -8.4407897    643.28009  0.011478945 0.0095167639         3873 
 4671000   0.51818487   -8.4527793    642.52557  0.011463027 0.0095132684         3889 
 4672000   0.49917335   -8.4420338    643.19151  0.011472451 0.0095097763         3900 
 4673000   0.50678829   -8.4666224    643.18127  0.011469814 0.0095062848         3873 
 4674000   0.50669873   -8.4482595    642.24277  0.011450627 0.0095027972         3870 
 4675000    0.5057965   -8.4518494    643.06495  0.011462833 0.0094993075         3905 
 4676000   0.50947978   -8.4454439    642.88996  0.011457263 0.0094958184         3873 
 4677000   0.50974955   -8.4512141    642.84077  0.011453937 0.0094923346         3877 
 4678000   0.50682678   -8.4560208    643.45546  0.011462439 0.0094888518         3883 
 4679000   0.50763718   -8.4437105    643.21556  0.011455716 0.0094853694         3880 
 4680000   0.50439535   -8.4381235    644.00181  0.011467269 0.0094818884         3844 
 4681000   0.48840468   -8.4584827    642.19519  0.011432657 0.0094784091         3888 
 4682000   0.50054714   -8.4526374    641.78832  0.011422973   0.00947493         3879 
 4683000   0.50022902   -8.4502911    642.59323  0.011434857 0.0094714516         3893 
 4684000   0.49494045   -8.4654619    642.09711  0.011423589 0.0094679768         3887 
 4685000   0.50070127    -8.455382     642.4316  0.011427101 0.0094645019         3877 
 4686000   0.50264202    -8.458982    642.30335  0.011422381 0.0094610351         3876 
 4687000   0.50806064   -8.4658508    642.82076  0.011429144 0.0094575654         3885 
 4688000   0.50324101   -8.4532375    642.34932  0.011418326 0.0094540967         3909 
 4689000   0.50891391    -8.443932    643.13166  0.011429794  0.009450634         3921 
 4690000   0.49512564    -8.450404    643.03546  0.011425648 0.0094471712         3908 
 4691000   0.48994919    -8.467288    643.03633  0.011423228 0.0094437086         3894 
 4692000   0.50649098   -8.4671833    643.04185  0.011420891 0.0094402473         3871 
 4693000   0.48717955    -8.457904    643.49868  0.011426569 0.0094367869         3876 
 4694000   0.50265756   -8.4464153    643.76391  0.011428844  0.009433329         3899 
 4695000   0.49566494   -8.4537592    642.73676  0.011408178 0.0094298748         3881 
 4696000   0.50023604   -8.4703106    642.56407  0.011402684 0.0094264224         3868 
 4697000    0.5060186   -8.4529235    643.62674   0.01141911 0.0094229706         3866 
 4698000   0.51225568   -8.4476542    642.28169  0.011392821 0.0094195209         3874 
 4699000    0.4964106   -8.4629269    643.89883  0.011419075 0.0094160725         3913 
 4700000   0.50516926   -8.4371831    643.19606  0.011404185  0.009412625         3902 
 4701000    0.5058353   -8.4586405    643.35758  0.011404623 0.0094091793         3917 
 4702000   0.50066495   -8.4637971     642.6956  0.011390465 0.0094057352         3886 
 4703000   0.50253834   -8.4484971    642.43033  0.011383343 0.0094022949         3876 
 4704000   0.50533466   -8.4501609    643.27079  0.011395812 0.0093988542         3901 
 4705000   0.49324354   -8.4585203    643.65976  0.011400279 0.0093954182         3884 
 4706000   0.49922616   -8.4542767    642.71043  0.011381046 0.0093919814         3860 
 4707000   0.49492635     -8.44092    643.59929  0.011394365  0.009388546         3864 
 4708000   0.50959941   -8.4670515    642.84524  0.011378597 0.0093851109         3907 
 4709000   0.50172698   -8.4652718    643.59607  0.011389468 0.0093816781         3867 
 4710000   0.50256724   -8.4560861    642.98305  0.011376204 0.0093782468         3872 
 4711000   0.50194165   -8.4356992    642.86526  0.011371706 0.0093748167         3842 
 4712000   0.49328864    -8.446537    643.55223  0.011381442 0.0093713894         3896 
 4713000   0.50096142   -8.4627298    642.46048  0.011359723 0.0093679612         3894 
 4714000   0.50213764   -8.4580142     642.3664   0.01135565 0.0093645371         3896 
 4715000   0.49194452   -8.4551657    643.08553  0.011365951 0.0093611159         3903 
 4716000   0.49388959   -8.4731389    643.29248  0.011367198  0.009357694         3876 
 4717000   0.49681384   -8.4751634    642.56608  0.011351955 0.0093542731         3885 
 4718000   0.50047747   -8.4582445    643.39017  0.011364105 0.0093508554         3874 
 4719000   0.49972955   -8.4580771     643.2281  0.011358835 0.0093474391         3868 
 4720000   0.50022609   -8.4614165    643.53508  0.011361848 0.0093440255         3896 
 4721000    0.4875201   -8.4615931    643.14597  0.011352573 0.0093406137         3896 
 4722000    0.4996466   -8.4533361    642.38103  0.011336669 0.0093372041         3893 
 4723000   0.49918025   -8.4696812     642.6091  0.011338293 0.0093337941         3878 
 4724000   0.49684892   -8.4543833     641.6757  0.011319427 0.0093303876         3894 
 4725000   0.50246846   -8.4670743    642.25979  0.011327333 0.0093269824         3878 
 4726000   0.48997504   -8.4684999    642.85511  0.011335434 0.0093235805         3897 
 4727000    0.4904118   -8.4582907    643.25793  0.011340137 0.0093201782         3875 
 4728000   0.48888846   -8.4527228    642.92134  0.011331806 0.0093167787         3869 
 4729000   0.49592777    -8.462104     642.3519  0.011319375 0.0093133767         3900 
 4730000   0.49453428   -8.4704997    641.31115  0.011298646  0.009309981         3909 
 4731000   0.49000508   -8.4740297    642.51137  0.011317399 0.0093065837         3895 
 4732000   0.49730631   -8.4629056    642.49054   0.01131464 0.0093031929         3906 
 4733000   0.48706211   -8.4706061    642.13639  0.011306014 0.0092998001         3874 
 4734000   0.49578588   -8.4676812    642.25101  0.011305644 0.0092964089         3901 
 4735000   0.50388372   -8.4618038    642.85891  0.011313955 0.0092930197         3882 
 4736000   0.49802913   -8.4681971    643.17214  0.011317077 0.0092896336         3899 
 4737000   0.49701318   -8.4740839    642.18255  0.011297279 0.0092862481         3882 
 4738000   0.48699472   -8.4564702    643.56044   0.01131913 0.0092828616         3897 
 4739000   0.48700648   -8.4581121    643.04556  0.011307687 0.0092794781         3893 
 4740000   0.49084876   -8.4776747    642.86442  0.011302117 0.0092760968         3882 
 4741000   0.49656664   -8.4655222    643.41018  0.011309326 0.0092727135         3867 
 4742000    0.4884374   -8.4881113    642.61116    0.0112929 0.0092693351         3913 
 4743000   0.48160611   -8.4645997    642.63776  0.011290986 0.0092659587         3903 
 4744000   0.49424768   -8.4740281    642.49103  0.011286029 0.0092625867         3899 
 4745000   0.49318549   -8.4764951    642.07807  0.011276397 0.0092592123         3879 
 4746000   0.48400783   -8.4762324    643.00811  0.011290352 0.0092558394         3893 
 4747000   0.49017354   -8.4847635    642.14716  0.011272859 0.0092524683         3885 
 4748000   0.48558763   -8.4772306    642.30125   0.01127319 0.0092490985         3883 
 4749000   0.48737278   -8.4691242    641.86345  0.011263133 0.0092457322         3883 
 4750000   0.48853506   -8.4661393    641.76833  0.011259094 0.0092423676         3899 
 4751000   0.48897022   -8.4503982    643.10306  0.011280135 0.0092390044         3874 
 4752000   0.48936463   -8.4725846    642.24849  0.011262775 0.0092356436         3901 
 4753000   0.49296412   -8.4710295    642.36167   0.01126239 0.0092322818         3874 
 4754000   0.49254392   -8.4737867    641.96235  0.011253021 0.0092289226         3902 
 4755000   0.48690341   -8.4772173    642.58209  0.011261516 0.0092255683         3877 
 4756000   0.48939977   -8.4673811    642.65346  0.011260398 0.0092222134         3884 
 4757000   0.49480652   -8.4733663    641.83673  0.011243724 0.0092188582         3900 
 4758000   0.49717665   -8.4679506    642.99494  0.011261646 0.0092155053         3868 
 4759000   0.49169755   -8.4728297    642.99449  0.011259272 0.0092121532         3884 
 4760000   0.49467429   -8.4820535    641.87954  0.011237387 0.0092088036         3882 
 4761000   0.49468264   -8.4655091    642.45961   0.01124518 0.0092054568         3911 
 4762000   0.48052533   -8.4670651    643.07601  0.011253605 0.0092021115         3883 
 4763000   0.49372953   -8.4786356     642.3075  0.011237797 0.0091987648         3870 
 4764000    0.4923443   -8.4888849    641.57819   0.01122268 0.0091954216         3888 
 4765000   0.49045752   -8.4683906    641.97353  0.011227239 0.0091920805         3893 
 4766000   0.49717446   -8.4926499    642.42784  0.011232827 0.0091887419         3920 
 4767000   0.48808021   -8.4735864    641.42028  0.011212857 0.0091854069         3897 
 4768000   0.49015219   -8.4797535    641.99658  0.011220578 0.0091820705         3899 
 4769000   0.48307782   -8.4708143    643.76452  0.011249118 0.0091787361         3874 
 4770000   0.49039818   -8.4871117    642.78663  0.011229676 0.0091754009         3897 
 4771000   0.49947563   -8.4779419    643.39055   0.01123787 0.0091720709         3899 
 4772000   0.49157603   -8.4714965    642.20785  0.011214862 0.0091687411         3878 
 4773000    0.4808616   -8.4799997    642.64956  0.011220224 0.0091654118         3884 
 4774000   0.49137558   -8.4613761    642.21271  0.011210248  0.009162085         3884 
 4775000   0.49358883   -8.4920648    641.03591  0.011187363 0.0091587568         3892 
 4776000   0.50164585   -8.4678551    641.92262  0.011200492 0.0091554343         3885 
 4777000   0.49133181   -8.4694174    642.05854  0.011200519 0.0091521105         3899 
 4778000    0.4852762   -8.4588677    642.60231  0.011207658 0.0091487884         3913 
 4779000   0.47460268   -8.4799022    642.48473  0.011203263 0.0091454702         3878 
 4780000   0.49636755   -8.4803789     642.6709  0.011204165 0.0091421533         3889 
 4781000   0.48044686   -8.4711706    641.97851  0.011189753 0.0091388346         3885 
 4782000    0.4848394   -8.4908962     641.5268  0.011179541 0.0091355202         3871 
 4783000   0.48208093      -8.4665    641.61375  0.011178719  0.009132206         3881 
 4784000   0.49056913   -8.4756709    642.16878   0.01118605 0.0091288942         3883 
 4785000   0.49716082   -8.4627452    641.96048  0.011180085 0.0091255864         3895 
 4786000   0.47693307   -8.4816326    642.87381  0.011193652 0.0091222811         3887 
 4787000   0.49223113   -8.4882369    642.69783   0.01118825 0.0091189741         3883 
 4788000   0.48758095    -8.477017    642.86718  0.011188861 0.0091156694         3881 
 4789000   0.49150809   -8.4669807    642.17541  0.011174487 0.0091123642         3869 
 4790000   0.49083662   -8.4748916    642.44081  0.011176771 0.0091090636         3906 
 4791000   0.48299394   -8.4714545     643.2253  0.011188084 0.0091057617         3852 
 4792000   0.48151188   -8.4812854    642.34992  0.011170526 0.0091024618         3898 
 4793000   0.49654589   -8.4770755    642.34698  0.011168144 0.0090991649         3896 
 4794000   0.48527658   -8.4762945    641.72996  0.011155089 0.0090958696         3888 
 4795000   0.48039812   -8.4810362    643.29088   0.01117989  0.009092573         3888 
 4796000   0.49459431    -8.483505    642.93691  0.011171409 0.0090892791         3902 
 4797000   0.47324804   -8.4872923    643.61483  0.011180857 0.0090859921         3890 
 4798000   0.49160115   -8.4908945    642.05625  0.011151456 0.0090827006         3887 
 4799000   0.48257576   -8.4710443    641.40069  0.011137749 0.0090794161         3889 
 4800000   0.48529749   -8.4893039    642.80146  0.011159748 0.0090761271         3889 
 4801000   0.48621653   -8.5063153    641.59266  0.011136441 0.0090728422         3866 
 4802000   0.48265479   -8.4853507    641.97031  0.011140676 0.0090695562         3905 
 4803000   0.48444133   -8.4914929    641.32468  0.011127154  0.009066274         3881 
 4804000   0.48143024   -8.4972767    641.57785   0.01112923  0.009062994         3915 
 4805000   0.48016132   -8.4914735    642.46163  0.011142241 0.0090597154         3873 
 4806000   0.47059603   -8.4805693    641.64219  0.011125714 0.0090564405         3876 
 4807000   0.46730542   -8.4823481    642.47979   0.01113792 0.0090531646         3868 
 4808000   0.48887613   -8.4852587    642.51762  0.011136259 0.0090498926         3881 
 4809000   0.48498434   -8.4913233    641.46629  0.011115726 0.0090466214         3889 
 4810000   0.47599485   -8.4626759    641.84267  0.011119935 0.0090433507         3885 
 4811000   0.49440651   -8.4820745     640.7388  0.011098503 0.0090400807         3909 
 4812000     0.487177   -8.4822128     641.4737  0.011108924 0.0090368137         3894 
 4813000   0.47450712   -8.4763674    642.29392  0.011120817 0.0090335463         3898 
 4814000   0.47437205   -8.4882918    641.78915  0.011109769 0.0090302825         3915 
 4815000   0.47902379   -8.4773073    641.94968   0.01111024 0.0090270202         3886 
 4816000   0.48579092   -8.4759898    642.93242  0.011124938 0.0090237594         3917 
 4817000   0.47448633    -8.488211    643.01859  0.011124119 0.0090205001         3892 
 4818000   0.47759383   -8.4820437     642.3247  0.011109809  0.009017243         3914 
 4819000   0.48658821   -8.4952792    642.41867  0.011109128 0.0090139865         3897 
 4820000   0.47895984   -8.4810417    642.50582   0.01110833 0.0090107297         3905 
 4821000   0.47300597   -8.4806085    642.13964  0.011099696 0.0090074768         3881 
 4822000   0.48877642   -8.4899506    642.46489  0.011103015 0.0090042245         3875 
 4823000   0.48142661   -8.4928967    641.20377  0.011078923  0.009000975         3882 
 4824000   0.48783281   -8.4581105    641.32933  0.011078796 0.0089977272         3894 
 4825000   0.48534753   -8.4738045    642.28839  0.011093064 0.0089944823         3902 
 4826000   0.48305466   -8.4808231    641.61561  0.011079148 0.0089912359         3877 
 4827000   0.48167589   -8.4949453    641.44392  0.011073888 0.0089879931         3881 
 4828000   0.48635138   -8.4983722    641.39786    0.0110708 0.0089847498         3888 
 4829000   0.47491125   -8.4852571    641.91107  0.011077364 0.0089815082         3884 
 4830000   0.48977579   -8.4714704    641.72653  0.011071886 0.0089782688         3884 
 4831000   0.47470512   -8.4778538    641.26742  0.011061675 0.0089750305         3890 
 4832000   0.47456205   -8.4792998    641.51908  0.011063726 0.0089717949         3895 
 4833000   0.48184446   -8.5012855    640.64359  0.011046341 0.0089685572         3900 
 4834000   0.48429945   -8.4824682    641.77788   0.01106361 0.0089653262         3900 
 4835000   0.47711552   -8.4979343    643.12646  0.011084565 0.0089620956         3891 
 4836000   0.46695282   -8.4932434    641.54923  0.011055094 0.0089588649         3890 
 4837000   0.48446978   -8.4856337    640.77229  0.011039423 0.0089556348         3891 
 4838000   0.47561771    -8.487785    640.96292  0.011040425 0.0089524083         3895 
 4839000   0.46584985   -8.4880335    641.75659  0.011051812 0.0089491824         3873 
 4840000   0.47552103   -8.4922166    642.04187   0.01105444 0.0089459573         3869 
 4841000   0.47608317   -8.5026246    641.15929  0.011036964 0.0089427332         3869 
 4842000   0.47032453   -8.4894049    641.64721  0.011043081 0.0089395102         3898 
 4843000    0.4945902   -8.5010856    641.97661  0.011046469 0.0089362893         3906 
 4844000   0.46614556   -8.4899693    640.99866  0.011027365 0.0089330689         3877 
 4845000   0.48244071   -8.4794099     641.5393  0.011034388 0.0089298526         3904 
 4846000   0.47874839   -8.4902321    642.17563  0.011043053 0.0089266389         3914 
 4847000   0.47664786   -8.4993135    641.04415  0.011021322 0.0089234268         3898 
 4848000   0.46964651   -8.4848228    641.29273  0.011023321 0.0089202136         3876 
 4849000   0.48464262   -8.4886757    642.00686  0.011033321 0.0089170045         3867 
 4850000   0.47392293   -8.4884076    642.23505  0.011034967 0.0089137941         3907 
 4851000   0.47900253   -8.5153757    640.82192  0.011008416  0.008910584         3888 
 4852000   0.46930755   -8.5005365    641.69624  0.011021164  0.008907375         3880 
 4853000   0.48514183   -8.4947644    641.26761  0.011011533 0.0089041715         3877 
 4854000    0.4740374     -8.47838    641.72398  0.011017099 0.0089009699         3864 
 4855000   0.48413362    -8.484099    641.78223   0.01101583 0.0088977686         3870 
 4856000   0.48437229   -8.4976402    641.29948  0.011005277 0.0088945674         3912 
 4857000   0.46530967      -8.5025    641.81859  0.011011917 0.0088913672         3895 
 4858000   0.46441514   -8.5052215     641.5857  0.011005656 0.0088881705         3903 
 4859000   0.47904585   -8.4996328    641.42118  0.011000569 0.0088849743         3862 
 4860000   0.47394632   -8.5015635    640.80387  0.010987721  0.008881781         3903 
 4861000   0.46704079   -8.4974586    641.88823   0.01100405 0.0088785886         3906 
 4862000   0.46857438    -8.487126    642.13625  0.011006037 0.0088753945         3899 
 4863000   0.47635362   -8.4838803    642.08241  0.011002852 0.0088722045         3888 
 4864000   0.47610292   -8.4819444     641.2562  0.010986434 0.0088690189         3861 
 4865000   0.47862533   -8.4994419    642.17896  0.010999982 0.0088658345         3890 
 4866000   0.47168289   -8.5083815    641.20278  0.010981004 0.0088626489         3883 
 4867000   0.47626695    -8.482802    642.01907  0.010992724 0.0088594658         3909 
 4868000   0.47227056   -8.5014721    641.53653  0.010982206 0.0088562854         3897 
 4869000    0.4658027   -8.4973847    640.55091  0.010963081 0.0088531048         3882 
 4870000   0.47415637   -8.4841554    641.29122  0.010973498 0.0088499242         3901 
 4871000   0.47709444    -8.485288    640.70986  0.010961299 0.0088467478         3891 
 4872000   0.47173357   -8.4883611     642.3728  0.010987493 0.0088435705         3906 
 4873000   0.46991973   -8.4935018    642.21294  0.010982505 0.0088403953         3869 
 4874000   0.46833424   -8.4979116    640.79143  0.010955947 0.0088372223         3901 
 4875000   0.47870844   -8.5025872    641.75775  0.010970218 0.0088340521         3891 
 4876000   0.47099694   -8.5056314    640.94083  0.010954007 0.0088308827         3877 
 4877000   0.46587032   -8.4859061    642.39511   0.01097661 0.0088277144         3877 
 4878000     0.465857   -8.5139176    641.52591   0.01095951 0.0088245464         3906 
 4879000   0.46500774   -8.4998771    641.07427   0.01094955 0.0088213807         3878 
 4880000   0.45978233   -8.5046843    640.78194  0.010942315 0.0088182171         3885 
 4881000   0.46190368   -8.4957114    641.91638  0.010959441 0.0088150558         3889 
 4882000   0.46983241   -8.4877566    640.76428   0.01093753 0.0088118963         3882 
 4883000   0.47345421   -8.4951427    641.37943  0.010945789 0.0088087372         3904 
 4884000   0.46580191   -8.5036028     641.9874  0.010953921 0.0088055787         3910 
 4885000   0.48126317   -8.5048558    642.59251  0.010962001 0.0088024236         3880 
 4886000    0.4814839   -8.5051749    641.31538  0.010937975 0.0087992698         3902 
 4887000   0.47034666   -8.5070971    640.47447  0.010921398 0.0087961179         3876 
 4888000   0.47137836   -8.5071009    641.65052  0.010939214 0.0087929646         3872 
 4889000   0.47954501   -8.4942142     640.6287  0.010919559 0.0087898125         3879 
 4890000    0.4704463    -8.504999     641.6492  0.010934717 0.0087866632         3907 
 4891000   0.47454968   -8.5022498     640.9688  0.010920889 0.0087835161         3900 
 4892000    0.4748494    -8.498843    641.80217  0.010932852 0.0087803704         3883 
 4893000   0.46886958   -8.5118968    640.57199  0.010909667 0.0087772236         3903 
 4894000   0.46068073   -8.5108228    641.41491   0.01092179 0.0087740803         3899 
 4895000   0.47390053   -8.4993171    641.40225  0.010919344 0.0087709386         3889 
 4896000   0.46185209   -8.5009528    641.47674  0.010918381 0.0087677986         3920 
 4897000   0.46375365    -8.499361    641.17906  0.010911086 0.0087646604         3883 
 4898000    0.4666736   -8.5112781    641.77024  0.010918917 0.0087615242         3887 
 4899000    0.4555827   -8.4961077    641.35335  0.010909596 0.0087583898         3873 
 4900000   0.47367068   -8.5060969    641.67255  0.010912798 0.0087552553         3875 
 4901000   0.45874803   -8.5190966     641.2628  0.010903605 0.0087521243         3888 
 4902000   0.46359453    -8.498586    642.21408  0.010917552 0.0087489935         3898 
 4903000   0.47504598   -8.4998182    641.53352  0.010903758 0.0087458627         3899 
 4904000   0.46486171   -8.4987518    640.97499  0.010892044 0.0087427358         3902 
 4905000   0.47553156   -8.5017128    641.43135  0.010897576 0.0087396095         3880 
 4906000   0.46801999    -8.507067     640.3279  0.010876612 0.0087364845         3883 
 4907000   0.47300809   -8.5017394    641.43503  0.010893197 0.0087333595         3873 
 4908000   0.48013129   -8.5191452    640.16522  0.010869418 0.0087302368         3906 
 4909000   0.46228309   -8.5149364     641.6057  0.010891656 0.0087271168         3877 
 4910000   0.45958023    -8.514355    640.87626  0.010877058 0.0087239986         3878 
 4911000    0.4650343   -8.5018536    640.60663  0.010870268 0.0087208796         3889 
 4912000   0.46844296    -8.507514    640.36786  0.010864004  0.008717765         3912 
 4913000   0.47548677   -8.5096732    641.30356  0.010877664 0.0087146502         3891 
 4914000   0.47431673   -8.5072038    640.39247      0.01086 0.0087115338         3901 
 4915000   0.46717793   -8.4967878    640.66647  0.010862436 0.0087084222         3861 
 4916000   0.47117886   -8.5100949    640.59291  0.010858979 0.0087053121         3892 
 4917000   0.47104419   -8.5030183    641.55208  0.010873027 0.0087022038         3900 
 4918000   0.46079256   -8.5072431    640.88636  0.010859536 0.0086990941         3877 
 4919000   0.45699186   -8.5155843    640.75215  0.010855054  0.008695989         3874 
 4920000   0.46828477   -8.5146392    640.89481  0.010855264 0.0086928857         3875 
 4921000   0.46357002   -8.4985219     641.4091  0.010861768 0.0086897837         3875 
 4922000   0.46897874   -8.5073425    641.69917  0.010864472 0.0086866826         3917 
 4923000   0.46671925   -8.5187135     641.6258  0.010861023 0.0086835826         3924 
 4924000   0.46303822   -8.5076313     640.9581  0.010847517 0.0086804833         3881 
 4925000   0.47157965   -8.5158795    641.00359  0.010846084 0.0086773876         3911 
 4926000   0.46612555   -8.5114014    640.25953  0.010831295 0.0086742927         3904 
 4927000   0.46356365   -8.5255035    641.35284  0.010847589 0.0086711989         3906 
 4928000   0.46934077   -8.5157181     640.8228  0.010836425 0.0086681073         3903 
 4929000   0.45177643   -8.5163893    640.54356  0.010829505 0.0086650159         3919 
 4930000    0.4523968   -8.5297768    641.00518  0.010835111 0.0086619233         3902 
 4931000   0.47016397   -8.5150264    641.34932   0.01083873 0.0086588338         3890 
 4932000   0.45705137   -8.5026166    641.31469  0.010835947 0.0086557484         3893 
 4933000   0.46497443   -8.5064819    640.61954  0.010822007 0.0086526633         3901 
 4934000   0.46207929   -8.5124297    640.59316  0.010819368 0.0086495787         3898 
 4935000   0.45043362    -8.515491    641.11257  0.010825947  0.008646495         3888 
 4936000   0.46667033    -8.508678    639.84521  0.010802357  0.008643414         3881 
 4937000   0.46018831   -8.4998361    640.99013  0.010819494 0.0086403334         3925 
 4938000   0.47289519   -8.5121715    640.76283  0.010813467 0.0086372529         3897 
 4939000   0.45766326   -8.5113342    641.74216  0.010827802 0.0086341773         3911 
 4940000   0.46882555   -8.5111233    640.69085  0.010807875 0.0086311025         3884 
 4941000   0.46657959   -8.5076641    641.12734   0.01081305 0.0086280271         3899 
 4942000   0.46016614    -8.528237    640.77888  0.010804986 0.0086249543         3904 
 4943000   0.45885402   -8.5021036    641.05521  0.010807459 0.0086218824         3884 
 4944000   0.45357093   -8.5109693    640.97702  0.010803955 0.0086188108         3907 
 4945000   0.45305659   -8.5299318    641.39726  0.010808852 0.0086157411         3887 
 4946000   0.45574208   -8.5272894     640.9405   0.01079897 0.0086126734         3880 
 4947000   0.46874159   -8.5289399    640.80216  0.010794457 0.0086096071         3895 
 4948000   0.46296815   -8.5138194    640.97296  0.010795152 0.0086065425         3909 
 4949000   0.46324889   -8.5227608    641.43827  0.010800806 0.0086034806         3912 
 4950000   0.46349534   -8.5033921    640.51054  0.010783006 0.0086004194         3888 
 4951000   0.46071602   -8.5026216    640.69045  0.010783856  0.008597361         3896 
 4952000   0.45194344   -8.5079573    640.48663  0.010778248 0.0085943033         3884 
 4953000   0.45689406    -8.521121    640.88761  0.010782819 0.0085912454         3897 
 4954000   0.45863639    -8.505771    640.82945  0.010779664 0.0085881908         3892 
 4955000   0.46790843   -8.5250067    641.00246  0.010780398  0.008585137         3894 
 4956000   0.46383869   -8.5166675     640.5809  0.010771134 0.0085820864         3909 
 4957000   0.46102611   -8.5193141     641.0067   0.01077612 0.0085790343         3893 
 4958000    0.4568943   -8.5312534    641.91806  0.010789264 0.0085759854         3913 
 4959000   0.45004132   -8.5251304    641.34614  0.010777478 0.0085729375         3890 
 4960000   0.45968401   -8.5129096    640.83145  0.010766657 0.0085698905         3901 
 4961000   0.45361926   -8.5268076    641.07438  0.010768568 0.0085668445         3893 
 4962000   0.45995152   -8.5226358    640.32171  0.010753757 0.0085638019         3879 
 4963000   0.45636342   -8.5093576    640.29493  0.010751141 0.0085607593         3895 
 4964000   0.45152037   -8.5183489    641.52027  0.010769545 0.0085577177         3913 
 4965000    0.4542751    -8.510453    640.63612  0.010752536 0.0085546797         3884 
 4966000   0.45202508   -8.5074999    639.82713  0.010736796 0.0085516439         3895 
 4967000   0.45752321    -8.516791    640.20395  0.010740956 0.0085486063         3899 
 4968000   0.46281482   -8.5131566    641.06114  0.010753173 0.0085455683         3900 
 4969000   0.44950673   -8.5296054    640.52436  0.010742007 0.0085425329         3922 
 4970000   0.45363409   -8.5105201    641.35166  0.010753717 0.0085394999         3890 
 4971000   0.46606575   -8.5271394    640.63755  0.010739582 0.0085364662         3893 
 4972000   0.46359311   -8.5238938    640.98961  0.010743323 0.0085334386         3890 
 4973000   0.46296388   -8.5231489    640.42307  0.010731669   0.00853041         3894 
 4974000   0.45511673   -8.5318801    640.87968  0.010737161 0.0085273822         3922 
 4975000   0.45045115   -8.5096696    639.59091  0.010713416 0.0085243534         3901 
 4976000   0.45249719    -8.514173    641.01684  0.010735143 0.0085213283         3897 
 4977000    0.4475308    -8.524343    640.53299  0.010724884 0.0085183053         3888 
 4978000   0.45165678   -8.5106967    640.54286  0.010722895 0.0085152846         3887 
 4979000   0.45796027   -8.5379101    640.31943  0.010717002 0.0085122642         3897 
 4980000   0.46071292   -8.5302701    640.84013  0.010723563 0.0085092447         3887 
 4981000   0.45961905   -8.5377798    640.82735  0.010721196 0.0085062277         3882 
 4982000   0.45663418   -8.5325595     641.5664  0.010731406 0.0085032114         3887 
 4983000   0.45708223   -8.5167278    640.23977  0.010707067 0.0085001968         3893 
 4984000   0.45390544    -8.524827    640.44451  0.010708342 0.0084971846         3923 
 4985000   0.45457793   -8.5178838    640.91529  0.010714064 0.0084941737         3907 
 4986000   0.45533356   -8.5170941    641.18486   0.01071642 0.0084911636         3900 
 4987000   0.45029517   -8.5271701    639.78934  0.010690952 0.0084881572         3894 
 4988000   0.44574257   -8.5186769    640.26006  0.010696673 0.0084851513         3882 
 4989000   0.45056134   -8.5267911    641.22662  0.010710674 0.0084821458         3888 
 4990000   0.46395818   -8.5162093    641.36018  0.010710758 0.0084791451         3901 
 4991000   0.45050311    -8.523536     640.8029  0.010699307 0.0084761443         3927 
 4992000   0.45137411   -8.5129568    639.92002  0.010682426 0.0084731434         3896 
 4993000   0.44831886   -8.5360977    640.78164  0.010694667 0.0084701437         3890 
 4994000   0.46628593   -8.5346897    640.71818  0.010691466 0.0084671451         3896 
 4995000   0.44894201   -8.5197057    640.79876   0.01069067 0.0084641496         3898 
 4996000   0.44868558   -8.5294039    640.99685  0.010691834 0.0084611529         3892 
 4997000   0.44946234   -8.5134962    640.80176  0.010686441  0.008458158         3883 
 4998000   0.46079518   -8.5211964    640.48052  0.010678947 0.0084551656         3909 
 4999000    0.4485114   -8.5269405    639.86445  0.010666541  0.008452172         3881 
 5000000   0.45541319   -8.5329694     640.7407  0.010679012 0.0084491816         3903 
 5001000   0.45450899   -8.5140038    640.61038  0.010674705 0.0084461912         3892 
 5002000   0.45394852   -8.5333327    640.37192  0.010668598 0.0084432051         3888 
 5003000   0.45618403    -8.534897    641.14861  0.010679403 0.0084402186         3868 
 5004000    0.4555505   -8.5126539    640.67089  0.010669313 0.0084372323         3880 
 5005000   0.44603746   -8.5365021    640.02139  0.010656367 0.0084342488         3878 
 5006000   0.45880913   -8.5283391    639.92682  0.010652664 0.0084312669         3897 
 5007000   0.45301018   -8.5269962    640.77773  0.010664698 0.0084282877         3895 
 5008000   0.45881785   -8.5275081    641.23295  0.010670144 0.0084253082         3904 
 5009000   0.45060606   -8.5246637    640.63651  0.010658091 0.0084223313         3885 
 5010000   0.44734971   -8.5057017    640.64589  0.010656119 0.0084193536         3885 
 5011000    0.4510847   -8.5332887    641.34373  0.010665598  0.008416379         3896 
 5012000   0.44968525   -8.5177933    640.80137  0.010654452 0.0084134056         3900 
Loop time of 13241.7 on 48 procs for 5000000 steps with 4000 atoms

Performance: 65248.373 tau/day, 377.595 timesteps/s
99.4% CPU use with 48 MPI tasks x no OpenMP threads

MPI task timing breakdown:
Section |  min time  |  avg time  |  max time  |%varavg| %total
---------------------------------------------------------------
Pair    | 998.39     | 1081.4     | 1166.4     | 153.6 |  8.17
Neigh   | 94.294     | 97.368     | 100.96     |  16.9 |  0.74
Comm    | 830.16     | 930.94     | 1024.5     | 171.4 |  7.03
Output  | 62.592     | 62.597     | 62.691     |   0.2 |  0.47
Modify  | 10916      | 10947      | 10982      |  16.5 | 82.67
Other   |            | 122        |            |       |  0.92

Nlocal:        83.3333 ave          89 max          79 min
Histogram: 6 5 4 1 5 8 9 5 3 2
Nghost:        2462.81 ave        2482 max        2441 min
Histogram: 2 2 3 7 9 6 6 9 1 3
Neighs:        17175.4 ave       19791 max       14779 min
Histogram: 2 9 3 6 7 3 8 4 2 4
FullNghs:      34349.8 ave       36919 max       32227 min
Histogram: 5 6 4 4 6 8 7 5 2 1

Total # of neighbors = 1648790
Ave neighs/atom = 412.19750
Neighbor list builds = 266527
Dangerous builds = 0

#clear
#
#next RN
#
#jump SELF
Total wall time: 3:40:45
