
units lj                  # Use reduced LJ style units
atom_style atomic         # Uncharged point particles
atom_modify map hash      # Needed for indexing of clusters etc
                          # Used to be able to find where atoms are in relation to each other.

lattice fcc 1.0 spacing 1 1 1
Lattice spacing in x,y,z = 1.5874011 1.5874011 1.5874011
region box block 0 10 0 10 0 10 units lattice
create_box 2 box
Created orthogonal box = (0.0000000 0.0000000 0.0000000) to (15.874011 15.874011 15.874011)
  3 by 4 by 4 MPI processor grid
create_atoms 1 box
Created 4000 atoms
  using lattice units in orthogonal box = (0.0000000 0.0000000 0.0000000) to (15.874011 15.874011 15.874011)
  create_atoms CPU = 0.002 seconds
set type 1 type/fraction 2 0.38 78393
Setting atom values ...
  1537 settings made for type/fraction
mass 1 1.0
mass 2 1.0
pair_style lj/cut  3.5
pair_modify tail  yes
pair_coeff 1  1  1.0  1.0   # Intearaction between 1 and 1 set with epsilon = 1 and sigma = 1
pair_coeff 1  2  1.5  0.8
pair_coeff 2  2  0.5  0.88

write_data data.0
System init for write_data ...
Neighbor list info ...
  update every 1 steps, delay 10 steps, check yes
  max neighbors/atom: 2000, page size: 100000
  master list distance cutoff = 3.8
  ghost atom cutoff = 3.8
  binsize = 1.9, bins = 9 9 9
  1 neighbor lists, perpetual/occasional/extra = 1 0 0
  (1) pair lj/cut, perpetual
      attributes: half, newton on
      pair build: half/bin/atomonly/newton
      stencil: half/bin/3d
      bin: standard
WARNING: Not all mixed pair coeffs generated from mixing. Use write_data with 'pair ij' option to store all pair coeffs. (../write_data.cpp:312)


#############################
#   M E L T   S Y S T E M   #
#############################

velocity all create 2.4 6229865 mom yes dist gaussian # Assign velocities
                                                    # Temperature 2.4, random number seed, zero linear momentum
                                                                                # Gaussian distribution

timestep 0.002   # simulation timestep
thermo 1000       # output thermodynamic data every 1000 steps bf 100

# Define a fix  in this case with index 1 applied to all
# particles in the simulation. This fix is for simulations
# in the anisotropic NPT ensemble. Note that we use the MTK
# correction.
fix 1 all npt temp 2.4 2.4 0.1 iso 5.68 5.68 0.5 mtk yes tchain 5 pchain 5 # Use NPT ensemble
                                                                         # Set temperature and pressure and damping
                                                                         # Numbers of thermostats in chain and in barostat
run 10000          # run for 10000 steps
Per MPI rank memory allocation (min/avg/max) = 3.642 | 3.644 | 3.648 Mbytes
Step Temp E_pair E_mol TotEng Press Volume 
       0          2.4   -5.9717516            0   -2.3726516   -4.1474152         4000 
    1000    2.3987554   -5.0094987            0   -1.4122652      5.19926    3987.0719 
    2000    2.3783901   -5.0324675            0   -1.4657743    5.9522103    3908.2588 
    3000    2.3638256   -5.0078445            0   -1.4629925    5.3773492    3977.0933 
    4000    2.4062838   -5.0309314            0    -1.422408    5.8503482    3929.3701 
    5000    2.4065197    -5.150553            0   -1.5416759    5.7829959    3881.4246 
    6000    2.3849902   -5.0559798            0    -1.479389    5.4889652    3938.5242 
    7000    2.3904307   -4.9819915            0   -1.3972418    5.9191273    3943.6692 
    8000    2.4359444   -5.1077892            0   -1.4547861    5.6480608    3905.3031 
    9000    2.4187823   -5.0337704            0   -1.4065041    6.0330704    3908.9231 
   10000    2.3945918   -4.9670787            0    -1.376089    5.4748294    3985.5195 
Loop time of 2.56952 on 48 procs for 10000 steps with 4000 atoms

Performance: 672498.156 tau/day, 3891.772 timesteps/s
99.7% CPU use with 48 MPI tasks x no OpenMP threads

MPI task timing breakdown:
Section |  min time  |  avg time  |  max time  |%varavg| %total
---------------------------------------------------------------
Pair    | 1.0537     | 1.1781     | 1.3684     |   4.2 | 45.85
Neigh   | 0.20918    | 0.217      | 0.2415     |   1.3 |  8.45
Comm    | 0.73777    | 0.89674    | 0.996      |   5.9 | 34.90
Output  | 0.0002449  | 0.00024921 | 0.0003154  |   0.0 |  0.01
Modify  | 0.20292    | 0.26203    | 0.33929    |   7.8 | 10.20
Other   |            | 0.01537    |            |       |  0.60

Nlocal:        83.3333 ave          91 max          74 min
Histogram: 2 1 7 1 7 9 9 4 7 1
Nghost:        1644.15 ave        1679 max        1611 min
Histogram: 1 1 3 10 12 9 5 1 5 1
Neighs:        9574.27 ave       10379 max        8334 min
Histogram: 2 2 0 6 7 5 5 9 4 8

Total # of neighbors = 459565
Ave neighs/atom = 114.89125
Neighbor list builds = 907
Dangerous builds = 206

# Equilibrate just above the melting temperature to avoid step fn in T

fix 1 all npt temp 1.25 1.25 0.1 iso 5.68 5.68 0.5 mtk yes tchain 5 pchain 5
run 2000
Per MPI rank memory allocation (min/avg/max) = 3.643 | 3.645 | 3.649 Mbytes
Step Temp E_pair E_mol TotEng Press Volume 
   10000    2.3945918   -4.9670787            0    -1.376089    5.4748294    3985.5195 
   11000    1.2273681   -6.9732962            0   -5.1327043    6.0090774     3125.965 
   12000     1.251612   -7.0516169            0   -5.1746683    5.5424321    3127.7405 
Loop time of 0.592716 on 48 procs for 2000 steps with 4000 atoms

Performance: 583078.955 tau/day, 3374.300 timesteps/s
99.6% CPU use with 48 MPI tasks x no OpenMP threads

MPI task timing breakdown:
Section |  min time  |  avg time  |  max time  |%varavg| %total
---------------------------------------------------------------
Pair    | 0.25787    | 0.28868    | 0.31091    |   1.9 | 48.71
Neigh   | 0.03983    | 0.041892   | 0.044949   |   0.5 |  7.07
Comm    | 0.18742    | 0.21355    | 0.24811    |   2.5 | 36.03
Output  | 5.1222e-05 | 5.3034e-05 | 7.1302e-05 |   0.0 |  0.01
Modify  | 0.040894   | 0.043891   | 0.047418   |   0.9 |  7.41
Other   |            | 0.004645   |            |       |  0.78

Nlocal:        83.3333 ave          90 max          78 min
Histogram: 8 3 6 1 4 14 4 3 0 5
Nghost:        1938.00 ave        1963 max        1919 min
Histogram: 4 4 8 8 4 6 8 3 1 2
Neighs:        12224.6 ave       13895 max       10748 min
Histogram: 4 2 3 9 8 8 8 5 0 1

Total # of neighbors = 586783
Ave neighs/atom = 146.69575
Neighbor list builds = 146
Dangerous builds = 23

#############################
# L I N E A R  Q U E N C H  #
#############################

# Define solid atoms. This closely follows ten Wolde  Ruiz-Montero and Frenkel  Faraday Discuss  1996  104  93-110
# Compute components of the per-atom q6 vector
compute q6 all orientorder/atom degrees 1 6 components 6 nnn NULL cutoff 1.3 # compute the Q6 parameter.
                                                                             # Use all neighbours within 1.3 unit cell.

# get number of connections
compute coord_number all coord/atom orientorder q6 0.5

# An atom is solid if it has 8 or more connections (of a possible 14)
variable is_solid atom c_coord_number>=8
group solid dynamic all var is_solid    # Must be dynamic to update
dynamic group solid defined

# do clustering
compute cluster solid cluster/atom 1.3 # Create a cluster where all atoms within are solid and max 1.3 units from another member

# define chunks one chunk per cluster
compute clus_chunks solid chunk/atom c_cluster nchunk every compress yes  # Says which atoms are in which chunk

# count the size of each chunk
compute size_chunks solid property/chunk clus_chunks count


# Find the maximum entry in the vector of chunk sizes
variable max_n equal max(c_size_chunks)


# Thermo style which includes this variable
# thermo_style custom step temp pe vol v_max_n

thermo ${N}  # Print the thermo information every 100 steps
thermo 1000  

# Reset the npt fix at a lower temperature (below freezing)
fix 1  all npt temp  ${temp} ${temp}  0.1  iso  5.68  5.68  0.5  mtk yes tchain  5  pchain  5
fix 1  all npt temp  0.45 ${temp}  0.1  iso  5.68  5.68  0.5  mtk yes tchain  5  pchain  5
fix 1  all npt temp  0.45 0.45  0.1  iso  5.68  5.68  0.5  mtk yes tchain  5  pchain  5

dump dmp2 all dcd ${N} traj.dcd
dump dmp2 all dcd 1000 traj.dcd


compute msd all msd com yes
variable twopoint equal c_msd[4]/6/(step*dt+1.0e-6)
fix 9 all vector 10 c_msd[4]
variable fit equal slope(f_9)/6/(10*dt)
thermo_style custom step temp pe c_msd[4] v_twopoint v_fit v_max_n

fix 1 all npt temp 1.25 ${temp} 0.1 iso 5.68 5.68 0.5 mtk yes tchain 5 pchain 5
fix 1 all npt temp 1.25 0.45 0.1 iso 5.68 5.68 0.5 mtk yes tchain 5 pchain 5
run 500000 # 5000000  # Run for this many steps
Neighbor list info ...
  update every 1 steps, delay 10 steps, check yes
  max neighbors/atom: 2000, page size: 100000
  master list distance cutoff = 3.8
  ghost atom cutoff = 3.8
  binsize = 1.9, bins = 8 8 8
  4 neighbor lists, perpetual/occasional/extra = 1 3 0
  (1) pair lj/cut, perpetual
      attributes: half, newton on
      pair build: half/bin/atomonly/newton
      stencil: half/bin/3d
      bin: standard
  (2) compute orientorder/atom, occasional
      attributes: full, newton on
      pair build: full/bin/atomonly
      stencil: full/bin/3d
      bin: standard
  (3) compute coord/atom, occasional
      attributes: full, newton on
      pair build: full/bin/atomonly
      stencil: full/bin/3d
      bin: standard
  (4) compute cluster/atom, occasional
      attributes: full, newton on
      pair build: full/bin/atomonly
      stencil: full/bin/3d
      bin: standard
Per MPI rank memory allocation (min/avg/max) = 9.821 | 9.827 | 9.832 Mbytes
Step Temp PotEng c_msd[4] v_twopoint v_fit v_max_n 
   12000     1.251612   -7.0516169 1.8230576e-30 1.2660121e-32 8.3333333e+20            2 
   13000    1.2615317   -7.0274172   0.46481011 0.0029795519  0.037939842            3 
   14000    1.2363426   -7.0814145   0.89100686 0.0053036121    0.0359651            1 
   15000     1.260299    -7.122501    1.3267866 0.0073710363  0.036722712            2 
   16000    1.2422534   -7.1101341    1.7502962 0.0091161256  0.036151641            2 
   17000    1.2544025   -7.1021618    2.2002897  0.010785734  0.036154192            1 
   18000    1.2263207   -7.0816422    2.5891895  0.011986988  0.035924255            1 
   19000    1.2163196   -7.0816352    3.0160341  0.013228219  0.035732233            2 
   20000    1.2286407   -7.0868598    3.5041096  0.014600456  0.035677741            2 
   21000    1.2470025   -7.1412046    4.0236454  0.015966847  0.036073195            2 
   22000    1.2529344   -7.1342977    4.4921486  0.017015714  0.036583936            2 
   23000    1.2077973    -7.148405    4.9693026  0.018004719   0.03703672            1 
   24000    1.2437664   -7.1565282    5.3339841  0.018520778  0.037264392            1 
   25000    1.2170558   -7.0780069    5.8107717  0.019369239  0.037156767            1 
   26000    1.2067468   -7.1230968     6.174258  0.019789288  0.037126439            2 
   27000    1.2269184   -7.1328897    6.4625447  0.019946125  0.036875635            3 
   28000    1.2296545   -7.1530807    6.7748932  0.020163372  0.036412149            1 
   29000    1.2272492   -7.1571541    7.1711656  0.020606797  0.035995398            1 
   30000    1.2296574   -7.0752442    7.7511208  0.021530891   0.03576268            1 
   31000    1.2305421   -7.1402394    8.1864766  0.022006657  0.035776526            2 
   32000    1.2269125   -7.1518364    8.6002906   0.02239659  0.035724559            2 
   33000    1.2163686   -7.1764747    9.0182786   0.02277343  0.035665067            2 
   34000    1.1859956   -7.0847941    9.4855931  0.023249002  0.035638342            3 
   35000    1.2250733   -7.1280542    9.8886869  0.023544492  0.035595891            1 
   36000    1.2094095   -7.1580191    10.344244  0.023945009  0.035599512            1 
   37000     1.201948   -7.1409514    10.878243  0.024500547  0.035655753            3 
   38000     1.179614   -7.1782849    11.282646  0.024742645  0.035717134            1 
   39000    1.2231251   -7.1899494    11.627869  0.024845873  0.035728225            2 
   40000    1.2061808    -7.176926    12.063816  0.025132949  0.035736339            1 
   41000    1.2199304   -7.1365761    12.417853  0.025239539  0.035695947            4 
   42000    1.2128358   -7.2112607    12.871485   0.02553866  0.035667777            2 
   43000    1.1934321   -7.1951207    13.158512  0.025500992  0.035594055            2 
   44000    1.1639631   -7.1601432    13.580218  0.025720109  0.035511838            2 
   45000    1.1686257   -7.1619534    13.893824  0.025729304  0.035386928            2 
   46000     1.183239   -7.1410528     14.27704  0.025864203   0.03527094            1 
   47000    1.2189846   -7.1502272    14.631007  0.025941501  0.035148695            1 
   48000    1.2058321   -7.1986276    14.978361  0.026004098   0.03503082            1 
   49000    1.1786226   -7.1545735    15.335797  0.026081287  0.034906525            2 
   50000    1.1931846   -7.1840835    15.695392  0.026158986  0.034774953            2 
   51000     1.174126   -7.2497104    16.034565   0.02620027  0.034656457            1 
   52000    1.1873684   -7.1922868    16.504949  0.026450238  0.034542697            1 
   53000    1.1823413   -7.1930362    16.909648  0.026587497  0.034454688            1 
   54000    1.1667155   -7.2134195     17.16731  0.026492762  0.034351912            3 
   55000    1.1814925   -7.1917314    17.623717  0.026702601  0.034248596            2 
   56000    1.1792146   -7.2269657    17.995258  0.026778658  0.034150879            1 
   57000    1.1741016   -7.2082819    18.426375  0.026939145  0.034059034            1 
   58000    1.1705038    -7.235751    18.812833  0.027029932  0.033985762            1 
   59000    1.2012738   -7.2335892    19.212805   0.02713673  0.033920797            1 
   60000    1.2177334   -7.2474446    19.570408  0.027181122  0.033857389            2 
   61000    1.1807343     -7.23483    19.981986  0.027297796  0.033798389            1 
   62000     1.174892   -7.2544457    20.356729  0.027361195  0.033740943            2 
   63000    1.1622842   -7.2475612    20.676929  0.027350435  0.033688838            2 
   64000    1.1674765    -7.221986     21.10024  0.027474271  0.033634715            1 
   65000    1.1972334    -7.263298    21.454435  0.027505685  0.033579976            1 
   66000    1.1652822   -7.2864786    21.726226  0.027432104  0.033526681            2 
   67000    1.1844987    -7.230323    22.178916  0.027585716  0.033464623            1 
   68000    1.1665359    -7.258701    22.383091  0.027430259  0.033389266            1 
   69000    1.1374429   -7.2535804    22.758381  0.027485968   0.03330399            4 
   70000    1.1787784   -7.2843959    22.906526  0.027269674  0.033207599            1 
   71000    1.1548109   -7.3346149    23.011237  0.027008494  0.033088014            1 
   72000    1.1573479    -7.244165    23.395282  0.027077873  0.032956807            1 
   73000    1.1918785   -7.3366761    23.676687  0.027028181   0.03283148            1 
   74000    1.1502347   -7.3158252    24.060356  0.027094995  0.032712594            3 
   75000     1.155094   -7.3206201    24.409322  0.027121469  0.032608219            1 
   76000     1.119647   -7.2840853    24.734733  0.027121418  0.032508315            1 
   77000    1.1429362   -7.3250448     24.97493  0.027029145  0.032401597            2 
   78000    1.1229267   -7.3317967    25.216073  0.026940249  0.032285042            1 
   79000    1.1782598   -7.3250412    25.582905  0.026986186  0.032163212            1 
   80000    1.1331236   -7.3080055    25.955705  0.027037192  0.032048062            3 
   81000    1.1506308   -7.2963753     26.40958   0.02717035  0.031945141            3 
   82000    1.1315716   -7.3084505    26.607767  0.027040414  0.031848836            2 
   83000    1.1300504   -7.3276503    26.953071  0.027061316  0.031749735            3 
   84000    1.1312619    -7.327428    27.109295  0.026894141  0.031644426            5 
   85000    1.1070107   -7.3191221    27.411426  0.026873947  0.031533612            2 
   86000    1.1403445   -7.3657947    27.447816  0.026596721  0.031415337            2 
   87000    1.1452571    -7.394835    27.754959   0.02658521  0.031291436            2 
   88000    1.1461945   -7.3425618    28.122774  0.026631414  0.031173369            3 
   89000    1.1160742    -7.355793    28.560565  0.026742102  0.031065993            2 
   90000    1.1260809   -7.3501338    28.709887  0.026583229  0.030950264            1 
   91000    1.1049962   -7.3425221    28.915929  0.026479789   0.03083541            2 
   92000    1.1352099   -7.3253645    29.213565  0.026461563  0.030720094            2 
   93000    1.1463571   -7.3404463    29.470024  0.026406832  0.030606699            5 
   94000    1.0998746   -7.3870664      29.7326  0.026358688  0.030494559            1 
   95000    1.1451106   -7.3242956    30.141946  0.026440303  0.030386724            1 
   96000    1.1255232   -7.3759513    30.491934  0.026468693  0.030287433            1 
   97000    1.1025975   -7.4007825    30.961051  0.026598841    0.0301989            1 
   98000    1.0901135   -7.4110812    31.247487  0.026570992  0.030113194            3 
   99000    1.1139892    -7.372645    31.506925  0.026520981  0.030025095            1 
  100000    1.0965192   -7.4107948    31.647901  0.026373251  0.029933363            2 
  101000    1.0941284   -7.4217904    32.045905  0.026440516  0.029845255            2 
  102000    1.1031631   -7.4037014    32.272825  0.026366687  0.029760513            1 
  103000    1.0919965   -7.3889692    32.546175  0.026331857  0.029676249            2 
  104000    1.1016004   -7.3873588    32.825165  0.026302216  0.029598754            2 
  105000    1.1049406   -7.3886113     33.07855  0.026252817  0.029518839            2 
  106000    1.0789013   -7.3975764    33.630174  0.026438816  0.029440966            1 
  107000    1.0770903   -7.4384018    33.630922  0.026192306  0.029364962            2 
  108000    1.1122488   -7.4380761    33.764198  0.026052622  0.029280674            1 
  109000    1.0923887   -7.4333092    34.118769  0.026084686  0.029199258            1 
  110000    1.0905179    -7.434373    34.505425  0.026140473  0.029119294            2 
  111000    1.0946801   -7.4512727    34.743798  0.026083932  0.029040302            1 
  112000    1.0896041   -7.4401185     35.09338  0.026111146  0.028962134            1 
  113000    1.0896215   -7.4432826    35.313433  0.026042355  0.028885491            1 
  114000    1.0620916   -7.4570736    35.646969  0.026057725  0.028812335            2 
  115000    1.0853486   -7.4630439    35.812887  0.025951367  0.028739642            2 
  116000    1.0694321     -7.46488    35.935256  0.025815557  0.028665572            2 
  117000    1.0630515   -7.4317891    36.187227  0.025774378  0.028584537            2 
  118000    1.0902691   -7.5026024    36.526728  0.025795711  0.028505814            1 
  119000    1.0731711   -7.4549406    37.117699  0.025992786  0.028433587            2 
  120000     1.082334   -7.4501202    37.238295  0.025859927  0.028366703            2 
  121000    1.0899923   -7.4446116    37.619748  0.025908917  0.028298891            2 
  122000    1.0527298   -7.4625773    37.817433   0.02583158  0.028233832            3 
  123000    1.0891104   -7.4684803    37.928732  0.025696973  0.028164382            1 
  124000     1.086591    -7.511634     38.06818  0.025583454  0.028092568            1 
  125000    1.0796968   -7.4857919    38.412596  0.025608397   0.02802169            1 
  126000    1.0718848   -7.5681392    38.617632  0.025540762  0.027951358            3 
  127000    1.0837981   -7.4855536    39.054124  0.025626066  0.027884024            1 
  128000    1.0799328   -7.4745862    39.243193  0.025548954  0.027817651            1 
  129000    1.0677904   -7.4888521    39.451523   0.02548548  0.027748751            5 
  130000    1.0662606   -7.4879359    39.644756  0.025413305  0.027679099            2 
  131000    1.0776936   -7.5372075    39.753167  0.025288274  0.027609511            3 
  132000    1.0384683   -7.5019748    40.108122  0.025320784  0.027539229            3 
  133000    1.0596061   -7.5225051    40.171161    0.0251699  0.027468046            1 
  134000    1.0536518   -7.4962152    40.647468  0.025278276  0.027398723            1 
  135000    1.0507293   -7.5019639    41.005973  0.025312329   0.02733284            3 
  136000    1.0229164   -7.5173686    41.005099  0.025125673  0.027266806            1 
  137000    1.0491285   -7.5442817    41.429196  0.025200241  0.027200465            2 
  138000    1.0728842   -7.5415569    41.507493  0.025064911  0.027135506            2 
  139000    1.0529047   -7.5138538    41.815674  0.025069349  0.027069783            1 
  140000    1.0472814    -7.577883    42.083983   0.02504999  0.027004057            1 
  141000    1.0571131   -7.5304117    42.443674  0.025084914  0.026942125            2 
  142000    1.0426062   -7.5691794    42.563842   0.02497878   0.02688258            1 
  143000    1.0423121   -7.5519944    42.843169  0.024966882  0.026822648            2 
  144000    1.0614844    -7.583845    43.148815  0.024970379  0.026763722            2 
  145000    1.0433741   -7.5649605    43.515187  0.025008728  0.026705911            3 
  146000    1.0322872   -7.5418033    43.810285   0.02500587  0.026650113            3 
  147000    1.0438219   -7.6036008    43.928863  0.024902984  0.026593075            2 
  148000    1.0420275   -7.5975053    44.041676  0.024798241  0.026536519            1 
  149000    1.0299082   -7.6077564    44.273372  0.024761394  0.026477473            1 
  150000     1.042749   -7.5818515    44.595815  0.024775453  0.026418875            4 
  151000    1.0318913   -7.6010963    44.810191  0.024729686  0.026359887            1 
  152000    1.0262658   -7.5634156    44.987842  0.024664387   0.02630249            1 
  153000    1.0239602   -7.5547747    45.425841  0.024741743  0.026245237            2 
  154000    1.0455425   -7.5662932    45.540772  0.024643275  0.026189053            3 
  155000    1.0436262   -7.5807207     45.67468   0.02455628  0.026130384            3 
  156000    1.0252556   -7.5997414    45.758974  0.024443896  0.026070059            4 
  157000    1.0305072   -7.6177139    45.932314  0.024380209   0.02600991            3 
  158000    1.0084975   -7.6449659    46.145203  0.024338187   0.02594843            3 
  159000    1.0042722   -7.6432266    46.297677   0.02426503   0.02588686            1 
  160000    1.0376308   -7.5806157    46.395001  0.024164063  0.025823852            1 
  161000    1.0145092   -7.6112741    46.546406  0.024092342  0.025759659            2 
  162000   0.98696506   -7.6085077     46.68212  0.024013436  0.025693857            3 
  163000    1.0133534     -7.65405     46.69871  0.023874596  0.025626289            1 
  164000   0.98365995   -7.6206167    46.983387  0.023873672  0.025557551            3 
  165000   0.99859843   -7.6361995    47.250125  0.023863699  0.025491576            2 
  166000    0.9927453   -7.6501538    47.284196  0.023737046  0.025424812            2 
  167000    1.0156628   -7.6323559    47.477145   0.02369119  0.025354263            1 
  168000   0.99671407   -7.6697938    47.617956  0.023620018  0.025285289            1 
  169000   0.98049168   -7.6606811    47.823317  0.023581517  0.025215713            1 
  170000   0.99494033   -7.6694575    48.019686  0.023539062  0.025146078            2 
  171000   0.99575746   -7.6709336    48.212961  0.023495595  0.025077355            1 
  172000    1.0043505    -7.682637    48.351152  0.023425946  0.025009127            2 
  173000   0.97557646   -7.6792224    48.552256  0.023387406  0.024939912            1 
  174000   0.99193451   -7.6710399    48.660517  0.023304845  0.024870763            2 
  175000    1.0072399   -7.6949547    48.684394  0.023183045  0.024800357            2 
  176000    1.0027482   -7.7333759     48.96022  0.023181922  0.024730701            2 
  177000   0.95749317   -7.6925201    49.157233  0.023143707  0.024661453            2 
  178000   0.98025548   -7.7074459    49.323991  0.023091756   0.02459239            2 
  179000   0.96394175    -7.701776     49.28786  0.022945931  0.024521889            6 
  180000   0.99621351   -7.7065869    49.488559   0.02291137  0.024450237            1 
  181000   0.99330902   -7.7379477     49.53125  0.022804443  0.024377939            1 
  182000   0.96910609   -7.7620421    49.860824  0.022830048  0.024305132            1 
  183000   0.98457657   -7.7017306    50.044465  0.022788918  0.024234802            2 
  184000    0.9937914   -7.7252398    50.195103  0.022733289  0.024164848            2 
  185000   0.96973416   -7.7303368    50.358761  0.022684127  0.024095442            2 
  186000   0.98269378   -7.7383973    50.377827  0.022570711  0.024025738            1 
  187000   0.98519202   -7.7219329    50.589091  0.022544158  0.023956312            1 
  188000   0.96377975   -7.7575288    50.747374  0.022494403  0.023888011            3 
  189000   0.98342465   -7.7517014    51.129806  0.022544006  0.023819651            4 
  190000   0.97076634   -7.7442611    51.312701  0.022505571  0.023753447            1 
  191000   0.98625176    -7.749054    51.404336  0.022427721  0.023687717            1 
  192000   0.94543476   -7.7950038    51.353623  0.022288899  0.023621343            3 
  193000   0.99200987   -7.7858708    51.737567  0.022339191  0.023555649            1 
  194000   0.94847765   -7.7521303    51.919167  0.022302048  0.023490806            2 
  195000   0.95860017   -7.7891488    51.883989  0.022172645  0.023425419            3 
  196000   0.93729722   -7.7871405    51.877406   0.02205672  0.023357885            1 
  197000   0.94991318   -7.7744515    52.230485  0.022094114   0.02329092            1 
  198000   0.95036499   -7.7808749    52.265278  0.021997171  0.023224973            1 
  199000    0.9551606   -7.7922005    52.486492  0.021979268  0.023158115            1 
  200000   0.94757771   -7.7928851    52.502848  0.021876187   0.02309124            1 
  201000   0.94009066   -7.7884432    52.573205  0.021796519  0.023023581            1 
  202000    0.9286506   -7.7810399    52.771179  0.021770288  0.022956789            1 
  203000   0.93617621   -7.8183914     52.84224  0.021692217  0.022889064            3 
  204000   0.94614267   -7.7915724    53.081287  0.021683532  0.022822089            2 
  205000   0.95179823   -7.8073435    53.058243  0.021568392  0.022755183            4 
  206000   0.93236981   -7.8159694    53.157176  0.021503712  0.022688326            1 
  207000   0.94487905   -7.8296423    53.237231  0.021432057   0.02262008            3 
  208000   0.91450614     -7.86469    53.352282  0.021375113  0.022551946            3 
  209000   0.94347103   -7.8138868    53.653624  0.021392992  0.022484693            3 
  210000   0.93077084    -7.873261     53.68879  0.021305075  0.022418337            3 
  211000   0.92406249   -7.8247183    53.908316  0.021290804  0.022351567            1 
  212000   0.92376358   -7.8530212    54.070615  0.021254172  0.022286527            1 
  213000   0.92211374   -7.8294301    54.240996  0.021221047  0.022222172            3 
  214000   0.94276839   -7.8679245    54.244499  0.021123247  0.022157318            1 
  215000   0.95464415   -7.8724148    54.291692  0.021043291  0.022092487            4 
  216000   0.93322857   -7.8662566    54.584616   0.02105888  0.022028298            2 
  217000   0.91906771   -7.8594703    54.726941  0.021016491   0.02196423            1 
  218000   0.93319961   -7.8406738    54.871115  0.020975197  0.021899323            2 
  219000    0.9228684   -7.8478552    54.785156  0.020846711  0.021834874            3 
  220000   0.91760145   -7.8617299    55.060323  0.020856183    0.0217701            2 
  221000   0.91699367   -7.8423636    55.075069  0.020767372  0.021706043            3 
  222000   0.90924681   -7.8879067    55.325387  0.020767788  0.021642752            2 
  223000   0.90942994   -7.8453118    55.619092  0.020784414  0.021580054            2 
  224000   0.91167055   -7.8967424    55.674765  0.020712338  0.021518212            4 
  225000   0.90938165   -7.8839012     55.63306  0.020604837  0.021455539            5 
  226000   0.91203321   -7.8934144    55.625176  0.020510758  0.021391719            2 
  227000    0.9010587   -7.9311104    55.718161  0.020454538   0.02132821            2 
  228000   0.91997609   -7.9309835    55.896113  0.020429866  0.021264814            2 
  229000    0.8980797   -7.8943644    56.164266  0.020438234  0.021202596            2 
  230000   0.91313435   -7.9289624    56.193999  0.020360144  0.021140053            2 
  231000   0.89635748    -7.892383    56.449472  0.020364167  0.021078319            3 
  232000   0.91076217   -7.9479709    56.261558  0.020208893  0.021016996            1 
  233000   0.88697393   -7.9375121    56.431141  0.020182811  0.020955732            1 
  234000   0.91539744   -7.8943432    56.720234  0.020199513  0.020895425            3 
  235000    0.8971493   -7.9018208    56.864399   0.02016468  0.020835679            1 
  236000   0.89946037   -7.9052261    57.058918  0.020147923  0.020777966            2 
  237000   0.88217166   -7.9332823    57.310192  0.020151263  0.020720447            2 
  238000   0.89303305   -7.9317981    57.215586  0.020033469  0.020662021            5 
  239000   0.86191204   -7.9930883     57.27531  0.019970471  0.020602746            3 
  240000   0.89544283   -7.9377317    57.306007  0.019897919  0.020543936            1 
  241000    0.8837759   -7.9718615    57.333243  0.019824773   0.02048385            5 
  242000   0.90069563   -7.9403044    57.686498  0.019864497    0.0204248            2 
  243000   0.87079804   -7.9555214    57.780532  0.019814997  0.020366494            2 
  244000   0.87867207   -7.9554637    57.653084  0.019690261  0.020308225            2 
  245000    0.8594704   -7.9537474    57.628481  0.019601524  0.020249181            3 
  246000   0.88666319   -8.0031256    57.788854   0.01957617  0.020189862            2 
  247000   0.87480175   -7.9444617     57.82631  0.019509551  0.020130109            2 
  248000   0.86248031   -7.9949079    57.921994  0.019463035  0.020070204            1 
  249000   0.86884273   -7.9758572    58.227208  0.019487017  0.020010771            2 
  250000   0.86234698   -7.9630858    58.119066  0.019373022  0.019952158            3 
  251000   0.88716204   -8.0262497    58.173443  0.019313892  0.019892602            1 
  252000   0.86664576   -7.9989583    58.167214   0.01923519  0.019833314            3 
  253000   0.88567132   -8.0346187    58.210446  0.019173401  0.019772985            1 
  254000    0.8603601   -8.0437167    58.374105  0.019151609  0.019713083            1 
  255000   0.86495694   -8.0355466    58.538489  0.019130225  0.019654163            3 
  256000    0.8473374   -8.0415694    58.626973  0.019084301  0.019595087            2 
  257000   0.83831818   -8.0180724    58.615687  0.019006384  0.019535919            2 
  258000   0.87214494   -8.0250249    58.415414  0.018868028  0.019476342            1 
  259000   0.85061576   -8.0316444    58.662812  0.018874778  0.019416335            2 
  260000   0.85817459   -8.0254676    58.845042   0.01886059  0.019357189            1 
  261000   0.82797547   -8.0431857     58.83536  0.018785236  0.019297894            6 
  262000   0.84223237   -8.0514525     58.97533  0.018758057  0.019239495            3 
  263000    0.8627098   -8.0308128    59.080376  0.018720018  0.019180985            2 
  264000   0.85421052   -8.0448974    59.082683  0.018649837  0.019122879            3 
  265000   0.83014026   -8.0423794     59.14997   0.01860062  0.019064301            1 
  266000   0.85542921   -8.1032769    58.876553  0.018445035  0.019005186            1 
  267000   0.85774667   -8.0805256     59.02466  0.018422179  0.018946059            2 
  268000   0.83327921   -8.0615448    59.352086  0.018455251  0.018887795            2 
  269000   0.84118314   -8.0936258    59.407362  0.018403768  0.018829603            1 
  270000    0.8156871   -8.0864922     59.47518  0.018356537  0.018771514            2 
  271000   0.84519637    -8.108578     59.41026  0.018268838  0.018713547            1 
  272000   0.82492353   -8.0756476    59.653865  0.018276307   0.01865591            3 
  273000   0.83424789   -8.0987041    59.436686  0.018143066  0.018598702            3 
  274000   0.84521017   -8.1100964    59.654728  0.018143165  0.018541432            1 
  275000   0.83016227   -8.0487471    59.777901  0.018114515  0.018484325            2 
  276000   0.82575372   -8.1376371    59.655765  0.018012006   0.01842671            2 
  277000   0.83488938   -8.1279154    59.673375  0.017952279  0.018369166            2 
  278000   0.83249439   -8.1090504    59.747382  0.017909887  0.018311282            5 
  279000   0.81446775   -8.1464894     59.94955  0.017906078  0.018254177            2 
  280000   0.81156718   -8.1449131    59.994441  0.017855488  0.018197482            2 
  281000   0.81304239   -8.1114895    60.092579  0.017821049  0.018140937            7 
  282000   0.83193516   -8.1682317    60.001493  0.017730938  0.018084188            2 
  283000   0.82135128   -8.1591317    60.106955  0.017699339  0.018027357            1 
  284000   0.81802917   -8.1151945    60.299289  0.017693453  0.017971086            2 
  285000   0.81897091   -8.1405801    60.296264  0.017630487  0.017915301            2 
  286000    0.8178589   -8.1564209    60.352932  0.017585353  0.017860051            2 
  287000   0.79143591   -8.1416237    60.615342  0.017600274  0.017805238            2 
  288000   0.81004003   -8.1442936     60.56096  0.017523426  0.017751157            3 
  289000   0.79935901   -8.1746705    60.654159  0.017489665  0.017696821            3 
  290000   0.81863686   -8.1478054    60.706037  0.017444263  0.017642988            5 
  291000   0.80366033   -8.1972607    60.688124  0.017379188  0.017589091            2 
  292000    0.7914979   -8.1707985    60.735467  0.017333181   0.01753504            2 
  293000   0.79043187   -8.1461112    61.034839  0.017359169  0.017481126            4 
  294000   0.80411269   -8.1696963    60.960421  0.017279031   0.01742754            2 
  295000   0.80025106   -8.1825834    60.889804   0.01720051  0.017373794            3 
  296000   0.77605067   -8.2157025    60.930258  0.017153789   0.01732029            2 
  297000   0.78905432   -8.1997058    61.101155  0.017143983  0.017266722            2 
  298000   0.79926243   -8.2248305     60.95744  0.017046264  0.017213446            2 
  299000   0.79319553    -8.226379     61.06647  0.017019641  0.017160225            5 
  300000   0.78170672   -8.2377709    61.044244  0.016956735   0.01710673            3 
  301000     0.790525   -8.1823381    61.187854  0.016940159  0.017052802            7 
  302000   0.78570219   -8.2075989    61.160254   0.01687645  0.016999353            4 
  303000   0.80441234   -8.2309257    61.006015  0.016778332  0.016945976            1 
  304000   0.78231676   -8.2037881    61.127394  0.016756413  0.016892307            2 
  305000   0.77212036   -8.2465942     61.13791  0.016704347  0.016838429            3 
  306000   0.76829677   -8.2451335    61.068488  0.016630852  0.016784581            2 
  307000   0.76929859   -8.2340737    61.194337  0.016610841  0.016731001            3 
  308000   0.77297788   -8.2250926    61.273577  0.016578349   0.01667756            2 
  309000   0.77636654    -8.258195    61.175272  0.016498186  0.016624053            2 
  310000   0.77697803   -8.2737921    61.065821  0.016415543  0.016570375            4 
  311000   0.77762808   -8.2400553    61.339059  0.016435975  0.016516834            4 
  312000   0.77393447   -8.2903797    61.064184  0.016309878  0.016463182            3 
  313000   0.76540639   -8.2645124    61.168213  0.016285467  0.016409185            4 
  314000   0.76264497   -8.2732081    61.324257  0.016275015  0.016355285            2 
  315000   0.76308555   -8.3006352    61.101518  0.016164423  0.016301219            3 
  316000   0.75298327   -8.3040649    61.034446  0.016095582   0.01624703            3 
  317000   0.76310787   -8.2713634    61.198348  0.016087894  0.016193252            2 
  318000   0.77725643   -8.3154594    61.145047  0.016023335   0.01613966            4 
  319000   0.76127122   -8.2833077    61.154243  0.015975508  0.016086118            2 
  320000    0.7545444   -8.2988061    61.200395  0.015937603  0.016032626            2 
  321000   0.75565702   -8.2752558    61.441911  0.015950652  0.015979782            3 
  322000   0.75035706   -8.3318398    61.197083  0.015837754  0.015926427            2 
  323000   0.76074271   -8.3090637    61.192955  0.015787656  0.015873246            7 
  324000   0.74141097   -8.2825512    61.279593  0.015761212  0.015820271            2 
  325000    0.7477538   -8.2987575    61.243783  0.015703534  0.015767679            1 
  326000   0.76505884   -8.3059285      61.3552  0.015683845  0.015715113            4 
  327000   0.74518354   -8.3140644    61.412186  0.015650404  0.015662938            3 
  328000   0.73907265   -8.3012573    61.457439  0.015614187    0.0156108            1 
  329000   0.73778916   -8.3170723    61.299121  0.015526626  0.015558555            2 
  330000   0.73097587   -8.3417915    61.401801  0.015505505  0.015506371            1 
  331000   0.73908397    -8.342168    61.539076  0.015493222   0.01545455            2 
  332000   0.73312927   -8.3430229    61.447808  0.015423647  0.015402455            4 
  333000   0.75122368   -8.3631607    61.303808  0.015341293  0.015350607           11 
  334000   0.73064465   -8.3310214    61.418663  0.015324018  0.015298715            4 
  335000   0.74435417   -8.3686289    61.283709  0.015244704  0.015246729            2 
  336000   0.73693011   -8.3645285    61.301259  0.015203685   0.01519475            4 
  337000   0.74000826    -8.387702    61.274425  0.015151935  0.015142553            2 
  338000   0.70854401   -8.3778298    61.361427  0.015128557  0.015090685            2 
  339000    0.7231544   -8.3857645    61.323393   0.01507458  0.015038871            3 
  340000    0.7063698   -8.3860514     61.26024  0.015014765  0.014987266            2 
  341000   0.73716824   -8.3812009    61.418679  0.015009452  0.014936017            5 
  342000   0.71725857   -8.3962582    61.360662  0.014951428  0.014884764            1 
  343000   0.71775476   -8.4300319    61.330038  0.014900398  0.014833789            1 
  344000   0.74304103   -8.4263234    61.360832  0.014864543  0.014782843            2 
  345000   0.70980342   -8.4014225    61.540201  0.014864783  0.014732383            2 
  346000   0.72644813    -8.406902    61.652851  0.014848952  0.014681914            1 
  347000   0.72721852   -8.3951307    61.510519  0.014771979  0.014631669            1 
  348000   0.71711959   -8.4071733    61.476055  0.014721278  0.014581654            2 
  349000   0.70876722   -8.3737708    61.427888  0.014667595  0.014531645            2 
  350000   0.71332599   -8.4127132    61.452776  0.014631613  0.014481427            5 
  351000   0.71664073   -8.4248315    61.387546  0.014574441  0.014431413            4 
  352000   0.68879049   -8.4108581     61.32287  0.014517725  0.014381367            4 
  353000   0.69055245   -8.4275134    61.428103  0.014501441  0.014331575            2 
  354000    0.7098161   -8.4234965    61.334542  0.014438451  0.014281649            1 
  355000    0.6992147   -8.4263641    61.346633  0.014400618  0.014231966            2 
  356000   0.67750015   -8.4435802    61.451627  0.014384744  0.014182455            1 
  357000   0.69430963   -8.4192603    61.294303  0.014307727  0.014132957            3 
  358000   0.70783517   -8.4417482    61.512064  0.014318451  0.014083641            9 
  359000   0.70247753   -8.4317269    61.573315  0.014292784   0.01403497            3 
  360000   0.70126751   -8.4347953    61.450577  0.014224671   0.01398633            3 
  361000   0.69544022   -8.4479135    61.281456  0.014146227  0.013937657            2 
  362000   0.68066803   -8.4523621    61.361909   0.01412567  0.013889127            4 
  363000   0.67804125   -8.4297577    61.498378  0.014118085   0.01384066            2 
  364000   0.68763825   -8.4467878    61.265788   0.01402605  0.013792403            3 
  365000   0.69368592   -8.4549511    61.365161  0.014010311  0.013744126            3 
  366000   0.68033031   -8.4720747    61.493709    0.0140013  0.013696318            2 
  367000      0.68806     -8.49517    61.466544  0.013956981  0.013648781            2 
  368000   0.68092721   -8.4704059    61.430713   0.01391094  0.013601125            4 
  369000   0.68499018   -8.4771059    61.318957  0.013848003  0.013553497            2 
  370000    0.6839515   -8.4840995    61.470958   0.01384481  0.013506086            2 
  371000   0.67586673   -8.4930374    61.525842  0.013819821  0.013458872            6 
  372000   0.68560794   -8.4980776    61.439043  0.013763226  0.013411856            4 
  373000   0.67220019   -8.5074787    61.462661  0.013731604  0.013364966            3 
  374000   0.65767471   -8.5169427    61.353264  0.013670513   0.01331828            3 
  375000    0.6777464   -8.5164832    61.428981  0.013650885  0.013271967            7 
  376000   0.66887769    -8.499777     61.45435  0.013620202  0.013225932            1 
  377000   0.67449393   -8.5062506    61.482966  0.013590399  0.013179994            2 
  378000    0.6716863   -8.5157668    61.453444  0.013547937  0.013134203            3 
  379000   0.66418187    -8.534956    61.410611  0.013502773  0.013088474            1 
  380000   0.65315937   -8.5191211    61.478083  0.013482036  0.013043186            2 
  381000   0.67172348   -8.5097686    61.519644   0.01345574  0.012998031            2 
  382000   0.65517717   -8.5418554     61.53415   0.01342368  0.012952907            2 
  383000   0.65088727   -8.5430463      61.4123  0.013362119  0.012908138            5 
  384000   0.66957417   -8.5646933      61.2676   0.01329592  0.012863075            4 
  385000    0.6517091   -8.5597029    61.415063  0.013293304  0.012818155            2 
  386000   0.64480583   -8.5828083     61.38114  0.013251541  0.012773576            3 
  387000   0.65791491   -8.5703029     61.37716  0.013216443  0.012729158            4 
  388000   0.64992851   -8.5760368    61.436926  0.013195216  0.012684866            3 
  389000    0.6499703   -8.5726955    61.363587  0.013145584  0.012640701            2 
  390000   0.64188645    -8.582978    61.376468   0.01311463  0.012596594            3 
  391000   0.62998211   -8.5719074    61.480386  0.013103237  0.012552769            3 
  392000   0.63336834   -8.5707223    61.548813  0.013084356  0.012509198            3 
  393000   0.65387205   -8.5817786     61.37481  0.013014167  0.012465642            5 
  394000   0.65249824   -8.5974428    61.373531  0.012980865  0.012422362            3 
  395000   0.63978799   -8.6166997    61.308007  0.012934179  0.012379166            2 
  396000   0.64359013   -8.6163304    61.403693  0.012921652   0.01233609            4 
  397000   0.64431682   -8.6275622    61.363241  0.012880613  0.012293199            3 
  398000      0.63758   -8.6286218    61.421557   0.01286046  0.012250488            3 
  399000   0.62698389   -8.6025555    61.325126  0.012808088  0.012207957            5 
  400000   0.62824793   -8.6366838    61.201678   0.01275035  0.012165562            4 
  401000   0.63883775    -8.631719    61.343052  0.012747933  0.012123301            3 
  402000   0.61608355   -8.6331831    61.342027  0.012716009  0.012081201            2 
  403000   0.63452911   -8.6052003    61.310913  0.012678022  0.012039184            3 
  404000   0.62161662   -8.6465412    61.311967  0.012646858  0.011997425            4 
  405000   0.62174506   -8.6539019    61.387222  0.012631116  0.011955611            4 
  406000   0.62644277   -8.6334816    61.299922  0.012582086  0.011914006            3 
  407000   0.62249392   -8.6639293     61.23272  0.012537412  0.011872473            3 
  408000   0.61410639    -8.659451    61.158942  0.012491614  0.011831116            1 
  409000   0.60837154    -8.646009    61.294825  0.012488758  0.011789744            4 
  410000   0.60304243   -8.6578525    61.207739  0.012440597  0.011748555            4 
  411000   0.61745709   -8.6501468    61.269028  0.012422755  0.011707629            2 
  412000   0.60445172   -8.6665002    61.340963  0.012407153  0.011666829            3 
  413000    0.5969348    -8.667039    61.172133  0.012343045  0.011626318            2 
  414000   0.60690722   -8.6852195    61.257035  0.012330321   0.01158598            4 
  415000   0.59762108   -8.6809084    61.231008  0.012295383  0.011545852            5 
  416000   0.60746329   -8.6787848    61.240538  0.012267736  0.011505846            2 
  417000   0.60346954   -8.6809913    61.209495  0.012232113  0.011466004            2 
  418000   0.59179468    -8.698064    61.170879  0.012195151  0.011426251            6 
  419000   0.60273641    -8.697453    61.277733  0.012187298   0.01138671            5 
  420000   0.58693778   -8.6922411    61.227263  0.012148267  0.011347267            2 
  421000     0.598762   -8.7062376    61.244432  0.012122809  0.011307993            1 
  422000    0.5955666   -8.7022204    61.203249   0.01208595  0.011268814            2 
  423000   0.59335596   -8.7019758    61.246868  0.012065971  0.011229911            1 
  424000   0.59733158   -8.6846217    61.181455  0.012024657  0.011191192            2 
  425000   0.59345848    -8.706183    61.125533  0.011985399  0.011152563            3 
  426000   0.58552922   -8.7255573    61.171445  0.011966245  0.011113998            2 
  427000   0.58352295   -8.7414262    61.110847  0.011926395  0.011075507            3 
  428000   0.58069854   -8.7079527    61.150412  0.011906233  0.011037163            4 
  429000   0.58453793   -8.6994487    61.169438  0.011882175  0.010998903            2 
  430000   0.58945051   -8.7189071    61.166092  0.011853894  0.010960873            3 
  431000   0.58934014   -8.7330925    61.095796  0.011812799  0.010922948            3 
  432000   0.56674597   -8.7332931    61.157197  0.011797299  0.010885198            2 
  433000   0.57036731   -8.7264281    60.982446  0.011736421  0.010847592            2 
  434000   0.57315393   -8.7068903    61.134017  0.011738482  0.010810111            1 
  435000   0.57819118   -8.7453159    60.991756  0.011684244  0.010772778            1 
  436000   0.57102622   -8.7436186    61.103053  0.011678718  0.010735541            3 
  437000   0.58001196   -8.7418203    61.072524  0.011646172  0.010698455            3 
  438000   0.56308376   -8.7295374     61.00885  0.011607468  0.010661558            3 
  439000   0.56487183   -8.7445729    60.952175  0.011570269  0.010624767            1 
  440000   0.55856945   -8.7560779    61.023016  0.011557389  0.010588107            4 
  441000   0.56454969   -8.7564107    60.966338  0.011520472  0.010551609            3 
  442000   0.56042246   -8.7739728    61.060033  0.011512073   0.01051521            2 
  443000   0.56869179   -8.7485891     60.99979  0.011474754  0.010479067            2 
  444000   0.55540599   -8.7497934    61.089314  0.011465712  0.010443084            2 
  445000   0.55639291   -8.7710125    60.950383  0.011413929  0.010407205            1 
  446000   0.55550292   -8.7653581    60.999777  0.011397567  0.010371433            1 
  447000   0.55621856   -8.7671163    61.017992  0.011375465  0.010335803            1 
  448000   0.55412707   -8.7816473    60.888961  0.011326072  0.010300357            2 
  449000   0.54521096   -8.7743314    60.974288  0.011316683  0.010265034            2 
  450000   0.54689465   -8.7929833    61.035268  0.011302827  0.010229816            2 
  451000   0.53913964   -8.7989338     60.88101  0.011249263  0.010194784            1 
  452000   0.55493679   -8.8041669    60.818462  0.011212843  0.010159841            1 
  453000   0.53655847   -8.8036425     60.82258  0.011188848  0.010124979            4 
  454000   0.54923353   -8.7864883    60.894165  0.011177343  0.010090269            1 
  455000   0.55100668   -8.7835598    60.854677  0.011145545  0.010055717            2 
  456000   0.54012919   -8.7977385    60.841051  0.011118613  0.010021379            2 
  457000   0.54040924   -8.7983369    60.940902  0.011112491 0.0099871321            2 
  458000   0.53902598   -8.8239154     60.86105  0.011073699 0.0099529749            1 
  459000   0.53606497   -8.8082396    60.949049   0.01106555 0.0099190262            1 
  460000   0.54740463   -8.8130066    60.853339  0.011024156 0.0098852591            2 
  461000   0.51623746   -8.7939069    60.908067  0.011010135 0.0098515527            3 
  462000   0.52868389    -8.824176    60.920127  0.010988479 0.0098180411            1 
  463000   0.52261828   -8.8318831    60.840268  0.010950372 0.0097846399            3 
  464000   0.53044772   -8.8212699    60.871396  0.010932363 0.0097514592            3 
  465000   0.54029366   -8.8161933    60.838856  0.010903021 0.0097183963            1 
  466000   0.51788824   -8.8265735    60.931993  0.010896279 0.0096854499            2 
  467000   0.52257992   -8.8105495    60.897175  0.010866734 0.0096527037            2 
  468000   0.51965361   -8.8236372    60.813041  0.010828533 0.0096200682            3 
  469000   0.51557491   -8.8200287    60.906283  0.010822012 0.0095875559            3 
  470000   0.51780384   -8.8277825    60.849518  0.010788922 0.0095552315            1 
  471000   0.50577827    -8.829124    60.910883  0.010776872 0.0095230737            2 
  472000   0.52227258   -8.8368328    60.826241  0.010739096 0.0094909901            2 
  473000   0.50896957   -8.8358631    60.812288  0.010713934 0.0094590273            2 
  474000   0.50426954   -8.8443971    60.983724   0.01072147 0.0094272295            2 
  475000   0.51250848   -8.8493692    60.789561  0.010664835  0.009395521            1 
  476000   0.51371473   -8.8535473    60.859421  0.010654661 0.0093640237            4 
  477000   0.51027664   -8.8438597    60.801544  0.010622212 0.0093326403            1 
  478000   0.49809344   -8.8363224    60.839507  0.010606609 0.0093013809            5 
  479000    0.5058039    -8.853283    60.835656  0.010583795 0.0092702872            5 
  480000   0.50112426   -8.8638531    60.860105   0.01056599 0.0092392629            2 
  481000   0.50119804    -8.860378    60.780913  0.010530304 0.0092083707            5 
  482000   0.50147867   -8.8663347    60.808695   0.01051326 0.0091776112            6 
  483000   0.49467986   -8.8707258    60.802469  0.010490419 0.0091469793            5 
  484000   0.50102281   -8.8699101    60.814685  0.010470848 0.0091164422            2 
  485000   0.48589944   -8.8831739    60.740914  0.010436583 0.0090860168            4 
  486000   0.47655675   -8.8801249    60.768157   0.01041978 0.0090557346            2 
  487000   0.49854281   -8.8645752    60.719539  0.010390065 0.0090255501            3 
  488000   0.49303653   -8.9031604    60.757431  0.010375244 0.0089955832            2 
  489000   0.48471795    -8.892875    60.759501   0.01035438  0.008965692            5 
  490000   0.48654528   -8.8813699     60.70261  0.010323573 0.0089358949            2 
  491000   0.48960709   -8.8925062    60.696842  0.010301569 0.0089062708            2 
  492000   0.48654633   -8.8726573    60.680281  0.010277825 0.0088767731            3 
  493000   0.48446352   -8.8815776    60.612399  0.010245504 0.0088473815            1 
  494000   0.46774834   -8.8945389    60.664385  0.010233533 0.0088181097            8 
  495000   0.48170403   -8.8943266    60.591265   0.01020055  0.008788968            2 
  496000   0.48044334   -8.8816357    60.795637  0.010214321 0.0087599349            2 
  497000   0.46958018    -8.894501    60.681101  0.010174564 0.0087310301            2 
  498000   0.47726038   -8.9016597    60.675647  0.010153221 0.0087022002            3 
  499000   0.47991999   -8.8926048    60.764945  0.010147786 0.0086735417            4 
  500000   0.47129958   -8.9197986    60.601898  0.010100316 0.0086450049            2 
  501000   0.46300357    -8.928389    60.632485  0.010085244 0.0086165358            2 
  502000   0.46006456   -8.9253176    60.590591  0.010058199 0.0085882111            3 
  503000   0.46224564   -8.9213916    60.558412  0.010032871 0.0085600586            1 
  504000   0.46300904   -8.9064734    60.637007   0.01002596 0.0085319693            1 
  505000   0.45938199   -8.8987505    60.604853  0.010000801 0.0085040228            2 
  506000   0.45251466   -8.9255237    60.554176 0.0099726904 0.0084761514            1 
  507000   0.45838112   -8.9416458    60.652855 0.0099692398 0.0084484297            1 
  508000    0.4450793   -8.9194076    60.613739 0.0099431987 0.0084208551            3 
  509000   0.45867144   -8.9206586    60.635396 0.0099272095 0.0083933614            4 
  510000    0.4392214   -8.9290018    60.535272 0.0098913844 0.0083659488            3 
  511000   0.45352257   -8.9371475    60.580797 0.0098794516 0.0083386358            5 
  512000   0.44150729   -8.9380863     60.52886 0.0098517024 0.0083114857            1 
Loop time of 1226.64 on 48 procs for 500000 steps with 4000 atoms

Performance: 70436.363 tau/day, 407.618 timesteps/s
99.4% CPU use with 48 MPI tasks x no OpenMP threads

MPI task timing breakdown:
Section |  min time  |  avg time  |  max time  |%varavg| %total
---------------------------------------------------------------
Pair    | 78.874     | 85.191     | 90.269     |  27.3 |  6.95
Neigh   | 8.1331     | 8.4583     | 8.8144     |   5.0 |  0.69
Comm    | 78.745     | 84.393     | 90.432     |  30.3 |  6.88
Output  | 0.94526    | 0.94579    | 0.95541    |   0.1 |  0.08
Modify  | 1033.5     | 1035.8     | 1037.9     |   3.0 | 84.45
Other   |            | 11.82      |            |       |  0.96

Nlocal:        83.3333 ave          89 max          76 min
Histogram: 1 1 1 11 7 4 11 4 3 5
Nghost:        2160.62 ave        2183 max        2143 min
Histogram: 2 2 7 11 8 8 4 2 1 3
Neighs:        14347.9 ave       15930 max       13047 min
Histogram: 2 5 8 9 3 9 4 3 3 2
FullNghs:      28699.3 ave       31503 max       26988 min
Histogram: 6 3 4 17 7 4 4 2 0 1

Total # of neighbors = 1377565
Ave neighs/atom = 344.39125
Neighbor list builds = 26712
Dangerous builds = 0

#clear
#
#next RN
#
#jump SELF
Total wall time: 0:20:30
