
units lj                  # Use reduced LJ style units
atom_style atomic         # Uncharged point particles
atom_modify map hash      # Needed for indexing of clusters etc
                          # Used to be able to find where atoms are in relation to each other.

lattice fcc 1.0 spacing 1 1 1
Lattice spacing in x,y,z = 1.5874011 1.5874011 1.5874011
region box block 0 10 0 10 0 10 units lattice
create_box 2 box
Created orthogonal box = (0.0000000 0.0000000 0.0000000) to (15.874011 15.874011 15.874011)
  3 by 4 by 4 MPI processor grid
create_atoms 1 box
Created 4000 atoms
  using lattice units in orthogonal box = (0.0000000 0.0000000 0.0000000) to (15.874011 15.874011 15.874011)
  create_atoms CPU = 0.007 seconds
set type 1 type/fraction 2 0.32 78393
Setting atom values ...
  1310 settings made for type/fraction
mass 1 1.0
mass 2 1.0
pair_style lj/cut  3.5
pair_modify tail  yes
pair_coeff 1  1  1.0  1.0   # Intearaction between 1 and 1 set with epsilon = 1 and sigma = 1
pair_coeff 1  2  1.5  0.8
pair_coeff 2  2  0.5  0.88

write_data data.0
System init for write_data ...
Neighbor list info ...
  update every 1 steps, delay 10 steps, check yes
  max neighbors/atom: 2000, page size: 100000
  master list distance cutoff = 3.8
  ghost atom cutoff = 3.8
  binsize = 1.9, bins = 9 9 9
  1 neighbor lists, perpetual/occasional/extra = 1 0 0
  (1) pair lj/cut, perpetual
      attributes: half, newton on
      pair build: half/bin/atomonly/newton
      stencil: half/bin/3d
      bin: standard
WARNING: Not all mixed pair coeffs generated from mixing. Use write_data with 'pair ij' option to store all pair coeffs. (../write_data.cpp:312)


#############################
#   M E L T   S Y S T E M   #
#############################

velocity all create 2.4 3143649 mom yes dist gaussian # Assign velocities
                                                    # Temperature 2.4, random number seed, zero linear momentum
                                                                                # Gaussian distribution

timestep 0.002   # simulation timestep
thermo 1000       # output thermodynamic data every 1000 steps bf 100

# Define a fix  in this case with index 1 applied to all
# particles in the simulation. This fix is for simulations
# in the anisotropic NPT ensemble. Note that we use the MTK
# correction.
fix 1 all npt temp 2.4 2.4 0.1 iso 5.68 5.68 0.5 mtk yes tchain 5 pchain 5 # Use NPT ensemble
                                                                         # Set temperature and pressure and damping
                                                                         # Numbers of thermostats in chain and in barostat
run 10000          # run for 10000 steps
Per MPI rank memory allocation (min/avg/max) = 3.642 | 3.644 | 3.648 Mbytes
Step Temp E_pair E_mol TotEng Press Volume 
       0          2.4   -6.3097323            0   -2.7106323   -4.0355096         4000 
    1000    2.3542252   -5.0266182            0   -1.4961633    5.6764129    4081.1308 
    2000    2.4153691   -4.9954922            0   -1.3733442    5.6757782    4090.9472 
    3000    2.4696163   -5.0290344            0   -1.3255361    5.4891445    4103.3486 
    4000    2.3666408   -4.9885843            0   -1.4395106    5.6351609    4099.2011 
    5000    2.4014434   -5.0223794            0   -1.4211148    5.5715312    4103.6976 
    6000    2.3957772    -5.012217            0   -1.4194496    5.4742715    4106.4425 
    7000    2.4160785   -5.0132235            0   -1.3900118    5.3821281    4112.8671 
    8000    2.3388065   -5.0107203            0   -1.5033876    5.5482335    4103.2758 
    9000    2.4355264   -4.9813779            0   -1.3290017    5.6677112    4102.9994 
   10000    2.4780077   -5.0072682            0   -1.2911859    5.4317896    4116.8084 
Loop time of 2.45262 on 48 procs for 10000 steps with 4000 atoms

Performance: 704553.280 tau/day, 4077.276 timesteps/s
99.6% CPU use with 48 MPI tasks x no OpenMP threads

MPI task timing breakdown:
Section |  min time  |  avg time  |  max time  |%varavg| %total
---------------------------------------------------------------
Pair    | 1.0446     | 1.1311     | 1.2386     |   3.7 | 46.12
Neigh   | 0.20251    | 0.21247    | 0.23092    |   1.2 |  8.66
Comm    | 0.743      | 0.84952    | 0.95222    |   5.0 | 34.64
Output  | 0.00024308 | 0.00025018 | 0.00030891 |   0.0 |  0.01
Modify  | 0.20994    | 0.24408    | 0.30958    |   4.7 |  9.95
Other   |            | 0.01519    |            |       |  0.62

Nlocal:        83.3333 ave          97 max          76 min
Histogram: 6 5 15 7 5 3 4 2 0 1
Nghost:        1615.12 ave        1645 max        1582 min
Histogram: 2 2 5 8 6 7 5 3 6 4
Neighs:        9285.08 ave       11439 max        8084 min
Histogram: 2 6 15 8 4 8 4 0 0 1

Total # of neighbors = 445684
Ave neighs/atom = 111.42100
Neighbor list builds = 903
Dangerous builds = 202

# Equilibrate just above the melting temperature to avoid step fn in T

fix 1 all npt temp 1.25 1.25 0.1 iso 5.68 5.68 0.5 mtk yes tchain 5 pchain 5
run 2000
Per MPI rank memory allocation (min/avg/max) = 3.643 | 3.645 | 3.649 Mbytes
Step Temp E_pair E_mol TotEng Press Volume 
   10000    2.4780077   -5.0072682            0   -1.2911859    5.4317896    4116.8084 
   11000    1.2420212   -6.8891015            0   -5.0265355    5.6591322    3291.8055 
   12000    1.2170442   -6.9441587            0   -5.1190487    5.4036136    3281.2998 
Loop time of 0.577381 on 48 procs for 2000 steps with 4000 atoms

Performance: 598564.703 tau/day, 3463.916 timesteps/s
99.6% CPU use with 48 MPI tasks x no OpenMP threads

MPI task timing breakdown:
Section |  min time  |  avg time  |  max time  |%varavg| %total
---------------------------------------------------------------
Pair    | 0.24591    | 0.27749    | 0.31068    |   2.3 | 48.06
Neigh   | 0.037616   | 0.039934   | 0.042403   |   0.6 |  6.92
Comm    | 0.17384    | 0.20985    | 0.24445    |   3.0 | 36.34
Output  | 5.1549e-05 | 5.3303e-05 | 6.8135e-05 |   0.0 |  0.01
Modify  | 0.041721   | 0.045319   | 0.049258   |   0.8 |  7.85
Other   |            | 0.004737   |            |       |  0.82

Nlocal:        83.3333 ave          92 max          77 min
Histogram: 3 1 10 8 9 5 8 1 2 1
Nghost:        1878.67 ave        1898 max        1856 min
Histogram: 4 1 2 5 3 9 13 6 3 2
Neighs:        11673.8 ave       13771 max       10001 min
Histogram: 1 4 5 9 12 8 5 3 0 1

Total # of neighbors = 560344
Ave neighs/atom = 140.08600
Neighbor list builds = 142
Dangerous builds = 10

#############################
# L I N E A R  Q U E N C H  #
#############################

# Define solid atoms. This closely follows ten Wolde  Ruiz-Montero and Frenkel  Faraday Discuss  1996  104  93-110
# Compute components of the per-atom q6 vector
compute q6 all orientorder/atom degrees 1 6 components 6 nnn NULL cutoff 1.3 # compute the Q6 parameter.
                                                                             # Use all neighbours within 1.3 unit cell.

# get number of connections
compute coord_number all coord/atom orientorder q6 0.5

# An atom is solid if it has 8 or more connections (of a possible 14)
variable is_solid atom c_coord_number>=8
group solid dynamic all var is_solid    # Must be dynamic to update
dynamic group solid defined

# do clustering
compute cluster solid cluster/atom 1.3 # Create a cluster where all atoms within are solid and max 1.3 units from another member

# define chunks one chunk per cluster
compute clus_chunks solid chunk/atom c_cluster nchunk every compress yes  # Says which atoms are in which chunk

# count the size of each chunk
compute size_chunks solid property/chunk clus_chunks count


# Find the maximum entry in the vector of chunk sizes
variable max_n equal max(c_size_chunks)


# Thermo style which includes this variable
# thermo_style custom step temp pe vol v_max_n

thermo ${N}  # Print the thermo information every 100 steps
thermo 1000  

# Reset the npt fix at a lower temperature (below freezing)
fix 1  all npt temp  ${temp} ${temp}  0.1  iso  5.68  5.68  0.5  mtk yes tchain  5  pchain  5
fix 1  all npt temp  0.45 ${temp}  0.1  iso  5.68  5.68  0.5  mtk yes tchain  5  pchain  5
fix 1  all npt temp  0.45 0.45  0.1  iso  5.68  5.68  0.5  mtk yes tchain  5  pchain  5

dump dmp2 all dcd ${N} traj.dcd
dump dmp2 all dcd 1000 traj.dcd


compute msd all msd com yes
variable twopoint equal c_msd[4]/6/(step*dt+1.0e-6)
fix 9 all vector 10 c_msd[4]
variable fit equal slope(f_9)/6/(10*dt)
thermo_style custom step temp pe c_msd[4] v_twopoint v_fit v_max_n

fix 1 all npt temp 1.25 ${temp} 0.1 iso 5.68 5.68 0.5 mtk yes tchain 5 pchain 5
fix 1 all npt temp 1.25 0.45 0.1 iso 5.68 5.68 0.5 mtk yes tchain 5 pchain 5
run 5000000 # 5000000  # Run for this many steps
Neighbor list info ...
  update every 1 steps, delay 10 steps, check yes
  max neighbors/atom: 2000, page size: 100000
  master list distance cutoff = 3.8
  ghost atom cutoff = 3.8
  binsize = 1.9, bins = 8 8 8
  4 neighbor lists, perpetual/occasional/extra = 1 3 0
  (1) pair lj/cut, perpetual
      attributes: half, newton on
      pair build: half/bin/atomonly/newton
      stencil: half/bin/3d
      bin: standard
  (2) compute orientorder/atom, occasional
      attributes: full, newton on
      pair build: full/bin/atomonly
      stencil: full/bin/3d
      bin: standard
  (3) compute coord/atom, occasional
      attributes: full, newton on
      pair build: full/bin/atomonly
      stencil: full/bin/3d
      bin: standard
  (4) compute cluster/atom, occasional
      attributes: full, newton on
      pair build: full/bin/atomonly
      stencil: full/bin/3d
      bin: standard
Per MPI rank memory allocation (min/avg/max) = 9.813 | 9.818 | 9.823 Mbytes
Step Temp PotEng c_msd[4] v_twopoint v_fit v_max_n 
   12000    1.2170442   -6.9441587 8.4920876e-31 5.8972828e-33 8.3333333e+20            2 
   13000    1.2284789   -6.9243283    0.5100555 0.0032695864  0.042413984            1 
   14000    1.2208253   -6.9758493     0.942221 0.0056084581   0.03845682            1 
   15000    1.2401283   -6.9110081     1.418798 0.0078822109  0.038285226            1 
   16000    1.2904048   -6.9330034    1.9094451 0.0099450265  0.038550793            1 
   17000    1.2616146   -6.9372944    2.3693037  0.011614233  0.038912261            2 
   18000    1.2366752   -6.9559984    2.8265525  0.013085891  0.039163153            3 
   19000    1.2445836   -6.9256656     3.311044  0.014522123  0.039012445            1 
   20000     1.236331   -6.8848139    3.8046194   0.01585258  0.039109361       -1e+20 
   21000    1.2410147   -6.9370675    4.2897773  0.017022925  0.039287521            2 
   22000    1.2264625   -6.9333186    4.7723645  0.018077138  0.039444845            1 
   23000    1.2355331   -6.9222067    5.2332384  0.018961008  0.039520635            2 
   24000    1.2395633   -6.9399757    5.7038951  0.019805191  0.039519218            2 
   25000    1.2511385   -6.9391697    6.0758302  0.020252767  0.039422606       -1e+20 
   26000    1.2594772   -6.9514692    6.5249327  0.020913245  0.039260291            1 
   27000    1.2354997   -6.9721203    6.9804353  0.021544553   0.03911113            2 
   28000    1.2374052   -6.9567329    7.4924392  0.022298926  0.039028336            2 
   29000    1.2628946   -6.9564421    7.9097909  0.022729284  0.038901248            3 
   30000    1.2548974   -6.9277594    8.2857153  0.023015875  0.038737675            1 
   31000    1.2225876   -6.9328917    8.7897568  0.023628378  0.038589024            1 
   32000    1.2465079   -6.9685005      9.22633  0.024026901  0.038494758            1 
   33000    1.2606541   -6.9950744    9.7239593  0.024555452  0.038447664            1 
   34000    1.2420214   -6.9693455    10.094028  0.024740263   0.03837827            2 
   35000    1.2152523   -6.9352234    10.618283  0.025281626  0.038292035            2 
   36000    1.2380826   -6.9537953     11.13711  0.025780346  0.038268298            1 
   37000     1.226883   -6.9027615    11.607279  0.026142519  0.038279969            1 
   38000    1.2438297   -6.9664536    11.961636  0.026231657  0.038256713            3 
   39000    1.2328296   -6.9417972    12.395323  0.026485733  0.038189893            1 
   40000    1.2885359   -6.9288511    12.836212  0.026742108   0.03814081            1 
   41000    1.2505426   -6.9866167      13.1746  0.026777641  0.038075164            2 
   42000    1.2478037   -6.9679863    13.592027  0.026968307  0.037970654            1 
   43000    1.2763112   -6.9837041    14.019702  0.027169964  0.037899178            1 
   44000    1.2349404   -6.9440607    14.503634  0.027469004  0.037814404            1 
   45000    1.2689155   -6.9371709    14.977165  0.027735491  0.037722626            3 
   46000    1.2431619   -6.9698741     15.44937  0.027987988  0.037676591            3 
   47000     1.239508   -6.9424551    15.930788  0.028246077   0.03764385            1 
   48000    1.2106592   -6.9571199    16.493289  0.028634183  0.037660624            1 
   49000    1.2326965   -6.9354332     17.02863  0.028960255  0.037705039            1 
   50000    1.2431258   -6.9452187    17.418259  0.029030431  0.037735541            3 
   51000    1.2527466    -6.950893     17.89415  0.029238807  0.037744882            1 
   52000    1.2278804   -6.9695399    18.384431  0.029462229   0.03776769            2 
   53000    1.2650459   -6.9509273    18.885752  0.029694579  0.037810254            1 
   54000    1.2328053   -6.9608373     19.37317  0.029896866  0.037861744            1 
   55000    1.2594693   -6.9513303    19.880758  0.030122361  0.037908354            2 
   56000    1.2429278   -6.9179001    20.393098  0.030346871  0.037955308            1 
   57000    1.2273455   -6.9659954    20.853741  0.030487925  0.038013544            1 
   58000    1.2287656   -6.9439589    21.412884  0.030765638  0.038068009            1 
   59000    1.2218599   -6.9490169    21.908903  0.030944778  0.038136378            1 
   60000    1.2322914   -6.9654451    22.346218  0.031036413  0.038211217            2 
   61000    1.2568775   -6.9529175    22.797917  0.031144696  0.038275688            1 
   62000    1.2373134   -6.9629815      23.3721  0.031414113  0.038345169            2 
   63000    1.2790011   -6.9725406    23.841535  0.031536422  0.038399928            2 
   64000    1.2325922   -6.9616651    24.422602  0.031800263  0.038456506            1 
   65000    1.2358337   -6.9913698    24.774395  0.031762044  0.038520027            1 
   66000    1.2416073    -6.951426    25.438575  0.032119413  0.038593163            1 
   67000    1.2212481    -6.976164    25.812092  0.032104592  0.038668402            2 
   68000    1.2362028     -6.95622    26.233709  0.032149153  0.038716532            4 
   69000    1.2637874   -6.9432799    26.810359  0.032379661  0.038752924            1 
   70000    1.2633782   -6.9503935     27.28217  0.032478774  0.038801217            1 
   71000    1.2504226   -6.9311783    27.682327  0.032490993  0.038840842            1 
   72000    1.2353902   -6.9691461    28.043811  0.032458115  0.038865215            1 
   73000    1.2442978   -6.9435321    28.497525  0.032531421  0.038886011            1 
   74000    1.2697316   -6.9386171    29.046718  0.032710267  0.038907831            1 
   75000    1.2260012   -6.9838324    29.492031  0.032768923  0.038931302            1 
   76000     1.248741   -6.9286413     29.89048  0.032774649  0.038947706            2 
   77000    1.2198094   -6.9591502    30.206518  0.032691037  0.038954544            2 
   78000    1.2519587   -6.9408384    30.829547   0.03293755  0.038952604            1 
   79000    1.2184933   -6.9953729    31.408178  0.033130989  0.038960429            2 
   80000     1.224054   -6.9746768    31.880144  0.033208483  0.038985028            1 
   81000    1.2341239   -6.9468265    32.358873  0.033291021  0.039008357            2 
   82000    1.2231167   -6.9693118    32.824816  0.033358552  0.039026915            1 
   83000    1.2495315   -6.9246346    33.221001  0.033354418  0.039034214            2 
   84000    1.2257901   -6.9456368    33.537617  0.033271445  0.039032113            2 
   85000      1.23643   -6.9746989    34.240779  0.033569391   0.03904437            3 
   86000    1.2049597   -6.9755085    34.647065  0.033572737  0.039062409            1 
   87000    1.2278233   -6.9582809    35.372465  0.033881671  0.039081938            2 
   88000    1.2304437     -6.96086    35.611969  0.033723456  0.039101569            1 
   89000     1.229091   -6.9801951    36.000661  0.033708484  0.039094556            1 
   90000     1.241449   -6.9704067    36.551012  0.033843529  0.039097282            2 
   91000    1.2380399   -6.9784263    36.862045  0.033756451  0.039105747            1 
   92000    1.2377942   -6.9698315    37.626678  0.034082135  0.039111172            1 
   93000    1.2422687   -6.9712875    38.019266  0.034067442  0.039116713            2 
   94000     1.260163   -6.9706329    38.302252  0.033955897  0.039119984            3 
   95000    1.2203805   -6.9900396    38.920669  0.034140937  0.039125216            1 
   96000    1.2311161    -6.966386    39.389949  0.034192664  0.039128693            1 
   97000     1.258706    -6.988644    39.781311  0.034176384   0.03914073            2 
   98000    1.2516111   -6.9811988    40.232378  0.034211206  0.039146526            1 
   99000    1.2231852   -6.9875002    40.638777  0.034207725  0.039145625            2 
  100000      1.22272   -6.9425722    41.302202  0.034418502  0.039143112            2 
  101000    1.1884442   -6.9050669    41.617726  0.034338057  0.039145914            1 
  102000    1.2175074   -6.9491111    42.164674  0.034448263  0.039144474            1 
  103000    1.2236794   -6.9805313    42.369474  0.034279509  0.039141955            2 
  104000    1.2243724   -6.9354463    43.256091  0.034660329  0.039142748            2 
  105000     1.235034    -6.945514    43.745761  0.034718858  0.039148207            2 
  106000    1.2617626   -6.9714821    44.208254  0.034754917  0.039158447            1 
  107000     1.232216   -6.9616843    44.686287  0.034802404  0.039168491            2 
  108000    1.2385661   -7.0027921    45.018242  0.034736297  0.039179432            1 
  109000    1.2372318   -6.9685006    45.758546  0.034983598  0.039188239            3 
  110000    1.2316285   -7.0082101    46.025566  0.034867853  0.039200723            2 
  111000    1.2198308   -6.9741573    46.500892   0.03491058  0.039210813            2 
  112000    1.2238582   -6.9347346    47.056804  0.035012503  0.039215689            2 
  113000    1.2497687   -6.9278898    47.602064  0.035104767  0.039221323       -1e+20 
  114000    1.2262228   -6.9444504     48.20479  0.035237419  0.039233112            2 
  115000    1.2150283   -7.0011911    48.682121  0.035276899  0.039247625            3 
  116000    1.2119031   -6.9551494    49.050115  0.035237152  0.039261363            3 
  117000    1.2412408   -6.9514151    49.698208  0.035397584  0.039278837            2 
  118000     1.235717   -7.0017634    50.111101  0.035389195  0.039296682            2 
  119000    1.2271264   -6.9374113    50.678173  0.035488917  0.039314804            2 
  120000    1.2395331   -6.9722871    50.909397  0.035353748  0.039328412            2 
  121000    1.2225051    -7.024615    51.260059  0.035303071  0.039333778            3 
  122000     1.246984    -6.929658    51.881632  0.035438273  0.039340157            1 
  123000    1.2396303   -6.9774724     52.17465  0.035348679  0.039345808            2 
  124000     1.209731   -6.9829356    52.470918  0.035262714  0.039342565            1 
  125000    1.2451839   -6.9639958    53.212029  0.035474686  0.039340915            2 
  126000    1.2379738   -6.9691627    53.301668  0.035252425  0.039339524            2 
  127000    1.2372888   -6.9659999    53.902176  0.035368882  0.039329655            1 
  128000    1.2119082   -6.9795605    54.463367  0.035457921  0.039325031            1 
  129000    1.2220411   -6.9498846    54.979742  0.035516629  0.039321502            1 
  130000    1.1983953   -6.9509189    55.300797  0.035449229  0.039318443            1 
  131000    1.2260345   -6.9343591     55.83263   0.03551694  0.039313135            1 
  132000    1.2068906   -7.0201905    56.033499  0.035374683  0.039302626            3 
  133000    1.2586899   -6.9763955    56.447395  0.035368042  0.039292519            1 
  134000    1.2210427   -7.0119438    56.918992  0.035397383  0.039282237            1 
  135000    1.2188919   -7.0054889    57.173973  0.035292576  0.039268902            4 
  136000    1.2091108   -6.9935448    57.675827   0.03534058  0.039251562            3 
  137000    1.2427332   -6.9470766    58.074666  0.035325222  0.039231915            1 
  138000    1.1956001   -6.9327592    58.610155  0.035392606  0.039212968            3 
  139000    1.2191079   -7.0031722    59.061148  0.035408362  0.039193715            1 
  140000    1.2478573   -7.0000851    59.364922  0.035336263  0.039176018            2 
  141000    1.2466628    -6.958842    59.804495  0.035345446  0.039155977            2 
  142000    1.2281709    -7.038484    60.367317  0.035426829  0.039138284            1 
  143000    1.2143528    -6.978368    60.906044  0.035493032  0.039120772            2 
  144000    1.2267276   -6.9591336    61.406855  0.035536374  0.039108868            1 
  145000    1.2340395   -6.9699979    62.028964   0.03564883  0.039097235            2 
  146000    1.2102936   -6.9574324    62.414793  0.035624882  0.039086742            1 
  147000    1.2211146   -7.0088033    62.642882  0.035511838   0.03907111            1 
  148000    1.2252291   -6.9687696    63.275114  0.035627879  0.039058826            5 
  149000    1.2331498   -6.9920512    63.589259  0.035564463  0.039043693            1 
  150000    1.2194978   -7.0128783    63.892908   0.03549606  0.039029344            1 
  151000    1.2179035   -6.9987544    63.962624  0.035299461  0.039011751            1 
  152000    1.2376156   -6.9654459    64.788195  0.035519844  0.038991674            2 
  153000    1.2263837   -6.9630169    65.089214  0.035451642  0.038973634            1 
  154000    1.2429147   -6.9714833     65.34361  0.035359096  0.038954807            2 
  155000    1.2585744    -6.967092    66.161142  0.035570506  0.038937184            2 
  156000    1.2192056   -6.9611957    66.627346  0.035591531  0.038919364            5 
  157000     1.267181   -6.9839514    66.747852  0.035428796  0.038901424            2 
  158000    1.2146692   -6.9516803    67.366275  0.035530736   0.03888124            2 
  159000    1.2190865   -6.9691752    68.017874  0.035648781  0.038866668            1 
  160000    1.2400591   -7.0297153    68.568225  0.035712617  0.038853484            2 
  161000    1.2074273   -7.0106585    68.889254  0.035656963   0.03884252            1 
  162000    1.2024671    -7.012408    69.360682  0.035679363  0.038830228            2 
  163000    1.2412178   -6.9632225    70.002065  0.035788377  0.038818982            1 
  164000    1.2280885   -7.0024288     70.15077  0.035645716  0.038809842            2 
  165000    1.2051871   -7.0199645    70.679755  0.035696846  0.038795898            1 
  166000    1.1940878   -6.9615167    71.441198  0.035864055  0.038785673            1 
  167000    1.2260962   -6.9948577    71.621222  0.035739133  0.038774614            1 
  168000    1.2286654   -6.9758984    71.904978  0.035667152  0.038764104            2 
  169000     1.226533   -6.9689021    72.910573  0.035951959  0.038756639            1 
  170000    1.2117727   -7.0206636     73.14997  0.035857828  0.038749793            1 
  171000    1.2121739   -6.9719445    73.771608  0.035951076  0.038744648            1 
  172000    1.2142315   -6.9827531    74.118008  0.035909888  0.038741529            2 
  173000    1.2326336   -6.9840787    74.796126  0.036028962  0.038737618            1 
  174000    1.2410812   -6.9650628    75.420488  0.036120923  0.038734342            1 
  175000    1.2679632   -6.9892611    75.827351  0.036108262  0.038731701            1 
  176000    1.2313848   -6.9735638    76.124531  0.036043812  0.038729048            2 
  177000    1.2525187   -7.0444796    76.488605  0.036011584   0.03872419            2 
  178000    1.2254064   -7.0111624    77.183856  0.036134764  0.038723473            1 
  179000    1.2188416   -7.0032175    77.794315  0.036217092   0.03872523            1 
  180000     1.213154   -6.9712863    77.865656  0.036048915  0.038723289            2 
  181000     1.226904   -7.0104024    78.279029  0.036040068  0.038720209            1 
  182000     1.232628   -6.9749009    78.592223   0.03598545  0.038711628            1 
  183000    1.2075447   -7.0161129    78.734094  0.035853413   0.03870149            1 
  184000    1.2228923    -7.010709    79.019228  0.035787694  0.038690473            2 
  185000    1.2258462   -6.9714765     79.59273  0.035852581  0.038676307            2 
  186000    1.2045738   -7.0091381     80.23489  0.035947531  0.038661658            1 
  187000     1.217152   -6.9940778    80.394596  0.035826469  0.038646842            3 
  188000    1.2159186   -7.0083836    80.616084   0.03573408  0.038629725            1 
  189000    1.2145885   -7.0028509    81.139756  0.035775907  0.038610778            2 
  190000    1.2315464   -6.9824569    81.614813   0.03579597  0.038590767            1 
  191000    1.2085075   -6.9834824    81.607772  0.035605485  0.038569505            3 
  192000    1.2369141   -7.0050732    82.190869   0.03567312  0.038547179            2 
  193000    1.2331304   -7.0098722    82.353219  0.035558385  0.038525733            4 
  194000    1.2155784   -7.0150429    82.821207   0.03557612  0.038502824            1 
  195000    1.2155761   -6.9954445    83.265058  0.035583358  0.038478416            1 
  196000     1.228123     -7.00466     83.67395  0.035575659  0.038457868            2 
  197000    1.1960968   -6.9901066    84.358494  0.035684642  0.038437145            1 
  198000    1.2265826   -6.9582641    84.926619  0.035743526  0.038419654            1 
  199000    1.2404635   -6.9320639    85.904946  0.035973595  0.038402168            3 
  200000    1.2160607    -7.034193     85.86728  0.035778033  0.038385878            1 
  201000    1.2139117   -6.9968368    86.449946  0.035841603  0.038368959            2 
  202000    1.2146032   -7.0301037    87.006994  0.035893974  0.038355098            2 
  203000    1.2193342   -7.0068186    87.256848  0.035819724  0.038343029            1 
  204000    1.2021422   -6.9640841    87.826524  0.035876848  0.038329744            1 
  205000     1.228977   -7.0197645    88.003867  0.035773929  0.038315349            4 
  206000    1.1827713   -7.0246457    88.516314   0.03580757  0.038300866            2 
  207000    1.2287908   -6.9818738    88.897498  0.035788043  0.038285574            1 
  208000    1.2356369   -7.0250893    89.231005  0.035749601  0.038269159            1 
  209000     1.218604   -7.0260475    89.694689  0.035763433  0.038254237            1 
  210000    1.2426676   -6.9716946    90.135764   0.03576816  0.038240515            1 
  211000    1.2318491   -7.0017933    90.370195   0.03569123  0.038226401            2 
  212000    1.2139903   -7.0231889    90.958338  0.035754064  0.038210928            3 
  213000    1.1850101    -7.021387    91.535448  0.035811991  0.038194969            1 
  214000    1.1928989   -7.0222986    91.605214  0.035671812  0.038178746            2 
  215000    1.1989333   -6.9957109    92.418738  0.035821216  0.038161466            2 
  216000      1.23724   -7.0005687    92.818688  0.035809679  0.038145708            1 
  217000    1.2066914   -7.0226248    93.040818  0.035729961  0.038130233            2 
  218000    1.1811906   -6.9922606    93.624513  0.035789187  0.038114035            5 
  219000    1.2245574   -7.0505367    94.174245  0.035834949  0.038099572            1 
  220000     1.213119   -7.0248399     94.63261  0.035845685  0.038089884            1 
  221000    1.2017793   -6.9918772    94.989278  0.035817978  0.038078154            1 
  222000    1.2133669   -6.9999243    95.316226  0.035779364   0.03806494            1 
  223000    1.2130181    -6.966021    96.065448  0.035898897  0.038051677            1 
  224000    1.2130881   -6.9953894     96.31415  0.035831157  0.038038123            2 
  225000    1.2100537   -6.9760096    96.908037  0.035891866  0.038026197            2 
  226000    1.1852737   -7.0038889    97.111601  0.035808112  0.038013777            2 
  227000     1.222592   -6.9820993    97.628664  0.035840185  0.037999902            1 
  228000    1.1809236      -6.9921    97.829084  0.035756244  0.037988182            1 
  229000    1.2275791   -7.0084118    98.737641  0.035930728  0.037978098            1 
  230000    1.2236628   -7.0232208    99.452926  0.036033669  0.037969367            2 
  231000    1.2100681   -6.9487802    99.867462  0.036027223  0.037962849            1 
  232000    1.1853486   -7.0020947    100.62954  0.036145668  0.037956753            2 
  233000    1.2275949   -6.9988073     100.8776  0.036079256  0.037953684            1 
  234000    1.2118064   -6.9979404    101.57434  0.036173199  0.037948704            2 
  235000    1.1815539   -7.0270192    102.24164  0.036255902  0.037945252            2 
  236000    1.2274438   -7.0398657    102.55279  0.036212142   0.03794435       -1e+20 
  237000    1.2192932   -7.0559587    102.81058  0.036149994  0.037943277            4 
  238000    1.2258547   -7.0040877    103.17928  0.036127199  0.037939472            1 
  239000    1.2520371   -7.0000133    103.53709  0.036100798  0.037936167            3 
  240000    1.2203253   -7.0246751    103.87402  0.036067369  0.037933678            2 
  241000    1.2217441    -7.008561    104.68416  0.036197842  0.037929931            1 
  242000    1.2048648   -7.0049296    105.19578  0.036224443  0.037924539            1 
  243000     1.224999   -6.9847226    105.60303   0.03621503   0.03792109            3 
  244000     1.224433   -6.9873683    106.02878  0.036212016  0.037918893            2 
  245000    1.2173307   -6.9748477    106.73232   0.03630351  0.037914793            1 
  246000    1.2221087   -7.0330104    106.42454  0.036051673  0.037909659            2 
  247000    1.2219836   -7.0104097     106.6421  0.035979116  0.037901979            2 
  248000    1.2179829   -7.0101397    106.75223  0.035871044  0.037892528            1 
  249000    1.2232132   -6.9993668     107.7231  0.036051907  0.037884566            2 
  250000    1.1951623    -7.014935      108.472  0.036157334  0.037876353            1 
  251000    1.2221732   -6.9923421    108.62415  0.036063796  0.037868131            1 
  252000    1.2058526   -6.9603721    109.16104  0.036098227  0.037859138            1 
  253000    1.2080521   -6.9856339     108.9372  0.035881818    0.0378478            2 
  254000    1.2124618   -7.0369834     109.3565  0.035878118  0.037837231            2 
  255000    1.2226044   -7.0136055    110.08047  0.035974008  0.037826764            1 
  256000    1.2090189   -7.0129549    110.33382  0.035915958  0.037815851            1 
  257000    1.2050659   -6.9870237    111.03475  0.036003485  0.037805424            1 
  258000     1.221134   -7.0139177    111.03857  0.035865171  0.037794291            1 
  259000     1.211176   -7.0594419    111.36473  0.035831639  0.037782378            1 
  260000    1.2197527   -6.9937607    111.76845  0.035823222  0.037769922            2 
  261000    1.2179983     -7.03513    112.16757    0.0358134  0.037757223            1 
  262000    1.2243966   -6.9958688    113.05518  0.035959027  0.037746578            1 
  263000    1.1957405   -7.0313955    113.45056   0.03594758  0.037737534            1 
  264000    1.2145634       -7.009    113.69147  0.035887458  0.037727409            1 
  265000    1.2014063   -7.0647157    113.70252   0.03575551  0.037716036            3 
  266000    1.1875962   -7.0045864    114.44604  0.035854022  0.037703465            5 
  267000    1.1886289   -7.0212892    114.79302  0.035828035   0.03769177            1 
  268000    1.1962134   -7.0803175    115.35224  0.035868235  0.037680699            1 
  269000     1.210818   -7.0140271    115.60139   0.03581208  0.037670129            2 
  270000    1.1967875   -7.0179481    116.39042  0.035922968  0.037661495            1 
  271000    1.2111068   -7.0295827    116.32989  0.035771799  0.037650022            3 
  272000    1.2301198   -7.0504259     116.7353  0.035764491  0.037636819            3 
  273000    1.1956772    -7.023138    117.49588  0.035865652  0.037624963            2 
  274000    1.1927303   -7.0865997    117.45449   0.03572217  0.037612628            2 
  275000    1.2290375   -7.0483716    117.99624  0.035756435  0.037601639            2 
  276000    1.1957325   -7.0553928    118.48666  0.035774957  0.037590265            1 
  277000    1.1879863   -6.9544565    119.57657  0.035973699  0.037580841            1 
  278000    1.2061361   -7.0052251    119.98624  0.035967097  0.037573384            2 
  279000    1.2201848   -7.0413296    120.46155  0.035980152  0.037564795            1 
  280000    1.2070816   -7.0381063    120.76752  0.035942715  0.037558023            1 
  281000    1.2174636   -7.0102265       122.08  0.036204033  0.037553482            2 
  282000    1.2068903   -7.0363035    122.35047  0.036155577  0.037550808            2 
  283000    1.2050891   -7.0613272    122.96449  0.036208625  0.037549115            2 
  284000    1.2365138   -7.0094456    123.20865  0.036152773  0.037546625            2 
  285000    1.1940398   -7.0625806     123.4892  0.036107952  0.037543685            4 
  286000    1.2109543   -7.0364414      123.622  0.036020396  0.037538423            5 
  287000    1.1876536   -7.0315834    124.26078  0.036080365  0.037532166            1 
  288000    1.1984297   -6.9750892    124.94042  0.036151741  0.037525993            2 
  289000    1.1947196   -7.0167001    124.74699  0.035970873  0.037518947            3 
  290000    1.2438868   -7.0014901    125.42378  0.036041316  0.037512385            1 
  291000     1.225204   -7.0339502    125.96134  0.036071403  0.037507698            1 
  292000    1.2101705   -7.0544584    126.06515  0.035977496  0.037502351            1 
  293000    1.2298751   -7.0717366    126.49816  0.035977862  0.037496889            2 
  294000    1.1982294   -7.0134219    126.88854  0.035966141  0.037491169            2 
  295000      1.22519   -7.0251775    127.63742  0.036055768  0.037485021            2 
  296000    1.2055894   -7.0382931    128.41097  0.036151737  0.037482276            1 
  297000    1.2017431   -7.0032783    129.31907  0.036284812  0.037478643            1 
  298000    1.1659365   -7.0218079    129.59085  0.036239053  0.037474613            3 
  299000    1.1891659   -7.0460938    129.51358  0.036096316  0.037471221            1 
  300000    1.2132166   -7.0708719    130.13567  0.036148797   0.03746747            2 
  301000    1.2096994   -7.0311357    130.75644  0.036200564  0.037463582            2 
  302000    1.1982321   -7.0413343    131.18924  0.036200122  0.037458808            1 
  303000    1.2127601   -7.0071553    130.98005  0.036023115  0.037453227            1 
  304000    1.1855682    -7.028197    131.32336  0.035998729   0.03744661            2 
  305000    1.2207081   -7.0300578    131.88493  0.036034133  0.037440914            2 
  306000    1.1881024   -7.0908266    132.12129  0.035980745  0.037434776            1 
  307000    1.1921157   -7.0650304    132.57452  0.035986568  0.037426419            2 
  308000    1.1935693   -7.0607642    132.95506   0.03597269  0.037419489            1 
  309000    1.1942165   -7.0470513    132.83058  0.035822701  0.037412796            3 
  310000    1.1729523   -6.9662352    134.35087  0.036115826   0.03740594            2 
  311000    1.1930738   -7.0432388    134.03864  0.035916034  0.037398823            2 
  312000    1.1901356   -7.0637273    134.25543  0.035858821  0.037391001            2 
  313000    1.2289959   -7.0471097    135.55225  0.036089522  0.037382845            1 
  314000    1.1890923   -7.0300933    135.39656  0.035933269  0.037375949            1 
  315000     1.206409   -7.0361154    135.67095  0.035891786  0.037369417            1 
  316000    1.1870556    -7.095908    135.77611  0.035805936   0.03736234            1 
  317000    1.1922861   -7.0273801    137.10425  0.036042128  0.037355581            1 
  318000     1.212591   -7.0811336    136.95257  0.035889038   0.03734941            1 
  319000     1.197886   -7.0586673    137.28648  0.035863762  0.037343897            2 
  320000    1.1984612   -7.0193573    138.89388  0.036170281  0.037338267       -1e+20 
  321000     1.203952   -7.0481072    138.65917   0.03599667  0.037332249            2 
  322000    1.2055982   -7.0902281    138.90712  0.035949048  0.037325226            2 
  323000    1.1911353   -7.0393111    138.73567  0.035793516  0.037318332            2 
  324000    1.1821101   -6.9967408    140.18657  0.036056217  0.037311135            3 
  325000    1.1964631    -7.046857    140.20252  0.035949363  0.037304118            3 
  326000    1.2124069     -7.05224     140.6934   0.03596457  0.037297322            1 
  327000    1.2199462   -7.0372503    141.12911  0.035965625  0.037289664            1 
  328000    1.1683228   -7.0657751    141.31696    0.0359037  0.037281426            1 
  329000    1.1834376   -7.0308035    141.87737  0.035936516   0.03727297            1 
  330000     1.222622   -7.0691935    142.02831  0.035865736  0.037264662            1 
  331000    1.1927802   -7.0036581     142.2134  0.035803977  0.037255941            1 
  332000    1.2134017   -7.0915784    142.02271  0.035648272  0.037247139            2 
  333000    1.1799872    -7.030673    143.39696  0.035885126  0.037238764            1 
  334000    1.2127417   -7.0596952    143.85428  0.035891787  0.037230415            1 
  335000    1.2092682   -7.0255754    143.93507  0.035804743  0.037221562            1 
  336000    1.2224447   -7.0190218    144.75544  0.035901648  0.037213265            3 
  337000    1.2144781   -7.0785886    144.35615  0.035696377   0.03720486            1 
  338000    1.1958983   -7.0327061      144.754  0.035688857  0.037194278            1 
  339000    1.1932087   -7.0220628    145.55072  0.035779429  0.037184871            3 
  340000    1.2046181   -7.0182555    145.58675  0.035683028  0.037175059            1 
  341000    1.1820498   -7.0748414    145.78773    0.0356275  0.037164941            1 
  342000    1.1763603   -6.9847871    147.19347  0.035865855   0.03715525            1 
  343000    1.1736375   -7.0170833    147.40462   0.03581259   0.03714653            1 
  344000    1.1920181   -7.0759922    147.13014  0.035641992   0.03713776            2 
  345000      1.21052   -7.0434022    148.17983  0.035792229  0.037128602            2 
  346000    1.2027291   -6.9974979    148.99207   0.03588441  0.037120535            2 
  347000    1.2089775   -7.0043628    149.80417  0.035976026   0.03711409            1 
  348000    1.1963855   -7.0241668    149.07407  0.035697814  0.037106743            4 
  349000    1.1983611   -7.0510139    149.91886  0.035797245  0.037098522            2 
  350000    1.2163737   -7.0811396    150.11605  0.035741917  0.037090066            1 
  351000    1.1620302   -7.0252751    150.19014  0.035657679  0.037080834            1 
  352000    1.1984358    -6.998606    151.21737  0.035799566  0.037071658            1 
  353000    1.2224496   -7.0674565    150.80104  0.035599867  0.037061921            2 
  354000    1.2084534   -7.0215444    151.06183  0.035560695  0.037051818            1 
  355000     1.217768   -7.0190391    152.33007  0.035758233  0.037042038            1 
  356000    1.1806726   -7.0621445    153.03196  0.035822087   0.03703411            2 
  357000     1.177712   -7.0403991    153.69927  0.035877513  0.037025338            2 
  358000    1.1989613    -7.045219    153.55131  0.035742856  0.037017999            1 
  359000    1.1767647   -7.0671872    154.21314  0.035796921    0.0370098            2 
  360000    1.1850347   -7.0433403    154.71832  0.035814426  0.037001939            2 
  361000    1.2257832   -7.0109976    154.62252  0.035693102  0.036993734            3 
  362000    1.2098585   -7.0180579     155.4531  0.035785705  0.036985403       -1e+20 
  363000    1.1790475   -7.0088427    155.79906  0.035766542  0.036978346            2 
  364000    1.2053568   -7.0212311    156.15104  0.035748865  0.036970312            1 
  365000    1.2039992   -7.0728835    156.51955  0.035735058  0.036962321            2 
  366000     1.171593    -7.035723    156.71441  0.035681787   0.03695387            2 
  367000    1.2146818   -7.0859398    157.38691  0.035737263  0.036945781            4 
  368000    1.1893518   -7.0482721    157.38701  0.035640174  0.036937708            2 
  369000    1.1540608   -7.0571897    158.11321   0.03570759   0.03692897            1 
  370000    1.1834579   -7.0880113    157.73496  0.035525892  0.036920098            2 
  371000     1.198335   -7.0293752    158.77493  0.035663732  0.036911529            1 
  372000    1.2074896   -7.0728391    158.88112  0.035591649  0.036902464            1 
  373000    1.1840928   -7.0237118    158.91946  0.035504794  0.036892751            1 
  374000    1.2143623   -7.0745108     159.1471  0.035460584   0.03688262            4 
  375000    1.1769827   -7.0553026    159.93542  0.035541205  0.036871642            1 
  376000    1.1881638   -7.0531807    160.21176  0.035507925  0.036860781            1 
  377000    1.1812279   -7.0483817      160.896  0.035564987  0.036850296            4 
  378000    1.1870701   -7.0635854    160.64292  0.035415106  0.036839269            1 
  379000    1.1983289   -7.0727844    161.14482  0.035432018  0.036828965            2 
  380000    1.2008674    -7.081916     161.4204   0.03539921  0.036818944            2 
  381000    1.1946693   -7.0483085     161.9394  0.035419816  0.036808086            1 
  382000     1.184688   -7.1313724    162.29429  0.035404513   0.03679669            1 
  383000    1.1859117   -7.0146804    162.85415  0.035433889  0.036784888            1 
  384000    1.1917519   -7.0407526    162.82976  0.035336319  0.036772808            1 
  385000     1.189771   -7.0681416    163.20893  0.035326609  0.036760134            1 
  386000    1.1722897   -7.0418685    163.80384  0.035363522  0.036747963            3 
  387000    1.1803093   -7.0199679    164.73823  0.035473349  0.036736659            1 
  388000    1.1923274   -7.0976513    164.61173  0.035354754  0.036725627            2 
  389000    1.1854268   -7.0703216    164.76992  0.035297755  0.036713678            1 
  390000    1.1907992   -7.0639537    165.18997  0.035297002  0.036701255            1 
  391000    1.1919989   -7.0929222    165.83222  0.035343611  0.036688768            1 
  392000    1.1834883   -7.0936607    166.30847  0.035354692  0.036676881       -1e+20 
  393000    1.2020729   -7.1070939    165.81655  0.035160422  0.036664966            1 
  394000    1.1755061   -7.0905407    167.04143  0.035330253  0.036653589            1 
  395000    1.1953216   -7.0539273    167.64117  0.035367336  0.036642581            2 
  396000    1.1899534   -7.0867437    167.69346  0.035289027  0.036631726            2 
  397000    1.2171422   -7.0670827    168.81046  0.035434604  0.036621568            1 
  398000    1.2015299   -7.1056941    169.21471  0.035430216   0.03661336            1 
  399000    1.1529004   -7.0691833    169.45488   0.03539158  0.036604762            1 
  400000    1.1919002   -7.0988658    169.66406   0.03534668  0.036595082            2 
  401000    1.1957357   -7.0722224    169.41423  0.035206615  0.036585018            2 
  402000    1.2002989   -7.0474871    170.14027  0.035269542  0.036574825            2 
  403000    1.1843506   -7.0875179    170.27661  0.035210216  0.036563219            3 
  404000    1.1780118   -7.0283247    171.57987  0.035391888  0.036552872            7 
  405000    1.1899679   -7.1402159    171.57577  0.035303657  0.036542451            2 
  406000    1.1577444   -7.0416991    172.63187   0.03543347   0.03653232            1 
  407000    1.1838052    -7.099305    171.81946   0.03518007  0.036522029            1 
  408000    1.1906597   -7.0698351    172.65383  0.035264262  0.036511402            2 
  409000    1.1838255   -7.0580708    172.57445  0.035161868  0.036500636            2 
  410000    1.1730505   -7.0440423    173.75171  0.035315388  0.036489922            1 
  411000     1.185042   -7.0844559    173.52004  0.035182491  0.036478599            2 
  412000    1.2005443   -7.0738537    173.64751  0.035122877  0.036466207            1 
  413000    1.2127342   -7.0604303    174.76315  0.035262943  0.036453903            3 
  414000    1.2104791   -7.0590415    174.72326  0.035169739  0.036442135            2 
  415000    1.1720197   -7.0511435    174.63932  0.035068137  0.036430317            1 
  416000    1.1573324   -7.0508765    175.42799  0.035141825   0.03641739            1 
  417000     1.193957   -7.0641657    176.01926  0.035175712  0.036404845            5 
  418000      1.18476   -7.0807814    175.15833  0.034919922  0.036392032            2 
  419000    1.1733131   -7.0789464    176.04498  0.035012923  0.036379435            2 
  420000    1.1899943   -7.0928014    176.19957  0.034960232  0.036366467            2 
  421000    1.1794607   -7.0472392    177.95338  0.035224343  0.036354373            2 
  422000    1.2072453   -7.0719389    177.88951   0.03512826  0.036342109            2 
  423000    1.1775139   -7.0982783    177.54931  0.034978194  0.036329983            1 
  424000    1.1814683   -7.1023903    178.09073  0.035002109  0.036317874            1 
  425000     1.197204    -7.055022    179.04335   0.03510654  0.036305862            2 
  426000    1.1871695   -7.0727338    179.44371  0.035102447  0.036294227            1 
  427000     1.159243   -7.0610004    180.12282  0.035152775   0.03628325            1 
  428000    1.1874505   -7.0466227    180.83833  0.035209955  0.036273145            1 
  429000    1.1945689   -7.0270657     180.7459  0.035109926  0.036263447            1 
  430000    1.1788614   -7.0771925    181.27403  0.035130626   0.03625386            1 
  431000    1.1880276   -7.0965015     182.0029  0.035190043  0.036244917            1 
  432000    1.1671607   -7.0828699      182.411  0.035187307  0.036235687            3 
  433000    1.2158094   -7.0691469    182.89205  0.035198625  0.036226185            1 
  434000    1.1738109   -7.0895408    182.82121   0.03510392  0.036217206            2 
  435000    1.1814644   -7.0994621    183.36797  0.035127964  0.036208223            1 
  436000    1.1675607   -7.0476935    184.06335  0.035180303  0.036199412            2 
  437000    1.1802414   -7.1136715    183.86649   0.03506226  0.036190217            1 
  438000    1.1809562   -7.0778851    184.53779  0.035109929  0.036180263            2 
  439000    1.1647015   -7.0841606    184.48415  0.035019771   0.03617015            2 
  440000    1.2081619   -7.0707728    184.73945  0.034988532  0.036160195            2 
  441000    1.1860925   -7.0583866    185.66036  0.035083212  0.036150432            1 
  442000    1.1911644   -7.1024072    185.78471  0.035027284  0.036140757            2 
  443000     1.183203   -7.1077801    186.38151  0.035060479  0.036131269            2 
  444000    1.1635016   -7.0871483    186.63774  0.035029605  0.036121665            2 
  445000    1.1871847   -7.0588629    188.08335  0.035221602  0.036112354            1 
  446000    1.1466177   -7.0422103    187.84581  0.035098246  0.036102998            2 
  447000     1.168084   -7.0950882    187.24651     0.034908  0.036092274            5 
  448000    1.1922354   -7.0677533    188.60038  0.035081915  0.036081697            3 
  449000     1.191788   -7.1045693    188.68373  0.035019251   0.03607264            1 
  450000    1.1837344   -7.0637704    189.36776  0.035068104  0.036063859            2 
  451000    1.1926213   -7.0541616    190.72379  0.035240908  0.036055737            1 
  452000    1.1450271   -7.0681133    190.66356  0.035151836  0.036047582            3 
  453000    1.1890007   -7.0508751    191.13597  0.035161143  0.036039296            1 
  454000    1.1788094   -7.0711883    190.90421  0.035041154  0.036031257            1 
  455000    1.1885739   -7.0246216    192.77364  0.035306528  0.036023496            2 
  456000    1.1448789   -7.0761343    193.04085  0.035277934  0.036016127            3 
  457000    1.1664624   -7.0566239    193.12828  0.035216681  0.036008974            2 
  458000    1.1600739   -7.0857465    193.53877  0.035214478  0.036002005            3 
  459000    1.1770401   -7.0306104    194.14302  0.035247462  0.035994697            1 
  460000    1.1639832   -7.0753184    194.27977   0.03519561   0.03598825            1 
  461000    1.1738887   -7.0642361     194.6831  0.035192173  0.035980979            2 
  462000    1.2034137   -7.1507507    193.83052  0.034962214  0.035972994            1 
  463000    1.1839863   -7.0984252    194.27446  0.034966605   0.03596496            3 
  464000    1.1847353   -7.0588655    195.82386  0.035169515  0.035957426            1 
  465000    1.2002024   -7.1185282    195.52141  0.035039679  0.035949306            2 
  466000    1.1596426   -7.0806205    195.82401  0.035018599  0.035941298            1 
  467000    1.1619668   -7.0970627    195.80881  0.034940901  0.035932797            1 
  468000    1.1600275   -7.0963596    196.75992  0.035035598  0.035924507            1 
  469000     1.201507   -7.0990269    196.49733  0.034914238  0.035916252            1 
  470000    1.1666036   -7.1385932    196.61822  0.034861387  0.035906432            1 
  471000    1.1857078   -7.0876887    196.54546  0.034774498  0.035896441            2 
  472000     1.171567   -7.0956695    197.79272   0.03492103  0.035886871            1 
  473000    1.1600969    -7.078036    197.69809  0.034830529  0.035876825            1 
  474000    1.1583977   -7.0882815    198.32104  0.034866568   0.03586666            2 
  475000     1.197329   -7.0695911    199.28521  0.034962317  0.035856733            2 
  476000    1.1671073   -7.1088691    198.75237  0.034795583  0.035847251            1 
  477000    1.1821488   -7.0406947    199.72253  0.034892126  0.035837065            2 
  478000    1.2081509   -7.0839593    199.71994  0.034818679  0.035827623            1 
  479000    1.1818565   -7.1119827    200.20361  0.034830133  0.035818283            2 
  480000    1.1608453   -7.1514117    200.68089  0.034840432  0.035808939            1 
  481000    1.1729948   -7.1467824    200.39517  0.034718497  0.035798797            1 
  482000    1.1748745   -7.1304655    200.83586   0.03472266  0.035787845            2 
  483000    1.1872545   -7.0695906    201.94895  0.034842814  0.035777605            1 
  484000    1.1717838   -7.0879036    202.17442  0.034809645  0.035767483            2 
  485000    1.1768779   -7.0797319    202.09974  0.034725041   0.03575672            1 
  486000    1.1686076   -7.0968815    203.02446  0.034812149  0.035746279            1 
  487000    1.1717099   -7.0938183    202.94776  0.034727544  0.035736366            1 
  488000    1.1765828   -7.0933453    203.61416  0.034770178  0.035726956            2 
  489000    1.1486266     -7.08371    203.51892  0.034682842  0.035717036            2 
  490000    1.1463818   -7.0840424    204.68389  0.034810185  0.035706948            2 
  491000    1.1466976   -7.0809648    204.50524  0.034708969  0.035696968            2 
  492000    1.1844146    -7.089967    204.80053  0.034688437  0.035686867            1 
  493000    1.1596081   -7.0813926    204.89894  0.034634709  0.035675784            1 
  494000    1.1805373   -7.1174493    205.38902   0.03464727  0.035664227       -1e+20 
  495000    1.1853348   -7.0849534    205.09443  0.034527683  0.035652774            2 
  496000    1.1923058   -7.1208932    205.97498  0.034606011  0.035641863            1 
  497000    1.1597746   -7.1008834    206.02997  0.034545602   0.03563051            2 
  498000    1.1753649    -7.093074    207.51465  0.034724674  0.035619649            3 
  499000    1.1637853   -7.1172091    207.05019   0.03457752  0.035609036            3 
  500000     1.166801   -7.0949699    207.79466  0.034632443  0.035598591            1 
  501000     1.175499    -7.091611    207.95428  0.034589866  0.035587933            2 
  502000    1.1636809   -7.0925589    208.21742  0.034564644  0.035577637            2 
  503000    1.1874061   -7.0814245    208.64021  0.034565972  0.035566737            1 
  504000    1.1430984   -7.1400921    209.49536  0.034638783  0.035555916            1 
  505000    1.1899689   -7.1088339     210.2276  0.034691023   0.03554519            2 
  506000    1.1847878   -7.1025223     209.1456  0.034444269  0.035535023            2 
  507000    1.1604394   -7.0785591    210.56659  0.034609892   0.03552431            2 
  508000    1.1620486   -7.0886596    210.20751   0.03448286  0.035513272            3 
  509000    1.1690751   -7.1192134    210.79197  0.034510801  0.035502763            1 
  510000    1.1624381   -7.0790041    211.38726  0.034540401  0.035492007            1 
  511000    1.1818308   -7.1150621    210.99002  0.034408026  0.035481553            2 
  512000    1.1759313    -7.132877    212.09648  0.034520911  0.035470314            1 
  513000    1.1739675   -7.0987827    211.75006  0.034397346  0.035459265            2 
  514000    1.1541732   -7.1373129    211.92662  0.034359049   0.03544713            2 
  515000    1.1813867   -7.0751997    212.47557   0.03438116  0.035434986            2 
  516000    1.1739755   -7.1625108    211.87687   0.03421784  0.035422661            3 
  517000    1.1543872   -7.1447553    213.15822  0.034358192  0.035410284            3 
  518000    1.1751218   -7.0877393    213.50497  0.034347647  0.035397774            1 
  519000    1.1686572   -7.0893365    213.13097  0.034221415  0.035385529            4 
  520000    1.1816226   -7.1070287    214.41608  0.034361551  0.035372864            1 
  521000    1.1872492   -7.1497195    214.25845  0.034270385  0.035360689            1 
  522000    1.1710478   -7.1262175    214.47868  0.034239891  0.035348364            1 
  523000    1.1502511   -7.1132663    214.95703  0.034250642   0.03533598            3 
  524000    1.1457934   -7.1020023    215.43383  0.034261105   0.03532419            1 
  525000     1.163257   -7.1241306    215.07219  0.034138443  0.035311853            1 
  526000    1.1622836   -7.0921929    215.88318  0.034202025  0.035299816            1 
  527000    1.1610659   -7.1210087    216.83427  0.034287518  0.035287386            1 
  528000    1.1645118   -7.0880448    217.01917  0.034251762  0.035275678            1 
  529000    1.1896034   -7.1233347    216.88901  0.034166511  0.035263823            3 
  530000    1.1886695   -7.1014301    216.98153  0.034116593  0.035251609            1 
  531000    1.1529809   -7.1370288    217.70298  0.034165565  0.035239366            3 
  532000     1.163092   -7.1187549     217.9531  0.034140523   0.03522701            2 
  533000    1.2051178   -7.0802709    217.89911  0.034068028  0.035214987            1 
  534000    1.1642716   -7.0921032     219.0294  0.034180618  0.035203052            2 
  535000    1.1697198   -7.1238321    218.49137  0.034032924  0.035190649            3 
  536000    1.1773918   -7.0580989    219.76684  0.034167731  0.035178614            3 
  537000    1.1820225   -7.1489643    219.76748  0.034104202  0.035166143            2 
  538000    1.1957587   -7.0916093    219.69821  0.034030083  0.035154159            1 
  539000    1.1932573   -7.0987847    220.87153   0.03414835  0.035142268            2 
  540000    1.1517309   -7.0867957    222.37563  0.034317226  0.035131354            2 
  541000    1.1673191   -7.1558994    221.05173  0.034049865  0.035120086            1 
  542000    1.1420939   -7.1309869    221.82293  0.034105617   0.03510834            2 
  543000    1.1853652   -7.1424152    221.53729   0.03399897  0.035096257            2 
  544000    1.1666286   -7.1116984    222.07566  0.034018943  0.035083754            2 
  545000    1.1682151   -7.1529067    222.31501  0.033993121  0.035070466            3 
  546000    1.1926982   -7.1073586    222.37828  0.033940519  0.035057482            2 
  547000    1.1883821   -7.1040279    223.04293  0.033979728  0.035044333            1 
  548000    1.1772487   -7.1036106    223.19582   0.03394097  0.035031516            1 
  549000    1.1594979   -7.1354058    224.19852  0.034031347   0.03501922            1 
  550000    1.1470652    -7.173262    223.90046  0.033924313  0.035006902            1 
  551000    1.1887487   -7.1094416    225.07349  0.034040153  0.034994824            1 
  552000    1.1874503   -7.1417386    225.31819  0.034015427  0.034983416            1 
  553000     1.130261   -7.0929067    225.74622  0.034018418  0.034971953            1 
  554000    1.1510841   -7.1143368    225.85996  0.033974122  0.034960309            3 
  555000    1.1373585   -7.0996439    226.70878  0.034040358  0.034948499            3 
  556000    1.1719842   -7.1318257    226.61245  0.033964695  0.034937357            2 
  557000    1.1493886    -7.101588    228.25764  0.034149857  0.034926271            1 
  558000    1.1919561   -7.1147926    227.92434   0.03403888  0.034915244            1 
  559000    1.1702355   -7.0678018    228.03129  0.033993931  0.034904286            2 
  560000    1.1666545   -7.1169326    228.13951  0.033949331  0.034893617            2 
  561000    1.1468631   -7.1363546    227.96881  0.033863459  0.034881548            2 
  562000    1.1635815   -7.1215719    228.67483  0.033907893  0.034869716            4 
  563000     1.171934   -7.1313995    228.66675   0.03384647  0.034858269            1 
  564000    1.1207446   -7.1364645    230.04912  0.033990709  0.034847159            3 
  565000    1.1684473   -7.0827098     231.0955  0.034084882   0.03483633            2 
  566000    1.1683026   -7.1762708    229.93634  0.033853995   0.03482531            1 
  567000    1.1630507   -7.1153423    231.45788  0.034017913  0.034813942            1 
  568000    1.1503972   -7.1643028     230.8213  0.033864627  0.034802692            2 
  569000    1.1772539    -7.107581    231.93122  0.033967665  0.034791961            1 
  570000    1.1379383   -7.1541455    232.35778  0.033970435  0.034781508            2 
  571000    1.1592552   -7.0737462    232.52633  0.033935541  0.034771324            2 
  572000    1.1715167   -7.1013516    232.79903  0.033915942  0.034761156            1 
  573000    1.1546724   -7.1512959    232.87643  0.033868009  0.034750593            1 
  574000    1.1632147   -7.1357152      232.795  0.033797183  0.034739291            2 
  575000    1.1623629   -7.1317881    232.29257   0.03366559  0.034727859            1 
  576000    1.1789427   -7.1301986    233.94853  0.033846721  0.034716349            2 
  577000    1.1604897   -7.1545601    234.38504  0.033851103  0.034704912            1 
  578000    1.1582523   -7.1439889    234.42831  0.033798776  0.034693684            1 
  579000    1.1644271    -7.102541    235.65087   0.03391636  0.034683007            3 
  580000    1.1715856   -7.1455538    235.92377  0.033897093  0.034672026            1 
  581000     1.172536   -7.1117598    236.30219  0.033893028  0.034660973            2 
  582000    1.1609223   -7.1512804    235.89348  0.033776272  0.034650029            5 
  583000     1.139202   -7.1581767    235.81975  0.033707797  0.034639092            1 
  584000    1.1612965   -7.1129282    237.40411  0.033876157  0.034628877            1 
  585000    1.1465639   -7.1547947     236.4242  0.033678661  0.034618835            1 
  586000    1.1780754   -7.1108626    238.45395  0.033909834  0.034608681            2 
  587000    1.1533517   -7.1685539    238.20862  0.033817237  0.034598736            3 
  588000    1.1749799   -7.0872529    239.12414  0.033889475  0.034588844            1 
  589000    1.1494131   -7.1203097     239.0945  0.033827745  0.034578961            4 
  590000    1.1744023   -7.1429639    239.43121  0.033817967  0.034569549            2 
  591000    1.1488285   -7.1423438     239.7082  0.033799803  0.034560291            2 
  592000    1.1534797   -7.1099958    241.23684  0.033957888  0.034551043            1 
  593000     1.165977    -7.206757    239.61597  0.033672846  0.034540933            1 
  594000    1.1212195   -7.1104825    241.03771  0.033815616  0.034530865            2 
  595000    1.1479768   -7.1701927    241.28353  0.033793211  0.034520973            1 
  596000    1.1423804   -7.1530844    241.51339  0.033768651  0.034511302            2 
  597000    1.1446126   -7.1138261    242.29202  0.033820773  0.034501534            2 
  598000    1.1623044   -7.1589792    242.59861  0.033806942   0.03449197            1 
  599000    1.1490165   -7.1537146    242.38368    0.0337206  0.034482097            2 
  600000    1.1538495   -7.1096426    242.90103  0.033736255  0.034472255            1 
  601000    1.1567469   -7.1601254     242.6351  0.033643247  0.034462282            3 
  602000    1.1584246   -7.1121264     243.1887  0.033663995  0.034451713            2 
  603000    1.1494754    -7.141026    243.17528  0.033606313  0.034440541            2 
  604000    1.1622039   -7.1835152    244.15534  0.033685891  0.034429779            1 
  605000    1.1687349   -7.1455103    242.81498   0.03344559  0.034418311            1 
  606000    1.1709453   -7.1293281    244.24799  0.033587457  0.034406609            2 
  607000    1.1663841   -7.1126788    244.79034  0.033606581  0.034395293            1 
  608000    1.1520127   -7.1856173     244.5552  0.033519078  0.034383906            1 
  609000     1.148431   -7.1889815    244.41301  0.033444582   0.03437232            1 
  610000    1.1705587   -7.1650463    245.09318  0.033482675  0.034360694            1 
  611000    1.1223474   -7.1385686    245.41703  0.033472045  0.034349413            2 
  612000    1.1548423   -7.1490127    245.82034  0.033472269  0.034338139            3 
  613000    1.1507178   -7.1868438    246.69992  0.033537237  0.034326908            4 
  614000    1.1569403   -7.1186556    246.53526  0.033460268  0.034315686            1 
  615000    1.1698253   -7.1433589    246.49043  0.033399787  0.034304304            4 
  616000    1.1585285   -7.1331981    247.96667  0.033545275  0.034293091            1 
  617000    1.1216468   -7.1529189    247.82061  0.033471179  0.034281909            1 
  618000    1.1764151   -7.1709248    249.01124  0.033577568  0.034270903            2 
  619000    1.1807728   -7.1227729    249.59734  0.033602227  0.034260892            4 
  620000    1.1727386   -7.1457009    250.12404  0.033618823  0.034251052            1 
  621000    1.1637125    -7.180244    249.77234   0.03351749  0.034241318            1 
  622000    1.1664129   -7.1496678    250.18205  0.033518496  0.034231431            2 
  623000    1.1364693   -7.2047829    250.56407  0.033515794  0.034221953            1 
  624000    1.1561976   -7.1258253    251.85247  0.033634144  0.034212547            1 
  625000    1.1579249   -7.1002322    252.47282  0.033663043  0.034203517            3 
  626000    1.1461349   -7.1344371    252.37258  0.033595924  0.034194781            2 
  627000    1.1483631   -7.1551155    252.69005  0.033584536  0.034186154            2 
  628000    1.1704762   -7.1229467    252.95654  0.033566419  0.034176887            1 
  629000     1.159351   -7.1445352    252.72733  0.033482687  0.034167892            1 
  630000    1.1410582   -7.1405823    253.56585  0.033540457  0.034158796            1 
  631000    1.1435746   -7.1287112     254.2672  0.033579926  0.034149375            1 
  632000    1.1579445   -7.1544879    253.96873  0.033487437  0.034140041            3 
  633000    1.1396282   -7.1118179    255.09429  0.033582713  0.034131161            1 
  634000    1.1388432   -7.1766141    254.62863  0.033468537  0.034121608            2 
  635000    1.1525852   -7.1280687    255.79344  0.033568693  0.034112439            1 
  636000    1.1609919   -7.1783695    255.45122  0.033471072  0.034103371            1 
  637000    1.1375163   -7.1612275     255.8068  0.033465045  0.034093905            1 
  638000    1.1746984   -7.1599429    256.37457  0.033486752  0.034084892            1 
  639000    1.1446202   -7.1293793    256.19831   0.03341136  0.034075344            2 
  640000    1.1605077   -7.1451987     257.3135  0.033504362  0.034065806            2 
  641000    1.1206646   -7.1642331    257.09876  0.033424176  0.034056241            1 
  642000    1.1946055    -7.119196    257.48075  0.033421696  0.034046946            2 
  643000    1.1673565   -7.1494219    258.94174  0.033559064  0.034038073            2 
  644000    1.1247427    -7.168193    257.54533  0.033326259  0.034028628            1 
  645000    1.1532777    -7.153768    257.74764  0.033300729  0.034019392            2 
  646000    1.1427227   -7.1515181     259.3759  0.033459224  0.034010174            1 
  647000    1.1584486   -7.1365406    259.69759  0.033448942  0.034000833            1 
  648000    1.1459657   -7.1827987    258.90291  0.033295127  0.033991451            1 
  649000     1.139576   -7.1801116    259.66948  0.033342255  0.033981344            1 
  650000    1.1488818   -7.1666579    260.42445   0.03338775  0.033971404            2 
  651000    1.1542474   -7.1819656    260.55666  0.033353387  0.033962066            1 
  652000    1.1520986   -7.1699403    261.09272  0.033370746  0.033952691            2 
  653000    1.1412518     -7.17067    261.16303  0.033328616  0.033943606            1 
  654000    1.1443962   -7.1890536    261.24037  0.033287508   0.03393375            1 
  655000    1.1582062   -7.1567776    261.10386  0.033219321  0.033924594            1 
  656000    1.1619966   -7.1283057    262.30677   0.03332149   0.03391545            1 
  657000    1.1545261    -7.128808    262.39114  0.033281474   0.03390647            1 
  658000    1.1581335   -7.2301017    262.11095  0.033195409  0.033896931            4 
  659000    1.1502239   -7.1453664    263.56753  0.033329227  0.033886936            2 
  660000    1.1268064   -7.1542006    263.57313  0.033279436  0.033877484            1 
  661000    1.1264083   -7.1738127    263.95158  0.033276801    0.0338679            2 
  662000    1.1363112   -7.1392025    263.86057  0.033215076  0.033858151            3 
  663000     1.122545    -7.179734     264.5062  0.033246129  0.033848589            1 
  664000    1.1494493   -7.1378161    265.41805  0.033310499  0.033839174            2 
  665000    1.1507947   -7.1566571    264.78405  0.033180958  0.033829967            1 
  666000    1.1644121   -7.1889988    264.92054  0.033148215  0.033820508            1 
  667000    1.1401393     -7.19831     265.4111  0.033159808  0.033810978            3 
  668000    1.1305605   -7.1664753     265.8673  0.033167079  0.033801467            1 
  669000    1.1385407   -7.1822565    266.52163  0.033199008  0.033792178            1 
  670000    1.1648455   -7.1580701    266.27917  0.033119299  0.033782717            2 
  671000    1.1295754   -7.1673759    267.16023  0.033179363  0.033773303            1 
  672000    1.1280299   -7.1683795    266.85619  0.033092285  0.033763686            1 
  673000    1.1312632   -7.1341171    268.50331  0.033247067  0.033754009            2 
  674000    1.1385187   -7.1490968    267.45921  0.033068646  0.033744496            1 
  675000    1.1564903   -7.1488879    268.85025  0.033191388  0.033734621            1 
  676000     1.128935   -7.1810389    267.62139  0.032990802  0.033724728            1 
  677000     1.143955   -7.1670514    268.14952  0.033007081  0.033714938            1 
  678000    1.1366208   -7.1225498    268.75096  0.033032321  0.033704932            1 
  679000    1.1453789   -7.1749908    268.16128  0.032911301  0.033694726            2 
  680000    1.1110147   -7.1631326    269.42579  0.033017866  0.033684223            2 
  681000    1.1362924   -7.2133765    269.53326  0.032982533  0.033674132            1 
  682000    1.1242729   -7.1671328    270.17956  0.033013143  0.033664159            2 
  683000    1.1543008   -7.1460371    270.38079   0.03298936  0.033653948            3 
  684000    1.1563198   -7.1437242    271.44122  0.033070323  0.033644053            2 
  685000    1.1179126   -7.1662538    271.54567  0.033034753  0.033634348            1 
  686000    1.1572881   -7.1493379    271.76866  0.033013685   0.03362437            3 
  687000    1.1615343   -7.1783597     272.1277  0.033009182  0.033614694            2 
  688000     1.150888   -7.2258279    270.59757  0.032775868  0.033604364            1 
  689000    1.1126335   -7.1963076    271.93904  0.032890547  0.033593599            3 
  690000    1.1542025   -7.1733824    272.34917  0.032892412  0.033583284            1 
  691000    1.1410031   -7.1857868    273.84858  0.033025637  0.033573194            1 
  692000    1.1469314   -7.1747864    273.90923  0.032985215  0.033563317            2 
  693000    1.1085242   -7.1950965    273.20667  0.032853135   0.03355263            2 
  694000    1.1400756   -7.1777652    273.91244  0.032890543  0.033542391            1 
  695000    1.1426465   -7.2274955    273.73877  0.032822394  0.033532034            1 
  696000    1.1421138    -7.173737    274.68614  0.032888666   0.03352192            1 
  697000     1.146143   -7.1761652    276.04094   0.03300346  0.033512452            1 
  698000    1.1500432   -7.1678494    275.51573  0.032893473  0.033502712            2 
  699000    1.1436263   -7.2146955    276.04684  0.032909733  0.033492955            1 
  700000    1.1590406   -7.2308654    275.32455  0.032776732  0.033482795            1 
  701000    1.1090512   -7.1958239    275.75654  0.032781329   0.03347277            2 
  702000    1.1431555    -7.171855    276.48286  0.032820853  0.033462722            2 
  703000     1.143207   -7.1787049    277.16096  0.032854547  0.033452091            2 
  704000    1.1437257   -7.1590984    278.33074  0.032946347  0.033442085            1 
  705000    1.1416041   -7.1919079    277.01913  0.032744577  0.033432372            2 
  706000    1.1335399   -7.1888211    278.20656  0.032838357  0.033422117            1 
  707000    1.1564028   -7.1812231    278.48035  0.032824181  0.033412367            4 
  708000    1.1374434    -7.189005    278.19817  0.032744605  0.033402169            1 
  709000    1.1266977   -7.1831709    278.79825  0.032768953  0.033392002            2 
  710000    1.1512573    -7.171106    278.43008  0.032679587  0.033382056            1 
  711000    1.1302266   -7.1430828    280.01786  0.032819721  0.033371675            2 
  712000    1.1329442   -7.1674941    279.23166  0.032681608  0.033361541            5 
  713000    1.1178852   -7.1418114    280.16789  0.032745196  0.033351575            2 
  714000    1.1443207    -7.145288    280.81654   0.03277504  0.033342104            1 
  715000    1.1337662   -7.2253333    280.72256  0.032718247  0.033332078            1 
  716000    1.1244764   -7.1543017    281.40675  0.032752182  0.033322387            1 
  717000    1.1558561   -7.1835063    281.68609   0.03273897  0.033312873            2 
  718000    1.1451114   -7.1610216    282.40952  0.032777335  0.033303553            1 
  719000    1.1567172   -7.1745682    281.97055  0.032680871  0.033294243            2 
  720000    1.1567943   -7.1551798    283.43512  0.032804991  0.033285093            1 
  721000    1.1342678   -7.1468358    284.07937  0.032833954   0.03327578            2 
  722000    1.1588046   -7.1919431    282.98434  0.032662089  0.033266274            2 
  723000    1.1215997   -7.2035771    283.41611  0.032666679  0.033256576            2 
  724000    1.1207909    -7.175596    283.73921  0.032658749  0.033246512            2 
  725000     1.115759   -7.1907556    283.16144  0.032547292  0.033236457            1 
  726000    1.1538718   -7.1648549    284.27062  0.032629777  0.033226389            1 
  727000     1.143132   -7.1808231    283.90776  0.032543301  0.033216433            2 
  728000    1.1143595   -7.1979546    284.24776  0.032537518  0.033205838            3 
  729000    1.1548849   -7.1980138    285.07753  0.032587737  0.033195221            1 
  730000    1.1308751   -7.1652074    284.92605  0.032525805  0.033184407            1 
  731000    1.1376253   -7.1668067    286.95557  0.032712673  0.033173933            1 
  732000    1.1688869   -7.1737201    286.36152  0.032600355  0.033163852            1 
  733000    1.1345167   -7.1787749    286.35543  0.032555187  0.033154169            4 
  734000    1.1286743   -7.1980132     287.3657  0.032625534  0.033144219            2 
  735000    1.1195719   -7.1972461    286.87441  0.032525443  0.033134411            1 
  736000    1.1497564    -7.144677    288.90777  0.032711477  0.033124909            1 
  737000    1.1394502   -7.1933507    288.46597  0.032617138  0.033115635            3 
  738000    1.1553193   -7.1784397    288.26096  0.032549792  0.033106153            2 
  739000    1.1373647   -7.2333266    288.09015  0.032486485  0.033096578            3 
  740000    1.1326787   -7.1255183    289.20259  0.032567859  0.033086722            1 
  741000    1.1157252   -7.1911182    289.14308  0.032517216   0.03307713            1 
  742000    1.1061775   -7.1976663    288.91383  0.032447645  0.033067055            2 
  743000    1.1310319      -7.1525    290.61068  0.032594289  0.033057262            1 
  744000    1.1417672   -7.1863114    290.51328  0.032539569  0.033047661            1 
  745000    1.1474592   -7.2057427    289.90703  0.032428079  0.033037752            3 
  746000    1.1542694   -7.1903943    290.50531  0.032451442  0.033027896            2 
  747000      1.13046   -7.1929619    290.76346  0.032436798  0.033018018            2 
  748000    1.1250979   -7.2246064    290.88564  0.032407046  0.033008164            3 
  749000     1.140532   -7.1515627    290.35483  0.032304721  0.032997973            2 
  750000    1.1450023   -7.1584085    292.27896   0.03247544  0.032988034            1 
  751000    1.1346275   -7.1856393    292.10861  0.032413295  0.032978439            3 
  752000    1.1458615   -7.2305502    292.32834  0.032394541  0.032968628            1 
  753000    1.1181884   -7.1862459    293.35654   0.03246531  0.032958957            1 
  754000    1.1346146   -7.2381635    293.51949  0.032440262  0.032948997            1 
  755000    1.1154345   -7.2072242    292.32087  0.032264997  0.032938401            1 
  756000    1.1289016    -7.237846    292.97031  0.032293905  0.032928041            2 
  757000    1.1354131   -7.2076925    293.00966  0.032255577  0.032917728            1 
  758000    1.1421766   -7.2026952    293.62288  0.032280439  0.032907411            2 
  759000    1.1333041   -7.1690597     294.7042  0.032356632  0.032897085            2 
  760000      1.15415    -7.245469    294.18348   0.03225696  0.032887068            1 
  761000    1.1213177   -7.2128811    293.63284  0.032154276    0.0328767            2 
  762000    1.1256192    -7.194356    294.41697  0.032197831  0.032866239            1 
  763000    1.1307549   -7.1603344    294.47781  0.032162277  0.032855622            1 
  764000    1.1308461   -7.1608221    295.58324  0.032240755  0.032845276            3 
  765000     1.123303   -7.1741169    294.81793  0.032115243  0.032834796            3 
  766000    1.1064408   -7.1860587    297.43411  0.032357932  0.032824207            2 
  767000    1.1476348   -7.2053904    297.42801  0.032315082  0.032814105            2 
  768000    1.1219708   -7.1754146    297.69063    0.0323015  0.032804174            1 
  769000    1.1284684    -7.231475    296.65789  0.032147582  0.032794456            3 
  770000    1.1178086   -7.1917277    298.48857  0.032303957  0.032784565            2 
  771000    1.1300182   -7.1565365     298.6354  0.032277929  0.032774379            2 
  772000    1.1174764   -7.1767602    298.46714  0.032217955  0.032764277            1 
  773000    1.1416324   -7.2124729       297.95  0.032120526   0.03275424            2 
  774000     1.125752   -7.1706101    299.39531  0.032234637  0.032744135            1 
  775000    1.1194253   -7.2200188    298.88226  0.032137878  0.032734244            2 
  776000    1.1427884   -7.2217616     299.1544  0.032125687   0.03272403            3 
  777000    1.1260741   -7.2495899    299.06865  0.032075145  0.032713266            2 
  778000    1.1377298   -7.2416977    298.88602  0.032014355  0.032702504       -1e+20 
  779000    1.1089652   -7.2080726    299.15737  0.032002286  0.032692054            1 
  780000    1.1104227   -7.1745365    300.06796  0.032058543  0.032681406            2 
  781000    1.1090344   -7.1854184    301.43916  0.032163803  0.032670806            2 
  782000    1.1413223   -7.1777047    300.63043  0.032036491  0.032660357            2 
  783000    1.1213854   -7.2176733    301.55822  0.032094319    0.0326499            3 
  784000    1.1273762   -7.2122533    301.32321  0.032028402  0.032639502            1 
  785000    1.1205995   -7.2168455    302.74158  0.032138172  0.032629173            1 
  786000    1.1221906   -7.2371387     301.5857  0.031974735  0.032618804            2 
  787000    1.1172847   -7.1981187    301.34377  0.031908489   0.03260808            1 
  788000     1.142054   -7.1935868    302.70642  0.032012101  0.032597353            2 
  789000    1.1371926   -7.1773914    303.39527  0.032044283  0.032586979            1 
  790000     1.114669   -7.2004102    303.65886  0.032031525  0.032576653            3 
  791000    1.1125764    -7.204818     303.7478  0.032000401  0.032566187            2 
  792000    1.1211237   -7.2463622    303.72948  0.031958068  0.032555939            1 
  793000    1.1137556   -7.1973585    304.60135  0.032009389  0.032545806            1 
  794000    1.1364607   -7.2594196    304.40771  0.031948752  0.032535423            2 
  795000    1.1276986   -7.1973901    305.13198  0.031984484  0.032525238            1 
  796000    1.1292309   -7.2267732    305.47692  0.031980414  0.032515109            1 
  797000    1.1503635   -7.2313766     304.9428  0.031884442  0.032504733            4 
  798000    1.1224259    -7.203571    306.73177  0.032031304  0.032494436            2 
  799000    1.1196171   -7.2060416    307.07101  0.032026597  0.032484235            3 
  800000    1.1312599   -7.2293217    306.72608  0.031950633  0.032473976            2 
  801000    1.1217009   -7.1545999    306.96082  0.031935166  0.032463836            2 
  802000    1.1349099   -7.2166972    307.07411  0.031907119  0.032453917            2 
  803000    1.1235934   -7.2122357    307.64898  0.031927042  0.032444191            2 
  804000    1.1149927   -7.1913429    308.64858  0.031990939  0.032434215            2 
  805000    1.1425157    -7.239562     308.5365  0.031939597  0.032424196            2 
  806000    1.1271773   -7.2132911    308.44631  0.031890644  0.032414158            1 
  807000    1.1208397    -7.187691    309.38587  0.031948148  0.032404515            5 
  808000    1.1365449   -7.2012954    309.52286  0.031922737  0.032395332            2 
  809000     1.110526   -7.2014756    310.09144  0.031941846  0.032385927            3 
  810000    1.1333683   -7.2014007    310.80031  0.031975341  0.032376786            1 
  811000    1.1309524   -7.2296826    310.55649   0.03191086  0.032367234            2 
  812000    1.1480062   -7.2581134    309.99886  0.031814333  0.032357582            5 
  813000    1.1227988   -7.1937086    311.49055  0.031928101  0.032348059            2 
  814000    1.1223868   -7.2053647    311.83372  0.031924009  0.032338976            1 
  815000    1.1527059    -7.199214    313.52443  0.032057712  0.032330194            1 
  816000    1.1028022   -7.2154623    312.10577  0.031873547  0.032321338            3 
  817000    1.1011684   -7.2038853    313.17143   0.03194323   0.03231197            2 
  818000    1.1112533   -7.2043173    313.88401  0.031976773  0.032302872            3 
  819000    1.1163522     -7.18998    314.04704  0.031954318  0.032293946            3 
  820000    1.1377751   -7.2144544    313.93392  0.031903854  0.032284919            1 
  821000    1.1361656   -7.2534691    314.02474  0.031874212  0.032276173            3 
  822000    1.1297573   -7.2180088    314.54846   0.03188853  0.032267442            1 
  823000    1.1208183   -7.1988759    315.63869  0.031960175  0.032258826            2 
  824000    1.1323546   -7.2548908    315.17327  0.031874319  0.032250477            1 
  825000    1.0978941   -7.2305317    316.00415  0.031919611  0.032241703            1 
  826000     1.131757   -7.2052615    317.06457  0.031987951  0.032233138            4 
  827000    1.1375427   -7.2016193    316.33041  0.031875293  0.032224267            1 
  828000    1.1410757   -7.2270704    316.18494  0.031822156  0.032215509            1 
  829000    1.1145704   -7.2098622    317.15027  0.031880807  0.032206479            3 
  830000    1.1090443     -7.25112    316.18087  0.031745067  0.032197316            1 
  831000    1.1221599   -7.2198968    317.04865  0.031793888  0.032188057            1 
  832000    1.1254465    -7.222783    317.57597  0.031808491  0.032179107            2 
  833000    1.1099195    -7.222446    318.17122  0.031829854  0.032170034            1 
  834000    1.1108191   -7.2289544    318.08873  0.031783447  0.032161033            2 
  835000    1.1057305    -7.240409    318.73957  0.031810336  0.032151868            4 
  836000    1.1273246   -7.2335786    318.06875  0.031705418  0.032142805            4 
  837000    1.1024307   -7.2289956    318.51967  0.031712432   0.03213372            1 
  838000    1.1222454   -7.2455514    318.49235  0.031671873  0.032124619            2 
  839000    1.1381641   -7.1970572    319.44288  0.031728534  0.032115351            2 
  840000    1.1124943   -7.2366415    320.24983  0.031770816  0.032106175            1 
  841000    1.0988644   -7.2547612    319.08308  0.031617428  0.032096426            2 
  842000    1.1047775    -7.240737    321.22408  0.031791774  0.032087129            1 
  843000     1.112298   -7.2237871    320.57629  0.031690024  0.032077853            1 
  844000    1.1103891   -7.1956484    321.14484  0.031708613  0.032068704            1 
  845000    1.1113404   -7.2039814     320.8895  0.031645908  0.032059286            2 
  846000    1.1074667   -7.1853261     321.4375  0.031662481  0.032050003            1 
  847000    1.1383989   -7.2029319     322.0101  0.031681434  0.032040509            2 
  848000    1.1316171   -7.2010395    321.25713  0.031570079  0.032031042            2 
  849000    1.1186989   -7.2063726    321.77979  0.031584196  0.032021552            2 
  850000    1.1121313   -7.2160096    322.28626  0.031596692  0.032012112            1 
  851000    1.1137658   -7.2358674     322.6024  0.031590521  0.032002806            1 
  852000    1.1274127   -7.2482368     322.5816  0.031551409  0.031993242            2 
  853000    1.0891865   -7.2316877    323.38109  0.031592526   0.03198417            1 
  854000    1.1069498   -7.2361367    323.20903  0.031538742  0.031974667            2 
  855000    1.1112621   -7.2129807    324.12946  0.031591566  0.031965415            4 
  856000    1.1357989   -7.2281731    324.93483  0.031633064  0.031955812            1 
  857000    1.1155725   -7.2642741     322.9717  0.031405261   0.03194624            3 
  858000    1.1039149   -7.2364679    323.55625  0.031425433  0.031936505            1 
  859000    1.1389249   -7.2441633     324.3472   0.03146558  0.031926579            1 
  860000    1.1362065   -7.2437393    323.26591  0.031324216  0.031916494            1 
  861000    1.1031146   -7.2373725    323.61725   0.03132184  0.031906368            1 
  862000    1.1206103   -7.2109713    324.33693  0.031355078  0.031896017            1 
  863000    1.1177813   -7.2113858    324.27931  0.031313182  0.031885747            1 
  864000    1.1009617   -7.2174516    325.50518  0.031395176  0.031875562            2 
  865000    1.1072646    -7.301427    325.10329  0.031320163  0.031865165            2 
  866000    1.1210025   -7.2371187    325.34301  0.031307064  0.031854807            2 
  867000    1.1387573   -7.2330266    326.23642  0.031356827  0.031844778            4 
  868000    1.0968118   -7.2131167    326.57399  0.031353109  0.031834563            2 
  869000    1.1327499   -7.1936224    326.97687  0.031355665  0.031824249            3 
  870000    1.1071616   -7.2505005    326.72582  0.031295577  0.031813725            2 
  871000    1.1073324   -7.2068967    326.94621  0.031280732  0.031803238            2 
  872000    1.0802578   -7.2430348    327.55452  0.031302994  0.031792887            1 
  873000    1.1164225   -7.2090387    328.36657  0.031344651  0.031782668            3 
  874000    1.1097963   -7.2713711     326.8789  0.031166944  0.031772433            1 
  875000    1.0970388   -7.2663263    326.85266  0.031128825  0.031761954            2 
  876000    1.1146467   -7.2619038    327.22202  0.031128426   0.03175147            1 
  877000    1.0760486   -7.2570019    328.28396  0.031193839  0.031740949            3 
  878000     1.095839   -7.2606739    328.57541  0.031185972    0.0317304            3 
  879000    1.1131247   -7.2325659     328.3877  0.031132699   0.03171977            1 
  880000    1.0929277   -7.2423183    329.59533  0.031211679  0.031709845            3 
  881000    1.0870593   -7.2187114    331.12419  0.031320865  0.031699724            3 
  882000    1.1135317   -7.2527515    330.87539  0.031261847  0.031689916            1 
  883000    1.1173203   -7.2225056    330.84439  0.031223518  0.031679786            2 
  884000    1.1199162   -7.1880594    331.01402  0.031204187  0.031669708            2 
  885000     1.121069   -7.2685571    329.88594  0.031062706  0.031659465            2 
  886000    1.0875001   -7.2544381    331.15443  0.031146955  0.031649421            1 
  887000    1.0990527   -7.2299696    332.46741  0.031235194  0.031639504            3 
  888000    1.1340289   -7.2449395    331.64921  0.031123236   0.03162937       -1e+20 
  889000     1.130932   -7.2013504    332.86134  0.031201851  0.031619355            1 
  890000    1.1266656    -7.220858    333.10446  0.031189556  0.031609768            1 
  891000    1.1123022   -7.2147873    332.88548   0.03113407  0.031600138            1 
  892000     1.093268   -7.2676625    332.80783  0.031091912   0.03159032            1 
  893000    1.1164291   -7.2073275    333.74384  0.031144442  0.031580633            1 
  894000    1.1000635   -7.2711354    334.41298  0.031171978   0.03157084            1 
  895000    1.1253845   -7.2305848    334.52639  0.031147709  0.031561065            1 
  896000    1.1374321   -7.2806583    334.07841   0.03107128  0.031551319            2 
  897000    1.1189651   -7.2354089    335.68249  0.031185664  0.031541716            2 
  898000    1.1278314   -7.2235625     336.0492  0.031184966  0.031532206            1 
  899000    1.1022522   -7.2337149    335.92688  0.031138939  0.031522793            1 
  900000    1.1117208   -7.2641636    335.35457  0.031051349  0.031513257            1 
  901000    1.1077044   -7.1913521    335.73326  0.031051911  0.031503481            1 
  902000    1.1049777   -7.2553059    336.58807  0.031096458  0.031493981            1 
  903000    1.1215488   -7.2253111    338.36459  0.031225968  0.031484528            2 
  904000    1.0890123   -7.2558699    337.31535  0.031094704  0.031475231            1 
  905000    1.1046126   -7.2575538     338.1626  0.031138361  0.031465855            2 
  906000    1.1008118   -7.1977113      337.599  0.031052152  0.031456575            2 
  907000     1.094349   -7.2678592    336.93633  0.030957032  0.031447051            3 
  908000    1.1124919   -7.2558702    337.99212  0.031019835  0.031437694            4 
  909000    1.0977938   -7.2615467    337.29077  0.030921412  0.031428037            1 
  910000     1.093534   -7.2584184    338.50264  0.030998411  0.031418069            1 
  911000    1.1031508   -7.2223405    338.40388  0.030955349  0.031408417            1 
  912000    1.1078129   -7.2546239    338.25468  0.030907774  0.031398724            2 
  913000    1.0987792    -7.265113    339.15143  0.030955771  0.031389126            2 
  914000    1.1213325   -7.2818102    339.56267  0.030959397  0.031379094            2 
  915000    1.1375677   -7.2574477    339.72897  0.030940708  0.031369422            3 
  916000    1.1175334   -7.2564531    340.22914  0.030952432  0.031359687            1 
  917000    1.1142191   -7.2171391    340.92086  0.030981539   0.03135023            1 
  918000    1.1305874   -7.2511947    341.75003   0.03102306  0.031340639            1 
  919000    1.1016253   -7.2178987    341.49148  0.030965858  0.031330972            2 
  920000    1.1167012   -7.2195206    341.88641  0.030967972   0.03132143            2 
  921000    1.0883549   -7.2402873    342.26536  0.030968635  0.031311888            2 
  922000    1.1260994   -7.2616773    340.97631  0.030818538   0.03130224            2 
  923000     1.104679   -7.2632734    342.39537  0.030913269  0.031292742            1 
  924000    1.0878603   -7.2477425    342.69198  0.030906564  0.031283272            3 
  925000     1.119075   -7.2788541    343.13465  0.030913031  0.031273742            2 
  926000    1.1017292   -7.2076817    344.78814   0.03102845  0.031264546            3 
  927000    1.0981442   -7.2667973    343.68543   0.03089585  0.031255569            2 
  928000    1.0934172   -7.2955129    344.45292  0.030931476  0.031246603            1 
  929000    1.1082604    -7.228481     345.5764   0.03099896  0.031237659            1 
  930000    1.1152953   -7.2646424    345.48379  0.030957329  0.031228548            1 
  931000    1.1013008    -7.207931    346.46809  0.031012181  0.031219836            2 
  932000    1.0893001   -7.2724869     345.1511   0.03086115  0.031211137            1 
  933000    1.0904515   -7.2495651    346.54955  0.030952979  0.031201992            2 
  934000    1.1284832   -7.2570525    345.05444  0.030786441  0.031193109            3 
  935000    1.1063157   -7.2585457    346.87802  0.030916045  0.031183845            2 
  936000    1.1190647    -7.278568    345.10676  0.030725317  0.031174603            2 
  937000    1.1081209   -7.2807387    346.41987  0.030809309  0.031165317            3 
  938000    1.0881469   -7.2725266      347.569  0.030878553  0.031156408            1 
  939000    1.1055238   -7.2247589    348.01013  0.030884818   0.03114754            2 
  940000    1.1101081   -7.2882625    347.13466   0.03077435  0.031138514            2 
  941000    1.1216106   -7.2824969    348.10492   0.03082757  0.031129311            1 
  942000    1.1051198   -7.3016296    348.08285  0.030792892  0.031120019            2 
  943000    1.0769562   -7.2438318    348.30491  0.030779861  0.031110718            2 
  944000    1.0977975   -7.2941087    347.15427  0.030645681  0.031101386            1 
  945000    1.1021115   -7.2962796    349.55267  0.030824751  0.031091999            5 
  946000    1.1031374   -7.2393071    348.83295  0.030728765   0.03108267            1 
  947000    1.1241715   -7.2509518    350.29213  0.030824721  0.031073665            1 
  948000    1.1166701   -7.3235281    348.77207  0.030658586  0.031064373            4 
  949000    1.0899346    -7.266135    350.17272  0.030749273  0.031055144            1 
  950000    1.0975204   -7.2526863    349.86314   0.03068975  0.031045998            2 
  951000    1.0737383   -7.2667182    350.48729  0.030712171  0.031036834            2 
  952000    1.1035685   -7.2695172    350.48861  0.030680025  0.031027863            2 
  953000    1.1172931   -7.2404242    351.69181  0.030753044  0.031018779            1 
  954000    1.1138273   -7.2812958    350.94035  0.030655167  0.031009444            2 
  955000    1.0985179   -7.2300768    351.73018  0.030691987   0.03100002            2 
  956000    1.0896245   -7.2534175     351.2775  0.030620424   0.03099076            1 
  957000    1.1013852   -7.2827735    351.78083  0.030632256  0.030981058            2 
  958000    1.0888485   -7.2655741    353.01585  0.030707712  0.030971436            1 
  959000    1.1002274   -7.2810801     352.1086  0.030596854  0.030962102            2 
  960000    1.1077729    -7.270783    352.03783  0.030558839  0.030952579            1 
  961000    1.0934472   -7.2928133    352.00261  0.030523986  0.030942858            2 
  962000    1.1216099   -7.2741329    351.95196  0.030487869  0.030933235            2 
  963000    1.1134514   -7.2400151    352.14109  0.030472576    0.0309235            2 
  964000    1.1107809    -7.299641    352.41308  0.030464478  0.030913751            2 
  965000    1.1120529   -7.2516369    353.73124  0.030546739  0.030904081            4 
  966000    1.1051971   -7.2666685    353.14041  0.030464148  0.030894299            4 
  967000    1.0959614   -7.2628808    353.73725  0.030484079  0.030884716            2 
  968000    1.1275374   -7.3083983    354.19135  0.030491679  0.030875195            3 
  969000    1.1110766   -7.2549289    355.77919  0.030596766  0.030865755            2 
  970000    1.1004816   -7.2797162     355.7407  0.030561916  0.030856345            1 
  971000    1.0906459    -7.278734    354.87902   0.03045649  0.030846892            1 
  972000    1.1009254   -7.2428401    355.31694  0.030462701  0.030837388            2 
  973000    1.0863403   -7.2841301     355.2516  0.030425796  0.030827725            2 
  974000      1.09317   -7.2636743    355.02216  0.030374928  0.030817971            1 
  975000    1.0928477   -7.2662275    355.47404  0.030382397  0.030808047            2 
  976000    1.0947709   -7.2787848    355.65617  0.030366818  0.030798034            1 
  977000    1.1086727   -7.3094014     355.5827   0.03032947   0.03078805            2 
  978000    1.0992279   -7.2728028    357.92504  0.030498043   0.03077835            4 
  979000    1.1167317   -7.2512611    356.86978  0.030377067  0.030768828            2 
  980000    1.1191288   -7.2622906    357.65365  0.030412725   0.03075931            3 
  981000     1.101646   -7.2522107    356.45046  0.030279515  0.030749755            1 
  982000    1.1072799   -7.2927343    357.66018  0.030351339  0.030740063            1 
  983000    1.1026184   -7.2558429     358.2851   0.03037344  0.030730421            2 
  984000    1.0861623   -7.2308674    358.78463  0.030384877  0.030720588            1 
  985000    1.0803097   -7.3172753    357.09706  0.030211257  0.030710771            2 
  986000    1.0788768   -7.2775841    357.82088  0.030241792  0.030700701            3 
  987000    1.0805188   -7.2478632    358.12702  0.030236999   0.03069064            1 
  988000    1.0885804   -7.2375742    359.33613  0.030308378  0.030680629            1 
  989000    1.1245039    -7.276447    358.26978  0.030187881  0.030670691            1 
  990000    1.0830392   -7.2613591    359.00485  0.030219263  0.030660457            2 
  991000    1.1027149   -7.2667953    359.22163  0.030206999  0.030650333            1 
  992000    1.1167797   -7.3283034    359.25446  0.030179306  0.030640043            2 
  993000    1.1038157   -7.2973301    359.44133  0.030164596  0.030629941            2 
  994000    1.1103735   -7.3097639    359.76672   0.03016153  0.030619754            1 
  995000    1.0923987   -7.2607747     360.6581  0.030205871  0.030609836            4 
  996000    1.1048177   -7.2690953    360.77485  0.030185312  0.030599844            1 
  997000    1.0856066   -7.2863521    360.90354  0.030165792  0.030589964            2 
  998000    1.0898828   -7.2531864    361.77813  0.030208595  0.030580157            3 
  999000    1.1223604   -7.3040632    360.89028  0.030104294  0.030570181            2 
 1000000     1.089673   -7.2598092    363.02545  0.030252121  0.030560281            2 
 1001000    1.0775467   -7.2273278    363.47205  0.030259078  0.030550593            2 
 1002000     1.117859   -7.2487922    362.91224  0.030182322  0.030541029            3 
 1003000    1.1054495   -7.3346625    361.84329  0.030063417  0.030531147            2 
 1004000    1.0854091    -7.276971    364.03558  0.030215436  0.030521241            2 
 1005000    1.1208427   -7.2750512    363.50455  0.030141339  0.030511287            1 
 1006000    1.0636452   -7.2406459      364.419  0.030187127  0.030501765            1 
 1007000    1.0655614   -7.2603208     365.4001   0.03023834  0.030492379            2 
 1008000    1.0925418   -7.2974596    364.45927  0.030130561  0.030482714            2 
 1009000    1.1123653   -7.2756741    366.14499  0.030239923  0.030473414            1 
 1010000    1.0734652   -7.2675281    365.35243   0.03014459  0.030464161            2 
 1011000    1.1005784   -7.2836089    365.91367  0.030161035    0.0304549            2 
 1012000    1.1132652    -7.298217    366.23093  0.030157356   0.03044559            2 
 1013000    1.0814828   -7.3047441    367.05501  0.030195378  0.030436349            1 
 1014000    1.0983262   -7.2401555     367.0311  0.030163634  0.030427466            3 
 1015000    1.1108536   -7.3393286    367.16901  0.030145239  0.030418405            2 
 1016000    1.1024706   -7.2797684    366.78983  0.030084468  0.030409129            1 
 1017000    1.1015749    -7.252978    368.58336  0.030201848  0.030400133            3 
 1018000    1.1102121   -7.3053572    368.11425  0.030133779  0.030391145            2 
 1019000    1.0886184   -7.2937679    368.63424  0.030146732  0.030382026            2 
 1020000    1.0848428   -7.2616906    369.08145  0.030153714  0.030372721            4 
 1021000    1.0961385   -7.3301894     367.6776  0.030009599   0.03036346            2 
 1022000    1.0928919   -7.2593449    368.04599  0.030010273  0.030354144            2 
 1023000    1.0877268   -7.2483655     368.8965   0.03005022  0.030345139            1 
 1024000    1.0848129    -7.307715    368.67007  0.030002447  0.030335971            1 
 1025000    1.0917985   -7.3409263    368.84438  0.029987348  0.030326862            4 
 1026000     1.081526   -7.3194631    368.69512  0.029945997   0.03031746            2 
 1027000    1.0702683   -7.2781985    370.70043  0.030079554  0.030308155            2 
 1028000    1.0902227   -7.2827473    370.91116  0.030067377  0.030298833            3 
 1029000    1.0605631   -7.3241798    369.19406  0.029899098  0.030289442            3 
 1030000     1.079142     -7.29665    370.40388  0.029967951  0.030280184            2 
 1031000    1.0917033   -7.2598571    371.43226  0.030022006  0.030270925            2 
 1032000    1.0944282   -7.2752323    371.25256  0.029978405  0.030261739            1 
 1033000     1.070363   -7.2967136    371.29698  0.029952967  0.030252425            1 
 1034000     1.068411   -7.3074121    370.86197   0.02988894  0.030243064            4 
 1035000    1.0962843   -7.2825986    371.97472  0.029949655  0.030233939            1 
 1036000    1.0729734   -7.2595056    373.22023  0.030020932  0.030224872            4 
 1037000    1.0955622   -7.2965357    372.14116  0.029905269  0.030215647            2 
 1038000    1.0746052   -7.3082785    372.75109  0.029925425  0.030206357            2 
 1039000    1.0776943   -7.2762605    372.41281  0.029869491  0.030197105            1 
 1040000    1.0885614   -7.3059127    373.44756  0.029923683  0.030187922            3 
 1041000    1.0554994   -7.2889462    374.84198  0.030006563  0.030178678            3 
 1042000    1.0734092   -7.2882699    374.35929  0.029939163  0.030169331            3 
 1043000    1.0843642   -7.3111269    373.90143  0.029873876  0.030160044            2 
 1044000     1.061351   -7.2982358    374.18784  0.029868122  0.030150662            2 
 1045000    1.0723049   -7.3299481    373.96364  0.029821662  0.030141195            1 
 1046000    1.0719878   -7.3019117    374.66272  0.029848846  0.030131744            1 
 1047000    1.0893406   -7.2801179    374.96011  0.029844008   0.03012263            6 
 1048000    1.0988877    -7.285266    374.94496  0.029814325  0.030113694            2 
 1049000    1.0891898   -7.3244082     375.6339  0.029840634  0.030104464            2 
 1050000    1.0790154   -7.2934429    375.53606  0.029804449  0.030095201            3 
 1051000    1.0795778   -7.2761399    375.63694   0.02978409  0.030085882            2 
 1052000    1.1097785   -7.2925221    375.87346  0.029774514  0.030076474            3 
 1053000     1.071807    -7.297461    375.46906  0.029714234  0.030066952            2 
 1054000    1.0771821   -7.2714054    376.02845   0.02973027  0.030057672            1 
 1055000    1.0861993   -7.3011044    375.61483  0.029669418   0.03004821            1 
 1056000     1.080944   -7.2968007    377.01611  0.029751903  0.030038549            1 
 1057000     1.092953   -7.3259169    375.73078   0.02962242  0.030028955            3 
 1058000    1.1025313   -7.3037183    376.83114  0.029681092  0.030019252            3 
 1059000    1.1004892   -7.3018354    376.00607  0.029588139  0.030009691            2 
 1060000    1.0813159   -7.2550835    377.03678  0.029641257  0.030000276            2 
 1061000    1.0875617    -7.238889     378.2072  0.029705247  0.029990825            2 
 1062000    1.1053008   -7.3206425    377.95888  0.029657791  0.029981366            3 
 1063000    1.0854691    -7.304175    378.14799  0.029644715  0.029971781            2 
 1064000      1.06698   -7.2964088     377.3509  0.029554425  0.029962165            1 
 1065000    1.0963984   -7.2633188    378.88238  0.029646509  0.029952686            2 
 1066000    1.0778552   -7.2461569    380.47589  0.029743268  0.029943416            2 
 1067000    1.0787936   -7.3099607    379.55344  0.029643349  0.029934102            2 
 1068000    1.0491852    -7.292755    379.63578  0.029622018  0.029924846            4 
 1069000    1.0780322   -7.3087708     379.6733  0.029597233  0.029915273            1 
 1070000    1.1023647   -7.3247052    381.00714  0.029673453  0.029905755            1 
 1071000    1.0795388   -7.3149341    381.02405  0.029647063  0.029896275            1 
 1072000    1.1013169   -7.3385642    379.90537  0.029532445  0.029886813            2 
 1073000    1.0691321   -7.3409069    379.76519  0.029494035  0.029877413            1 
 1074000    1.0902325   -7.3274383    382.16575  0.029652836  0.029868183            1 
 1075000    1.0917518   -7.3190838    380.85055  0.029523299  0.029858737            2 
 1076000    1.0706974   -7.3015823     381.6425  0.029557195  0.029849329            1 
 1077000    1.0710333    -7.292972    382.43259  0.029590884  0.029839981            2 
 1078000     1.081256   -7.3003223    382.86757   0.02959706  0.029830551            1 
 1079000    1.0655683   -7.3181227    382.68302  0.029555377  0.029821246            1 
 1080000    1.0580849   -7.3280429    382.21652  0.029492016  0.029812071            1 
 1081000    1.0806848   -7.2685324    384.21043  0.029618442  0.029802932            1 
 1082000    1.0829597   -7.3070784    383.59633  0.029543771   0.02979369            1 
 1083000    1.0895756   -7.3187326    384.20721  0.029563498  0.029784494            1 
 1084000    1.0862436   -7.3016506    386.01148  0.029674929  0.029775383            1 
 1085000    1.0758198   -7.3333799    384.47423   0.02952951  0.029766381            2 
 1086000    1.0947588   -7.3164999    385.15352  0.029554444   0.02975724            2 
 1087000     1.059279   -7.3254692    384.83802  0.029503068  0.029748054            1 
 1088000    1.0766148   -7.3553949    385.38494  0.029517842  0.029738796            1 
 1089000    1.0787183   -7.2669145    386.58736  0.029582748  0.029729881            1 
 1090000    1.0780763   -7.3060903    386.45555  0.029545531  0.029720997            1 
 1091000    1.0741441   -7.2940955    386.18732  0.029497962  0.029712037            1 
 1092000    1.0643538   -7.3092287    387.25994  0.029552804  0.029703002            1 
 1093000    1.0784275   -7.3067399     387.5363  0.029546836  0.029694122            2 
 1094000    1.0777218   -7.3285015    386.66795  0.029453683  0.029685095            2 
 1095000    1.0604095   -7.3189927    387.27998  0.029473363  0.029676204            3 
 1096000    1.0671151    -7.292728    389.26486  0.029597389  0.029667577            1 
 1097000    1.1031675   -7.2987898    389.53925  0.029591253  0.029659064            1 
 1098000    1.0472653   -7.3498251    387.79355  0.029431812  0.029650358            1 
 1099000    1.0840032   -7.3346536    389.37458  0.029524915  0.029641629            2 
 1100000    1.0806919   -7.3359615    389.65349  0.029519204  0.029632746            2 
 1101000    1.0826238   -7.3139278     389.1298  0.029452755  0.029623912            5 
 1102000    1.0601844   -7.3362194    389.79011  0.029475961  0.029615165            1 
 1103000    1.0948618   -7.3375291    388.68287  0.029365584  0.029606405            3 
 1104000    1.0492682   -7.3279268    389.65886  0.029412655  0.029597651            1 
 1105000    1.0870109    -7.323591     390.7237  0.029466342  0.029588945            4 
 1106000    1.0622147   -7.3246441    390.68426  0.029436729  0.029580348            1 
 1107000    1.0757575   -7.3485304    391.11939  0.029442893  0.029571665            1 
 1108000    1.0534865   -7.3442536    392.20883  0.029498257  0.029563149            1 
 1109000    1.0688302   -7.2898614    390.85157   0.02936967  0.029554545            3 
 1110000    1.0653021   -7.3271085     391.8551  0.029418551  0.029546105            1 
 1111000    1.0804782   -7.3122463    390.73495  0.029308052  0.029537613            2 
 1112000    1.0855003   -7.3070824    392.67571  0.029427137  0.029529089            2 
 1113000    1.0665164    -7.323518    392.35061  0.029376356  0.029520565            2 
 1114000    1.0475458   -7.3096286    393.57899  0.029441876  0.029512156            1 
 1115000    1.0710098   -7.3199335    394.95988  0.029518675  0.029504018            3 
 1116000    1.0761296   -7.3337897    393.22893  0.029362973  0.029495881            2 
 1117000     1.067594   -7.3373961    394.42365  0.029425817  0.029487678            2 
 1118000    1.0588543   -7.3264291    395.10751   0.02945047  0.029479744            1 
 1119000    1.0653548   -7.3350466    395.13107  0.029425906  0.029471655            3 
 1120000    1.0918402      -7.3295    395.66286  0.029439201  0.029463436            2 
 1121000    1.0866787   -7.3356941    396.22149  0.029454467  0.029455406            2 
 1122000    1.0874373    -7.358785     396.7581  0.029468071  0.029447509            1 
 1123000    1.0903977   -7.3227526    395.96566  0.029383026  0.029439587            2 
 1124000    1.0682968   -7.3179576    397.96677  0.029505247  0.029431791            1 
 1125000    1.0609737    -7.306363    397.15948   0.02941922  0.029424102            1 
 1126000    1.0613045   -7.3614589    397.17303  0.029394096  0.029416342            1 
 1127000    1.0725798   -7.3199561    398.56992  0.029471304  0.029408563            2 
 1128000     1.073782   -7.3105952    398.84159  0.029465247  0.029400655            1 
 1129000     1.059619   -7.3361866    398.68194  0.029427365  0.029392716            1 
 1130000    1.0544409   -7.3195505    398.38518  0.029379438  0.029385053            2 
 1131000    1.0603007   -7.3356246    399.29414  0.029420435  0.029377346            3 
 1132000    1.0763885    -7.357466    399.51094  0.029410405  0.029369404            2 
 1133000     1.099629    -7.304212    399.41725  0.029377556  0.029361599            2 
 1134000    1.0743306   -7.2887035    399.48667  0.029356751  0.029353828            2 
 1135000    1.0739986   -7.3639256     399.2572  0.029314038   0.02934597            2 
 1136000    1.0714724   -7.2976151    399.66702  0.029318296    0.0293382            1 
 1137000    1.0851461   -7.3404574    400.21701  0.029332821  0.029330383            1 
 1138000     1.066551   -7.3361176    400.39946  0.029320406  0.029322579            3 
 1139000    1.0595755   -7.3781199    398.99648  0.029192016    0.0293146            2 
 1140000    1.0689454   -7.3220425     400.7955  0.029297917  0.029306753            2 
 1141000    1.0748979   -7.3224748    401.46479  0.029321121  0.029298791            1 
 1142000    1.0496587   -7.3396592    401.70468  0.029312951  0.029290755            2 
 1143000     1.072277   -7.2891643    403.02946  0.029383892  0.029282939            2 
 1144000    1.0733825   -7.3218716    401.59911  0.029254015  0.029275131            2 
 1145000    1.0845312   -7.3493688    401.98447  0.029256512  0.029267194            3 
 1146000    1.0701511   -7.3212618    402.70754  0.029283561  0.029259179            2 
 1147000    1.0670413   -7.3471151    402.51173  0.029243805  0.029251373            1 
 1148000    1.0727879   -7.3334712    403.29736   0.02927536   0.02924378            1 
 1149000    1.0761984   -7.3649286    403.09771  0.029235401  0.029236138            2 
 1150000    1.0628855   -7.3539267    404.09276  0.029282084  0.029228512            1 
 1151000    1.0702789   -7.3423922    404.09835  0.029257048  0.029220938            2 
 1152000    1.0730413   -7.3282371    405.56408  0.029337679  0.029213354            2 
 1153000    1.0587163   -7.3331156    405.63576  0.029317416  0.029205842            3 
 1154000    1.0721844   -7.3297878    405.27455  0.029265926  0.029198377            2 
 1155000    1.0844367    -7.316319     405.1143  0.029229026  0.029191064            1 
 1156000    1.0417269   -7.3460397    404.48718  0.029158534  0.029183434            1 
 1157000    1.0679347   -7.3534194    406.55797  0.029282481  0.029175921            2 
 1158000    1.0714818   -7.3818986    406.18205  0.029230142  0.029168416            1 
 1159000    1.0602246   -7.3352337     408.1537  0.029346685  0.029161059            1 
 1160000    1.0749243   -7.3412062    405.83918  0.029155113  0.029153786            1 
 1161000    1.0565871   -7.3502644    406.52272  0.029179064  0.029146401            3 
 1162000    1.0756569   -7.3162494    407.07863   0.02919382  0.029138966            2 
 1163000     1.069066   -7.3388345     408.3915   0.02926279  0.029131525            2 
 1164000    1.0696256   -7.3484016    407.38441   0.02916555  0.029124117            1 
 1165000    1.0824727   -7.3677165    408.30904  0.029206655  0.029116867            2 
 1166000    1.0657114   -7.2950399    410.22785  0.029318743  0.029109604            1 
 1167000    1.0806125   -7.3316573    408.59137  0.029176762  0.029102572            2 
 1168000    1.0777905   -7.3699965    408.61024  0.029153128  0.029095357            2 
 1169000    1.0598646   -7.3605955    409.81946   0.02921439  0.029088279            1 
 1170000    1.1010893   -7.3313311    410.67945  0.029250673  0.029081315            1 
 1171000    1.0480998   -7.3143653    410.49373  0.029212477   0.02907442            3 
 1172000     1.059813   -7.3053959    410.53474  0.029190468  0.029067504            1 
 1173000     1.054981   -7.3593595    410.58343  0.029169042  0.029060727            2 
 1174000    1.0736346    -7.314303    411.70893  0.029224086  0.029053841            1 
 1175000    1.0742808   -7.3020857    410.90303  0.029142059  0.029046693            3 
 1176000    1.0693644   -7.3396601    411.74573  0.029176993  0.029039519            1 
 1177000      1.05756   -7.3293219    411.73903   0.02915173  0.029032138            1 
 1178000    1.0446863   -7.3405634    411.58952  0.029116406  0.029024853            2 
 1179000    1.0656279   -7.3433144    412.77714  0.029175653  0.029017741            4 
 1180000    1.0728738   -7.3300396    411.62818  0.029069786  0.029010531            2 
 1181000    1.0483107   -7.3315479    412.65482  0.029117614  0.029003391            1 
 1182000     1.080863   -7.3561813    414.07162  0.029192867  0.028996225            2 
 1183000    1.0755128   -7.3663472    414.10451  0.029170506  0.028989011            2 
 1184000    1.0749221   -7.3721359    414.27216  0.029157669  0.028981764            2 
 1185000    1.0880555   -7.3742289    414.19171  0.029127406  0.028974462            2 
 1186000     1.058278   -7.3336598    414.89498  0.029152261  0.028967389            5 
 1187000    1.0788579   -7.3619008    413.23559  0.029011204  0.028960316            3 
 1188000    1.0537003   -7.3736774    414.77954  0.029095086   0.02895316            3 
 1189000    1.0874526   -7.3687779    414.62596  0.029059851  0.028946008            1 
 1190000    1.0721063    -7.379408    415.00038  0.029061651  0.028938827            3 
 1191000    1.0561542   -7.3509301    414.67494   0.02901448  0.028931598            1 
 1192000    1.0500182   -7.3507513    416.13031  0.029091884  0.028924493            2 
 1193000     1.064206   -7.3683063    415.35916  0.029013633  0.028917451            2 
 1194000    1.0524654   -7.3291449    417.14505  0.029113976  0.028910567            1 
 1195000    1.0694664   -7.3421202     416.4276  0.029039582  0.028903503            2 
 1196000     1.070469    -7.354641    417.17632  0.029067469  0.028896065            1 
 1197000    1.0587026   -7.3358243    416.93099  0.029026106  0.028888899            3 
 1198000    1.0629318   -7.3620514    415.93431  0.028932548  0.028881718            1 
 1199000    1.0590708   -7.3534155    418.14889  0.029062336  0.028874561            3 
 1200000    1.0765778   -7.3460389    416.81382  0.028945404  0.028867373            2 
 1201000    1.0517046   -7.3665966    417.32216  0.028956575  0.028860183            2 
 1202000    1.0509841    -7.348442    417.71108  0.028959448  0.028852969            2 
 1203000    1.0508229   -7.3465502    416.96031  0.028883368  0.028845757            2 
 1204000    1.0317409   -7.3425522    419.13942  0.029010204  0.028838636            1 
 1205000     1.070169   -7.3508614    418.97937   0.02897506  0.028831627            1 
 1206000    1.0522096   -7.3599995    419.57574  0.028992243  0.028824693            1 
 1207000    1.0584972   -7.3762203    420.39421  0.029024732  0.028817932            1 
 1208000    1.0572779    -7.357334    419.41499  0.028933153  0.028811155            1 
 1209000    1.0746472   -7.3871154    420.49434  0.028983619   0.02880425            2 
 1210000    1.0494525   -7.3659746    420.47779  0.028958526  0.028797398            2 
 1211000     1.063641    -7.341152    421.20718  0.028984804  0.028790646            2 
 1212000    1.0603154   -7.3681212    422.56998  0.029054592  0.028783852            2 
 1213000    1.0641426   -7.3627414    421.51293   0.02895802  0.028777021            2 
 1214000    1.0481942   -7.3294458    421.69515  0.028946674  0.028770159            1 
 1215000    1.0467209    -7.353835    421.35246  0.028899345  0.028763102            2 
 1216000    1.0850474   -7.3550588    422.73038  0.028970009  0.028756182            1 
 1217000    1.0770502   -7.3706013    422.20725  0.028910384  0.028749133            1 
 1218000    1.0459892   -7.3565248    423.38375  0.028967142  0.028742209            2 
 1219000    1.0699897   -7.3467064    423.40693  0.028944964  0.028735352            1 
 1220000    1.0554482   -7.3608117    422.44502  0.028855534    0.0287285            1 
 1221000    1.0784588     -7.34815    424.14512  0.028947933  0.028721529            2 
 1222000     1.052999   -7.3310103    423.51265  0.028881114  0.028714532            1 
 1223000    1.0177478   -7.3986497    422.80496  0.028809278  0.028707482            4 
 1224000    1.0781388   -7.3757581    424.22756  0.028882595  0.028700316            1 
 1225000      1.06854   -7.3721205    423.47872  0.028808076   0.02869309            2 
 1226000    1.0422993   -7.3660101    423.73319  0.028801876  0.028685894            1 
 1227000    1.0501419    -7.388237    423.55111  0.028766036  0.028678865            1 
 1228000    1.0535804   -7.3496586    424.87784  0.028832644   0.02867187            1 
 1229000    1.0638768   -7.3886971    422.73036  0.028663572  0.028664574            2 
 1230000     1.080144   -7.3577266    423.88526  0.028718513  0.028657319            1 
 1231000     1.070782   -7.3471059    425.75037  0.028821444   0.02865012            6 
 1232000    1.0724945   -7.3321601     426.7508   0.02886572  0.028642872            1 
 1233000     1.044731   -7.3743153    424.68463  0.028702665  0.028635604            2 
 1234000    1.0373236   -7.3747081    424.07555  0.028638273  0.028628179            1 
 1235000    1.0717793   -7.3943966    423.72265  0.028591272  0.028620514            2 
 1236000    1.0509225   -7.3696531    425.36975   0.02867919  0.028613024            5 
 1237000    1.0535353   -7.4031851     424.2879  0.028583124  0.028605399            2 
 1238000    1.0431621   -7.3649186    426.29888  0.028695401  0.028597903            2 
 1239000    1.0777504   -7.3871725    425.45477  0.028615467  0.028590359            3 
 1240000    1.0805564   -7.3421488    426.33777  0.028651732  0.028582736            1 
 1241000    1.0238623   -7.3911798    426.15396  0.028616301  0.028575133            1 
 1242000    1.0730781    -7.369438    426.04776  0.028586136  0.028567463            3 
 1243000    1.0831984   -7.3758048    426.89931  0.028620228  0.028559936            3 
 1244000    1.0350389   -7.3556259    427.63176  0.028646286  0.028552409            2 
 1245000      1.06767   -7.3970098    425.98089  0.028512777  0.028544904            3 
 1246000    1.0557215   -7.3621942    428.01544  0.028625966  0.028537376            3 
 1247000    1.0660345   -7.3784103     428.7092  0.028649372  0.028529933            1 
 1248000    1.0474032   -7.3688027    429.06462  0.028650148  0.028522427            1 
 1249000    1.0220648   -7.4170845    427.87297  0.028547703  0.028514931            1 
 1250000    1.0591901   -7.3919687    427.84748  0.028523165  0.028507357            2 
 1251000    1.0257912   -7.3804611    428.35478  0.028534158  0.028499925            2 
 1252000    1.0283347   -7.3786286    429.22621  0.028569369  0.028492371            1 
 1253000    1.0681419    -7.378303    428.99777  0.028531376  0.028484967            2 
 1254000    1.0613861   -7.3750047    429.72122    0.0285567  0.028477593            1 
 1255000    1.0684437   -7.3396588    429.46003  0.028516602  0.028470057            3 
 1256000    1.0566181    -7.358937    430.12467  0.028537995  0.028462699            2 
 1257000    1.0586514   -7.3172588    431.25236  0.028590053  0.028455394            1 
 1258000     1.046614   -7.3541523    431.10376  0.028557483  0.028448014            1 
 1259000    1.0276794   -7.3288622    431.65507  0.028571292  0.028440733            1 
 1260000    1.0579095    -7.340325    432.02147  0.028572849  0.028433469            1 
 1261000    1.0593123   -7.3941255    431.78009  0.028534238  0.028426143            1 
 1262000    1.0494718    -7.384392    432.04061  0.028528831  0.028418893            2 
 1263000    1.0435558   -7.3472327     431.5185  0.028471793  0.028411626            6 
 1264000    1.0297617    -7.342431    432.46882  0.028511921  0.028404338            2 
 1265000    1.0563623   -7.3801699    432.46942  0.028489422  0.028397052            2 
 1266000    1.0611868   -7.3568728    434.06382  0.028571868   0.02838976            3 
 1267000    1.0613296   -7.3820238    432.89308  0.028472315  0.028382538            1 
 1268000    1.0446919   -7.3745401     434.9912   0.02858775  0.028375268            2 
 1269000     1.049345   -7.3593629    433.79535  0.028486692   0.02836815            1 
 1270000    1.0516068    -7.384503    432.54891  0.028382474  0.028360829            1 
 1271000    1.0514791   -7.3758353    433.49052   0.02842188  0.028353399            4 
 1272000    1.0406767   -7.3791004    434.23361  0.028448218  0.028346076            3 
 1273000    1.0625673   -7.3791196    434.82519  0.028464598  0.028338795            1 
 1274000    1.0222465   -7.4041597    434.43327  0.028416619  0.028331619            2 
 1275000    1.0452021   -7.3495037    435.83695  0.028486075  0.028324522            3 
 1276000    1.0368963   -7.4002358     434.9391  0.028405114  0.028317448            2 
 1277000    1.0362267   -7.3560927    436.59512  0.028490937  0.028310412            2 
 1278000    1.0465479   -7.3565794    436.87676  0.028487008   0.02830341            1 
 1279000    1.0547314   -7.3389937     438.6943  0.028583157  0.028296486            1 
 1280000    1.0619663   -7.3943736    436.78788  0.028436711   0.02828945            1 
 1281000    1.0468943   -7.3785485    436.36292  0.028386867  0.028282364            2 
 1282000    1.0475874   -7.3297648    438.95496  0.028533214  0.028275335            2 
 1283000    1.0539883   -7.3679063    436.56094  0.028355478  0.028268311            3 
 1284000     1.036612   -7.3865289    438.27378   0.02844456  0.028261092            2 
 1285000    1.0454999   -7.3870476    438.24139  0.028420324  0.028253974            2 
 1286000    1.0354327   -7.4386639    436.43367  0.028281083  0.028246843            2 
 1287000     1.041181   -7.3848487    437.96861  0.028358496   0.02823948            1 
 1288000    1.0387481   -7.3475102    438.36665  0.028362231  0.028232284            2 
 1289000     1.039106   -7.4108431    437.82633  0.028305297  0.028224918            2 
 1290000    1.0525612   -7.3489297    438.44628  0.028323403  0.028217643            4 
 1291000    1.0443711   -7.4006211    437.22834  0.028222847  0.028210558            1 
 1292000    1.0456421   -7.3834155    439.72416  0.028361981  0.028203441            2 
 1293000    1.0302052   -7.3822133    438.88582  0.028286016  0.028196307            1 
 1294000    1.0353142    -7.418639    438.53332  0.028241456  0.028189227            1 
 1295000    1.0422479   -7.3291191    440.91676  0.028373022  0.028182094            1 
 1296000    1.0449126   -7.3797116     439.7955  0.028279032  0.028175094            2 
 1297000    1.0610017   -7.3573351     441.9156  0.028393446  0.028168082            4 
 1298000    1.0161797   -7.3871797    440.65741  0.028290794  0.028160919            1 
 1299000     1.042092   -7.3846626    440.91804  0.028285735  0.028153758            1 
 1300000    1.0528664   -7.3896197    441.36067  0.028292351  0.028146634            1 
 1301000     1.036737   -7.3814685    441.35759  0.028270406   0.02813935            1 
 1302000    1.0380792   -7.4017845    439.99112  0.028161234  0.028131937            2 
 1303000    1.0191167    -7.369747    441.61634  0.028243562  0.028124513            2 
 1304000      1.05808    -7.388832    440.93875  0.028178601  0.028117189            2 
 1305000    1.0520239   -7.3991495    440.84599  0.028151085  0.028109863            4 
 1306000    1.0692373   -7.3858908    443.02785   0.02826875  0.028102542            1 
 1307000    1.0484957   -7.3688501    441.79408  0.028168457  0.028095096            1 
 1308000    1.0636891   -7.4301182    441.06687  0.028100591  0.028087648            1 
 1309000    1.0698997   -7.3715396    442.66077  0.028180594   0.02808035            1 
 1310000    1.0459779   -7.3912555    441.84081  0.028106922  0.028073056            1 
 1311000    1.0500708   -7.4083889    443.42395  0.028186115  0.028065601            1 
 1312000    1.0304387   -7.4017223    440.83887  0.028000436  0.028058054            1 
 1313000    1.0437191   -7.3717832    443.49955  0.028147979  0.028050451            1 
 1314000    1.0545092   -7.3992787    442.23095  0.028046103  0.028042997            8 
 1315000    1.0341041   -7.3941207    443.51465  0.028106125  0.028035321            2 
 1316000    1.0574789   -7.4061263    441.86599  0.027980369  0.028027604            2 
 1317000    1.0419693   -7.4224386    442.59428  0.028005206  0.028019903            1 
 1318000     1.039752   -7.4146763    443.09659  0.028015717  0.028012298            1 
 1319000    1.0277536   -7.3785545    444.05009  0.028054719  0.028004751            3 
 1320000    1.0587226   -7.3914647    444.00708   0.02803075  0.027997308            1 
 1321000    1.0434289   -7.3969489    444.08789  0.028014629  0.027989581            2 
 1322000    1.0279064   -7.4033832    443.52266  0.027957807  0.027981797            1 
 1323000    1.0261702   -7.4112079    443.95014  0.027963602  0.027974024            2 
 1324000    1.0505887   -7.3646785    443.68483  0.027925783  0.027966218            2 
 1325000    1.0300258   -7.4146601     444.3367  0.027945704  0.027958442            2 
 1326000    1.0535139   -7.4094199    444.61612  0.027942189  0.027950683            2 
 1327000    1.0623162   -7.4014134    443.04132  0.027822238  0.027942736            1 
 1328000     1.035685   -7.4316141    443.50027  0.027830087  0.027934799            1 
 1329000    1.0336542    -7.374359    446.16717  0.027976371  0.027926961            2 
 1330000    1.0236924   -7.3962391    445.01267  0.027882999  0.027919034            2 
 1331000    1.0352531    -7.419373     444.3389  0.027819866   0.02791101            1 
 1332000    1.0409534   -7.4172563    443.98093  0.027776585  0.027902956            2 
 1333000    1.0228174   -7.4442439    444.92126  0.027814532  0.027894984            5 
 1334000    1.0358747    -7.416345    445.74406  0.027845081  0.027886934            2 
 1335000    1.0432626   -7.3869152    446.71429  0.027884787  0.027878988            2 
 1336000    1.0319778   -7.4248307    446.61445  0.027857688  0.027871154            2 
 1337000    1.0368442   -7.3951176    446.03651   0.02780083  0.027863141            1 
 1338000    1.0251523   -7.4100354     447.5306  0.027873106  0.027855287            3 
 1339000     1.026156   -7.4014981    446.44543  0.027784754  0.027847421            1 
 1340000    1.0491073   -7.4322219    447.66058  0.027839588  0.027839387            4 
 1341000    1.0434026   -7.3864826    446.98833  0.027777053   0.02783137            2 
 1342000    1.0110451   -7.3859742     447.3008  0.027775757  0.027823592            1 
 1343000     1.036804   -7.4125954    447.52063  0.027768716  0.027815783            1 
 1344000    1.0392856   -7.3990854    447.28865  0.027733671  0.027807932            2 
 1345000    1.0285728   -7.4393749    447.39854   0.02771986  0.027800003            1 
 1346000    1.0143319   -7.4114641    448.88536  0.027791318  0.027791908            1 
 1347000    1.0620087   -7.4003067    447.82831   0.02770529  0.027783863            3 
 1348000     1.056129   -7.4420781    448.03384  0.027697443  0.027775797            2 
 1349000     1.034709   -7.4111651    448.43289  0.027701563  0.027767788            2 
 1350000    1.0344818    -7.390198    449.94884   0.02777462  0.027759742            4 
 1351000    1.0487825   -7.4209694    448.06579   0.02763791  0.027751667            2 
 1352000    1.0131453   -7.3712109    450.21511  0.027749945  0.027743892            1 
 1353000    1.0359682   -7.4070712    450.39697  0.027740636  0.027736103            2 
 1354000    1.0559261   -7.4081226    450.66459  0.027736619  0.027728543            2 
 1355000     1.000506   -7.3960226    451.17798  0.027747723  0.027720831            2 
 1356000    1.0313708   -7.3990874    450.87326  0.027708534  0.027713065            3 
 1357000    1.0202513   -7.3936494    450.71519  0.027678408  0.027705311            4 
 1358000    1.0183108   -7.4515352     448.6478  0.027531161  0.027697354            2 
 1359000    1.0300819   -7.4514576    449.39842   0.02755693  0.027689262            1 
 1360000    1.0260452   -7.3818183    452.22245  0.027709709  0.027681213            2 
 1361000    1.0379766   -7.4176816    451.39428  0.027638641   0.02767318            2 
 1362000    1.0263634   -7.3944877    451.56635  0.027628876  0.027665133       -1e+20 
 1363000    1.0427381   -7.4558338    450.37862  0.027535988  0.027657001            2 
 1364000    1.0151455   -7.4532128    451.44494  0.027580947  0.027649125            2 
 1365000    1.0279582   -7.4098361    452.80075  0.027643513  0.027641378            1 
 1366000    1.0692335   -7.4129286    452.72053  0.027618383  0.027633821            1 
 1367000    1.0307602   -7.4242676    453.26035  0.027631087  0.027626157            1 
 1368000    1.0444064   -7.4212901    452.88185  0.027587832  0.027618417            2 
 1369000    1.0348824    -7.441302    453.62758  0.027613074  0.027610892            2 
 1370000    1.0079823   -7.4110648    454.50997  0.027646592  0.027603345            2 
 1371000    1.0276544   -7.4519937    455.03152  0.027658128  0.027595855            2 
 1372000      1.02038   -7.4290153    454.44619  0.027602417  0.027588266            3 
 1373000    1.0372874   -7.4151633     455.7813  0.027663347  0.027580702            1 
 1374000    1.0298207   -7.4268854     455.3085  0.027614538  0.027573185            4 
 1375000     1.053386   -7.3965858    456.51757  0.027667731  0.027565708            1 
 1376000    1.0477111   -7.4408655    456.85808  0.027668246  0.027558321            2 
 1377000    1.0388546   -7.4167278    456.52113  0.027627761  0.027550805            4 
 1378000     1.024635   -7.4177115    455.69753  0.027557906  0.027543412            2 
 1379000    1.0311448   -7.3850133    458.39593  0.027700987  0.027535955            3 
 1380000    1.0380619   -7.4190234    458.07569  0.027661575  0.027528583            1 
 1381000    1.0300942   -7.4292992    457.46683  0.027604805  0.027521124            1 
 1382000    1.0170519   -7.4467703    457.41964  0.027581985   0.02751349            2 
 1383000    1.0169547   -7.4245282    456.17258  0.027486899  0.027505908            2 
 1384000    1.0230668   -7.4196126    457.39219  0.027540474   0.02749843            1 
 1385000    1.0268637   -7.4291845     458.1893   0.02756855  0.027490914            1 
 1386000    1.0323083   -7.3998914    458.00854  0.027537791  0.027483461            2 
 1387000    1.0067056   -7.4127531     458.5163  0.027548444  0.027476269            2 
 1388000    1.0361528   -7.4044934    458.84252  0.027548182  0.027468999            1 
 1389000    1.0167827   -7.4312135    459.52127  0.027569071  0.027461778            4 
 1390000    1.0596093   -7.4321879    459.69063   0.02755939  0.027454538            1 
 1391000    1.0248926   -7.4555617    461.20347   0.02763021  0.027447357            2 
 1392000    1.0378345   -7.4354835    459.32939  0.027498168  0.027440321            1 
 1393000    1.0280793    -7.442348    461.00942  0.027578931  0.027433267            2 
 1394000    1.0351316   -7.4063876    463.23965   0.02769247  0.027426262            2 
 1395000    1.0323227   -7.4193255    461.37706  0.027561354  0.027419409            3 
 1396000    1.0305644   -7.4287381    462.25606  0.027594082  0.027412578            2 
 1397000    1.0192407   -7.3741272    463.22093  0.027631886  0.027405755            1 
 1398000    1.0258737   -7.4226607    462.87056  0.027591235  0.027399034            3 
 1399000    1.0206484    -7.387538     464.7414  0.027682952  0.027392132            2 
 1400000    1.0435432   -7.4090328    462.78646  0.027546813  0.027385179            2 
 1401000    1.0341017   -7.4536294    462.95877    0.0275374  0.027378228            1 
 1402000    1.0123835   -7.4090355    463.60407  0.027556114  0.027371257            3 
 1403000    1.0221954   -7.4322626    463.48414   0.02752935  0.027364322            1 
 1404000    1.0080506   -7.4248063    465.03694  0.027601908  0.027357505            1 
 1405000    1.0182154   -7.4012493    465.77111  0.027625807  0.027350796            2 
 1406000    1.0048666   -7.4081196    466.64073  0.027657701  0.027344115            5 
 1407000    1.0310631   -7.4194081    465.86546  0.027592126  0.027337454            1 
 1408000    1.0238007   -7.4234213    465.80826  0.027569144  0.027330676            2 
 1409000    1.0147715   -7.4208432    466.52023  0.027591686  0.027323921            4 
 1410000    1.0273517   -7.4597994    465.85932  0.027533057  0.027317147            3 
 1411000    1.0257618   -7.4683562    466.00868  0.027522365  0.027310255            2 
 1412000    1.0119558   -7.4283281    466.81844  0.027550664  0.027303541            1 
 1413000    1.0250047   -7.4017584     467.8709  0.027593236   0.02729687            1 
 1414000    1.0548117   -7.4370642    467.26132  0.027537796  0.027290205            1 
 1415000    1.0135101   -7.4059583    468.12162     0.027569  0.027283708            2 
 1416000    1.0185241   -7.4737227    466.70618   0.02746623   0.02727706            1 
 1417000    1.0281127   -7.4422941    467.32109  0.027483009  0.027270563            1 
 1418000    1.0150703   -7.4814744    466.83978  0.027435342  0.027263878            1 
 1419000    1.0405768   -7.4607377    468.34861  0.027504617  0.027257181            1 
 1420000    1.0167813   -7.4740699    468.29907   0.02748234  0.027250522            2 
 1421000    1.0142726   -7.4164589    469.79605  0.027550789  0.027243715            2 
 1422000    1.0362374   -7.4414847    469.92367  0.027538893  0.027236982            2 
 1423000    1.0486278   -7.4192016    468.75837  0.027451299  0.027230337            1 
 1424000     1.015502   -7.4217686     470.5534  0.027537067  0.027223764            3 
 1425000    1.0233636   -7.4663269    469.63197  0.027463858  0.027217154            1 
 1426000    1.0319289   -7.4340301    469.27413  0.027423687  0.027210406            2 
 1427000    1.0433332   -7.4468715    470.75197  0.027490771  0.027203645            1 
 1428000    1.0245798   -7.4058942    470.22779  0.027440931  0.027197036            1 
 1429000     1.017097   -7.4253793    471.72195  0.027508861  0.027190472            4 
 1430000    1.0486455   -7.4288964    471.75439  0.027491515  0.027183932            2 
 1431000    1.0083076     -7.44207    472.22242  0.027499559   0.02717742            1 
 1432000    1.0288029   -7.4609252    472.52431  0.027497923  0.027170941            3 
 1433000    1.0236984   -7.4414518     472.4899  0.027476733  0.027164473            2 
 1434000     1.000424   -7.4434713    471.76898  0.027415677  0.027157994            2 
 1435000    1.0251879   -7.4320692    473.80877  0.027515027  0.027151632            1 
 1436000   0.99554962   -7.4513453    473.95733  0.027504487  0.027145248            3 
 1437000    1.0340731   -7.4483759    472.82601  0.027419741  0.027138881            2 
 1438000    1.0184749   -7.4501176    473.17341  0.027420805  0.027132457            3 
 1439000    1.0081861   -7.4250842    474.25288  0.027464262  0.027125956            2 
 1440000    1.0255475   -7.4615045    473.26071  0.027387773  0.027119498            2 
 1441000    1.0339314   -7.4300252    473.67988  0.027393007   0.02711298            1 
 1442000    1.0450302   -7.4491012    474.02552  0.027393985  0.027106369            1 
 1443000    1.0243078   -7.4482383    473.59699  0.027350253  0.027099772            2 
 1444000    1.0086191   -7.4601452    472.75756  0.027282869  0.027093217            1 
 1445000     1.016532    -7.454596    476.00368  0.027451193  0.027086781            1 
 1446000    1.0281525    -7.446007    476.33857  0.027451508  0.027080417            1 
 1447000    1.0264469   -7.4379979    476.41959  0.027437203  0.027074039            3 
 1448000    1.0308178   -7.4550362    476.52923  0.027424564  0.027067648            1 
 1449000    1.0298912   -7.4516058    476.33023  0.027394193   0.02706134            1 
 1450000    1.0093959   -7.4185942    475.66753  0.027337214  0.027055074            2 
 1451000    1.0209415    -7.466125    476.24139  0.027351332  0.027048798            2 
 1452000    1.0131936   -7.4231813    476.62248  0.027354367  0.027042419            5 
 1453000    1.0172246   -7.4768859    476.13221  0.027307422  0.027035996            2 
 1454000    1.0158265   -7.4003478    477.58857   0.02737211   0.02702951            2 
 1455000    1.0174358   -7.4065109      478.412  0.027400458  0.027023294            1 
 1456000     1.015766    -7.429692    478.97702  0.027413978  0.027017054            3 
 1457000    1.0251109   -7.4458189    478.24764  0.027353445  0.027010753            2 
 1458000    1.0268737   -7.4208221    478.83936  0.027368505  0.027004472            1 
 1459000    1.0099832   -7.4258208    478.19792   0.02731311  0.026998152            2 
 1460000   0.99732374   -7.4553244    477.04497  0.027228594  0.026991702            2 
 1461000    1.0025093   -7.4440191    479.12504  0.027328601  0.026985272            1 
 1462000    1.0162331   -7.4818674    477.56991  0.027221267  0.026978854            3 
 1463000   0.99972665   -7.4208594     478.8878  0.027277728   0.02697239            3 
 1464000    1.0139805   -7.4699565    479.35226  0.027285534  0.026966105            2 
 1465000    1.0093671    -7.431776    480.51127  0.027332837  0.026959727            2 
 1466000    1.0279716   -7.4642901    480.92339  0.027337619   0.02695345            3 
 1467000    1.0198031   -7.4480471    480.36046  0.027287006  0.026947142            4 
 1468000     1.003647    -7.433555    481.29732  0.027321601  0.026940824            3 
 1469000    1.0194252   -7.4653387    479.50147  0.027201127  0.026934521            1 
 1470000   0.99461049   -7.4732702    479.22331  0.027166854  0.026928002            2 
 1471000    1.0204471   -7.4304726    480.04753  0.027195079  0.026921512            1 
 1472000    1.0218684    -7.455379    481.21423  0.027242653   0.02691516            2 
 1473000    1.0088355   -7.4558488    481.27872  0.027227807  0.026908777            2 
 1474000      1.02941   -7.4394672    482.28702   0.02726634  0.026902459            5 
 1475000    1.0160851   -7.4616664    482.20609  0.027243282  0.026896054            2 
 1476000    1.0253705   -7.4438915    479.83043  0.027090697  0.026889702            1 
 1477000    1.0287011   -7.4367613    482.31383  0.027212471  0.026883282            1 
 1478000   0.98667098   -7.4630587    483.16154  0.027241855  0.026876884            1 
 1479000    1.0169073   -7.4397611     483.5168  0.027243453  0.026870599            1 
 1480000    1.0128896   -7.4159564    483.09584  0.027201343  0.026864431            2 
 1481000    1.0019115   -7.4452731    482.16393  0.027130539  0.026858252            2 
 1482000    1.0017534   -7.4749166    483.66036  0.027196376  0.026851872            2 
 1483000    1.0176405   -7.4618371    482.19648  0.027095779  0.026845578            1 
 1484000    1.0007679   -7.4736426    483.07786  0.027127013  0.026839247            2 
 1485000   0.99603049   -7.4643674    483.09432   0.02710967   0.02683293            4 
 1486000    1.0212025   -7.4322146    484.93722  0.027194775  0.026826636            1 
 1487000    1.0233687   -7.4389663    485.10483   0.02718588  0.026820317            1 
 1488000    1.0015015   -7.4610723    484.37404  0.027126682  0.026813971            2 
 1489000    1.0291835    -7.432221    485.92367  0.027195191    0.0268077            2 
 1490000    1.0306747   -7.4303345    485.58754   0.02715814  0.026801471            1 
 1491000     1.019226   -7.4741104    485.81329  0.027152542  0.026795217            1 
 1492000    1.0090329   -7.4533924    486.19074  0.027155425  0.026788987            1 
 1493000    1.0047355   -7.4718602    485.89135  0.027120526  0.026782755            2 
 1494000   0.99450146   -7.4288676    486.31926  0.027126242  0.026776679            4 
 1495000   0.99621682   -7.4887889    486.90323  0.027140648  0.026770604            2 
 1496000    1.0219965   -7.4864534    486.25307  0.027086289  0.026764512            3 
 1497000   0.99698734   -7.4577682    487.42184  0.027133258  0.026758443            3 
 1498000    1.0070087   -7.4798892    486.92577  0.027087549  0.026752221            2 
 1499000    1.0336425   -7.4615016       487.14  0.027081388  0.026746007            2 
 1500000    1.0262567   -7.4866423    486.76787  0.027042659  0.026739709            2 
 1501000    1.0241219   -7.4902616    487.91738  0.027088462  0.026733365            1 
 1502000     1.024434   -7.4718733    486.78215  0.027007443  0.026727168            3 
 1503000    1.0153477     -7.44885     487.8462   0.02704847  0.026720897            1 
 1504000   0.98546021    -7.482946    488.01131  0.027039634  0.026714563            1 
 1505000    1.0156246   -7.4827282    488.25724  0.027035285  0.026708303            1 
 1506000    1.0015053   -7.4406468    489.75797  0.027100375  0.026702078            3 
 1507000   0.98010443   -7.4120064    490.36235  0.027115812  0.026695862            3 
 1508000    1.0356655   -7.4417225    488.12067  0.026973954  0.026689649            1 
 1509000    1.0370831   -7.4929021     489.7999  0.027048813   0.02668342            2 
 1510000    1.0182398   -7.4641443    488.75565   0.02697327  0.026677032            1 
 1511000    1.0211933   -7.4843422    489.56493  0.027000051  0.026670614            1 
 1512000   0.99352582   -7.4851229    488.11257  0.026902148  0.026664199            1 
 1513000    1.0238618    -7.478316    491.10943  0.027049429  0.026657876            2 
 1514000    1.0123765   -7.4641223    490.43158  0.026994252  0.026651525            1 
 1515000    1.0201992   -7.5055692    489.61728  0.026931644  0.026645101            3 
 1516000    1.0096863   -7.4772531    488.33506  0.026843396  0.026638585            2 
 1517000   0.98465534   -7.4618491    489.70445  0.026900926  0.026632133            2 
 1518000    1.0054886   -7.4474353     491.5814  0.026986243  0.026625812            1 
 1519000    1.0382215   -7.4611012    491.81113   0.02698108  0.026619647            2 
 1520000   0.99285551   -7.5123463     489.8289  0.026854655  0.026613492            1 
 1521000    1.0024486    -7.497354    491.04758  0.026903769  0.026607195            1 
 1522000    1.0083958   -7.5077648     490.5545  0.026859095  0.026600949            1 
 1523000    1.0096107   -7.4563395    493.53509  0.027004546  0.026594778            2 
 1524000    1.0128878   -7.4960285    491.18444  0.026858292  0.026588605            1 
 1525000   0.99469955   -7.4905192    492.82385  0.026930265   0.02658245            1 
 1526000    0.9860745    -7.470331    492.44792  0.026892088  0.026576215            2 
 1527000     1.007386    -7.439972    492.47062  0.026875716  0.026569908            3 
 1528000    1.0043689   -7.4718607    493.82518  0.026932001  0.026563665            1 
 1529000    1.0256526   -7.4954578    492.89326  0.026863596  0.026557353            2 
 1530000    1.0103848   -7.4728906    493.36981  0.026871994  0.026551057            1 
 1531000    1.0319287   -7.4933499    493.91237  0.026883974  0.026544811            1 
 1532000   0.99842185   -7.4505444    493.98737  0.026870505  0.026538535            4 
 1533000    1.0105407   -7.4386122    494.90816  0.026903031  0.026532274            2 
 1534000    1.0010017   -7.4104576    493.68931   0.02681928  0.026526031            1 
 1535000   0.99174574   -7.4859718    493.59043   0.02679644  0.026519725            2 
 1536000   0.98429321   -7.4800859    493.04727  0.026749526  0.026513445            2 
 1537000   0.98614382   -7.4880535    496.30781  0.026908903   0.02650714            2 
 1538000    1.0035022   -7.4345105    494.90492  0.026815394  0.026500791            2 
 1539000   0.99983103   -7.5189586    495.47885  0.026829048   0.02649459            2 
 1540000    1.0129785   -7.4730974    494.66888  0.026767797  0.026488264            2 
 1541000   0.99814196   -7.5128541    494.53394  0.026743129  0.026481886            2 
 1542000   0.99922917   -7.4602853    495.32145  0.026768344  0.026475491            2 
 1543000    1.0050444   -7.4899205    496.41635  0.026810129  0.026469156            3 
 1544000    1.0242707   -7.4621393    496.92327  0.026820125  0.026462773            1 
 1545000    1.0139143   -7.4705724    497.21668  0.026818591  0.026456537            1 
 1546000    1.0001479   -7.5191795    497.75565  0.026830296  0.026450322            1 
 1547000    1.0010842   -7.4746805    497.42897  0.026795355  0.026444058            1 
 1548000   0.97683034   -7.4855088     497.1426  0.026762629  0.026437822            3 
 1549000    1.0007933   -7.5009066    496.46716  0.026709015  0.026431598            2 
 1550000   0.99429398   -7.4980597    498.33447  0.026792176  0.026425362            3 
 1551000   0.99715442   -7.5068129    497.44178  0.026726939  0.026419189            2 
 1552000    1.0103628   -7.4490311    497.49342  0.026712491  0.026413012            6 
 1553000   0.99663337   -7.4767612    497.36937  0.026688633  0.026406802            2 
 1554000    0.9976865   -7.4806196    497.80299  0.026694712  0.026400445            1 
 1555000    1.0099144   -7.4667947     498.9332  0.026738114  0.026394043            2 
 1556000   0.98756731   -7.5298377    496.49376  0.026590283  0.026387557            2 
 1557000    1.0089861   -7.4995692    497.93564  0.026650377  0.026381082            1 
 1558000    1.0153483   -7.4835094    499.72121  0.026728777   0.02637482            1 
 1559000    1.0053651   -7.4426266    501.14806  0.026787901  0.026368754            2 
 1560000    1.0013494   -7.4600592    501.16459  0.026771613  0.026362676            1 
 1561000    1.0218077   -7.4718581     500.2912  0.026707837  0.026356397            2 
 1562000     1.027212    -7.531162    500.15456  0.026683448  0.026350168            1 
 1563000   0.99997997   -7.4987764    500.78531  0.026700006  0.026343918            4 
 1564000    1.0217377   -7.4781885    502.39365   0.02676863  0.026337734            2 
 1565000    1.0060306   -7.4769309    501.98074  0.026729539   0.02633164            3 
 1566000   0.98813028   -7.4635631    501.38769  0.026680912  0.026325529            2 
 1567000    1.0218577   -7.4806751    501.90879  0.026691597  0.026319321            2 
 1568000   0.99578863   -7.4912033    501.75787  0.026666553  0.026313206            3 
 1569000   0.99883394   -7.4969425    501.34758  0.026627766  0.026307103            2 
 1570000   0.99287311   -7.5046745    501.36211  0.026611577  0.026301025            1 
 1571000   0.98859147   -7.4777068    503.38268  0.026701818  0.026295013            3 
 1572000   0.98732953   -7.5171767    502.41093  0.026633319  0.026288894            2 
 1573000    1.0010342   -7.5216603    501.33985  0.026559644  0.026282665            2 
 1574000   0.99790107   -7.5058074    503.17535  0.026639949  0.026276402            1 
 1575000     0.996347   -7.4761102    502.89622  0.026608265  0.026270128            1 
 1576000    1.0216515   -7.4546343    503.34397  0.026615058  0.026263879            3 
 1577000    1.0174929    -7.501474    502.91973  0.026575762  0.026257744            2 
 1578000    1.0297105    -7.470296     502.9571  0.026560894  0.026251487            7 
 1579000    0.9924567   -7.5089135    504.48253   0.02662458  0.026245151            5 
 1580000     1.014929   -7.5193808     504.0633  0.026585617  0.026238829            2 
 1581000   0.98825591   -7.4864963    503.81323   0.02655562  0.026232568            1 
 1582000   0.99466525   -7.4693412    504.28925  0.026563909  0.026226341            4 
 1583000   0.99118037   -7.4748697    504.19768  0.026542308  0.026220191            2 
 1584000   0.97652629   -7.4925696    504.72947  0.026553529  0.026213946            2 
 1585000   0.97489871   -7.5024342    506.50153  0.026629944  0.026207876            1 
 1586000    1.0066214   -7.5100519    506.04514  0.026589173    0.0262018            1 
 1587000    1.0008415    -7.519622    505.08645  0.026522078  0.026195665            1 
 1588000    1.0121034   -7.4786216    505.40927  0.026522317   0.02618936            2 
 1589000   0.99221247   -7.4894034    505.69739  0.026520736  0.026182987            2 
 1590000    1.0067448   -7.4885008    505.60279  0.026499098   0.02617665            2 
 1591000    1.0011234   -7.5056399     506.6281  0.026536146   0.02617028            1 
 1592000     0.974432   -7.4953129    505.24446  0.026447051  0.026164024            2 
 1593000   0.99011898   -7.5051072    504.99749  0.026417529  0.026157766            2 
 1594000    0.9801435   -7.4922346    506.32785  0.026470507  0.026151519            1 
 1595000   0.98909834   -7.5237507    506.91227  0.026484445  0.026145435            4 
 1596000    0.9944762   -7.5016426    504.75362  0.026355139  0.026139277            2 
 1597000   0.99981247   -7.5249672    506.05785  0.026406692  0.026133057            1 
 1598000   0.99585086   -7.5301103     506.6163   0.02641929  0.026126814            1 
 1599000   0.99088409   -7.4407128    506.98352  0.026421905  0.026120464            2 
 1600000    0.9792484   -7.4994143     508.2208  0.026469834  0.026114272            1 
 1601000    1.0026683   -7.4977193    507.39891   0.02641052  0.026107967            4 
 1602000   0.99552336   -7.4994498    508.97342  0.026475938  0.026101636            1 
 1603000   0.98200719   -7.5057089    506.64107  0.026338172  0.026095302            2 
 1604000    1.0014407   -7.4814915    508.08431  0.026396733  0.026088976            1 
 1605000    1.0067922   -7.5058028     508.0367  0.026377814  0.026082604            1 
 1606000   0.99650685   -7.5446421    507.66781  0.026342248  0.026076241            1 
 1607000   0.98551137   -7.5011491     508.1132  0.026348953  0.026069857            2 
 1608000    1.0232978   -7.4636935    508.44287  0.026349651   0.02606358            4 
 1609000   0.99409619   -7.5001048    508.76362  0.026349887  0.026057208            2 
 1610000   0.96606962   -7.4883653    507.08943  0.026246865  0.026050761            1 
 1611000     1.005741   -7.4879398    507.59076  0.026256505  0.026044263            3 
 1612000   0.98169234   -7.5110959    508.07208  0.026265099  0.026037713            2 
 1613000   0.98656371   -7.4845006    509.58579  0.026327019  0.026031159            3 
 1614000   0.99977828    -7.500482    508.84439  0.026272428  0.026024738            2 
 1615000    1.0021458   -7.5401883    509.26127  0.026277671  0.026018123            2 
 1616000    0.9840682   -7.4973708    509.44028  0.026270642  0.026011611            3 
 1617000   0.97974318   -7.5042685    509.01358  0.026232405  0.026005099            2 
 1618000   0.99780795   -7.5191614    509.45862  0.026239113  0.025998577            3 
 1619000   0.99009047   -7.5448017    509.41812  0.026220821  0.025992072            1 
 1620000   0.97930651   -7.5091697    509.47713  0.026207671  0.025985434            2 
 1621000    0.9769352   -7.5500781    510.59557  0.026249001  0.025978961            1 
 1622000   0.97428823   -7.5152901    509.52487  0.026177809  0.025972317            3 
 1623000    1.0031441   -7.5319722    510.23729  0.026198259  0.025965713            1 
 1624000    0.9901503   -7.5297599    510.62955  0.026202255  0.025959117            2 
 1625000   0.98169283   -7.5305029    510.38912  0.026173801   0.02595267            2 
 1626000   0.98959768   -7.5482149    510.87978  0.026182851  0.025946037            1 
 1627000    1.0060786   -7.5154609    512.13776   0.02623119  0.025939498            2 
 1628000   0.99301159   -7.5423594    510.82227  0.026147741  0.025932997            2 
 1629000    1.0052726   -7.4870784    512.19035  0.026201675  0.025926446            1 
 1630000   0.98901186   -7.5601201     510.6147  0.026105046  0.025919833            1 
 1631000   0.99678729   -7.4889057    511.93122  0.026156306  0.025913242            2 
 1632000   0.98076466   -7.4376931    513.91192  0.026241417  0.025906718            1 
 1633000   0.98617357   -7.5119992    512.55182  0.026155941  0.025900309            2 
 1634000   0.98891514     -7.49839    513.10587   0.02616819  0.025893857            1 
 1635000   0.98976236   -7.5409337    511.90308   0.02609088  0.025887344            1 
 1636000   0.99668764   -7.4890928    513.18121  0.026140037  0.025880838            2 
 1637000   0.98165917   -7.5427922    513.41654  0.026136049  0.025874419            2 
 1638000   0.98358878   -7.4963411    514.34713  0.026167436  0.025867962            1 
 1639000    1.0052443   -7.5440213    512.83271  0.026074472  0.025861571            1 
 1640000    1.0068892   -7.5206506    513.72614   0.02610397  0.025855177            2 
 1641000   0.99505319   -7.5271981    514.06451  0.026105246  0.025848812            1 
 1642000   0.98566725   -7.5154921    513.96973  0.026084537  0.025842268            1 
 1643000   0.98592068   -7.5526407    513.87286  0.026063748   0.02583568            3 
 1644000    0.9814232   -7.5416909    515.19246  0.026114784  0.025829124            2 
 1645000   0.99439611   -7.5210248     514.8685  0.026082497  0.025822748            3 
 1646000   0.99890909   -7.4945587    515.61665  0.026104528  0.025816483            2 
 1647000   0.98265258   -7.5101333    514.08344  0.026011103  0.025810202            3 
 1648000   0.98160251   -7.4863933    515.65626  0.026074851  0.025803746            2 
 1649000   0.96908021   -7.4895831    518.26138   0.02619069  0.025797344            2 
 1650000   0.96530141   -7.5212823    515.62333  0.026041582  0.025790925            2 
 1651000   0.99039104   -7.4996488    516.39413  0.026064715    0.0257846            2 
 1652000    0.9694198   -7.5115765    517.90606  0.026125205  0.025778243            2 
 1653000   0.98978898   -7.5501263    517.02734  0.026065101  0.025771766            4 
 1654000    1.0066597   -7.5127459    516.07762  0.026001492  0.025765346            1 
 1655000   0.97689546   -7.5733872    516.42914  0.026003481  0.025759016            2 
 1656000   0.97005177   -7.5439283    517.01998  0.026017511  0.025752723            1 
 1657000   0.98154465   -7.5255335    518.20984  0.026061649  0.025746341            1 
 1658000   0.97819572    -7.505769    519.14702  0.026093035  0.025740061            1 
 1659000   0.98311957   -7.4769236     518.8051  0.026060132  0.025733817            2 
 1660000    1.0003414   -7.5505736    516.48665  0.025928045  0.025727517            2 
 1661000   0.98767058   -7.5214986     518.0213  0.025989429  0.025721114            5 
 1662000   0.95496039   -7.5467264    517.81346   0.02596337   0.02571469            1 
 1663000   0.98931415   -7.5217203    518.13443  0.025963842  0.025708394            3 
 1664000   0.98736936   -7.5012711    520.17972  0.026050667   0.02570213            1 
 1665000    1.0013451   -7.4998694    518.42411  0.025947153   0.02569591            1 
 1666000   0.98328652   -7.5602153    519.54507  0.025987649  0.025689682            3 
 1667000   0.97242861   -7.4718892     519.8218  0.025985893  0.025683365            1 
 1668000   0.95865606   -7.5055801    519.21497  0.025939996  0.025676967            1 
 1669000    1.0021535   -7.5051946    518.19828  0.025873691  0.025670566            2 
 1670000   0.99261652   -7.4811362    518.35811  0.025866173  0.025664089            1 
 1671000   0.98519411   -7.4798448    519.10407  0.025887895  0.025657613            2 
 1672000    1.0097232   -7.5430369    519.89176  0.025911671  0.025651141            2 
 1673000   0.95896552   -7.5294399     519.8259  0.025892902  0.025644679            2 
 1674000   0.98910191   -7.5309107    519.31506  0.025852004  0.025638193            2 
 1675000   0.98965161   -7.5030254    521.19863   0.02593028  0.025631666            3 
 1676000   0.96891066    -7.559787    517.98514  0.025755029  0.025625032            2 
 1677000   0.99190786   -7.5674687     519.0757  0.025793863  0.025618344            1 
 1678000   0.98823909   -7.5564183    519.98094  0.025823448   0.02561177            2 
 1679000   0.97184214   -7.5058184    520.39309  0.025828523  0.025605199            4 
 1680000   0.95994553   -7.5323374    520.35626  0.025811322  0.025598574            1 
 1681000   0.98897165    -7.531062    520.85078  0.025820483  0.025591926            3 
 1682000   0.99577436    -7.544069    520.72096    0.0257987  0.025585281            5 
 1683000   0.97123411   -7.5353864    521.05246  0.025799785  0.025578587            2 
 1684000    0.9825284   -7.5162982    520.36772   0.02575058  0.025571854            2 
 1685000   0.95492263   -7.5402557    520.89761  0.025761504  0.025565213            1 
 1686000   0.99541323   -7.5304031    521.70083  0.025785925  0.025558531            2 
 1687000   0.97767903   -7.5648093    521.18154  0.025744988  0.025551896            2 
 1688000   0.98351593    -7.567383    520.08661  0.025675682  0.025545212            2 
 1689000   0.98890763   -7.5370659    521.90685  0.025750289  0.025538549            2 
 1690000   0.98396222   -7.5493392    520.84885  0.025682882  0.025531846            1 
 1691000   0.98352375   -7.5435473    521.16996  0.025683519  0.025525134            3 
 1692000   0.96607424   -7.5262387    523.31968  0.025774216  0.025518377            1 
 1693000   0.99157036   -7.5399331    521.35424  0.025662249  0.025511547            3 
 1694000    0.9839195   -7.5685145    521.88405  0.025673162  0.025504754            5 
 1695000    0.9946452   -7.5451073    521.46006  0.025637171  0.025497965            4 
 1696000     1.006744   -7.5267307    521.93781  0.025645529  0.025491166            1 
 1697000   0.99039812   -7.5585954    522.02221  0.025634562  0.025484267            3 
 1698000   0.99334348   -7.4926228     523.7809  0.025705776  0.025477462            4 
 1699000   0.97294911   -7.5613023    521.62166  0.025584739   0.02547064            2 
 1700000   0.96677532   -7.5397155    524.25567  0.025698808  0.025463759            1 
 1701000    0.9739498   -7.5268542    522.25796   0.02558583  0.025456918            3 
 1702000   0.95354806   -7.5532371     522.2893  0.025572332  0.025450079            4 
 1703000    0.9814761    -7.552301    522.76362  0.025580525  0.025443248            2 
 1704000    1.0025418   -7.4951902    525.83043  0.025715494  0.025436462            1 
 1705000   0.95514512   -7.5039737    523.51151  0.025587073  0.025429564            2 
 1706000   0.97346368   -7.5356542    524.33906  0.025612498  0.025422733            3 
 1707000   0.96691126   -7.5418835    523.24934  0.025544295  0.025415779            2 
 1708000   0.98636477   -7.6337354    522.19814  0.025478051  0.025408792            2 
 1709000   0.99342081   -7.5461022    523.64265  0.025533579  0.025401937            1 
 1710000   0.96916828   -7.5669659    524.27559  0.025549493  0.025395097            1 
 1711000   0.99846379   -7.5549112    523.42985  0.025493369  0.025388245            2 
 1712000   0.96409122   -7.5381508    524.33728  0.025522648  0.025381404            2 
 1713000   0.97850219   -7.5589453    524.66508  0.025523695   0.02537448            2 
 1714000   0.99090445   -7.5043879    525.74549  0.025561333  0.025367609            3 
 1715000   0.98061904   -7.5746582    524.09051  0.025466011  0.025360735            5 
 1716000   0.97623306   -7.5761351    523.03978  0.025400145  0.025353766            2 
 1717000    0.9654056   -7.5640059    525.19339  0.025489875  0.025346793            5 
 1718000   0.98081395   -7.5361837     525.0319  0.025467205  0.025339942            2 
 1719000   0.96642575   -7.5505654    527.05213  0.025550326  0.025333073            4 
 1720000   0.98365477   -7.6123366    524.56597  0.025415018  0.025326171            7 
 1721000   0.97400755   -7.5720587    525.84175  0.025462026  0.025319307            2 
 1722000   0.96560301   -7.5641738    525.72837  0.025441752  0.025312485            4 
 1723000   0.96904663   -7.5613599    526.47971  0.025463325  0.025305715            1 
 1724000    0.9753288   -7.5680547    526.78553  0.025463338  0.025298867            1 
 1725000   0.95933608   -7.5197325    527.75696  0.025495505   0.02529198            2 
 1726000   0.95823702   -7.5226079    527.47088  0.025466921  0.025285137            1 
 1727000   0.98940454   -7.5467657     526.3575  0.025398451  0.025278198            1 
 1728000   0.96332099   -7.5558581    526.70814  0.025400663  0.025271311            1 
 1729000    0.9655627   -7.5743836    527.33033   0.02541596  0.025264462            2 
 1730000   0.98080254    -7.513158    528.18087  0.025442238  0.025257537            1 
 1731000   0.95247005   -7.5144111    528.76604  0.025455712  0.025250728            1 
 1732000   0.98752577   -7.5294539    527.82631    0.0253958  0.025243923            1 
 1733000   0.95989149   -7.5827276    528.92796   0.02543412   0.02523713            5 
 1734000   0.97112201   -7.5990208    526.95181  0.025324481  0.025230254            1 
 1735000   0.95371728   -7.5396316    528.66903  0.025392364  0.025223433            2 
 1736000   0.96351748   -7.5901659    528.55933  0.025372472  0.025216633            1 
 1737000   0.97055279   -7.5177881    530.88625    0.0254695  0.025209884            1 
 1738000    0.9773407   -7.5752653    528.09677  0.025321095  0.025203138            1 
 1739000   0.98238298   -7.5077525    529.80048  0.025388177  0.025196442            2 
 1740000   0.95782589    -7.545321    531.52003   0.02545594  0.025189786            2 
 1741000   0.98435011   -7.5486474    530.58367    0.0253965  0.025183092            3 
 1742000   0.94611919   -7.5651966    529.34303  0.025322571  0.025176385            1 
 1743000   0.96285092   -7.5396681     529.0987  0.025296362  0.025169633            1 
 1744000   0.99646739   -7.5431763    530.76573  0.025361513  0.025162879            1 
 1745000   0.97524232   -7.5450289    530.35688  0.025327454  0.025156264            4 
 1746000   0.96760329   -7.5890233    530.02081  0.025296908  0.025149516            2 
 1747000   0.96738252   -7.5544443    530.69008  0.025314352  0.025142854            6 
 1748000    0.9684326   -7.5629331    531.71099  0.025348541   0.02513616            1 
 1749000   0.98338758   -7.5699054    531.52656   0.02532526  0.025129466            2 
 1750000   0.96476439   -7.5602228    531.49282  0.025309182  0.025122743            2 
 1751000    0.9704963   -7.5424944    532.62538  0.025348628  0.025116132            1 
 1752000   0.97027318   -7.5716181    531.66753    0.0252886  0.025109508            2 
 1753000   0.97877196   -7.5838267    532.77176  0.025326666  0.025102888            2 
 1754000   0.94583859    -7.575674    532.44331  0.025296623  0.025096331            1 
 1755000   0.97305437   -7.5546299    533.27091  0.025321506  0.025089761            1 
 1756000   0.96585541   -7.5264275    532.08101  0.025250617   0.02508329            1 
 1757000   0.98460497   -7.5677096     532.7746  0.025269142  0.025076724            3 
 1758000   0.96142397   -7.5608125    535.08028  0.025364063  0.025070153            1 
 1759000   0.96503426   -7.5734662    534.06706  0.025301642  0.025063661            2 
 1760000   0.97021108   -7.5796345    533.21797  0.025247063  0.025057129            2 
 1761000   0.97235072   -7.5547682    534.26429   0.02528224   0.02505063            2 
 1762000   0.94680275     -7.57594    534.49948  0.025279014  0.025044188            1 
 1763000   0.97146987   -7.5793287     533.7111   0.02522741  0.025037687            2 
 1764000   0.99882054   -7.5636595    536.12955   0.02532736  0.025031215            2 
 1765000    0.9587116   -7.5595055    535.72582  0.025293948  0.025024764            1 
 1766000   0.98750726   -7.5428896    533.72306   0.02518512    0.0250183            2 
 1767000   0.97688351   -7.5729045    535.49921  0.025254632  0.025011743            2 
 1768000   0.97355166   -7.5432766    537.20149  0.025320583   0.02500526            2 
 1769000   0.97827787   -7.5559147    536.12388  0.025255506  0.024998852            2 
 1770000   0.95625684   -7.5444116    536.36211  0.025252453  0.024992373            2 
 1771000   0.98557747    -7.547243    537.14685   0.02527512  0.024985984            3 
 1772000    0.9754265   -7.5726834    536.64466  0.025237239  0.024979548            2 
 1773000   0.97703124   -7.5550291    536.90938  0.025235447   0.02497313            1 
 1774000   0.98634926   -7.5704273    536.45775  0.025200007  0.024966718            3 
 1775000     0.981455   -7.5838181    536.43142  0.025184574  0.024960165            1 
 1776000   0.98067869    -7.557529    537.31564  0.025211882  0.024953687            2 
 1777000   0.94298378   -7.5789095    536.81303  0.025174124  0.024947187            2 
 1778000   0.96692757    -7.549822    535.98818  0.025121306  0.024940689            1 
 1779000   0.96834061   -7.5958896    536.50639  0.025131459  0.024934174            1 
 1780000   0.97553418   -7.5190198    536.81832  0.025131944  0.024927708            1 
 1781000   0.96657388   -7.5308837    538.23303  0.025184027  0.024921196            2 
 1782000   0.97044596   -7.5675984    537.80863  0.025150048  0.024914735            1 
 1783000    0.9740862   -7.5580274    537.09451  0.025102566  0.024908087            2 
 1784000   0.96653912   -7.5620865    538.11131  0.025135992  0.024901517            4 
 1785000   0.96658596   -7.5731768    537.04793  0.025072266  0.024894913            4 
 1786000   0.97395823   -7.6101237    537.85294  0.025095788  0.024888324            1 
 1787000   0.96999848   -7.5501484    537.60702  0.025070277  0.024881684            3 
 1788000   0.95749161   -7.5856165    536.24043  0.024992563  0.024875001            4 
 1789000   0.94643014   -7.5711822    537.36188  0.025030831  0.024868274            1 
 1790000   0.96400962   -7.5671089    538.68843  0.025078605  0.024861676            2 
 1791000   0.94520048   -7.5481425    538.46679  0.025054289  0.024855078            3 
 1792000   0.95950542   -7.5838141    538.27963  0.025031605  0.024848468            2 
 1793000   0.96386015   -7.5501383    538.64209   0.02503449  0.024841821            1 
 1794000   0.97690684   -7.5945303    538.62489  0.025019737  0.024835175            2 
 1795000    0.9667822   -7.6115349    538.66284   0.02500756  0.024828454            2 
 1796000    0.9703523   -7.5485628    539.22724  0.025019824  0.024821798            1 
 1797000   0.96238554   -7.5574945    538.32449  0.024964037  0.024815145            1 
 1798000   0.96936104   -7.5574937    539.90753  0.025023523   0.02480854            2 
 1799000   0.94356726   -7.5538847    539.88794  0.025008706  0.024801968            2 
 1800000   0.98254568   -7.5476561    540.34153  0.025015812  0.024795331            1 
 1801000   0.97616173    -7.565003    539.21389  0.024949745  0.024788718            2 
 1802000   0.96787896    -7.533304    541.07023  0.025021746  0.024782073            5 
 1803000   0.94660593   -7.5647557    539.06986  0.024915412  0.024775336            2 
 1804000   0.97243284   -7.6141156    540.21822  0.024954648  0.024768671            2 
 1805000   0.96599009   -7.5467639    541.80388  0.025014029  0.024761999            2 
 1806000   0.95995578   -7.5549167    541.68709   0.02499479  0.024755385            2 
 1807000   0.95593955   -7.5772205    540.29371  0.024916699  0.024748762            2 
 1808000   0.96678766   -7.5626999    540.71425  0.024922301  0.024742094            3 
 1809000   0.95283595    -7.563191    540.53108  0.024900086  0.024735434            1 
 1810000   0.97263602   -7.5594075    541.99115  0.024953552  0.024728807            2 
 1811000   0.95355907   -7.5575611     541.4147  0.024913248  0.024722167            2 
 1812000   0.97428816   -7.5541682    543.80347  0.025009358   0.02471553            2 
 1813000   0.96725616   -7.5752969    541.68071  0.024897992  0.024708902            2 
 1814000   0.96994381   -7.5327745    541.39328  0.024871062   0.02470229            2 
 1815000   0.97186689   -7.5720093    541.83525  0.024877651   0.02469559            2 
 1816000    0.9712784   -7.6203345    540.69686  0.024811713  0.024688873            2 
 1817000   0.96245507   -7.5952671    542.17373  0.024865792  0.024682206            3 
 1818000   0.95378218    -7.598766    541.88379  0.024838824  0.024675425            2 
 1819000   0.97418672   -7.5835129    540.69072  0.024770511  0.024668707            1 
 1820000    0.9584833   -7.6068189    543.25162  0.024874159  0.024662022            2 
 1821000   0.97508086   -7.5771109    542.42425  0.024822636    0.0246553            2 
 1822000    0.9593312    -7.589132    543.38631  0.024853015  0.024648517            1 
 1823000    0.9635373   -7.5719104    544.25664  0.024879166  0.024641799            2 
 1824000   0.95593426   -7.5768562    543.39102  0.024825978  0.024635124            2 
 1825000   0.98480337   -7.5726651    543.43063  0.024814184  0.024628453            2 
 1826000    0.9697462   -7.6015697    542.74913  0.024769493  0.024621843            1 
 1827000   0.96139416   -7.6032219    543.72774  0.024800572  0.024615219            1 
 1828000   0.96252893   -7.5788355    544.53177  0.024823659  0.024608588            3 
 1829000    0.9780975   -7.5851318    543.97953  0.024784925  0.024601936            1 
 1830000   0.95962445   -7.5681493    544.69222  0.024803835  0.024595227            1 
 1831000   0.95045772   -7.6159671    544.41742  0.024777782  0.024588589            2 
 1832000   0.96035088   -7.5611439    544.01063  0.024745753  0.024581946            2 
 1833000   0.96066171   -7.5562143    545.44072  0.024797269  0.024575326            4 
 1834000   0.96386569   -7.5872721    544.80067  0.024754665  0.024568705            1 
 1835000    0.9546879   -7.6091874    544.21702   0.02471467  0.024561917            1 
 1836000   0.95022484   -7.5613486    546.53342  0.024806346  0.024555149            1 
 1837000   0.96964737   -7.5963099    544.15653  0.024685018  0.024548465            3 
 1838000    0.9666522   -7.6077448    544.55398  0.024689607  0.024541755            3 
 1839000   0.97082949   -7.5968797     544.4653  0.024672163  0.024535068            3 
 1840000   0.96686793   -7.6172538    545.78241  0.024718406  0.024528386            1 
 1841000   0.95116573   -7.6126044    547.21913  0.024770013  0.024521794            5 
 1842000   0.95497823   -7.6026915    546.92142  0.024743097  0.024515241            1 
 1843000    0.9443051   -7.6060029    546.24412  0.024699047  0.024508608            2 
 1844000   0.94570663   -7.6173364     546.0679  0.024677689  0.024501953            3 
 1845000   0.95742309   -7.5820577    547.54804  0.024731167  0.024495349            2 
 1846000   0.97485214   -7.5992355    547.04336  0.024694987  0.024488731            2 
 1847000   0.96342469    -7.581852     547.0256  0.024680816  0.024482144            2 
 1848000   0.96937438   -7.5954435    548.08482  0.024715225  0.024475599            2 
 1849000   0.94762403   -7.6464073    544.74102  0.024551155  0.024468928            2 
 1850000   0.95535485   -7.5921298    548.35787  0.024700805  0.024462329            3 
 1851000    0.9552098   -7.5928769     548.6211  0.024699311  0.024455805            2 
 1852000   0.95274179   -7.5393811     550.8249  0.024785138  0.024449404            1 
 1853000   0.94590735   -7.5957779    547.97245  0.024643481  0.024442852            2 
 1854000   0.95300443   -7.6252025    547.82113  0.024623388  0.024436256            2 
 1855000   0.93765125   -7.6121682    548.38384  0.024635393  0.024429644            2 
 1856000   0.94525894   -7.5992207    549.02078  0.024650717  0.024423065            3 
 1857000   0.96188942   -7.6145193    549.46574  0.024657411  0.024416476            1 
 1858000   0.94071658   -7.6816892    546.75172  0.024522413  0.024409836            2 
 1859000   0.97128751   -7.5821591    547.61473  0.024547908  0.024403142            1 
 1860000   0.96418568    -7.608032    549.53041  0.024620538  0.024396559            3 
 1861000   0.95844676   -7.6356377    548.61427  0.024566285  0.024389966            1 
 1862000   0.95234871   -7.6031771    549.39346  0.024587964  0.024383408            1 
 1863000   0.94824527   -7.5760807    549.47973  0.024578624  0.024376924            3 
 1864000   0.95280235   -7.5859556    549.90593  0.024584492  0.024370433            3 
 1865000   0.96556857   -7.6031402    548.82424  0.024522977  0.024363918            2 
 1866000   0.95020023   -7.6406315    550.81828  0.024598887  0.024357413            5 
 1867000   0.94136043   -7.5910836    550.84814  0.024587044  0.024350847            2 
 1868000   0.95383229   -7.6437507    549.16087  0.024498611  0.024344166            3 
 1869000    0.9443247   -7.6264854    551.26478   0.02457931  0.024337527            2 
 1870000   0.96104773   -7.6052666    551.29686  0.024567596  0.024330968            3 
 1871000   0.96293017   -7.6411348    550.42314  0.024515551  0.024324366            3 
 1872000   0.92764647   -7.5871037    551.80619  0.024564022  0.024317828            1 
 1873000   0.95903343   -7.5679385    551.69031  0.024545751  0.024311268            2 
 1874000   0.95785521   -7.5745296    550.47408   0.02447857  0.024304682            1 
 1875000   0.92500927   -7.5845276    552.36356  0.024549492  0.024298163            2 
 1876000    0.9607834   -7.6054175    551.41536  0.024494286  0.024291617            1 
 1877000   0.94462655   -7.6087325    551.72329  0.024494907  0.024285079            1 
 1878000   0.95045219   -7.6177676    550.10308   0.02440997  0.024278452            3 
 1879000   0.95369513   -7.5831822    551.91804  0.024477472    0.0242718            2 
 1880000    0.9583546   -7.5818894    552.85606  0.024506031  0.024265196            3 
 1881000   0.94310493   -7.5973982    551.46376   0.02443132  0.024258505            3 
 1882000   0.94561056   -7.5775129    552.11761  0.024447291  0.024251881            2 
 1883000   0.94748337   -7.5634116    552.36254  0.024445147   0.02424525            1 
 1884000   0.94932064   -7.6272739     551.9206  0.024412624  0.024238572            2 
 1885000   0.94544872   -7.6240643    552.17163   0.02441077  0.024231864            1 
 1886000   0.95507826   -7.6413556    550.53319  0.024325432  0.024225086            1 
 1887000   0.96618374   -7.6554912     550.1958  0.024297642   0.02421836            4 
 1888000   0.96955628   -7.6233206    552.78531  0.024399069  0.024211559            2 
 1889000   0.96353328   -7.6012693    553.10399  0.024400211  0.024204848            2 
 1890000   0.92975584   -7.6046761     553.3047  0.024396151  0.024198173            3 
 1891000   0.94545077   -7.6342245    551.53198  0.024305129  0.024191566            2 
 1892000   0.94822971   -7.6258496    552.36992   0.02432919  0.024184925            1 
 1893000   0.92290457   -7.6374535     553.8127  0.024379851  0.024178266            2 
 1894000   0.95302971   -7.6186814     552.8321  0.024323834  0.024171621            3 
 1895000   0.94362127   -7.6163441    553.94341  0.024359868  0.024164986            1 
 1896000   0.95155282   -7.6114572    554.79593  0.024384491  0.024158319            1 
 1897000   0.94786709   -7.6259723    554.24964  0.024347638  0.024151618            2 
 1898000   0.94250035   -7.6526266    554.29345  0.024336734  0.024144996            2 
 1899000   0.94288759     -7.61525    554.50835  0.024333349   0.02413845            1 
 1900000   0.94856984   -7.6296164    553.50215   0.02427641  0.024131787            2 
 1901000    0.9709939   -7.6039925    554.61474  0.024312412  0.024125178            1 
 1902000   0.92896136   -7.5920749    554.50461  0.024294804  0.024118565            1 
 1903000   0.95160153   -7.6094556     556.2745  0.024359542  0.024111985            2 
 1904000   0.96540631   -7.6444558    554.74989   0.02428002  0.024105303            2 
 1905000   0.97569965    -7.616543    553.99728  0.024234352   0.02409858            5 
 1906000   0.93600811   -7.6249765    555.65292  0.024294024  0.024091877            4 
 1907000   0.92622067   -7.6193142    555.92658  0.024293243  0.024085191            2 
 1908000   0.95872232    -7.616947    554.42519  0.024214937  0.024078565            3 
 1909000   0.95416145   -7.6154769     556.7679  0.024304518  0.024071967            2 
 1910000   0.97053683    -7.630024    557.03104  0.024303274  0.024065358            2 
 1911000    0.9478163   -7.6267504    555.87958  0.024240344   0.02405868            1 
 1912000   0.93182967   -7.6613437    556.11391   0.02423788  0.024052032            3 
 1913000   0.92427581    -7.647356    555.80206  0.024211625    0.0240454            1 
 1914000   0.95490084   -7.6396356    555.00793    0.0241644  0.024038709            2 
 1915000   0.94856925   -7.6382404    555.79227  0.024185912  0.024031992            3 
 1916000   0.95948758   -7.6262767    555.45644  0.024158683  0.024025349            1 
 1917000   0.94383841   -7.5985256    558.19734  0.024265229   0.02401871            1 
 1918000   0.92689306   -7.6164473     556.5459  0.024180826  0.024012035            1 
 1919000   0.94336605   -7.6185765    557.52523  0.024210753  0.024005342            2 
 1920000   0.94629873   -7.6210578    557.18175  0.024183236  0.023998794            2 
 1921000    0.9370616   -7.6292234    557.88984  0.024201364  0.023992202            1 
 1922000   0.95393541   -7.6354739    558.71564  0.024224577  0.023985649            1 
 1923000   0.95501603   -7.6043676    558.36699  0.024196871  0.023979113            1 
 1924000   0.93513576   -7.6313629    559.49743  0.024233257  0.023972607            2 
 1925000   0.93968188   -7.6141534    557.98725  0.024155292   0.02396605            4 
 1926000   0.93689441   -7.6530138    556.82498  0.024092462  0.023959488            4 
 1927000   0.92916036   -7.6464063     559.4651  0.024194132  0.023952922            1 
 1928000   0.94697527   -7.5988352    558.69926  0.024148481  0.023946343            2 
 1929000   0.95355744   -7.6263687    560.44384  0.024211329  0.023939792            2 
 1930000   0.95367082   -7.6277884    559.40532  0.024153943  0.023933226            3 
 1931000   0.95069687   -7.6137449    559.46245    0.0241439  0.023926662            1 
 1932000   0.94275501   -7.6539292    559.15944  0.024118333  0.023920046            5 
 1933000   0.94786502   -7.6313054    558.10603  0.024060443  0.023913469            3 
 1934000   0.94850546   -7.6124443    557.98415   0.02404275  0.023906927            1 
 1935000   0.93360824   -7.6374404    558.72763  0.024062344  0.023900244            2 
 1936000   0.90899887   -7.6218296    559.35473  0.024076908  0.023893615            1 
 1937000   0.95086429   -7.6026573    559.57196  0.024073824  0.023886923            1 
 1938000   0.92828403     -7.61337    561.25879  0.024133935  0.023880355            1 
 1939000   0.93708291   -7.6298017    560.13586  0.024073228  0.023873683            2 
 1940000   0.93896138   -7.6182821    560.37986    0.0240713  0.023867006            1 
 1941000   0.95098206   -7.6182775    560.93838  0.024082877  0.023860399            2 
 1942000   0.93901985    -7.621803    560.19258  0.024038473  0.023853687            1 
 1943000   0.91264536   -7.6570722    560.29687  0.024030574  0.023846905            2 
 1944000   0.93899671   -7.6531547    558.28269  0.023931871  0.023840134            2 
 1945000   0.93749101   -7.6335782    559.50344   0.02397187   0.02383336            4 
 1946000    0.9475816   -7.6599757    558.18107  0.023902923  0.023826573            3 
 1947000   0.93565068    -7.634079    561.06072  0.024013898  0.023819804            2 
 1948000   0.93381717   -7.6455159     560.2341  0.023966209  0.023813008            1 
 1949000   0.94864802   -7.6302884    560.97181  0.023985454  0.023806307            3 
 1950000   0.92029978   -7.6368814    562.48159  0.024037675  0.023799586            2 
 1951000   0.94955101   -7.6180238    561.14468  0.023968251  0.023792855            4 
 1952000   0.91977298   -7.6495789    561.16869  0.023956997  0.023786207            3 
 1953000   0.93722906   -7.6645587    560.44999  0.023914064  0.023779559            2 
 1954000   0.93024515   -7.6543959    560.56788  0.023906853  0.023772916            1 
 1955000    0.9363039   -7.6189638     562.0596   0.02395821  0.023766224            1 
 1956000   0.94343035   -7.6655249    561.03916  0.023902487  0.023759554            3 
 1957000   0.93594536   -7.6340676    561.79656  0.023922524  0.023752855            1 
 1958000   0.92680595   -7.6147003    563.65605  0.023989447  0.023746185            2 
 1959000   0.93184774   -7.6008976    563.81464  0.023983948  0.023739489            3 
 1960000   0.95115562   -7.6667876    560.84826  0.023845589   0.02373286            3 
 1961000   0.94374173   -7.6175238    561.93081  0.023879433  0.023726165            3 
 1962000   0.93242335   -7.6103614    562.81408  0.023904778  0.023719548            1 
 1963000     0.937778   -7.6547932    562.79468  0.023891776  0.023712904            3 
 1964000   0.95209114   -7.6010124    562.01891  0.023846695  0.023706185            4 
 1965000   0.93643097   -7.6024271    563.71795  0.023906614  0.023699432            1 
 1966000   0.95151006   -7.6231606    563.26472  0.023875243  0.023692705            1 
 1967000   0.94022502   -7.6592068    561.96431  0.023808012  0.023685914            1 
 1968000   0.92894459   -7.6647371    562.25784  0.023808344  0.023679084            2 
 1969000   0.93156601   -7.6726982    560.92492  0.023739839  0.023672312            2 
 1970000   0.94806799   -7.6491899    561.46503  0.023750636  0.023665504            2 
 1971000   0.94201882   -7.6573012    562.85071  0.023797172  0.023658699            2 
 1972000   0.94364015   -7.6855222    561.76443    0.0237392  0.023651855            3 
 1973000   0.93562473    -7.644969    562.97071  0.023778118  0.023644998            1 
 1974000   0.91831183   -7.6372168    562.96167   0.02376569   0.02363823            1 
 1975000   0.94147028   -7.6520321      562.086  0.023716709  0.023631456            3 
 1976000   0.93823342   -7.6395562    563.79635  0.023776837  0.023624652            2 
 1977000   0.92253553   -7.6648538    563.27731  0.023742932  0.023617796            2 
 1978000   0.92271056   -7.6219639    564.60847   0.02378701  0.023610986            1 
 1979000   0.92127846     -7.65691    562.83615   0.02370036  0.023604131            2 
 1980000   0.91461318   -7.6715713    563.21164  0.023704194  0.023597234            2 
 1981000   0.93591236   -7.6659873    564.61346  0.023751197   0.02359038            2 
 1982000   0.92211292   -7.6249621    564.07863  0.023716727  0.023583655            3 
 1983000   0.91711205   -7.6479344    566.21293  0.023794458  0.023576916            3 
 1984000   0.93480987   -7.6743655    563.97859  0.023688617  0.023570164            2 
 1985000   0.92414965    -7.675365    564.56954  0.023701492  0.023563351            2 
 1986000    0.9230557   -7.6657595    562.19057  0.023589735  0.023556579            2 
 1987000   0.94795314   -7.6150282    567.03761  0.023781145  0.023549792            4 
 1988000   0.93622367   -7.6547182    564.37681  0.023657646  0.023543018            2 
 1989000   0.93899447   -7.6462915    565.86574  0.023708134   0.02353627            1 
 1990000   0.94303955   -7.6398063    565.15953  0.023666647  0.023529534            1 
 1991000   0.95642837   -7.7004432    565.41566  0.023665481  0.023522757            3 
 1992000   0.91062981    -7.655845    565.72137  0.023666389  0.023515992            1 
 1993000   0.93159666   -7.6505218    566.58161  0.023690484  0.023509219            1 
 1994000   0.93647668   -7.6512546    566.08229  0.023657735  0.023502536            2 
 1995000   0.94463322   -7.6244183    567.19943  0.023692541  0.023495889            2 
 1996000   0.92307184   -7.6039128    566.14557  0.023636672  0.023489236            2 
 1997000   0.91099485   -7.6300948    567.74253  0.023691476  0.023482595            3 
 1998000   0.94802094   -7.6489446    568.62639  0.023716483  0.023476015            2 
 1999000   0.93687591   -7.6185768    567.29803  0.023649242  0.023469416            1 
 2000000   0.94337755   -7.6528717    568.48753   0.02368698   0.02346288            1 
 2001000   0.94029101   -7.6334512    567.34805  0.023627688  0.023456373            2 
 2002000   0.92379419   -7.6696068    568.27409  0.023654433  0.023449794            3 
 2003000   0.92892012   -7.6579037     567.4538  0.023608495  0.023443169            2 
 2004000   0.93884354   -7.6434249    569.58365  0.023685281   0.02343655            2 
 2005000   0.92366197   -7.6683477    568.29697   0.02361999  0.023429955            1 
 2006000   0.93905249   -7.6778479    568.16213  0.023602614   0.02342338            1 
 2007000    0.9124256   -7.6906007    568.65119  0.023611161  0.023416783            2 
 2008000   0.93843504   -7.6304154     569.8247  0.023648103  0.023410308            3 
 2009000   0.92866477   -7.6412184    570.02742  0.023644741  0.023403847            4 
 2010000   0.92593825   -7.6585676    568.81626  0.023582764  0.023397263            1 
 2011000   0.95550994   -7.6689258    567.95596  0.023535387  0.023390686            2 
 2012000   0.91708012    -7.672955    568.57867  0.023549481   0.02338403            2 
 2013000   0.93632932   -7.6518624    570.48816  0.023616831  0.023377418            1 
 2014000   0.92431486   -7.6660223    568.67003  0.023529876  0.023370791            1 
 2015000   0.93400492   -7.6581276    570.71079  0.023602597  0.023364228            2 
 2016000   0.95535832    -7.643326    569.23682  0.023529961  0.023357708            2 
 2017000   0.92356628   -7.6924514     570.7212  0.023579623  0.023351105            2 
 2018000   0.95245054   -7.6571942    571.17408   0.02358664  0.023344501            1 
 2019000   0.92226187   -7.6765769    570.87477  0.023562604  0.023337946            4 
 2020000   0.94032922   -7.6673821     570.4388  0.023532954  0.023331382            3 
 2021000   0.91983127   -7.6547882    572.19733   0.02359382  0.023324796            1 
 2022000   0.92426732   -7.6637456     570.8222  0.023525478  0.023318254            1 
 2023000   0.92807253   -7.6769413    571.07533  0.023524276  0.023311746            2 
 2024000   0.91051851   -7.6722502    570.99214  0.023509228  0.023305184            3 
 2025000   0.91598697   -7.6742452    569.75161  0.023446568  0.023298584            1 
 2026000   0.93524468   -7.6270845    572.22063  0.023536551  0.023292026            3 
 2027000   0.92438609   -7.6394507    570.52327  0.023455158  0.023285488            3 
 2028000   0.91823923   -7.6578339    571.54388  0.023485531  0.023278862            1 
 2029000   0.92163492   -7.6771964    571.72157  0.023481254  0.023272262            1 
 2030000   0.95257707   -7.6851027    571.93452  0.023478429  0.023265651            1 
 2031000   0.92833276   -7.6733423    572.04436  0.023471375  0.023259052            2 
 2032000    0.9351283   -7.6350021    571.31895  0.023430075   0.02325246            2 
 2033000   0.91930889   -7.6698275    571.37208  0.023420728  0.023245852            1 
 2034000   0.91432195   -7.7000402    571.64927   0.02342057  0.023239182            4 
 2035000   0.92107733   -7.6948118    569.73128  0.023330519  0.023232482            4 
 2036000    0.9259672   -7.6536457    572.39465  0.023428072  0.023225835            1 
 2037000   0.93238603   -7.6545793    572.94434  0.023439058  0.023219123            2 
 2038000   0.94038067   -7.6505114    572.94646  0.023427644  0.023212525            2 
 2039000   0.94653607   -7.6401738    573.61823  0.023443609  0.023205912            2 
 2040000   0.91436571   -7.6724721    574.91741  0.023485188  0.023199276            2 
 2041000   0.92579222   -7.6361734    572.83499  0.023388657  0.023192642            3 
 2042000   0.92229021   -7.6664138    573.53142  0.023405624  0.023186051            2 
 2043000   0.91229788   -7.6795601    572.70236  0.023360351   0.02317949            3 
 2044000   0.92343643   -7.6805536    572.51116  0.023341127  0.023172902            2 
 2045000   0.92467812   -7.6889614    572.26128  0.023319531  0.023166323            2 
 2046000   0.92590839   -7.6882558     574.2093  0.023387476  0.023159768            2 
 2047000   0.91645259   -7.6778423    573.91174  0.023363937  0.023153288            1 
 2048000   0.92434442   -7.6623797    573.31705  0.023328331  0.023146682            1 
 2049000   0.91910848   -7.6495707    572.70804  0.023292176  0.023140069            1 
 2050000   0.92604468   -7.6846563    573.25851  0.023303191  0.023133504            3 
 2051000   0.94557006   -7.6741902     573.1045  0.023285572   0.02312691            2 
 2052000   0.93396282   -7.7151288    574.01656  0.023311264  0.023120343            3 
 2053000   0.91971344   -7.7206328    573.13033  0.023263936  0.023113767            2 
 2054000   0.94347864   -7.6637713    574.04953  0.023289903  0.023107166            2 
 2055000   0.93154586    -7.716187    574.22861  0.023285832  0.023100583            2 
 2056000   0.90814269   -7.6702381     574.5765  0.023288606  0.023093987            2 
 2057000    0.9053164   -7.6947651    575.36946  0.023309409  0.023087398            2 
 2058000    0.9351588   -7.6950534     575.3739  0.023298263  0.023080774            2 
 2059000   0.92861037   -7.7128835    573.25817  0.023201318  0.023074166            2 
 2060000   0.93886021    -7.696341    574.74281  0.023250113  0.023067532            2 
 2061000   0.92805417   -7.6638101    574.69402   0.02323686  0.023060951            1 
 2062000   0.93259443   -7.6628732    576.49685   0.02329845  0.023054362            1 
 2063000   0.91967633   -7.6668448    574.86964  0.023221427  0.023047815            3 
 2064000    0.9372582   -7.6614068     577.9712  0.023335401  0.023041219            2 
 2065000   0.93460389    -7.662392    575.91727  0.023241213  0.023034614            2 
 2066000   0.90354181   -7.6753309    575.63959  0.023218764   0.02302795            1 
 2067000    0.9138549   -7.7010299    575.34552  0.023195675  0.023021336            2 
 2068000   0.92196489   -7.6900156    576.09311  0.023214584  0.023014728            2 
 2069000   0.92146225   -7.6922092    576.76355  0.023230367   0.02300811            2 
 2070000   0.94315653   -7.6774416    576.42354  0.023205456  0.023001544            3 
 2071000   0.93820513   -7.6832487     576.5945  0.023201131  0.022995009            2 
 2072000   0.93656314   -7.6711429     577.1788  0.023213433  0.022988466            2 
 2073000   0.91161579   -7.6961713    575.89042  0.023150443  0.022981954            4 
 2074000   0.91336907   -7.6833567    578.52193  0.023245015  0.022975434            1 
 2075000   0.90874166   -7.6280451    578.50942   0.02323331  0.022968965            3 
 2076000   0.92333383   -7.6743955    577.85825   0.02319598  0.022962502            1 
 2077000   0.90247046   -7.6949975    577.09063  0.023154013  0.022956042            3 
 2078000   0.91493223   -7.6743386    578.04965   0.02318133  0.022949537            1 
 2079000   0.91233855   -7.6967796    578.32258   0.02318112  0.022942962            1 
 2080000   0.91426999   -7.6505967    578.05942  0.023159432   0.02293651            2 
 2081000   0.90449083   -7.7007537     577.3003  0.023117904  0.022929993            1 
 2082000    0.9306173   -7.6954598    576.94632  0.023092632  0.022923463            3 
 2083000   0.91874867   -7.6860656    576.96695  0.023082371  0.022916854            3 
 2084000   0.94404987   -7.6980147     578.0799  0.023115799  0.022910253            2 
 2085000   0.93130712   -7.7102979     576.6235  0.023046503  0.022903598            3 
 2086000   0.91279632   -7.7131491    578.20968  0.023098821  0.022896967            3 
 2087000   0.91396742   -7.6905185     577.0385  0.023040988  0.022890321            1 
 2088000   0.91021538    -7.696894    578.12944  0.023073493  0.022883665            2 
 2089000   0.91075802    -7.706361    577.32718  0.023030444  0.022877048            1 
 2090000   0.92368758   -7.7217409    577.34317  0.023020063  0.022870384            3 
 2091000   0.90714924   -7.7144417    577.42224  0.023012205  0.022863718            5 
 2092000    0.9283081   -7.7166028    578.62319  0.023049044  0.022857019            1 
 2093000   0.91764913   -7.6819557    577.70753  0.023001574  0.022850367            2 
 2094000   0.91860728   -7.6789242    578.40058   0.02301817  0.022843756            1 
 2095000    0.9165318   -7.6851778    578.94242  0.023028736  0.022837154            3 
 2096000   0.92519822   -7.6840853    580.16395  0.023066315  0.022830552            1 
 2097000   0.91043405   -7.6821026    578.64543   0.02299497   0.02282396            3 
 2098000   0.92156825   -7.6814893    579.76673  0.023028548  0.022817334            2 
 2099000   0.92220036   -7.7488555    576.20797  0.022876289  0.022810629            3 
 2100000   0.93185425   -7.7071236    579.01773  0.022976894  0.022803904            1 
 2101000   0.88216297   -7.6998091    577.80314  0.022917783  0.022797196            1 
 2102000   0.92324725   -7.6949472    579.65794  0.022980413   0.02279049            3 
 2103000    0.9349829    -7.700339    579.24753  0.022953223  0.022783728            3 
 2104000   0.90584855   -7.6920485    578.60161   0.02291673  0.022776998            1 
 2105000   0.93888646   -7.7146358     578.5702    0.0229046   0.02277028            2 
 2106000   0.90427959   -7.7182547    579.84072  0.022943998  0.022763541            2 
 2107000    0.9139233   -7.7144764    579.25635  0.022909997  0.022756808            1 
 2108000   0.90831683   -7.6784373    578.54142  0.022870866  0.022750087            2 
 2109000   0.92349023   -7.7092422    579.74918  0.022907744  0.022743424            1 
 2110000   0.90893439   -7.6949594    579.92726   0.02290392  0.022736754            2 
 2111000   0.91634706   -7.6953402    581.45734  0.022953471  0.022730062            2 
 2112000   0.91309532   -7.6840148    582.39374  0.022979551  0.022723386            1 
 2113000   0.91454106   -7.7030165    580.69205  0.022901564  0.022716745            2 
 2114000   0.90199353   -7.7146561     581.1205   0.02290762  0.022710132            2 
 2115000   0.92899491   -7.7281572    581.02266  0.022892934  0.022703487            2 
 2116000    0.9185803   -7.6905189    581.56251  0.022903376  0.022696875            2 
 2117000    0.9083516   -7.6662265    584.03582  0.022989916  0.022690298            2 
 2118000   0.94029793    -7.694796    580.98229  0.022858919  0.022683735            2 
 2119000   0.91449375   -7.7104561    582.54811   0.02290971   0.02267717            2 
 2120000    0.8995858   -7.6967047     582.2546  0.022887366  0.022670617            3 
 2121000   0.93424374   -7.6761159    582.51981  0.022886996     0.022664            3 
 2122000   0.89849753   -7.7250547     582.2398  0.022865214  0.022657435            1 
 2123000   0.91095849   -7.6797036    583.54082  0.022905512  0.022650799            2 
 2124000   0.91309397   -7.6963118     582.3741  0.022848952  0.022644197            4 
 2125000   0.88491896   -7.7036472    581.52118  0.022804752  0.022637557            2 
 2126000   0.89879639   -7.6736601    582.66318  0.022838789  0.022630941            1 
 2127000   0.94370611   -7.6936711    581.39066  0.022778195   0.02262429            2 
 2128000   0.91357667   -7.6940328    581.51868  0.022772505  0.022617644            2 
 2129000   0.91750306   -7.6817231     582.3896  0.022795898  0.022611057            2 
 2130000   0.90836578   -7.6995445    582.37371  0.022784574  0.022604374            1 
 2131000    0.8795875   -7.6968112    582.46038  0.022777271   0.02259774            1 
 2132000   0.90028616   -7.7157107    582.64677  0.022773873  0.022591093            2 
 2133000   0.91452892   -7.6941249    582.36734  0.022752279   0.02258445            2 
 2134000   0.91690775     -7.69222    582.89535  0.022762236  0.022577801            3 
 2135000   0.93247361   -7.7311636    583.72552  0.022783978  0.022571109            2 
 2136000    0.9211815   -7.6970297    583.66297  0.022770871  0.022564382            3 
 2137000   0.89647282   -7.6888418    582.55506  0.022717012  0.022557647            3 
 2138000    0.9002548   -7.7210992    582.15156   0.02269066  0.022550928            2 
 2139000   0.90719089   -7.7147328    583.04612  0.022714903  0.022544175            1 
 2140000   0.92094715     -7.70066     583.3133  0.022714692  0.022537481            2 
 2141000    0.9180359    -7.685286     584.3551  0.022744633  0.022530862            1 
 2142000   0.89064627   -7.6825781    583.17961  0.022688282  0.022524204            2 
 2143000   0.91642077   -7.7156262    583.67852  0.022697096  0.022517511            1 
 2144000    0.9332531   -7.6943162    582.33538  0.022634304  0.022510829            2 
 2145000   0.90551618   -7.7219712    581.44478  0.022589152  0.022504069            1 
 2146000   0.91525154   -7.7236492    584.53781  0.022698735  0.022497325            1 
 2147000   0.92235882   -7.6960773    583.73603  0.022657042  0.022490591            2 
 2148000   0.90386204   -7.6879273    583.00791  0.022618246  0.022483915            2 
 2149000     0.923359   -7.7043928    582.62307  0.022592798   0.02247724            1 
 2150000   0.91569104   -7.6446153    584.94991  0.022672477  0.022470593            3 
 2151000   0.90509122   -7.7163869    584.52914  0.022645636  0.022463948            2 
 2152000   0.90486299   -7.7302573    583.88318  0.022610098  0.022457267            2 
 2153000   0.91171777   -7.7169883    584.25912  0.022614148  0.022450613            2 
 2154000   0.90338381   -7.7406607    584.06583  0.022596171  0.022443949            1 
 2155000   0.89375214   -7.7387541    585.18755  0.022629062  0.022437324            1 
 2156000   0.90348533   -7.7344789    585.07217  0.022614107  0.022430649            4 
 2157000   0.89790565   -7.6937605    586.49471  0.022658581  0.022424062            1 
 2158000   0.91667161   -7.6992469    585.94672   0.02262692  0.022417467            2 
 2159000   0.90478494   -7.7007483    585.51526  0.022599786   0.02241083            3 
 2160000   0.93085779   -7.7388824    584.37974  0.022545515  0.022404216            1 
 2161000   0.92094065   -7.7522824    584.62916    0.0225447   0.02239757            2 
 2162000   0.92115682   -7.7544141    586.01817  0.022587811  0.022390933            2 
 2163000   0.89606287   -7.7029939     586.5721  0.022598709  0.022384382            2 
 2164000   0.88974548   -7.6797602    586.45432  0.022583731  0.022377867            4 
 2165000   0.89690402    -7.710061    587.92081  0.022629746  0.022371299            1 
 2166000   0.92831015   -7.7022761    585.53515  0.022527514  0.022364692            1 
 2167000   0.90250949   -7.7054395    587.56437  0.022595153  0.022358051            1 
 2168000   0.90623914   -7.7518636    586.72436  0.022552443  0.022351469            2 
 2169000   0.92330286   -7.7168638     586.6065  0.022537517  0.022344919            4 
 2170000   0.90763187   -7.7046877    588.32554  0.022593147  0.022338408            2 
 2171000   0.90859485   -7.7013562    587.79666  0.022562439  0.022331898            1 
 2172000   0.92115779   -7.7056529    587.98501  0.022559278  0.022325368            3 
 2173000   0.89493326   -7.7266184    589.28917   0.02259891  0.022318833            1 
 2174000   0.92202013   -7.7214338    587.88253  0.022534596   0.02231236            2 
 2175000   0.90634221   -7.6892881    589.30553  0.022578756  0.022305857            4 
 2176000   0.90798038   -7.7474837     588.0486  0.022520243  0.022299382            2 
 2177000   0.88319607   -7.7054137    589.82701  0.022577975  0.022292907            4 
 2178000    0.9301166   -7.7292613    589.78424  0.022565972  0.022286499            2 
 2179000   0.91122657   -7.7141275    589.87103  0.022558935  0.022280077            2 
 2180000   0.90691213   -7.7036667    588.81811  0.022508338  0.022273638            1 
 2181000   0.89420532   -7.7526852    588.32642  0.022479231  0.022267182            2 
 2182000   0.90464535    -7.692516      590.583   0.02255511  0.022260758            4 
 2183000   0.89429018   -7.7173724    590.10014  0.022526345  0.022254359            4 
 2184000    0.8993545   -7.7095721    590.80864  0.022543065  0.022247932            2 
 2185000   0.92815186   -7.7228878    590.70925  0.022528957   0.02224148            1 
 2186000   0.88831531   -7.6998443    591.26644  0.022539892  0.022235088            2 
 2187000   0.92684003    -7.684545    591.64243  0.022543912  0.022228776            1 
 2188000   0.91823476   -7.7102102    590.37469  0.022485325  0.022222431            4 
 2189000   0.91108937   -7.6902424    591.78635  0.022528794  0.022216129            2 
 2190000   0.90777493    -7.688598    591.42929   0.02250492  0.022209821            3 
 2191000   0.90209842   -7.7434625    592.54438   0.02253706  0.022203486            3 
 2192000   0.89848617   -7.7260803     590.9881  0.022467613  0.022197111            1 
 2193000   0.91902008   -7.7552794    589.85055  0.022414141   0.02219073            2 
 2194000   0.89572742   -7.7286795    591.66144  0.022472707  0.022184337            2 
 2195000   0.90992297   -7.7460508    591.67134  0.022462845  0.022177904            2 
 2196000   0.90457739   -7.7201341    590.61378  0.022412484  0.022171479            1 
 2197000   0.89858176    -7.742994    590.40572  0.022394391  0.022165079            3 
 2198000   0.90267926   -7.6943187    592.02049  0.022445423  0.022158682            2 
 2199000   0.89051651   -7.7223918    592.58942  0.022456777  0.022152288            3 
 2200000    0.9076438   -7.7332922    592.06015  0.022426521  0.022145875            3 
 2201000    0.8957992   -7.7238354     591.6453  0.022400625  0.022139503            1 
 2202000   0.89597103   -7.7771863    591.91155  0.022400528   0.02213314            2 
 2203000   0.89332082   -7.7366302    592.76445  0.022422623  0.022126715            2 
 2204000   0.90806795   -7.7152374    593.45727  0.022438645   0.02212039            2 
 2205000   0.88689213   -7.7210081    593.28475  0.022421948  0.022114072            3 
 2206000   0.89425319   -7.7500569    592.92192  0.022398078   0.02210777            2 
 2207000   0.91124955   -7.7668658     593.8677  0.022423641  0.022101384            3 
 2208000   0.90472318   -7.7013542     593.9295  0.022415817  0.022095039            2 
 2209000   0.88768888   -7.7338787    592.42952  0.022349084  0.022088757            1 
 2210000   0.87958243   -7.7496494    591.91491  0.022319567  0.022082458            2 
 2211000   0.88458433   -7.7617998    593.51191  0.022369663  0.022076201            2 
 2212000   0.87104783   -7.7572064    593.64832   0.02236469  0.022069889            2 
 2213000   0.90332941   -7.7370225    593.73463  0.022357834  0.022063547            4 
 2214000   0.89879367   -7.7267178    591.90541  0.022278885  0.022057228            2 
 2215000    0.9024512   -7.7475118    594.64414  0.022371864  0.022050943            1 
 2216000   0.89081095   -7.7710606    593.96214  0.022336121  0.022044645            3 
 2217000    0.8771961   -7.7530464     594.7182  0.022354466  0.022038324            1 
 2218000   0.89411949   -7.7314714    595.67101  0.022380185  0.022032095            2 
 2219000   0.88946418   -7.7368867    594.47296  0.022325107  0.022025842            1 
 2220000     0.908256   -7.7345163    595.38954  0.022349457  0.022019563            2 
 2221000   0.89472371   -7.7106317    595.64857  0.022349113  0.022013314            1 
 2222000   0.89750611   -7.7073179    595.26924  0.022324829  0.022007053            5 
 2223000    0.9062976   -7.7296998    594.47895  0.022285161  0.022000779            2 
 2224000   0.89923869   -7.7468102    595.37132  0.022308578  0.021994463            2 
 2225000   0.91074553   -7.7800725    595.24511  0.022293824  0.021988182            1 
 2226000   0.87347705   -7.7483475    594.52435  0.022256826  0.021981947            3 
 2227000   0.88422474   -7.7456619    596.40334  0.022317143  0.021975745            2 
 2228000   0.86506795   -7.7285493    594.46587   0.02223466  0.021969455            4 
 2229000   0.88417187   -7.7441482    595.15681  0.022250516  0.021963188            1 
 2230000   0.90566888   -7.7456309     595.6403  0.022258606  0.021956924            1 
 2231000   0.87838799   -7.7526658    596.73303  0.022289445  0.021950684            3 
 2232000   0.88432766   -7.7560399    595.95704  0.022250487  0.021944387            2 
 2233000    0.8729433   -7.7201142    597.00878  0.022279772  0.021938116            3 
 2234000   0.90116123   -7.7775047    595.36585  0.022208514  0.021931848            2 
 2235000   0.88452968   -7.7718232    595.86106  0.022217042  0.021925539            2 
 2236000   0.87258253   -7.7650457    597.08102  0.022252572  0.021919228            2 
 2237000   0.89852089   -7.7555257    596.89022  0.022235517  0.021912931            3 
 2238000   0.91137582   -7.7688754    596.83973  0.022223702  0.021906603            2 
 2239000   0.86647457   -7.7127328    596.90867  0.022216342  0.021900304            1 
 2240000   0.91665315   -7.7577355    597.42533  0.022225645  0.021894071            3 
 2241000   0.89775572   -7.7370406    596.65722  0.022187164   0.02188781            3 
 2242000   0.89635252   -7.7702506    597.98871  0.022226758  0.021881592            2 
 2243000   0.89376166   -7.7289011    596.47524   0.02216062  0.021875385            2 
 2244000   0.87991163    -7.726239      598.077  0.022210227    0.0218692            1 
 2245000   0.89288003   -7.7204236    597.40849  0.022175519  0.021862939            2 
 2246000   0.88851811   -7.7604845    596.91824  0.022147456  0.021856732            2 
 2247000   0.90602309   -7.7322208    598.65066  0.022201849  0.021850476            2 
 2248000   0.90145072   -7.7818043     596.8642  0.022125749  0.021844252            2 
 2249000   0.87798514   -7.7900154    596.59001  0.022105751  0.021837958            1 
 2250000   0.89084629   -7.7691276    598.03765  0.022149543  0.021831658            2 
 2251000   0.89588812    -7.734973    598.72935   0.02216531  0.021825443            4 
 2252000   0.89706119   -7.7542379    598.18895   0.02213547  0.021819207            2 
 2253000   0.88583958   -7.7446711     597.9511  0.022116848  0.021812971            2 
 2254000   0.88114468   -7.7370947    598.71388  0.022135237  0.021806744            3 
 2255000   0.90208274   -7.7613691    597.82724  0.022092655   0.02180047            3 
 2256000   0.90135728   -7.7577298    598.12681  0.022093928  0.021794216            1 
 2257000   0.89890173   -7.7694577    598.97077  0.022115299  0.021787931            2 
 2258000   0.88383077   -7.7593667    599.60233  0.022128814  0.021781672            1 
 2259000   0.89804263   -7.7262787    599.14758  0.022102242  0.021775425            3 
 2260000   0.88327529   -7.7575592    598.73469  0.022077238   0.02176914            2 
 2261000   0.87451736   -7.7595857    599.99898  0.022114071  0.021762922            3 
 2262000   0.88949977   -7.7429414    601.14221  0.022146412  0.021756762            1 
 2263000   0.89720133   -7.7815067     598.5937  0.022042779  0.021750565            1 
 2264000   0.88309209    -7.745372    598.15654  0.022016951  0.021744415            2 
 2265000   0.90666852   -7.7696903    600.05011  0.022076899   0.02173826            1 
 2266000   0.89518152   -7.7531315    599.76037  0.022056501  0.021732057            2 
 2267000   0.89775922   -7.7721329    598.39027  0.021996408  0.021725857            2 
 2268000   0.88449278   -7.7723418    599.26493  0.022018846  0.021719616            1 
 2269000   0.89209297   -7.7393793     600.3412   0.02204867  0.021713432            4 
 2270000   0.88712878   -7.7813984    600.68257  0.022051489  0.021707295            2 
 2271000   0.88549092   -7.7329313    603.26785  0.022136645  0.021701204            2 
 2272000   0.88992282   -7.7849398    601.86711  0.022075525  0.021695085            2 
 2273000   0.87901591   -7.7214178    601.67326  0.022058706  0.021688934            1 
 2274000   0.88710401   -7.7652388    598.71015  0.021940419  0.021682812            1 
 2275000   0.87672322   -7.7791464    600.05166  0.021979914  0.021676656            3 
 2276000   0.87938052    -7.775426    598.61002  0.021917473  0.021670487            2 
 2277000   0.90107333   -7.7865682    599.28907  0.021932699   0.02166431            1 
 2278000   0.90284613   -7.7882787    599.76964  0.021940651  0.021658109            2 
 2279000   0.87838742   -7.7603047    599.35854  0.021915991  0.021651876            3 
 2280000   0.89202977   -7.7656182    600.68349  0.021954806  0.021645647            1 
 2281000   0.88323495   -7.7782899    601.81423  0.021986491  0.021639456            2 
 2282000   0.89981836     -7.74384    601.95076  0.021981842  0.021633248            3 
 2283000   0.88791074   -7.7650939    600.61391  0.021923416  0.021627032            3 
 2284000   0.86625489   -7.7691975    599.85699  0.021886201  0.021620795            2 
 2285000   0.88199951   -7.7571358     601.2306  0.021926718  0.021614557            2 
 2286000   0.88974758   -7.7708116    601.49578  0.021926793  0.021608275            1 
 2287000   0.89516197   -7.7786844    600.94912  0.021897286  0.021602035            1 
 2288000   0.87517398   -7.7793715    600.02525  0.021854066  0.021595776            1 
 2289000   0.88579695   -7.7463385    602.70016  0.021941902  0.021589554            1 
 2290000   0.89674826    -7.793051    601.40446   0.02188517  0.021583384            1 
 2291000   0.88804043   -7.7629946    601.82507  0.021890916  0.021577194            1 
 2292000   0.88309985   -7.7507242    601.35515   0.02186428  0.021570987            6 
 2293000   0.88255278   -7.7462246    601.71572  0.021867849  0.021564802            2 
 2294000   0.90919375   -7.7725722    603.57767  0.021925954  0.021558642            2 
 2295000   0.89477041   -7.7583497    603.07965  0.021898317  0.021552529            4 
 2296000   0.85841209   -7.7329289    604.11759  0.021926451  0.021546433            2 
 2297000   0.87947916   -7.7824845    603.43248   0.02189205  0.021540289            3 
 2298000    0.8851131   -7.7491711    602.35912    0.0218436  0.021534163            1 
 2299000   0.91138507   -7.7529047     603.1298  0.021862034  0.021528037            2 
 2300000   0.87385245    -7.735716    605.34931  0.021932946  0.021521952            2 
 2301000   0.87581068   -7.7667249    605.29526  0.021921457  0.021515844            3 
 2302000   0.88113605   -7.7887238    604.77379  0.021893056  0.021509697            2 
 2303000    0.9089526   -7.8132371     603.7357  0.021845987  0.021503527            3 
 2304000   0.88493489   -7.7815383    603.60151  0.021831652  0.021497397            4 
 2305000   0.88675352    -7.768685    603.44741  0.021816609  0.021491246            3 
 2306000   0.86937511   -7.7633228    604.33165  0.021839103  0.021485026            2 
 2307000   0.88867518   -7.7866609    602.91351   0.02177841  0.021478825            1 
 2308000   0.89136344   -7.7832862     602.0845  0.021739042  0.021472578            3 
 2309000   0.86444816   -7.7980558    602.77831  0.021754667  0.021466312            2 
 2310000   0.86516563   -7.7996107    604.12428  0.021793805  0.021460059            2 
 2311000   0.86661709   -7.7610231    605.43927  0.021831792  0.021453886            3 
 2312000   0.87871306     -7.77676    604.52477  0.021789388  0.021447728            3 
 2313000   0.87753621   -7.7559069    605.29297  0.021807644  0.021441562            1 
 2314000   0.89141665   -7.7410306    603.76876  0.021743329    0.0214354            6 
 2315000   0.87206934   -7.7448435    606.46005  0.021830815  0.021429286            2 
 2316000   0.87790089   -7.8028382    604.66633  0.021756848  0.021423138            1 
 2317000   0.89124629   -7.7754769    604.11988  0.021727805  0.021417002            2 
 2318000   0.89399514   -7.7771346    604.54174  0.021733597  0.021410836            2 
 2319000   0.88316187   -7.8012733    604.93468  0.021738345  0.021404677            2 
 2320000   0.90009084   -7.7529938    606.06985   0.02176975  0.021398579            1 
 2321000   0.88002957   -7.7738313    606.38148   0.02177156  0.021392476            3 
 2322000   0.90618145   -7.7607258    605.78078  0.021740625  0.021386391            1 
 2323000   0.90445988   -7.7878339    606.16836   0.02174517  0.021380301            3 
 2324000    0.8694653   -7.8108006    605.36431  0.021706982  0.021374225            1 
 2325000   0.88128325   -7.7925377    606.67657   0.02174468  0.021368123            3 
 2326000   0.90866067   -7.7837772     606.4993   0.02172898  0.021361984            2 
 2327000   0.87129559   -7.7717072    607.24052  0.021746187  0.021355844            2 
 2328000   0.88463135   -7.7833967    606.79718  0.021720976  0.021349738            2 
 2329000   0.88127283   -7.8109533    604.90534  0.021643958  0.021343621            1 
 2330000   0.89123316    -7.807783    606.06072  0.021675991  0.021337519            1 
 2331000   0.86240916   -7.8167689    606.48073  0.021681708  0.021331441            2 
 2332000   0.86168944    -7.790408    606.21855  0.021663042   0.02132533            2 
 2333000   0.89819916   -7.8096245     605.8732   0.02164142  0.021319173            1 
 2334000   0.87177789   -7.7921917    607.55734  0.021692278  0.021313057            1 
 2335000   0.87198881   -7.7964461    606.99794  0.021663024  0.021306953            5 
 2336000   0.87931845   -7.7684015    605.91627  0.021615164  0.021300879            2 
 2337000   0.87546847   -7.7888118    606.44956  0.021624931  0.021294844            1 
 2338000   0.87957556   -7.8069444    607.82416  0.021664676  0.021288755            2 
 2339000   0.88175427   -7.8215255    605.75149  0.021581569  0.021282609            2 
 2340000   0.87757372    -7.793823    607.21059  0.021624309  0.021276498            4 
 2341000   0.88137413   -7.7695866    608.73427   0.02166931  0.021270374            2 
 2342000   0.88630815   -7.7610741     606.8875  0.021594346  0.021264246            2 
 2343000   0.86527969   -7.7908884    607.57942  0.021609739  0.021258125            2 
 2344000   0.87307596    -7.776456    608.82393  0.021644764  0.021252035            2 
 2345000   0.89317604   -7.7639176    610.28195  0.021687347  0.021245947            2 
 2346000   0.88368662    -7.758711    608.08765  0.021600158  0.021239899            4 
 2347000   0.86331344   -7.8317147     607.2985  0.021562935  0.021233791            5 
 2348000    0.8857835   -7.8130644    607.74534   0.02156961   0.02122761            4 
 2349000     0.875759   -7.7963157    608.38214  0.021583019  0.021221459            1 
 2350000    0.8734325   -7.8082001    609.38172  0.021609281  0.021215313            3 
 2351000   0.86807024   -7.8416413    607.60745  0.021537199  0.021209158            2 
 2352000   0.88239999   -7.8152309    607.86808  0.021537276  0.021203024            4 
 2353000   0.86952424   -7.8026086    609.02518  0.021569102  0.021196927            2 
 2354000   0.87848801   -7.8139377    607.91907  0.021520783  0.021190835            3 
 2355000   0.89930841   -7.8169804    606.97951  0.021478397  0.021184705            3 
 2356000   0.90089215   -7.8072348    608.13142  0.021510025  0.021178519            5 
 2357000   0.87182224   -7.8158891    608.01565  0.021496806  0.021172344            3 
 2358000   0.88951545   -7.7822792    609.27324  0.021532133  0.021166192            2 
 2359000   0.87013199   -7.7627706     610.8188  0.021577604  0.021160117            3 
 2360000   0.86270067   -7.7692883    608.95719  0.021502726  0.021154069            2 
 2361000   0.86781595   -7.7998851    609.62202  0.021517084  0.021148025            1 
 2362000   0.90056104   -7.7975227    609.97274  0.021520348  0.021141931            3 
 2363000   0.87479321   -7.8027239    610.32392  0.021523625  0.021135859            3 
 2364000   0.89597353   -7.7932122    608.49855  0.021450174  0.021129792            2 
 2365000   0.88864641   -7.7985123    609.03356  0.021459956  0.021123683            1 
 2366000   0.86490567   -7.8278407    608.80255   0.02144275  0.021117543            3 
 2367000   0.86542015   -7.8173289     609.8426  0.021470307  0.021111463            1 
 2368000    0.8842665   -7.7892801    611.36657  0.021514871  0.021105443            4 
 2369000   0.86697065   -7.8119322    609.60641  0.021443873  0.021099423            3 
 2370000   0.87363549   -7.7881075    609.65712  0.021436608  0.021093355            3 
 2371000   0.87651665   -7.7994648    611.09416  0.021478074  0.021087283            1 
 2372000   0.86015863   -7.8499766     609.6411   0.02141797  0.021081225            1 
 2373000   0.85455072   -7.8206517     609.8309   0.02141561   0.02107513            1 
 2374000    0.8644024   -7.8232514    610.02042  0.021413241  0.021069085            4 
 2375000   0.86393423   -7.8576736    610.84523  0.021433166  0.021063061            4 
 2376000   0.86375553   -7.8228623      611.684  0.021453563   0.02105706            1 
 2377000   0.87633286   -7.7925512    612.94874  0.021488878  0.021051049            2 
 2378000   0.87076439   -7.8216843    611.51809  0.021429706   0.02104506            2 
 2379000    0.8706228   -7.7881758    611.86478  0.021432842  0.021039065            2 
 2380000   0.87641298   -7.7656368    612.94297  0.021461588   0.02103308            3 
 2381000   0.88960487   -7.7880212    612.76675  0.021446407  0.021027101            2 
 2382000    0.8753954   -7.8082045    611.84802  0.021405262  0.021021119            2 
 2383000   0.87550984   -7.7911879    612.69936  0.021426051  0.021015129            2 
 2384000   0.86990852    -7.780704    612.27412  0.021402199   0.02100913            2 
 2385000   0.86060297   -7.7868072    612.68558  0.021407602  0.021003115            2 
 2386000   0.87633802   -7.8110529    612.82783  0.021403598  0.020997116            2 
 2387000    0.8859573   -7.8233427    612.02448  0.021366586   0.02099111            2 
 2388000   0.85981514   -7.8141141    613.71665  0.021416689  0.020985176            3 
 2389000   0.88281723   -7.8075935    613.19584  0.021389558  0.020979231            5 
 2390000   0.86852213   -7.7888741    612.35482  0.021351284  0.020973252            2 
 2391000   0.86590138   -7.8266645    612.26259  0.021339139   0.02096729            2 
 2392000    0.8981129    -7.794241    611.97957  0.021320358  0.020961363            2 
 2393000   0.87205131   -7.8479022    613.02376  0.021347812  0.020955428            2 
 2394000   0.86416427   -7.8210707    613.92025    0.0213701  0.020949448            1 
 2395000    0.8849145   -7.8002981     614.2573  0.021372905  0.020943483            1 
 2396000   0.86617453   -7.7863624     613.8447  0.021349635  0.020937564            2 
 2397000   0.88375565   -7.8069932     614.0385  0.021347466   0.02093164            1 
 2398000   0.86882664   -7.8057802    614.79951   0.02136501  0.020925688            6 
 2399000   0.90444997   -7.8115349    613.94388  0.021326382  0.020919726            4 
 2400000   0.87073936    -7.796487    614.03718  0.021320735  0.020913708            2 
 2401000   0.87280965   -7.8264625    613.99034   0.02131023  0.020907692            2 
 2402000   0.87438435   -7.8116759     614.9813  0.021335738  0.020901657            2 
 2403000    0.8655484   -7.8430556    613.24947  0.021266801  0.020895647            2 
 2404000   0.87993758   -7.8374133    614.25504  0.021292812  0.020889607            2 
 2405000     0.874614   -7.8149654    614.06369  0.021277328  0.020883655            1 
 2406000   0.86002336   -7.8244187     612.3687  0.021209778  0.020877701            2 
 2407000    0.8535062   -7.8348872    613.17727  0.021228959   0.02087168            1 
 2408000   0.86733945   -7.8245515    614.84112  0.021277724  0.020865666            3 
 2409000   0.86885138   -7.8056151    614.51451  0.021257593  0.020859666            3 
 2410000   0.87146992   -7.8072636    614.79874  0.021258601  0.020853709            3 
 2411000   0.86936122   -7.8178206    615.23783   0.02126496  0.020847729            2 
 2412000   0.86683856   -7.8282173    613.97794  0.021212616  0.020841741            2 
 2413000   0.87613765   -7.8530027    615.20143  0.021246078  0.020835711            3 
 2414000   0.85177394   -7.8387254    615.81603  0.021258493   0.02082977            4 
 2415000   0.86557704    -7.821295    616.12054  0.021260198  0.020823817            1 
 2416000   0.87727215   -7.8217693    613.62466   0.02116531  0.020817852            2 
 2417000   0.86789359   -7.8381865    614.02548  0.021170372  0.020811903            3 
 2418000   0.86387939   -7.8160288    614.16912  0.021166567  0.020805954            1 
 2419000   0.86925533   -7.8058917    615.08281  0.021189293   0.02079999            1 
 2420000   0.84159881   -7.8675106    614.72619  0.021168257  0.020794023            2 
 2421000   0.88643988   -7.8547358    615.78173  0.021195846  0.020788014            3 
 2422000   0.86745622   -7.8206426    616.04849  0.021196273  0.020782019            3 
 2423000   0.88254815   -7.8437928    615.37944  0.021164515  0.020776076            2 
 2424000   0.88381905   -7.8390151    616.06111  0.021179219  0.020770084            2 
 2425000   0.86103674   -7.8293115    615.89947   0.02116493   0.02076415            2 
 2426000   0.85307885    -7.829982     614.3095   0.02110159  0.020758195            1 
 2427000   0.85271146   -7.8186142    616.52062  0.021168817  0.020752275            1 
 2428000   0.85440378   -7.8155228    617.60857  0.021197439  0.020746385            2 
 2429000   0.86436223   -7.8137178    617.00437  0.021167983  0.020740482            5 
 2430000   0.85615587   -7.8250847    616.66907  0.021147773  0.020734609            1 
 2431000   0.86044616    -7.783887    617.29437  0.021160509  0.020728721            4 
 2432000   0.88100301   -7.7796674    618.81919  0.021204057  0.020722874            5 
 2433000   0.88167915   -7.8270187     617.1802  0.021139204  0.020716975            3 
 2434000   0.83734042   -7.8222096    616.50498  0.021107401  0.020711008            3 
 2435000    0.8669535   -7.8009227    618.73784  0.021175149  0.020705159            1 
 2436000   0.84985623   -7.8387731    617.71693  0.021131532  0.020699308            1 
 2437000   0.86953586   -7.8234657    617.68591    0.0211218  0.020693423            2 
 2438000   0.85172497   -7.8288146     617.1275  0.021094049  0.020687573            2 
 2439000   0.87571243   -7.8466574    618.17364  0.021121144  0.020681703            4 
 2440000   0.87260492   -7.8059065    617.16239  0.021077951  0.020675812            2 
 2441000   0.85736676   -7.8390823     617.6447  0.021085781  0.020669945            2 
 2442000   0.87100941   -7.8139128     618.9534  0.021121806  0.020664101            2 
 2443000   0.85246807   -7.8182041     618.6986  0.021104469  0.020658252            3 
 2444000   0.85519478   -7.8527745    619.11839  0.021110147  0.020652376            1 
 2445000    0.8691313   -7.8162215    619.00019  0.021097484  0.020646507            2 
 2446000   0.83541377   -7.8121455    618.04218   0.02105622   0.02064065            3 
 2447000    0.8667614   -7.8459658    617.65753  0.021034516  0.020634764            3 
 2448000   0.86729979   -7.8312527    619.43223  0.021086337   0.02062884            2 
 2449000   0.86790238   -7.8229801    618.72095  0.021053523  0.020622942            4 
 2450000    0.8543458   -7.8225586    618.26859  0.021029544  0.020617057            2 
 2451000   0.86333312   -7.8400363    619.39735  0.021059341  0.020611128            2 
 2452000   0.86302642   -7.8086232    619.83926  0.021065772  0.020605293            1 
 2453000   0.85975216   -7.8282898    618.94806  0.021026908  0.020599464            2 
 2454000   0.86484817   -7.8397395    618.94449  0.021018218  0.020593599            3 
 2455000    0.8440111   -7.8460237     618.3059   0.02098798  0.020587745            1 
 2456000   0.87325155   -7.8484516    619.02348  0.021003783  0.020581856            2 
 2457000   0.86033503   -7.8251341    618.15559  0.020965798  0.020575968            2 
 2458000   0.87529444   -7.8140746    621.11423  0.021057575  0.020570163            2 
 2459000   0.85079363   -7.8651191    618.96715  0.020976249  0.020564369            2 
 2460000   0.86234135   -7.8236545    619.56742  0.020988056  0.020558512            3 
 2461000   0.87321508   -7.8331167    619.01321  0.020960761  0.020552655            3 
 2462000   0.85508793   -7.8335366    619.86854  0.020981199   0.02054681            2 
 2463000     0.878572   -7.8773955     618.0656   0.02091168  0.020540975            3 
 2464000   0.87972095   -7.8578542    619.07204  0.020937231  0.020535085            1 
 2465000   0.84862315   -7.8676351    618.98283  0.020925721  0.020529193            6 
 2466000   0.85271755   -7.8266413     621.3937  0.020998706  0.020523365            3 
 2467000   0.84807437   -7.8385794    622.80304    0.0210378  0.020517597            1 
 2468000   0.85372706   -7.8287022    621.73476  0.020993205  0.020511774            1 
 2469000   0.88078037   -7.8566747    620.58989  0.020946061   0.02050596            2 
 2470000   0.83292426   -7.8465441    620.98435  0.020950889  0.020500191            3 
 2471000   0.85599262   -7.8538483    622.03136   0.02097772  0.020494461            2 
 2472000   0.85406775    -7.851153    621.84095  0.020962815  0.020488673            2 
 2473000   0.85635439   -7.8769315    620.38844  0.020905393   0.02048289            2 
 2474000   0.85732387    -7.871272    621.44002  0.020932364  0.020477093            3 
 2475000   0.86628076   -7.8436772    621.40052  0.020922577    0.0204713            5 
 2476000   0.87856187   -7.8360762    623.60138  0.020988199  0.020465548            2 
 2477000   0.86538641   -7.8206762    621.68868  0.020915378  0.020459833            2 
 2478000   0.85651265   -7.8360704    621.98254  0.020916819  0.020454063            2 
 2479000   0.84810338   -7.8498168    622.24678  0.020917264  0.020448266            3 
 2480000    0.8677995   -7.8679327    621.26704  0.020875909  0.020442428            2 
 2481000   0.86143345   -7.8646526    622.39884   0.02090551  0.020436596            1 
 2482000   0.84789392   -7.8495753    623.59109  0.020937117  0.020430755            2 
 2483000   0.86494282   -7.8541323    621.62562   0.02086272   0.02042499            1 
 2484000   0.85485736    -7.868439    622.31958  0.020877603   0.02041918            1 
 2485000   0.84232484    -7.853596    621.93074  0.020856162  0.020413339            2 
 2486000   0.87230986   -7.8692451    622.24174  0.020858197  0.020407513            2 
 2487000   0.84740648   -7.8532422    623.12466  0.020879395  0.020401737            1 
 2488000   0.84696459   -7.8306701    623.55179  0.020885309  0.020396003            1 
 2489000   0.85084918   -7.8198746     624.2865  0.020901517  0.020390259            4 
 2490000   0.83284501   -7.8698642    624.19381   0.02089002  0.020384526            2 
 2491000   0.84627543   -7.8549089    622.22095  0.020815634  0.020378734            2 
 2492000   0.86601678   -7.8000641    624.07617  0.020869321  0.020372953            3 
 2493000   0.88079644   -7.8450993    623.97855  0.020857686  0.020367158            1 
 2494000   0.85959438   -7.8533464    623.24222   0.02082472  0.020361386            3 
 2495000   0.84822273   -7.8366114    622.99136  0.020807995  0.020355561            2 
 2496000   0.86319812   -7.8774226    622.52202  0.020783989  0.020349701            1 
 2497000   0.84224926   -7.8686035      622.215  0.020765418  0.020343854            3 
 2498000   0.84145797   -7.8601134    622.06106   0.02075197  0.020338038            2 
 2499000   0.86692747   -7.8492654    622.83791  0.020769572  0.020332233            2 
 2500000   0.84251497   -7.8546457    623.72834  0.020790945   0.02032645            2 
 2501000   0.84673447   -7.8273563    625.16482  0.020830495  0.020320679            1 
 2502000   0.84407361   -7.8500301    624.29742  0.020793279  0.020314891            1 
 2503000   0.85743136   -7.8420858    622.43095  0.020722831  0.020309056            2 
 2504000   0.81831774   -7.8644103    623.75256  0.020758538   0.02030319            1 
 2505000   0.84849275   -7.8640557    623.31716  0.020735767  0.020297371            2 
 2506000   0.82816606   -7.8782885    622.28817  0.020693275  0.020291557            4 
 2507000   0.83389472   -7.8718827    623.75753  0.020733863  0.020285715            2 
 2508000   0.85059678   -7.8447487    623.87392  0.020729463   0.02027989            2 
 2509000   0.84719064   -7.8636946    624.44425  0.020740144  0.020274089            2 
 2510000   0.84963606   -7.8775219    623.70368  0.020707293  0.020268297            2 
 2511000   0.84650821   -7.8575495    624.37364  0.020721281  0.020262475            2 
 2512000   0.83187768   -7.8313602     622.4081  0.020647827  0.020256676            2 
 2513000    0.8393806   -7.9004892    624.73356  0.020716725  0.020250883            1 
 2514000   0.85522703   -7.8430848    625.34486  0.020728748  0.020245064            5 
 2515000   0.86130331   -7.8588321    623.31635  0.020653292  0.020239254            2 
 2516000   0.85931041   -7.8839143    623.94874  0.020666029  0.020233431            2 
 2517000   0.83348075   -7.8675297     625.4657  0.020708042  0.020227626            1 
 2518000    0.8448985   -7.8795866     625.2926  0.020694089  0.020221826            1 
 2519000   0.84236526   -7.8643941    624.81563  0.020670095   0.02021601            5 
 2520000   0.86261328    -7.853378     624.0727  0.020637325  0.020210195            3 
 2521000   0.86212329   -7.8782122    624.35962  0.020638623    0.0202044            3 
 2522000   0.82399238   -7.8478241    625.73538  0.020675898  0.020198607            1 
 2523000   0.84047884   -7.8503463     625.4768  0.020659162  0.020192852            2 
 2524000   0.83845952    -7.879889    625.96456  0.020667081  0.020187057            1 
 2525000   0.83840925   -7.8703156    625.61458  0.020647346  0.020181281            2 
 2526000   0.85670133   -7.8779793    625.69564  0.020641846  0.020175497            5 
 2527000   0.84507919   -7.8735418    626.06345  0.020645807  0.020169687            3 
 2528000   0.85010908   -7.8912729    624.35972  0.020581478  0.020163903            3 
 2529000   0.85933217   -7.8550033    626.19152    0.0206337  0.020158094            2 
 2530000   0.84482872   -7.8446467     625.4649  0.020601611  0.020152313            3 
 2531000   0.83929952   -7.8788924    625.39189  0.020591067  0.020146474            8 
 2532000   0.83129693   -7.8531608    625.39713  0.020583107  0.020140667            3 
 2533000   0.85613481   -7.8441058    625.81491  0.020588726  0.020134866            3 
 2534000   0.84241167   -7.8564919    625.71951  0.020577464  0.020129061            3 
 2535000   0.84899087   -7.8801161    625.19074  0.020551964  0.020123277            2 
 2536000   0.85287594    -7.871632    625.05689  0.020539461  0.020117489            2 
 2537000    0.8498433    -7.874604    625.58383  0.020548674  0.020111698            1 
 2538000   0.83970264   -7.8745597    625.12235  0.020525425  0.020105878            1 
 2539000   0.83491319   -7.8644415     625.4987  0.020529693   0.02010005            2 
 2540000   0.84152502   -7.9099071    625.17144  0.020510874  0.020094193            1 
 2541000   0.84318447   -7.8751555    626.21092  0.020536892   0.02008835            1 
 2542000   0.82240733   -7.8843976    625.36295  0.020501015  0.020082498            4 
 2543000   0.82991968   -7.9104127    625.26718  0.020489815  0.020076647            2 
 2544000   0.84219558    -7.861794    626.08636  0.020508594  0.020070796            6 
 2545000   0.83477675   -7.8746899    625.57614  0.020483829  0.020064928            4 
 2546000   0.84583774   -7.8758952    625.60954  0.020476877  0.020059058            4 
 2547000   0.83624067   -7.8903031    625.95646  0.020480188  0.020053187            1 
 2548000   0.83663885   -7.8604797    625.99859  0.020473528  0.020047323            2 
 2549000    0.8564077    -7.906692    626.08267  0.020468245  0.020041446            2 
 2550000   0.84208695   -7.9027477    625.89663  0.020454138   0.02003558            1 
 2551000   0.85407631   -7.8785402    625.13419  0.020421214  0.020029725            1 
 2552000   0.85372402   -7.8845468    626.28638  0.020450835  0.020023899            4 
 2553000   0.86554669   -7.8813169    625.95148  0.020431893  0.020018056            2 
 2554000   0.84551286   -7.8547181    626.82056   0.02045225  0.020012233            3 
 2555000    0.8503787   -7.9141815    626.95249  0.020448548   0.02000639            1 
 2556000   0.84305587   -7.9019275    625.79315   0.02040275  0.020000538            2 
 2557000   0.83689427   -7.8750629    626.48539  0.020417331  0.019994691            2 
 2558000   0.85438663   -7.8677186    628.39788  0.020471653  0.019988827            2 
 2559000   0.83414509   -7.8776164    626.93528  0.020416025  0.019982989            3 
 2560000   0.84086015   -7.8782155    626.35107  0.020389032  0.019977154            1 
 2561000   0.84169354   -7.9221189    625.56194  0.020355393  0.019971294            2 
 2562000   0.84319649   -7.8733741    626.31514  0.020371947  0.019965424            2 
 2563000   0.85790136   -7.8682922    625.97346  0.020352889  0.019959557            2 
 2564000   0.84712591   -7.8695372    627.70116  0.020401104  0.019953676            4 
 2565000   0.82080605   -7.8744944    626.39301   0.02035065  0.019947784            2 
 2566000   0.83740754   -7.8988173     625.9548  0.020328488  0.019941911            2 
 2567000   0.82597708   -7.8588128    626.78138  0.020347402  0.019936046            1 
 2568000   0.83807065   -7.8830396    625.42338  0.020295411   0.01993017            1 
 2569000   0.84425036   -7.8699734    627.02868  0.020339583  0.019924296            2 
 2570000   0.84524724   -7.8874996    625.42894  0.020279797  0.019918405            2 
 2571000   0.83444582   -7.8623741    626.42634  0.020304238  0.019912495            2 
 2572000   0.83967857   -7.8874191    627.39675  0.020327785  0.019906564            2 
 2573000   0.84448263   -7.8953159    626.96074  0.020305763  0.019900672            6 
 2574000   0.85182897    -7.875804    627.16296  0.020304421  0.019894787            2 
 2575000   0.83767529   -7.8897523    625.38685  0.020239057  0.019888886            2 
 2576000   0.83532628   -7.8781563    627.01752  0.020283952  0.019882993            2 
 2577000   0.83300944   -7.8991021    625.93053   0.02024093  0.019877063            2 
 2578000   0.85043037   -7.8789592    626.47563  0.020250699  0.019871176            3 
 2579000   0.82912328   -7.8972656    627.02794  0.020260693  0.019865283            1 
 2580000   0.82268313   -7.8957644    626.94577  0.020250186  0.019859343            1 
 2581000   0.84439729   -7.8811342    626.29185  0.020221227  0.019853414            3 
 2582000   0.84332414   -7.8606652    627.86979  0.020264323  0.019847495            1 
 2583000   0.82973664    -7.868367    627.71342  0.020251433  0.019841626            2 
 2584000   0.83359713   -7.8952361    627.09605  0.020223686  0.019835719            2 
 2585000   0.87419043   -7.8525311    627.05597   0.02021457  0.019829834            2 
 2586000    0.8255191   -7.8504529    629.11484    0.0202731  0.019823972            2 
 2587000   0.84178057   -7.8913166    627.31378  0.020207247  0.019818066            4 
 2588000   0.84220607   -7.9096025    626.55235  0.020174921  0.019812131            2 
 2589000   0.84591038   -7.9106776     627.2584  0.020189855  0.019806189            4 
 2590000   0.84601067   -7.8196814    629.28214  0.020247173   0.01980029            2 
 2591000   0.86682103   -7.8977317    625.63959  0.020122205  0.019794416            3 
 2592000   0.83706902   -7.8798373    627.41623  0.020171561  0.019788496            1 
 2593000   0.84670446    -7.843879    628.64372  0.020203231  0.019782612            2 
 2594000   0.82258198   -7.8741318    627.65871  0.020163798   0.01977671            1 
 2595000   0.82991833   -7.8800337     628.7831  0.020192135  0.019770792            1 
 2596000   0.82200341   -7.8980159    626.87389   0.02012307  0.019764902            2 
 2597000   0.82784587   -7.9046438    627.40175   0.02013226  0.019758965            2 
 2598000   0.82486885   -7.8984855     627.0286  0.020112542  0.019753015            4 
 2599000   0.82907987    -7.885723    629.04981   0.02016961  0.019747082            2 
 2600000   0.84222819   -7.9453198    626.37227  0.020076034  0.019741138            2 
 2601000   0.83624636    -7.917258    628.47728  0.020135758  0.019735213            2 
 2602000    0.8131165   -7.8793576    629.76169  0.020169155  0.019729304            2 
 2603000   0.84071805   -7.8934928     629.5048  0.020153182  0.019723408            1 
 2604000   0.82649529    -7.916116    627.72718  0.020088555  0.019717523            2 
 2605000   0.84004616   -7.8758099     629.5785  0.020140067  0.019711629            3 
 2606000    0.8435843    -7.869918    629.28605  0.020122987  0.019705741            1 
 2607000   0.84069237   -7.9000263    627.68229  0.020064004  0.019699865            1 
 2608000   0.83032609   -7.9011553    627.58317  0.020053143   0.01969397            1 
 2609000   0.81437471   -7.9274368    628.68479  0.020080644  0.019688013            2 
 2610000    0.8662835   -7.8906902    628.45852  0.020065725  0.019682114            1 
 2611000   0.83483828   -7.8990135    627.98661  0.020042979  0.019676239            7 
 2612000   0.82855405   -7.8671384    631.76919  0.020155985  0.019670336            6 
 2613000   0.83244935   -7.8901369    630.16226  0.020097023  0.019664476            2 
 2614000   0.83958384   -7.8678633     630.5162  0.020100618  0.019658625            2 
 2615000   0.85328247   -7.8917373    628.97085  0.020043686  0.019652768            2 
 2616000   0.83182294   -7.8981053    629.24846  0.020044867  0.019646875            1 
 2617000    0.8283932   -7.9110182    629.92947  0.020058893     0.019641            2 
 2618000   0.83268926   -7.9522232    627.29801  0.019967469   0.01963508            3 
 2619000   0.83162896   -7.9215972    628.96343  0.020012837  0.019629157            2 
 2620000    0.8196689    -7.930461    629.03205  0.020007381  0.019623218            2 
 2621000    0.8543038   -7.9145436    629.36757  0.020010415  0.019617316            2 
 2622000   0.83306835   -7.8891404    628.97671  0.019990361  0.019611428            3 
 2623000    0.8227231   -7.9114742    629.23053  0.019990803  0.019605516            2 
 2624000   0.83118527   -7.8922115    628.93203  0.019973705  0.019599604            2 
 2625000   0.83195768   -7.9014157    630.39006  0.020012383  0.019593744            3 
 2626000   0.82224998   -7.9127234    629.76132   0.01998481  0.019587861            3 
 2627000   0.83343475   -7.9057227    629.96814  0.019983763  0.019581949            2 
 2628000   0.85054541   -7.9168591    629.92243  0.019974709  0.019576076            2 
 2629000   0.81276679   -7.8945174    630.17578  0.019975142  0.019570196            3 
 2630000   0.83041609   -7.8673928    632.46678  0.020040139  0.019564346            3 
 2631000   0.82839147   -7.8813563    630.70871  0.019976837   0.01955853            1 
 2632000   0.81605686   -7.9151786    629.71716  0.019937853  0.019552706            2 
 2633000    0.8147025   -7.8846303    629.97144  0.019938329  0.019546858            1 
 2634000   0.83780465   -7.9247647    629.25947  0.019908234  0.019540994            2 
 2635000   0.84395888   -7.8777864    631.84142  0.019982335  0.019535141            3 
 2636000   0.81943987   -7.9280385    629.89152  0.019913111  0.019529292            2 
 2637000   0.80680625   -7.9354375    631.08409  0.019943246  0.019523399            1 
 2638000   0.81783148   -7.9160129    629.54928  0.019887202  0.019517493            2 
 2639000   0.83496979   -7.9310722    628.98906  0.019861976  0.019511564            5 
 2640000   0.83575444   -7.9420121    629.92821  0.019884098  0.019505664            2 
 2641000   0.82267389   -7.9362472    629.58577  0.019865763  0.019499721            4 
 2642000     0.822245   -7.9094628    630.67205  0.019892507  0.019493826            2 
 2643000   0.83289998   -7.8965724    631.60521  0.019914403  0.019487958            1 
 2644000   0.82836169   -7.9228647    629.69398  0.019846633  0.019482089            1 
 2645000   0.82933953   -7.9143466     629.6864  0.019838891  0.019476176            1 
 2646000   0.82583832   -7.8901353    631.82877  0.019898865  0.019470338            1 
 2647000   0.82997252    -7.920701    631.84131  0.019891743  0.019464513            2 
 2648000   0.81369813   -7.9076474    632.50826   0.01990522  0.019458683            1 
 2649000   0.82059405   -7.9157803    631.66632  0.019871219  0.019452833            2 
 2650000   0.81565176   -7.8948703    632.45064  0.019888385  0.019446972            1 
 2651000   0.83664451   -7.8976996    631.70987  0.019857597  0.019441179            1 
 2652000   0.84659694    -7.935961    631.12031  0.019831583  0.019435328            2 
 2653000   0.83011102   -7.8632252    631.25806  0.019828435  0.019429508            2 
 2654000   0.81662219   -7.9121707    630.32318   0.01979161  0.019423657            2 
 2655000   0.82301186   -7.9270706    630.27454  0.019782628  0.019417793            2 
 2656000   0.83287199   -7.9103652    631.58614  0.019816332  0.019411946            2 
 2657000   0.84066374    -7.943983    630.91214  0.019787735  0.019406048            1 
 2658000   0.82677355   -7.9388858    632.28983  0.019823483   0.01940019            4 
 2659000   0.84459609   -7.9085354    630.89319  0.019772257  0.019394304            2 
 2660000   0.82164329   -7.8884226    633.01854  0.019831408  0.019388449            1 
 2661000   0.84275681   -7.9025736    633.05999  0.019825253  0.019382619            3 
 2662000   0.83373819   -7.9140394    632.31656  0.019794533  0.019376774            4 
 2663000   0.82963368   -7.9413589    631.13277  0.019750055  0.019370919            2 
 2664000   0.82760946   -7.8864414    632.61726  0.019789079  0.019365117            1 
 2665000   0.82045693   -7.8927512    633.32233    0.0198037  0.019359331            2 
 2666000   0.81044632   -7.8984067    633.91411   0.01981477  0.019353547            2 
 2667000   0.82820631   -7.9206173    632.39151  0.019759765  0.019347732            2 
 2668000   0.83009751   -7.9442329    633.47557  0.019786218  0.019341906            2 
 2669000   0.81545535   -7.9263272     634.3266  0.019805376  0.019336053            2 
 2670000   0.82396542   -7.9339021    633.05238  0.019758189  0.019330213            2 
 2671000   0.81166596   -7.9054613    633.44411  0.019763013  0.019324369            2 
 2672000   0.80950502   -7.9149966    633.50858  0.019757628  0.019318522            3 
 2673000   0.82735903   -7.9527806    632.14514   0.01970773  0.019312657            1 
 2674000   0.82551422   -7.9391715    633.10134  0.019730159  0.019306807            1 
 2675000   0.81393978   -7.9350445    633.81949  0.019745155  0.019301002            3 
 2676000   0.82064465   -7.9464644    632.81545   0.01970651  0.019295201            4 
 2677000   0.83566868   -7.9044987     635.0979    0.0197702  0.019289408            1 
 2678000   0.82192193   -7.9275852    633.97163   0.01972777  0.019283603            2 
 2679000   0.82849812   -7.9302316    632.63738  0.019678903  0.019277782            2 
 2680000   0.81764262    -7.890317    634.60605  0.019732775  0.019271983            2 
 2681000   0.83012085   -7.9270464    633.68199  0.019696692  0.019266173            1 
 2682000   0.82862831   -7.9440317     633.3429  0.019678812  0.019260375            2 
 2683000   0.82432796   -7.9348231    634.74511   0.01971503  0.019254572            2 
 2684000   0.83214777   -7.9031933    634.18014  0.019690144  0.019248782            3 
 2685000   0.81642663   -7.9028351    634.61614  0.019696342  0.019243027            1 
 2686000   0.82195826   -7.9308109    633.29024  0.019647873  0.019237253            2 
 2687000   0.83296414   -7.9098143    634.25348  0.019670434  0.019231454            3 
 2688000    0.8184241   -7.8959787    635.27327  0.019694732  0.019225677            3 
 2689000   0.83172192   -7.8841548    633.61551  0.019636033  0.019219925            2 
 2690000   0.83572177   -7.8798428    635.33728  0.019682072  0.019214199            2 
 2691000   0.81559866   -7.9166133    635.35306  0.019675247  0.019208436            2 
 2692000   0.81807617    -7.923254    634.41372  0.019638859  0.019202655            2 
 2693000   0.81831637   -7.9406834    633.14439  0.019592288  0.019196879            3 
 2694000   0.81292461   -7.9194296    634.15929   0.01961641  0.019191075            2 
 2695000   0.82720841   -7.9000358    634.96148  0.019633936  0.019185284            2 
 2696000   0.83887752   -7.9054158    634.26924  0.019605256  0.019179526            3 
 2697000   0.81923304   -7.9130324    635.29629  0.019629721  0.019173763            2 
 2698000   0.82316666   -7.9537229    633.08901  0.019554269  0.019167973            3 
 2699000   0.81730289   -7.9136733    635.09659  0.019609009  0.019162201            4 
 2700000   0.82853176   -7.8953682    637.76842   0.01968421  0.019156452            1 
 2701000   0.81222639   -7.9391694    634.75482  0.019583945   0.01915069            2 
 2702000   0.82680312   -7.9264245    635.82152  0.019609595  0.019144924            6 
 2703000   0.81001988   -7.9232903    636.33705  0.019618234  0.019139175            2 
 2704000   0.83065975   -7.9517686    635.38318  0.019581582  0.019133395            2 
 2705000   0.83870607   -7.9884988    634.44689  0.019545499  0.019127571            1 
 2706000   0.81330325   -7.9312622    633.69404  0.019515091  0.019121761            2 
 2707000   0.81585263   -7.9553317    634.15408  0.019522044  0.019115971            2 
 2708000   0.82083658   -7.9266826     636.2968  0.019580773  0.019110184            1 
 2709000   0.81853137   -7.9371227    636.32304  0.019574352  0.019104409            2 
 2710000   0.82410153   -7.9372187    634.43436  0.019509052  0.019098603            3 
 2711000   0.82712701   -7.9821503    634.31906  0.019498311  0.019092814            2 
 2712000   0.83777337   -7.9418312    635.10745  0.019515347  0.019087003            2 
 2713000   0.81668342   -7.9204603    636.61128  0.019554346  0.019081188            2 
 2714000   0.81253944   -7.9520784    634.92853  0.019495472  0.019075412            2 
 2715000   0.82871655   -7.9076628     636.2157  0.019527799  0.019069664            2 
 2716000   0.83292911    -7.935402    635.20859  0.019489709  0.019063896            1 
 2717000   0.79933301   -7.9009606    637.78087   0.01956143  0.019058133            2 
 2718000   0.81950573   -7.9406093     634.1961  0.019444325  0.019052353            2 
 2719000   0.81076773   -7.9398857    636.52362  0.019508509  0.019046568            2 
 2720000   0.83784069   -7.9305892    637.39177  0.019527934  0.019040824            1 
 2721000   0.79933603   -7.9191544    636.31553  0.019487796  0.019035098            2 
 2722000   0.81434537   -7.9632216    635.19518  0.019446338  0.019029319            1 
 2723000   0.80608851   -7.9431549    635.73344  0.019455669  0.019023545            2 
 2724000   0.80665453   -7.9133229    635.31865  0.019435837  0.019017793            5 
 2725000   0.79843118    -7.922541    635.72553  0.019441148  0.019012019            2 
 2726000   0.82775078   -7.9152377    636.68133  0.019463235  0.019006227            3 
 2727000    0.8105109   -7.9332215    635.12134  0.019408426  0.019000465            9 
 2728000     0.826232   -7.9017161      636.876  0.019454912  0.018994678            1 
 2729000    0.8127148   -7.9261314    636.51902  0.019436882  0.018988939            4 
 2730000   0.79747202   -7.9427499    635.38853  0.019395254   0.01898319            3 
 2731000   0.81321657   -7.9481439    636.26143  0.019414788  0.018977412            2 
 2732000   0.82039829   -7.9576526    636.61198  0.019418374  0.018971631            2 
 2733000   0.80064926   -7.9388048    636.24101  0.019399958  0.018965837            1 
 2734000   0.83035937    -7.974402    635.60946  0.019373612   0.01896003            2 
 2735000   0.82433783    -7.951655    637.04479  0.019410262  0.018954202            2 
 2736000   0.79418276   -7.9753979    635.71843  0.019362769  0.018948383            2 
 2737000   0.82040521   -7.9367422    636.46738  0.019378498  0.018942572            1 
 2738000   0.80282516   -7.9548693    635.63891  0.019346205   0.01893678            3 
 2739000   0.82523777   -7.9405862    637.23536  0.019387713  0.018930986            3 
 2740000    0.8239685   -7.9220458    636.52823  0.019359131  0.018925212            1 
 2741000    0.7918668   -7.9419492    636.32143  0.019345781   0.01891945            2 
 2742000   0.80920188   -7.9583446    636.44954  0.019342619  0.018913705            2 
 2743000   0.80669918   -7.9201269    636.99838  0.019352242  0.018907927            3 
 2744000   0.79666312   -7.9426015    636.02505  0.019315629  0.018902174            3 
 2745000   0.80520773   -7.9450219    637.39571  0.019350204  0.018896391            2 
 2746000   0.80693468   -7.9731042    636.83393  0.019326109  0.018890581            2 
 2747000   0.81076145   -7.9791167    635.29213  0.019272301  0.018884764            2 
 2748000   0.81035338   -7.9507574     635.3878  0.019268189  0.018878942            3 
 2749000   0.80202705   -7.9497611    636.18145  0.019285239  0.018873117            1 
 2750000   0.82060553   -7.9637078    634.80925  0.019236644  0.018867274           10 
 2751000   0.80681255   -8.0159396    635.32754  0.019245351  0.018861442            2 
 2752000   0.79546853   -7.9274597    636.10278  0.019261833  0.018855588            2 
 2753000   0.80010053   -7.9672639    637.15549  0.019286702  0.018849721            1 
 2754000   0.80982214   -7.9590879    636.90685  0.019272175  0.018843876            2 
 2755000   0.79527497   -7.9658194    635.13323  0.019211532  0.018838036            3 
 2756000   0.82371497   -7.9723891    636.01621  0.019231259  0.018832201            2 
 2757000   0.81885381   -7.9810628    636.65649  0.019243637  0.018826387            2 
 2758000   0.82359413    -7.963633    636.34902  0.019227369  0.018820571            2 
 2759000   0.80656362   -7.9611521    636.33555  0.019219994  0.018814761            3 
 2760000   0.81527937    -7.976228    636.92155  0.019230723  0.018808932            3 
 2761000   0.83119056   -7.9687148     636.6128  0.019214439   0.01880313            1 
 2762000   0.82438292   -7.9521667    636.56453  0.019206026  0.018797333            2 
 2763000    0.8186417    -7.986086    637.02954    0.0192131  0.018791507            5 
 2764000    0.7988424   -7.9593533    636.28131   0.01918359  0.018785656            4 
 2765000   0.79625682   -7.9581446    637.33347  0.019208362  0.018779843            2 
 2766000   0.80303064   -7.9276863    636.82691  0.019186157   0.01877403            3 
 2767000   0.81624235   -7.9865473    636.63204  0.019173354  0.018768208            1 
 2768000   0.81505908   -7.9123021    637.91303  0.019204993  0.018762422            1 
 2769000   0.80196487   -7.9595583    638.08963  0.019203371  0.018756618            2 
 2770000   0.81715758   -7.9532719    637.84872  0.019189191  0.018750812            2 
 2771000   0.80807823   -7.9223585    637.88095  0.019183236  0.018745051            2 
 2772000   0.79779185   -7.9385421    638.33897  0.019190084    0.0187393            4 
 2773000   0.80034403   -7.9745584    637.03011  0.019143831  0.018733518            5 
 2774000   0.80405456   -7.9859187    637.36862  0.019147099  0.018727743            4 
 2775000    0.8056338   -7.9478004    639.11548  0.019192657  0.018721969            1 
 2776000   0.78905746   -7.9706312     636.9553  0.019120896  0.018716186            2 
 2777000   0.79566681   -7.9721151    637.25239  0.019122926  0.018710392            2 
 2778000   0.81617267   -7.9770987    637.89462  0.019135308  0.018704604            4 
 2779000   0.81280735   -7.9404356    638.13213  0.019135544  0.018698828            3 
 2780000   0.80742778    -7.978579    637.91783  0.019122237  0.018693077            2 
 2781000    0.8161139    -7.974433    639.05371  0.019149398  0.018687317            2 
 2782000   0.81176141    -7.992583    638.67826  0.019131268  0.018681532            2 
 2783000    0.7986304   -7.9613713    639.78335  0.019157485  0.018675755            3 
 2784000   0.80526661   -7.9804292    638.43615  0.019110277  0.018669981            3 
 2785000   0.80250338   -7.9945233     637.8999   0.01908737  0.018664204            2 
 2786000   0.79321188   -7.9904108    639.06492  0.019115366   0.01865843            2 
 2787000   0.79460082   -7.9792228    638.24394  0.019083959  0.018652635            1 
 2788000   0.78798811    -7.997139    637.49966  0.019054868  0.018646839            5 
 2789000   0.81346346   -7.9809736    636.74508   0.01902549   0.01864101            5 
 2790000   0.80512257   -7.9715829    638.03653  0.019057244  0.018635208            6 
 2791000   0.80012826   -7.9761254    639.53647  0.019095201  0.018629428            1 
 2792000   0.81377422   -7.9565025    638.75008   0.01906489  0.018623675            2 
 2793000   0.81214438   -7.9504393    639.37089  0.019076587   0.01861794            2 
 2794000   0.82830213   -7.9766342    636.75674   0.01899179  0.018612165            1 
 2795000   0.79022344   -8.0017128    637.32882  0.019002052  0.018606386            3 
 2796000   0.80032724   -7.9868844    639.02002  0.019045661  0.018600604            4 
 2797000   0.78470431   -7.9969846    638.46031  0.019022176  0.018594833            1 
 2798000   0.79110108   -8.0029731    638.83366  0.019026497  0.018589025            1 
 2799000   0.81181719   -7.9686297    638.42645  0.019007576   0.01858326            3 
 2800000   0.80091799   -7.9863754    637.41864  0.018970793  0.018577493            2 
 2801000   0.81203827   -7.9926426    638.36945  0.018992308  0.018571727            3 
 2802000   0.79225176   -7.9851223    638.47303   0.01898861  0.018565979            4 
 2803000   0.81102044   -7.9773465    638.52958  0.018983517  0.018560231            3 
 2804000    0.7932547   -7.9840973    638.49357  0.018975677  0.018554462            6 
 2805000   0.80866684   -7.9732549    639.74431   0.01900607  0.018548711            1 
 2806000   0.81921179   -7.9889166     639.3049  0.018986247  0.018542957            2 
 2807000   0.79473779    -7.974618    639.13395  0.018974408  0.018537209            5 
 2808000   0.81199753   -7.9698234    639.21074  0.018969929  0.018531498            2 
 2809000   0.79730405   -7.9789192    638.61712  0.018945566  0.018525786            2 
 2810000    0.8095588   -7.9748834    640.53084  0.018995577  0.018520095            1 
 2811000   0.79203977   -7.9670343    638.15876  0.018918498  0.018514373            3 
 2812000    0.7937599   -7.9675852    637.65192   0.01889675  0.018508603            6 
 2813000    0.8116669   -8.0234378    638.28247  0.018908712  0.018502826            1 
 2814000   0.78293603   -7.9859853    639.44857  0.018936525  0.018497022            3 
 2815000    0.7916922   -7.9940121    637.78912  0.018880672  0.018491219            3 
 2816000   0.80062432   -7.9540867     640.1523  0.018943901  0.018485435            3 
 2817000   0.79277263   -8.0007041    639.46535  0.018916855  0.018479652            1 
 2818000   0.81106794   -7.9779131    639.65284  0.018915686  0.018473874            3 
 2819000   0.80612572   -8.0218059    638.27694  0.018868303  0.018468066            2 
 2820000   0.80409639   -7.9853601    637.70374  0.018844673  0.018462252            1 
 2821000    0.7940236   -7.9859813    640.55894  0.018922337  0.018456448            2 
 2822000   0.81150007    -7.992481    639.35119  0.018879967  0.018450655            1 
 2823000   0.78982873   -7.9863655      640.518  0.018907722  0.018444887            3 
 2824000   0.80622306   -7.9748969    641.04577  0.018916601  0.018439132            2 
 2825000   0.80195334   -8.0412237    638.69909  0.018840681  0.018433356            2 
 2826000   0.78928082   -7.9906554    639.48901  0.018857307  0.018427557            3 
 2827000   0.80009009   -8.0386133    638.11821  0.018810229  0.018421777            1 
 2828000    0.8054116   -8.0204941    639.44915  0.018842797  0.018415959            3 
 2829000   0.80404693   -8.0156943    638.99806  0.018822848  0.018410182            5 
 2830000   0.80555025     -7.99161      639.337  0.018826178  0.018404428            1 
 2831000   0.80595473   -7.9852101    639.54632  0.018825689  0.018398665            3 
 2832000   0.79077094   -7.9931438    639.44828  0.018816157  0.018392927            2 
 2833000   0.80172988   -7.9589586    640.96108  0.018854014  0.018387198            2 
 2834000   0.79213702    -7.960255     640.1524  0.018823583  0.018381476            1 
 2835000   0.79193155   -7.9933161    639.14475  0.018787324   0.01837574            1 
 2836000    0.8081572    -7.999441    639.01884  0.018776999   0.01836999            1 
 2837000   0.81224489   -7.9919053    639.86606  0.018795267  0.018364239            5 
 2838000   0.81053772   -7.9729619     639.4344  0.018775969  0.018358478            3 
 2839000   0.79946951   -8.0070575    639.81296  0.018780467  0.018352746            2 
 2840000   0.78949687   -7.9636413    639.77535  0.018772751  0.018347025            2 
 2841000   0.79047342   -7.9800136    639.47229  0.018757254  0.018341305            1 
 2842000   0.79081843   -7.9586406    642.77224  0.018847415  0.018335616            1 
 2843000   0.78687504   -7.9700718    640.93818  0.018787026  0.018329919            2 
 2844000   0.81344977    -7.986765    639.49308  0.018738077  0.018324205            1 
 2845000   0.80128813   -7.9798352    641.02342  0.018776316  0.018318494            2 
 2846000   0.79067078   -7.9930239    641.07517  0.018771234  0.018312773            1 
 2847000   0.77997517   -7.9622074    640.79849  0.018756542  0.018307054            2 
 2848000    0.7918784   -7.9825233    639.91774  0.018724185  0.018301328            3 
 2849000   0.80228001    -7.967819    640.74093  0.018741691  0.018295588            2 
 2850000   0.80242106   -7.9716236    642.20329  0.018777874   0.01828984            1 
 2851000   0.79090811   -7.9988104      640.431  0.018719485  0.018284102            2 
 2852000   0.79018629   -7.9969397    641.54564   0.01874549  0.018278384            1 
 2853000   0.79643009   -8.0203172     640.0761  0.018695995  0.018272642            3 
 2854000    0.8006237    -7.990552    640.97334  0.018715643  0.018266895            3 
 2855000   0.79707521   -7.9758581    640.78879  0.018703701  0.018261159            5 
 2856000   0.78977099   -7.9826872     640.5883  0.018691302   0.01825545            1 
 2857000   0.81299296   -7.9906676    640.92793  0.018694666  0.018249685            2 
 2858000   0.78686035   -7.9889409    640.51297  0.018676026   0.01824394            2 
 2859000   0.79461774   -8.0039619     639.6201  0.018643468   0.01823818            3 
 2860000   0.78320822   -7.9887504    641.91553  0.018703833  0.018232462            1 
 2861000   0.79672536   -8.0101518    640.91652  0.018668196  0.018226755            2 
 2862000   0.79932619   -8.0159536    641.61632   0.01868205  0.018221049            2 
 2863000   0.80687412   -8.0199494    639.92702  0.018626354  0.018215322            6 
 2864000   0.80985261   -8.0131923    640.81905  0.018645806  0.018209599            2 
 2865000   0.78508708   -8.0024023    639.62497  0.018604566  0.018203881            2 
 2866000   0.79889874   -8.0374752    641.23363  0.018644849  0.018198177            2 
 2867000   0.80470822   -8.0154551    642.28086  0.018668784  0.018192439            2 
 2868000    0.7779613    -8.046473    640.44529   0.01860894  0.018186704            2 
 2869000   0.78390931   -8.0086549    641.88415  0.018644247  0.018180992            1 
 2870000   0.79029923   -8.0010783    642.16697  0.018645963   0.01817527            3 
 2871000   0.79501134   -8.0332346    640.50843  0.018591328  0.018169551            1 
 2872000   0.78202681   -7.9879361    641.91398  0.018625638  0.018163854            1 
 2873000   0.79948541    -7.994854    642.81213  0.018645206  0.018158156            3 
 2874000   0.79515366    -8.013019    640.90508  0.018583423   0.01815246            2 
 2875000   0.79214885   -8.0575319    640.97403  0.018578957  0.018146746            2 
 2876000   0.80904707   -8.0342754    640.94781  0.018571738   0.01814103            3 
 2877000   0.77099397   -8.0290696    640.93056  0.018564783  0.018135306            2 
 2878000   0.79121571   -8.0545607    639.79695  0.018525508   0.01812957            2 
 2879000   0.78129711   -8.0284395    643.09408   0.01861451  0.018123852            3 
 2880000   0.79969054   -8.0178022    640.65294  0.018537411  0.018118128            3 
 2881000   0.77506406   -8.0522072    641.53686  0.018556545  0.018112393            3 
 2882000   0.81543979   -8.0429145    641.07378  0.018536716  0.018106661            2 
 2883000   0.78454483   -8.0312538    640.88794  0.018524914  0.018100947            2 
 2884000   0.78748261   -8.0220313    641.82779  0.018545648  0.018095268            2 
 2885000   0.77677512   -8.0556999    641.70642  0.018535714  0.018089576            2 
 2886000   0.78330021   -8.0062776    641.12478  0.018512497  0.018083895            2 
 2887000   0.80226598   -8.0330462     640.9035  0.018499697  0.018078228            4 
 2888000   0.79687117   -8.0181878    643.93516   0.01858077  0.018072563            1 
 2889000   0.79652013   -8.0077243    642.97804   0.01854673  0.018066914            2 
 2890000   0.77827646   -7.9948287    642.51399  0.018526932  0.018061258            3 
 2891000   0.77611728   -7.9654286     644.8616  0.018588193  0.018055614            8 
 2892000   0.78943725   -7.9973267     642.5632  0.018515537  0.018049998            1 
 2893000   0.78448685   -8.0066443    642.97688  0.018521053    0.0180444            3 
 2894000   0.79792556   -8.0350643    642.19676   0.01849219  0.018038745            3 
 2895000   0.77657005   -7.9862419    644.92664  0.018564382  0.018033115            2 
 2896000   0.79279886   -7.9907948    644.02235  0.018531951  0.018027467            4 
 2897000   0.78260446   -8.0160412    644.17328  0.018529895  0.018021828            3 
 2898000   0.79092553   -8.0092139    643.44388  0.018502527  0.018016181            2 
 2899000   0.78187194   -8.0191296     644.3705  0.018522781   0.01801053            2 
 2900000   0.80295762   -8.0270629    643.59036  0.018493976   0.01800489            1 
 2901000   0.79557698    -8.039096    643.05426  0.018472201  0.017999273            1 
 2902000   0.80691165   -8.0128945     642.3807  0.018446494  0.017993627            1 
 2903000   0.78284449   -8.0121657    643.67427  0.018477273  0.017987997            1 
 2904000   0.79692252   -8.0002509    642.67148  0.018442134  0.017982365            2 
 2905000   0.77972507   -8.0064574    643.71468  0.018465711  0.017976749            3 
 2906000    0.7887149   -8.0527354    642.64183  0.018428591  0.017971102            2 
 2907000   0.79644661   -8.0075142    644.81303  0.018484492  0.017965447            3 
 2908000   0.79546135   -8.0169311     644.4781  0.018468538   0.01795983            1 
 2909000   0.79598081   -8.0240009    643.81606  0.018443224  0.017954173            2 
 2910000   0.79344094   -8.0003779    643.48571  0.018427426  0.017948545            1 
 2911000   0.78948682   -8.0340902    643.66634  0.018426267  0.017942888            2 
 2912000   0.78845419    -8.058399    642.11981  0.018375681  0.017937212            4 
 2913000   0.78728916   -8.0276774    642.17059  0.018370826  0.017931542            2 
 2914000   0.80005822   -8.0364956    642.62518  0.018377522  0.017925873            1 
 2915000   0.79276869   -8.0395326    644.52855   0.01842563  0.017920232            4 
 2916000   0.78475478    -8.025957    643.90828  0.018401586  0.017914562            3 
 2917000   0.78137657    -8.039772    642.96388  0.018368297  0.017908895            2 
 2918000   0.79082044   -8.0235985     646.4771  0.018462334  0.017903261            1 
 2919000   0.77909486   -8.0617104     642.8198  0.018351599  0.017897605            2 
 2920000   0.78628809   -8.0750316    641.99739  0.018321843  0.017891906            1 
 2921000   0.77935832   -8.0379558     644.8062  0.018395703  0.017886252            1 
 2922000   0.79177143   -8.0159033    643.93224  0.018364483  0.017880569            3 
 2923000   0.78816956    -8.038831    642.92178  0.018329393  0.017874911            3 
 2924000    0.7759168   -8.0288173    644.52487  0.018368812   0.01786925            2 
 2925000   0.78919885   -8.0251564    643.97399  0.018346837  0.017863592            3 
 2926000   0.78976471   -8.0383167    644.05325  0.018342824   0.01785792            5 
 2927000   0.77660937   -8.0513561     643.3496  0.018316524  0.017852242            2 
 2928000   0.78487464   -8.0019152    644.52209  0.018343639   0.01784656            2 
 2929000   0.78359385   -8.0407194    643.69505  0.018313846  0.017840872            1 
 2930000   0.77416667   -8.0523678    643.37477  0.018298486  0.017835215            2 
 2931000   0.79958704   -8.0387682    642.81666  0.018276375  0.017829569            2 
 2932000   0.80249205   -8.0302217    643.55145  0.018291026  0.017823913            3 
 2933000   0.79495119   -8.0396734    643.29708  0.018277562  0.017818274            2 
 2934000    0.7684676    -8.048784    642.51354  0.018249078  0.017812659            1 
 2935000   0.77302867   -8.0660336    642.47092   0.01824165  0.017807001            4 
 2936000   0.79488312   -8.0399973    645.32262  0.018316378  0.017801372            3 
 2937000   0.76750164    -8.039941    644.00989  0.018272894  0.017795743            4 
 2938000   0.78868287   -8.0631634    642.79821  0.018232307  0.017790108            3 
 2939000   0.78732914   -8.0599519    645.44315  0.018301099  0.017784465            2 
 2940000   0.77857927   -8.0369816    645.21804  0.018288493  0.017778852            5 
 2941000   0.77986877   -8.0319411    644.86915  0.018272389   0.01777326            2 
 2942000   0.77391939   -8.0454754    644.31195  0.018250395  0.017767649            2 
 2943000   0.78858523   -8.0104572    643.50134  0.018221241  0.017762015            4 
 2944000    0.7752365   -8.0413432    643.79998  0.018223505  0.017756373            2 
 2945000   0.78163736   -8.0125807    644.76563  0.018244641  0.017750722            2 
 2946000    0.8034433   -8.0490166    644.10915  0.018219879  0.017745113            1 
 2947000   0.78417025   -8.0323054      644.503  0.018224833  0.017739479            1 
 2948000   0.80028999   -8.0355472    644.84406  0.018228292  0.017733867            4 
 2949000   0.78308404   -8.0671116    644.72832   0.01821884  0.017728232            2 
 2950000    0.7938253   -8.0683168     643.6827  0.018183127   0.01772258            1 
 2951000   0.74978341   -8.0473531    643.36849  0.018168092  0.017716945            2 
 2952000   0.77311851   -8.0436119    645.12386  0.018211491  0.017711335            3 
 2953000   0.78166915   -8.0340753    644.46444  0.018186715  0.017705728            1 
 2954000   0.77608642   -8.0330752    645.27606  0.018203455  0.017700118            3 
 2955000   0.77770815   -8.0534248    646.00708   0.01821791  0.017694505            2 
 2956000   0.76313953    -8.047166    644.78499  0.018177294    0.0176889            1 
 2957000   0.78792165   -8.0318899    645.68612  0.018196543  0.017683322            2 
 2958000   0.77387301   -8.0268651    645.67098  0.018189965  0.017677744            2 
 2959000   0.77715501   -8.0269734     645.2387  0.018171643   0.01767217            2 
 2960000   0.75619025   -8.0545414    644.88519  0.018155552  0.017666565            2 
 2961000   0.78143341   -8.0419998    644.86798  0.018148936  0.017660947            3 
 2962000   0.77079605   -8.0388101    644.13427  0.018122166  0.017655326            1 
 2963000   0.79637165   -8.0649904    644.27582  0.018120031  0.017649718            3 
 2964000   0.78164829   -8.0439389    644.70436  0.018125966  0.017644101            2 
 2965000   0.78517102   -8.0814119    643.51353  0.018086384  0.017638479            3 
 2966000   0.78738849   -8.0751791    643.60038  0.018082726   0.01763282            2 
 2967000    0.7781703    -8.085295    642.89717   0.01805688  0.017627172            2 
 2968000   0.77640969   -8.1010064     644.0354  0.018082755  0.017621512            1 
 2969000   0.79240273   -8.0562493    644.60808  0.018092738   0.01761582            1 
 2970000   0.77651727   -8.0610064    644.27057  0.018077177  0.017610179            2 
 2971000   0.77023736   -8.0907996     644.2017   0.01806916  0.017604533            3 
 2972000   0.76075084   -8.0598381    645.23935  0.018092175  0.017598878            1 
 2973000   0.78139732   -8.0643521    644.75271  0.018072449  0.017593225            2 
 2974000   0.77704874   -8.0550631    644.41713   0.01805697  0.017587585            2 
 2975000   0.78139438   -8.0604878     644.3957    0.0180503   0.01758196            3 
 2976000     0.792478   -8.0586831    645.77073  0.018082738  0.017576301            2 
 2977000   0.76998307   -8.0686096    644.65738  0.018045498   0.01757066            2 
 2978000   0.77077831   -8.0254196    645.51809  0.018063524  0.017565006            1 
 2979000   0.78719895   -8.0520856    644.64587  0.018033061   0.01755938            2 
 2980000   0.78846903   -8.0605409    645.10264  0.018039783  0.017553752            1 
 2981000    0.7643426   -8.0570651    645.10977  0.018033931  0.017548142            1 
 2982000   0.76858689   -8.0484035    645.61752  0.018042072  0.017542533            2 
 2983000   0.77785907   -8.0815989    644.42655  0.018002753  0.017536906            1 
 2984000   0.77071706   -8.0524528    644.95279  0.018011416  0.017531286            2 
 2985000   0.77286333   -8.0354147    645.59906  0.018023424  0.017525682            2 
 2986000   0.74759909   -8.0686306    644.86931  0.017997023  0.017520088            3 
 2987000   0.79261541   -8.0365472     646.6093  0.018039541  0.017514505            3 
 2988000    0.7741194   -8.0405131    645.49888  0.018002535  0.017508926            2 
 2989000    0.7936008    -8.074228    643.82345  0.017949801  0.017503305            3 
 2990000   0.76508509   -8.0788568    645.21173   0.01798249  0.017497704            1 
 2991000   0.77689783   -8.0358936    646.41464  0.018009992  0.017492124            2 
 2992000   0.78783203   -8.0427917    644.74704  0.017957527  0.017486555            2 
 2993000   0.76152902   -8.0541672    646.71053  0.018006196  0.017480963            2 
 2994000   0.78953542   -8.0590541    644.77147  0.017946211  0.017475372            1 
 2995000   0.76867682   -8.0677542    644.33736   0.01792814  0.017469785            2 
 2996000   0.77260491   -8.0544284     644.4614  0.017925606  0.017464196            2 
 2997000   0.78169061   -8.0648229    644.72168  0.017926862  0.017458613            3 
 2998000   0.75450809   -8.0140091    645.96792  0.017955524  0.017453039            2 
 2999000   0.77870077    -8.045213    644.95209   0.01792131   0.01744747            3 
 3000000   0.77986211   -8.0455093    645.41888  0.017928302  0.017441891            2 
 3001000   0.76236518   -8.0480037    645.62538  0.017928062  0.017436298            1 
 3002000   0.76347609   -8.0562332    645.48674  0.017918242  0.017430709            2 
 3003000   0.79683919   -8.0722695    645.51097  0.017912947  0.017425123            2 
 3004000   0.77104958   -8.0402385    645.40125  0.017903941   0.01741954            5 
 3005000   0.76604441   -8.0750971    645.41905  0.017898476  0.017413937            2 
 3006000   0.76238055   -8.0636409    645.52537  0.017895469  0.017408327            3 
 3007000   0.77259627   -8.0830961    644.64644   0.01786516   0.01740271            1 
 3008000   0.76355083   -8.0662883    644.41396   0.01785278  0.017397067            3 
 3009000   0.77440235   -8.0671902    644.53738  0.017850265  0.017391457            1 
 3010000   0.76403117   -8.0777215    644.71222  0.017849175  0.017385819            2 
 3011000   0.77674057   -8.0597117    644.79734  0.017845603  0.017380213            3 
 3012000   0.77571167   -8.0782136     645.5504  0.017860514  0.017374606            2 
 3013000   0.75130199   -8.0676035     645.2243  0.017845566  0.017368983            4 
 3014000   0.77077249   -8.0558583    645.40255  0.017844574  0.017363346            1 
 3015000   0.76588504   -8.0147451    644.91702  0.017825236  0.017357717            3 
 3016000   0.77856043   -8.0673366    646.14191  0.017853169  0.017352129            1 
 3017000   0.75794422   -8.0220638    644.49924  0.017801879  0.017346532            1 
 3018000   0.74780704   -8.0363643    646.00381  0.017837525  0.017340931            4 
 3019000    0.7672089   -8.0637722    644.74762  0.017796942  0.017335326            1 
 3020000   0.77042688   -8.0606783    643.87222  0.017766893  0.017329731            1 
 3021000   0.77623565   -8.0545283    645.99533  0.017819578  0.017324128            2 
 3022000   0.79001577   -8.0376909    646.82749  0.017836628  0.017318539            4 
 3023000   0.76150568   -8.0357518    647.30166  0.017843799  0.017312984            2 
 3024000   0.77575742   -8.0411759    646.30294  0.017810376  0.017307412            1 
 3025000   0.76568162   -8.0513341    646.76599  0.017817245  0.017301855            2 
 3026000   0.75205492   -8.0486805    646.55207  0.017805466  0.017296274            2 
 3027000   0.77460721     -8.07884    644.96018  0.017755759  0.017290684            5 
 3028000   0.75802031   -8.0529022    644.18997  0.017728698  0.017285084            2 
 3029000   0.76935296   -8.0772574     645.8454  0.017768389  0.017279494            5 
 3030000   0.77437725   -8.0721389    644.80966  0.017734039  0.017273911            2 
 3031000   0.76651486    -8.027997    646.57947  0.017776847   0.01726834            4 
 3032000   0.77317091   -8.0479132    646.32499  0.017763989  0.017262775            3 
 3033000    0.7723555   -8.0605527    645.75273  0.017742409  0.017257211            4 
 3034000   0.75317374   -8.1024997    645.67431  0.017734408  0.017251631            3 
 3035000   0.77680227   -8.0944895    645.44435   0.01772225  0.017246022            4 
 3036000   0.76658642   -8.0820754    645.98244  0.017731183  0.017240406            3 
 3037000    0.7595091   -8.0865548    645.78142  0.017719828   0.01723481            2 
 3038000   0.76010732   -8.0932606     644.9795  0.017691999  0.017229203            2 
 3039000   0.75822656   -8.0748783    646.01924  0.017714688  0.017223605            2 
 3040000   0.76619193   -8.0839966    646.06828  0.017710205  0.017218007            3 
 3041000   0.76292347   -8.0642237    646.58588  0.017718565  0.017212405            2 
 3042000    0.7701779   -8.0617066     646.6223  0.017713738  0.017206843            2 
 3043000   0.78511871   -8.0657574    645.88447  0.017687711  0.017201271            2 
 3044000   0.76669712   -8.0927461    646.49058  0.017698494  0.017195705            1 
 3045000   0.76581779    -8.058151     645.8441  0.017674989  0.017190125            2 
 3046000    0.7548799   -8.0870306    645.70834  0.017665472  0.017184559            1 
 3047000   0.75752648   -8.1110115    644.25759  0.017619998   0.01717897            3 
 3048000   0.76101169   -8.1150196    646.15405  0.017666067  0.017173378            1 
 3049000    0.7787743   -8.0965489    645.12481  0.017632142  0.017167805            2 
 3050000   0.76231697   -8.0631188    646.30227  0.017658532  0.017162249            1 
 3051000   0.76733072   -8.0767722    646.87973  0.017668517  0.017156705            1 
 3052000     0.766858   -8.0939857    646.30332  0.017646989  0.017151153            1 
 3053000   0.76088085   -8.0802803    646.42778  0.017644606  0.017145575            2 
 3054000    0.7615046   -8.0636668    648.13045  0.017685288   0.01714001            1 
 3055000    0.7634701   -8.0586616    646.93764  0.017646962  0.017134468            4 
 3056000    0.7712655   -8.0643157    646.95294  0.017641605  0.017128919            4 
 3057000    0.7611487   -8.0685312    647.60015  0.017653477  0.017123388            3 
 3058000   0.76832341   -8.0671825     645.4432  0.017588925  0.017117865            1 
 3059000    0.7403229   -8.0755054     646.8368   0.01762114  0.017112363            1 
 3060000   0.77466456    -8.077181      646.873  0.017616367  0.017106875            4 
 3061000   0.76834592   -8.0721095    647.65016   0.01763177   0.01710138            1 
 3062000   0.76292679   -8.0808326    648.29511  0.017643564  0.017095901            2 
 3063000   0.74817193   -8.0893542    647.59503  0.017618757  0.017090406            2 
 3064000    0.7574625   -8.0648284     647.7269  0.017616593  0.017084922            1 
 3065000   0.75095198   -8.0499919    647.52042  0.017605232  0.017079435            1 
 3066000   0.74102828   -8.0406923    648.14568  0.017616484  0.017073965            1 
 3067000   0.74472994   -8.0756078    647.01453  0.017580006  0.017068483            1 
 3068000   0.77385129   -8.0713934    647.68678  0.017592535  0.017062966            2 
 3069000    0.7579004   -8.0682881    649.12376  0.017625822  0.017057452            3 
 3070000   0.74983015   -8.0992148    646.71605  0.017554724  0.017051951            3 
 3071000   0.76846128   -8.0833428    648.29385  0.017591823  0.017046442            2 
 3072000   0.74511459   -8.0884118    647.39323  0.017561665  0.017040929            2 
 3073000   0.76245073   -8.0832722    648.46974  0.017585143  0.017035408            1 
 3074000   0.76625607   -8.0767236    648.08235  0.017568921  0.017029904            2 
 3075000     0.752779   -8.0834364    646.47957  0.017519771  0.017024424            2 
 3076000   0.78775592   -8.0644511    648.15688  0.017559517  0.017018957            4 
 3077000   0.75703015   -8.0571683    647.63694  0.017539729  0.017013496            5 
 3078000   0.78326575    -8.099084    647.15232   0.01752091  0.017008032            7 
 3079000   0.76971059   -8.0988162    648.20344  0.017543668  0.017002552            2 
 3080000   0.77555968   -8.1018326    648.47845  0.017545413  0.016997072            3 
 3081000   0.75050217   -8.1158494     648.3681  0.017536733  0.016991583            3 
 3082000    0.7687358   -8.0844246    646.79437  0.017488491  0.016986077            3 
 3083000    0.7533724   -8.0783333    646.00849  0.017461577  0.016980597            2 
 3084000   0.75938624   -8.0988838    647.91836  0.017507522  0.016975115            1 
 3085000   0.75669277   -8.0907956    648.30273  0.017512229  0.016969634            2 
 3086000    0.7645691   -8.0581209    649.64827  0.017542889  0.016964181            2 
 3087000   0.75611133   -8.1131914    648.93645  0.017517991  0.016958742            2 
 3088000     0.764292   -8.0818208    649.23008  0.017520242  0.016953284            2 
 3089000   0.75688608   -8.1155357    649.00445  0.017508483  0.016947819            3 
 3090000   0.78213947   -8.1115726      648.733  0.017495496  0.016942356            6 
 3091000   0.75909506   -8.1224308    645.68339  0.017407619  0.016936898            2 
 3092000    0.7536912   -8.1021946    647.60004  0.017453645  0.016931406            2 
 3093000   0.75427192   -8.1347997    647.81247  0.017453725  0.016925903            4 
 3094000   0.74947752   -8.1199121    647.30191  0.017434333  0.016920409            2 
 3095000   0.75163005   -8.1342657     647.1457  0.017424494   0.01691493            5 
 3096000   0.75281015   -8.0842223    650.09544  0.017498262  0.016909472            2 
 3097000   0.75071125   -8.1020296    648.99073  0.017462887  0.016904054            3 
 3098000    0.7580708   -8.0748566    648.00017  0.017430605  0.016898621            3 
 3099000    0.7571325   -8.0970091    648.77948  0.017445936  0.016893179            3 
 3100000   0.76561791   -8.1070605    648.47438  0.017432107  0.016887734            3 
 3101000   0.73968119   -8.0901107    647.14875  0.017390862  0.016882267            2 
 3102000   0.76386611   -8.0989257    650.17686  0.017466604  0.016876794            2 
 3103000   0.75502896    -8.095752    648.73768  0.017422325  0.016871329            1 
 3104000   0.75532607   -8.1015762    647.72528  0.017389532  0.016865868            2 
 3105000   0.75627519   -8.1413319    647.44491  0.017376407   0.01686036            1 
 3106000   0.75471977     -8.12658    648.48503  0.017398718  0.016854867            2 
 3107000   0.74891418   -8.1357007    647.27746   0.01736073  0.016849364            2 
 3108000   0.75140606   -8.1121804    649.06668  0.017403118   0.01684386            3 
 3109000   0.74635684   -8.0817111    648.12002  0.017372146  0.016838367            3 
 3110000   0.75433946   -8.1250318    647.66511  0.017354371  0.016832902            3 
 3111000    0.7541463   -8.1198613    647.77666   0.01735178  0.016827438            4 
 3112000   0.76750234   -8.1082925    648.27979  0.017359677   0.01682198            1 
 3113000    0.7584513   -8.1296244    647.86353  0.017342958  0.016816495            2 
 3114000   0.75875381   -8.1224916    647.82886  0.017336461  0.016811015            2 
 3115000   0.75632433    -8.116409    646.71176   0.01730101  0.016805541            2 
 3116000   0.74954971   -8.0882577     648.7282  0.017349385  0.016800102            2 
 3117000   0.74820602   -8.0885584    648.66717  0.017342187  0.016794659            1 
 3118000   0.73286676   -8.1167866    646.86837   0.01728855  0.016789213            4 
 3119000   0.75139412   -8.1043039    648.53272  0.017327475  0.016783755            2 
 3120000    0.7474834   -8.1120203    647.96141  0.017306662  0.016778308            3 
 3121000   0.74408113   -8.1282726    648.20652  0.017307661   0.01677284            1 
 3122000   0.76511085   -8.1290162    647.63445  0.017286847  0.016767368            3 
 3123000   0.74428761   -8.0962619    649.02438  0.017318401   0.01676191            2 
 3124000   0.76917302   -8.1332956    648.13382  0.017289101  0.016756446            2 
 3125000   0.75784489   -8.0984296    648.76674  0.017300446  0.016750992            1 
 3126000   0.73909771   -8.1187475    648.36205  0.017284124  0.016745551            4 
 3127000   0.75759132    -8.135695    648.21377  0.017274645  0.016740105            3 
 3128000   0.75844589   -8.0961204       647.45  0.017248775  0.016734666            1 
 3129000   0.74636039   -8.1162442    648.00387  0.017258013  0.016729201            1 
 3130000   0.74315018    -8.114859    647.93369  0.017250631  0.016723746            5 
 3131000   0.75824858   -8.1167002    649.21953  0.017279345  0.016718336            1 
 3132000   0.73606025   -8.1195503    649.67327    0.0172859  0.016712913            2 
 3133000   0.74452111   -8.1026032    650.95493  0.017314473  0.016707502            1 
 3134000   0.74766314   -8.1142447    649.77891  0.017277678  0.016702057            5 
 3135000   0.74558169   -8.1574256    648.72862  0.017244248  0.016696608            2 
 3136000   0.74276099   -8.1330131    648.05217  0.017220774  0.016691161            4 
 3137000   0.74805484   -8.1321157    649.34522  0.017249634  0.016685675            1 
 3138000   0.73887417   -8.1463598    647.53141  0.017195969  0.016680204            4 
 3139000   0.72760379   -8.1462403    647.90959  0.017200531  0.016674734            3 
 3140000    0.7528823   -8.1514462    647.29262  0.017178679  0.016669278            8 
 3141000   0.74595352   -8.1384716    646.73812  0.017158498  0.016663807            3 
 3142000   0.75311834   -8.1356148    648.68451   0.01720466  0.016658327            2 
 3143000   0.74158549   -8.1189356    648.98672  0.017207199  0.016652861            2 
 3144000   0.75880326   -8.1253047    648.11249  0.017178554  0.016647397            1 
 3145000   0.75198359    -8.129578    648.27261  0.017177335  0.016641937            1 
 3146000   0.75576604   -8.1239627    647.43593  0.017149712  0.016636459            1 
 3147000   0.74236576   -8.1084351    648.39465   0.01716965  0.016630978            3 
 3148000   0.74646719   -8.1145655    648.67704  0.017171671  0.016625529            2 
 3149000   0.76075689   -8.1260862    647.72842  0.017141114  0.016620058            1 
 3150000   0.75495963   -8.1264146     647.1319  0.017119892  0.016614579            2 
 3151000   0.75027597   -8.1069501    648.81298  0.017158917  0.016609125            2 
 3152000   0.74941875   -8.1290592    648.82618  0.017153822  0.016603689            4 
 3153000   0.74764725    -8.104623    647.40702  0.017110874  0.016598254            1 
 3154000   0.74218019   -8.1372496    646.94702  0.017093295  0.016592789            3 
 3155000    0.7506998    -8.131489    647.93823  0.017114058  0.016587348            5 
 3156000   0.73068517   -8.1277952    647.57996  0.017099175  0.016581887            2 
 3157000   0.76096731    -8.146033    647.36306  0.017088033  0.016576414            1 
 3158000    0.7579166   -8.1346134    647.79782  0.017094095  0.016570944            3 
 3159000   0.75141614   -8.1482778    649.19568  0.017125559  0.016565495            2 
 3160000   0.73915921   -8.1211101    647.67471  0.017080029  0.016560053            2 
 3161000   0.74639522   -8.1352902    648.60388  0.017099122  0.016554614            1 
 3162000   0.74236767   -8.1456393    648.59725  0.017093539  0.016549157            2 
 3163000   0.76513002   -8.1505986    648.12095  0.017075586  0.016543695            2 
 3164000   0.74964218   -8.1236422    647.11655  0.017043736  0.016538221            2 
 3165000   0.73580864   -8.1456116    647.43718  0.017046792  0.016532766            4 
 3166000   0.73730947   -8.1367882    647.32571  0.017038474  0.016527322            2 
 3167000   0.75309216   -8.0908109    648.80911  0.017072127  0.016521882            3 
 3168000   0.76106692   -8.1379943    647.99623  0.017045355  0.016516448            2 
 3169000   0.75274507   -8.1062984    648.86966  0.017062945  0.016511003            3 
 3170000   0.74969216   -8.1076566    649.01277  0.017061324  0.016505558            2 
 3171000   0.73352626   -8.1517743    648.66295   0.01704675  0.016500124            1 
 3172000   0.74667765   -8.1241764    646.99227  0.016997485  0.016494678            1 
 3173000   0.73834856   -8.1373546    646.26615  0.016973058   0.01648922            1 
 3174000   0.74742862   -8.1380682    647.06766  0.016988754   0.01648375            2 
 3175000   0.72795677   -8.1188485    648.85067  0.017030201  0.016478307            1 
 3176000   0.72021491   -8.1519528    647.20333  0.016981615  0.016472852            1 
 3177000    0.7472177   -8.1239811      648.622  0.017013482  0.016467404            2 
 3178000   0.74092294   -8.1400849    648.85189  0.017014157  0.016461954            3 
 3179000   0.75199702   -8.1288852    647.88587  0.016983482  0.016456512            3 
 3180000   0.74625011    -8.121161      647.367  0.016964544  0.016451077            1 
 3181000   0.74895841   -8.1275209    648.61251   0.01699184  0.016445655            2 
 3182000   0.75175357   -8.1289875    648.72855  0.016989539  0.016440222            2 
 3183000   0.75334433   -8.1382454    648.04011  0.016966177  0.016434772            1 
 3184000   0.73089058   -8.1620092    646.37039  0.016917148  0.016429298            2 
 3185000   0.73701369   -8.1431818    647.28399   0.01693574  0.016423806            2 
 3186000   0.72163517   -8.1542221    647.83388  0.016944807  0.016418338            1 
 3187000   0.74800553   -8.1437832    647.55344  0.016932158  0.016412873            1 
 3188000   0.74548613   -8.1291765    648.68445  0.016956411  0.016407413            2 
 3189000   0.74639199   -8.1262957    647.79932  0.016927964  0.016401961            2 
 3190000   0.74891092   -8.1636606    648.13904  0.016931532  0.016396508            3 
 3191000   0.73454885     -8.17125    645.56659  0.016859046  0.016391026            2 
 3192000   0.75030123    -8.147782    647.75581  0.016910918  0.016385559            1 
 3193000   0.74172896   -8.1420318    647.83623  0.016907721  0.016380101            2 
 3194000   0.74264683   -8.1357376     649.0047  0.016932913  0.016374661            2 
 3195000   0.73416107   -8.1531631    648.94047  0.016925938  0.016369211            2 
 3196000   0.73547896   -8.1343077    647.52679  0.016883781  0.016363761            1 
 3197000   0.73972063    -8.154848    647.29493  0.016872457  0.016358315            1 
 3198000   0.73381543   -8.1446654    648.94958  0.016910298   0.01635287            2 
 3199000   0.75209642   -8.1365883    647.52314  0.016867853  0.016347448            2 
 3200000   0.72810956   -8.1130765    649.17123  0.016905501  0.016342021            2 
 3201000    0.7253106   -8.1463867    647.94195  0.016868217  0.016336584            1 
 3202000   0.74287988   -8.1235276    649.95373  0.016915306  0.016331138            3 
 3203000   0.72846543    -8.148525    647.67963  0.016850859  0.016325707            2 
 3204000   0.75347442   -8.1370611    647.48935  0.016840651   0.01632029            4 
 3205000   0.72884926   -8.1453372    648.43741  0.016860047  0.016314867            1 
 3206000   0.73329077   -8.1241072    647.73965  0.016836651  0.016309457            3 
 3207000   0.75803285   -8.1364856    650.69889  0.016908297  0.016304066            1 
 3208000   0.73273819   -8.1451871    649.23113  0.016864898  0.016298683            1 
 3209000   0.74428754   -8.1338333    650.11677  0.016882642  0.016293306            2 
 3210000   0.74629034   -8.1324286    649.47511  0.016860725   0.01628791            2 
 3211000   0.73754252   -8.1499461    647.73658  0.016810355  0.016282514            5 
 3212000   0.74973359   -8.1461004    649.89482  0.016861115  0.016277133            6 
 3213000   0.73259929    -8.175104     649.1425  0.016836355  0.016271737            2 
 3214000   0.73142924   -8.1549706    648.67786  0.016819069  0.016266334            1 
 3215000   0.71592118   -8.1703869    648.60088  0.016811842  0.016260918            2 
 3216000    0.7413713   -8.1588423    649.14829  0.016820799  0.016255514            2 
 3217000   0.72922311   -8.1407136    649.25772  0.016818405   0.01625012            1 
 3218000   0.72197941   -8.1737278    650.37455  0.016842101  0.016244721            2 
 3219000   0.74365652   -8.1292077    651.21224  0.016858554  0.016239355            4 
 3220000   0.73342439   -8.1382339    649.87766   0.01681878  0.016233998            3 
 3221000   0.73621894   -8.1594188    649.57104  0.016805625  0.016228625            2 
 3222000   0.73493267   -8.1475195    649.99203  0.016811298  0.016223272            3 
 3223000   0.74443772   -8.1232691    649.39163  0.016790558  0.016217913            1 
 3224000   0.74782521   -8.1430873    649.01608  0.016775643  0.016212545            2 
 3225000   0.72917445    -8.152019    649.86904  0.016792482  0.016207172            4 
 3226000   0.72953213   -8.1683084     648.3632  0.016748378  0.016201769            3 
 3227000   0.74103022   -8.1566259     647.9793  0.016733274  0.016196374            3 
 3228000   0.74337654   -8.1310991    651.19611  0.016811135  0.016191014            3 
 3229000   0.74791586   -8.1524841    649.60156  0.016764777  0.016185652            2 
 3230000   0.73610341   -8.1604502    649.52056  0.016757496    0.0161803            2 
 3231000   0.72949177   -8.1565803    650.46189  0.016776588  0.016174953            1 
 3232000   0.74364508    -8.154543    650.53939  0.016773396  0.016169637            1 
 3233000   0.73917795   -8.1725527    651.17402  0.016784566  0.016164302            2 
 3234000    0.7171577   -8.1797264    650.19119   0.01675405  0.016158957            3 
 3235000    0.7232697   -8.1574675    650.12979   0.01674729  0.016153604            2 
 3236000   0.73704323   -8.1585486    649.88248  0.016735746  0.016148243            1 
 3237000   0.71799715   -8.1658986    649.09767  0.016710372  0.016142885            1 
 3238000   0.73472849   -8.1893391    649.09278  0.016705085  0.016137522            3 
 3239000   0.73141625   -8.2069617    649.23786   0.01670366  0.016132146            1 
 3240000   0.74083122   -8.1987068    649.83488   0.01671386  0.016126758            2 
 3241000   0.71230072    -8.179976     649.5877  0.016702348   0.01612139            2 
 3242000   0.75361568   -8.1943207    648.67726  0.016673793  0.016116037            3 
 3243000   0.74051494   -8.1708631    647.85773  0.016647593  0.016110673            5 
 3244000   0.74082578   -8.1970747    648.97723   0.01667122  0.016105294            2 
 3245000   0.73342444   -8.1743961     649.5131  0.016679843  0.016099922            2 
 3246000   0.74442752   -8.1675586    647.91198    0.0166336  0.016094565            2 
 3247000   0.73115145   -8.2031142    648.32431  0.016639059  0.016089214            2 
 3248000   0.73179797   -8.1694413    648.81264  0.016646465  0.016083854            3 
 3249000   0.74130873   -8.2030935    648.19569  0.016625518    0.0160785            1 
 3250000    0.7248922   -8.1631261    649.11245  0.016643909  0.016073159            3 
 3251000   0.72487152   -8.1697217    649.28616  0.016643242  0.016067816            1 
 3252000   0.74808064   -8.1812247    649.62109  0.016646707  0.016062459            2 
 3253000   0.73832443   -8.1665827    648.75102  0.016619301  0.016057103            4 
 3254000   0.73685586   -8.1791135    650.04628  0.016647364   0.01605176            1 
 3255000   0.74350128   -8.1675323    648.26504  0.016596647  0.016046415            3 
 3256000   0.73255612   -8.1819159    649.21716  0.016615918  0.016041066            2 
 3257000   0.73249305   -8.1567524     649.4342   0.01661637  0.016035735            4 
 3258000   0.73590186   -8.1649639    649.52717  0.016613648   0.01603039            2 
 3259000   0.71840816   -8.1804271    649.22722   0.01660088   0.01602505            1 
 3260000   0.73599585    -8.195791    648.56095  0.016578756  0.016019686            1 
 3261000   0.72516747   -8.1778034    647.93634  0.016557711  0.016014332            2 
 3262000   0.71842452   -8.1839518    648.22562  0.016560025  0.016008958            1 
 3263000   0.72323124   -8.1676751    649.06029  0.016576266   0.01600359            2 
 3264000   0.72511762   -8.1965652    646.88643  0.016515687  0.015998216            2 
 3265000   0.72901386   -8.1772558    648.89587  0.016561916  0.015992821            1 
 3266000   0.72824603   -8.1796588    649.33231  0.016567981  0.015987435            2 
 3267000   0.71986556   -8.1878781    647.75714  0.016522731  0.015982044            2 
 3268000   0.73640244   -8.1763284    649.36824  0.016558758  0.015976667            3 
 3269000   0.73467563   -8.1850063    648.54636  0.016532741  0.015971294            1 
 3270000    0.7235713   -8.2108817    649.56839  0.016553731  0.015965903            3 
 3271000   0.72853608   -8.1764149    649.13413  0.016537607  0.015960537            1 
 3272000   0.72388415    -8.192322     647.8386  0.016499557  0.015955163            4 
 3273000   0.72839704   -8.1900032    647.07317  0.016475027  0.015949776            2 
 3274000   0.74616784   -8.2073962    649.42154  0.016529768  0.015944376            2 
 3275000   0.73650881   -8.1965213    647.45776  0.016474752  0.015938983            3 
 3276000   0.72746463   -8.2024314    647.07543  0.016459998  0.015933594            1 
 3277000   0.73772668   -8.2008363    647.71857   0.01647133  0.015928209            2 
 3278000   0.71354554   -8.1991796    648.25657  0.016479982  0.015922836            1 
 3279000   0.72601557   -8.1955338    648.40419  0.016478708   0.01591746            7 
 3280000   0.72922303   -8.1891055    648.46094  0.016475126  0.015912089            4 
 3281000   0.72229124   -8.1876971    648.67723  0.016475598  0.015906704            3 
 3282000   0.72464201    -8.183931    649.35943  0.016487899  0.015901323            5 
 3283000   0.71822763    -8.197714    648.15233  0.016452237   0.01589596            2 
 3284000   0.73246693   -8.1929632    648.31023  0.016451234  0.015890593            3 
 3285000   0.72949822   -8.2043654    649.02665    0.0164644  0.015885223            1 
 3286000   0.72453489   -8.1679596    649.12103  0.016461783  0.015879863            2 
 3287000   0.73013746   -8.1762068    647.37814  0.016412588  0.015874505            3 
 3288000   0.72620388   -8.1820624    647.80388  0.016418387  0.015869138            2 
 3289000    0.7394418    -8.202815    647.64592  0.016409393  0.015863769            2 
 3290000   0.73753269   -8.1904968    648.81189  0.016433938    0.0158584            2 
 3291000    0.7391669   -8.1653476    648.60817  0.016423786  0.015853058            2 
 3292000   0.72652816   -8.1815999    648.98241  0.016428271  0.015847704            2 
 3293000   0.72537772   -8.1849215    649.01281  0.016424051  0.015842347            1 
 3294000   0.73143785   -8.1969393    648.28997  0.016400778  0.015836992            1 
 3295000   0.71728748   -8.2130844    647.05091  0.016364464  0.015831617            3 
 3296000   0.71200346   -8.1778883    648.37131  0.016392883  0.015826252            3 
 3297000   0.72114054   -8.1814661    648.24137  0.016384627  0.015820914            3 
 3298000   0.74677863   -8.2071179    648.00073  0.016373578  0.015815545            3 
 3299000   0.72507032   -8.1748141    648.48099  0.016380746  0.015810197            2 
 3300000   0.74365995   -8.2168049    648.13376  0.016367014  0.015804849            3 
 3301000   0.72258425   -8.1943665    647.91447   0.01635652   0.01579949            2 
 3302000   0.71003887   -8.1973319    647.60743  0.016343818   0.01579413            2 
 3303000   0.71510969   -8.1789486    648.07814  0.016350745  0.015788778            5 
 3304000   0.73329662   -8.2170167    647.24608   0.01632481  0.015783429            3 
 3305000   0.72312975   -8.1866584    648.78885  0.016358771   0.01577807            4 
 3306000   0.70444707   -8.1890795    646.80001   0.01630369    0.0157727            2 
 3307000   0.72197644   -8.1964342    648.71144  0.016346927  0.015767349            3 
 3308000   0.72600431   -8.2030668    647.69689  0.016316427  0.015762003            1 
 3309000   0.72315623   -8.2059181     647.8315  0.016314886  0.015756647            1 
 3310000   0.71849139   -8.1995501    649.22683  0.016345086  0.015751291            3 
 3311000   0.71254559    -8.241799    647.26314  0.016290726  0.015745927            1 
 3312000   0.71620638   -8.2052716    648.98753  0.016329195  0.015740576            2 
 3313000   0.71372691   -8.2083486    647.41814  0.016284791  0.015735224            2 
 3314000   0.73390661   -8.1999088    649.23922  0.016325669  0.015729883            2 
 3315000   0.71038454   -8.2258996     647.0433  0.016265543  0.015724533            2 
 3316000   0.73464061   -8.2130017    649.09413  0.016312177  0.015719179            2 
 3317000   0.71086746   -8.2166717    647.05158  0.016255944  0.015713836            2 
 3318000   0.71764322   -8.2099437    645.32383  0.016207651  0.015708482            3 
 3319000   0.72464597     -8.22785     647.6513  0.016261206  0.015703116            1 
 3320000   0.71728955   -8.2163983    646.87741  0.016236883  0.015697757            1 
 3321000   0.72622621   -8.2026789    647.44548  0.016246248  0.015692396            1 
 3322000   0.71433487   -8.2218181    647.19074  0.016234967  0.015687032            2 
 3323000   0.72035075   -8.2133988    646.75826  0.016219236  0.015681671            3 
 3324000   0.72172559   -8.2267342    647.13353  0.016223765  0.015676331            2 
 3325000   0.71568036   -8.2184668    647.40323  0.016225645  0.015670981            1 
 3326000   0.71149783   -8.2104896    648.33846  0.016244199  0.015665639            1 
 3327000   0.72665672   -8.1753539       647.58  0.016220318   0.01566029            2 
 3328000   0.72421927   -8.2228503    646.53815  0.016189357  0.015654931            4 
 3329000   0.70912186    -8.211603    647.76063  0.016215095  0.015649586            4 
 3330000    0.7207437    -8.224336    647.93264   0.01621453  0.015644239            3 
 3331000   0.71025902   -8.1901095    648.47382  0.016223202  0.015638893            2 
 3332000   0.70954316   -8.1828218    648.59956  0.016221478  0.015633566            1 
 3333000    0.7128432   -8.2163001    646.96783  0.016175813  0.015628246            1 
 3334000   0.70331342   -8.2104848    648.53784  0.016210204  0.015622921            2 
 3335000   0.72516909   -8.2301625    646.87571  0.016163811  0.015617598            3 
 3336000   0.72093521   -8.2259403    647.88776  0.016184247  0.015612267            3 
 3337000   0.71607643   -8.2092301    648.34749  0.016190877  0.015606934            3 
 3338000   0.72619376   -8.2176712    648.32378  0.016185435  0.015601595            2 
 3339000   0.75482456   -8.2157976    648.31521  0.016180374  0.015596261            1 
 3340000   0.71973099   -8.2384926    647.26592  0.016149349  0.015590906            1 
 3341000   0.71667654   -8.2224045    647.39395  0.016147709  0.015585569            2 
 3342000   0.72026736    -8.211129    647.23559  0.016138929  0.015580247            3 
 3343000   0.72579919   -8.2214848    648.33687  0.016161553  0.015574906            2 
 3344000   0.72263853   -8.2220593    647.63681  0.016139275   0.01556958            2 
 3345000   0.72496881   -8.2149677    648.44912  0.016154687   0.01556426            2 
 3346000   0.71694958   -8.2375227    648.01254  0.016138985  0.015558945            1 
 3347000   0.71092192    -8.210825    647.10478  0.016111562  0.015553634            4 
 3348000   0.72039869    -8.210747    647.95587  0.016127934  0.015548321            1 
 3349000   0.71644101   -8.2394012    648.47182  0.016135957  0.015543016            2 
 3350000   0.71494392   -8.1937027    649.54187  0.016157758  0.015537718            3 
 3351000    0.7200881   -8.2491827    647.70352   0.01610722  0.015532399            1 
 3352000   0.71304877    -8.221885    647.61281  0.016100159  0.015527074            5 
 3353000    0.7244244   -8.2220116    648.22487  0.016110569  0.015521756            1 
 3354000   0.72695622   -8.2172127    647.75233  0.016094025  0.015516446            3 
 3355000   0.72683132   -8.2231478    646.47873  0.016057594  0.015511137            2 
 3356000   0.71399631   -8.2101649    647.87481  0.016087475  0.015505835            3 
 3357000   0.70940694   -8.2322706    646.08128  0.016038161  0.015500527            3 
 3358000   0.71672327    -8.213091    647.32424  0.016064231  0.015495224            1 
 3359000   0.71393197   -8.1831186    649.10296  0.016103577  0.015489933            1 
 3360000   0.70925535   -8.2074649    647.77174  0.016065767  0.015484641            1 
 3361000   0.71351585   -8.2127946    648.52581  0.016079684   0.01547935            4 
 3362000   0.71562239   -8.2025207    649.17619  0.016091022   0.01547405            2 
 3363000   0.71345087   -8.2253608    647.80434  0.016052244  0.015468756           10 
 3364000   0.72036405   -8.2226103    648.59546   0.01606707  0.015463469            1 
 3365000   0.73626412   -8.2593889    647.36206   0.01603175  0.015458173            3 
 3366000   0.70745181   -8.2205655    647.56259  0.016031952  0.015452893            2 
 3367000   0.70868241   -8.2235555     649.2412  0.016068736  0.015447617            1 
 3368000   0.72162477   -8.2479456    647.95269  0.016032084  0.015442315            4 
 3369000   0.70695703   -8.2482545    647.74271  0.016022131  0.015437023            4 
 3370000   0.71196226   -8.2387774      647.242  0.016004995  0.015431731            2 
 3371000   0.70113677   -8.2492841    647.49658  0.016006541  0.015426423            2 
 3372000   0.69411756    -8.260907    647.49108  0.016001658  0.015421125            3 
 3373000   0.71936369   -8.2293959    648.39834  0.016019329  0.015415837            3 
 3374000   0.71457664   -8.2508933    648.81861  0.016024961  0.015410553            1 
 3375000   0.71534658   -8.2480728    647.32135  0.015983243  0.015405264            2 
 3376000   0.70420596   -8.2223612    648.27079  0.016001945  0.015399971            3 
 3377000   0.69843556   -8.2226933    649.01666  0.016015612  0.015394693            2 
 3378000   0.71615747   -8.2275055    647.63496  0.015976785  0.015389427            4 
 3379000   0.71729778   -8.2147321    648.69787   0.01599827  0.015384163            2 
 3380000   0.70972918   -8.2083147    647.47292  0.015963336  0.015378893            2 
 3381000    0.7121272   -8.2242217    648.48785   0.01598363  0.015373607            2 
 3382000     0.705878   -8.2233561    648.34446  0.015975371  0.015368328            3 
 3383000   0.70975504   -8.2424798    647.19879  0.015942428  0.015363055            1 
 3384000   0.71513429   -8.2285802    650.08637  0.016008825  0.015357794            3 
 3385000   0.72449645   -8.2319195     649.1769  0.015981706  0.015352543            4 
 3386000   0.72154138   -8.2423048    649.42329   0.01598305  0.015347283            3 
 3387000   0.70785008   -8.2495087    647.74757  0.015937102  0.015342023            2 
 3388000   0.72100452   -8.2166478    648.41165  0.015948732   0.01533677            1 
 3389000    0.7003106    -8.239242    648.03604   0.01593479  0.015331528            2 
 3390000   0.70755229    -8.224687    648.64535  0.015945068  0.015326275            1 
 3391000      0.71465   -8.2114349    648.32955  0.015932605  0.015321034            2 
 3392000   0.71512814   -8.2323432    647.80583  0.015915041  0.015315804            2 
 3393000   0.71092729   -8.2346834    649.73467  0.015957723  0.015310566            2 
 3394000   0.71572938   -8.2378874    647.84922  0.015906728  0.015305322            1 
 3395000   0.70565008   -8.2414094    647.86841  0.015902514  0.015300079            2 
 3396000   0.68901863   -8.2315224    648.67361   0.01591759  0.015294828            5 
 3397000   0.71334293   -8.2516917    648.62292   0.01591166  0.015289575            1 
 3398000   0.71590678   -8.2461913    648.34207   0.01590009  0.015284319            3 
 3399000   0.70516162   -8.2565808    648.23832  0.015892868  0.015279068            3 
 3400000   0.71683967   -8.2545835    648.63487  0.015897913  0.015273831            1 
 3401000   0.69279846   -8.2152788    648.83239  0.015898079  0.015268587            5 
 3402000   0.71078341   -8.2639777    647.99215  0.015872824  0.015263351            3 
 3403000   0.69386307   -8.2347855    648.99592   0.01589274  0.015258139            2 
 3404000   0.71140895   -8.2521278    648.26935  0.015870284  0.015252911            2 
 3405000   0.70075791   -8.2445812    648.95637  0.015882437  0.015247688            3 
 3406000    0.7002032   -8.2475923    648.81017  0.015874197  0.015242456            2 
 3407000   0.71958188   -8.2435857    647.85719  0.015846228  0.015237224            5 
 3408000   0.70196482   -8.2147457    649.11648  0.015872371  0.015232016            2 
 3409000   0.71029412   -8.2568326    648.13789  0.015843793   0.01522679            1 
 3410000   0.70978636    -8.250102    647.59215   0.01582581  0.015221551            2 
 3411000   0.68238756    -8.244143     647.7108  0.015824069  0.015216314            1 
 3412000   0.71214039   -8.2420075    647.66669  0.015818354  0.015211085            3 
 3413000   0.70686046    -8.224025    649.50774  0.015858671  0.015205866            1 
 3414000   0.70722939   -8.2104606    649.43533  0.015852259  0.015200665            3 
 3415000   0.71187936   -8.2398637    648.73561  0.015830542  0.015195453            1 
 3416000   0.69968485   -8.2488079    648.18924  0.015812579  0.015190256            4 
 3417000   0.71111042   -8.2392041    649.09356  0.015830006  0.015185061            3 
 3418000   0.69968989   -8.2561892    648.66525  0.015814932  0.015179869            1 
 3419000    0.7106447   -8.2435273    649.20787  0.015823532  0.015174669            3 
 3420000    0.7035166   -8.2419953    648.65037  0.015805321  0.015169476            3 
 3421000   0.69847464   -8.2680513    648.72701  0.015802568  0.015164269            4 
 3422000   0.72267044   -8.2572362    648.38601  0.015789646  0.015159068            2 
 3423000    0.6973168   -8.2436914    649.53181  0.015812927  0.015153876            2 
 3424000   0.69653182   -8.2679598    648.82156  0.015791023  0.015148707            1 
 3425000    0.7052898   -8.2489284     650.0714  0.015816822  0.015143531            1 
 3426000   0.68921153   -8.2499841    649.10008  0.015788579  0.015138366            2 
 3427000   0.69491831   -8.2258407    649.35299  0.015790122  0.015133203            2 
 3428000   0.71437895    -8.259302     648.2391  0.015758438  0.015128042            6 
 3429000   0.69951193   -8.2561139    649.28948  0.015779369  0.015122886            2 
 3430000   0.71394975   -8.2363388    649.53378  0.015780704  0.015117736            1 
 3431000   0.71423344   -8.2665513    649.14352  0.015766626  0.015112571            2 
 3432000   0.69759109   -8.2664851    648.67812  0.015750731  0.015107417            2 
 3433000   0.69751726   -8.2441143    649.90475  0.015775919  0.015102264            2 
 3434000    0.7083882   -8.2515027    647.20652  0.015705846  0.015097109            2 
 3435000   0.69693083   -8.2619569    648.83388  0.015740754  0.015091958            5 
 3436000   0.69898662   -8.2537862      649.261  0.015746532  0.015086805            3 
 3437000   0.69133352    -8.253596    649.91761  0.015757871  0.015081653            2 
 3438000   0.69923986    -8.244411    647.54637  0.015695811  0.015076504            4 
 3439000   0.69687177   -8.2645632    648.86815  0.015723276  0.015071353            1 
 3440000   0.70902831   -8.2438112    648.43907  0.015708311  0.015066186            3 
 3441000   0.69609033   -8.2678998    649.35465  0.015725919  0.015061025            2 
 3442000   0.70738143   -8.2539966    648.98712  0.015712452  0.015055875            2 
 3443000   0.69437555   -8.2561596    648.55074  0.015697327  0.015050722            3 
 3444000   0.69707544    -8.271253    648.37826  0.015688595  0.015045553            3 
 3445000   0.68409655   -8.2739982    648.12592  0.015677937  0.015040379            5 
 3446000   0.70187083   -8.2773745    648.31318  0.015677916  0.015035219            2 
 3447000    0.6948118    -8.289231    647.62588  0.015656752  0.015030067            1 
 3448000   0.69680824   -8.2295666    649.17393  0.015689625  0.015024919            1 
 3449000    0.6996041   -8.2579519     649.1354  0.015684145  0.015019775            2 
 3450000   0.70212409    -8.266896    648.72184   0.01566961  0.015014628            3 
 3451000   0.71233357    -8.213005    648.02219  0.015648174   0.01500948            2 
 3452000   0.70269196   -8.2353967    648.47815  0.015654648  0.015004335            3 
 3453000   0.70169389   -8.2617645    649.63724  0.015678088  0.014999189            1 
 3454000   0.69076559   -8.2538029    650.00296  0.015682372  0.014994058            2 
 3455000   0.68511714   -8.2375071    648.92108  0.015651738   0.01498892            4 
 3456000    0.6909345   -8.2418719    649.91806   0.01567125  0.014983808            4 
 3457000    0.6955797   -8.2406565     649.5464  0.015657757  0.014978683            2 
 3458000   0.71311643   -8.2701674    649.66245  0.015656026  0.014973549            3 
 3459000   0.70216789   -8.2599272    649.25727  0.015641738   0.01496843            1 
 3460000   0.70173653   -8.2531445    648.51672  0.015619382   0.01496329            3 
 3461000   0.69048357   -8.2734302    648.75098  0.015620509  0.014958169            1 
 3462000   0.69359431   -8.2595333    648.90955  0.015619814   0.01495305            3 
 3463000     0.688604   -8.2709176    648.44357   0.01560409  0.014947921            2 
 3464000   0.71595208    -8.242345     649.5867  0.015627086  0.014942794            3 
 3465000   0.67990112   -8.2823296    648.43264   0.01559482  0.014937677            3 
 3466000   0.69797579   -8.2886186    648.75015  0.015597955  0.014932548            4 
 3467000   0.70837396   -8.2663715      649.191  0.015604053  0.014927433            1 
 3468000   0.70714663   -8.2707595     649.8672  0.015615802  0.014922312            3 
 3469000   0.69473041   -8.2559651    648.86362  0.015587192  0.014917188            3 
 3470000   0.71430401   -8.2594304      648.278  0.015568636  0.014912075            3 
 3471000   0.68922798   -8.2521183    648.72878  0.015574973  0.014906963            2 
 3472000    0.6966588   -8.2698023    649.01235  0.015577293  0.014901858            3 
 3473000   0.68549701   -8.2548953     648.8909  0.015569894  0.014896757            2 
 3474000    0.6824841   -8.2618564    648.92367  0.015566198  0.014891643            1 
 3475000   0.69337709   -8.2856478    648.77443   0.01555814  0.014886533            2 
 3476000   0.70059339   -8.2683359     649.0734  0.015560831  0.014881429            2 
 3477000   0.69284778   -8.3013315    648.44847  0.015541378  0.014876317            2 
 3478000   0.68760784   -8.2768265     649.1386  0.015553445  0.014871197            2 
 3479000   0.68569235   -8.2865952    648.77551  0.015540278  0.014866078            1 
 3480000   0.69886663    -8.293988      648.836   0.01553726  0.014860964            5 
 3481000   0.70993879   -8.2801922    648.78204  0.015531505  0.014855852            4 
 3482000   0.69058977   -8.2746317    648.70044  0.015525092  0.014850739            1 
 3483000   0.70425191    -8.281594    650.57829  0.015565563  0.014845638            5 
 3484000   0.68046257   -8.2937279    647.92664  0.015497671   0.01484054            2 
 3485000    0.7028342   -8.2704119    649.13062  0.015522014  0.014835453            1 
 3486000   0.69676013   -8.2618012     649.2602  0.015520659  0.014830364            3 
 3487000   0.71476579   -8.2665197    649.40219  0.015519601  0.014825276            2 
 3488000   0.70580725   -8.2689259    649.27226  0.015512048  0.014820195            2 
 3489000   0.69064815   -8.2779218    650.25136  0.015530987  0.014815126            1 
 3490000   0.69785611   -8.2670307    649.42154  0.015506723   0.01481006            2 
 3491000   0.69761936   -8.2581002    648.45841   0.01547929  0.014804992            1 
 3492000   0.71270493   -8.2767353    649.71359  0.015504811   0.01479992            3 
 3493000   0.68434411   -8.3081736     648.5464  0.015472526  0.014794846            1 
 3494000   0.68382779   -8.2812924    649.69991  0.015495609  0.014789771            2 
 3495000   0.68496463   -8.2673729    649.83139  0.015494311  0.014784697            2 
 3496000   0.69130378   -8.2859342    649.86396  0.015490655   0.01477962            2 
 3497000   0.70602746   -8.2753696    649.07106  0.015467331  0.014774545            1 
 3498000   0.69450704   -8.2952887     649.7772  0.015479731  0.014769475            2 
 3499000   0.68544951   -8.2689706    649.96182  0.015479704  0.014764416            1 
 3500000    0.7150911   -8.2708794    649.04662  0.015453491  0.014759346            2 
 3501000   0.69080429   -8.2843292    647.82103  0.015419905  0.014754286            2 
 3502000   0.69766359     -8.30427    647.83565  0.015415849   0.01474922            2 
 3503000   0.69665172    -8.272854    648.57844  0.015429119  0.014744166            6 
 3504000   0.68665142   -8.2969538    649.71853   0.01545183  0.014739118            2 
 3505000   0.69010847   -8.2907315    648.68457  0.015422838  0.014734062            2 
 3506000   0.68740568   -8.2949342     648.9043  0.015423662  0.014729006            2 
 3507000   0.67971651    -8.279866    650.65586  0.015460884  0.014723958            2 
 3508000   0.66981017   -8.2784517    648.94878  0.015415925  0.014718919            2 
 3509000   0.69149413   -8.2828448    649.21167  0.015417775  0.014713879            5 
 3510000   0.68889924   -8.2619624    648.61955  0.015399325  0.014708836            2 
 3511000   0.67578982   -8.2765347    649.75107  0.015421795  0.014703787            1 
 3512000   0.68353745   -8.2901351    650.24239  0.015429062  0.014698756            4 
 3513000   0.69028841   -8.2766451    649.90157  0.015416585  0.014693722            2 
 3514000   0.68665423   -8.2749609    649.37466  0.015399703  0.014688678            2 
 3515000   0.68044398   -8.2897947    648.77031  0.015380994  0.014683642            2 
 3516000   0.70138418   -8.2922868     650.5593   0.01541902  0.014678591            2 
 3517000    0.7002069   -8.2870268    648.77711  0.015372408  0.014673547            2 
 3518000   0.68517407   -8.2711669    649.96777  0.015396242  0.014668515            2 
 3519000   0.69309649   -8.2739907      649.581  0.015382708  0.014663481            2 
 3520000   0.69456452   -8.2697143    649.58087  0.015378335  0.014658447            2 
 3521000   0.68646669   -8.2701458    647.60549  0.015327215  0.014653411            3 
 3522000   0.68631302   -8.2737212    649.65325  0.015371315  0.014648398            1 
 3523000   0.69500884   -8.2614225    649.97313  0.015374518  0.014643369            2 
 3524000   0.69678732   -8.2773206     650.2854   0.01537754  0.014638353            2 
 3525000   0.70127472   -8.2426608    648.95228  0.015341661   0.01463333            2 
 3526000   0.67477889   -8.3077335    648.55034  0.015327811  0.014628304            1 
 3527000    0.6961424   -8.2629565    649.76442  0.015352151  0.014623283            1 
 3528000   0.69987233   -8.3102401    648.71559  0.015323025  0.014618261            2 
 3529000   0.68505675   -8.2601723      649.999  0.015348989  0.014613239            3 
 3530000    0.6818509   -8.2908183    649.15558   0.01532473  0.014608215            2 
 3531000   0.67713843   -8.3172884    649.82841  0.015336269  0.014603178            4 
 3532000   0.67207821   -8.3094152    648.38996  0.015297989  0.014598153            4 
 3533000   0.68098742   -8.3283577    647.57141  0.015274352  0.014593131            1 
 3534000   0.70806175   -8.2984911    649.42601  0.015313762  0.014588113            2 
 3535000   0.68849643   -8.3066129     649.3549  0.015307753    0.0145831            1 
 3536000   0.67230842   -8.2831639    650.17782  0.015322818    0.0145781            2 
 3537000   0.70107691   -8.3252007     649.1989  0.015295422  0.014573086            2 
 3538000   0.69083253   -8.3109224    647.64108  0.015254406  0.014568068            2 
 3539000    0.6798475   -8.3002148     648.6217  0.015273187  0.014563053            2 
 3540000   0.67435322   -8.3060441    648.64629  0.015269451  0.014558031            2 
 3541000   0.67537653   -8.2934722    649.90987  0.015294876  0.014553018            3 
 3542000    0.6814699   -8.3176714    648.92268  0.015267332  0.014548011            1 
 3543000   0.68455732   -8.3277218    649.66983  0.015280596  0.014543005            2 
 3544000   0.68937533   -8.2986534    649.76102  0.015278429  0.014538005            3 
 3545000   0.67995509   -8.2845054    649.68975  0.015272444  0.014533004            1 
 3546000   0.68765974   -8.3142351    650.27128  0.015281803  0.014528006            2 
 3547000   0.69821374   -8.2971936    648.76869  0.015242193  0.014523005            1 
 3548000   0.68461115   -8.2891819    649.45217   0.01525395  0.014518002            2 
 3549000   0.69422449   -8.3304747    648.81951  0.015234796  0.014513009            1 
 3550000   0.69914292   -8.3034159    649.11412  0.015237421  0.014508024            2 
 3551000   0.68531305   -8.3001812    648.82239  0.015226284  0.014503034            6 
 3552000    0.6813109   -8.3190743    648.62759  0.015217426  0.014498038            3 
 3553000   0.67748016   -8.3088527    648.17646  0.015202563  0.014493044            2 
 3554000   0.67817526   -8.3313267    648.39956  0.015203516  0.014488052            1 
 3555000   0.68606865   -8.3306748    647.89608  0.015187437  0.014483053            3 
 3556000   0.68403709   -8.2953132    649.04606  0.015210116  0.014478068            2 
 3557000   0.69209838   -8.2882327    649.44736  0.015215241  0.014473095            3 
 3558000   0.69023244   -8.2825691     649.8486  0.015220363  0.014468122            2 
 3559000   0.68036465   -8.2743796    648.31175  0.015180101  0.014463151            1 
 3560000   0.68670175   -8.3044068    648.97515  0.015191366  0.014458171            2 
 3561000   0.68895771   -8.3220684    649.83747   0.01520728  0.014453196            1 
 3562000   0.69220065   -8.3021149    649.96337  0.015205956  0.014448229            2 
 3563000   0.67221747   -8.2928937    649.22021  0.015184307  0.014443259            2 
 3564000   0.68002581    -8.304266    649.14542  0.015178297  0.014438299            1 
 3565000   0.67664959   -8.2984333    649.77817   0.01518883  0.014433347            6 
 3566000    0.6622839   -8.2897298    651.32173  0.015220643  0.014428381            4 
 3567000   0.68846005   -8.3299553    648.88184  0.015159374  0.014423428            2 
 3568000   0.67656818   -8.3256313    649.45004  0.015168396   0.01441848            2 
 3569000   0.67611266   -8.2981016    649.70107  0.015170007  0.014413525            3 
 3570000   0.68920143   -8.2993707    650.21962  0.015177862  0.014408582            1 
 3571000   0.67000973   -8.3193316    649.15454  0.015148757   0.01440364            2 
 3572000   0.68221455   -8.3004226    649.85284  0.015160807  0.014398693            2 
 3573000   0.68480261    -8.287195    649.33528  0.015144493  0.014393754            2 
 3574000   0.68015691   -8.2863936    649.45833  0.015143125  0.014388823            3 
 3575000   0.67914681   -8.3114829    650.01849  0.015151946  0.014383884            4 
 3576000   0.67985752   -8.3171236    649.06934   0.01512559   0.01437894            4 
 3577000   0.66476164   -8.3171089    649.13061  0.015122789  0.014373991            2 
 3578000   0.67984676     -8.30701    649.45652  0.015126153  0.014369044            2 
 3579000    0.6846681   -8.3414911    648.28965  0.015094758  0.014364103            2 
 3580000   0.68385977   -8.3223381    649.06901  0.015108683  0.014359156            3 
 3581000   0.68641372    -8.333818       647.85  0.015076096  0.014354205            3 
 3582000   0.67655351   -8.3023025    650.70846  0.015138388  0.014349259            4 
 3583000   0.69066208   -8.3201627    649.57293  0.015107753  0.014344313            1 
 3584000   0.69199974   -8.3298537    649.12878   0.01509321  0.014339376            3 
 3585000   0.66943689   -8.3122831    648.88096   0.01508324  0.014334444            2 
 3586000   0.69012277   -8.3069555    650.33026  0.015112713  0.014329528            3 
 3587000   0.67375545   -8.3033525    650.66622  0.015116305  0.014324608            2 
 3588000   0.68123194   -8.3191162    650.22204  0.015101775  0.014319693            2 
 3589000   0.69107447   -8.3294858    649.28256  0.015075754  0.014314773           10 
 3590000   0.68642297   -8.3141064    650.34287  0.015096167  0.014309856            5 
 3591000   0.66847396   -8.3242504    649.68212   0.01507663  0.014304941            1 
 3592000   0.67718869   -8.3342567    649.65384  0.015071776  0.014300024            1 
 3593000   0.68724724   -8.3155185     648.9506  0.015051271  0.014295111            1 
 3594000   0.67355855   -8.3246857    649.15366  0.015051791  0.014290198            2 
 3595000   0.67474438   -8.2858629    650.80548  0.015085894  0.014285293            1 
 3596000   0.66794401    -8.288582    649.95689  0.015062034  0.014280404            2 
 3597000   0.68333454   -8.3009525    650.51271  0.015070723  0.014275506            2 
 3598000   0.67219767   -8.3147785    650.30151  0.015061643  0.014270604            4 
 3599000   0.68200455   -8.3032847    650.02781  0.015051121  0.014265711            2 
 3600000   0.69854712   -8.3129145    648.95305  0.015022061  0.014260824            1 
 3601000   0.67994116   -8.3305644    648.54356  0.015008413  0.014255935            3 
 3602000   0.68451459    -8.320919    650.54262  0.015050495  0.014251037            1 
 3603000    0.6701752   -8.3168639    649.42567  0.015020484  0.014246144            1 
 3604000   0.67569339   -8.3124778    649.78935  0.015024726  0.014241256            3 
 3605000   0.66884759   -8.3256944     649.2325  0.015007686   0.01423637            2 
 3606000   0.66971406   -8.3118185    650.61804  0.015035544   0.01423148            1 
 3607000   0.67298486   -8.3090088     649.8737  0.015014178  0.014226599            5 
 3608000   0.68171206   -8.3177133    649.03281  0.014990595  0.014221717            2 
 3609000   0.67618249   -8.3202537     649.9122  0.015006747  0.014216828            1 
 3610000   0.67374786   -8.3305355    649.56484  0.014994572  0.014211924            1 
 3611000   0.66213836   -8.3241572     649.2605  0.014983396  0.014207019            2 
 3612000   0.68466877   -8.3196477    649.44125  0.014983418  0.014202121            2 
 3613000   0.67858352    -8.326066    649.18202  0.014973291  0.014197234            4 
 3614000    0.6701748   -8.3581082    649.63332  0.014979554  0.014192348            2 
 3615000   0.67927112   -8.3035822     649.9902  0.014983638  0.014187459            2 
 3616000   0.68520232   -8.3356686     650.2672  0.014985878  0.014182577            2 
 3617000   0.67373796   -8.3428829    648.80404  0.014948024  0.014177698            2 
 3618000   0.66711688    -8.303707    650.95008  0.014993322  0.014172815            4 
 3619000    0.6782973   -8.3164321    648.67021  0.014936682  0.014167944            2 
 3620000    0.6677093   -8.3293397    649.12733  0.014943079  0.014163078            2 
 3621000   0.69068358   -8.3442575    648.62258  0.014927336  0.014158222            2 
 3622000   0.65787891   -8.3329164     649.0632  0.014933352   0.01415336            4 
 3623000   0.66382074   -8.3307875    648.02025  0.014905241  0.014148503            4 
 3624000   0.68081806     -8.33674    649.57955  0.014936984  0.014143628            2 
 3625000   0.65763472   -8.3411971    649.37579  0.014928179  0.014138757            1 
 3626000   0.67502279   -8.3403656     650.1127  0.014940998  0.014133893            4 
 3627000   0.68394748   -8.3368162    649.28788  0.014917928   0.01412903            3 
 3628000   0.68048788   -8.3414356    649.94908  0.014929003  0.014124167            2 
 3629000   0.67249272    -8.327723    649.49949  0.014914565  0.014119312            2 
 3630000   0.68364103   -8.3223413    649.92982  0.014920336  0.014114461            2 
 3631000   0.67508679   -8.3516407    648.32215   0.01487933  0.014109605            1 
 3632000   0.68366488   -8.3416155    649.25751  0.014896694  0.014104738            1 
 3633000   0.66340793   -8.3460873     649.7392  0.014903643  0.014099881            1 
 3634000    0.6622431   -8.3431418    648.60629  0.014873562  0.014095021            2 
 3635000   0.68196007   -8.3485618    649.36409  0.014886843  0.014090171            4 
 3636000    0.6809558   -8.3179889    648.46901  0.014862234  0.014085325            2 
 3637000    0.6704149   -8.3389243    650.03192  0.014893958  0.014080479            2 
 3638000   0.66666451   -8.3370183    650.25602  0.014894998  0.014075633            7 
 3639000   0.68652971   -8.3534553    649.23993  0.014867636  0.014070796            2 
 3640000   0.68063105   -8.3586537    649.54253  0.014870479  0.014065945            2 
 3641000   0.67304117   -8.3369051    648.91331  0.014851994  0.014061106            2 
 3642000   0.66400889   -8.3526026    650.07102  0.014874406  0.014056272            2 
 3643000   0.67074221   -8.3328089    649.32266  0.014853204  0.014051436            1 
 3644000   0.67577567   -8.3202734    650.07442  0.014866319  0.014046605            3 
 3645000    0.6731068    -8.330708    650.48258  0.014871572  0.014041779            3 
 3646000    0.6812879   -8.3267209    651.51544  0.014891101   0.01403695            3 
 3647000   0.67575305   -8.3234137    649.84066  0.014848749  0.014032131            2 
 3648000   0.65666431   -8.3452345    649.92705  0.014846652  0.014027312            3 
 3649000   0.67852082   -8.3443481    650.16889  0.014848107  0.014022485            4 
 3650000   0.66492287   -8.3628662     649.0013  0.014817381  0.014017647            2 
 3651000   0.68475347   -8.3478642    650.26149  0.014842086  0.014012823            2 
 3652000    0.6716498   -8.3476911    648.69585  0.014802297  0.014007986            4 
 3653000   0.66620275   -8.3337141    648.85863  0.014801958  0.014003165            5 
 3654000   0.67172824   -8.3525033    650.40579  0.014833192  0.013998345            4 
 3655000   0.65626242   -8.3512919    649.03027  0.014797772  0.013993515            1 
 3656000   0.66027406   -8.3267898     650.2075  0.014820558  0.013988706            3 
 3657000   0.67125997     -8.37648    649.36434  0.014797292  0.013983895            4 
 3658000   0.66848842    -8.346259    649.49514  0.014796226   0.01397908            4 
 3659000   0.66101758   -8.3373097    649.58909  0.014794322   0.01397426            1 
 3660000   0.66732813   -8.3305043    649.93392  0.014798131   0.01396945            3 
 3661000   0.66474957   -8.3535137    649.76312  0.014790201  0.013964634            2 
 3662000   0.66683554   -8.3304903    650.26967  0.014797689  0.013959821            2 
 3663000    0.6480155   -8.3504446    649.07331  0.014766433  0.013955002            2 
 3664000   0.65808011   -8.3587568    647.97911  0.014737516  0.013950182            2 
 3665000   0.68277125   -8.3651804    648.69418  0.014749754  0.013945388            3 
 3666000   0.66695708    -8.355757    649.08763  0.014754674  0.013940584            1 
 3667000   0.66609225   -8.3698098    648.52788   0.01473793  0.013935775            2 
 3668000   0.66580781   -8.3433285    649.45754  0.014755033  0.013930969            3 
 3669000   0.66206735   -8.3635342    648.91626  0.014738718  0.013926169            1 
 3670000   0.67766949   -8.3880726    649.47801  0.014747457  0.013921362            2 
 3671000   0.65887006   -8.3580497    648.29295  0.014716538  0.013916547            4 
 3672000   0.66046368   -8.3565705    648.80602  0.014724174  0.013911729            3 
 3673000   0.66031088   -8.3510908    650.16111   0.01475091  0.013906915            2 
 3674000   0.65925236   -8.3952719    649.44617  0.014730679   0.01390212            1 
 3675000   0.66657788   -8.3686529    649.48098   0.01472746  0.013897322            2 
 3676000   0.66809783   -8.3548562    647.90005  0.014687614  0.013892534            5 
 3677000   0.66409711   -8.3528387    648.25529  0.014691671  0.013887742            2 
 3678000    0.6638048   -8.3704809    648.34688  0.014689752  0.013882948            1 
 3679000    0.6613455   -8.3618931    649.09789   0.01470277  0.013878154            5 
 3680000   0.64280744   -8.3632226    648.77076  0.014691367   0.01387336            2 
 3681000   0.64885871   -8.3810883    646.66503  0.014639704  0.013868545            2 
 3682000   0.64141358   -8.3557466    649.57518  0.014701593  0.013863745            2 
 3683000   0.65150282   -8.3741163    650.44417  0.014717263  0.013858964            3 
 3684000   0.66822091   -8.3356463    649.97902  0.014702746  0.013854182            1 
 3685000      0.66176   -8.3775227    648.49571  0.014665213  0.013849408            2 
 3686000   0.65439446   -8.3596895    648.84399  0.014669108  0.013844628            4 
 3687000   0.65551713   -8.3820206    648.10756  0.014648485  0.013839861            1 
 3688000   0.64166151    -8.357537    649.10438  0.014667037  0.013835093            3 
 3689000   0.65775257   -8.3656624    647.75468  0.014632572  0.013830321            2 
 3690000   0.67212054   -8.3558145    649.27263  0.014662887   0.01382554            3 
 3691000   0.65878366   -8.3640557    648.02498  0.014630746   0.01382077            1 
 3692000   0.66591929   -8.3634638    648.25306  0.014631931  0.013815991            2 
 3693000   0.66018225    -8.383988    649.41632  0.014654218  0.013811213            1 
 3694000   0.65736204   -8.3740294    648.83308  0.014637093  0.013806429            3 
 3695000   0.65514672   -8.3690768    649.62782  0.014651056  0.013801644            4 
 3696000   0.67410084   -8.3769254    647.99855  0.014610357  0.013796861            3 
 3697000   0.66409538   -8.3909461    648.25385   0.01461216  0.013792092            1 
 3698000    0.6541277   -8.3866606    647.27012   0.01458604  0.013787319            3 
 3699000   0.65747158   -8.3557951    649.60595   0.01463472   0.01378255            2 
 3700000   0.65175137   -8.3751901    648.65022  0.014609239  0.013777772            2 
 3701000   0.66022103    -8.355353    648.15387  0.014594116  0.013772988            6 
 3702000   0.66079727   -8.3725899    647.47069  0.014574795  0.013768217            2 
 3703000   0.64433353   -8.3749611     648.1412  0.014585948  0.013763444            4 
 3704000   0.64977325   -8.3725581    647.90666  0.014576734  0.013758674            2 
 3705000   0.66351684     -8.36979    649.49701   0.01460857  0.013753905            3 
 3706000    0.6476624   -8.4012954    648.61198  0.014584727  0.013749133            2 
 3707000    0.6625945   -8.3970946    647.78876  0.014562287  0.013744368            1 
 3708000   0.66780836   -8.3951931     647.9702  0.014562437  0.013739604            1 
 3709000    0.6608376   -8.3761252     648.2049  0.014563784  0.013734843            2 
 3710000   0.66396159   -8.3890207    648.17188  0.014559117  0.013730083            1 
 3711000    0.6528112   -8.3951801    649.00492    0.0145739  0.013725325            4 
 3712000   0.64746994   -8.3722431     648.7038  0.014563214  0.013720571            1 
 3713000   0.65616876   -8.3877546    649.85433  0.014585114  0.013715829            1 
 3714000   0.65076171   -8.3668508    648.83039  0.014558212  0.013711082            3 
 3715000   0.65934879   -8.3691768    648.72158  0.014551852  0.013706331            1 
 3716000   0.65787945   -8.3691113    647.58658  0.014522484  0.013701578            2 
 3717000    0.6519712   -8.3564873    649.24156   0.01455568  0.013696841            2 
 3718000   0.65659338   -8.3852703    648.95144  0.014545263    0.0136921            2 
 3719000    0.6564255   -8.3909397    648.91455  0.014540525  0.013687349            2 
 3720000   0.66193882   -8.4112812    649.28232  0.014544855  0.013682605            2 
 3721000   0.66370081   -8.4028245    649.39975  0.014543576  0.013677869            4 
 3722000   0.65525565   -8.3761112    648.85067  0.014527375  0.013673119            2 
 3723000   0.65714667   -8.3728124    648.94577  0.014525601   0.01366838            1 
 3724000   0.66204725   -8.4129381    647.79767  0.014496009   0.01366364            1 
 3725000   0.66516577   -8.4040798    648.83267  0.014515272  0.013658905            1 
 3726000   0.65807465   -8.3883825    648.93191  0.014513596  0.013654172            1 
 3727000   0.64341676   -8.3777308    649.41394   0.01452048  0.013649438            3 
 3728000   0.64344515   -8.3745759    649.49094  0.014518306  0.013644712            3 
 3729000   0.66225059   -8.3819849     649.0729  0.014505071   0.01363999            2 
 3730000   0.65120742   -8.3792088    650.31026  0.014528826  0.013635265            2 
 3731000   0.66186031   -8.4136066     647.7835  0.014468496  0.013630539            1 
 3732000   0.65057514   -8.3796722    647.57148  0.014459885  0.013625826            2 
 3733000   0.64804677   -8.3774249    649.65844  0.014502599  0.013621103            3 
 3734000   0.64966049   -8.3833218    648.36743  0.014469903  0.013616379            1 
 3735000   0.67160621   -8.3860225    648.11591  0.014460417  0.013611667            2 
 3736000   0.65463053   -8.4052127    647.30013   0.01443835  0.013606944            2 
 3737000   0.66168089   -8.4247156    647.67015  0.014442738  0.013602217            1 
 3738000    0.6560972   -8.3975488    648.79257  0.014463897  0.013597502            2 
 3739000   0.65637519    -8.388269    647.64215  0.014434389  0.013592796            3 
 3740000   0.65594377   -8.3881845    647.03061  0.014416903  0.013588088            1 
 3741000   0.65793666   -8.3646383    648.26618  0.014440573  0.013583383            1 
 3742000   0.65837504   -8.3887768    648.36809  0.014438983  0.013578682            2 
 3743000   0.65132972   -8.3764211    648.28876  0.014433359  0.013573972            2 
 3744000   0.65725496    -8.396996    649.04538  0.014446345  0.013569266            2 
 3745000   0.64736721   -8.3878335    648.11773  0.014421845  0.013564554            2 
 3746000   0.65398187   -8.4181155    646.55429  0.014383215  0.013559842            2 
 3747000   0.65489939   -8.4229345    647.53801  0.014401254  0.013555127            2 
 3748000   0.65744773   -8.3994864    647.98827  0.014407423  0.013550415            2 
 3749000   0.65244983   -8.3799506    649.23984    0.0144314  0.013545718            1 
 3750000    0.6351984   -8.3744128    647.65417  0.014392315  0.013541021            2 
 3751000    0.6419296   -8.4115636    648.39438  0.014404923  0.013536318            4 
 3752000   0.64358568    -8.411668    647.29646  0.014376698  0.013531619            5 
 3753000   0.64561122    -8.394818    648.46914  0.014398906  0.013526925            3 
 3754000   0.63609959   -8.4240634    646.83465  0.014358787  0.013522216            7 
 3755000   0.65959762     -8.41194    647.16615   0.01436232  0.013517513            2 
 3756000   0.63895702   -8.4105283    647.24907  0.014360336  0.013512813            1 
 3757000   0.65148644   -8.4165335    647.99078  0.014372966   0.01350811            5 
 3758000    0.6513592    -8.413383    648.04026  0.014370238  0.013503404            2 
 3759000   0.63398854   -8.4016332    648.22992   0.01437062  0.013498706            2 
 3760000   0.64284928   -8.4178784    647.98307  0.014361327  0.013494018            3 
 3761000    0.6436387   -8.3805157    648.07709  0.014359592  0.013489328            2 
 3762000   0.64958986   -8.4221161    648.33164  0.014361413  0.013484634            3 
 3763000   0.64728674   -8.4038188    648.40657  0.014359256  0.013479955            3 
 3764000   0.64700334   -8.4000433    647.98747  0.014346163  0.013475285            5 
 3765000   0.64165722    -8.433201    648.09404  0.014344711  0.013470611            4 
 3766000   0.63800735   -8.4150395    648.17871  0.014342776   0.01346593            2 
 3767000   0.65535618   -8.3940749    647.99153  0.014334827  0.013461257            4 
 3768000   0.65776682   -8.4062126    648.95059  0.014352234  0.013456582            1 
 3769000    0.6400631   -8.3970323    647.30358   0.01431201  0.013451904            3 
 3770000   0.65283406   -8.4136024    647.54113  0.014313464  0.013447226            3 
 3771000    0.6453576   -8.4073817    648.64907  0.014334153   0.01344255            3 
 3772000   0.65444034   -8.4174142     645.8563  0.014268653   0.01343788            1 
 3773000   0.64735557   -8.4207458    646.75423  0.014284703   0.01343321            2 
 3774000    0.6448597    -8.436209    646.96143  0.014285493  0.013428537            2 
 3775000    0.6591895   -8.4171837    648.50382  0.014315758   0.01342386            4 
 3776000   0.65676059   -8.4185043    646.89892  0.014276547  0.013419179            1 
 3777000   0.64339675   -8.4295328    647.30724  0.014281777  0.013414503            2 
 3778000   0.65030308   -8.4131152    646.50905   0.01426039  0.013409826            2 
 3779000   0.65171611   -8.4106983    647.01264  0.014267722  0.013405156            2 
 3780000   0.65664144   -8.4109168    647.29184  0.014270102   0.01340049            2 
 3781000   0.64094023   -8.4254909    648.25896  0.014287643   0.01339582            2 
 3782000   0.65424551   -8.3937045    648.36972  0.014286306  0.013391151            3 
 3783000    0.6449914   -8.4084804    648.18227    0.0142784  0.013386484            4 
 3784000   0.64551282   -8.3966817     647.2874   0.01425492   0.01338183            1 
 3785000   0.64195409    -8.433342    647.29498   0.01425132  0.013377173            2 
 3786000    0.6473659   -8.4177737    649.08674  0.014286995  0.013372516            1 
 3787000   0.64789325   -8.4289078    647.58534  0.014250184  0.013367858            2 
 3788000   0.64557283   -8.4186655    648.42434  0.014264879  0.013363198            1 
 3789000    0.6360366   -8.4423753    646.71451  0.014223509   0.01335854            1 
 3790000   0.64732899   -8.4246818    648.09287  0.014250063  0.013353893            3 
 3791000   0.64042122   -8.4201129    647.67925  0.014237212  0.013349252            4 
 3792000   0.64890963   -8.4215327     647.4714   0.01422889  0.013344609            2 
 3793000   0.65470226    -8.396666    648.64239  0.014250866  0.013339968            2 
 3794000   0.63743066   -8.4386573    647.40781  0.014219992   0.01333533            1 
 3795000   0.64620694   -8.4165306    648.16037   0.01423277   0.01333069            1 
 3796000   0.64761945   -8.4177725    647.68205  0.014218521  0.013326055            3 
 3797000   0.64740568   -8.4244655    646.68898  0.014192981  0.013321422            2 
 3798000   0.64319414   -8.4145327    647.76373  0.014212825  0.013316786            2 
 3799000   0.64280983   -8.4140187    647.85072  0.014210992  0.013312138            2 
 3800000   0.64542566   -8.4409723     646.0388  0.014167518  0.013307492            2 
 3801000   0.65616315   -8.4294471    647.76686  0.014201676  0.013302848            1 
 3802000   0.64333371    -8.426332     646.2055  0.014163719  0.013298208            2 
 3803000   0.65148592   -8.4202184    649.43389  0.014230736  0.013293569            3 
 3804000   0.64588209   -8.4143579    647.26984  0.014179588  0.013288935            6 
 3805000   0.63054757   -8.4081281    646.72661  0.014163964  0.013284303            8 
 3806000   0.63495872   -8.4205591    646.98487  0.014165898   0.01327968            6 
 3807000   0.62832309   -8.4230755    647.87515  0.014181664  0.013275049            5 
 3808000   0.64100934   -8.4465289    646.96623  0.014158049  0.013270425            1 
 3809000   0.64382726   -8.4372556    647.66422  0.014169603  0.013265805            2 
 3810000   0.65639135    -8.425703    647.56052  0.014163616  0.013261182            2 
 3811000   0.65847268   -8.4340113    647.80762  0.014165303  0.013256556            3 
 3812000   0.63655195   -8.4212393    648.22981  0.014170816  0.013251929            2 
 3813000   0.63850178   -8.4012103    646.58836  0.014131226  0.013247303            4 
 3814000   0.64853811   -8.4198601    647.62529  0.014150177  0.013242681            2 
 3815000   0.63129855   -8.4250886    648.46596  0.014164831  0.013238062            2 
 3816000   0.62387711   -8.4239495    647.93665   0.01414956  0.013233446            2 
 3817000   0.64646687   -8.4308636    647.08783  0.014127321  0.013228837            3 
 3818000   0.63175513   -8.4351602    648.49291  0.014154289  0.013224223            5 
 3819000   0.64156492   -8.4259311    646.98961   0.01411778  0.013219611            4 
 3820000   0.63651285   -8.4259408    646.62666  0.014106166  0.013215009            1 
 3821000   0.62330998    -8.431112    647.94151   0.01413115  0.013210399            3 
 3822000   0.63898554   -8.4347314    647.56636  0.014119273  0.013205792            1 
 3823000   0.64090158   -8.4103848    647.16371  0.014106803  0.013201183            5 
 3824000   0.63427654   -8.4243448    646.81998  0.014095624  0.013196576            6 
 3825000   0.62672052   -8.4352399    646.83435  0.014092252  0.013191964            2 
 3826000   0.63498944   -8.4433952     646.9803  0.014091747  0.013187361            5 
 3827000   0.65114842   -8.4360292    647.21971  0.014093278   0.01318276            3 
 3828000   0.64084222    -8.440293    647.16783  0.014088467  0.013178164            4 
 3829000   0.64808843   -8.4225415    647.33288   0.01408838  0.013173565            5 
 3830000   0.62414045   -8.4149343    647.37779  0.014085679  0.013168968            2 
 3831000   0.64560215   -8.4147536    647.10772  0.014076127  0.013164373            2 
 3832000     0.656067   -8.4254544    647.49638  0.014080906  0.013159776            3 
 3833000   0.64551986   -8.4392171    647.45886  0.014076417  0.013155192            2 
 3834000    0.6337645   -8.4212777    647.49362  0.014073501  0.013150596            6 
 3835000   0.63171699   -8.4474718    646.39405  0.014045938  0.013146005            2 
 3836000   0.63135605   -8.4323077    647.08186  0.014057218  0.013141418            4 
 3837000   0.63575607   -8.4471345    648.03598  0.014074276  0.013136825            4 
 3838000   0.63334438   -8.4611775    646.05477  0.014027592  0.013132237            5 
 3839000   0.63069283   -8.4530565    646.53236  0.014034305  0.013127649            8 
 3840000   0.63047233   -8.4444432    647.53861  0.014052487   0.01312307            8 
 3841000   0.63669083   -8.4540606    646.67719  0.014030139  0.013118481            4 
 3842000   0.63614793   -8.4515746    645.71505  0.014005619    0.0131139            5 
 3843000    0.6311896   -8.4161074    646.61108  0.014021404  0.013109317            6 
 3844000   0.64343408   -8.4498317    646.35833  0.014012277  0.013104744            5 
 3845000   0.64580881   -8.4522886    647.83428  0.014040622  0.013100174            4 
 3846000   0.63947225   -8.4386504    646.49342  0.014007918  0.013095616            7 
 3847000   0.63872079   -8.4076123    648.34532  0.014044392  0.013091055            4 
 3848000   0.63495395   -8.4147359    648.40867  0.014042114  0.013086501            2 
 3849000   0.64745861    -8.410738    646.74372  0.014002419  0.013081938            2 
 3850000   0.63405635   -8.4408801    646.45181  0.013992463  0.013077373            4 
 3851000   0.63557197   -8.4502307    645.24221  0.013962655  0.013072806            1 
 3852000   0.63667275   -8.4433513    647.10928  0.013999422  0.013068244            2 
 3853000    0.6458761    -8.446495    646.84172  0.013990002  0.013063682            3 
 3854000   0.62706283   -8.4396009    645.46922  0.013956695  0.013059115            6 
 3855000   0.63795706   -8.4364624    647.55811   0.01399823  0.013054547            3 
 3856000   0.63990319   -8.4702434    646.62778  0.013974494  0.013049987            3 
 3857000   0.64168233    -8.441584    648.66156  0.014014812  0.013045425            1 
 3858000   0.63731123    -8.430167    645.86864  0.013950852  0.013040873            2 
 3859000   0.62614172    -8.437809    647.24591  0.013976978   0.01303632            1 
 3860000   0.62124583   -8.4614073    646.84871  0.013964782  0.013031765            3 
 3861000   0.63953517   -8.4196849    646.85585  0.013961319   0.01302722            2 
 3862000   0.63074109   -8.4422231     647.5515  0.013972715  0.013022672            2 
 3863000   0.63903588   -8.4422682    646.56621  0.013947843  0.013018124            3 
 3864000   0.63393007   -8.4551001    646.15665    0.0139354  0.013013576            5 
 3865000   0.63329582   -8.4488192     647.4386  0.013959435  0.013009032            2 
 3866000   0.63724486   -8.4362076     647.4021  0.013955038  0.013004496            1 
 3867000   0.64748608   -8.4524695    647.92955  0.013962795  0.012999957            2 
 3868000   0.65263914   -8.4423888    646.97671  0.013938657  0.012995413            2 
 3869000   0.63740536    -8.438342    646.45497  0.013923817   0.01299087            5 
 3870000   0.63534598    -8.433119    647.64979  0.013945947  0.012986331            3 
 3871000   0.63635499   -8.4342243     646.9224  0.013926686  0.012981791            3 
 3872000   0.63141439   -8.4324873    647.65706    0.0139389  0.012977252            4 
 3873000   0.61642301   -8.4494779    646.24389  0.013904895  0.012972714            4 
 3874000   0.62850908   -8.4654462    646.53332  0.013907531  0.012968167            2 
 3875000   0.62501414   -8.4621442    648.21259  0.013940056  0.012963626            3 
 3876000   0.64160836   -8.4447665    647.40298  0.013919053  0.012959097            4 
 3877000   0.61669883   -8.4529426    647.26495  0.013912496  0.012954563            3 
 3878000   0.62638271   -8.4285351    647.20151  0.013907545  0.012950035            2 
 3879000   0.64124003   -8.4377277    647.78281  0.013916448  0.012945511            3 
 3880000   0.64042667   -8.4518245    646.98022  0.013895623  0.012940995            1 
 3881000   0.63583911   -8.4432526    646.67481  0.013885485  0.012936473            1 
 3882000   0.63700998   -8.4415751    646.46139  0.013877327  0.012931949            2 
 3883000   0.63025626   -8.4602128    647.40459  0.013893995  0.012927428            1 
 3884000   0.62998362   -8.4602347    646.33635  0.013867498  0.012922911            1 
 3885000   0.61531238   -8.4554597    646.22052  0.013861444    0.0129184            2 
 3886000   0.61535944   -8.4450355    647.35165  0.013882134  0.012913888            2 
 3887000   0.63431167   -8.4487985    646.43306  0.013858868  0.012909375            3 
 3888000   0.63215257   -8.4715854    646.79427  0.013863046  0.012904865            2 
 3889000   0.63847469   -8.4718772    647.50985  0.013874815   0.01290035            3 
 3890000   0.62310457   -8.4500163    646.30887   0.01384552  0.012895834            1 
 3891000   0.61561188   -8.4611561    646.26645  0.013841053  0.012891322            2 
 3892000   0.61687975   -8.4352253    646.48033  0.013842076  0.012886817            2 
 3893000   0.62980208   -8.4788484    647.23828  0.013854745  0.012882315            2 
 3894000   0.62109851   -8.4646551    647.74683   0.01386207  0.012877815            2 
 3895000   0.64345223   -8.4488937    646.50827  0.013832013  0.012873315            2 
 3896000   0.62385915   -8.4682235    646.67905  0.013832115  0.012868814            2 
 3897000    0.6299564    -8.462412    646.25432  0.013819483  0.012864318            2 
 3898000   0.63576457   -8.4533998     646.2402  0.013815636  0.012859825            1 
 3899000    0.6141077   -8.4498558    646.36012  0.013814656   0.01285534            3 
 3900000   0.62645207    -8.443737    645.92081  0.013801727  0.012850855            3 
 3901000   0.63628249   -8.4450628    647.36414  0.013829021  0.012846363            5 
 3902000   0.63029767   -8.4396932     646.6918  0.013811118  0.012841878            2 
 3903000   0.63655319    -8.428493    647.35873  0.013821819  0.012837398            3 
 3904000   0.62860987   -8.4741117    646.07722  0.013790924  0.012832919            7 
 3905000   0.62933909    -8.443966    645.27074  0.013770182  0.012828432            4 
 3906000   0.62963536   -8.4421552    647.21809  0.013808203  0.012823954            5 
 3907000   0.63325005   -8.4590534    645.46099  0.013767191   0.01281948           12 
 3908000   0.61956852   -8.4532674      645.661  0.013767933  0.012815009            4 
 3909000   0.63313324    -8.440862    647.79407  0.013809885   0.01281054            6 
 3910000   0.62327666   -8.4679242    647.34586    0.0137968  0.012806075            8 
 3911000   0.62133708   -8.4408057    647.22255  0.013790645   0.01280161            7 
 3912000   0.62859033   -8.4552288    646.12567  0.013763754  0.012797149            4 
 3913000   0.63245754   -8.4719413    646.99345  0.013778717  0.012792687            8 
 3914000   0.63185402   -8.4522683     646.1485  0.013757207   0.01278822            7 
 3915000   0.63903743    -8.458054    645.57551  0.013741497  0.012783752           11 
 3916000    0.6261335   -8.4636267    646.33526  0.013754155  0.012779297            4 
 3917000   0.63023154   -8.4528815    646.93944  0.013763498  0.012774837            4 
 3918000   0.61616859   -8.4609608    646.29112  0.013746195  0.012770383            4 
 3919000   0.63000951   -8.4591053    646.84624  0.013754492  0.012765935            6 
 3920000    0.6283358    -8.456197    646.80423   0.01375009  0.012761486            2 
 3921000   0.63040289   -8.4645622    646.66698  0.013743666  0.012757041            2 
 3922000   0.63533317   -8.4564464     646.2257  0.013730786  0.012752592            2 
 3923000   0.63456263    -8.466085    646.09328  0.013724473  0.012748132            2 
 3924000    0.6277493   -8.4632024    646.05235  0.013720106   0.01274368            3 
 3925000   0.63346791   -8.4542081    645.40688  0.013702906  0.012739238            3 
 3926000   0.63175906   -8.4606152    646.37342  0.013719932  0.012734795            3 
 3927000   0.62739185   -8.4491418    647.41913  0.013738628  0.012730361            2 
 3928000   0.61601546    -8.448906    647.08602  0.013728064  0.012725922            4 
 3929000   0.63181938   -8.4608783    647.31479  0.013729422  0.012721486            5 
 3930000   0.63449116   -8.4510074    646.70895  0.013713082  0.012717049            4 
 3931000   0.62492012   -8.4601751    647.10785   0.01371805  0.012712618            2 
 3932000   0.63235001   -8.4541926    646.12327  0.013693694  0.012708191            5 
 3933000   0.62986153   -8.4491095    646.49709  0.013698133  0.012703759            4 
 3934000   0.62224473   -8.4659679    645.83383  0.013680601  0.012699321            5 
 3935000   0.62985127   -8.4626418    646.26683  0.013686295  0.012694899           11 
 3936000   0.60806071   -8.4585724    646.64273  0.013690776  0.012690473            3 
 3937000   0.60000001   -8.4559392    647.05393  0.013696002  0.012686042            6 
 3938000   0.63194501   -8.4314396    646.79759    0.0136871  0.012681612            3 
 3939000   0.62104159   -8.4553415    647.24911  0.013693177  0.012677191            3 
 3940000   0.61667634   -8.4641105    644.93478  0.013640753  0.012672767            5 
 3941000    0.6185615   -8.4649879    647.89604  0.013699908   0.01266834            4 
 3942000   0.62879691   -8.4658677    646.22735  0.013661157  0.012663919            1 
 3943000   0.61669762   -8.4793304    646.13915  0.013655828  0.012659499            6 
 3944000   0.62880209   -8.4509191     646.2988  0.013655739  0.012655072            3 
 3945000   0.62123411   -8.4872509    645.27837  0.013630722  0.012650653            4 
 3946000   0.61621101   -8.4593649     647.7453  0.013679365  0.012646234            2 
 3947000   0.62492673   -8.5012745    645.40853  0.013626563  0.012641808            3 
 3948000   0.61180591   -8.4702657     645.8131  0.013631651  0.012637388            2 
 3949000    0.6259172   -8.4746348    646.15798  0.013635477  0.012632968            2 
 3950000   0.61141466   -8.4726858    646.63986  0.013642191  0.012628549            4 
 3951000   0.61326615   -8.4798604    645.18029  0.013607953  0.012624133            4 
 3952000   0.61532541   -8.4693422     646.0774  0.013623427  0.012619716            2 
 3953000    0.6230301   -8.4503274    646.37964  0.013626352  0.012615306            3 
 3954000   0.61990734   -8.4745989    645.78489  0.013610371  0.012610893            2 
 3955000   0.61394387   -8.4811285     645.2336  0.013595314  0.012606478            1 
 3956000    0.6371203   -8.4829729     646.4242  0.013616957  0.012602068            2 
 3957000   0.62239197   -8.4716798    646.24933  0.013609833  0.012597656            2 
 3958000   0.61100095   -8.4865374    645.17171  0.013583706  0.012593249            2 
 3959000   0.61124911   -8.4665083    644.87396  0.013574008  0.012588845            4 
 3960000    0.6039809   -8.4772635    644.99773  0.013573185  0.012584438            3 
 3961000   0.61150007   -8.4878075    646.47996  0.013600942  0.012580035            2 
 3962000   0.61785871   -8.4775553    645.83817   0.01358401  0.012575642            6 
 3963000   0.63629898   -8.4684347    645.76564  0.013579057  0.012571248            5 
 3964000   0.63266834   -8.4794037    645.70675  0.013574394  0.012566848            5 
 3965000   0.62128895   -8.4828787    646.66409  0.013591091  0.012562452            7 
 3966000   0.61923439   -8.4758121    646.44932  0.013583151  0.012558059            4 
 3967000   0.60608858   -8.4900472     646.4511  0.013579764  0.012553666            2 
 3968000   0.61230163   -8.4682819    646.26508  0.013572435  0.012549268            1 
 3969000   0.62061648   -8.4732643    645.35987   0.01355001  0.012544885            4 
 3970000   0.61610028   -8.4938265    645.87621  0.013557435  0.012540494            5 
 3971000   0.62862099   -8.4843257    645.59982  0.013548221  0.012536116            4 
 3972000   0.62595993   -8.4895333    646.14498  0.013556247  0.012531743            5 
 3973000   0.61080524   -8.4758454    646.33318  0.013556783  0.012527366            5 
 3974000   0.62971125   -8.4887338    646.65377  0.013560094  0.012522996            6 
 3975000   0.61551137   -8.4737625    646.67535  0.013557135   0.01251863            4 
 3976000   0.63403595   -8.4674799    645.35449  0.013526041  0.012514256            2 
 3977000    0.6186495   -8.4679974    646.65652  0.013549923  0.012509891            2 
 3978000   0.61405784   -8.4936254    645.55315  0.013523403  0.012505531            6 
 3979000   0.60481876   -8.4823372    646.14728  0.013532447  0.012501165            5 
 3980000   0.61430644    -8.471275    646.23076  0.013530795  0.012496802            2 
 3981000   0.61042464   -8.4896045    645.53018  0.013512731  0.012492437            3 
 3982000   0.63038987   -8.4735448    645.51782  0.013509079  0.012488075            3 
 3983000   0.62198451   -8.4701372    645.83396  0.013512302  0.012483716            2 
 3984000   0.62018018   -8.4720459    645.75711  0.013507302   0.01247936            4 
 3985000   0.61128431   -8.4734102    645.20311  0.013492328  0.012475009            4 
 3986000   0.61706735   -8.5008235    646.31326  0.013512152  0.012470654            3 
 3987000   0.61139376   -8.4776869    646.73606    0.0135176  0.012466291            6 
 3988000   0.60840032   -8.4935575    644.72081    0.0134721  0.012461936            2 
 3989000   0.62585223   -8.4800785    645.81372  0.013491554  0.012457581            3 
 3990000   0.60757772   -8.4977415    644.66521  0.013464186  0.012453235            3 
 3991000   0.61174424    -8.487116     646.0643  0.013490025   0.01244888            3 
 3992000   0.60440605   -8.4661774    647.29169  0.013512268  0.012444543            3 
 3993000   0.61509669   -8.5081431    645.90686  0.013479983  0.012440201            4 
 3994000   0.61239626   -8.4817181    645.44338  0.013466937  0.012435857            4 
 3995000   0.61324391   -8.4760385    646.51924  0.013486008  0.012431517            2 
 3996000   0.60288126   -8.4848069    644.94398  0.013449783   0.01242718            3 
 3997000   0.61554718   -8.5082282      645.578  0.013459636  0.012422843            3 
 3998000   0.61707619   -8.4848464    646.31315  0.013471593  0.012418515            1 
 3999000    0.6034112   -8.4873789    645.78522  0.013457223  0.012414185            2 
 4000000   0.60839504   -8.4772802    645.43173  0.013446494  0.012409854            3 
 4001000   0.62406006   -8.4746543     645.0866  0.013435945  0.012405525            3 
 4002000   0.62004297   -8.5092119    645.53104  0.013441842    0.0124012            2 
 4003000   0.61764034   -8.4813124    645.71385   0.01344229  0.012396875            1 
 4004000     0.610716   -8.4882592    645.45806  0.013433609  0.012392547            2 
 4005000   0.61100523    -8.506877    645.91896  0.013439845  0.012388225            2 
 4006000   0.61520987   -8.4638789    646.34346  0.013445321  0.012383907            3 
 4007000   0.60538188   -8.4727889    646.46092  0.013444408   0.01237959            4 
 4008000   0.59655816   -8.4802456    646.62124  0.013444387  0.012375269            3 
 4009000   0.61550172   -8.4815036    645.72129  0.013422327   0.01237095            1 
 4010000   0.61518336   -8.4922717     645.0826  0.013405707  0.012366632            4 
 4011000   0.60952295   -8.4569359    646.81719  0.013438402  0.012362316            2 
 4012000   0.60948261   -8.5178339     646.0958  0.013420069  0.012358007            2 
 4013000   0.61177346   -8.4783964    645.13489  0.013396771  0.012353692            4 
 4014000   0.60259629   -8.4980412    645.03476  0.013391354  0.012349383            2 
 4015000   0.60875872   -8.5078927    645.89962   0.01340597  0.012345066            3 
 4016000   0.60640347   -8.4907114    645.28053  0.013389785  0.012340756            1 
 4017000    0.6134832   -8.4937829    644.18206  0.013363664  0.012336451            4 
 4018000   0.60718279   -8.5078893     644.2224  0.013361175  0.012332147            4 
 4019000   0.60710327   -8.4898046    645.18203  0.013377748  0.012327842            5 
 4020000   0.61797951   -8.4880986    646.19289  0.013395375  0.012323546            3 
 4021000    0.6085681   -8.5022619    645.41224  0.013375865  0.012319244            4 
 4022000   0.60853578   -8.4964912    646.10139  0.013386818  0.012314943            3 
 4023000   0.61484509   -8.5066029    645.65638  0.013374272  0.012310645            4 
 4024000   0.60919446   -8.5006741    646.33559  0.013385015  0.012306339            1 
 4025000   0.60319371   -8.5124111      645.999   0.01337472  0.012302041            2 
 4026000   0.60810784    -8.518784    645.49281  0.013360921  0.012297747            1 
 4027000   0.59660775   -8.4904156    645.97132  0.013367505   0.01229346            3 
 4028000   0.61636337   -8.5074308    644.96758  0.013343421  0.012289168            2 
 4029000   0.60081093   -8.5028077    645.13541   0.01334358  0.012284884            2 
 4030000   0.60921265   -8.4977625    645.51257  0.013348068  0.012280596            2 
 4031000   0.61064092   -8.4846032    644.34637  0.013320648  0.012276312            2 
 4032000    0.6029222   -8.5019988     645.5518  0.013342258  0.012272034            2 
 4033000   0.60516263   -8.5184001    645.93275  0.013346821  0.012267753            2 
 4034000   0.59008191   -8.4982855    645.96652   0.01334421  0.012263471            3 
 4035000   0.61836464   -8.4939204    645.83195  0.013338124  0.012259194            2 
 4036000   0.61329886   -8.5036843    645.95978  0.013337458  0.012254924            3 
 4037000   0.60134555   -8.5159747    645.63179  0.013327384  0.012250648            3 
 4038000   0.59989566   -8.5095438     646.2412   0.01333666  0.012246372            2 
 4039000   0.59228675   -8.4930366    646.68178  0.013342448  0.012242106            1 
 4040000   0.61339519   -8.5116219    645.41629  0.013313042   0.01223783            2 
 4041000   0.60910029   -8.5032208    646.14501  0.013324775  0.012233563            2 
 4042000   0.59804738   -8.5073241    646.28672    0.0133244  0.012229305            2 
 4043000   0.61539016    -8.492188    645.02903  0.013295182  0.012225041            3 
 4044000    0.6090615   -8.5096802    645.05784  0.013292488  0.012220781            2 
 4045000   0.59715167    -8.508084    646.52087  0.013319342  0.012216523            4 
 4046000   0.60992843   -8.4879531     646.0549  0.013306453  0.012212267            2 
 4047000    0.5946851   -8.5173308    645.28791  0.013287372   0.01220801            7 
 4048000   0.59311764   -8.5233776    645.22762  0.013282848  0.012203755            4 
 4049000   0.59848677   -8.5196245    646.07715  0.013297052  0.012199501            3 
 4050000   0.58943572   -8.5120897    646.02225  0.013292639  0.012195254            2 
 4051000   0.61052261   -8.5267027    646.09689  0.013290893  0.012191013            3 
 4052000    0.6101282   -8.5192007    646.35328  0.013292886  0.012186765            3 
 4053000   0.60877148   -8.5048169    645.74194  0.013277036  0.012182515            4 
 4054000   0.60640765     -8.49931    645.99873   0.01327904  0.012178277            3 
 4055000   0.59429782   -8.5381948     645.5003  0.013265522  0.012174034            2 
 4056000    0.6014652   -8.5032178    644.98166  0.013251596  0.012169793            4 
 4057000   0.59991225   -8.5220467    645.24834  0.013253807  0.012165551            2 
 4058000   0.59916883   -8.5094385    644.94085  0.013244226  0.012161314            2 
 4059000   0.59038422   -8.5312733    645.10902  0.013244416  0.012157075            3 
 4060000   0.61416645   -8.5221333    645.01914  0.013239309  0.012152836            2 
 4061000   0.62026187   -8.5033028     645.7007  0.013250035  0.012148602            3 
 4062000   0.60300322   -8.5286054    647.15093  0.013276525  0.012144367            3 
 4063000   0.59735662   -8.5045581    645.78797  0.013245303   0.01214014            4 
 4064000   0.60784437   -8.5107717    644.17555   0.01320898  0.012135909            1 
 4065000    0.5997456   -8.5199075    646.24318  0.013248118  0.012131689            4 
 4066000    0.5995623   -8.5164108    645.93043   0.01323845  0.012127474            5 
 4067000   0.59451688    -8.523808    645.10078  0.013218195  0.012123257            2 
 4068000   0.60559816   -8.4996926    644.69818  0.013206698  0.012119037            5 
 4069000   0.61440351   -8.5257101    645.51745  0.013220231  0.012114819            3 
 4070000    0.5913892   -8.5398713    645.31133  0.013212763  0.012110601            6 
 4071000   0.60083674     -8.52651    645.77995   0.01321911  0.012106384            2 
 4072000   0.60643605   -8.5421387      643.939  0.013178188  0.012102162            3 
 4073000   0.57848428   -8.5346044    645.10352  0.013198779   0.01209794            4 
 4074000   0.58201756    -8.533425    645.40942  0.013201796  0.012093722            2 
 4075000   0.61696306   -8.5365108    645.51007  0.013200615  0.012089506            4 
 4076000   0.60680392   -8.5370412    645.26721  0.013192411  0.012085289            5 
 4077000   0.59108656   -8.5260416    645.38985  0.013191682  0.012081076            3 
 4078000   0.60496886   -8.5066884    645.18507  0.013184263  0.012076875            2 
 4079000    0.6046556    -8.498942    644.24234   0.01316177  0.012072672            2 
 4080000   0.59159863   -8.5221378    645.34844  0.013181136  0.012068469            2 
 4081000   0.59278574   -8.5113371    645.14385  0.013173729  0.012064268            5 
 4082000   0.58822601   -8.5227762    646.34888  0.013195102  0.012060076            2 
 4083000   0.58910235   -8.5275438    644.18626  0.013147732  0.012055876            2 
 4084000   0.59471941   -8.5074691    645.09213  0.013162997  0.012051685            2 
 4085000    0.6036709   -8.5064951    646.32978  0.013185022  0.012047491            3 
 4086000   0.60130357   -8.5136071    645.69558  0.013168861  0.012043298            2 
 4087000   0.60236608   -8.5296007    644.56114  0.013142508  0.012039103            2 
 4088000   0.60014804   -8.5327868    644.26499  0.013133256  0.012034914            3 
 4089000   0.59820048   -8.5213252    644.75073  0.013139943  0.012030731            2 
 4090000   0.59993302   -8.5139379     645.2502  0.013146907  0.012026542            5 
 4091000   0.60368507   -8.5189132    644.83405  0.013135217  0.012022358            2 
 4092000   0.59471731   -8.5358702    644.72902  0.013129868   0.01201817            2 
 4093000   0.59665596   -8.5171736    644.29515  0.013117826  0.012013988            5 
 4094000   0.58816121    -8.509679    646.14166  0.013152208  0.012009809            1 
 4095000   0.57899168    -8.527677    645.21314  0.013130101  0.012005625            2 
 4096000   0.59399268   -8.5390399    645.96411  0.013142174  0.012001446            2 
 4097000   0.59044845   -8.5249399    645.49407  0.013129405  0.011997274            1 
 4098000   0.59963898   -8.5304806    645.56747  0.013127694  0.011993105            2 
 4099000   0.59829425   -8.5214038    645.20934   0.01311721  0.011988938            2 
 4100000   0.59129678   -8.5071927    644.19578   0.01309341  0.011984766            2 
 4101000    0.6002724   -8.5161901    644.70847  0.013100635  0.011980598            2 
 4102000   0.60849569   -8.5147705     645.1153  0.013105706  0.011976433            1 
 4103000   0.60244239   -8.5134957    644.34884  0.013086945  0.011972264            1 
 4104000   0.59825997   -8.5223718    644.91108  0.013095173  0.011968097            1 
 4105000   0.60853124   -8.5249165     645.7167  0.013108337  0.011963937            3 
 4106000   0.58465946   -8.5205081    644.64328  0.013083359  0.011959777            2 
 4107000   0.60038273   -8.5109782    645.52873   0.01309814  0.011955626            1 
 4108000   0.59780956   -8.5125039    645.24014  0.013089097  0.011951467            2 
 4109000   0.60509649   -8.5409257    644.91362   0.01307929  0.011947315            3 
 4110000   0.58412075    -8.521978    645.48567  0.013087706  0.011943158            2 
 4111000   0.59013866   -8.5458494    645.05034  0.013075698  0.011939008            4 
 4112000   0.59683929   -8.5278147    645.29801  0.013077537  0.011934858            1 
 4113000   0.59026729   -8.5324465    644.64502  0.013061128  0.011930706            2 
 4114000   0.58713164    -8.511503    644.67062  0.013058471  0.011926555            4 
 4115000   0.60176723   -8.5210921    645.52859  0.013072673  0.011922409            1 
 4116000   0.59497269   -8.5292752    645.45417   0.01306799  0.011918268            2 
 4117000   0.59420665   -8.5198881    645.75099  0.013070824  0.011914128            2 
 4118000   0.60481311   -8.5240969    644.73178  0.013047025  0.011909987            3 
 4119000   0.58500404   -8.5294598    645.11793   0.01305167  0.011905844            2 
 4120000    0.5919765   -8.5501768    644.22474  0.013030436  0.011901699            3 
 4121000   0.58765766   -8.5485909    645.77094   0.01305854  0.011897562            3 
 4122000   0.59678567   -8.5379783    644.93935   0.01303856  0.011893422            2 
 4123000   0.58859919   -8.5483205    643.85964  0.013013575  0.011889289            5 
 4124000   0.58454512   -8.5232064    645.02487  0.013033965   0.01188515            5 
 4125000   0.59496846   -8.5293523    645.70184  0.013044482  0.011881016            4 
 4126000   0.59379019   -8.5358136      644.316   0.01301333  0.011876881            3 
 4127000   0.58327157   -8.5473603    644.27688  0.013009387  0.011872748            1 
 4128000   0.59005176   -8.5123352    644.62195  0.013013201  0.011868622            2 
 4129000   0.59854779   -8.5158466    644.05823  0.012998673  0.011864499            3 
 4130000   0.57358812   -8.5454291     645.0393  0.013015321  0.011860374            2 
 4131000   0.58773844   -8.5430275    645.01647   0.01301171  0.011856251            1 
 4132000   0.59343164   -8.5500209     644.7364  0.013002912   0.01185213            2 
 4133000   0.58989052   -8.5201253     644.8563  0.013002184  0.011848013            2 
 4134000   0.58447078   -8.5073322    644.75144  0.012996925  0.011843893            2 
 4135000   0.59152597   -8.5360587    644.50931  0.012988902  0.011839782            3 
 4136000   0.59475229   -8.5252489     645.5616  0.013006963  0.011835672            2 
 4137000   0.58706478   -8.5306873    645.06508  0.012993817  0.011831565            3 
 4138000   0.58393519   -8.5300049    644.17961  0.012972845  0.011827455            3 
 4139000   0.59119005   -8.5460549    644.39339  0.012974015  0.011823349            2 
 4140000   0.59784847   -8.5108796    645.43182  0.012991784  0.011819242            3 
 4141000   0.57591584   -8.5280957    645.40064  0.012988019  0.011815134            2 
 4142000   0.60180566   -8.5327735    644.62789  0.012969336  0.011811029            1 
 4143000   0.58634169   -8.5291836    644.97561    0.0129732  0.011806929            3 
 4144000    0.5909834   -8.5330442    644.21064  0.012954686  0.011802827            2 
 4145000   0.58843801    -8.551997    644.56853  0.012958756  0.011798726            3 
 4146000   0.58156654   -8.5363523    645.76721  0.012979724  0.011794626            3 
 4147000   0.59291882   -8.5178175    644.16309  0.012944359  0.011790529            3 
 4148000   0.59158063   -8.5423252    645.25709  0.012963217  0.011786429            3 
 4149000   0.57958951   -8.5347056    645.05371  0.012956008  0.011782336            3 
 4150000   0.59653085   -8.5344267    645.20365  0.012955897  0.011778248            4 
 4151000   0.59359949   -8.5356714    644.51417  0.012938934  0.011774156            3 
 4152000   0.60689564   -8.5382747    645.54763   0.01295656  0.011770067            3 
 4153000   0.58999971    -8.536463    644.08624  0.012924116  0.011765982            2 
 4154000   0.60531548   -8.5391555    644.54547  0.012930217    0.0117619            3 
 4155000   0.58645156   -8.5255298     644.3572  0.012923329   0.01175782            1 
 4156000   0.58864791   -8.5407562    644.58552  0.012924798  0.011753736            2 
 4157000    0.5925323   -8.5421798    644.43019  0.012918575  0.011749645            1 
 4158000   0.58523587   -8.5297686    644.99633  0.012926814  0.011745561            3 
 4159000    0.5833227    -8.541951    643.86963  0.012901131  0.011741478            2 
 4160000    0.5870803   -8.5327426    644.53103  0.012911279  0.011737401            1 
 4161000   0.59407283   -8.5561924    643.72516  0.012892036  0.011733324            1 
 4162000   0.58753587   -8.5337198    646.24809  0.012939454  0.011729254            1 
 4163000     0.576365   -8.5534584    644.58742  0.012903103  0.011725179            4 
 4164000   0.57209755   -8.5306349    644.18619  0.012891975  0.011721102            2 
 4165000   0.58778336   -8.5400501    644.74959  0.012900152  0.011717034            3 
 4166000   0.58278852   -8.5591162    645.42101  0.012910486  0.011712965            2 
 4167000   0.58384603   -8.5375316    645.77049  0.012914377  0.011708898            1 
 4168000    0.5760562   -8.5428578    644.90056  0.012893885  0.011704837            3 
 4169000   0.59716294   -8.5652357    643.91206  0.012871033  0.011700774            3 
 4170000   0.59522261   -8.5382072    644.70657  0.012883824  0.011696713            1 
 4171000   0.59207623   -8.5453539    645.03138  0.012887225  0.011692657            3 
 4172000   0.57341648   -8.5500487    644.65257  0.012876569  0.011688601            4 
 4173000   0.58066377    -8.548882    645.29668  0.012886346  0.011684545            2 
 4174000   0.58127015   -8.5656551    645.21994  0.012881727  0.011680492            2 
 4175000   0.57304168   -8.5543264    644.60165    0.0128663  0.011676434            1 
 4176000    0.5996758   -8.5636314    645.33746  0.012877903  0.011672383            1 
 4177000   0.59292738   -8.5636934    645.68451  0.012881744  0.011668327            3 
 4178000   0.57743379   -8.5273632     644.0937   0.01284693  0.011664273            4 
 4179000   0.57486829   -8.5623582    644.02719   0.01284253  0.011660224            5 
 4180000   0.57856027   -8.5496604    644.35784  0.012846049   0.01165618            1 
 4181000   0.57273505   -8.5366302    644.40765   0.01284397  0.011652135            2 
 4182000   0.58922114   -8.5592869     644.0294  0.012833361  0.011648092            6 
 4183000   0.59213029   -8.5549578    643.82241   0.01282617  0.011644047            2 
 4184000    0.5872429   -8.5480064    644.97799   0.01284612  0.011640005            1 
 4185000   0.57596689   -8.5458392    645.28937  0.012849251  0.011635963            3 
 4186000   0.59310616    -8.543066    643.85814  0.012817689  0.011631926            2 
 4187000   0.57879403   -8.5574036    643.40429  0.012805594  0.011627887            1 
 4188000   0.57274652   -8.5517953    643.38892  0.012802231  0.011623848            2 
 4189000   0.57752135   -8.5554736    644.25978  0.012816499  0.011619815            3 
 4190000   0.58446538   -8.5538508    644.40863  0.012816401  0.011615782            2 
 4191000   0.57813828   -8.5421304      644.568  0.012816512  0.011611753            3 
 4192000   0.57864312   -8.5632415     645.2129  0.012826274  0.011607724            2 
 4193000     0.574008   -8.5289366    644.39421  0.012806944  0.011603694            1 
 4194000   0.57560115    -8.563691    644.38739  0.012803755  0.011599669            2 
 4195000   0.58228211   -8.5754498    642.92133   0.01277158  0.011595641            2 
 4196000   0.57665557   -8.5565466     643.9118  0.012788207  0.011591617            2 
 4197000   0.58427673   -8.5537464    644.24315  0.012791739  0.011587594            2 
 4198000   0.58432169   -8.5663719    644.78089  0.012799367  0.011583572            2 
 4199000    0.5692353   -8.5492425    644.64377  0.012793597  0.011579553            1 
 4200000    0.5806724   -8.5445058    644.30718  0.012783873  0.011575538            2 
 4201000   0.57310148   -8.5391021    644.35266  0.012781732  0.011571522            1 
 4202000   0.57968678   -8.5648057    644.20471  0.012775756  0.011567504            4 
 4203000   0.57877871   -8.5638554    645.12727  0.012791008  0.011563489            4 
 4204000   0.57395568   -8.5564395    644.01007   0.01276582  0.011559479            2 
 4205000   0.57555266   -8.5629693     643.6202  0.012755057  0.011555469            2 
 4206000   0.57024459   -8.5592925     644.0846  0.012761226  0.011551455            2 
 4207000   0.58643909   -8.5707511    644.92864  0.012774912  0.011547446            3 
 4208000   0.56388933   -8.5743231    643.87881  0.012751085  0.011543437            5 
 4209000   0.56694377   -8.5691058    643.69571  0.012744431   0.01153943            5 
 4210000   0.58190986   -8.5758834    643.61596  0.012739825  0.011535424            1 
 4211000   0.57809275   -8.5736101    644.40053  0.012752326  0.011531419            3 
 4212000   0.56859238    -8.565801    644.87028  0.012758592  0.011527421            4 
 4213000   0.57498667   -8.5489392    644.64689  0.012751145  0.011523429            1 
 4214000   0.58312464   -8.5704395    643.59866   0.01272739  0.011519439            3 
 4215000   0.57962655   -8.5595786    643.47958  0.012722016  0.011515445            3 
 4216000   0.58459269    -8.577543    643.94783  0.012728254  0.011511453            4 
 4217000   0.58129407   -8.5808812    643.65148   0.01271938  0.011507456            3 
 4218000   0.57620959    -8.566907    644.49457   0.01273302  0.011503466            1 
 4219000   0.56315702   -8.5731692    643.37901  0.012707968  0.011499482            3 
 4220000   0.57895561   -8.5714314    644.57075   0.01272849    0.0114955            2 
 4221000   0.58408919   -8.5607457      644.824  0.012730475  0.011491524            5 
 4222000    0.5826537   -8.5591376    643.54071   0.01270213  0.011487541            3 
 4223000    0.5813216   -8.5780375    642.52858   0.01267915  0.011483559            2 
 4224000   0.58669288   -8.5664806    645.55896  0.012735933  0.011479575            5 
 4225000   0.57262089   -8.5695938    644.30044  0.012708095  0.011475604            4 
 4226000   0.56757398   -8.5856959    643.62926  0.012691853  0.011471625            1 
 4227000   0.57348117   -8.5517189    642.90257  0.012674524  0.011467647            1 
 4228000   0.58178159   -8.5508129    644.70932  0.012707137  0.011463675            2 
 4229000   0.57615883   -8.5822563    644.58229  0.012701629  0.011459705            2 
 4230000   0.57592636   -8.5701738    644.75055  0.012701942  0.011455734            3 
 4231000   0.56733757   -8.5646732     644.0445  0.012685033  0.011451764            1 
 4232000   0.58211579   -8.5528718    644.10254  0.012683178  0.011447799            3 
 4233000   0.58164856   -8.5598794    644.38353  0.012685714  0.011443838            2 
 4234000   0.59023166   -8.5801657     643.3967  0.012663295  0.011439879            1 
 4235000   0.57375956   -8.5877417    644.54277  0.012682857  0.011435922            1 
 4236000   0.57346342   -8.5436562    645.26069  0.012693986  0.011431967            3 
 4237000   0.58573853    -8.562106     644.1339  0.012668828  0.011428013            1 
 4238000   0.58762002   -8.5604424    644.08885  0.012664953  0.011424067            2 
 4239000     0.582174   -8.5585749    645.32106  0.012686189  0.011420124            3 
 4240000   0.56458632   -8.5868517     643.5101  0.012647604  0.011416171            4 
 4241000   0.56678489   -8.5739337     644.1654  0.012657498  0.011412221            2 
 4242000   0.57583358   -8.5776429    643.29224  0.012637361  0.011408273            2 
 4243000   0.57217561   -8.5769297    644.26272  0.012653443  0.011404324            5 
 4244000   0.57781169    -8.546389    643.52071  0.012635892  0.011400381            2 
 4245000   0.55868415   -8.5672336    644.25101  0.012647252  0.011396439            4 
 4246000   0.57817241   -8.5755816     643.8175  0.012635765  0.011392501            4 
 4247000   0.56795623   -8.5665406    643.61068  0.012628732  0.011388559            1 
 4248000   0.57692615   -8.5683636    643.96373  0.012632685  0.011384622            2 
 4249000   0.56722794     -8.57048    644.00518  0.012630524  0.011380683            3 
 4250000   0.58168236   -8.5644946    644.74827  0.012642123  0.011376753            2 
 4251000   0.57263956   -8.6012471    643.18438  0.012608492  0.011372819            2 
 4252000   0.55846775   -8.5630376    644.33687  0.012628114  0.011368888            4 
 4253000   0.57422627   -8.5942075    644.78488  0.012633923  0.011364961            4 
 4254000   0.58436889    -8.577093    643.65301   0.01260878  0.011361032            2 
 4255000   0.56568344   -8.5527312    644.01182  0.012612844  0.011357103            3 
 4256000   0.55208541   -8.5694935    644.05488  0.012610724  0.011353179            6 
 4257000   0.57494681   -8.5717802    643.35937  0.012594146  0.011349255            5 
 4258000    0.5660081   -8.5665478    644.16603  0.012606976  0.011345336            1 
 4259000   0.56189202   -8.5757831    643.50813  0.012591143  0.011341415            1 
 4260000   0.57560107   -8.5728681    644.12536  0.012600261  0.011337501            2 
 4261000   0.57411363   -8.5784829    643.89903  0.012592878  0.011333586            1 
 4262000   0.57436527   -8.5683487    645.14136  0.012614214  0.011329674            2 
 4263000    0.5693063   -8.5795165     643.9365  0.012587702  0.011325758            2 
 4264000   0.55956341   -8.5577803    644.27332  0.012591333  0.011321844            1 
 4265000   0.57522728    -8.579664    644.01667  0.012583366  0.011317936            4 
 4266000   0.56821471   -8.5807169    643.50658  0.012570452  0.011314035            1 
 4267000   0.56795148   -8.5695526     643.5475  0.012568305  0.011310133            1 
 4268000   0.56044738   -8.5776455    644.38174  0.012581649   0.01130623            3 
 4269000   0.56548501   -8.5749365    643.21554  0.012555937  0.011302325            2 
 4270000   0.55048786    -8.573127    643.29067  0.012554463  0.011298426            2 
 4271000   0.56651458   -8.5702553    643.75608  0.012560604  0.011294523            2 
 4272000   0.57199437   -8.5726614    643.42186  0.012551144  0.011290625            1 
 4273000    0.5599032   -8.5724414    642.99665  0.012539914  0.011286733            2 
 4274000   0.56578311   -8.5793883    642.56843  0.012528631  0.011282838            1 
 4275000   0.56748443   -8.5540409    644.39249  0.012561257  0.011278948            2 
 4276000   0.56067998   -8.5758315    643.77909  0.012546365   0.01127506            2 
 4277000   0.56843642   -8.5519568    643.06979  0.012529612  0.011271166            3 
 4278000   0.57483828   -8.5775866    643.86977  0.012542266  0.011267277            3 
 4279000   0.56283444    -8.567005    644.64447  0.012554422   0.01126339            3 
 4280000   0.56739925   -8.5764506    644.21735  0.012543173  0.011259503            1 
 4281000   0.57088487   -8.5671193    644.48109  0.012545377  0.011255616            3 
 4282000   0.56962625   -8.5770653    642.94711  0.012512594  0.011251732            3 
 4283000   0.55816068   -8.5925586    643.46206  0.012519691  0.011247851            2 
 4284000   0.56791125   -8.5841349    643.83852  0.012524092  0.011243972            4 
 4285000   0.55540036   -8.5838501    646.07914  0.012564744  0.011240091            2 
 4286000   0.55652258    -8.594611    643.37548  0.012509245  0.011236214            3 
 4287000   0.56859066   -8.5812354    644.19057  0.012522171  0.011232338            2 
 4288000    0.5529752   -8.5736948    643.69157  0.012509553  0.011228469            6 
 4289000   0.54326454   -8.5977004    644.12091  0.012514978  0.011224594            3 
 4290000   0.57730743   -8.5905109    643.14635   0.01249313  0.011220719            1 
 4291000   0.56553833   -8.5799016    643.31618  0.012493517  0.011216848            5 
 4292000   0.56077995   -8.5801737    643.22977  0.012488928  0.011212982            2 
 4293000   0.56065497   -8.5895804    643.60627  0.012493328  0.011209108            1 
 4294000   0.55580612   -8.5879628    642.83912   0.01247553  0.011205235            1 
 4295000   0.56388618   -8.5684421    644.19087  0.012498853  0.011201369            2 
 4296000   0.54616164   -8.5861221    643.00006  0.012472844  0.011197502            4 
 4297000   0.56485257   -8.6118385    643.02282  0.012470383  0.011193633            4 
 4298000   0.56223724   -8.5933444    642.26791  0.012452845  0.011189765            4 
 4299000   0.56139273   -8.6069187    643.41962  0.012472273  0.011185898            1 
 4300000   0.56845802   -8.5926622    643.34318  0.012467891  0.011182032            3 
 4301000   0.57057145   -8.5780968    642.83353  0.012455118  0.011178173            4 
 4302000   0.57195003   -8.5689363    643.45494   0.01246426   0.01117431            2 
 4303000   0.56847479   -8.5977876    642.63347  0.012445454  0.011170455            2 
 4304000   0.56387784   -8.6024849    644.02374  0.012469481  0.011166596            3 
 4305000   0.56455778   -8.5980444     642.7843  0.012442592  0.011162742            4 
 4306000     0.562294    -8.582881     642.9523  0.012442954  0.011158888            3 
 4307000   0.56364955   -8.5798095      644.806  0.012475931  0.011155035            4 
 4308000   0.55318185   -8.5881414     643.1683  0.012441355  0.011151184            3 
 4309000   0.56211514   -8.5888065     642.5445  0.012426404  0.011147339            2 
 4310000   0.57631899   -8.6062199    643.11265  0.012434506  0.011143489            3 
 4311000   0.56487522   -8.5877809    642.60441  0.012421797  0.011139643            2 
 4312000    0.5566102   -8.6074175     642.7922  0.012422546  0.011135798            2 
 4313000   0.54389943   -8.5915034    643.79583  0.012439057  0.011131959            2 
 4314000   0.56979027   -8.6117749     642.4905  0.012410958  0.011128118            1 
 4315000   0.57204253   -8.5941752    643.26709   0.01242308  0.011124278            3 
 4316000    0.5569021   -8.5710865    643.49329  0.012424569  0.011120435            2 
 4317000   0.56174767   -8.5936843    642.91125  0.012410456  0.011116599            4 
 4318000   0.56886541   -8.5940039     643.1173  0.012411558  0.011112763            4 
 4319000   0.58261016   -8.5951072    643.24617  0.012411171  0.011108931            2 
 4320000   0.55447825   -8.6011488    644.00237  0.012422885  0.011105101            2 
 4321000   0.55243643    -8.582743    643.87648  0.012417582  0.011101271            2 
 4322000   0.57374027   -8.5939543    643.21254  0.012401908   0.01109744            1 
 4323000   0.55837308   -8.5870304    643.48133   0.01240422  0.011093609            2 
 4324000   0.56265819   -8.5952583    643.42854  0.012400334   0.01108978            5 
 4325000   0.56167908   -8.5965825    643.39184   0.01239676  0.011085954            3 
 4326000   0.57044338   -8.5949388    643.30307  0.012392184  0.011082134            1 
 4327000   0.56070132   -8.5967941    641.53123  0.012355197  0.011078311            2 
 4328000    0.5611768   -8.5831597    642.34784  0.012368065  0.011074491            4 
 4329000   0.54994223   -8.6046887    643.01203  0.012377994  0.011070667            2 
 4330000    0.5504509   -8.5937308    643.29927  0.012380663  0.011066847            2 
 4331000   0.56952411   -8.5854485    642.87513  0.012369644   0.01106303            2 
 4332000   0.55588036   -8.5866445    643.90792  0.012386656  0.011059216            2 
 4333000   0.54640521    -8.598617    644.27165  0.012390793  0.011055402            2 
 4334000   0.56912572   -8.6150611    643.08732  0.012365162  0.011051589            2 
 4335000   0.55828773   -8.6011099     643.3677  0.012367699  0.011047778            2 
 4336000   0.55868994   -8.6013096     644.4023   0.01238473  0.011043971            2 
 4337000    0.5612237   -8.5932035    643.07225  0.012356319  0.011040168            2 
 4338000   0.55818759    -8.600216    641.74505  0.012327975  0.011036363            2 
 4339000   0.56455628    -8.598913    643.58846  0.012360537  0.011032555            3 
 4340000   0.56474905   -8.6006827    643.66168  0.012359095   0.01102875            1 
 4341000   0.55791013     -8.60525    643.85285  0.012359918  0.011024951            3 
 4342000   0.56441062   -8.5854256    642.79199  0.012336711  0.011021151            3 
 4343000   0.55707872   -8.6096782     643.1885  0.012341479  0.011017353            1 
 4344000   0.56165686   -8.6013194    643.93021  0.012352866  0.011013558            2 
 4345000   0.56174849   -8.6004652    642.47554  0.012322124  0.011009767            1 
 4346000   0.55565825   -8.5892408    644.09406  0.012350323  0.011005979            2 
 4347000   0.55755201   -8.5958139    642.77329  0.012322163   0.01100219            1 
 4348000   0.55015779   -8.5892084    642.66711  0.012317294    0.0109984            2 
 4349000   0.54480671   -8.6019272    644.18112  0.012343472  0.010994611            1 
 4350000   0.55743161   -8.6089645    643.39816  0.012325635  0.010990825            3 
 4351000   0.55443618   -8.5922997    643.49934   0.01232474  0.010987039            2 
 4352000    0.5539501   -8.5923432    642.17285  0.012296508  0.010983253            3 
 4353000   0.54932834   -8.5966652    641.86003  0.012287695  0.010979469            1 
 4354000   0.56654325   -8.5881092    643.16791  0.012309905   0.01097569            4 
 4355000   0.54903951   -8.6092727    642.98169  0.012303515  0.010971911            1 
 4356000   0.54671349   -8.5954409    642.55757  0.012292577  0.010968136            3 
 4357000   0.54373988   -8.6117569     643.5078   0.01230793  0.010964362            1 
 4358000   0.56067322   -8.6099298    643.82856  0.012311239  0.010960586            1 
 4359000   0.55535092   -8.5850118    642.31918  0.012279559  0.010956815            1 
 4360000    0.5633895    -8.597956    643.78283  0.012304718  0.010953048            2 
 4361000   0.55321993   -8.6212694    643.42802  0.012295116  0.010949277            2 
 4362000   0.56278505   -8.6006824    642.50283  0.012274622  0.010945508            2 
 4363000   0.55892045   -8.5936875    643.65706  0.012293855   0.01094174            2 
 4364000   0.55442441   -8.6085995     643.6577   0.01229105  0.010937976            1 
 4365000   0.55057267     -8.61192    642.04664  0.012257477  0.010934212            7 
 4366000   0.55703357   -8.5899229    642.49412   0.01226321  0.010930449            7 
 4367000   0.54843046   -8.6095659    643.56225  0.012280785  0.010926686            2 
 4368000   0.55295919   -8.6009095    642.94025  0.012266107  0.010922925            6 
 4369000   0.55470584   -8.6136254     643.4285  0.012272612  0.010919166            5 
 4370000   0.55598742   -8.6101433    643.30623  0.012267472   0.01091541            4 
 4371000   0.55047477   -8.6029307    643.32046  0.012264937   0.01091165            4 
 4372000   0.56677568   -8.6216192    642.76195  0.012251486  0.010907895            6 
 4373000   0.55419644   -8.5849906    643.19725  0.012256979  0.010904142            5 
 4374000   0.56602959   -8.6190746    642.80696  0.012246741  0.010900394            2 
 4375000   0.56098899   -8.5850237    642.89643  0.012245646  0.010896646            2 
 4376000   0.55975046   -8.5915717    643.58021  0.012255869  0.010892899            2 
 4377000   0.55045217   -8.6106824      643.201   0.01224585  0.010889152            3 
 4378000   0.55458245    -8.606323    642.79281  0.012235283  0.010885409            4 
 4379000   0.55188352   -8.6173606    642.37686  0.012224573  0.010881663            6 
 4380000   0.54828896   -8.6070585    643.21106  0.012237653  0.010877919            3 
 4381000   0.56333788   -8.6120214    642.30892    0.0122177  0.010874177            2 
 4382000    0.5499561    -8.630147    641.67017  0.012202764  0.010870437            6 
 4383000   0.55512882   -8.6086841    642.45425  0.012214888  0.010866697            2 
 4384000   0.55284488   -8.6097699    642.59211  0.012214722  0.010862962            3 
 4385000   0.55585351   -8.6096114    643.44454  0.012228136  0.010859227            6 
 4386000   0.54928986    -8.623375     641.8587  0.012195218  0.010855494            3 
 4387000   0.55868496   -8.6085332     643.0419  0.012214913  0.010851765            3 
 4388000   0.54420444    -8.629317     642.7635  0.012206842  0.010848035            3 
 4389000   0.54821951   -8.5942477    641.71164   0.01218409  0.010844313            6 
 4390000   0.54977661   -8.6115363    642.23505   0.01219125  0.010840586            4 
 4391000   0.55723622    -8.619066    643.11585   0.01220519  0.010836857            2 
 4392000    0.5422114   -8.6299282    642.38407  0.012188526  0.010833127            4 
 4393000   0.56078832   -8.6085913    641.83533  0.012175342    0.0108294            5 
 4394000   0.55123512    -8.624785     641.8149  0.012172184  0.010825676            5 
 4395000   0.55719934   -8.5987205    643.01182  0.012192109   0.01082196            3 
 4396000   0.54577561   -8.6282114    642.60576  0.012181638  0.010818242            3 
 4397000   0.54622191   -8.6108067    642.78238  0.012182215  0.010814532            2 
 4398000    0.5480384   -8.6144896    643.34229  0.012190054  0.010810817            5 
 4399000    0.5488749   -8.5971469    642.23352  0.012166279  0.010807103            8 
 4400000   0.53565669   -8.6292734    642.12156  0.012161393   0.01080339            4 
 4401000   0.55861408   -8.5910248     641.3546  0.012144107  0.010799682            4 
 4402000   0.54485001   -8.6227498    641.87246  0.012151152   0.01079597            2 
 4403000   0.54403981   -8.6099431     642.1438  0.012153528  0.010792261            6 
 4404000   0.55826531   -8.6143482    642.40035  0.012155623  0.010788555            6 
 4405000   0.56321217    -8.625478    643.05281  0.012165206   0.01078485            3 
 4406000    0.5445154   -8.5937661    641.08432  0.012125214  0.010781141            1 
 4407000   0.55410281   -8.6190091    642.38768  0.012147108  0.010777437            3 
 4408000   0.54969291   -8.6124853    642.50471  0.012146565  0.010773738            5 
 4409000   0.54027182   -8.6209064    643.65246  0.012165503  0.010770042            2 
 4410000    0.5505718   -8.6046587    642.18557  0.012135026  0.010766343            2 
 4411000   0.54084064   -8.6201634    642.41581  0.012136624  0.010762648            2 
 4412000   0.54129503   -8.6125197    641.40932  0.012114863  0.010758955            2 
 4413000   0.54724939   -8.6120465    641.22806  0.012108695  0.010755263            4 
 4414000   0.54127182   -8.6290258    641.63071  0.012113554  0.010751568            3 
 4415000   0.52937635   -8.6293379    642.35998  0.012124575  0.010747875            3 
 4416000   0.54394246   -8.6214491    643.00251  0.012133954  0.010744186            3 
 4417000   0.54368031   -8.6264462    642.39685  0.012119781  0.010740494            4 
 4418000    0.5500337   -8.6219224    642.00328  0.012109614  0.010736806            4 
 4419000   0.55309142   -8.6369328    641.78965  0.012102845  0.010733116            6 
 4420000   0.53926799   -8.6430218    641.09887  0.012087083  0.010729431            4 
 4421000   0.55241102   -8.6067692    641.45802  0.012091119  0.010725746            1 
 4422000   0.54796914   -8.6162727    642.00082  0.012098613   0.01072206            1 
 4423000   0.54550097   -8.6212778     643.3468  0.012121237  0.010718377            5 
 4424000   0.54625271   -8.6076496    642.25828  0.012097993  0.010714701            3 
 4425000   0.54073887   -8.6032707    642.07339  0.012091778  0.010711025            4 
 4426000   0.55266288   -8.6259306    642.46663  0.012096449  0.010707352            5 
 4427000   0.52851023   -8.6209725    642.95683  0.012102945  0.010703682            1 
 4428000   0.54340227   -8.6248682    641.65749  0.012075758  0.010700009            3 
 4429000     0.543829   -8.6216161    642.11706  0.012081679   0.01069634            3 
 4430000   0.54690886   -8.6264631    642.22383   0.01208096  0.010692672            3 
 4431000   0.55510023   -8.6364964    641.79935   0.01207025  0.010689009            6 
 4432000   0.54334836   -8.6223519    641.48646  0.012061644  0.010685348            7 
 4433000   0.54172707   -8.6037682     643.1687  0.012090546   0.01068169            4 
 4434000   0.54036001   -8.6091043    641.21335   0.01205107  0.010678028            2 
 4435000   0.54365001    -8.605456    642.08776  0.012064783  0.010674366            1 
 4436000   0.53904627   -8.6149075    642.28464  0.012065762  0.010670709            2 
 4437000   0.54333486   -8.6182281    642.49553  0.012067003   0.01066705            3 
 4438000   0.54428177   -8.6273729    642.34353   0.01206143  0.010663394            3 
 4439000   0.55167983   -8.6415641     642.4923  0.012061506  0.010659741            2 
 4440000   0.55180327   -8.5822446    642.68991  0.012062498   0.01065609            2 
 4441000   0.53659495   -8.6198315    642.94633  0.012064594  0.010652442            1 
 4442000   0.54169657    -8.630337    642.52563  0.012053985  0.010648798            2 
 4443000   0.53702034   -8.6140451    641.37319  0.012029657  0.010645152            3 
 4444000   0.53925792   -8.6360925    643.23975  0.012061951  0.010641507            6 
 4445000   0.54327019   -8.6286243      642.386  0.012043232   0.01063786            4 
 4446000   0.54918102     -8.62812    641.08524  0.012016143  0.010634217            2 
 4447000    0.5493416   -8.6223046    641.35889  0.012018569  0.010630582            1 
 4448000   0.53913966   -8.6380294    643.10038  0.012048493   0.01062694            5 
 4449000   0.53334205   -8.6215105    641.80679  0.012021555  0.010623299            2 
 4450000   0.53071886     -8.61963    642.64023  0.012034461  0.010619663            2 
 4451000   0.54512474   -8.6270856    640.74596  0.011996292  0.010616023            3 
 4452000   0.53635869   -8.6198074    642.74842   0.01203108  0.010612386            1 
 4453000   0.52539315   -8.6170197    642.82655   0.01202984  0.010608751            2 
 4454000   0.53891567   -8.6379756    641.09284  0.011994702  0.010605117            2 
 4455000   0.52483841   -8.6439072    641.44164  0.011998534  0.010601483            3 
 4456000   0.54961591   -8.6203329     642.3521  0.012012869  0.010597849            2 
 4457000   0.54901916   -8.6204704     641.9659  0.012002952  0.010594223            2 
 4458000   0.54690068    -8.617167    642.38747   0.01200814  0.010590594            3 
 4459000    0.5356431   -8.6252988    642.39577  0.012005602  0.010586963            2 
 4460000   0.54585724   -8.6319994    641.94546  0.011994497  0.010583332            2 
 4461000     0.531144   -8.6478472    641.97002  0.011992267  0.010579704            4 
 4462000   0.54871322   -8.6289766    642.30678  0.011995868   0.01057608            3 
 4463000   0.53455754   -8.6262201      641.512  0.011978341  0.010572454            4 
 4464000   0.53345414   -8.6338153    643.33966  0.012009776  0.010568832            2 
 4465000   0.52811644   -8.6268158     641.9428  0.011981015  0.010565211            4 
 4466000   0.53588204   -8.6311323    642.54129    0.0119895  0.010561595            4 
 4467000   0.53284965   -8.6283261    642.33818  0.011983027   0.01055798            2 
 4468000   0.53109653   -8.6282142    642.81777   0.01198929   0.01055437            2 
 4469000    0.5359389   -8.6338715    642.68158  0.011984068  0.010550758            3 
 4470000   0.53516561   -8.6279759    642.69604  0.011981656  0.010547142            2 
 4471000   0.52415594   -8.6325228    642.19813  0.011969696  0.010543532            3 
 4472000   0.53556389   -8.6464508     642.6245  0.011974965  0.010539923            2 
 4473000   0.54381165   -8.6243892    640.93726  0.011940854  0.010536313            2 
 4474000   0.54379471   -8.6241722    642.70819   0.01197117  0.010532708            2 
 4475000   0.52991098   -8.6491418    641.51373  0.011946252  0.010529105            3 
 4476000   0.54267284    -8.619731    643.22841  0.011975507  0.010525503            2 
 4477000   0.53203347   -8.6513138    641.33863  0.011937656  0.010521905            2 
 4478000    0.5363463   -8.6488508    640.60643  0.011921364  0.010518303            4 
 4479000    0.5397612   -8.6458684     642.3166  0.011950521  0.010514707            4 
 4480000   0.52844572   -8.6511586    641.55124  0.011933617  0.010511112            5 
 4481000   0.55315367   -8.6308242    642.25126  0.011943972  0.010507524            2 
 4482000   0.52542151   -8.6175654    641.52033  0.011927717  0.010503932            2 
 4483000   0.53924289   -8.6353789     640.9986  0.011915358  0.010500343            2 
 4484000   0.52475145   -8.6278611    641.65429  0.011924886  0.010496754            2 
 4485000   0.52870701   -8.6317339    641.85398  0.011925938  0.010493165            3 
 4486000   0.52894898   -8.6318021    642.49972  0.011935275  0.010489579            2 
 4487000   0.54358215   -8.6382231    642.04103  0.011924096  0.010485995            3 
 4488000   0.53458157   -8.6517001    641.07602  0.011903521  0.010482411            2 
 4489000   0.54357306   -8.6464267    642.33376  0.011924218  0.010478828            1 
 4490000   0.52292661   -8.6448825      642.076  0.011916778  0.010475245            2 
 4491000   0.53407001   -8.6258262     641.2832  0.011899414  0.010471665            2 
 4492000   0.52119268   -8.6539692    641.16568  0.011894584  0.010468085            1 
 4493000   0.52485871   -8.6355648    641.21488   0.01189285  0.010464508            2 
 4494000   0.52919757   -8.6350452    641.13056   0.01188864  0.010460932            3 
 4495000   0.53073367   -8.6404003    641.72774  0.011897066  0.010457355            3 
 4496000   0.52605236   -8.6286628    641.41407  0.011888606  0.010453782            2 
 4497000   0.53075149   -8.6432977    641.66739  0.011890657  0.010450207            2 
 4498000   0.52657756   -8.6395182    641.63686  0.011887447  0.010446633            2 
 4499000    0.5304099   -8.6330434    641.63122  0.011884701  0.010443064            4 
 4500000   0.53805437    -8.662558    641.39286  0.011877646  0.010439496            3 
 4501000   0.53449531   -8.6475152    641.24133  0.011872201   0.01043593            2 
 4502000   0.53023996   -8.6393242    642.57375  0.011894228  0.010432365            4 
 4503000   0.53088172   -8.6395031    641.92312  0.011879545    0.0104288            3 
 4504000     0.539723   -8.6367039    641.55309  0.011870062  0.010425236            2 
 4505000   0.53675965   -8.6168197    641.01087  0.011857397  0.010421674            2 
 4506000   0.53482825   -8.6407055    641.04579  0.011855411  0.010418115            2 
 4507000   0.52460677    -8.657718    641.58409  0.011862734  0.010414555            2 
 4508000   0.52722962   -8.6522544     641.5335  0.011859167  0.010410995            2 
 4509000   0.52346624   -8.6438877    641.66517   0.01185897  0.010407438            2 
 4510000   0.52943227    -8.650415    640.79799  0.011840318  0.010403881            3 
 4511000   0.53845035   -8.6435474    642.16408  0.011862929  0.010400326            4 
 4512000    0.5328507   -8.6466409    641.91885  0.011855771  0.010396775            3 
 4513000   0.53800234   -8.6319621      641.539   0.01184613  0.010393223            4 
 4514000   0.53820778   -8.6479358    641.94358  0.011850974  0.010389675            2 
 4515000   0.52345427   -8.6422718    641.02484  0.011831392  0.010386125            5 
 4516000   0.52815738   -8.6417368    641.45334   0.01183668  0.010382575            2 
 4517000   0.53767783   -8.6527471    641.04762  0.011826574  0.010379029            2 
 4518000    0.5370846   -8.6565393    640.63511  0.011816348  0.010375485            8 
 4519000    0.5321528   -8.6608456    642.11648   0.01184105  0.010371944            2 
 4520000   0.51936684    -8.675394    641.61013  0.011829095  0.010368404            3 
 4521000   0.53649724    -8.664394    641.33828  0.011821468  0.010364863            2 
 4522000    0.5170911   -8.6419128    641.01658  0.011812925   0.01036132            2 
 4523000   0.53230604   -8.6711917    642.21654  0.011832422  0.010357782            2 
 4524000   0.52801523   -8.6481427     641.0964  0.011809173  0.010354246            3 
 4525000   0.53318265   -8.6455625     640.9891  0.011804587  0.010350709            2 
 4526000   0.52829047    -8.668958    641.63149  0.011813807  0.010347174            3 
 4527000   0.52513449   -8.6548625    641.42282  0.011807356  0.010343641            2 
 4528000    0.5263833   -8.6581051    641.00751  0.011797105  0.010340111            2 
 4529000   0.52413293   -8.6509054    641.08523  0.011795931  0.010336582            4 
 4530000   0.53506271   -8.6427892    641.40636  0.011799234  0.010333052            2 
 4531000   0.51644138   -8.6609145    642.50794   0.01181689  0.010329528            4 
 4532000   0.53088652    -8.672914    641.08949    0.0117882  0.010326004            3 
 4533000   0.52116338   -8.6595962    641.30752  0.011789608   0.01032248            3 
 4534000    0.5234193   -8.6628941     641.1074   0.01178333  0.010318959            2 
 4535000   0.52320516    -8.662399    641.36892  0.011785537  0.010315438            2 
 4536000   0.53612254   -8.6578891    640.65996  0.011769914  0.010311918            2 
 4537000   0.53023703   -8.6690611    640.54684  0.011765242  0.010308399            2 
 4538000   0.54182744   -8.6363677    641.55713  0.011781202  0.010304887            1 
 4539000   0.54243422   -8.6425573     641.3675  0.011775125  0.010301372            5 
 4540000   0.52970637   -8.6590109     641.1179   0.01176795   0.01029786            2 
 4541000   0.52653503   -8.6639226    641.25727  0.011767916  0.010294349            3 
 4542000   0.52620643   -8.6544831    641.14759  0.011763313  0.010290838            4 
 4543000   0.52154786   -8.6542064    641.25366  0.011762669   0.01028733            3 
 4544000   0.53457481    -8.675415    641.31234  0.011761156  0.010283823            2 
 4545000   0.50856767    -8.644476    640.96823   0.01175226  0.010280319            2 
 4546000   0.52542047   -8.6506998    640.72037  0.011745131  0.010276812            2 
 4547000   0.52494763   -8.6599814    641.37298  0.011754508  0.010273309            2 
 4548000   0.52597064   -8.6659059    640.66542  0.011738959  0.010269808            2 
 4549000   0.52772522   -8.6634651    640.62778  0.011735689  0.010266308            2 
 4550000   0.51997235   -8.6622137    641.01075  0.011740124   0.01026281            3 
 4551000   0.52749669   -8.6516498    641.32831  0.011743359  0.010259314            2 
 4552000   0.52488741   -8.6585459    642.15369  0.011755889  0.010255821            2 
 4553000   0.51836977   -8.6404131    641.62873  0.011743699  0.010252325            4 
 4554000   0.51934135   -8.6625056    640.19562  0.011714896  0.010248834            2 
 4555000   0.52143764   -8.6613603    640.58023   0.01171936  0.010245343            2 
 4556000   0.50770463     -8.64431    640.81615  0.011721103  0.010241853            1 
 4557000    0.5117245   -8.6677596    640.89925  0.011720051  0.010238365            2 
 4558000   0.51362831   -8.6603682    640.48761  0.011709953  0.010234876            1 
 4559000   0.52305166   -8.6664888    640.87274  0.011714425  0.010231391            2 
 4560000   0.52776204   -8.6610218    641.02787  0.011714691  0.010227906            2 
 4561000   0.52219786   -8.6569761    640.90419  0.011709862   0.01022442            3 
 4562000   0.53241069   -8.6473838     641.4556  0.011717368  0.010220942            2 
 4563000   0.51715605   -8.6595142    641.14978  0.011709215  0.010217464            2 
 4564000   0.52839486   -8.6437756    640.88576  0.011701829  0.010213984            2 
 4565000   0.52411825   -8.6583261    641.19867  0.011704978  0.010210508            2 
 4566000   0.52619621   -8.6482015    640.63417  0.011692111  0.010207032            2 
 4567000   0.52501494   -8.6369548     640.0807  0.011679452  0.010203558            2 
 4568000   0.52772071   -8.6866609    640.01979  0.011675784  0.010200085            1 
 4569000   0.51577373   -8.6626939    640.48503  0.011681714  0.010196611            4 
 4570000   0.51312706   -8.6701924    641.35051   0.01169494  0.010193142            2 
 4571000   0.52866267    -8.655783    640.61654     0.011679  0.010189675            3 
 4572000   0.50939515   -8.6528992    640.30159  0.011670706   0.01018621            2 
 4573000   0.52886443   -8.6696413    640.76871  0.011676666  0.010182743            3 
 4574000   0.52505785   -8.6688499    640.70013  0.011672863  0.010179278            2 
 4575000   0.51966383    -8.665294    640.93974  0.011674676  0.010175811            3 
 4576000   0.52032219   -8.6655599    641.24882  0.011677754   0.01017235            2 
 4577000   0.51542261   -8.6834528    640.73915  0.011665923  0.010168888            2 
 4578000   0.53506688    -8.668661    640.71829  0.011662995  0.010165427            2 
 4579000   0.51672387   -8.6776253    639.81887  0.011644079  0.010161969            4 
 4580000   0.51828605   -8.6483474    640.49906  0.011653913  0.010158514            3 
 4581000   0.50702361   -8.6508699    640.96203  0.011659791  0.010155059            1 
 4582000   0.52089978   -8.6415121    640.29397  0.011645096  0.010151609            2 
 4583000   0.52905583    -8.672398    641.33686  0.011661518  0.010148157            1 
 4584000     0.508509   -8.6526824    641.46965  0.011661388  0.010144704            1 
 4585000   0.52292465   -8.6617906    641.58375  0.011660919  0.010141255            3 
 4586000    0.5169942   -8.6737471    640.16271  0.011632554  0.010137807            2 
 4587000   0.50930323   -8.6638542    639.96777  0.011626476  0.010134358            3 
 4588000   0.51629748   -8.6688705    640.58022  0.011635067   0.01013091            2 
 4589000   0.52323062    -8.661516    640.09832   0.01162378  0.010127468            2 
 4590000    0.5130255   -8.6590895    640.04691  0.011620314  0.010124028            4 
 4591000   0.51257735   -8.6681595    640.32057   0.01162275  0.010120589            3 
 4592000   0.51146505   -8.6687819    641.47715  0.011641209  0.010117152            4 
 4593000   0.51561496   -8.6757524    640.93556  0.011628847  0.010113719            2 
 4594000   0.50772011   -8.6675601    640.51757  0.011618734  0.010110282            2 
 4595000   0.51509012   -8.6641292    640.53625  0.011616544  0.010106846            4 
 4596000   0.51943754   -8.6611846    640.02784  0.011604798  0.010103413            3 
 4597000   0.52079295    -8.660437    639.92488  0.011600408  0.010099978            2 
 4598000   0.50659804   -8.6579848    639.11824  0.011583265  0.010096546            4 
 4599000   0.52216846   -8.6821773    640.09281  0.011598406  0.010093114            2 
 4600000   0.50967187   -8.6707719    641.41826  0.011619896  0.010089684            1 
 4601000   0.51056031   -8.6645093    640.63166  0.011603124  0.010086259            4 
 4602000   0.51795746   -8.6851816    640.72973  0.011602378  0.010082833            2 
 4603000   0.51958664   -8.6814689    640.65733  0.011598547  0.010079408            3 
 4604000   0.52196857   -8.6564608    640.45605  0.011592384  0.010075987            3 
 4605000   0.52719425   -8.6738177    639.97131  0.011581095  0.010072565            2 
 4606000   0.51508816   -8.6775917    641.04991  0.011598095  0.010069146            2 
 4607000   0.51096329   -8.6713287    640.34532  0.011582833  0.010065728            3 
 4608000     0.514862   -8.6880621    640.81414  0.011588797  0.010062311            4 
 4609000   0.51846325   -8.6718674    640.29129   0.01157683  0.010058893            2 
 4610000   0.51395853   -8.6742184    641.36073   0.01159365   0.01005548            2 
 4611000   0.51640701   -8.6607313    639.98342  0.011566244  0.010052065            3 
 4612000   0.51976463   -8.6831092    640.74348   0.01157747  0.010048652            4 
 4613000   0.49929705   -8.6779352    640.16689  0.011564544  0.010045243            2 
 4614000   0.51321231   -8.6813375    640.50887  0.011568214  0.010041833            3 
 4615000   0.51520559   -8.6740231    639.95798   0.01155576  0.010038422            1 
 4616000    0.5124998   -8.6633988     640.0594  0.011555087  0.010035016            1 
 4617000   0.51506098   -8.6701049     639.8446  0.011548708  0.010031612            2 
 4618000   0.50933816   -8.6852398    639.22268  0.011534984  0.010028207            3 
 4619000    0.5061066   -8.6964457    640.16165  0.011549427  0.010024802            1 
 4620000   0.51848934   -8.6772653     640.3341  0.011550038  0.010021403            1 
 4621000   0.50556597   -8.6756447     640.4838  0.011550238  0.010018004            3 
 4622000   0.51769647    -8.690408    640.75588  0.011552645  0.010014607            2 
 4623000   0.51866489   -8.6827637    641.21385  0.011558401   0.01001121            1 
 4624000   0.50984387   -8.6761045    639.99082   0.01153386  0.010007817            4 
 4625000   0.51156425    -8.676176    639.91533  0.011530006  0.010004425            2 
 4626000   0.51015878   -8.6779048    639.98285   0.01152873  0.010001033            2 
 4627000   0.51448848   -8.6951433    639.13891  0.011511039 0.0099976416            3 
 4628000   0.51162272   -8.6946016    641.01454  0.011542325 0.0099942513            2 
 4629000    0.5113565   -8.6757498    639.59793  0.011514329 0.0099908642            2 
 4630000   0.52477493   -8.6767807    640.17234   0.01152218 0.0099874781            2 
 4631000   0.51480273   -8.6870773    640.13553   0.01151903 0.0099840948            2 
 4632000   0.51836075   -8.6849371    640.47198  0.011522596 0.0099807119            3 
 4633000    0.5015694   -8.6806158    640.54726  0.011521463 0.0099773323            2 
 4634000   0.50864075   -8.6877496    640.96468  0.011526483 0.0099739514            1 
 4635000    0.5136059   -8.6949547    641.02936  0.011525159  0.009970571            2 
 4636000   0.50680876   -8.6839543    639.22977  0.011490325 0.0099671939            4 
 4637000   0.51773615   -8.6664314     639.4477  0.011491764 0.0099638201            3 
 4638000   0.51545475   -8.7115736    640.76861   0.01151302 0.0099604487            4 
 4639000   0.50975188   -8.6762241    639.85984  0.011494213 0.0099570751            2 
 4640000   0.51574846   -8.6893755    640.36182  0.011500751 0.0099536994            2 
 4641000   0.51682723   -8.6960675    639.87078  0.011489456 0.0099503279            1 
 4642000   0.52716985   -8.6864366     639.9329  0.011488096  0.009946959            5 
 4643000   0.51715416   -8.6850543    639.24925  0.011473351 0.0099435911            3 
 4644000   0.50789226   -8.6759697    640.93933  0.011501208 0.0099402236            3 
 4645000   0.51196769   -8.6832831    640.63582  0.011493287 0.0099368596            3 
 4646000   0.51148994   -8.6912724     640.1775  0.011482593 0.0099334966            3 
 4647000   0.51363984   -8.6693823     639.3423  0.011465144 0.0099301377            2 
 4648000    0.5102744   -8.6888318    640.02653  0.011474945 0.0099267767            3 
 4649000   0.51816593   -8.6840845    640.19845  0.011475558 0.0099234156            2 
 4650000   0.50915842   -8.6831172    641.23313  0.011491633 0.0099200596            4 
 4651000   0.51164127   -8.7012378    640.02915   0.01146759 0.0099167049            2 
 4652000   0.51728967   -8.6706359    639.78245  0.011460706 0.0099133506            2 
 4653000   0.50739884   -8.6855325    640.23346   0.01146632 0.0099099966            3 
 4654000    0.5038516   -8.7031787     639.8347  0.011456716  0.009906644            2 
 4655000   0.49927877   -8.6946027    640.23934  0.011461499 0.0099032914            2 
 4656000   0.50486292   -8.6755278    640.94783  0.011471718 0.0098999425            2 
 4657000   0.50892013   -8.6950885    639.95925  0.011451565  0.009896594            4 
 4658000   0.50183911   -8.6910798    640.13754  0.011452296 0.0098932469            2 
 4659000   0.50422461   -8.6857911    640.87838  0.011463089 0.0098898997            2 
 4660000   0.50748144   -8.7046713    639.33757  0.011433075 0.0098865548            2 
 4661000   0.51189963   -8.6819486    639.78042   0.01143854 0.0098832098            1 
 4662000   0.51182735   -8.6766989    639.24495  0.011426515  0.009879869            2 
 4663000   0.50118372   -8.6826565     640.2357   0.01144177 0.0098765284            2 
 4664000   0.50272276   -8.6897932    639.78391  0.011431245 0.0098731886            2 
 4665000   0.50753857   -8.6888792    639.71385  0.011427543 0.0098698494            2 
 4666000   0.51671547   -8.6820607    639.90378  0.011428486 0.0098665162            2 
 4667000   0.51718665   -8.6875224    639.38133  0.011416708 0.0098631812            2 
 4668000   0.50940744   -8.6846174    639.38167  0.011414269 0.0098598472            4 
 4669000   0.50543345   -8.6774046    640.42185  0.011430389 0.0098565174            2 
 4670000   0.50837769   -8.6933768    640.90025  0.011436478 0.0098531872            2 
 4671000   0.51335818   -8.6890416    639.71011  0.011412797 0.0098498585            2 
 4672000   0.50607217   -8.6867259    639.76487  0.011411331 0.0098465317            3 
 4673000   0.49314857    -8.678933    640.18474  0.011416377 0.0098432062            2 
 4674000   0.50956715   -8.6804708    640.38635  0.011417529 0.0098398808            2 
 4675000     0.499085   -8.7030572    639.39131   0.01139735 0.0098365569            3 
 4676000   0.49792632   -8.6846268    640.02246   0.01140616 0.0098332338            1 
 4677000    0.5107268   -8.7017983    639.43633  0.011393278 0.0098299152            2 
 4678000   0.50360229   -8.6934492    638.73186  0.011378293 0.0098265973            2 
 4679000   0.50019966   -8.6910134     639.8744   0.01139621 0.0098232831            3 
 4680000   0.51656567   -8.7052756    639.55714  0.011388126 0.0098199674            3 
 4681000   0.49774189   -8.7100164    639.95175  0.011392718 0.0098166542            1 
 4682000    0.5049029   -8.7016079    639.76101   0.01138689 0.0098133419            2 
 4683000    0.5063301   -8.6947047    639.96235  0.011388041 0.0098100326            1 
 4684000   0.50315988   -8.6794194    640.29945  0.011391607 0.0098067268            1 
 4685000   0.51290746    -8.680902    639.29793  0.011371361 0.0098034192            1 
 4686000   0.52040338   -8.6839065    640.08733  0.011382973  0.009800113            3 
 4687000   0.50283083   -8.7080328    639.96585  0.011378384 0.0097968053            2 
 4688000   0.50425861   -8.6809034    640.23639  0.011380766 0.0097935011            3 
 4689000   0.50492156   -8.6922051    640.43807  0.011381924 0.0097901984            3 
 4690000   0.50618119   -8.6916951    639.77275  0.011367675 0.0097868949            1 
 4691000   0.50441154    -8.695789    639.47994   0.01136005 0.0097835922            2 
 4692000   0.50751614   -8.6951254    640.75808   0.01138033 0.0097802911            3 
 4693000   0.49514945   -8.6946271    639.53633   0.01135621 0.0097769929            1 
 4694000   0.50680543   -8.6977199    639.52855  0.011353653 0.0097736948            2 
 4695000   0.50403664   -8.7285108    639.89862  0.011357803 0.0097703989            2 
 4696000   0.50277381   -8.7019543    639.49813  0.011348277 0.0097671012            3 
 4697000   0.51161776   -8.6961366    640.06957     0.011356 0.0097638071            2 
 4698000   0.49656429   -8.7001846    638.52572  0.011326198  0.009760516            2 
 4699000   0.50390513   -8.7022353    639.13191  0.011334538 0.0097572244            2 
 4700000   0.50351311   -8.7118382    639.30102  0.011335124 0.0097539359            2 
 4701000   0.50667836   -8.6981624    640.55768   0.01135499 0.0097506517            1 
 4702000   0.51662691   -8.7028826    639.98738  0.011342467 0.0097473677            1 
 4703000   0.50621671    -8.712793    638.87282  0.011320306 0.0097440865            3 
 4704000   0.50886757   -8.6988694    639.71458  0.011332812 0.0097408027            1 
 4705000   0.49326326   -8.7109473    640.32047  0.011341135 0.0097375195            1 
 4706000   0.48207461   -8.7082905    640.53022  0.011342439 0.0097342362            2 
 4707000   0.49784819   -8.7019473    640.32667  0.011336426 0.0097309548            2 
 4708000    0.5049294   -8.6865274     640.1518  0.011330923 0.0097276791            2 
 4709000   0.49313846   -8.7095139    640.38309  0.011332609 0.0097244018            2 
 4710000    0.4993367   -8.7051198    639.50337  0.011314639 0.0097211278            3 
 4711000   0.49684876   -8.7051957    639.09468  0.011305007 0.0097178558            1 
 4712000   0.50604311   -8.7062293    639.50632  0.011309888 0.0097145831            2 
 4713000   0.50122771   -8.7098214    639.34696  0.011304671 0.0097113114            2 
 4714000   0.49464951   -8.7042975    638.91954  0.011294717 0.0097080407            2 
 4715000   0.49979822   -8.7121335    639.95009  0.011310535 0.0097047702            2 
 4716000   0.49490181   -8.7082376    639.41718   0.01129872 0.0097015014            2 
 4717000   0.50337354   -8.6848671    638.50427  0.011280197 0.0096982321            2 
 4718000   0.49336105    -8.699252    640.20118  0.011307778 0.0096949652            1 
 4719000   0.49818419   -8.7053016    639.76799  0.011297732  0.009691701            3 
 4720000   0.49618101   -8.7098146    639.12725  0.011284026 0.0096884403            3 
 4721000   0.50605316   -8.7102417    639.46681   0.01128763 0.0096851807            2 
 4722000   0.49759634   -8.6985244     639.9956  0.011294571 0.0096819214            2 
 4723000   0.49642246   -8.7022698     639.0029  0.011274665 0.0096786621            1 
 4724000    0.4897653    -8.700674    639.09794  0.011273955 0.0096754072            2 
 4725000   0.49243853   -8.7008272    639.04138  0.011270571 0.0096721517            1 
 4726000   0.50184043   -8.6942542    639.17797  0.011270595 0.0096688982            2 
 4727000   0.48431744   -8.7036058    639.88118  0.011280607  0.009665644            2 
 4728000   0.49795938   -8.6834055    640.19216  0.011283703 0.0096623928            3 
 4729000   0.49518378   -8.6966954    639.49562  0.011269042 0.0096591435            2 
 4730000   0.48706991    -8.701932    639.44392  0.011265749 0.0096558947            2 
 4731000   0.48537004   -8.7174853    639.62942  0.011266635 0.0096526469            3 
 4732000   0.50089065   -8.7153212    639.90133  0.011269043  0.009649401            2 
 4733000   0.49830214   -8.7066078    640.68214  0.011280409 0.0096461564            2 
 4734000   0.48460042     -8.70268     640.7171  0.011278642 0.0096429127            3 
 4735000   0.49533809   -8.7061044    639.38545  0.011252824 0.0096396669            2 
 4736000   0.49539381   -8.7144115    639.56583  0.011253622 0.0096364244            1 
 4737000   0.50283411   -8.7186291    638.82081   0.01123814 0.0096331811            3 
 4738000   0.49703576   -8.7067842    638.72337  0.011234054 0.0096299409            3 
 4739000   0.50252354   -8.7125676    639.67802   0.01124847    0.0096267            3 
 4740000   0.48673439   -8.7002047    639.73941  0.011247177 0.0096234631            5 
 4741000   0.48640778   -8.7152372     638.3651  0.011220648 0.0096202262            2 
 4742000   0.49675657   -8.7128153    638.81728  0.011226228 0.0096169885            3 
 4743000   0.49459144   -8.7269573    638.10763  0.011211393 0.0096137547            1 
 4744000   0.48484484   -8.7109705    640.02133  0.011242646 0.0096105248            2 
 4745000   0.49367951   -8.7184083    639.17159  0.011225353 0.0096072908            2 
 4746000   0.49667651   -8.7076825    640.39353  0.011244443 0.0096040633            3 
 4747000   0.49836197   -8.7099565    639.26157  0.011222203 0.0096008366            2 
 4748000    0.4912918   -8.7194187    639.53252  0.011224595 0.0095976102            4 
 4749000   0.50358138   -8.7358022    638.96507  0.011212274 0.0095943839            4 
 4750000   0.48803046   -8.7208799     637.8493  0.011190339 0.0095911607            2 
 4751000   0.49280488   -8.7141647    638.80543  0.011204754 0.0095879405            2 
 4752000   0.49551356   -8.7308175     639.2418  0.011210048 0.0095847189            2 
 4753000   0.49812515   -8.7207945    639.99894  0.011220965 0.0095814981            2 
 4754000   0.48847363   -8.7138484    639.68533  0.011213107 0.0095782788            2 
 4755000   0.48933915    -8.708303     639.6133  0.011209486 0.0095750622            2 
 4756000   0.50061697    -8.703876    639.33514  0.011202256 0.0095718471            2 
 4757000    0.4944964   -8.7192179      639.819  0.011208377 0.0095686321            2 
 4758000   0.48732215    -8.713786    639.82454  0.011206119 0.0095654198            2 
 4759000   0.49414381   -8.7247527    639.65677  0.011200826 0.0095622079            3 
 4760000   0.48678561   -8.7101677    638.70162  0.011181751  0.009558998            3 
 4761000   0.48752959   -8.7173076     639.5082   0.01119352 0.0095557891            3 
 4762000   0.48507555   -8.7150804    638.65172  0.011176182 0.0095525804            2 
 4763000   0.48518509   -8.7257535    639.97649  0.011197013 0.0095493718            1 
 4764000   0.48699315   -8.7176682    639.05858  0.011178607 0.0095461649            2 
 4765000   0.49762962   -8.7163379    639.71417  0.011187726 0.0095429616            2 
 4766000    0.4756302   -8.7309423    639.70179  0.011185162  0.009539761            2 
 4767000   0.48519474   -8.7078917    638.75287  0.011166227 0.0095365602            1 
 4768000   0.49313455   -8.7168056    638.60796  0.011161353 0.0095333582            2 
 4769000   0.49123654    -8.729544     639.0466  0.011166677  0.009530158            1 
 4770000   0.49191295   -8.7060189    639.42533  0.011170953 0.0095269608            2 
 4771000   0.48600642   -8.7137103    638.28457  0.011148686 0.0095237646            3 
 4772000   0.49248304   -8.7207539     640.2873  0.011181323 0.0095205683            2 
 4773000   0.48529816   -8.7178137    639.24601  0.011160801 0.0095173738            2 
 4774000   0.49039182   -8.7257622    638.93193   0.01115298 0.0095141849            4 
 4775000   0.47953616   -8.7340341    639.83473    0.0111664 0.0095109929            2 
 4776000   0.47483829   -8.7308146    639.42918  0.011156986  0.009507805            1 
 4777000   0.49258375   -8.7200631    639.18074  0.011150316 0.0095046185            1 
 4778000   0.47742514   -8.7147938     639.0015  0.011144857  0.009501433            2 
 4779000   0.48403182   -8.7203086    639.97023  0.011159417 0.0094982509            2 
 4780000   0.47930556   -8.7154202    638.90246  0.011138467 0.0094950673            2 
 4781000    0.4841385   -8.7131495    638.91537  0.011136362 0.0094918847            2 
 4782000   0.47678023   -8.7209256    639.38416  0.011142203 0.0094887038            2 
 4783000   0.49329842    -8.726894    639.35792  0.011139416 0.0094855256            3 
 4784000   0.48407399   -8.7254028    640.37633  0.011154827 0.0094823481            2 
 4785000   0.48004083   -8.7189977    638.23624  0.011115225 0.0094791708            2 
 4786000   0.48730742   -8.7333256    639.12868  0.011128442 0.0094759964            1 
 4787000    0.4916625   -8.7205216    638.91756  0.011122442 0.0094728247            3 
 4788000   0.49450696   -8.7195476    638.79034  0.011117905  0.009469651            1 
 4789000   0.49711148   -8.7305996    638.43085  0.011109328 0.0094664778            3 
 4790000   0.48899634   -8.7304991    639.45661  0.011124854 0.0094633069            1 
 4791000   0.48844854   -8.7141309     639.0224   0.01111498 0.0094601377            2 
 4792000   0.48706948   -8.7213405    640.04313  0.011130411 0.0094569713            5 
 4793000   0.49290283   -8.7329702    638.68965  0.011104556 0.0094538059            2 
 4794000   0.47320446   -8.7302615    638.59674  0.011100625 0.0094506417            3 
 4795000   0.48129547   -8.7276193     639.0677  0.011106495   0.00944748            1 
 4796000   0.49258287   -8.7328631    639.18697  0.011106251 0.0094443193            3 
 4797000   0.48756408    -8.731467    639.27312  0.011105432 0.0094411579            1 
 4798000   0.48582717    -8.726308    638.97089  0.011097869 0.0094379976            2 
 4799000   0.48203756   -8.7212539    640.49184  0.011121967 0.0094348394            3 
 4800000   0.48119152   -8.7266098     639.6452  0.011104951 0.0094316823            2 
 4801000   0.47725608   -8.7339636    639.28489  0.011096384 0.0094285238            2 
 4802000   0.49095854   -8.7372541    639.13523  0.011091476 0.0094253673            2 
 4803000   0.46632399    -8.720207    639.73903  0.011099643 0.0094222122            4 
 4804000   0.48395625   -8.7439816    638.34764  0.011073197 0.0094190592            2 
 4805000   0.47176716    -8.732575    638.34245  0.011070802 0.0094159084            2 
 4806000   0.48681973   -8.7393345     638.1736  0.011065571 0.0094127571            2 
 4807000   0.48885146   -8.7183923    637.77192  0.011056305 0.0094096082            2 
 4808000   0.48519149   -8.7498063    638.45181   0.01106579 0.0094064606            2 
 4809000   0.48825096   -8.7369664     639.4813  0.011081328 0.0094033155            2 
 4810000   0.49058857   -8.7220467    639.61042  0.011081262  0.009400171            2 
 4811000   0.48747849   -8.7211549    638.11492  0.011053054 0.0093970273            2 
 4812000   0.48903441   -8.7256875    638.44625  0.011056495 0.0093938841            2 
 4813000   0.49167192   -8.7191312    639.35603   0.01106995 0.0093907438            2 
 4814000   0.48013025   -8.7331607    638.81039  0.011058205 0.0093876057            2 
 4815000   0.48189372   -8.7309595    638.68304  0.011053704 0.0093844694            3 
 4816000   0.48430375   -8.7210529    638.53042  0.011048768 0.0093813324            2 
 4817000   0.48850299   -8.7274018      639.546  0.011064044  0.009378199            3 
 4818000   0.48967663   -8.7207391    639.81631  0.011066423 0.0093750671            3 
 4819000   0.48095092   -8.7200218     638.9146  0.011048534  0.009371937            2 
 4820000   0.49086496   -8.7539373    639.69371  0.011059711 0.0093688054            2 
 4821000    0.4803435   -8.7234241    637.98303  0.011027847 0.0093656752            2 
 4822000   0.47382069   -8.7269794    638.47079   0.01103399  0.009362545            3 
 4823000   0.48224838   -8.7314426    638.05904  0.011024588 0.0093594174            2 
 4824000   0.47654773   -8.7343867    638.35259  0.011027373 0.0093562908            3 
 4825000   0.48246571   -8.7327092    639.63208  0.011047186  0.009353165            2 
 4826000   0.47499857   -8.7396998    638.23811  0.011020827 0.0093500401            3 
 4827000   0.48056491   -8.7376777    638.48134  0.011022743 0.0093469176            2 
 4828000   0.48500658   -8.7288669    637.77114  0.011008201 0.0093437972            2 
 4829000   0.46987157   -8.7247975    639.05304  0.011028043 0.0093406761            2 
 4830000   0.47903606   -8.7376622     638.7569   0.01102065 0.0093375566            2 
 4831000    0.4853316   -8.7292321    638.47266  0.011013466 0.0093344397            2 
 4832000   0.46635287   -8.7174661    638.53195  0.011012209 0.0093313225            2 
 4833000   0.47921125   -8.7398909    638.48748  0.011009164 0.0093282086            2 
 4834000   0.49159051   -8.7229327    639.21929  0.011019502 0.0093250967            2 
 4835000   0.47471058   -8.7287796    638.78778  0.011009786 0.0093219891            3 
 4836000   0.47737293   -8.7473505    639.19758  0.011014571 0.0093188773            3 
 4837000   0.47111396   -8.7264577     639.1892  0.011012149 0.0093157671            2 
 4838000   0.46479045    -8.726288    639.00951  0.011006778 0.0093126582            2 
 4839000    0.4908496   -8.7405513    638.39782  0.010993969  0.009309553            2 
 4840000    0.4836829   -8.7241941    639.18051  0.011005174 0.0093064494            2 
 4841000   0.47982625   -8.7333234    638.41496  0.010989723 0.0093033451            2 
 4842000   0.47679376   -8.7313419    638.64922  0.010991485 0.0093002455            2 
 4843000   0.47105355   -8.7227801     638.9207  0.010993886 0.0092971474            3 
 4844000   0.47178476   -8.7396972    638.53375   0.01098496 0.0092940507            2 
 4845000   0.46587937   -8.7373679    639.31967   0.01099621 0.0092909542            1 
 4846000   0.47438903   -8.7315255    638.56916  0.010981035  0.009287859            4 
 4847000   0.47773399   -8.7228236    638.05287  0.010969893 0.0092847623            3 
 4848000   0.47536685   -8.7398414    638.61401  0.010977276 0.0092816706            2 
 4849000   0.47386446   -8.7338632    638.13145  0.010966719 0.0092785784            2 
 4850000   0.47035872   -8.7341595    638.52711  0.010971256 0.0092754838            2 
 4851000   0.47307906   -8.7368836      637.788  0.010956298 0.0092723923            2 
 4852000   0.46826753   -8.7417853    638.99358  0.010974745 0.0092693021            2 
 4853000   0.46925459   -8.7351097     638.5584  0.010965011 0.0092662132            3 
 4854000   0.48160518   -8.7441288    638.68273  0.010964887 0.0092631251            3 
 4855000   0.47683758   -8.7379531    637.69108  0.010945607 0.0092600406            2 
 4856000   0.47609847    -8.727696    637.83193   0.01094577  0.009256956            2 
 4857000   0.46703303   -8.7424718    638.25036  0.010950696 0.0092538728            2 
 4858000   0.47457987   -8.7392244    638.81734  0.010958168 0.0092507892            4 
 4859000   0.47023333   -8.7311181     638.6487   0.01095302 0.0092477047            2 
 4860000   0.47453538   -8.7438474    638.70659  0.010951759  0.009244626            2 
 4861000   0.47715597   -8.7546377    638.86534  0.010952228 0.0092415483            2 
 4862000     0.466175    -8.750201    638.65115  0.010946304 0.0092384701            3 
 4863000   0.47656542   -8.7449233     638.9165    0.0109486 0.0092353962            1 
 4864000   0.48679095    -8.735572    638.60162  0.010940954 0.0092323231            2 
 4865000   0.47950689   -8.7459681    638.53878  0.010937629  0.009229251            2 
 4866000    0.4753993   -8.7376612    638.32378  0.010931699 0.0092261798            2 
 4867000   0.47126223   -8.7518532    639.53533  0.010950197 0.0092231093            1 
 4868000   0.47558772    -8.738578    638.85576  0.010936315 0.0092200406            1 
 4869000   0.48353821    -8.740807    637.66649  0.010913714 0.0092169731            2 
 4870000   0.47162686   -8.7307515    638.58958  0.010927269 0.0092139087            2 
 4871000   0.46625994   -8.7165066    637.49331   0.01090627 0.0092108427            2 
 4872000   0.47447405   -8.7363989    638.39764    0.0109195 0.0092077781            4 
 4873000   0.46886765    -8.733914    637.98708  0.010910238 0.0092047159            3 
 4874000   0.47297093   -8.7393505    637.57528  0.010900959 0.0092016548            2 
 4875000   0.47357889   -8.7378136    637.85068   0.01090343 0.0091985942            1 
 4876000   0.46754443   -8.7367731     638.7848  0.010917159 0.0091955346            2 
 4877000   0.46732809   -8.7455537    637.91596  0.010900074 0.0091924733            2 
 4878000   0.46300518   -8.7516905    637.55444  0.010891664 0.0091894159            3 
 4879000   0.46225364   -8.7568406    638.78623   0.01091047 0.0091863603            2 
 4880000   0.46054838   -8.7589476    638.49228  0.010903215 0.0091833057            2 
 4881000   0.46198364   -8.7382575    638.52549  0.010901548 0.0091802521            2 
 4882000   0.46390415   -8.7456751    638.92386  0.010906115 0.0091772012            4 
 4883000   0.46280068     -8.74162    638.48268  0.010896353 0.0091741525            2 
 4884000   0.47709548   -8.7339261    639.15488  0.010905591 0.0091711074            1 
 4885000   0.46883997   -8.7407105    638.89294   0.01089889 0.0091680603            2 
 4886000    0.4726422   -8.7463126    637.71106  0.010876502 0.0091650124            2 
 4887000   0.46213915   -8.7559623    638.44634  0.010886814 0.0091619663            2 
 4888000   0.46435445   -8.7522793    637.44201  0.010867465 0.0091589213            3 
 4889000   0.46209314    -8.758962    639.10384  0.010893568 0.0091558799            3 
 4890000   0.46793484   -8.7542245    638.04404   0.01087328 0.0091528387            4 
 4891000   0.47301886   -8.7474338      637.763  0.010866268 0.0091498024            3 
 4892000   0.46555445   -8.7392913    638.59431  0.010878208 0.0091467661            2 
 4893000    0.4646935   -8.7463078    638.58232   0.01087578 0.0091437279            2 
 4894000   0.46971452    -8.740954    638.14227  0.010866065 0.0091406911            2 
 4895000   0.47435626   -8.7294659    638.51321   0.01087016 0.0091376581            3 
 4896000   0.47618031   -8.7309809    638.37845  0.010865646 0.0091346253            2 
 4897000   0.47918774   -8.7506891    638.96248  0.010873366  0.009131594            2 
 4898000   0.46510475   -8.7534801    638.43701  0.010862206 0.0091285657            2 
 4899000    0.4831472   -8.7182352    638.12617  0.010854701 0.0091255407            3 
 4900000   0.47788805   -8.7583012     638.7317  0.010862784 0.0091225149            4 
 4901000   0.45834146   -8.7491753    638.54443  0.010857383 0.0091194872            2 
 4902000   0.45745308   -8.7450742    637.17281  0.010831851 0.0091164619            3 
 4903000   0.46250563   -8.7541814    638.83323  0.010857863 0.0091134381            4 
 4904000   0.47513217   -8.7701848    637.45635  0.010832252 0.0091104179            4 
 4905000   0.45951858   -8.7457674    638.09291  0.010840858 0.0091073999            1 
 4906000   0.46148812   -8.7621553    638.28812  0.010841964 0.0091043837            2 
 4907000   0.46902004   -8.7535936    638.04112   0.01083556 0.0091013695            3 
 4908000   0.46337117   -8.7526327    637.56591  0.010825284  0.009098353            2 
 4909000   0.47227897   -8.7580591     637.9692  0.010829925 0.0090953409            4 
 4910000   0.45771636    -8.752991      637.696  0.010823082 0.0090923256            3 
 4911000   0.46605075   -8.7515983    637.84443  0.010823397 0.0090893101            2 
 4912000   0.45233134   -8.7617727    638.47383  0.010831871 0.0090862969            3 
 4913000   0.47643017   -8.7543203    637.11464  0.010806612 0.0090832853            2 
 4914000   0.46063567   -8.7440886    637.23924  0.010806526 0.0090802768            3 
 4915000   0.47024411   -8.7519234     638.4636  0.010825087 0.0090772703            2 
 4916000   0.47067804   -8.7589211    638.70915  0.010827047 0.0090742626            4 
 4917000   0.46829294   -8.7647144    637.84883  0.010810264 0.0090712563            2 
 4918000    0.4598315   -8.7448619    639.12641  0.010829714 0.0090682513            3 
 4919000   0.46695184   -8.7560665    638.39465  0.010815116  0.009065246            3 
 4920000    0.4544414    -8.761353    637.06636  0.010790419 0.0090622419            2 
 4921000   0.45526379   -8.7589135    638.74894   0.01081672 0.0090592398            3 
 4922000   0.45695611   -8.7572517    638.49155  0.010810164 0.0090562407            4 
 4923000   0.47280054   -8.7546979    637.74261  0.010795291 0.0090532425            3 
 4924000   0.47069102   -8.7634605    637.68962  0.010792202 0.0090502454            5 
 4925000   0.45439608   -8.7678467    637.66356   0.01078957 0.0090472488            4 
 4926000   0.45537029   -8.7467873    638.84436  0.010807355 0.0090442514            2 
 4927000   0.45474425   -8.7634128    638.05265  0.010791771 0.0090412576            2 
 4928000   0.46989724   -8.7541225    638.51331  0.010797371 0.0090382647            2 
 4929000   0.45822136   -8.7430535    637.91811  0.010785117  0.009035275            2 
 4930000   0.45751862   -8.7669489     637.7333  0.010779806 0.0090322825            2 
 4931000   0.46592766   -8.7570953    637.21615   0.01076888 0.0090292912            1 
 4932000   0.46162048   -8.7480278    638.14993  0.010782474 0.0090263033            2 
 4933000   0.46913235   -8.7700392    637.47281  0.010768849 0.0090233156            1 
 4934000   0.46255682   -8.7497765    637.61945  0.010769143 0.0090203301            2 
 4935000   0.46413012   -8.7630011    638.51438  0.010782073 0.0090173451            4 
 4936000   0.45671584   -8.7511339    637.34657  0.010760173 0.0090143597            3 
 4937000   0.45971019   -8.7740523    638.45221  0.010776656 0.0090113766            2 
 4938000   0.45239606   -8.7800004    638.22496  0.010770639  0.009008398            3 
 4939000   0.46202932   -8.7546624    637.42947  0.010755036 0.0090054198            2 
 4940000   0.46080716   -8.7692695    637.34616  0.010751453 0.0090024422            4 
 4941000   0.46487765   -8.7549468    638.70152  0.010772137 0.0089994666            3 
 4942000   0.46588056   -8.7490973    637.26763  0.010745778 0.0089964876            3 
 4943000   0.45459775   -8.7589841    637.64764  0.010750011 0.0089935119            1 
 4944000   0.47379529   -8.7713669    638.28725  0.010758617 0.0089905409            3 
 4945000   0.46238618   -8.7854076    637.18318  0.010737836 0.0089875689            3 
 4946000   0.45623219   -8.7820554    637.51354  0.010741231  0.008984598            2 
 4947000   0.45601964   -8.7500633    637.67882  0.010741844 0.0089816272            2 
 4948000   0.45280442   -8.7695849    637.66154  0.010739382 0.0089786602            2 
 4949000   0.46319566   -8.7578319    637.09502  0.010727673 0.0089756917            2 
 4950000   0.46936506   -8.7631855    636.81176  0.010720737  0.008972725            2 
 4951000   0.46518841    -8.781292    638.12787  0.010740724 0.0089697595            2 
 4952000   0.45077901   -8.7712232    636.86772  0.010717349 0.0089667944            3 
 4953000   0.45031234   -8.7433362    638.48697  0.010742428  0.008963833            2 
 4954000   0.46026058   -8.7782408    638.41164  0.010738993 0.0089608715            2 
 4955000   0.47021069   -8.7747392    637.00099  0.010713101 0.0089579107            3 
 4956000   0.45240326   -8.7591664      637.269  0.010715446 0.0089549497            4 
 4957000   0.46533934   -8.7686985    636.97386  0.010708323 0.0089519921            3 
 4958000   0.45810885   -8.7681952    638.20961  0.010726933 0.0089490341            5 
 4959000   0.46257186    -8.758423    636.98878  0.010704255   0.00894608            2 
 4960000   0.45169733   -8.7760853    637.17449  0.010705217 0.0089431245            4 
 4961000   0.44544696   -8.7738362    638.59366  0.010726898 0.0089401706            1 
 4962000   0.46468891   -8.7704192    637.87275  0.010712628 0.0089372191            2 
 4963000   0.46291614   -8.7591872    637.80233  0.010709288 0.0089342717            2 
 4964000   0.45955258   -8.7547936    636.73952  0.010689288  0.008931324            3 
 4965000   0.45297426   -8.7621547    638.21679   0.01071193 0.0089283769            2 
 4966000   0.47210054   -8.7598006    636.63186  0.010683177 0.0089254313            5 
 4967000   0.46650809   -8.7575985    637.16474  0.010689966 0.0089224879            3 
 4968000   0.44310739   -8.7635989    637.92153  0.010700509 0.0089195443            2 
 4969000   0.45686491   -8.7615416    637.13492  0.010685163 0.0089166024            2 
 4970000   0.45037069    -8.774585    638.29887   0.01070253 0.0089136631            2 
 4971000   0.45173864   -8.7683758    637.69705  0.010690288  0.008910721            3 
 4972000   0.45872838   -8.7694893    636.79052  0.010672944 0.0089077832            2 
 4973000   0.45758736   -8.7647036      637.326  0.010679771 0.0089048434            2 
 4974000   0.45842887   -8.7603961    638.01606  0.010689185 0.0089019083            2 
 4975000   0.45491838   -8.7448507    636.94025  0.010669016 0.0088989752            2 
 4976000    0.4554789   -8.7690867     637.5708  0.010677432 0.0088960409            2 
 4977000   0.45168581   -8.7651827    637.09212  0.010667271 0.0088931065            3 
 4978000   0.45553284   -8.7792717    636.33719  0.010652491 0.0088901736            2 
 4979000   0.45837689   -8.7529741    638.64817   0.01068903 0.0088872435            2 
 4980000    0.4623559   -8.7587376    637.64902  0.010670164 0.0088843178            2 
 4981000   0.45396303   -8.7642484    638.10374   0.01067563 0.0088813899            2 
 4982000   0.44954254    -8.780096    637.21388  0.010658602 0.0088784646            2 
 4983000   0.44476055   -8.7581551    637.22689  0.010656681  0.008875541            3 
 4984000   0.45533211   -8.7654041    637.24674  0.010654875 0.0088726171            2 
 4985000   0.46326941    -8.770825    637.90921  0.010663812 0.0088696939            2 
 4986000   0.45903901   -8.7792823    637.27765  0.010651117 0.0088667707            3 
 4987000   0.44822545   -8.7620202    637.58695   0.01065415  0.008863851            2 
 4988000   0.45414922   -8.7793031    636.94186  0.010641237 0.0088609335            4 
 4989000   0.45371017   -8.7807134    637.84585  0.010654203 0.0088580163            1 
 4990000   0.46125396   -8.7630263    636.83832  0.010635242 0.0088550993            4 
 4991000   0.45089334   -8.7854329     637.3734  0.010642046 0.0088521851            2 
 4992000   0.45350882   -8.7666909    637.63234  0.010644236  0.008849274            3 
 4993000   0.44321966   -8.7578669    636.50541  0.010623296 0.0088463629            3 
 4994000   0.45651181   -8.7718999    637.63557  0.010640028 0.0088434544            2 
 4995000   0.45745614   -8.7810724    637.42351   0.01063436 0.0088405465            5 
 4996000   0.45214483   -8.7712652    637.26144  0.010629528  0.008837639            3 
 4997000   0.46128582   -8.7624304    636.99015  0.010622876 0.0088347321            2 
 4998000   0.44881865   -8.7703004    636.82705  0.010618031 0.0088318269            2 
 4999000   0.44960982   -8.7752925    638.27221  0.010639998 0.0088289222            1 
 5000000   0.45005126   -8.7888081     636.7609  0.010612682 0.0088260168            2 
 5001000   0.44409114   -8.7711455    637.17352  0.010617435 0.0088231143            1 
 5002000   0.45006744   -8.7681347    637.48065  0.010620429 0.0088202135            2 
 5003000   0.45254127   -8.7634409    637.25254  0.010614507 0.0088173123            3 
 5004000   0.45173267   -8.7730578    636.71542  0.010603441 0.0088144126            3 
 5005000   0.44708938   -8.7749714     637.1692  0.010608878 0.0088115151            2 
 5006000   0.44930192    -8.762975       637.28  0.010608603 0.0088086184            3 
 5007000   0.44509666   -8.7805571    636.88735  0.010599949 0.0088057235            3 
 5008000   0.44637851   -8.7736349    637.14074  0.010602049 0.0088028271            3 
 5009000   0.45551796   -8.7780823    636.72594  0.010593032 0.0087999336            2 
 5010000   0.44931386   -8.7772951    637.21401  0.010599035  0.008797043            2 
 5011000   0.45567472   -8.7653083    637.92824  0.010608798 0.0087941545            1 
 5012000   0.45665636   -8.7598424    636.60871  0.010584742 0.0087912672            4 
Loop time of 12128.5 on 48 procs for 5000000 steps with 4000 atoms

Performance: 71237.141 tau/day, 412.252 timesteps/s
99.4% CPU use with 48 MPI tasks x no OpenMP threads

MPI task timing breakdown:
Section |  min time  |  avg time  |  max time  |%varavg| %total
---------------------------------------------------------------
Pair    | 737.06     | 839.85     | 910.59     | 117.6 |  6.92
Neigh   | 78.999     | 82.335     | 85.357     |  17.9 |  0.68
Comm    | 740.52     | 813.54     | 928.77     | 137.4 |  6.71
Output  | 13.794     | 13.799     | 13.885     |   0.3 |  0.11
Modify  | 10247      | 10274      | 10301      |  13.3 | 84.71
Other   |            | 105.3      |            |       |  0.87

Nlocal:        83.3333 ave          91 max          74 min
Histogram: 2 2 6 2 6 9 7 8 3 3
Nghost:        2097.79 ave        2112 max        2078 min
Histogram: 3 1 1 4 7 7 10 8 2 5
Neighs:        13675.5 ave       15581 max       11614 min
Histogram: 1 4 2 7 6 9 7 10 0 2
FullNghs:      27350.5 ave       30013 max       24046 min
Histogram: 2 1 4 5 6 10 7 6 3 4

Total # of neighbors = 1312825
Ave neighs/atom = 328.20625
Neighbor list builds = 267527
Dangerous builds = 1

#clear
#
#next RN
#
#jump SELF
Total wall time: 3:22:11
