
units lj                  # Use reduced LJ style units
atom_style atomic         # Uncharged point particles
atom_modify map hash      # Needed for indexing of clusters etc
                          # Used to be able to find where atoms are in relation to each other.

lattice fcc 1.0 spacing 1 1 1
Lattice spacing in x,y,z = 1.5874011 1.5874011 1.5874011
region box block 0 10 0 10 0 10 units lattice
create_box 2 box
Created orthogonal box = (0.0000000 0.0000000 0.0000000) to (15.874011 15.874011 15.874011)
  3 by 4 by 4 MPI processor grid
create_atoms 1 box
Created 4000 atoms
  using lattice units in orthogonal box = (0.0000000 0.0000000 0.0000000) to (15.874011 15.874011 15.874011)
  create_atoms CPU = 0.023 seconds
set type 1 type/fraction 2 0.97 78393
Setting atom values ...
  3879 settings made for type/fraction
mass 1 1.0
mass 2 1.0
pair_style lj/cut  3.5
pair_modify tail  yes
pair_coeff 1  1  1.0  1.0   # Intearaction between 1 and 1 set with epsilon = 1 and sigma = 1
pair_coeff 1  2  1.5  0.8
pair_coeff 2  2  0.5  0.88

write_data data.0
System init for write_data ...
Neighbor list info ...
  update every 1 steps, delay 10 steps, check yes
  max neighbors/atom: 2000, page size: 100000
  master list distance cutoff = 3.8
  ghost atom cutoff = 3.8
  binsize = 1.9, bins = 9 9 9
  1 neighbor lists, perpetual/occasional/extra = 1 0 0
  (1) pair lj/cut, perpetual
      attributes: half, newton on
      pair build: half/bin/atomonly/newton
      stencil: half/bin/3d
      bin: standard
WARNING: Not all mixed pair coeffs generated from mixing. Use write_data with 'pair ij' option to store all pair coeffs. (../write_data.cpp:312)


#############################
#   M E L T   S Y S T E M   #
#############################

velocity all create 2.4 5300450 mom yes dist gaussian # Assign velocities
                                                    # Temperature 2.4, random number seed, zero linear momentum
                                                                                # Gaussian distribution

timestep 0.002   # simulation timestep
thermo 1000       # output thermodynamic data every 1000 steps bf 100

# Define a fix  in this case with index 1 applied to all
# particles in the simulation. This fix is for simulations
# in the anisotropic NPT ensemble. Note that we use the MTK
# correction.
fix 1 all npt temp 2.4 2.4 0.1 iso 5.68 5.68 0.5 mtk yes tchain 5 pchain 5 # Use NPT ensemble
                                                                         # Set temperature and pressure and damping
                                                                         # Numbers of thermostats in chain and in barostat
run 10000          # run for 10000 steps
Per MPI rank memory allocation (min/avg/max) = 3.642 | 3.644 | 3.648 Mbytes
Step Temp E_pair E_mol TotEng Press Volume 
       0          2.4   -2.8451072            0   0.75399283    -1.976462         4000 
    1000    2.3986269   -1.6501569            0     1.946884    5.7933131    4182.4818 
    2000    2.3646347   -1.6768756            0    1.8691898    5.8574077    4132.4638 
    3000    2.3879101   -1.7128474            0    1.8681223    5.4845912     4163.066 
    4000    2.4535071   -1.6431858            0    2.0361548    5.6797841    4215.3015 
    5000    2.4068162   -1.6817831            0    1.9275385    5.7916171    4150.7032 
    6000    2.4287098   -1.6550286            0    1.9871253    5.7784487    4177.7323 
    7000    2.3621509   -1.6752522            0    1.8670883    5.4967634    4204.4288 
    8000     2.447462   -1.6915917            0    1.9786835    5.4624706    4212.0054 
    9000    2.4416329   -1.6576986            0    2.0038351    5.9960625    4130.8196 
   10000    2.4346662   -1.6538844            0    1.9972018    5.9037423    4168.7981 
Loop time of 2.41306 on 48 procs for 10000 steps with 4000 atoms

Performance: 716103.426 tau/day, 4144.117 timesteps/s
99.6% CPU use with 48 MPI tasks x no OpenMP threads

MPI task timing breakdown:
Section |  min time  |  avg time  |  max time  |%varavg| %total
---------------------------------------------------------------
Pair    | 1.0436     | 1.1075     | 1.1851     |   2.7 | 45.90
Neigh   | 0.20452    | 0.21048    | 0.22625    |   1.0 |  8.72
Comm    | 0.75866    | 0.83666    | 0.91187    |   3.6 | 34.67
Output  | 0.00025644 | 0.00026156 | 0.00032715 |   0.0 |  0.01
Modify  | 0.19651    | 0.24341    | 0.27897    |   4.6 | 10.09
Other   |            | 0.01477    |            |       |  0.61

Nlocal:        83.3333 ave          94 max          73 min
Histogram: 1 5 5 7 6 7 6 7 2 2
Nghost:        1602.94 ave        1638 max        1574 min
Histogram: 3 4 7 7 8 7 3 6 1 2
Neighs:        9155.96 ave       10798 max        7812 min
Histogram: 1 6 6 9 7 6 5 5 2 1

Total # of neighbors = 439486
Ave neighs/atom = 109.87150
Neighbor list builds = 906
Dangerous builds = 205

# Equilibrate just above the melting temperature to avoid step fn in T

fix 1 all npt temp 1.25 1.25 0.1 iso 5.68 5.68 0.5 mtk yes tchain 5 pchain 5
run 2000
Per MPI rank memory allocation (min/avg/max) = 3.643 | 3.645 | 3.649 Mbytes
Step Temp E_pair E_mol TotEng Press Volume 
   10000    2.4346662   -1.6538844            0    1.9972018    5.9037423    4168.7981 
   11000    1.2409661   -2.5222282            0  -0.66124434    5.9568904    3251.5503 
   12000     1.254618   -2.5166746            0  -0.63521809    5.7981624    3278.2311 
Loop time of 0.572211 on 48 procs for 2000 steps with 4000 atoms

Performance: 603973.311 tau/day, 3495.216 timesteps/s
99.6% CPU use with 48 MPI tasks x no OpenMP threads

MPI task timing breakdown:
Section |  min time  |  avg time  |  max time  |%varavg| %total
---------------------------------------------------------------
Pair    | 0.25578    | 0.27633    | 0.29877    |   1.9 | 48.29
Neigh   | 0.037781   | 0.039712   | 0.041726   |   0.5 |  6.94
Comm    | 0.18193    | 0.20704    | 0.23159    |   2.6 | 36.18
Output  | 5.7128e-05 | 5.816e-05  | 7.0702e-05 |   0.0 |  0.01
Modify  | 0.041286   | 0.044426   | 0.047243   |   0.8 |  7.76
Other   |            | 0.004645   |            |       |  0.81

Nlocal:        83.3333 ave          93 max          76 min
Histogram: 4 3 8 5 10 10 3 3 0 2
Nghost:        1875.54 ave        1902 max        1850 min
Histogram: 4 0 7 7 6 7 10 2 2 3
Neighs:        11662.1 ave       13219 max        9891 min
Histogram: 1 1 5 8 9 7 6 2 5 4

Total # of neighbors = 559780
Ave neighs/atom = 139.94500
Neighbor list builds = 142
Dangerous builds = 12

#############################
# L I N E A R  Q U E N C H  #
#############################

# Define solid atoms. This closely follows ten Wolde  Ruiz-Montero and Frenkel  Faraday Discuss  1996  104  93-110
# Compute components of the per-atom q6 vector
compute q6 all orientorder/atom degrees 1 6 components 6 nnn NULL cutoff 1.3 # compute the Q6 parameter.
                                                                             # Use all neighbours within 1.3 unit cell.

# get number of connections
compute coord_number all coord/atom orientorder q6 0.5

# An atom is solid if it has 8 or more connections (of a possible 14)
variable is_solid atom c_coord_number>=8
group solid dynamic all var is_solid    # Must be dynamic to update
dynamic group solid defined

# do clustering
compute cluster solid cluster/atom 1.3 # Create a cluster where all atoms within are solid and max 1.3 units from another member

# define chunks one chunk per cluster
compute clus_chunks solid chunk/atom c_cluster nchunk every compress yes  # Says which atoms are in which chunk

# count the size of each chunk
compute size_chunks solid property/chunk clus_chunks count


# Find the maximum entry in the vector of chunk sizes
variable max_n equal max(c_size_chunks)


# Thermo style which includes this variable
# thermo_style custom step temp pe vol v_max_n

thermo ${N}  # Print the thermo information every 100 steps
thermo 1000  

# Reset the npt fix at a lower temperature (below freezing)
fix 1  all npt temp  ${temp} ${temp}  0.1  iso  5.68  5.68  0.5  mtk yes tchain  5  pchain  5
fix 1  all npt temp  0.45 ${temp}  0.1  iso  5.68  5.68  0.5  mtk yes tchain  5  pchain  5
fix 1  all npt temp  0.45 0.45  0.1  iso  5.68  5.68  0.5  mtk yes tchain  5  pchain  5

dump dmp2 all dcd ${N} traj.dcd
dump dmp2 all dcd 1000 traj.dcd


compute msd all msd com yes
variable twopoint equal c_msd[4]/6/(step*dt+1.0e-6)
fix 9 all vector 10 c_msd[4]
variable fit equal slope(f_9)/6/(10*dt)
thermo_style custom step temp pe c_msd[4] v_twopoint v_fit v_max_n

fix 1 all npt temp 1.25 ${temp} 0.1 iso 5.68 5.68 0.5 mtk yes tchain 5 pchain 5
fix 1 all npt temp 1.25 0.45 0.1 iso 5.68 5.68 0.5 mtk yes tchain 5 pchain 5
run 5000000 # 5000000  # Run for this many steps
Neighbor list info ...
  update every 1 steps, delay 10 steps, check yes
  max neighbors/atom: 2000, page size: 100000
  master list distance cutoff = 3.8
  ghost atom cutoff = 3.8
  binsize = 1.9, bins = 8 8 8
  4 neighbor lists, perpetual/occasional/extra = 1 3 0
  (1) pair lj/cut, perpetual
      attributes: half, newton on
      pair build: half/bin/atomonly/newton
      stencil: half/bin/3d
      bin: standard
  (2) compute orientorder/atom, occasional
      attributes: full, newton on
      pair build: full/bin/atomonly
      stencil: full/bin/3d
      bin: standard
  (3) compute coord/atom, occasional
      attributes: full, newton on
      pair build: full/bin/atomonly
      stencil: full/bin/3d
      bin: standard
  (4) compute cluster/atom, occasional
      attributes: full, newton on
      pair build: full/bin/atomonly
      stencil: full/bin/3d
      bin: standard
Per MPI rank memory allocation (min/avg/max) = 9.812 | 9.818 | 9.822 Mbytes
Step Temp PotEng c_msd[4] v_twopoint v_fit v_max_n 
   12000     1.254618   -2.5166746 8.5216699e-31 5.9178261e-33 8.3333333e+20            3 
   13000    1.2788541   -2.5394437    1.1462402 0.0073476934  0.098261452            2 
   14000    1.2734248   -2.5407627    2.4451692  0.014554578   0.10344567            1 
   15000    1.2471717   -2.5721777    3.7906768  0.021059315   0.10634821            2 
   16000    1.2448415   -2.5480955      5.10234  0.026574687     0.108616            2 
   17000    1.2434345   -2.5230521    6.4100873  0.031421996   0.10931767            1 
   18000    1.2468343   -2.5402029    7.6630216  0.035476951    0.1085205            2 
   19000    1.2417982   -2.5456396    8.7881396  0.038544471   0.10738687            1 
   20000    1.2498332   -2.5373449    9.9950773  0.041646154   0.10629768            1 
   21000    1.2527331   -2.5621098    11.280942  0.044765641   0.10578247            1 
   22000    1.2423992   -2.5460299    12.611437  0.047770593   0.10539562            1 
   23000     1.263703   -2.5529371    13.882487  0.050298864   0.10547334            2 
   24000    1.2685739   -2.5327425      15.0284  0.052181944   0.10512617            1 
   25000    1.2704495   -2.5677068    16.258112  0.054193707   0.10476981            1 
   26000     1.242212   -2.5469187    17.442974  0.055906968    0.1046224            2 
   27000    1.2614439   -2.5378792    18.824548  0.058100457   0.10462017            2 
   28000    1.2861665   -2.5476689    20.043931  0.059654555   0.10466932            1 
   29000     1.257332    -2.566831    21.303086  0.061215764   0.10462502            1 
   30000    1.2388891   -2.5397103    22.351874  0.062088537   0.10443381            1 
   31000    1.2469746   -2.5461988    23.673158   0.06363752   0.10420809            1 
   32000    1.2765949   -2.5412135    25.100825  0.065366732   0.10419663            1 
   33000    1.2550709   -2.5442462    26.562885  0.067077991   0.10432587            3 
   34000     1.251517   -2.5340301    27.727604  0.067959812   0.10440262            2 
   35000    1.2732952   -2.5314488    29.133071  0.069364455   0.10452358            1 
   36000    1.2343267   -2.5674785    30.227634  0.069971375   0.10466685            1 
   37000    1.2453384   -2.5706399    31.644916  0.071272333   0.10484231            2 
   38000    1.2550139   -2.5399126    33.186549  0.072777518   0.10504175            1 
   39000    1.2707065   -2.5324393     34.37274  0.073446026   0.10534372            1 
   40000    1.2713081   -2.5354204    35.835011  0.074656273   0.10560284            2 
   41000    1.2451458   -2.5694702     37.26752   0.07574699   0.10586734            2 
   42000    1.2406391   -2.5589954    38.566517  0.076520866   0.10616129            1 
   43000    1.2016517   -2.5283508    40.058399  0.077632556   0.10647185            2 
   44000    1.2438755   -2.5491282    41.064505  0.077773683   0.10673229            1 
   45000    1.2325577   -2.5501386    42.393333  0.078506172   0.10691079            1 
   46000    1.2632794   -2.5279212    43.674458  0.079120395    0.1071121            2 
   47000    1.2396089   -2.5557047    45.048519  0.079873259   0.10723868            2 
   48000    1.2302822   -2.5464919    46.123361  0.080075278   0.10730119            2 
   49000    1.2396979   -2.5529504    47.473333   0.08073696   0.10734167            1 
   50000    1.2637167   -2.5349573    48.858789  0.081431315   0.10745209            2 
   51000     1.284187   -2.5738848    49.789113  0.081354759   0.10749203            1 
   52000    1.2525739    -2.530945    51.073313  0.081848257    0.1074328            5 
   53000    1.2379287   -2.5445288    52.461464  0.082486579   0.10741722       -1e+20 
   54000    1.2179155   -2.5533937    53.837803  0.083083029   0.10739456            2 
   55000    1.2353198   -2.5285071    54.778801  0.082998183   0.10732738            1 
   56000    1.2385517   -2.5682653    55.534709  0.082640935   0.10723776            1 
   57000    1.2199575   -2.5493087     57.27168  0.083730526   0.10715879            1 
   58000    1.2352983   -2.5446061    58.815936  0.084505655   0.10710707            1 
   59000    1.2412031    -2.556164    60.017255  0.084770134   0.10710117            1 
   60000    1.2362297   -2.5547827    61.177137  0.084968245   0.10709363            2 
   61000    1.2252382   -2.5243474    62.752347  0.085727249    0.1070582            1 
   62000    1.2622284   -2.5707186    63.781819  0.085728251   0.10706095            1 
   63000    1.2118439   -2.5710526    65.334248  0.086420962   0.10709926            1 
   64000    1.2230316   -2.5271528    66.539452  0.086639911   0.10711556            1 
   65000    1.2363789   -2.5277424     67.86742  0.087009512   0.10712468            2 
   66000    1.2166672    -2.567893    69.371743  0.087590584   0.10711575            3 
   67000    1.2476927   -2.5758718    70.686406  0.087918415    0.1071454            1 
   68000    1.2572385   -2.5688834    72.249902  0.088541546   0.10717947            2 
   69000    1.2288129   -2.5557779    73.328203  0.088560632   0.10724856       -1e+20 
   70000    1.2444113   -2.5654362    74.593882   0.08880224   0.10730687            1 
   71000    1.2522403   -2.5468085    75.691619  0.088839928   0.10733824            1 
   72000    1.2417268   -2.5487605    77.178875  0.089327401   0.10735736            2 
   73000    1.2518142   -2.5610812    78.072935  0.089124354   0.10739182            1 
   74000    1.2428157   -2.5119655    79.858852  0.089931139    0.1073927            3 
   75000    1.2453956   -2.5709438    81.225597  0.090250662   0.10739385            2 
   76000    1.2465417   -2.5579288    81.746919  0.089634779   0.10736714            1 
   77000    1.2577737    -2.557206    83.264547  0.090113145    0.1073315            1 
   78000    1.2317335   -2.5818103    84.229527  0.089988811   0.10729099            1 
   79000    1.2133075   -2.5851217    86.106516  0.090829658   0.10727369            2 
   80000      1.26492   -2.5467205    87.065165   0.09069288   0.10727069            2 
   81000    1.2259743    -2.541036    88.467901  0.091016359   0.10725375            1 
   82000    1.2481867   -2.5610021    89.446822  0.090901241   0.10723992            3 
   83000     1.233413     -2.57438     90.37834  0.090741305   0.10721503            1 
   84000    1.2270319   -2.5993252    91.810659  0.091082002   0.10715566            2 
   85000    1.2456677   -2.5622436     92.90526  0.091083588   0.10710877            2 
   86000    1.2119439   -2.5482624    94.337629  0.091412431   0.10706149            2 
   87000    1.2417668   -2.5683081    94.906571  0.090906677   0.10699392            2 
   88000      1.27181   -2.5369722    96.511119  0.091393105   0.10690719            1 
   89000    1.2074092   -2.5726576    97.808258  0.091580766   0.10684838            1 
   90000    1.2167626   -2.5556344    98.771148  0.091454766    0.1067837            1 
   91000    1.2370997   -2.5737313    100.80452  0.092311835   0.10673335            2 
   92000    1.2280226   -2.5464634     101.4176  0.091863769   0.10667371            2 
   93000    1.2276512   -2.5483966    102.45901   0.09180915    0.1066133            2 
   94000    1.2448873   -2.5713281    103.96884  0.092170954   0.10656308            1 
   95000    1.2237934   -2.5708579    105.90244  0.092896876     0.106539            1 
   96000    1.2267898   -2.5656967    106.52459  0.092469258   0.10650749            2 
   97000    1.2574364   -2.5481022     108.6649  0.093354721   0.10650087            1 
   98000    1.2203379   -2.5844574    109.52149  0.093130517   0.10648591            1 
   99000    1.2449953   -2.5591717    110.23015  0.092786318   0.10645038            2 
  100000    1.2563005   -2.5579925    111.55501  0.092962504   0.10639644            4 
  101000    1.2487353   -2.5234666    113.14674  0.093355392   0.10635849            1 
  102000    1.1900977   -2.5768471    114.39761  0.093462101   0.10631571            3 
  103000    1.2310613   -2.5409548    116.23971  0.094045069   0.10627721            1 
  104000    1.2250355   -2.5348533     117.3035   0.09399319   0.10624269            1 
  105000    1.2232281   -2.5857908    118.04354  0.093685349   0.10623166            1 
  106000    1.2341124   -2.5482821    119.72981  0.094127207    0.1062118            2 
  107000    1.2375324    -2.555239    121.51642  0.094638954   0.10622201            1 
  108000    1.2447337   -2.5588255    122.48157  0.094507385   0.10621429            1 
  109000    1.2529568   -2.5546258     123.5906  0.094488224   0.10620764            1 
  110000    1.2225699   -2.5486693    125.20808  0.094854605   0.10621675            1 
  111000    1.2360234   -2.5524597    126.85762  0.095238455   0.10622941            2 
  112000    1.2477062   -2.5603248    128.30343  0.095463858   0.10624902            1 
  113000    1.2378402   -2.5412919    128.59332  0.094832831   0.10625367            2 
  114000    1.2184111   -2.5420693    130.28487  0.095237479   0.10626865            1 
  115000    1.2730037   -2.5491848    131.26654  0.095120684   0.10626885            1 
  116000     1.204588   -2.5517784    133.18642  0.095679897   0.10627562            2 
  117000    1.2673705    -2.582228    133.58774  0.095147961   0.10629407            2 
  118000    1.2066305   -2.5619682    134.68789  0.095118565   0.10629799            1 
  119000    1.2263628   -2.5616552    136.65603  0.095697497   0.10629756            2 
  120000    1.2214397   -2.5670875    137.45756   0.09545664   0.10629466            3 
  121000    1.2293227   -2.5798236    139.31769  0.095948825   0.10630583            3 
  122000    1.2095473   -2.5664627    140.91779  0.096255319   0.10631272            2 
  123000    1.2272245   -2.5553926    142.28819  0.096401211   0.10633088            2 
  124000    1.2026669   -2.5437691    144.02629  0.096791864   0.10636563            1 
  125000    1.2470895    -2.554256    145.45369  0.096969125   0.10641342            2 
  126000     1.225207   -2.5343469    147.29656  0.097418362   0.10645885            1 
  127000    1.2290477   -2.5681164    147.66152  0.096890762    0.1064967            2 
  128000    1.2104771   -2.5646037    149.84202  0.097553396   0.10653105            1 
  129000    1.2419073   -2.5409861    150.05931  0.096937541    0.1065522            1 
  130000    1.2440754   -2.5749134    151.26113  0.096962261   0.10656342            2 
  131000    1.2263509   -2.5539218    152.89796  0.097263335   0.10658474            2 
  132000    1.2416225   -2.5652621    153.62401  0.096984854   0.10659703            2 
  133000    1.2430837   -2.5568566     154.4481  0.096771992   0.10662271            1 
  134000    1.2109726   -2.5557835    156.35582  0.097236205   0.10663704            2 
  135000    1.2486819   -2.5413835     157.8722  0.097451972   0.10665985            1 
  136000    1.2309049   -2.5510441    159.68838   0.09784827   0.10668088            2 
  137000    1.2062509   -2.5768713    160.51761  0.097638451   0.10670572            1 
  138000    1.2181214    -2.584841    161.02982  0.097240228   0.10672256            1 
  139000    1.2273692   -2.5248293    163.36783  0.097942346   0.10673042            1 
  140000    1.2491402   -2.6042593     163.1314  0.097102024   0.10672452            1 
  141000    1.2699813   -2.5414264     164.7346  0.097360872    0.1067116            1 
  142000    1.2315068   -2.5976368    165.26219  0.096984854    0.1066994            2 
  143000    1.2710141    -2.559319    167.28702  0.097486609   0.10669531            2 
  144000    1.2434782   -2.5842309    168.45877  0.097487713   0.10669477            1 
  145000    1.2308708   -2.5780931    170.44935  0.097959394   0.10669682            1 
  146000    1.2265312   -2.5441427    172.42051  0.098413532   0.10671336            1 
  147000    1.2274094   -2.5910883    172.94359  0.098040583   0.10671881            2 
  148000    1.1969957   -2.5842673    173.98528  0.097964685   0.10672101            1 
  149000    1.2400919   -2.5748766    174.12283  0.097384135   0.10670847       -1e+20 
  150000    1.2391063    -2.533043     176.0271   0.09779283    0.1066977            2 
  151000    1.2045513   -2.5777972    177.77631  0.098110549   0.10668885            1 
  152000    1.2196291   -2.5805635    177.87289  0.097518029    0.1066652            2 
  153000    1.2193887    -2.580191     179.8008  0.097930717   0.10664168            2 
  154000    1.2569508   -2.5403595    181.63618  0.098287977   0.10662092            1 
  155000    1.2427753     -2.56843    181.77264  0.097727224   0.10660053            2 
  156000    1.1986973   -2.5522592    183.31864  0.097926625   0.10658401            1 
  157000    1.2286839   -2.5810319    184.63418  0.098001154   0.10656282            2 
  158000    1.1847231   -2.5871558    184.25532  0.097181076   0.10653881            2 
  159000    1.2160747   -2.5948967    186.53666  0.097765542   0.10650497            1 
  160000    1.2470933   -2.5687059    186.63722  0.097206888   0.10646683            1 
  161000    1.2304128   -2.5636765    190.16774  0.098430507    0.1064386            1 
  162000    1.2391389   -2.5610437    190.16458  0.097821285   0.10641218            2 
  163000    1.2099317    -2.576023    191.78188  0.098047996   0.10637659            2 
  164000    1.2469587   -2.5762447    193.04601  0.098092485   0.10634611            2 
  165000    1.2108218   -2.5798402    193.70925  0.097832956    0.1063017            1 
  166000    1.2221558   -2.5430544    194.94275  0.097862824   0.10626957            2 
  167000     1.205432   -2.5722487    196.24125  0.097924777   0.10623849            3 
  168000    1.2090737   -2.5828614     196.7458  0.097592164   0.10619419            1 
  169000    1.1966072   -2.5827402    197.42477   0.09734949   0.10615152            1 
  170000    1.2159508   -2.5409626    200.53188  0.098299939   0.10611579            1 
  171000    1.2053529   -2.5856372    200.26485  0.097594955    0.1060839            3 
  172000    1.2030254    -2.562713    202.38257  0.098053569   0.10604801            2 
  173000    1.2102183   -2.6016912    202.74062  0.097659257   0.10601294            1 
  174000    1.2381791   -2.5791156    205.00702  0.098183438    0.1059765            3 
  175000    1.2144532   -2.6042194    205.11767  0.097675079   0.10594963            3 
  176000     1.209764   -2.5893677    205.43897  0.097272241   0.10591248            2 
  177000    1.1992997   -2.5595552    207.83265  0.097849646   0.10586372            1 
  178000     1.246711   -2.5599621    209.01822  0.097854973   0.10582477            2 
  179000    1.2108764   -2.5472216    210.59604   0.09804285   0.10578283            2 
  180000    1.2398595   -2.5531485    212.05207  0.098172254   0.10574616            2 
  181000     1.255642    -2.556552    213.47773  0.098286248   0.10571441            2 
  182000    1.2305787   -2.5803147    213.56995  0.097788438   0.10567688            2 
  183000    1.2321918   -2.5780114     215.6407  0.098197038    0.1056329            1 
  184000    1.2228949   -2.5931954    215.43253  0.097569081   0.10558979            2 
  185000    1.2019879   -2.5712222    216.60348  0.097569136   0.10554607            2 
  186000    1.2333985   -2.5593251    218.62869   0.09795192   0.10550646            2 
  187000    1.2379873   -2.5894679    219.63995  0.097878764   0.10546416            2 
  188000     1.215192   -2.5709957    220.86321  0.097900359   0.10541972            2 
  189000    1.2320213   -2.5665684    222.11106  0.097932564   0.10538502            3 
  190000    1.2084628   -2.6136404    222.47701  0.097577636   0.10535581            3 
  191000    1.2391259   -2.5634211    224.95474  0.098147792   0.10532199            4 
  192000    1.2155737   -2.5695425    227.90543  0.098917288    0.1052985            1 
  193000    1.2481217   -2.5861458    227.73915  0.098332964   0.10527446            3 
  194000    1.2205552   -2.5730276    229.92346  0.098764373   0.10526198            1 
  195000    1.2205644   -2.5643189    231.02224  0.098727453   0.10525386            2 
  196000    1.2096732   -2.5584265    231.96992  0.098626664   0.10524285            1 
  197000     1.219354   -2.5809158    233.45236  0.098753114   0.10523941            1 
  198000    1.2240352   -2.5696925    234.60146  0.098737986    0.1052307            2 
  199000    1.2379045   -2.5685622     236.1905  0.098907246   0.10521861            1 
  200000     1.224906    -2.571541    235.97382  0.098322426   0.10520259            2 
  201000    1.1773446   -2.5679316    238.54655  0.098899895   0.10518887            1 
  202000    1.2501493   -2.5552815    240.13377  0.099065088   0.10517757            1 
  203000    1.2243559   -2.5750241    241.74888  0.099240099   0.10516922            3 
  204000     1.194902   -2.6053144    241.75194  0.098754879   0.10516449            1 
  205000    1.1842708   -2.5727834     244.3199  0.099317033   0.10515675            1 
  206000    1.2214689   -2.5814156     245.4958    0.0993106   0.10515075            2 
  207000    1.2035223   -2.5644955    246.33735  0.099169624   0.10515584            2 
  208000    1.2242223   -2.5855639    248.39637  0.099517775   0.10515847            2 
  209000    1.2167486   -2.5735074    248.97051  0.099270538   0.10515989            1 
  210000    1.2402165   -2.5451698    250.87384  0.099553111   0.10515466            2 
  211000    1.2158978   -2.5709439    251.86367  0.099472223   0.10514976            1 
  212000    1.2200985   -2.5545605    252.11698  0.099102586   0.10514316            3 
  213000    1.2216383    -2.586321    254.07982  0.099405252   0.10513856            3 
  214000    1.2321021   -2.5830804    255.64712  0.099551057   0.10514286            1 
  215000    1.2155783   -2.5774522    255.72569  0.099118483   0.10513949            3 
  216000    1.2142696   -2.5714889    257.36643  0.099292606   0.10513452            4 
  217000    1.1923888   -2.5607583     260.0089  0.099849808    0.1051362            4 
  218000     1.203623   -2.5674724    261.36818  0.099911383   0.10513827            1 
  219000    1.2035239   -2.5706009    261.64601  0.099560887    0.1051359            1 
  220000    1.2088077   -2.5823415     264.4712   0.10017848    0.1051363            1 
  221000       1.1955   -2.5508403    264.36913  0.099686699   0.10513867            1 
  222000    1.2357427   -2.5970049    265.46115  0.099647579   0.10514574            1 
  223000    1.1922752   -2.5962943    267.67154   0.10002673   0.10514699            2 
  224000    1.2054979   -2.5898055    269.60855    0.1003008   0.10515179            1 
  225000    1.2145561    -2.560027    270.99034   0.10036679    0.1051617            2 
  226000    1.2147671   -2.5288438    271.99851   0.10029444   0.10516797            1 
  227000    1.2010123   -2.5990359    271.31268  0.099600836   0.10517251            1 
  228000    1.2206889   -2.6171787    274.37202   0.10028217   0.10517384       -1e+20 
  229000    1.2002925   -2.6105917    275.31155   0.10018615   0.10517892            3 
  230000    1.2197219   -2.6042678    276.36133   0.10013092   0.10518509            1 
  231000    1.2354298   -2.5575164    277.83621   0.10022951     0.105183            2 
  232000    1.2149725   -2.5896841     277.8774  0.099812286   0.10518266            3 
  233000    1.2015641    -2.603487    279.18523  0.099851656   0.10518329            2 
  234000    1.2415596   -2.5798229    280.87762   0.10002764   0.10517863            3 
  235000    1.2337734   -2.5736315     281.3033  0.099752944   0.10517219            2 
  236000    1.2078669   -2.6362206    282.74683  0.099839984   0.10516382            3 
  237000    1.2373116   -2.5890613    284.67853   0.10009794   0.10515787            2 
  238000    1.2094567   -2.5835176    284.60376  0.099651176   0.10514521            1 
  239000     1.191989    -2.550092    286.92647    0.1000441   0.10513095            2 
  240000    1.2099433   -2.5923125    286.09247  0.099337661   0.10511718            2 
  241000    1.2027468   -2.5836199    288.30643   0.09969102   0.10509865            2 
  242000    1.2070538   -2.5772845    290.12115  0.099903978    0.1050815            2 
  243000    1.2109684   -2.6124541    288.42431  0.098910943   0.10506123            1 
  244000    1.2482834   -2.5749171    290.82781  0.099326438   0.10504371            2 
  245000     1.219687   -2.5870069    291.87839  0.099278364   0.10501865            2 
  246000    1.1891485   -2.5858476    293.43092  0.099400717   0.10499473            1 
  247000    1.2542264   -2.5584723     294.0244  0.099198517   0.10496901            3 
  248000    1.2222603    -2.597674    294.26193  0.098878337   0.10493743            1 
  249000    1.2118883   -2.5511597    295.62487  0.098937371   0.10490989            1 
  250000    1.2162068   -2.5798272    298.76102  0.099587006    0.1048863            2 
  251000    1.2248187   -2.5951097    297.29362   0.09870306   0.10486227            1 
  252000    1.2083856   -2.6087461    300.04001  0.099219581   0.10483664            1 
  253000    1.2152913   -2.6086133    299.51979  0.098656056    0.1048074            7 
  254000    1.2166271   -2.6121634    302.69148  0.099308229   0.10478396            1 
  255000    1.2039598   -2.5918981    302.57982  0.098882295   0.10476018            3 
  256000    1.2233282   -2.5478695    304.92966  0.099260958   0.10473411            1 
  257000    1.2288584   -2.5701678    306.11644  0.099259545   0.10470507            1 
  258000    1.1852365   -2.6046497    305.71785  0.098746076    0.1046721            2 
  259000     1.210028   -2.5857831    305.90331   0.09842449   0.10463449            1 
  260000    1.2294349   -2.6016788    308.06803  0.098739752   0.10459477            1 
  261000    1.1989459   -2.6012592    308.17529  0.098395687   0.10455411            1 
  262000     1.215062   -2.5702845    311.64298  0.099123086   0.10451983            1 
  263000    1.2115171   -2.6244934    308.97692  0.097901432   0.10448165            1 
  264000     1.185378   -2.5688987    313.61261  0.098993879   0.10444193            2 
  265000    1.2233411   -2.5992956     315.6163  0.099250409   0.10440723            3 
  266000    1.1971719   -2.5651051    315.39999  0.098809521   0.10437507            2 
  267000    1.2142123   -2.6100076    314.74059  0.098233643   0.10434486            5 
  268000    1.2218625   -2.5698312    318.57635   0.09905981   0.10431289            2 
  269000     1.215569   -2.5918448    318.91844  0.098797535   0.10428217            2 
  270000    1.2162449   -2.5696415    320.30285  0.098858906   0.10424762            1 
  271000    1.1784024   -2.5899457    320.68981  0.098613101    0.1042099            2 
  272000    1.2102917   -2.5802079    322.70232  0.098867133   0.10418055            1 
  273000    1.2077534   -2.5852783    325.99735   0.09951079   0.10415365            2 
  274000    1.2304476   -2.6023674    326.07465  0.099171121   0.10412973            1 
  275000    1.2150147   -2.6051323     327.7819  0.099327848   0.10410788            1 
  276000    1.2015109   -2.5611345    328.30216  0.099125047    0.1040882            3 
  277000    1.2309861   -2.5703852    329.63241  0.099167392   0.10407204            1 
  278000    1.1807797   -2.5613905    332.10309  0.099551286    0.1040522            3 
  279000    1.2095854   -2.5943266    331.26819    0.0989451    0.1040304            2 
  280000     1.243734   -2.5723252    334.22813  0.099472657   0.10400406            1 
  281000    1.2339828   -2.5976398    334.25226  0.099125819    0.1039837            2 
  282000    1.1713806   -2.5976444    335.82794  0.099239935   0.10396515            2 
  283000    1.1978706   -2.5696047     337.9871  0.099525059   0.10394348            1 
  284000    1.2045135   -2.6159591    337.74419  0.099103342   0.10392124            2 
  285000    1.2208818   -2.5900501    340.63875  0.099601973   0.10389789            3 
  286000    1.2178818   -2.5717012    341.89489  0.099619722   0.10387939            2 
  287000    1.2455968   -2.5706503    342.88145  0.099559074   0.10386044            1 
  288000    1.2138533   -2.5882833    343.67975  0.099444372   0.10384261            1 
  289000     1.180928   -2.6009569    344.14471  0.099234345   0.10382492            2 
  290000    1.1962339   -2.6193271    345.96674  0.099415729   0.10380635            2 
  291000    1.2072933   -2.5802628    346.70888  0.099286622   0.10379351            3 
  292000    1.2064425   -2.6170098    348.26191  0.099389814   0.10378166            1 
  293000    1.1934227   -2.6156266    348.48896  0.099115177   0.10376536            4 
  294000    1.2265929   -2.5977969    350.35193  0.099306102   0.10374637            1 
  295000    1.1976545   -2.6210462    351.45612  0.099281391   0.10372875            2 
  296000     1.161082   -2.5623185    353.89482  0.099632551   0.10370995            2 
  297000    1.2054912    -2.607134     354.5123  0.099470342   0.10369039            1 
  298000    1.1903221   -2.6233056    356.26854  0.099627669   0.10367642            1 
  299000    1.1992889    -2.594346      358.031  0.099785674   0.10366097            1 
  300000     1.211283   -2.5746482    358.35903  0.099544174   0.10364826            1 
  301000     1.222156   -2.6037726    361.15791  0.099988347   0.10363665            2 
  302000    1.2192169   -2.5768481    361.48619  0.099747846   0.10362646       -1e+20 
  303000    1.2270901    -2.616762    361.27558  0.099360721   0.10361815            4 
  304000    1.1896728   -2.6093554    364.40711  0.099892299   0.10361083            2 
  305000    1.2296992   -2.5744106    365.89104   0.09997023   0.10360371            1 
  306000    1.2143126   -2.5483043    366.38755  0.099778743   0.10359327            1 
  307000    1.1868134   -2.6249033    367.87991  0.099858825    0.1035819            3 
  308000    1.2241891   -2.5791447     367.4542  0.099419426   0.10356805            1 
  309000    1.2057795   -2.5926099    366.55696  0.098855706    0.1035551            2 
  310000    1.2042353   -2.5935417    370.61658  0.099628113   0.10354679            1 
  311000    1.2191347   -2.5680834    373.45075   0.10006719    0.1035362            2 
  312000    1.1890038   -2.5936251    371.94886  0.099345315   0.10352804            4 
  313000    1.2008444   -2.6204066    374.15031  0.099614034   0.10351428            1 
  314000    1.2025631   -2.5990206    375.75244  0.099721985   0.10350147            2 
  315000    1.1865832   -2.6305051    375.37861   0.09930651   0.10349151            1 
  316000    1.2177702   -2.6129012    378.14073  0.099720657    0.1034791            1 
  317000    1.2227139   -2.6075739    379.93395  0.099877484   0.10346804            3 
  318000    1.1825827   -2.6142273    379.11121  0.099347801     0.103458            1 
  319000     1.160675   -2.6160234    382.41132  0.099898464   0.10344791            2 
  320000    1.1915489   -2.6150225    383.36693  0.099835139   0.10343682            1 
  321000    1.2213009   -2.5831246     383.7575  0.099625519   0.10342882            1 
  322000    1.2293008   -2.6074396     386.2988  0.099973809   0.10341881            1 
  323000    1.2209176   -2.6002268    385.34461  0.099418114   0.10340455            1 
  324000    1.2172066   -2.6105393    388.35155  0.099884658   0.10339124            2 
  325000    1.1936441   -2.6080835     387.8099  0.099438437   0.10337981            2 
  326000    1.1936534   -2.6233234    390.20885  0.099746638   0.10336802            2 
  327000    1.2001853   -2.6022223    389.97515  0.099382045   0.10335446            2 
  328000    1.2078422   -2.6206218    390.80304  0.099289391   0.10334197            3 
  329000    1.2011978    -2.614286    393.65045  0.099708826   0.10333024            1 
  330000    1.1982082   -2.5982279    394.17698  0.099539641   0.10332477            2 
  331000    1.2222526   -2.6057405    396.31732  0.099777775   0.10331322            2 
  332000    1.2048357   -2.6251762    395.87652  0.099366596   0.10330381            2 
  333000    1.1829474   -2.6067226    399.37753  0.099944327   0.10329711            2 
  334000    1.1969817   -2.5766572     400.7072  0.099976846   0.10328893            2 
  335000    1.1873701    -2.566891     401.4792  0.099870448   0.10328037            1 
  336000    1.1790492   -2.5890338     403.5888   0.10009643   0.10327104            5 
  337000    1.2194495   -2.5934839    403.70459  0.099828039   0.10326118            2 
  338000    1.1874542   -2.5884133    404.04642  0.099616966   0.10325412            1 
  339000    1.1991075   -2.6079828     403.4285  0.099171215   0.10324242            1 
  340000    1.2033601   -2.5804742     407.8004  0.099951077   0.10323198            2 
  341000    1.2206747   -2.6125574     406.8506  0.099425855   0.10322222            2 
  342000    1.2108992   -2.6062619    409.90347  0.099879013   0.10321088            2 
  343000     1.201932   -2.6363831     409.5758  0.099508212   0.10319899            1 
  344000    1.2086097   -2.6241755     410.7631  0.099506564   0.10318348            2 
  345000     1.213355   -2.6099926    410.61315  0.099181921     0.103171            1 
  346000     1.189255   -2.5841422    413.49465  0.099589271   0.10315508            1 
  347000    1.1830639   -2.5951781    414.57647  0.099562073   0.10313798            4 
  348000    1.1737188   -2.5814759    415.72236  0.099550373   0.10312115            1 
  349000    1.2081495   -2.6105731    417.05847  0.099584162   0.10310808            1 
  350000    1.1878687   -2.5704225    419.14658  0.099796805   0.10309615            2 
  351000    1.2216869   -2.5742829    419.11912  0.099505964   0.10308548            1 
  352000    1.1928162   -2.5958089    419.32507  0.099272033   0.10307113            1 
  353000    1.1969936   -2.5935714    424.34379   0.10017559   0.10305845            1 
  354000    1.1896741   -2.5990246    425.99991   0.10028247   0.10304689            1 
  355000    1.1794756   -2.6020752     422.0578  0.099074601   0.10303466            1 
  356000    1.1956603   -2.6040327    425.88232  0.099691553   0.10302314            1 
  357000    1.1631151   -2.6079364    428.30892   0.09997874   0.10301484            1 
  358000    1.1825014   -2.5919376    426.70175  0.099325361   0.10300243            2 
  359000    1.1954193   -2.6010627    430.01355  0.099817443   0.10299354            1 
  360000    1.1925256    -2.607058    429.45136  0.099410038   0.10298416            1 
  361000    1.1816225    -2.579544     433.0711  0.099970245   0.10297409            2 
  362000    1.2111716   -2.6146059    434.25827  0.099967374   0.10296614            1 
  363000     1.180651   -2.6052596    436.25926   0.10015134   0.10295883            3 
  364000    1.2070315   -2.5868735    437.75575   0.10021881   0.10295154            1 
  365000    1.1762998   -2.6067004    435.94469   0.09953075   0.10294209            1 
  366000    1.1691464   -2.6061303    437.34942  0.099578648   0.10292948            2 
  367000    1.1928218   -2.6153387    437.75641   0.09939973   0.10291776            2 
  368000    1.1877555   -2.5966757    439.87974  0.099610448   0.10290216            2 
  369000     1.207568   -2.5932085    439.76535  0.099314669   0.10288735            2 
  370000    1.1727935   -2.6229056    439.01514  0.098877283   0.10286987            1 
  371000     1.185696   -2.6133078    444.13462  0.099760695   0.10285453            2 
  372000     1.188661   -2.6185119    443.61255  0.099375571   0.10283861            4 
  373000    1.1674562   -2.5888268    446.31853  0.099713702   0.10282666            1 
  374000    1.1964689   -2.5868284    449.75934   0.10021376   0.10281293            1 
  375000    1.1958999   -2.5999058    449.78769   0.09995282   0.10280431            1 
  376000    1.1840876   -2.6064432    448.43908  0.099388094   0.10279478            2 
  377000    1.1905895   -2.5988505    452.37042  0.099993461   0.10278328            4 
  378000    1.1946322    -2.596189    452.14175  0.099678516   0.10277004            2 
  379000    1.1926752   -2.5747587    452.25882  0.099441253   0.10275662            1 
  380000    1.2003167   -2.6070371    453.36084  0.099421236   0.10274168            2 
  381000     1.236917     -2.62641    452.66315  0.099007688   0.10272604            1 
  382000     1.195758   -2.5763612    455.11524   0.09928343   0.10270956            3 
  383000    1.2188449   -2.6241998    458.84057  0.099834763   0.10269186            2 
  384000     1.205271    -2.574307    454.88386  0.098716115   0.10267368            2 
  385000    1.1653224   -2.5896041    457.54079  0.099034802   0.10265499            2 
  386000    1.2111271   -2.6107517    459.48581  0.099198146   0.10263305            2 
  387000     1.206198   -2.5960557    459.61443  0.098969515   0.10261373            1 
  388000     1.198839   -2.6202498    460.56873    0.0989194   0.10259376            4 
  389000    1.1653433   -2.6210229    459.19533  0.098370893   0.10256845            1 
  390000    1.2022149   -2.5895966    462.94118  0.098919054   0.10254854            1 
  391000    1.1848604   -2.6038712    464.49655  0.098997559   0.10252768            1 
  392000    1.1647699   -2.6140832    467.57393  0.099399221   0.10250809            1 
  393000    1.1947744   -2.6287809    468.27041   0.09929398   0.10248884            1 
  394000    1.1865282   -2.5977726    468.14275  0.099014964   0.10246983            2 
  395000    1.1903343   -2.5881285    470.39621  0.099239707   0.10245201            2 
  396000    1.1797184   -2.6314428    469.79404  0.098862382   0.10243474            2 
  397000    1.1881457   -2.6230068     471.3689  0.098943935   0.10241568            3 
  398000    1.2060136   -2.5775394    473.40945  0.099122581   0.10239498            1 
  399000    1.1257097   -2.6240776    472.67153  0.098720035   0.10237507            2 
  400000    1.2105051   -2.6258626    473.27409  0.098598769   0.10235581            1 
  401000    1.2109386   -2.6149563    475.67122  0.098851044   0.10233571            2 
  402000    1.1758473    -2.593401    477.40209  0.098963949   0.10231613            1 
  403000    1.1995655   -2.5748251    478.39605  0.098923915   0.10229871            2 
  404000    1.1977564   -2.6152314    478.89338  0.098781637   0.10227784            2 
  405000    1.1854302   -2.6461506    479.66107  0.098695694   0.10225778            2 
  406000    1.1935856   -2.6299177    483.34748  0.099209252   0.10223879            1 
  407000     1.158328   -2.6519626    481.58541  0.098604711   0.10222048            3 
  408000    1.2227767   -2.5840819    483.98399  0.098852938   0.10220364            1 
  409000    1.1793419   -2.6095677    486.37331  0.099098066   0.10218531            1 
  410000    1.1765658   -2.5888792    488.32672  0.099253399    0.1021713            2 
  411000    1.1728556   -2.6106774     487.8622  0.098917721   0.10215623            2 
  412000     1.158944   -2.6092229    488.54635   0.09881601   0.10213869            2 
  413000    1.1918676   -2.6112665    491.36979  0.099146446   0.10212195            2 
  414000    1.2075783   -2.6141041    492.16947  0.099067928   0.10210414            2 
  415000    1.1828272   -2.6266543    490.97717  0.098589794   0.10208568            2 
  416000    1.1956379   -2.6246191     495.2771  0.099214163   0.10206735            2 
  417000    1.1654295   -2.5971973    497.06158   0.09933285    0.1020486            2 
  418000    1.2019318   -2.6145941    495.53458  0.098790785   0.10203073            1 
  419000    1.1872425   -2.5914843    495.38943  0.098526139   0.10201195            1 
  420000    1.1780931   -2.6010756    499.38681  0.099084685   0.10199171            2 
  421000     1.158772   -2.6299263    497.81569  0.098538339   0.10197113            2 
  422000    1.1545144   -2.5993784    501.06143   0.09894578   0.10194967            2 
  423000    1.1811124   -2.6060682    500.34724  0.098571167   0.10192914            1 
  424000    1.1762618    -2.620245    500.95746  0.098458621   0.10190848            2 
  425000    1.1694169   -2.6175057    503.04844  0.098636949   0.10188533            3 
  426000    1.2110157   -2.6035509    502.82245  0.098361199   0.10186344            6 
  427000    1.2065753   -2.6384285    502.74176  0.098115098   0.10184071            1 
  428000    1.1870389   -2.6306276    506.03604  0.098527267    0.1018192            1 
  429000    1.1606568   -2.5770768    510.06027  0.099079307   0.10179834            3 
  430000    1.1717204   -2.6080817    507.44271   0.09834161   0.10177778            1 
  431000    1.1869118   -2.6352145    509.87767  0.098584236    0.1017549            3 
  432000    1.1838906   -2.6284461    510.97087  0.098566911   0.10173319            1 
  433000    1.1428475   -2.6237795    512.49415  0.098632438   0.10171314            2 
  434000    1.2075328      -2.6182    515.94331  0.099067456   0.10169512            1 
  435000    1.1934351   -2.5832242    516.77529  0.098999098    0.1016784            1 
  436000    1.1617712   -2.6083154    517.26165  0.098864995   0.10166104            1 
  437000     1.166969   -2.6347641    515.22126  0.098249668   0.10163985            4 
  438000    1.1589842   -2.6337468    516.33803  0.098237829   0.10161902            1 
  439000    1.1792314   -2.6168883    517.36017  0.098208082   0.10159671            2 
  440000    1.1859138   -2.6277821    519.03011  0.098301156   0.10157256            1 
  441000    1.1940412   -2.6278141    521.30203  0.098507564   0.10155198            2 
  442000    1.1878619   -2.6246713    520.78634   0.09818747   0.10152845            1 
  443000    1.1762684   -2.6439912    522.17777  0.098227571   0.10150691            1 
  444000     1.178075   -2.6057333    523.72167  0.098296109   0.10148435            5 
  445000    1.1743612   -2.6322364    524.55712   0.09823167   0.10146259            3 
  446000    1.2031023    -2.616812     524.5252  0.098005456   0.10144131            1 
  447000    1.1976542   -2.6157295    526.47988  0.098150612   0.10141877            1 
  448000    1.2219084   -2.6255543    527.67958  0.098154684   0.10139446            1 
  449000    1.1790342   -2.6136994    530.19801  0.098403492   0.10137014            1 
  450000    1.1836152   -2.6662348    530.10688   0.09816794   0.10134729            2 
  451000    1.1715012   -2.6153404    529.00776  0.097747183   0.10132359            2 
  452000    1.1495968   -2.6259974    532.31802  0.098141227   0.10129888            3 
  453000    1.1635621    -2.640533      532.067  0.097878402   0.10127402            1 
  454000    1.1730365   -2.6178598    532.28711  0.097703213   0.10124849            1 
  455000    1.1768464   -2.6150865    535.31207  0.098042504    0.1012257            3 
  456000    1.1799083   -2.6331071    535.99084  0.097951542   0.10120152            1 
  457000    1.1732974   -2.6146669    535.11431  0.097577371   0.10117721            2 
  458000    1.1861549   -2.6390364    532.91016  0.096963276   0.10115115            2 
  459000    1.1820054   -2.6302996    539.28234  0.097908922   0.10112428            1 
  460000     1.187306    -2.608883    537.12947  0.097306062   0.10109896            2 
  461000    1.1969899   -2.6148399    540.67084  0.097735148   0.10107322            1 
  462000    1.1702501   -2.6061328    539.58274  0.097327333   0.10104864            1 
  463000     1.183951   -2.6452179    542.06621  0.097564113   0.10102156            1 
  464000    1.1625964    -2.645036    540.09458  0.096999744   0.10099472            1 
  465000    1.1696307   -2.6438904    543.59901  0.097419178   0.10096813            1 
  466000     1.180998    -2.629297    546.20259  0.097675713   0.10094051            3 
  467000    1.2029423   -2.6381816    547.70176  0.097734076   0.10091646            2 
  468000    1.1494424   -2.6221349     548.2973  0.097631286   0.10089021            1 
  469000    1.1772705   -2.6176894    545.19088  0.096871159   0.10086464            2 
  470000    1.1770538   -2.6189919    550.63263  0.097629899   0.10083762            1 
  471000    1.1968213   -2.6263317    549.33212  0.097192519   0.10081188            1 
  472000    1.1897711    -2.633355    552.48844  0.097543863   0.10078638            1 
  473000    1.1876941   -2.6214629    554.63316  0.097715496   0.10075982            1 
  474000    1.1522201   -2.6399188    550.41712  0.096768129   0.10073304            1 
  475000    1.1742218   -2.6094382    553.52054  0.097108866    0.1007039            1 
  476000    1.2053316   -2.6148491    555.54656  0.097259552   0.10067696            1 
  477000    1.1688199   -2.6242835    559.15066    0.0976853   0.10065094            3 
  478000    1.1731507   -2.6341905    556.61062  0.097038114   0.10062222            2 
  479000    1.1669283   -2.6235626     557.5819  0.097004506   0.10059315            2 
  480000    1.1593611   -2.6343213    561.47352  0.097478042   0.10056696            1 
  481000    1.1912759   -2.6444271    559.70541  0.096969059   0.10053947            2 
  482000     1.165664   -2.6412979    558.41042  0.096543986    0.1005113            1 
  483000     1.171335   -2.6001612    564.53384  0.097400593   0.10048528       -1e+20 
  484000    1.1758853   -2.6349489    564.50127  0.097193744   0.10045922            1 
  485000     1.184297   -2.6516344    565.13636  0.097102467    0.1004339            2 
  486000    1.1765347    -2.640271    564.95553  0.096871662   0.10040818            2 
  487000    1.1726659   -2.5997257    569.07736  0.097378057   0.10038202            2 
  488000    1.1860106   -2.6026067    570.71892  0.097458832   0.10035651            1 
  489000    1.1825862   -2.6361973    570.19802  0.097170761   0.10033064            2 
  490000    1.1720543   -2.6421144    573.11286  0.097468174   0.10030508            2 
  491000    1.1658754   -2.6321915     571.9257  0.097068176   0.10028294            1 
  492000    1.1667525   -2.6177131     573.3666  0.097114939   0.10026007            2 
  493000    1.2052946   -2.6085163    577.36873  0.097594444    0.1002362            2 
  494000    1.1734403   -2.6369231    578.62876   0.09760944    0.1002149            1 
  495000    1.1840969    -2.645659    578.46248  0.097384255   0.10019336            1 
  496000    1.1806136   -2.6246592     582.2812  0.097829503   0.10017214            2 
  497000    1.1825746    -2.655711    581.99613  0.097584865   0.10015101            3 
  498000    1.1892963   -2.6056991    581.66979  0.097334301   0.10013026            2 
  499000    1.1699248   -2.6206295    586.38695  0.097927012   0.10011092            3 
  500000    1.1735257   -2.6211664    585.60667  0.097601112   0.10009262            2 
  501000    1.1570522   -2.6094307    585.85117  0.097446967   0.10007429            1 
  502000    1.1747648   -2.6409683    587.03246  0.097448947   0.10005348            1 
  503000    1.1816437   -2.6396981    584.22842   0.09679066    0.1000323            1 
  504000    1.1631751   -2.5991136    590.03264  0.097558307   0.10000978            1 
  505000    1.1804277   -2.5886434    590.46036  0.097435702  0.099989959            2 
  506000    1.1623647   -2.6193009    591.08112  0.097345375  0.099967704            2 
  507000    1.1776267   -2.6090328    590.93638  0.097129582  0.099945744            1 
  508000    1.1790534   -2.6221232     590.8283  0.096920653  0.099923325            2 
  509000    1.1819777   -2.6481325    594.13211  0.097271137  0.099901807            2 
  510000    1.1691109   -2.6399379    594.10701  0.097076309  0.099878233            1 
  511000    1.1743856   -2.6123253    595.65724  0.097139146  0.099855023            1 
  512000    1.1568162   -2.6251035    597.63959  0.097272068  0.099832391            1 
  513000    1.1744408   -2.6286809    599.45116  0.097376732  0.099810567            2 
  514000    1.1871904   -2.6295148      599.113  0.097132458  0.099788148            1 
  515000    1.1355085   -2.6313129    601.43298  0.097319252  0.099766388            1 
  516000    1.1777368   -2.5987985     600.4658  0.096974451   0.09974187            1 
  517000    1.1781954   -2.6326527    601.43539  0.096943163  0.099718613            1 
  518000    1.1253449   -2.6156849    601.79701  0.096814191  0.099695601            1 
  519000    1.1659776   -2.6255721    603.12415  0.096840744  0.099673039            2 
  520000    1.1670494   -2.6188156    604.64392  0.096898064  0.099650797            2 
  521000    1.1684298   -2.6353591    604.13155  0.096630127  0.099629608            1 
  522000    1.1697674   -2.6442803    603.75237  0.096384477  0.099608761            1 
  523000     1.142026   -2.6326362     610.1647  0.097221908  0.099589136            3 
  524000     1.149381   -2.6221979    610.41972  0.097076928  0.099568479            2 
  525000    1.1870028   -2.6552744    611.14342  0.097006892   0.09955042            3 
  526000      1.17986   -2.6272917    616.24751    0.0976311  0.099532266            1 
  527000    1.1662038   -2.6285349    616.28423   0.09745165  0.099515571            2 
  528000    1.2083994    -2.621057    616.49167  0.097299822   0.09949974            1 
  529000     1.169212   -2.6535453     616.9149  0.097182561  0.099481041            2 
  530000    1.1916823   -2.6060746     623.1417  0.097978255  0.099463221            3 
  531000    1.1872792   -2.6272882    618.96627   0.09713846  0.099444469            1 
  532000    1.1926033   -2.6490733    619.49766  0.097039107  0.099423918            2 
  533000    1.1696686   -2.6174403    617.69884  0.096575804  0.099401162            2 
  534000    1.1524746   -2.6014746    621.37226  0.096968206  0.099381103            1 
  535000      1.19149   -2.6333383    621.31446  0.096777954  0.099360905            1 
  536000    1.1627092   -2.6530304    624.72039  0.097126926  0.099339551            4 
  537000    1.1653031   -2.6415637    623.87546  0.096814938  0.099319113            2 
  538000    1.1689042   -2.6618947    626.20006  0.096995052  0.099300179            4 
  539000     1.185039   -2.6162295    629.20802  0.097280151  0.099282638            2 
  540000     1.167823   -2.6514177    630.44605  0.097291057  0.099264851            1 
  541000     1.159929   -2.6152617    633.52982  0.097586232  0.099247898            2 
  542000    1.1884548    -2.649544    632.64161   0.09726962  0.099230556            1 
  543000    1.1596205   -2.6335624    631.92907  0.096981134  0.099212497            1 
  544000    1.1929475   -2.6110555    631.24735   0.09669843  0.099195102            1 
  545000     1.160011   -2.6041527    636.99134  0.097399288  0.099177892            2 
  546000    1.1669969   -2.6328613    639.45888   0.09759751  0.099159745            1 
  547000      1.16386   -2.6589591    634.82965  0.096713841  0.099142567            2 
  548000    1.1707676   -2.6211883    637.06409  0.096877143  0.099125022            1 
  549000      1.18792   -2.6772571    638.50492  0.096919386  0.099106611            1 
  550000    1.1506423   -2.6352351    638.24383   0.09670361    0.0990884            2 
  551000    1.1385664   -2.6183805    641.28106  0.096987456  0.099070764            2 
  552000     1.164458    -2.648953    638.35517  0.096370044   0.09905132            1 
  553000    1.1642777   -2.6242037    640.82144  0.096567426  0.099030417            1 
  554000    1.1716262   -2.6530857     642.4965  0.096645082  0.099008819            1 
  555000    1.1524986    -2.662517    644.68476  0.096799513   0.09898804            3 
  556000    1.1639828    -2.620678    644.53647  0.096603188  0.098968509            2 
  557000    1.1589077   -2.6535962    644.69883  0.096454043  0.098948251            1 
  558000    1.1350125   -2.6422486    649.02051    0.0969266  0.098927499            1 
  559000    1.1658094   -2.6423937    647.48494   0.09652429  0.098907447            3 
  560000    1.1490897   -2.6319121    647.64668  0.096375994  0.098887933            1 
  561000    1.1538963   -2.6250982    648.06592  0.096266477   0.09886794            1 
  562000    1.1479137   -2.6271098    648.18629  0.096113032  0.098848047            1 
  563000    1.1569137   -2.6586385    652.36396   0.09656068  0.098827765            2 
  564000     1.171608   -2.6271146    654.88781  0.096762383  0.098807733            1 
  565000    1.1468041   -2.6264429    653.16609  0.096337182  0.098786658            3 
  566000    1.1456591   -2.6370088     652.9942  0.096141666  0.098765206            2 
  567000    1.1717788   -2.6512062    655.81233  0.096386292  0.098742992            2 
  568000    1.1859277   -2.6131098    657.77242   0.09650417  0.098722336            1 
  569000    1.1765564   -2.6219296    659.41504  0.096575138  0.098702443            1 
  570000     1.161018   -2.6428406    659.65016  0.096440082  0.098682804            3 
  571000    1.1571894   -2.6515664    654.95424   0.09558585   0.09866144            2 
  572000    1.1712414   -2.6552288    662.23856  0.096479976  0.098638847            2 
  573000    1.1747715   -2.6492024    661.71691  0.096235734  0.098618107            4 
  574000    1.1586862   -2.6364759    661.92624  0.096098467  0.098594902            3 
  575000    1.1751475   -2.6569326    663.33328  0.096135258  0.098573012            2 
  576000    1.1736659   -2.6306277    665.55905  0.096290371  0.098550141            1 
  577000    1.1619855   -2.6364315    666.18535  0.096213944  0.098530148            2 
  578000    1.2035737   -2.6661261    667.50919  0.096238349  0.098509915            3 
  579000    1.1776803   -2.6243737    668.30661  0.096186905  0.098489836            4 
  580000     1.144237   -2.6142883    668.87119  0.096102182  0.098469797            2 
  581000    1.1621198   -2.6086672     672.5776  0.096468388  0.098451314            5 
  582000    1.1453116   -2.6238186    673.50643  0.096435629  0.098432855            2 
  583000    1.1393056   -2.6294924    673.83886  0.096317733  0.098414224            2 
  584000    1.1334474   -2.6066642    675.20312  0.096347477  0.098394463            1 
  585000    1.1839622   -2.6337599    675.37275  0.096206945  0.098374648            3 
  586000    1.1568259   -2.6314021    676.96339  0.096268969  0.098353779            3 
  587000    1.1470054   -2.6502739    675.94685  0.095960654  0.098330121            5 
  588000    1.1437043    -2.643122    678.71276   0.09618945  0.098308087            4 
  589000    1.1562553   -2.6445481    676.99715  0.095783411  0.098285082            1 
  590000    1.1679593    -2.646249    684.15674  0.096632308  0.098264087            3 
  591000    1.1804591   -2.6296218    680.40223  0.095939401   0.09824399            4 
  592000    1.1501324   -2.6390686    682.48899  0.096071085  0.098224306            2 
  593000    1.1569541   -2.6571924    682.89875   0.09596666  0.098205039            1 
  594000    1.1281882    -2.652811    685.25443  0.096135582  0.098185859            1 
  595000     1.148571   -2.6281631    683.73453  0.095761139  0.098166346            1 
  596000    1.1666372   -2.6385813    688.05489  0.096204543  0.098146614            2 
  597000    1.1725232   -2.6356713    686.43962  0.095817926  0.098125145            1 
  598000    1.1483383   -2.6409791    690.28483  0.096193537  0.098104807            1 
  599000    1.1566836   -2.6647001      688.787  0.095824568  0.098084218            1 
  600000    1.1703289   -2.6498434    689.47931  0.095761015  0.098063204            1 
  601000    1.1435226   -2.6351674    692.88406  0.096073774   0.09804283            1 
  602000    1.1225782   -2.6631612    690.49538  0.095583525  0.098022522            7 
  603000    1.1576799   -2.6460158    695.64003  0.096135991   0.09800466            3 
  604000    1.1459193   -2.6512535    698.01254  0.096304158  0.097988185            2 
  605000    1.1490851   -2.6434098    700.01299  0.096420521  0.097972373            2 
  606000    1.1446284   -2.6190615    699.76488  0.096227294  0.097956719            1 
  607000      1.16674    -2.661013    697.92774  0.095816548  0.097939126            2 
  608000    1.1447099   -2.6444158    702.52448  0.096288991   0.09792227            3 
  609000    1.1535834   -2.6469459    703.73946  0.096297135  0.097903309            5 
  610000     1.148028    -2.671318    699.61052  0.095575208  0.097884522            2 
  611000    1.1687076   -2.6359659    702.33055  0.095789763  0.097867657            1 
  612000    1.1573224   -2.6591364    705.36557   0.09604651   0.09785115            2 
  613000    1.1725361   -2.6511428    708.09155  0.096260406  0.097834835            2 
  614000     1.172161   -2.6198337    710.37057  0.096412944  0.097820005            1 
  615000    1.1608898   -2.6624795    706.57411  0.095741749  0.097803462            2 
  616000     1.165157     -2.63564    710.73896   0.09614975  0.097787967            2 
  617000    1.1478091   -2.6584377    707.67839   0.09558055  0.097771363            2 
  618000    1.1509217   -2.6496259    712.48205  0.096073632  0.097755135            3 
  619000    1.1682212   -2.6246034    713.58573  0.096067008  0.097739299            2 
  620000    1.1564375   -2.6277969    714.17493  0.095991254  0.097723233            1 
  621000    1.1520439   -2.6751448    716.52015  0.096151389  0.097706908            1 
  622000     1.154734   -2.6452571     714.9332  0.095784191  0.097689912            1 
  623000    1.1501082   -2.6208479    720.45049  0.096368445  0.097676436            1 
  624000    1.1692519   -2.6598147    718.19734  0.095913107  0.097662113            2 
  625000     1.155381   -2.6675591    721.58263  0.096211017  0.097647088            3 
  626000     1.145307   -2.6698475    723.02065  0.096248755  0.097632002            1 
  627000    1.1480133   -2.6554438    721.70917  0.095920942  0.097616328            2 
  628000    1.1732004   -2.6628427    722.15819  0.095827786  0.097601179            2 
  629000      1.15707   -2.6532944    724.88991  0.096037349  0.097586979            2 
  630000    1.1896067   -2.6755062    728.55543  0.096369765  0.097572774            2 
  631000    1.1353367   -2.6373906    728.10945  0.096158142   0.09755725            1 
  632000    1.1307529   -2.6414623    730.45411  0.096315152  0.097543097            2 
  633000    1.1346661   -2.6555656     727.1193  0.095723974  0.097529845            2 
  634000    1.1729619   -2.6213325    732.31222  0.096255549   0.09751692            1 
  635000    1.1603921   -2.6434813    733.87334  0.096308837  0.097505105            2 
  636000    1.1438812   -2.6608871    737.24427  0.096599092  0.097491932            2 
  637000    1.1438009   -2.6636381    731.13788  0.095648597  0.097477991            2 
  638000     1.143838   -2.6677039    736.39958  0.096185943  0.097463884            3 
  639000    1.1463974   -2.6062542    738.95998  0.096369324  0.097451459            4 
  640000    1.1668415   -2.6456553    741.59628  0.096562015  0.097439127            1 
  641000    1.1513922   -2.6747534     736.4712  0.095745086  0.097426734            2 
  642000    1.1483479   -2.6539551    739.37735  0.095973176  0.097413808            3 
  643000    1.1487628   -2.6357514    742.38436  0.096213629   0.09739918            1 
  644000    1.1556057   -2.6407522    739.72498  0.095720106  0.097386115            4 
  645000    1.1609438   -2.6588725    743.15624  0.096015017  0.097372155            2 
  646000    1.1551955   -2.6230146    747.12643  0.096378538   0.09735791            3 
  647000    1.1316396   -2.6741436    743.32926  0.095740502  0.097342348            5 
  648000    1.1120187   -2.6864796    743.27568  0.095585864  0.097326249            2 
  649000    1.1701654   -2.6304935    743.90902  0.095519904  0.097311776            2 
  650000    1.1489471   -2.6496505    745.65869  0.095597268  0.097298357            3 
  651000    1.1736144   -2.6292904    748.55164  0.095820742  0.097283572            2 
  652000    1.1573774    -2.711583    748.43688   0.09565911  0.097269056            2 
  653000    1.1467894   -2.6607758    747.17129  0.095351109  0.097252934            3 
  654000    1.1643038   -2.6480554     748.7508  0.095406575  0.097236623            3 
  655000     1.180813   -2.6671736      750.736  0.095513486  0.097221056            1 
  656000    1.1303689   -2.6421953    753.07507  0.095665025  0.097205772            2 
  657000    1.1529371   -2.6697367    753.74599  0.095604515  0.097188584            2 
  658000     1.155117   -2.6527891    751.82206   0.09521556  0.097171836            1 
  659000    1.1412913   -2.6754153    753.11047     0.095234  0.097154556            2 
  660000    1.1470318   -2.6594319    756.96732  0.095576682  0.097137032            1 
  661000    1.1390958   -2.6684817     754.0105  0.095059317  0.097121136            3 
  662000    1.1292621   -2.6356028    758.66337  0.095501431  0.097103407            2 
  663000    1.1291356   -2.6617385    760.01631   0.09552744  0.097086681            2 
  664000    1.1610368   -2.6711878     763.5166  0.095822866  0.097070386            2 
  665000    1.1511281   -2.6913091    762.48647  0.095549682  0.097055325            2 
  666000    1.1433084   -2.6537646    763.55266  0.095539622  0.097040795            1 
  667000    1.1401206   -2.6677439    762.04586  0.095208128  0.097023599            2 
  668000    1.1514276   -2.6534214    764.25453  0.095341134  0.097008336            1 
  669000    1.1632098   -2.6342727    767.37767  0.095587651  0.096992751            1 
  670000     1.135198   -2.6507983    767.40007   0.09544777  0.096978317            1 
  671000    1.1636909   -2.6381657    767.44142  0.095310658   0.09696317            1 
  672000    1.1629285   -2.6502759    770.08349  0.095496464  0.096948867            2 
  673000      1.14903   -2.6460196    770.13488  0.095360931  0.096932489            2 
  674000    1.1508073   -2.6782308    770.66849  0.095285422  0.096915977            1 
  675000    1.1620063   -2.6463551    772.96457  0.095427724  0.096899208            1 
  676000    1.1362642   -2.6767155    773.41496  0.095342081   0.09688248            1 
  677000    1.1435968   -2.6543023    774.17964  0.095295377  0.096866438            2 
  678000    1.1591209   -2.6527065    771.87419  0.094871459  0.096850084            2 
  679000    1.1341664   -2.6771967    778.19315   0.09550726  0.096834748            2 
  680000    1.1479858   -2.6482016    778.63979  0.095421542  0.096820171            2 
  681000    1.1188891   -2.6684361    781.15676  0.095589422   0.09680491            1 
  682000    1.1157354   -2.6415783    781.60625  0.095504185  0.096788992            3 
  683000    1.1304483   -2.6894077    779.78319  0.095141922  0.096773617            2 
  684000    1.1668934   -2.6669993    779.99238  0.095028311  0.096757556            1 
  685000     1.139868    -2.651692    783.67738  0.095337881  0.096741342            1 
  686000    1.1498772   -2.6526026    781.03811  0.094878293   0.09672452            1 
  687000    1.1490984   -2.6668727    786.13837  0.095358851  0.096706758            2 
  688000    1.1321245   -2.6781914    786.71067  0.095289568  0.096690707            2 
  689000    1.1431023   -2.6605471    788.18653  0.095329769  0.096674375            3 
  690000    1.1561468   -2.6371577     787.5068  0.095109517  0.096658837            1 
  691000    1.1540342   -2.6489484    792.09254  0.095524909  0.096644244            2 
  692000    1.1292253   -2.6298207    788.33489  0.094934356   0.09662903            3 
  693000    1.1196616   -2.6590729     791.0553  0.095124495  0.096612678            1 
  694000    1.1402989   -2.6793192    789.56681  0.094808694  0.096597522            2 
  695000    1.1397233   -2.6749335    792.23847  0.094992623  0.096580596            4 
  696000    1.1450172   -2.6663363    792.83412  0.094927457  0.096565191            2 
  697000    1.1341005   -2.6513007    792.24967  0.094721385  0.096549905            1 
  698000    1.1429102   -2.6731538    796.47048  0.095089598  0.096533278            2 
  699000    1.1236605   -2.6619968     795.8891  0.094884252  0.096517082            1 
  700000    1.1313992   -2.6465797    798.73726  0.095087768  0.096500507            2 
  701000    1.1139052   -2.6705636     799.5349  0.095046945  0.096484518            4 
  702000    1.1326742   -2.6576522    802.92853  0.095314403  0.096467171            2 
  703000    1.1090334   -2.6798845    801.01248  0.094951693  0.096450736            3 
  704000    1.1379033   -2.6614997    807.40433  0.095573429   0.09643452            1 
  705000    1.1390352   -2.6933602      800.215  0.094588061  0.096417695            2 
  706000     1.145578   -2.6795834    801.85428  0.094647577   0.09640016            1 
  707000    1.1369434    -2.669318    803.72877   0.09473465  0.096384078            1 
  708000    1.1213608   -2.6680008    806.77338  0.094959202   0.09636751            3 
  709000    1.0986003   -2.6462627    804.87849  0.094602549  0.096351462            1 
  710000    1.1090258   -2.6544141    807.58666  0.094787167  0.096335863            2 
  711000    1.1534552   -2.6801839    809.20914  0.094844015  0.096319637            2 
  712000    1.1469011   -2.6742716    807.30076  0.094487448  0.096302441            1 
  713000    1.1224704   -2.6733896    812.21444  0.094929224  0.096284624            1 
  714000    1.1221252    -2.649809    811.72562  0.094739218   0.09626641            1 
  715000    1.1384771    -2.633826    814.47065   0.09492665  0.096249626            1 
  716000    1.1624011   -2.6828884    812.99997  0.094622901  0.096232424            2 
  717000    1.1620795   -2.6650397    814.33809  0.094646454  0.096216814            2 
  718000    1.1523005   -2.6664656    818.71222  0.095022309  0.096200682            1 
  719000    1.1348171   -2.6530967    818.80765  0.094901212  0.096185107            2 
  720000    1.1676976   -2.6381571     818.2331  0.094702905  0.096169861            2 
  721000    1.1544724    -2.666911    821.35789   0.09493272  0.096155648            1 
  722000    1.1775697   -2.6590646    820.57037  0.094710338  0.096139721            1 
  723000    1.1566306   -2.6744226    817.54861  0.094231053  0.096123375            1 
  724000    1.1432039   -2.7036204    817.56892  0.094103236  0.096106064            2 
  725000    1.1085367   -2.6661129     823.2348   0.09462469  0.096087366            1 
  726000    1.1380996   -2.6796903    821.03377  0.094241709  0.096069519            2 
  727000    1.1528464   -2.6880711    821.37933  0.094151689  0.096050946            2 
  728000    1.1261133   -2.6623196     825.3835  0.094480712  0.096033257            1 
  729000    1.1450657   -2.6602904    826.71387  0.094503186  0.096015113            2 
  730000    1.1452609   -2.6835168    827.37072  0.094448712  0.095996665            2 
  731000    1.1290711   -2.6612054    829.97837  0.094616777  0.095978835            2 
  732000    1.1511659   -2.6772628    831.38918  0.094648131   0.09596206            1 
  733000    1.1158984   -2.6713777    829.63614  0.094319707  0.095944198            2 
  734000    1.1239748   -2.6577526    831.99078  0.094458536  0.095928303            2 
  735000    1.1425379   -2.6807773    830.67726  0.094181095  0.095911102            1 
  736000    1.1431553   -2.6606474    834.05146  0.094435174  0.095894184            1 
  737000     1.130226    -2.679648    835.70325   0.09449381  0.095877393            2 
  738000    1.1391346    -2.701441    835.94487  0.094393052  0.095859786            4 
  739000    1.1540668    -2.662597    836.86329  0.094368887  0.095842953            1 
  740000    1.1183951   -2.6609779    840.12705  0.094608902  0.095826972            3 
  741000     1.151155   -2.6656192    837.04981  0.094135156  0.095811264            1 
  742000    1.1419352   -2.6698771    838.46437  0.094167157  0.095794024            2 
  743000    1.1831787   -2.6752404    840.78993  0.094301249  0.095777842            2 
  744000    1.1438074   -2.6866909    839.93631  0.094078888  0.095760826            2 
  745000    1.1038879   -2.6440855    844.25105   0.09443524  0.095744635            1 
  746000    1.1625463   -2.6731153    847.33701  0.094653374  0.095728275            1 
  747000    1.1176391   -2.6718084    841.18268  0.093840102  0.095711349            2 
  748000    1.1377851   -2.6545954    843.98815  0.094027201  0.095694669            1 
  749000     1.136522    -2.665245    848.01499  0.094349687  0.095677322            2 
  750000    1.1616833   -2.6637013    846.85744  0.094095271    0.0956596            2 
  751000    1.1093635    -2.683673    846.49218  0.093929447  0.095642156            2 
  752000    1.1210997    -2.678808    848.06955  0.093979339  0.095624486            3 
  753000    1.1188471   -2.6691907     853.1432  0.094416025  0.095606834            2 
  754000    1.1377294   -2.6540697    850.69391  0.094020105  0.095588816            2 
  755000    1.1368589    -2.687214     849.9106  0.093809117  0.095571371            2 
  756000    1.1307521   -2.6496924    850.09259  0.093705092  0.095552638            2 
  757000    1.1358809   -2.6502904    854.50086  0.094066585  0.095533242            1 
  758000    1.1440829   -2.6726085    855.38771  0.094039985  0.095514496            4 
  759000    1.1570308   -2.6808696     853.7499  0.093736265  0.095496536            2 
  760000    1.1317811   -2.7008447    854.16968  0.093658956  0.095478775            2 
  761000    1.1216168   -2.6662261    855.43589  0.093674539  0.095460112            2 
  762000    1.1386274   -2.7173314    856.89189  0.093710837  0.095441817            2 
  763000    1.1186445   -2.6667794    855.17771  0.093400798  0.095422375            1 
  764000    1.1442748   -2.6719556    861.11879  0.093926569  0.095402921            1 
  765000    1.1351135    -2.671479    858.52999  0.093521785  0.095384708            4 
  766000    1.1476003   -2.6643669    859.81355  0.093539333  0.095366268            2 
  767000    1.1382892   -2.6630151    865.50285  0.094035512  0.095347454            2 
  768000    1.1368809   -2.6775447    863.16073  0.093658934  0.095330781            1 
  769000    1.1324615   -2.6798063    867.27429   0.09398291  0.095312429            2 
  770000    1.1423553   -2.6921532    864.53799  0.093564717  0.095294947            2 
  771000    1.1419928   -2.6428683    869.30748  0.093958872  0.095276547            1 
  772000    1.1519069   -2.6721671    873.79083  0.094321117  0.095259414            2 
  773000     1.119458   -2.6696628    870.71369  0.093867367  0.095242225            3 
  774000     1.097426   -2.6542614    869.33217  0.093597348  0.095225241            2 
  775000    1.1129209   -2.7005952    870.26539  0.093576923   0.09520741            3 
  776000    1.1412913   -2.6806995    876.97648  0.094177028  0.095189253            1 
  777000    1.1277919   -2.6728379    870.19257  0.093328247  0.095172194            1 
  778000    1.1229386   -2.6907753    872.08136    0.0934106  0.095153303            1 
  779000    1.1301658   -2.6870864    874.30654  0.093528727  0.095135882            5 
  780000    1.1175033   -2.6796064     880.0887  0.094026571  0.095118139            3 
  781000    1.1229869   -2.6847286    881.96691  0.094106584  0.095100903            2 
  782000    1.1063197   -2.6781198    875.56747  0.093304292  0.095082833            3 
  783000    1.1175785   -2.6725528    878.02355  0.093446525   0.09506637            2 
  784000    1.1086221   -2.6946771    882.72844  0.093827428  0.095050008            1 
  785000    1.1144938   -2.6824658    881.75084  0.093604123  0.095033164            2 
  786000    1.1345486   -2.6740407    883.64549  0.093685908   0.09501633            2 
  787000    1.1264995   -2.6712891    884.53122  0.093660654  0.094999876            2 
  788000    1.1306425   -2.6667411    884.08044  0.093494125  0.094983497            1 
  789000    1.1221726   -2.6656578    886.39376  0.093619958  0.094965252            2 
  790000    1.1317959   -2.7052604    888.76537  0.093751621  0.094948015            2 
  791000    1.1073407   -2.6714702    889.21389  0.093680351  0.094931359            1 
  792000    1.1081139   -2.6735797    888.04246  0.093438811  0.094914228            2 
  793000    1.1207871    -2.704946    886.77596   0.09318789  0.094896911            1 
  794000    1.0935059   -2.6640331    893.02364  0.093726242  0.094880667            5 
  795000    1.1427271   -2.6601192    889.85803  0.093276523  0.094864381            3 
  796000    1.0890638   -2.6780365    894.41666  0.093636585   0.09484798            4 
  797000    1.1283484   -2.6905259    897.00629  0.093789867  0.094832324            1 
  798000    1.1184699   -2.6990787    899.34651   0.09391672  0.094815994            1 
  799000    1.1211959   -2.6753637    898.84368  0.093746734  0.094799997            2 
  800000    1.1167863   -2.6948216    898.89897  0.093635309  0.094784238            2 
  801000    1.1301653   -2.6731752    900.06632  0.093639859  0.094768438            1 
  802000    1.1067061   -2.6824948    902.18727  0.093743482  0.094754108            1 
  803000    1.1399279   -2.7038683    902.40134  0.093648956   0.09473951            2 
  804000    1.1236055   -2.6630347    906.53878  0.093961316  0.094725145            2 
  805000    1.1307403    -2.703823    908.10107  0.094006322  0.094710676            2 
  806000    1.1296665   -2.6680735    906.42345  0.093716238  0.094697041            1 
  807000    1.1361815   -2.6414229    909.14467   0.09388111  0.094682933            1 
  808000    1.1102359   -2.6628827    905.24107  0.093362321  0.094669409            2 
  809000    1.1055102   -2.6832495    912.36436  0.093980672  0.094656355            1 
  810000    1.1157697   -2.6767243    910.18712  0.093640651  0.094642209            3 
  811000    1.1132139   -2.6898424    908.76777  0.093379343  0.094627161            3 
  812000     1.140354   -2.6976807    908.00285  0.093185842  0.094612218            7 
  813000    1.1193221   -2.6896861    914.13123  0.093699388   0.09459681            1 
  814000    1.1471334   -2.6899515    914.65568  0.093637969  0.094581717            2 
  815000     1.122025   -2.6798033    916.14829  0.093675694  0.094566599            2 
  816000    1.1321575   -2.7044228    911.57823  0.093094182  0.094552788            1 
  817000    1.1141057   -2.6646942    918.64431   0.09370097  0.094538054            2 
  818000    1.1418358   -2.6801424    914.41467  0.093155529  0.094523721            1 
  819000    1.1282738    -2.671642      913.809  0.092980158  0.094507779            5 
  820000    1.1238691   -2.6781537    916.18203   0.09310793  0.094491839            1 
  821000    1.1256914   -2.6702547    924.69107  0.093858208  0.094476568            2 
  822000    1.1182839   -2.6801735    920.80534  0.093350095  0.094462334            1 
  823000    1.1238235   -2.6876386    922.79659  0.093438294  0.094447689            1 
  824000    1.1117985   -2.6916257     923.3663  0.093382514  0.094433903            4 
  825000     1.129356   -2.7051419    925.66446  0.093501461  0.094419219            3 
  826000    1.1347293   -2.6985847    924.27329   0.09324791  0.094405669            2 
  827000    1.1238549   -2.6958788    930.41334  0.093753863  0.094392405            2 
  828000    1.1343349   -2.6784582    928.46234  0.093444278  0.094378762            1 
  829000     1.111194   -2.7112798    928.42804   0.09332811   0.09436484            1 
  830000    1.1132529   -2.6825908    929.89907  0.093363361  0.094349942            1 
  831000    1.1177388   -2.6764317    934.48947  0.093711339  0.094337011            1 
  832000    1.1126039   -2.6929784     932.0512  0.093354487  0.094323471            1 
  833000    1.1110379   -2.7089181    937.05026  0.093742523   0.09431028            2 
  834000    1.1179691   -2.6694544    935.41735  0.093466962  0.094297186            1 
  835000    1.1286647   -2.6873517    939.98312  0.093810691  0.094283593            1 
  836000    1.1087524   -2.6790807    931.77804  0.092880586  0.094270614            3 
  837000    1.1241514   -2.7112141    939.68342  0.093556693  0.094257899            2 
  838000    1.1164141   -2.7030773    939.36777   0.09341366  0.094245516            5 
  839000    1.1592961   -2.6703453    938.52839   0.09321895  0.094232116            3 
  840000    1.1185361   -2.6661999    940.36087  0.093289769  0.094218761            2 
  841000    1.1213284   -2.6986003    940.63662  0.093206165  0.094206574            4 
  842000    1.1226097   -2.6975916    943.83492  0.093412007  0.094193723            2 
  843000    1.1151689     -2.70771     945.4551  0.093461358  0.094180044            3 
  844000    1.1056301   -2.7232423    944.47426  0.093253778  0.094167222            2 
  845000    1.1026697   -2.6930098    947.35196  0.093427215  0.094154286            2 
  846000    1.1189137    -2.688952    951.25512  0.093701253  0.094140777            3 
  847000    1.1453917   -2.6990477    949.15119  0.093383627  0.094127363            4 
  848000    1.1209594   -2.6660138    949.74493  0.093331852  0.094115336            2 
  849000     1.120241   -2.6908713    951.20706  0.093365435  0.094102898            3 
  850000     1.105138   -2.6806386    958.00875  0.093922426  0.094090493            4 
  851000    1.1333192   -2.7071401    954.45119  0.093463689  0.094079241            1 
  852000     1.127976    -2.701737    951.97521  0.093111817  0.094066586            2 
  853000    1.1203324    -2.677863    955.10655  0.093308573  0.094054344            2 
  854000    1.1340778   -2.6942776     958.1798    0.0934992   0.09404215            1 
  855000     1.109821   -2.6719755    962.36617  0.093797873  0.094030594            2 
  856000    1.1119793   -2.6847768    959.29245  0.093389062  0.094018416            2 
  857000    1.1345904   -2.6996468    960.84282  0.093430846   0.09400607            2 
  858000    1.1329661   -2.6654773    962.72171  0.093504439  0.093993498            1 
  859000    1.1009809   -2.7019568    957.37775  0.092877158  0.093980824            2 
  860000    1.1235773   -2.6997324    961.41428  0.093160299  0.093967979            2 
  861000    1.1427134   -2.6650927    958.50929  0.092770934  0.093955489            1 
  862000    1.1077318   -2.6887791    966.35547  0.093421836  0.093942764            1 
  863000    1.1188281   -2.7046031    965.69502  0.093249809  0.093931667            2 
  864000    1.0947463   -2.6913293    965.84287  0.093156141  0.093919586            2 
  865000    1.1150564   -2.6964292    968.64409  0.093318313  0.093907762            2 
  866000    1.0995997   -2.7014573    968.76121  0.093221825  0.093895666            2 
  867000    1.1046912   -2.7138463    971.16062  0.093344927  0.093882919            3 
  868000    1.1348859   -2.6729504    971.44939   0.09326511  0.093869954            4 
  869000    1.1172423   -2.6986033    970.93014  0.093107992  0.093857332            4 
  870000    1.1148374   -2.6632942    974.08353   0.09330302  0.093844472            1 
  871000    1.1269979   -2.7049491    968.70052  0.092680876  0.093831899            1 
  872000    1.0931916   -2.7131246    972.04461  0.092894172  0.093818831            2 
  873000     1.116025    -2.705805     971.7051  0.092755355  0.093805272            3 
  874000     1.089526   -2.7225721      975.925  0.093051583  0.093792099            3 
  875000    1.1486361   -2.6922245    981.17886  0.093445606  0.093779159            2 
  876000    1.1184437   -2.6936257    975.72917  0.092820507  0.093766226            1 
  877000    1.1412128   -2.6967976    980.01975  0.093122363  0.093752921            2 
  878000     1.099361   -2.6704205    984.20005  0.093413065  0.093739618            1 
  879000    1.1071098   -2.6955632    978.28575  0.092746089   0.09372584            2 
  880000    1.0949628   -2.7177754    981.54012  0.092948874  0.093711931            1 
  881000    1.1288689   -2.6675167    978.72078  0.092576691  0.093696547           10 
  882000    1.1247239   -2.7016089    981.13238  0.092699583  0.093682605            1 
  883000    1.1027078   -2.6652602    983.10746  0.092780998  0.093666925            4 
  884000    1.1116447   -2.7076681    981.05708  0.092482757  0.093651427            1 
  885000    1.1108079   -2.6918589     983.5488  0.092612881  0.093636851            2 
  886000     1.115829   -2.7048787    986.60048   0.09279538  0.093621362            2 
  887000    1.0921684   -2.7069397    986.30759  0.092663246  0.093605763            2 
  888000    1.1098421   -2.7051387    983.29405  0.092276093  0.093590636            1 
  889000    1.1110739   -2.6885959    986.44273  0.092467447  0.093576498            1 
  890000    1.1113387   -2.7271751    987.51792  0.092464224  0.093562022            4 
  891000    1.1316189   -2.6968816    990.15156  0.092606768  0.093546134            2 
  892000    1.0730503   -2.6714779    990.73442  0.092557401  0.093530573            1 
  893000    1.1090667   -2.7040299    986.86264  0.092092445  0.093514906            1 
  894000    1.1043668   -2.6894367    995.33365   0.09277905  0.093499356            5 
  895000    1.1250086   -2.7019378    992.07715  0.092372174  0.093483332            2 
  896000    1.0801397   -2.7034053    992.37883  0.092297138  0.093467749            2 
  897000    1.1248627   -2.6643291    992.26037  0.092183238  0.093452202            2 
  898000    1.1161551   -2.6832758    995.49468  0.092380724  0.093436751            2 
  899000    1.1053096    -2.733264    995.66752  0.092293986  0.093421386            3 
  900000    1.0976854   -2.6612187    998.37898  0.092442498  0.093405349            3 
  901000    1.1162738   -2.7040478    997.70616  0.092277669  0.093389783            1 
  902000    1.1196719   -2.7033289    995.35721  0.091958353  0.093373945            3 
  903000    1.1259479   -2.6652046    998.32579  0.092130471  0.093358617            3 
  904000    1.1040669   -2.7299952    993.50988  0.091584613   0.09334217            1 
  905000    1.1046733   -2.7072918     999.7668  0.092059558  0.093325801            1 
  906000    1.1014033   -2.6912989    1003.0193  0.092257113  0.093310691            1 
  907000    1.1095625   -2.6966551    1004.0471  0.092249828  0.093293705            1 
  908000    1.1259976   -2.6700271    1006.5581  0.092378683  0.093277396            2 
  909000    1.1115271   -2.7002057    1005.4646  0.092176806  0.093262363            1 
  910000    1.1075404   -2.7177398    1009.8073  0.092473192  0.093246694            4 
  911000    1.0656095   -2.7164719    1003.9046  0.091831742  0.093230968            2 
  912000    1.1072412   -2.6818545    1012.9697  0.092559363  0.093215036            1 
  913000    1.1017255   -2.7003406    1008.1822  0.092021013  0.093199354            2 
  914000    1.1171677   -2.6988205    1015.1301  0.092553804   0.09318478            1 
  915000     1.112084   -2.6718553    1009.6626  0.091954701   0.09316835            2 
  916000    1.0810006   -2.6868215    1012.3926  0.092102674  0.093152682            3 
  917000    1.1016452   -2.7142712     1007.864  0.091590696  0.093136688            2 
  918000    1.0928077   -2.7106579    1016.0462  0.092233676  0.093120913            3 
  919000    1.1024375   -2.6874796    1017.7748  0.092290063  0.093104754            4 
  920000    1.1282633   -2.6844092     1017.172  0.092135144  0.093089588            3 
  921000    1.1086103    -2.713286    1013.3722    0.0916913  0.093073551            1 
  922000    1.1120175   -2.7320345    1018.2235  0.092030324  0.093057057            2 
  923000    1.1009929   -2.7163407    1010.8358  0.091263617  0.093040632            1 
  924000    1.1040124   -2.7081901    1020.2839  0.092016947  0.093023222            1 
  925000    1.0891163   -2.6912909    1018.5432  0.091760653  0.093005536            1 
  926000    1.0971233   -2.7253789    1016.1104  0.091442623   0.09298915            2 
  927000    1.1075211   -2.7109922    1019.8919  0.091683914  0.092972584            2 
  928000    1.1118121    -2.705146    1020.3435  0.091625674  0.092955854            2 
  929000    1.1208605   -2.7066006    1018.9543  0.091402429  0.092939786            2 
  930000    1.1130517   -2.6951459     1024.358  0.091788355  0.092923515            2 
  931000    1.0987729    -2.712008     1025.758  0.091815078  0.092908346            2 
  932000    1.1124848   -2.7053012     1026.991  0.091826803  0.092892066            1 
  933000    1.0861253   -2.7025225    1025.0238  0.091552678  0.092875751            2 
  934000    1.1078548   -2.6975526    1028.3986  0.091755764  0.092859884            2 
  935000    1.1259177   -2.6798284    1028.7062  0.091685042  0.092842404            1 
  936000    1.0866339   -2.7204712    1026.4415  0.091385463  0.092825804            1 
  937000    1.0884741   -2.6987788    1036.5888  0.092190393  0.092809403            1 
  938000    1.0796144   -2.6758666    1031.6721  0.091655308  0.092794128            2 
  939000    1.0978042   -2.7050958    1034.8544  0.091840114   0.09277923            3 
  940000    1.1017254   -2.7004697    1039.9919  0.092197863  0.092763434            2 
  941000     1.092105   -2.7118896     1036.858  0.091822348   0.09274796            1 
  942000    1.1018043   -2.6981407    1035.5482  0.091609002  0.092732704            4 
  943000    1.0833947   -2.6682068    1040.3898  0.091939718  0.092717342            1 
  944000    1.0880582   -2.7229962     1036.674  0.091514302  0.092701978            1 
  945000    1.1231372    -2.718056    1040.4512  0.091750549  0.092686955            6 
  946000    1.0938695   -2.7187432    1039.6461  0.091582634  0.092672494            2 
  947000    1.1066309   -2.6904044    1043.4345    0.0918193  0.092659048            3 
  948000    1.1083548   -2.7198545    1046.0264   0.09195028  0.092645382            2 
  949000    1.0978743   -2.6710404    1047.7712    0.0920066  0.092632429            2 
  950000    1.0979849   -2.7235995    1048.7697  0.091997343  0.092618014            1 
  951000    1.0793049   -2.7031922    1046.3487  0.091688457  0.092603394            2 
  952000     1.092966   -2.7465254    1046.3768  0.091594604  0.092588633            3 
  953000     1.114435   -2.7120615    1047.6936  0.091613644  0.092573967            1 
  954000    1.0911879   -2.7164408    1053.2364  0.092001782  0.092559356            2 
  955000    1.0906793   -2.7105247    1049.7323  0.091599674  0.092544527            2 
  956000    1.1108801   -2.7177637    1052.7684  0.091768515  0.092529092            3 
  957000    1.1147708   -2.7308342    1049.1707  0.091359343  0.092514048            2 
  958000     1.104477   -2.7069556    1054.3159  0.091711545  0.092499023            2 
  959000    1.0911341    -2.693803     1048.953  0.091149892  0.092483309            2 
  960000    1.0956496   -2.6954963    1056.1442  0.091679185  0.092468453            2 
  961000    1.0854441   -2.7274288    1052.2003  0.091241787  0.092452499            2 
  962000    1.0956112   -2.6933248    1054.5929  0.091354199  0.092436293            4 
  963000    1.0969836   -2.6959084    1060.1834  0.091743109  0.092420118            2 
  964000     1.094118   -2.6862929    1059.8017   0.09161495  0.092404671            3 
  965000      1.08401   -2.7196574     1060.205  0.091554835  0.092388998            1 
  966000    1.1028599   -2.7048544    1060.6546  0.091498847  0.092374362            2 
  967000     1.104429   -2.7099699    1062.1712  0.091534919  0.092359297            3 
  968000    1.0878364    -2.722358     1063.895  0.091588758  0.092343679            2 
  969000    1.0972321   -2.7027886    1066.2962  0.091700742  0.092328324            1 
  970000    1.0943529   -2.7111617    1068.1382  0.091764454  0.092314065            2 
  971000    1.0905405   -2.7165862    1066.3873  0.091519677  0.092300296            7 
  972000    1.1121042   -2.7124418    1069.5054  0.091692846  0.092286037            2 
  973000    1.1174559   -2.7038998    1067.8752  0.091458991  0.092272197            3 
  974000    1.1021866   -2.7183785    1070.6559  0.091603004   0.09225938            3 
  975000     1.093554   -2.7008561    1075.8707  0.091954757  0.092246706            2 
  976000    1.0757034   -2.7313506    1070.4617  0.091398711  0.092233477            2 
  977000    1.0827717   -2.7215893    1073.2999  0.091547245  0.092220716            3 
  978000    1.0640144   -2.6885514    1076.5961    0.0917345  0.092207329            3 
  979000    1.1040632   -2.7222198    1067.2563  0.090845784  0.092193833            5 
  980000    1.0977273   -2.7417215    1076.4828  0.091537649   0.09218031            3 
  981000    1.0710609   -2.7249251    1076.8744  0.091477605   0.09216666            3 
  982000    1.1063844   -2.7195411    1077.9233  0.091473466  0.092153557            4 
  983000    1.1159122   -2.7204561    1075.8609  0.091205574  0.092139805            1 
  984000    1.0732379   -2.7351671    1083.0327  0.091720249  0.092126338            2 
  985000    1.0837074   -2.7494855    1083.1808  0.091639661  0.092113005            2 
  986000    1.1039475   -2.7108389    1089.8277  0.092108492  0.092100157            7 
  987000    1.0977695   -2.7152572    1081.1117  0.091279271  0.092087915            2 
  988000     1.099722   -2.7019739    1086.3411  0.091627958  0.092074712            3 
  989000    1.0957215   -2.7153872    1092.6906  0.092070321  0.092061578            2 
  990000     1.088196   -2.7415472    1082.4297  0.091113615  0.092048307            2 
  991000    1.1106425   -2.7290664    1084.5336  0.091198584  0.092034776            1 
  992000    1.1010533   -2.7190399    1087.3646  0.091344474  0.092020738            4 
  993000    1.0823068    -2.714328    1089.3089  0.091415653  0.092006981            3 
  994000    1.0898549   -2.7179471    1092.3979  0.091582653  0.091993561            3 
  995000    1.0809938   -2.6921591    1094.2724  0.091647604  0.091980355            2 
  996000    1.0873662   -2.7022098    1087.0112  0.090948056  0.091966499            3 
  997000    1.0899523   -2.7459886    1089.4466  0.091060402  0.091952155            3 
  998000    1.1000427   -2.7272512    1085.9106  0.090673895  0.091936991            1 
  999000    1.0999982   -2.7397751    1093.3471  0.091203464  0.091921424            2 
 1000000    1.0849048   -2.7212995    1090.1394  0.090844946  0.091906048            1 
 1001000    1.1105229   -2.7550862    1093.1989  0.091008899  0.091890271            1 
 1002000    1.0858497   -2.7367891    1094.6481  0.091038597  0.091875146            4 
 1003000    1.0989518    -2.747127    1093.4251  0.090846221  0.091859661            1 
 1004000    1.0989667    -2.732281    1097.1209   0.09106249  0.091844367            4 
 1005000    1.1146329   -2.7331823    1096.1436  0.090890848  0.091828494            2 
 1006000    1.0730391   -2.7411991    1101.5503  0.091248369  0.091813484            3 
 1007000    1.1087615   -2.6990616    1098.2819  0.090887279  0.091799322            3 
 1008000    1.0817091   -2.7083748    1100.1547  0.090951944   0.09178533            2 
 1009000     1.108389   -2.7187155    1101.3636  0.090961646  0.091770844            1 
 1010000    1.0852891   -2.7553101    1097.6994  0.090569257  0.091756166            2 
 1011000    1.1064397   -2.7355771    1105.4312  0.091116978  0.091742072            1 
 1012000    1.1107089   -2.7119249    1105.3592  0.091021018  0.091728622            2 
 1013000    1.0800677   -2.7397643    1108.9788  0.091228924  0.091714894            2 
 1014000    1.0903731   -2.6944918    1109.1586  0.091153732  0.091700323            4 
 1015000    1.0667607   -2.7306789    1112.1713  0.091311271  0.091686692            3 
 1016000    1.0744379   -2.7454526    1110.3802  0.091074488  0.091672753            2 
 1017000    1.0926309   -2.7182354    1108.1495  0.090802154  0.091658667            4 
 1018000     1.079711    -2.723755    1111.4371  0.090982083   0.09164529            1 
 1019000    1.1002536    -2.733619    1113.2593  0.091041812  0.091631314            3 
 1020000    1.0800068    -2.735651    1117.9416  0.091335097  0.091617608            1 
 1021000    1.0928728   -2.7198927    1115.6653   0.09105985  0.091603805            2 
 1022000    1.1100367   -2.7352697     1115.088  0.090923676  0.091590192            2 
 1023000    1.0731295    -2.705417    1120.7487  0.091295916  0.091576662            2 
 1024000    1.1110062   -2.7270008    1113.7406   0.09063644  0.091563895            1 
 1025000    1.0887709   -2.6882259    1118.9798  0.090973966  0.091550208            1 
 1026000    1.1007481   -2.7304613    1119.0496  0.090890972  0.091536718            1 
 1027000    1.0896467   -2.6951437    1122.5387  0.091085584  0.091522789            1 
 1028000    1.1045525   -2.7189969    1125.0121  0.091197476  0.091509449            2 
 1029000    1.0899039   -2.7461042    1123.3457  0.090973901  0.091495738            7 
 1030000    1.0960609   -2.7121022    1125.0342  0.091022185  0.091482091            1 
 1031000    1.1113704   -2.7184114    1127.2735  0.091114896  0.091468871            2 
 1032000    1.0862382   -2.7031512    1125.7814  0.090906123  0.091455559            2 
 1033000    1.0875866    -2.707021    1127.5915   0.09096414  0.091441476            1 
 1034000    1.0966825   -2.7339226    1124.0054  0.090587155  0.091427709            4 
 1035000    1.0937344   -2.7144069    1124.1484  0.090511143   0.09141411            1 
 1036000    1.0883496   -2.7212881    1130.2873  0.090917573  0.091400771            3 
 1037000    1.0941455    -2.713499    1131.4636  0.090924428  0.091387288            3 
 1038000    1.1055647   -2.7283943    1134.2097  0.091057297  0.091374678            1 
 1039000    1.0781754   -2.7156179    1131.4257  0.090746366  0.091362553            1 
 1040000    1.0876901   -2.7107507    1134.6148  0.090914647  0.091350079            2 
 1041000    1.0554993   -2.7218441    1137.2882   0.09104132  0.091337293            2 
 1042000    1.0721297   -2.7300994    1134.9522  0.090767131  0.091324822            3 
 1043000    1.0673701   -2.7152446    1137.7144  0.090900803  0.091312962            2 
 1044000    1.0899931   -2.7298588    1141.1333  0.091086632  0.091301065            2 
 1045000    1.0840232   -2.7307728    1145.3527  0.091335945   0.09128883            1 
 1046000    1.0916294   -2.7251428    1143.1947  0.091076697  0.091276315            3 
 1047000    1.0809871   -2.7383519    1139.3411  0.090682988  0.091263844            1 
 1048000     1.100045   -2.7000127    1143.3576  0.090915843  0.091251625            2 
 1049000    1.0658561   -2.7497276    1140.3982  0.090594074   0.09123981            1 
 1050000    1.0830916   -2.7131098     1145.991  0.090951668  0.091227331            1 
 1051000    1.1036776   -2.7521815    1139.7449  0.090369877  0.091214255            3 
 1052000    1.0914906   -2.7184251    1145.5578  0.090744439  0.091200957            3 
 1053000     1.053673   -2.7120581    1144.1907  0.090550075   0.09118791            3 
 1054000    1.0928685   -2.7467802    1143.7562  0.090429806  0.091174877            3 
 1055000    1.0650041   -2.7207017    1152.0975   0.09100296  0.091162238            3 
 1056000    1.0999847   -2.7246824    1148.6159  0.090642038  0.091149817            2 
 1057000    1.0843094   -2.7436376    1150.7285  0.090722838  0.091137455            3 
 1058000    1.0839724   -2.7163911    1151.0762  0.090664476  0.091124594            3 
 1059000    1.0839597   -2.7238506    1149.3592  0.090443749  0.091111752            3 
 1060000     1.081122   -2.7286196    1149.4377    0.0903646  0.091098801            3 
 1061000    1.0956953   -2.7250361    1153.8823  0.090628522  0.091085295            3 
 1062000    1.0875361   -2.7257934    1152.5526  0.090438843  0.091072161            2 
 1063000    1.0666476   -2.7287285    1156.3383  0.090650538  0.091059217            5 
 1064000    1.0716649   -2.7302742    1154.3225  0.090407465  0.091045757            2 
 1065000    1.0558177   -2.7178179    1156.4989   0.09049287  0.091033021            1 
 1066000    1.0800635    -2.724931     1156.616  0.090417132  0.091020802            1 
 1067000    1.0575857   -2.7274278    1161.0886  0.090681709  0.091007629            1 
 1068000    1.0931138    -2.700721    1160.1228  0.090521445   0.09099508            1 
 1069000    1.0847836   -2.7250617    1161.1751  0.090518791  0.090981672            2 
 1070000    1.0841382   -2.7226415    1161.8276  0.090485016  0.090967539            1 
 1071000    1.1088938   -2.7374997    1163.4547  0.090527128  0.090954045            3 
 1072000    1.0632072   -2.7566708    1160.1722  0.090187512  0.090940271            4 
 1073000    1.0522691   -2.7279437    1157.1369  0.089867729  0.090925529            2 
 1074000    1.0750817   -2.7285035    1168.6556  0.090677806  0.090911674            2 
 1075000     1.073978   -2.7357226    1164.0121  0.090233496  0.090897909            1 
 1076000    1.0940894    -2.750576    1162.4919  0.090031901  0.090884822            2 
 1077000    1.0649957   -2.7203697    1165.8572    0.0902087  0.090871112            1 
 1078000     1.074562   -2.7303696    1171.7585  0.090581207  0.090858449            1 
 1079000    1.0724007   -2.7358047    1169.5798  0.090328991  0.090844891            2 
 1080000    1.0935199   -2.7458647    1169.6622  0.090251715  0.090831951            2 
 1081000     1.091505   -2.6943808    1177.2294  0.090751576  0.090819237            1 
 1082000    1.0831445   -2.7385157    1177.4952  0.090688173  0.090806641            2 
 1083000    1.1017713   -2.7232603    1176.2978  0.090512299  0.090794284            1 
 1084000    1.0629177   -2.7193162    1172.6067  0.090145044  0.090781401            2 
 1085000      1.07655   -2.7171121    1179.1303  0.090563003  0.090768196            1 
 1086000    1.0580357   -2.7350614    1176.8975  0.090308283  0.090755809            2 
 1087000    1.0891394   -2.7526913    1177.1767  0.090246605  0.090742798            1 
 1088000    1.0986109   -2.7362435    1175.4882  0.090034325  0.090730994            7 
 1089000    1.0669473   -2.7389163    1182.8776  0.090517111   0.09071861            2 
 1090000    1.0810349    -2.734141    1176.3496  0.089934988  0.090706293            2 
 1091000    1.0805615   -2.7288911    1180.6965  0.090184578  0.090694727            1 
 1092000    1.0792606   -2.7531057    1187.4892  0.090620358  0.090682654            1 
 1093000    1.0822556   -2.7139997    1185.9457  0.090419767  0.090670557            4 
 1094000    1.0519636   -2.7191459    1186.0919  0.090348256  0.090657841            1 
 1095000    1.0850194   -2.7323926    1188.3353  0.090436478  0.090645848            5 
 1096000    1.0986114   -2.7360956     1187.275  0.090273346  0.090633083            3 
 1097000    1.0646585   -2.7330598    1184.2265  0.089959473  0.090619804            1 
 1098000    1.0897352   -2.7293412    1189.4332  0.090272705  0.090607053            3 
 1099000    1.0675866   -2.7374316    1189.3818  0.090186666  0.090595264            5 
 1100000    1.0498859    -2.738355    1184.0885  0.089703671  0.090581961            2 
 1101000    1.0655143    -2.760818     1188.608  0.089964277  0.090569523            2 
 1102000    1.0807221   -2.7268792     1192.551  0.090180806   0.09055686            3 
 1103000    1.0712536   -2.7322452    1194.9949  0.090283685  0.090544429            1 
 1104000    1.0598412   -2.7517854    1191.4473  0.089934125  0.090532094            1 
 1105000    1.0925966   -2.7211592    1190.3037  0.089766496   0.09051879            2 
 1106000    1.0734481    -2.740805    1192.7273  0.089867941  0.090505879            2 
 1107000    1.0763034   -2.7410699    1192.5706  0.089774963   0.09049148            4 
 1108000    1.0828644   -2.7257281    1198.4693  0.090137586   0.09047768            2 
 1109000    1.0775829   -2.7226714    1199.5688  0.090138921  0.090464237            2 
 1110000     1.084528   -2.7204813    1198.1276  0.089949521   0.09045021            1 
 1111000    1.0802068    -2.744297    1199.0903  0.089940766  0.090437285            3 
 1112000    1.0751335   -2.7455204    1201.1118  0.090011379  0.090423577            3 
 1113000    1.0527511   -2.7299826     1196.499  0.089585128  0.090409914            4 
 1114000    1.0933744   -2.7794911    1200.4073  0.089797073  0.090396886            4 
 1115000    1.0834121   -2.7348628    1200.8659  0.089750817  0.090383116            2 
 1116000     1.049188   -2.7299004    1199.9801  0.089604248  0.090369379            3 
 1117000    1.0451854   -2.7493716     1206.388  0.090002089  0.090355329            2 
 1118000    1.0763064   -2.7267632    1203.1608  0.089681034  0.090341673            3 
 1119000    1.0652512   -2.7427197    1201.3909  0.089469086  0.090327699            1 
 1120000    1.1052218   -2.7471411    1202.1183  0.089443323  0.090313858            2 
 1121000    1.0858824   -2.7415365    1206.9783  0.089724823  0.090299387            2 
 1122000    1.0771051   -2.7546084    1203.8507  0.089412563  0.090285102            4 
 1123000    1.0651209   -2.7538893    1204.8373  0.089406149  0.090269838            2 
 1124000    1.0703274   -2.7485505     1203.615  0.089235986  0.090256393            3 
 1125000    1.0455041    -2.733891    1214.1367  0.089936051  0.090242369            2 
 1126000    1.0437401   -2.7428948    1207.2739  0.089348273  0.090228593            2 
 1127000    1.0694886   -2.7345046     1213.243  0.089710364  0.090214942            3 
 1128000    1.0478425   -2.7292568    1215.3592  0.089787173  0.090200882            1 
 1129000    1.0746726   -2.7302696    1210.7981  0.089370983  0.090186985            3 
 1130000    1.0807369   -2.7344244    1208.6995   0.08913713   0.09017242            2 
 1131000    1.0648697   -2.7568728    1213.7122  0.089427663  0.090157391            2 
 1132000    1.0706886   -2.7175421    1219.1789    0.0897511  0.090142954            2 
 1133000    1.0722676   -2.7368263    1216.9347  0.089506817  0.090128677            2 
 1134000    1.0845287   -2.7275564    1216.9747  0.089430826  0.090114201            1 
 1135000    1.0600118   -2.7562123    1218.8837  0.089492193  0.090099346            5 
 1136000    1.0886593   -2.7216527    1214.1498   0.08906615  0.090084896            1 
 1137000    1.0640458   -2.7544559     1221.279  0.089510331  0.090070866            2 
 1138000    1.0779433   -2.7740872    1216.4882  0.089080861  0.090055896            2 
 1139000    1.0749478   -2.7356871    1222.1114  0.089414059   0.09004242            3 
 1140000    1.0634632   -2.7220153     1220.294   0.08920278  0.090028151            2 
 1141000    1.0363839    -2.727233    1221.4172  0.089206628   0.09001466            1 
 1142000    1.0519603   -2.7302428     1223.788  0.089301517  0.090000535            1 
 1143000    1.0768789   -2.7608417    1227.7427  0.089511714  0.089987009            1 
 1144000    1.0660102   -2.7558784    1222.7411  0.089069138  0.089973099            2 
 1145000    1.0656456   -2.7378124     1226.036  0.089231147  0.089958443            1 
 1146000    1.0472684   -2.7767746    1223.8026   0.08899088  0.089944279            3 
 1147000    1.0511735     -2.74029     1230.528  0.089401915  0.089930486            3 
 1148000      1.07637   -2.7418758    1239.1187  0.089947638  0.089917328            1 
 1149000    1.0770544   -2.7120589    1232.5641  0.089393972  0.089903589            2 
 1150000    1.0655808   -2.7470423    1231.1622  0.089214654  0.089890052            1 
 1151000    1.0774264   -2.7508253    1232.7099  0.089249194  0.089876617            2 
 1152000       1.0661   -2.7382747    1232.9473  0.089188895  0.089863122            1 
 1153000    1.0759511    -2.780317    1230.6029  0.088942101  0.089849734            1 
 1154000     1.066365   -2.7392451      1241.32   0.08963894  0.089835724            4 
 1155000    1.0772702   -2.7805839    1235.3848  0.089133104  0.089822542            5 
 1156000    1.0679467   -2.7358921    1237.8432  0.089233216   0.08980935            2 
 1157000    1.0570554   -2.7506991    1237.9367  0.089162828  0.089795294            2 
 1158000    1.0801341   -2.7238454    1240.0288  0.089236381  0.089781991            1 
 1159000    1.0809215   -2.7369738    1247.4302  0.089691558  0.089768665            3 
 1160000    1.0591698   -2.7564668     1237.214  0.088880314  0.089754955            2 
 1161000    1.0683512   -2.7395226    1242.7362  0.089200128  0.089741161            1 
 1162000    1.0690002   -2.7334052     1242.867  0.089132749    0.0897274            1 
 1163000    1.0631132   -2.7583668    1238.4127  0.088736941  0.089714115            3 
 1164000    1.0638355   -2.7387803    1244.9895  0.089131552  0.089699745            1 
 1165000    1.0819023   -2.7335586    1245.3026  0.089077441   0.08968617            1 
 1166000    1.0728448    -2.738748    1244.9905  0.088978741  0.089673071            1 
 1167000    1.0689651   -2.7570753    1248.5496  0.089156638   0.08965983            2 
 1168000    1.0378199    -2.779441    1246.9846  0.088968653  0.089645737            2 
 1169000    1.0409397   -2.7453958    1246.5602  0.088862286  0.089632853            2 
 1170000    1.0787326   -2.7492263    1242.6707  0.088509308  0.089619706            5 
 1171000    1.0719032   -2.7583825    1247.4929  0.088776891  0.089606454            2 
 1172000    1.0698154   -2.7409986    1252.5962  0.089064007  0.089593788            2 
 1173000    1.0550453   -2.7433231    1255.3815  0.089185957  0.089580677            1 
 1174000    1.0581856   -2.7312783    1255.9466  0.089150098  0.089567919            2 
 1175000    1.0646768   -2.7288234    1262.2061  0.089518166  0.089555754            3 
 1176000    1.0962323   -2.7851807    1261.1783  0.089369212  0.089543298            2 
 1177000    1.0418307    -2.764597    1260.3665  0.089235803  0.089530754            3 
 1178000    1.0861211   -2.7629215    1259.6843   0.08911179  0.089518045            1 
 1179000    1.0597355   -2.7548818    1263.3616  0.089296123  0.089504844            2 
 1180000    1.0610835   -2.7507735      1259.13   0.08892161  0.089491911            3 
 1181000    1.0679633   -2.7544616    1264.3765   0.08921652  0.089479457            1 
 1182000      1.08032   -2.7563436    1266.4009  0.089283767  0.089465841            3 
 1183000    1.0693067   -2.7503981    1264.2917  0.089059715  0.089453091            1 
 1184000    1.0644111   -2.7628993    1269.4286  0.089346042  0.089440559            3 
 1185000    1.0429445   -2.7524625    1265.2232  0.088974909  0.089428662            2 
 1186000    1.0666717   -2.7517928    1268.2309  0.089111223  0.089415974            2 
 1187000    1.0537982     -2.76659    1269.2103  0.089104904  0.089403732            5 
 1188000    1.0458713   -2.7203922    1269.7575  0.089068288  0.089391085            3 
 1189000    1.0565724    -2.767508    1271.3322  0.089103741  0.089379318            3 
 1190000     1.059368    -2.775417    1271.8497  0.089065108  0.089366602            3 
 1191000    1.0544943   -2.7689522     1272.569  0.089040654  0.089353632            1 
 1192000    1.0181033    -2.748052    1272.6031  0.088968338  0.089341777            2 
 1193000    1.0503282   -2.7509963    1275.2985  0.089082043  0.089329649            1 
 1194000    1.0432036   -2.7388513    1276.1414  0.089066259  0.089317744            7 
 1195000    1.0565439   -2.7714971    1280.7493  0.089313065  0.089306099            2 
 1196000    1.0535619   -2.7483149    1281.7665  0.089309259  0.089294417            1 
 1197000    1.0566779   -2.7592813    1276.1343  0.088842545  0.089283374            4 
 1198000     1.066456   -2.7441657    1287.1294  0.089533206  0.089272233            3 
 1199000    1.0532097   -2.7441101    1284.5976  0.089282572  0.089261302            1 
 1200000    1.0546565   -2.7675694    1288.8409  0.089502839  0.089249902            1 
 1201000    1.0604576    -2.781032    1277.1456  0.088616819  0.089238155            1 
 1202000    1.0356801   -2.7717534    1285.9376  0.089152634  0.089226126            2 
 1203000    1.0745169   -2.7575299    1282.6606  0.088851527  0.089214566            2 
 1204000    1.0632486   -2.7513273     1291.645  0.089399568  0.089203176            2 
 1205000    1.0579809   -2.7456901    1286.5931  0.088976008  0.089191542            2 
 1206000    1.0538589   -2.7487763    1282.6451  0.088629429  0.089180438            2 
 1207000    1.0584488   -2.7544856    1286.3935  0.088814795  0.089169025            2 
 1208000    1.0697977   -2.7855949    1287.1418  0.088792894   0.08915788            2 
 1209000    1.0480795   -2.7417454    1291.2143  0.089000156  0.089145736            3 
 1210000     1.049465   -2.7904873    1288.0453  0.088708354  0.089134333            2 
 1211000    1.0759974   -2.7519116    1289.2651  0.088719041  0.089122183            1 
 1212000    1.0456124   -2.7448292    1289.3505  0.088651712  0.089110734            2 
 1213000    1.0525539   -2.7822022    1293.9038  0.088891443   0.08909873            2 
 1214000    1.0746424   -2.7459343    1292.8814  0.088748033  0.089087125            1 
 1215000    1.0334488   -2.7595912    1296.4243  0.088917989  0.089075249            3 
 1216000    1.0806588    -2.741339    1299.7745  0.089074458  0.089062849            1 
 1217000    1.0568095   -2.7468787    1298.1819  0.088892215  0.089050853            2 
 1218000    1.0585831   -2.7591193    1294.6898  0.088580312  0.089037898            7 
 1219000    1.0745597   -2.7372597    1299.2495  0.088819351  0.089025455            3 
 1220000    1.0631283   -2.7746585    1292.0538  0.088255042  0.089012588            1 
 1221000    1.0498737   -2.7363945     1301.064  0.088797707  0.088999695            1 
 1222000    1.0535978   -2.7611174    1302.5937  0.088829358  0.088986094            2 
 1223000    1.0616337   -2.7684758    1297.0858  0.088381426   0.08897288            2 
 1224000    1.0541067   -2.7646974    1303.4527  0.088742693  0.088959295            1 
 1225000     1.044397   -2.7881148    1293.7206  0.088008206  0.088945294            3 
 1226000    1.0644762   -2.7533619    1305.4416  0.088733119   0.08893237            1 
 1227000    1.0549381    -2.763768    1297.2035  0.088101299  0.088919415            2 
 1228000     1.062444    -2.737037    1308.9619  0.088827493  0.088906814            1 
 1229000    1.0526391   -2.7708692    1302.7485  0.088333908  0.088893749            3 
 1230000    1.0478564    -2.757617    1306.3245  0.088504368   0.08888093            2 
 1231000    1.0550476   -2.7573634    1307.3286  0.088500448   0.08886849            2 
 1232000     1.077965   -2.7519142    1313.4119  0.088840088  0.088855564            1 
 1233000     1.054093   -2.7574011     1312.926    0.0887352   0.08884291            1 
 1234000    1.0548191     -2.78667    1310.9269  0.088528286   0.08883072            2 
 1235000     1.045374   -2.7605039    1313.4015  0.088623585   0.08881817            2 
 1236000    1.0394033   -2.7587251    1313.3954  0.088551467  0.088805806            1 
 1237000    1.0726545   -2.7911831    1306.0278  0.087983549  0.088793149            2 
 1238000    1.0553543   -2.7572234    1316.4034  0.088610894   0.08878045            2 
 1239000    1.0241961   -2.7800379    1317.2414  0.088595737  0.088767002            8 
 1240000    1.0482215   -2.7589244    1312.3145  0.088193178  0.088753748            3 
 1241000    1.0807908   -2.7429281    1320.1502  0.088648282  0.088740031            1 
 1242000    1.0378939   -2.7829109    1312.4455  0.088059952  0.088726955            6 
 1243000    1.0506249   -2.7539425    1311.6313  0.087934517  0.088713005            1 
 1244000    1.0680944   -2.7226856    1322.3807  0.088583919  0.088699285            1 
 1245000    1.0677804   -2.7638197     1318.087  0.088225369  0.088686478            3 
 1246000    1.0453087   -2.7634713    1313.5154  0.087848807  0.088672472            3 
 1247000    1.0478505   -2.7616015    1318.2413  0.088094182  0.088659172            2 
 1248000     1.052833   -2.7628705    1317.4272  0.087969233  0.088645803            2 
 1249000    1.0286342   -2.7430989     1324.056  0.088341071  0.088632234            4 
 1250000    1.0293581    -2.759499    1316.8085  0.087787232    0.0886181            5 
 1251000    1.0403921   -2.7460289    1317.7895  0.087782409  0.088603917            2 
 1252000    1.0441365   -2.7815443    1317.8082  0.087713541  0.088589777            1 
 1253000    1.0515711   -2.7546818    1322.5019    0.0879557  0.088575139            1 
 1254000    1.0493793   -2.7996471    1315.6592  0.087430833   0.08856003            1 
 1255000    1.0601545   -2.7613415    1320.8387  0.087705095  0.088545552            4 
 1256000    1.0518225   -2.7538308    1324.4604  0.087875559   0.08853138            2 
 1257000    1.0495485   -2.7545083    1323.0269  0.087710612  0.088517299            3 
 1258000    1.0576487   -2.7430412    1321.2692  0.087524458   0.08850235            2 
 1259000    1.0564712   -2.7649945    1327.5656    0.0878717  0.088486657            2 
 1260000    1.0493318   -2.7637952     1326.131  0.087707076  0.088471628            2 
 1261000    1.0710777   -2.7720013    1326.6179  0.087669703  0.088456609            2 
 1262000    1.0301795   -2.7469099    1321.3898  0.087255003  0.088440801            1 
 1263000    1.0507505    -2.769849    1326.7664  0.087540667   0.08842483            3 
 1264000    1.0642466   -2.7778494    1323.3636  0.087247071  0.088408916            3 
 1265000    1.0920771   -2.7768548    1325.5266  0.087320595  0.088393523            1 
 1266000    1.0568103   -2.7748113    1332.3738  0.087702328  0.088378272            3 
 1267000    1.0637063   -2.7553808    1333.6211  0.087715145  0.088363283            4 
 1268000    1.0163081   -2.7725584    1328.4857  0.087308468  0.088348066            3 
 1269000    1.0562694   -2.7713945    1331.7164  0.087451826  0.088333035            3 
 1270000    1.0619369   -2.7898951    1334.3425  0.087555281   0.08831784            3 
 1271000    1.0557113   -2.7759937    1330.1667  0.087212611  0.088302751            3 
 1272000    1.0303295   -2.7924182    1336.4716  0.087557102  0.088287804            1 
 1273000    1.0511552   -2.7605956    1339.7256  0.087701337  0.088272795            2 
 1274000    1.0408799   -2.7694913    1338.7016  0.087565512  0.088257986            3 
 1275000    1.0654331    -2.780011    1335.3805  0.087279771  0.088243018            4 
 1276000    1.0468152   -2.7481691    1340.2304  0.087528108  0.088228636            2 
 1277000    1.0629749   -2.7585462    1336.8524   0.08723913  0.088213799            3 
 1278000    1.0351224   -2.7737223     1338.265  0.087262974  0.088198553            1 
 1279000    1.0659045   -2.7780444    1337.7753  0.087162839  0.088183153            1 
 1280000    1.0489473   -2.7859892    1345.8119  0.087617961  0.088167691            4 
 1281000    1.0467196   -2.7685457    1346.4208  0.087589173  0.088152061            2 
 1282000    1.0578407     -2.77919    1338.5491  0.087009169  0.088135926            2 
 1283000    1.0542007   -2.7555115    1341.0463  0.087103553  0.088120017            3 
 1284000    1.0484086   -2.7640419     1342.615  0.087137527  0.088104217            1 
 1285000    1.0580806   -2.7936762    1344.2111  0.087173225  0.088087805            2 
 1286000    1.0352623    -2.761715    1343.8048   0.08707911  0.088070535            2 
 1287000     1.064341   -2.7745025    1346.9916  0.087217791  0.088054621            2 
 1288000    1.0645918   -2.7925082    1337.9306   0.08656383  0.088037634            1 
 1289000    1.0362097   -2.7752122    1338.5534  0.086536938  0.088020893            1 
 1290000    1.0289396   -2.7656549     1344.757  0.086870608  0.088004342            3 
 1291000    1.0384427   -2.7549314    1341.9937  0.086624949  0.087986788            2 
 1292000    1.0466618   -2.7678266    1343.3336  0.086644327  0.087970016            2 
 1293000    1.0533978   -2.7643821    1343.6006  0.086594524  0.087953043            2 
 1294000     1.054297   -2.7686256    1347.8532  0.086801468   0.08793543            2 
 1295000    1.0349047   -2.7777258      1352.14  0.087010295  0.087917763            1 
 1296000    1.0238203   -2.7603149    1346.4344  0.086576288  0.087900112            2 
 1297000     1.046255   -2.7641227     1350.709  0.086784183  0.087882679            1 
 1298000    1.0181463   -2.7676978    1347.9103  0.086537639  0.087865576            2 
 1299000    1.0430118   -2.7982099    1352.5955  0.086771584  0.087847791            1 
 1300000    1.0453898   -2.7675527    1347.8357  0.086399722   0.08783024            2 
 1301000     1.037547   -2.7641645    1354.8305  0.086781353  0.087812696            2 
 1302000     1.033168   -2.8141918    1348.8477   0.08633178  0.087794749            3 
 1303000    1.0515895    -2.763308    1349.0433  0.086278031  0.087776953            2 
 1304000    1.0481964   -2.7820378    1352.7513  0.086448831  0.087758848            2 
 1305000    1.0513118   -2.7802088     1349.801  0.086194187  0.087741449            3 
 1306000    1.0370208   -2.7780511    1354.7091  0.086441366  0.087724053            3 
 1307000    1.0445379   -2.7944691    1349.6178  0.086050615   0.08770641            5 
 1308000     1.021402   -2.7707482    1359.0405  0.086585149    0.0876888            1 
 1309000    1.0528678   -2.7319526    1361.7547  0.086691791  0.087671848            1 
 1310000    1.0564613    -2.777535    1351.4027   0.08596709  0.087654458            3 
 1311000    1.0457557   -2.7902267    1361.7895  0.086561755  0.087636783            2 
 1312000    1.0368362   -2.7716328    1357.4627  0.086220957    0.0876191            2 
 1313000    1.0386336   -2.7617717    1359.1843  0.086264551  0.087602359            2 
 1314000    1.0269799   -2.7593111    1365.8075  0.086618945  0.087585126            3 
 1315000    1.0197839   -2.7626548    1362.6445  0.086352633  0.087568295            3 
 1316000     1.059492   -2.7984879     1362.963  0.086307182  0.087551247            2 
 1317000    1.0484913   -2.7784058    1363.3802  0.086268046  0.087533983            2 
 1318000    1.0318303   -2.7804096    1358.2492  0.085878171  0.087516552            2 
 1319000    1.0285766   -2.7590067    1369.6104  0.086530858  0.087498912            2 
 1320000    1.0438016    -2.795061     1361.863  0.085976198  0.087481476            2 
 1321000    1.0462188   -2.7808105    1370.9235  0.086482683  0.087463856            2 
 1322000    1.0579624   -2.7898824    1369.5856  0.086332932  0.087446479            2 
 1323000    1.0191242   -2.8250255    1371.1198  0.086364308  0.087428402            3 
 1324000    1.0555135   -2.7920279    1373.8239  0.086469281  0.087411228            3 
 1325000    1.0340595   -2.7626514    1372.8986  0.086345822  0.087394804            2 
 1326000    1.0347172   -2.7841373    1374.4129  0.086375874  0.087377671            2 
 1327000    1.0520743   -2.7757211    1375.2945  0.086366148  0.087360821            2 
 1328000    1.0595932   -2.7937044    1367.3416  0.085802058  0.087343682            2 
 1329000    1.0428355   -2.7718679    1374.2365  0.086169836  0.087326155            3 
 1330000    1.0664974   -2.7929687    1369.2672  0.085793685  0.087308483            1 
 1331000    1.0327538   -2.8133408    1379.8884  0.086394218  0.087290846            3 
 1332000    1.0488414   -2.7820484    1374.8742  0.086015651  0.087273737            2 
 1333000    1.0355639   -2.8090237    1373.5124  0.085865994  0.087256166            1 
 1334000    1.0350273   -2.7865585    1374.1136   0.08583918  0.087239065            2 
 1335000    1.0470098   -2.7869812    1378.2689  0.086034262  0.087221836            4 
 1336000    1.0443878   -2.7988871    1374.8242  0.085755003  0.087204305            1 
 1337000    1.0441819   -2.8078227    1377.1259  0.085834327  0.087187185            3 
 1338000    1.0430834   -2.8120572    1382.3458   0.08609528  0.087169959            4 
 1339000    1.0400543   -2.7800271    1383.2489  0.086087186  0.087152688            2 
 1340000    1.0268996   -2.7891826    1377.7474  0.085680811  0.087135477            3 
 1341000    1.0535184   -2.7949937    1380.2648  0.085773352   0.08711794            1 
 1342000    1.0569573   -2.7902558    1380.1512  0.085702383  0.087100681            3 
 1343000    1.0315707   -2.7883571    1388.6641  0.086166794  0.087083755            2 
 1344000    1.0406616   -2.7942114    1384.4871  0.085843697  0.087067323            1 
 1345000     1.033257   -2.7754923    1385.0582  0.085815252  0.087050534            4 
 1346000    1.0144742   -2.8029517    1383.7554  0.085670842  0.087032578            3 
 1347000    1.0468688    -2.784453    1388.6317  0.085908914  0.087015054            1 
 1348000    1.0066716   -2.7671724     1391.379  0.086015021  0.086997373            2 
 1349000    1.0590668   -2.7709268    1382.8428  0.085423943  0.086979822            2 
 1350000    1.0365017   -2.7842643    1385.7254  0.085538603  0.086961816            3 
 1351000    1.0535948   -2.7541463    1395.6594  0.086088045  0.086944962            4 
 1352000    1.0509687   -2.7889658    1388.2518   0.08556779  0.086927676            2 
 1353000    1.0284077   -2.7436647    1393.5934  0.085833545  0.086910621            3 
 1354000    1.0411485   -2.8056845    1394.8245  0.085845921  0.086893117            3 
 1355000    1.0396491   -2.7829489    1401.8404  0.086214049  0.086876291            2 
 1356000    1.0372987   -2.7841943    1394.7294  0.085713458  0.086859046            3 
 1357000    1.0536513   -2.7754107    1395.0727  0.085671377  0.086841941            2 
 1358000    1.0469909   -2.7950448    1393.7667  0.085528149  0.086825156            2 
 1359000    1.0182172   -2.7606985    1402.3647  0.085992437   0.08680771            1 
 1360000    1.0341722   -2.7675412    1395.7588  0.085524435  0.086790427            4 
 1361000    1.0288297   -2.7750339    1396.2777   0.08549337  0.086774069            2 
 1362000    1.0364765   -2.7857787    1402.4935  0.085810909  0.086757103            3 
 1363000    1.0246406   -2.8047274      1399.79  0.085582659  0.086740249            4 
 1364000    1.0101915   -2.8024689     1394.266  0.085182426  0.086723239            2 
 1365000    1.0349838   -2.7880879    1403.2749  0.085670017  0.086706538            2 
 1366000    1.0216804   -2.7853534    1401.5764  0.085503686  0.086690202            2 
 1367000    1.0281216   -2.7786632    1408.2896  0.085850381  0.086673924            2 
 1368000    1.0472252   -2.7680915    1415.7099  0.086239637  0.086658365            3 
 1369000    1.0106335   -2.7757064     1410.373   0.08585178  0.086643073            2 
 1370000    1.0461048   -2.7833893    1409.2801  0.085722633  0.086627752            3 
 1371000    1.0274067   -2.7749581    1412.4748  0.085854294  0.086612569            2 
 1372000    1.0453747   -2.7632918    1415.5247   0.08597696  0.086597428            1 
 1373000    1.0364206   -2.7761372    1415.4192  0.085907936  0.086582262            6 
 1374000    1.0399951   -2.7779953    1416.8367  0.085931386  0.086567005            4 
 1375000    1.0335235   -2.7771045    1416.2711  0.085834609  0.086551831            2 
 1376000    1.0398829   -2.7922634    1416.8945  0.085809986  0.086536617            2 
 1377000    1.0216808   -2.7727895    1418.3943  0.085838436  0.086521836            1 
 1378000    1.0432949    -2.819415    1420.3311  0.085893271   0.08650654            2 
 1379000    1.0352531   -2.8025326    1415.2512     0.085524  0.086491531            3 
 1380000    1.0328645    -2.812946    1409.4926  0.085114287  0.086476628            2 
 1381000    1.0279284   -2.8199977    1419.9167  0.085681673  0.086461582            2 
 1382000    1.0340316    -2.790684    1425.9698  0.085984672  0.086447284            3 
 1383000    1.0168814    -2.782709    1427.3438  0.086005293  0.086432137            1 
 1384000    1.0227958   -2.8111967    1420.2263  0.085514589    0.0864168            1 
 1385000     1.040608   -2.8080665    1420.1754  0.085449785  0.086401701            2 
 1386000    1.0246253   -2.7826554    1427.7743  0.085845016  0.086386746            2 
 1387000    1.0368816   -2.7975373     1426.457  0.085703977  0.086371721            2 
 1388000    1.0249494   -2.7678015    1431.1928  0.085926558  0.086356723            4 
 1389000    1.0327456    -2.787227    1422.7387  0.085357492  0.086341951            1 
 1390000    1.0192416   -2.8070496    1429.1472  0.085680288  0.086326937            4 
 1391000     1.025615   -2.8049212    1432.1956   0.08580132  0.086312353            3 
 1392000    1.0283465   -2.7772178     1433.612  0.085824472  0.086297755            1 
 1393000    1.0373648   -2.7985766    1430.2352  0.085560849   0.08628335            1 
 1394000    1.0338044   -2.7699601    1434.5819  0.085759317  0.086268958            1 
 1395000    1.0319998   -2.8003367    1432.9401  0.085599768  0.086254306            2 
 1396000    1.0181992   -2.7918687    1441.1831  0.086030512  0.086239555            2 
 1397000    1.0366171   -2.7962266    1438.1213  0.085786284  0.086224921            1 
 1398000    1.0507109   -2.7603871    1433.5883  0.085454716  0.086210346            3 
 1399000    1.0258304   -2.8147821    1435.6598  0.085517022  0.086194981            3 
 1400000    1.0351555    -2.780431    1434.8312  0.085406617  0.086180452            3 
 1401000    1.0310587   -2.8101849    1436.9531  0.085471873  0.086166076            2 
 1402000    1.0182559   -2.7706455    1439.7242   0.08557562   0.08615129            4 
 1403000    1.0129095   -2.7956517    1437.0501  0.085355791  0.086136582            2 
 1404000    1.0107565   -2.7818715    1440.5981  0.085505586  0.086121691            1 
 1405000    1.0337106   -2.8022195    1437.8975  0.085284548  0.086107257            1 
 1406000     1.032787    -2.792119    1439.0142   0.08529008  0.086092477            1 
 1407000    1.0399536   -2.7823677    1437.8261  0.085159094  0.086077268            4 
 1408000    1.0107505   -2.7803003    1443.8167  0.085453169  0.086061913            2 
 1409000    1.0274498   -2.8151156    1443.4084  0.085368371  0.086047117            1 
 1410000    1.0196084   -2.7889244    1444.9282  0.085397649   0.08603241            7 
 1411000    1.0457657   -2.7675512    1441.4782  0.085133366  0.086017512            2 
 1412000    1.0505096   -2.7956688    1443.6944  0.085203873  0.086002168            3 
 1413000    1.0623803   -2.8287038    1450.0486  0.085518316  0.085987019            2 
 1414000    1.0248639   -2.7835632    1440.1666  0.084875445  0.085971721            2 
 1415000    1.0096802   -2.7874781    1440.9381  0.084860899  0.085956712            3 
 1416000    1.0422337   -2.7877734    1447.5274  0.085188757  0.085941755            2 
 1417000    1.0083604   -2.7995721    1446.3203  0.085057652  0.085926481            1 
 1418000    1.0107835   -2.7935401    1454.3587  0.085470072  0.085911685            2 
 1419000    1.0392922   -2.8039918    1447.6566  0.085016243   0.08589694            6 
 1420000    1.0159223   -2.7946021    1447.6031  0.084953234  0.085881905            2 
 1421000    1.0451024   -2.7872002    1456.2644  0.085401383   0.08586691            2 
 1422000    1.0205039   -2.8020939    1453.3615  0.085171208  0.085851841            2 
 1423000     1.014705   -2.7801234    1456.4585  0.085292718  0.085836969            3 
 1424000    1.0180931   -2.8012144    1452.5469  0.085003913  0.085822414            2 
 1425000    1.0206628   -2.8082593    1451.0619  0.084857423  0.085807327            4 
 1426000    1.0273477     -2.80409    1460.1163  0.085327039   0.08579277            2 
 1427000    1.0073681   -2.7923646    1456.0496  0.085029758  0.085778522            1 
 1428000    1.0045787    -2.800507    1458.2301  0.085097463  0.085764206            2 
 1429000    1.0302124   -2.7948395    1466.2455  0.085505335  0.085749417            4 
 1430000    1.0278744   -2.7780028    1459.7059  0.085064445  0.085734683            7 
 1431000   0.98758785   -2.8000113    1463.0584  0.085200232  0.085719431            2 
 1432000    1.0314696   -2.7496479    1468.9605  0.085484198   0.08570466            1 
 1433000    1.0221621   -2.7876779    1464.2857  0.085152693   0.08569068            3 
 1434000    1.0072583   -2.8247595    1461.1839  0.084913056  0.085676335            2 
 1435000    1.0327323   -2.7861403    1469.2337  0.085321352  0.085661933            3 
 1436000    1.0433571   -2.8157334    1471.6242  0.085400662  0.085647711            2 
 1437000    1.0421506   -2.8043178    1467.4548  0.085099442   0.08563327            2 
 1438000    1.0080112   -2.8137702    1469.6237  0.085165956  0.085618955            2 
 1439000    1.0176591   -2.8018221    1472.0233  0.085245733  0.085604793            2 
 1440000    1.0341446   -2.8240102    1474.7546  0.085344594  0.085590279            1 
 1441000    1.0148309   -2.8139834    1469.1795  0.084962959  0.085575558            3 
 1442000    1.0060745   -2.8104429    1476.2146  0.085310598   0.08556115            2 
 1443000    1.0177707   -2.7972938    1470.3079  0.084910364  0.085546982            3 
 1444000    1.0301254   -2.7834531    1471.2623  0.084906645   0.08553268            2 
 1445000    1.0133072   -2.8320811    1472.7447  0.084933373  0.085518535            3 
 1446000    1.0213949   -2.7771099    1484.2051  0.085535101  0.085504627            2 
 1447000    1.0279855   -2.8070947    1477.2683  0.085076494  0.085490477            7 
 1448000    1.0069441   -2.7740224    1474.9287  0.084883099  0.085476438            3 
 1449000    1.0361623   -2.8199115    1472.8915  0.084707357  0.085462399            3 
 1450000    1.0161665   -2.8079362    1477.9564  0.084940024  0.085447924            3 
 1451000    1.0155549   -2.8074704    1481.3265  0.085075037  0.085434352            1 
 1452000    1.0134435   -2.8059201    1476.3522  0.084730955  0.085420391            2 
 1453000    1.0396377   -2.8222054    1482.4899  0.085024655  0.085406688            3 
 1454000     1.022643   -2.8201174    1476.5425  0.084625314  0.085392736            2 
 1455000    1.0134265   -2.8086406    1476.6783  0.084574929  0.085378829            2 
 1456000    1.0227916   -2.8078591    1480.9505   0.08476136  0.085364567            4 
 1457000    1.0314481   -2.8418087    1478.1467  0.084542821  0.085349921            6 
 1458000    1.0219256   -2.8153244    1486.2469  0.084947811  0.085335722            2 
 1459000    1.0167722   -2.8203739    1485.7941  0.084863726  0.085320784            2 
 1460000    1.0290619   -2.8097566    1487.7015  0.084914468  0.085306858            5 
 1461000    1.0164085   -2.8176539     1492.431  0.085126113  0.085292909            2 
 1462000    1.0288424   -2.8083709    1487.5479   0.08478955   0.08527933            3 
 1463000    1.0300032   -2.8112562    1489.8518  0.084862828  0.085265501            1 
 1464000    1.0317789   -2.7917141    1496.3011  0.085171965  0.085251719            3 
 1465000    1.0104084   -2.7929434     1491.523  0.084842039  0.085238137            2 
 1466000    1.0233547    -2.798448    1487.1845  0.084537544  0.085223984            2 
 1467000   0.99798844   -2.7874697    1496.3034  0.084997923  0.085210357            3 
 1468000    1.0151343   -2.7888607    1492.1307  0.084703153  0.085196299            4 
 1469000     1.019758   -2.8340163    1491.6261  0.084616867  0.085182786            2 
 1470000    1.0195884   -2.8069409    1497.2378  0.084877428  0.085168764            1 
 1471000    1.0014432   -2.8002044    1494.3782  0.084657727  0.085154777            2 
 1472000   0.99792592   -2.8071806    1499.9731  0.084916957  0.085140812            2 
 1473000   0.99646148   -2.8121244    1495.1136  0.084584387  0.085127142            3 
 1474000    1.0199283   -2.8188144    1496.8541  0.084625401  0.085113016            2 
 1475000    1.0181023    -2.833934    1502.8317  0.084905745   0.08509895            2 
 1476000    1.0308827   -2.8041184    1504.5145  0.084943231  0.085084874            2 
 1477000    1.0056739   -2.7913942    1506.1821  0.084979809  0.085070877            4 
 1478000    1.0405055   -2.8336124    1496.0161  0.084349126  0.085056227            3 
 1479000    1.0291937   -2.8363619    1500.7496  0.084558801  0.085041565            2 
 1480000    1.0260494   -2.8035161     1502.897  0.084622578  0.085027043            1 
 1481000    1.0113785   -2.8055369    1501.3668  0.084479339  0.085012059            5 
 1482000    1.0355701   -2.8198275     1498.042  0.084235379   0.08499724            2 
 1483000    1.0266116   -2.7783025    1500.1416  0.084296559  0.084982271            3 
 1484000    1.0054471   -2.7797144    1508.2579  0.084695525  0.084967604            3 
 1485000    1.0290546   -2.7992345    1510.6854  0.084774711  0.084953095            3 
 1486000    1.0141983   -2.8422082    1502.6599  0.084267603  0.084938354            2 
 1487000    1.0321344   -2.7828908    1507.9548  0.084507666  0.084923569            3 
 1488000    1.0244203   -2.8085974    1506.7038  0.084380812  0.084909088            2 
 1489000    1.0086924   -2.7827882    1511.6542    0.0846012  0.084894651            1 
 1490000    1.0100444     -2.80327    1512.5484  0.084594428   0.08488018            2 
 1491000    1.0053792   -2.8064438    1501.8345  0.083938886  0.084865457            3 
 1492000   0.99786965   -2.8360563    1513.0576  0.084509473  0.084850684            3 
 1493000    1.0142148   -2.8059177    1506.3282  0.084077259  0.084836023            3 
 1494000    1.0380528   -2.8206467     1515.909   0.08455539  0.084821222            2 
 1495000      1.02748   -2.8186809    1511.0871   0.08423005  0.084806641            3 
 1496000    1.0230241   -2.8041428    1511.5709  0.084200699  0.084792262            2 
 1497000   0.98506706   -2.7912363    1513.7441  0.084265425  0.084777809            4 
 1498000    1.0198058   -2.7998216    1515.2209   0.08429133  0.084763576            2 
 1499000    1.0087856   -2.8004899    1519.8076   0.08449008  0.084749516            3 
 1500000    1.0195987   -2.8041638    1520.7006  0.084483365   0.08473547            2 
 1501000   0.98439482   -2.7673385    1524.0517  0.084613127  0.084721167            1 
 1502000    1.0136132   -2.8219283    1517.9984  0.084220947    0.0847074            2 
 1503000    1.0016192   -2.7902323    1520.4096  0.084298601  0.084693719            2 
 1504000    1.0374635   -2.8073885    1528.7143  0.084702697   0.08468027            3 
 1505000    1.0244426   -2.7865779    1528.2948   0.08462319  0.084666397            1 
 1506000    1.0181872   -2.8190603    1524.6021  0.084362667  0.084652502            4 
 1507000    1.0063242   -2.8159056    1521.6298  0.084142324   0.08463875            4 
 1508000    1.0008315   -2.8262796    1528.8526  0.084485668  0.084624867            1 
 1509000    1.0291581   -2.8094213    1521.9762  0.084049933  0.084611227            6 
 1510000   0.98504807   -2.8152046    1528.6538  0.084362791  0.084597065            4 
 1511000    1.0089464   -2.8050556    1528.2509  0.084284742  0.084583429            2 
 1512000    1.0034389   -2.8217297    1530.4853  0.084352141  0.084569297            3 
 1513000   0.97910906   -2.8177956    1534.6597  0.084526312   0.08455573            1 
 1514000    1.0166904   -2.8132005    1527.5383  0.084078509  0.084542512            2 
 1515000    1.0275638    -2.858512    1526.4154  0.083961243  0.084528641            2 
 1516000    1.0052065    -2.836119    1528.8381  0.084039033  0.084514476            4 
 1517000   0.99009201    -2.798575    1535.7497  0.084363312  0.084500887            4 
 1518000    1.0088591   -2.8377276    1536.0801  0.084325872  0.084487506            2 
 1519000    1.0159222   -2.8482758    1537.8959  0.084369973  0.084473386            4 
 1520000    1.0047201    -2.833226    1530.5905  0.083913952  0.084459894            3 
 1521000    1.0251997   -2.8169794    1537.2137  0.084221657  0.084446431            6 
 1522000    1.0198837   -2.8153964     1536.758  0.084141372  0.084432858            1 
 1523000    1.0183442   -2.8319863    1537.1035  0.084105029  0.084419868            3 
 1524000   0.98899159   -2.8162042    1541.7913  0.084306175   0.08440665            1 
 1525000    1.0033826   -2.8102036    1542.4712  0.084288043   0.08439336            3 
 1526000   0.99500272   -2.8292685    1538.4639  0.084013975  0.084380285            2 
 1527000    0.9904607   -2.8251505    1542.7366   0.08419213  0.084366831            2 
 1528000    1.0029898   -2.8443348    1543.9017  0.084200573  0.084354012            3 
 1529000    1.0030892   -2.8255723     1540.489  0.083959505  0.084340353            3 
 1530000     1.006031   -2.8075245    1545.8568  0.084196992  0.084327346            2 
 1531000   0.98257744    -2.805297    1548.5231  0.084287124  0.084314468            2 
 1532000    1.0276175   -2.8138567    1546.5695  0.084125842  0.084301348            1 
 1533000   0.99596635   -2.8233736    1545.1257  0.083992483  0.084287982            3 
 1534000    1.0099846   -2.8379047    1550.4582  0.084227411  0.084274834            2 
 1535000   0.99521959   -2.7954978    1553.7198  0.084349612  0.084261236            3 
 1536000    1.0168295   -2.7957985    1552.0784   0.08420564  0.084248171            3 
 1537000     1.021037   -2.8073192    1547.9057  0.083924619   0.08423505            2 
 1538000    1.0301767   -2.8349696    1547.5387  0.083850167  0.084221926            1 
 1539000   0.98960977    -2.808277    1555.1457  0.084207588  0.084208717            1 
 1540000   0.99601566   -2.8019505    1549.4694  0.083845746  0.084194999            1 
 1541000   0.99525933   -2.8390494    1546.1758  0.083613226  0.084181132            2 
 1542000   0.99795394   -2.8234385    1550.6868  0.083802788  0.084167507            4 
 1543000     1.014836   -2.8447219    1552.1792  0.083829076  0.084154133            1 
 1544000   0.98813478   -2.8548867    1553.8682  0.083865943  0.084140872            4 
 1545000    1.0052266   -2.8393055    1556.6937  0.083964059  0.084127053            3 
 1546000     1.036261   -2.8280351    1556.1716  0.083881609  0.084113751            3 
 1547000    1.0120537   -2.7971476    1558.0131  0.083926585  0.084100445            2 
 1548000    1.0033382    -2.831583    1556.2762  0.083778866  0.084087245            3 
 1549000    1.0378425   -2.8184432     1559.494  0.083897888  0.084073843            3 
 1550000    1.0205834   -2.7993163    1552.0835  0.083445348  0.084060432            4 
 1551000   0.99428149   -2.8370776    1560.8015  0.083859954  0.084047061            3 
 1552000    1.0255431   -2.8215382    1562.7529    0.0839107  0.084033919            3 
 1553000    1.0376464   -2.8123868    1555.7295  0.083479795  0.084020576            3 
 1554000    1.0200567   -2.8425915    1557.2373  0.083506936  0.084006991            2 
 1555000    0.9772942   -2.8247084    1566.0124  0.083923493  0.083993446            3 
 1556000     1.006892   -2.8324666    1568.8959  0.084023989  0.083980262            2 
 1557000    1.0040885   -2.8183171    1567.2435  0.083881583  0.083966896            2 
 1558000   0.98627496   -2.8314675    1563.2418  0.083613704  0.083953817            3 
 1559000    1.0073323   -2.8512029    1568.7967  0.083856999  0.083940886            4 
 1560000    1.0027999   -2.8081826    1562.3136  0.083456922  0.083927232            2 
 1561000   0.99117111   -2.8434654    1571.5104  0.083894424  0.083914159            2 
 1562000    0.9865983   -2.8180539    1571.0102  0.083814033  0.083900935            1 
 1563000    1.0177333   -2.8195973    1570.6203  0.083739621  0.083888288            7 
 1564000   0.97386493   -2.8263288    1565.7714  0.083427717  0.083875148            2 
 1565000   0.99323859    -2.806338    1570.1864  0.083609498   0.08386227            1 
 1566000   0.99843134   -2.8028121    1567.8609  0.083432358  0.083848763            2 
 1567000   0.98724763   -2.8225527    1568.9271  0.083435819  0.083835605            2 
 1568000    1.0179917   -2.8338805    1574.1366   0.08365947   0.08382226            1 
 1569000   0.98097179   -2.7997395    1569.6295  0.083366769  0.083809231            2 
 1570000   0.98096806   -2.7928496    1576.2024  0.083662545  0.083795691            2 
 1571000    1.0005532   -2.7951138    1574.7343  0.083531418  0.083782099            2 
 1572000    1.0048486   -2.8164699    1576.3735  0.083565177  0.083768419            2 
 1573000   0.99265335   -2.8094996    1576.9226   0.08354114  0.083754389            4 
 1574000   0.98647278   -2.8162258    1579.7748   0.08363907  0.083740643            2 
 1575000      1.00566   -2.8138674    1574.1395  0.083287807  0.083726746            2 
 1576000   0.99160352   -2.8131635    1580.1733  0.083554005  0.083712742            3 
 1577000   0.98736798    -2.808527    1579.5073  0.083465829  0.083699511            1 
 1578000   0.97513544   -2.8393909    1576.9563  0.083278216  0.083686021            4 
 1579000    1.0237271   -2.8015696    1588.7766  0.083849301  0.083672706            4 
 1580000   0.97948785   -2.8227023    1580.4803  0.083358664  0.083659345            6 
 1581000   0.97706142   -2.8251495    1586.1295  0.083603708  0.083645548            1 
 1582000     1.021668   -2.8529525    1589.4806   0.08372738  0.083632105            2 
 1583000   0.99900021   -2.8152597    1580.6703  0.083210693  0.083618976            2 
 1584000   0.99191098   -2.7945869    1585.9458  0.083435701  0.083605825            5 
 1585000   0.99344504   -2.8136996    1587.9962  0.083490863   0.08359235            2 
 1586000   0.98716139   -2.8148631    1587.9197  0.083434199  0.083579114            3 
 1587000   0.98414737   -2.8385854    1587.3849  0.083353543  0.083565969            2 
 1588000   0.98269708   -2.8345911    1585.8759  0.083221868  0.083552474            4 
 1589000   0.99977782   -2.8357187    1586.9269  0.083224611  0.083538838            5 
 1590000   0.99050168   -2.8255584    1591.6168  0.083418069   0.08352467            3 
 1591000    1.0065915   -2.8571014    1585.3537  0.083037591  0.083510484            5 
 1592000    1.0006507   -2.8235932     1584.822    0.0829576  0.083496296            4 
 1593000   0.99414423   -2.8346276    1583.4196  0.082832162  0.083482423            1 
 1594000    1.0088034   -2.8453074    1588.5619  0.083049032  0.083467837            2 
 1595000   0.99898758   -2.8267452    1588.9399  0.083016711  0.083453503            2 
 1596000    1.0041257   -2.8207178    1591.2939  0.083087608  0.083439155            2 
 1597000    1.0008288   -2.8476597    1585.8389  0.082750935  0.083424963            3 
 1598000    0.9957001   -2.8492935     1587.346  0.082777743  0.083410665            2 
 1599000   0.99139387   -2.8271534    1592.3352  0.082985991  0.083396354            3 
 1600000    1.0025391   -2.8426607    1587.1435  0.082663724  0.083381664            2 
 1601000   0.98937174   -2.8324185     1597.285  0.083139965  0.083367205            2 
 1602000    1.0021228   -2.8447392    1595.7799  0.083009772  0.083352417            1 
 1603000   0.99625655    -2.825764    1594.9239  0.082913489  0.083338314            2 
 1604000   0.98637045   -2.8812979     1595.549  0.082894274  0.083324668            5 
 1605000   0.98220545   -2.8384633    1598.2449  0.082982603  0.083310948            2 
 1606000    0.9662063   -2.8387519    1598.5773  0.082948176  0.083296702            2 
 1607000   0.98013898   -2.8309917    1603.3485  0.083143981  0.083283227            3 
 1608000   0.98084379   -2.8462468    1604.6284  0.083158605   0.08327005            2 
 1609000   0.98629983   -2.7941561    1607.0247  0.083231031  0.083256653            3 
 1610000     1.010205    -2.813268    1609.4092  0.083302752  0.083243197            1 
 1611000   0.98524865   -2.8309099    1602.9798  0.082918468  0.083230013            2 
 1612000   0.98392117   -2.8322721    1606.9689  0.083073246  0.083216291            1 
 1613000   0.98017149   -2.8523551    1596.5974  0.082485915  0.083202604            3 
 1614000   0.98315894   -2.8557706    1604.4977  0.082842716  0.083188335            2 
 1615000   0.99744552   -2.8331456      1610.01  0.083075853  0.083174471            1 
 1616000   0.97708577    -2.845369    1605.6034  0.082797204  0.083160476            2 
 1617000    0.9866479   -2.8424402    1611.5494  0.083052433  0.083146166            2 
 1618000   0.99751212   -2.8535458    1606.7391  0.082753352  0.083132091            4 
 1619000    0.9901481   -2.8362246    1609.3484  0.082836543  0.083118458            2 
 1620000    1.0024088   -2.8434442    1605.3674  0.082580629  0.083103997            4 
 1621000    1.0333289   -2.8442732    1606.6279  0.082594486  0.083089634            2 
 1622000   0.97470618   -2.8239116    1604.6879  0.082443894  0.083074931            1 
 1623000    1.0192696    -2.838999    1609.6561  0.082648185   0.08306036            2 
 1624000   0.97607762   -2.8416214     1611.375  0.082685499  0.083045815            2 
 1625000   0.98860625   -2.8660164    1607.9422  0.082458572  0.083031406            3 
 1626000   0.99155548   -2.8541064    1613.2217   0.08267844  0.083016676            2 
 1627000   0.99107883    -2.843566    1614.2784  0.082681744  0.083002293            1 
 1628000   0.98559421   -2.8226495    1604.7053  0.082140933  0.082987849            2 
 1629000   0.96566595    -2.813879    1619.3099  0.082837627  0.082972815            1 
 1630000   0.98863121   -2.8404967    1610.9067  0.082357192  0.082958125            2 
 1631000    1.0149448   -2.8674755    1613.8694  0.082458071  0.082943348            2 
 1632000   0.97843739   -2.8406999    1614.9383  0.082462127  0.082928676            5 
 1633000    1.0110886   -2.8393608    1615.3963  0.082435003  0.082913781            4 
 1634000    1.0293699   -2.8439995     1624.883  0.082868372  0.082899399            2 
 1635000   0.98185296   -2.8580642    1612.5446  0.082188818  0.082884553            3 
 1636000   0.98937213   -2.8566268     1611.649  0.082092958   0.08286951            4 
 1637000   0.99302168   -2.8447346    1617.9519  0.082363667  0.082854864            2 
 1638000    1.0207842   -2.8366964     1617.928   0.08231217  0.082840228            3 
 1639000   0.99310853   -2.8563209    1621.2374   0.08243021  0.082825504            4 
 1640000   0.96988853    -2.820824    1620.4956  0.082342255  0.082810646            2 
 1641000   0.99163907   -2.8646157    1614.7089  0.081998217  0.082795637            2 
 1642000    1.0094092   -2.8502715    1619.9524  0.082214392  0.082780404            5 
 1643000   0.97164033   -2.8490089    1622.4593  0.082291506  0.082765942            2 
 1644000   0.98536712   -2.8360484    1620.5551  0.082144928  0.082751108            4 
 1645000   0.97587201   -2.8503586    1618.4587  0.081988789  0.082736323            3 
 1646000   0.97682125   -2.8306195    1621.2241  0.082078982  0.082721263            2 
 1647000    1.0102352   -2.8787229    1625.9855  0.082270062   0.08270671            2 
 1648000   0.97885648   -2.8469402    1624.5821  0.082149174  0.082691957            2 
 1649000   0.99535692   -2.8594229     1622.514  0.081994843  0.082676818            3 
 1650000   0.98658026   -2.8495468    1627.5568   0.08219984  0.082662409            2 
 1651000    1.0016648   -2.8624976    1624.8973  0.082015814  0.082647923            3 
 1652000   0.98906177   -2.8138003    1631.4317  0.082295786  0.082633064            2 
 1653000   0.98784397   -2.8518818    1628.9523  0.082121009  0.082618702            3 
 1654000   0.99541655   -2.8474093    1633.1355  0.082282118  0.082604059            6 
 1655000    1.0034328   -2.8290137    1637.9609  0.082475372  0.082589216            2 
 1656000   0.97069355   -2.8663545    1633.0666  0.082179278  0.082574511            2 
 1657000    0.9948624   -2.8157077    1635.9718  0.082275788  0.082560015            2 
 1658000   0.97976709   -2.8535443     1634.702  0.082162345  0.082545167            1 
 1659000    1.0071865   -2.8331111    1634.8911  0.082122318   0.08253003            2 
 1660000   0.98871721   -2.8215697    1630.7541  0.081865167  0.082515521            2 
 1661000    1.0101421   -2.8524697     1635.767   0.08206738  0.082500705            1 
 1662000   0.98198476   -2.8475206    1630.5966  0.081758754  0.082485971            2 
 1663000   0.96576463   -2.8393176    1634.7881  0.081919627  0.082471199            3 
 1664000    1.0042246    -2.846676    1637.1656  0.081989465  0.082456494            3 
 1665000   0.98710652   -2.8757265    1635.5505  0.081859387   0.08244169            6 
 1666000   0.97827948   -2.8538182    1636.2244   0.08184396  0.082426526            1 
 1667000    1.0081285   -2.8624946    1638.8266  0.081924946  0.082411496            3 
 1668000   0.98056452   -2.8436014    1634.4465  0.081657002  0.082396436            2 
 1669000    1.0040482    -2.856962    1632.8852   0.08153012  0.082381598            3 
 1670000   0.98958163   -2.8466915     1637.301  0.081701649  0.082366269            2 
 1671000     1.002248   -2.8460577    1633.3452  0.081455475  0.082351074            4 
 1672000   0.98958837   -2.8569894    1640.8066  0.081778637  0.082335821            2 
 1673000   0.99747787   -2.8440693    1639.4372  0.081661545  0.082321102            3 
 1674000    1.0060403   -2.8549967    1634.1104  0.081347588   0.08230636            2 
 1675000   0.99534712   -2.8722031      1642.69   0.08172587   0.08229196            3 
 1676000   0.98516441   -2.8500612    1643.7593  0.081730275  0.082276985            4 
 1677000   0.96738837   -2.8370303    1649.0613  0.081945007  0.082262408            1 
 1678000   0.96438327   -2.8451621    1644.2927  0.081659352  0.082247387            2 
 1679000    0.9936877   -2.8507994    1641.5579   0.08147498  0.082232436            2 
 1680000   0.97778669   -2.8550962    1647.2431  0.081708486  0.082217186            5 
 1681000   0.97939405   -2.8479939    1645.6965  0.081583208  0.082202137            2 
 1682000   0.97198513   -2.8589898    1647.1513  0.081606781  0.082187072            4 
 1683000   0.97529735   -2.8619837    1644.6708  0.081435473  0.082171837            2 
 1684000   0.97794999    -2.848637    1656.9548   0.08199499  0.082157048            1 
 1685000   0.97297985     -2.83739    1648.1146  0.081509127  0.082141947            3 
 1686000   0.97726158   -2.8509118    1643.0434  0.081210131  0.082126909            2 
 1687000   0.97279137   -2.8503061     1658.694   0.08193509  0.082112146            2 
 1688000   0.99001281   -2.8510784    1654.5231  0.081680644  0.082097305            2 
 1689000    1.0113627   -2.8619811    1652.8353  0.081549009  0.082082619            3 
 1690000   0.96295035    -2.853625    1646.7762  0.081201983  0.082067509            3 
 1691000     0.968871   -2.8346911    1654.1737  0.081518513  0.082052163            1 
 1692000   0.99288305   -2.8699083    1653.7342  0.081448692  0.082037131            3 
 1693000   0.98619572   -2.8299537    1658.1543   0.08161815  0.082021951            1 
 1694000    1.0100204   -2.8386603    1659.8682  0.081654279   0.08200666            5 
 1695000   0.98295601   -2.8526864    1654.9795  0.081365756  0.081991414            2 
 1696000   0.98172069   -2.8634051     1652.023  0.081172516  0.081975916            2 
 1697000   0.98478869   -2.8420196    1654.6964  0.081255959  0.081960385            2 
 1698000   0.98223612   -2.8727762    1651.6648  0.081059324  0.081945007            5 
 1699000   0.98856754   -2.8512254    1657.0611  0.081276295  0.081929664            1 
 1700000    1.0178996   -2.8683843    1655.7516  0.081164294    0.0819145            3 
 1701000   0.98253057   -2.8451721    1655.6309  0.081110663  0.081899104            2 
 1702000   0.98489901   -2.8487209    1660.9523  0.081323557  0.081884178            3 
 1703000   0.96475704   -2.8867098    1652.2671  0.080850806  0.081868818            4 
 1704000   0.96729541   -2.8490023    1654.9925  0.080936645  0.081853381            2 
 1705000   0.97081675   -2.8609236    1658.4694  0.081059111  0.081837769            2 
 1706000   0.97413577   -2.8638478    1659.2944  0.081051895  0.081822289            3 
 1707000   0.99007018   -2.8674526    1658.4441  0.080962903  0.081806752            2 
 1708000   0.98114822   -2.8633943    1656.1209   0.08080215   0.08179158            1 
 1709000   0.96233501   -2.8474987    1672.1305  0.081535521  0.081776575            2 
 1710000   0.98616125   -2.8762324     1672.829  0.081521883  0.081761355            2 
 1711000   0.97140311   -2.8558906    1665.0746  0.081096561  0.081746285            3 
 1712000    0.9776473   -2.8294625     1672.214  0.081396708  0.081731328            1 
 1713000   0.98394362   -2.8102004    1667.5314  0.081121393  0.081716329            3 
 1714000   0.98862737   -2.8688534     1667.936  0.081093735  0.081701234            4 
 1715000   0.98237205   -2.8340148    1673.6638  0.081324771  0.081685989            3 
 1716000   0.99900519   -2.8561194    1676.8408  0.081431664  0.081670854            2 
 1717000   0.97487855   -2.8474939    1670.3409  0.081068767  0.081655876            4 
 1718000   0.97456743   -2.8149723    1665.3809  0.080780991  0.081640925            2 
 1719000   0.99085757   -2.8634838    1673.0718  0.081106833  0.081625901            3 
 1720000   0.97824229     -2.85314    1667.9598  0.080812006  0.081611271            3 
 1721000   0.99482537   -2.8553364    1685.1385  0.081596869  0.081596593            3 
 1722000   0.97590168   -2.8730132    1675.3367  0.081075138  0.081581998            2 
 1723000    1.0130379   -2.8488316    1670.2315  0.080781174  0.081567622            2 
 1724000   0.99520735   -2.8667058    1677.4235  0.081081955  0.081553087            3 
 1725000   0.96980567   -2.8551014    1685.5485  0.081427462  0.081538262            3 
 1726000   0.97481084    -2.868217    1683.5947  0.081285957  0.081523915            3 
 1727000   0.97425793   -2.8511083    1689.8948   0.08154289   0.08150979            2 
 1728000   0.99039577   -2.8592948     1678.354  0.080939139  0.081495339            1 
 1729000   0.97853014   -2.8630446    1682.8772  0.081110335  0.081481078            5 
 1730000   0.97369061   -2.8456717    1693.3206  0.081566502  0.081467152            1 
 1731000   0.95808264   -2.8530967    1689.6553  0.081342929  0.081453098            2 
 1732000   0.97624606   -2.8514303    1685.2948  0.081086163  0.081439199            2 
 1733000   0.97289519   -2.8265011    1694.8061  0.081496734  0.081425138            2 
 1734000   0.98567431   -2.8777095    1685.7396  0.081014015  0.081410871            4 
 1735000   0.97041795   -2.8668109    1687.5614  0.081054821  0.081396444            3 
 1736000   0.95758602   -2.8561403    1682.8869  0.080783741   0.08138243            3 
 1737000    0.9611125   -2.8622996    1688.8114  0.081021466  0.081368604            3 
 1738000    0.9600107   -2.8580432    1689.8274  0.081023563  0.081354922            2 
 1739000   0.99573555   -2.8816054    1684.1108  0.080703027  0.081341045            4 
 1740000   0.96277075   -2.8567425    1696.3841  0.081244447  0.081326897            4 
 1741000   0.95830614   -2.8485606    1693.7889  0.081073565  0.081312823            2 
 1742000   0.96910039   -2.8680396    1695.8759  0.081126859  0.081299266            1 
 1743000    0.9839992   -2.8547049     1696.807  0.081124835  0.081285323            2 
 1744000   0.97474792    -2.862771    1697.5364   0.08111317   0.08127155            4 
 1745000   0.96087993   -2.8436887    1694.9422  0.080942799  0.081257957            2 
 1746000     1.015218   -2.8405001    1689.2066  0.080622688  0.081244391            3 
 1747000   0.97108874   -2.8522928    1697.8378  0.080988256  0.081230757            4 
 1748000   0.97355308   -2.8460737    1696.2272  0.080865141  0.081216983            4 
 1749000   0.94783135   -2.8668349     1694.936  0.080757383   0.08120297            2 
 1750000   0.96515668   -2.8529073    1707.7665  0.081322215  0.081189481            1 
 1751000   0.96510771   -2.8272039    1709.9395   0.08137919  0.081175988            2 
 1752000   0.97076674   -2.8479867    1704.1117  0.081055539  0.081162074            2 
 1753000   0.95323477    -2.871829     1697.186  0.080680072  0.081147929            6 
 1754000   0.96475839   -2.8606743     1700.681  0.080800126  0.081134383            3 
 1755000   0.97208316   -2.8331682    1704.3307  0.080927383  0.081121012            4 
 1756000   0.95870848   -2.8645188    1703.7807  0.080855195  0.081107493            2 
 1757000   0.96590876   -2.8652832    1701.6811  0.080709595  0.081093982            3 
 1758000   0.96834298   -2.8421485    1706.6377  0.080898639  0.081080338            3 
 1759000   0.97053546    -2.869191    1708.4607  0.080939014  0.081066812            2 
 1760000   0.96751575   -2.8599483    1713.9907  0.081154861  0.081052929            1 
 1761000   0.96529321   -2.8870895    1714.1139   0.08111461  0.081039171            2 
 1762000   0.96903524   -2.8432837    1713.0964  0.081020449  0.081025622            1 
 1763000    0.9750789   -2.8651792    1709.0401  0.080782761  0.081012206            4 
 1764000   0.97467029    -2.857978    1708.2379  0.080699071  0.080998453            3 
 1765000   0.96200364   -2.8786155    1708.0306  0.080643562  0.080984631            4 
 1766000   0.95988809   -2.8811368    1708.5808  0.080623858  0.080970646            3 
 1767000    1.0153299   -2.8819802     1711.618  0.080721466  0.080956878            3 
 1768000   0.97937629   -2.8674318    1715.8287  0.080874278  0.080943353            2 
 1769000   0.99081872   -2.8873707    1704.8767  0.080312639  0.080929743            3 
 1770000   0.98782559   -2.8674202     1722.087  0.081077543  0.080915794            2 
 1771000   0.94832492   -2.8908147    1710.4262  0.080483068  0.080901852            2 
 1772000   0.97569359   -2.8553594    1715.0057  0.080653012  0.080887871            1 
 1773000   0.97250392   -2.8803078    1723.3365  0.080999081  0.080873863            4 
 1774000    0.9889492   -2.8705364     1721.571   0.08087049  0.080860415            2 
 1775000   0.97545275   -2.8591758    1722.9829  0.080891216  0.080846601            3 
 1776000   0.94994641   -2.8877813    1717.8176  0.080603305  0.080833117            2 
 1777000   0.93991871   -2.8807395    1720.9913  0.080706777  0.080819446            3 
 1778000   0.98013598   -2.8904592     1721.358   0.08067857  0.080805802            2 
 1779000   0.98459763   -2.8848783    1717.7158  0.080462611  0.080792068            5 
 1780000   0.97025509   -2.8781705    1717.5188  0.080408186  0.080778319            1 
 1781000   0.97531453   -2.8670779    1723.6343   0.08064918  0.080764724            3 
 1782000   0.96340605   -2.8504557    1724.9456  0.080665246  0.080750983            2 
 1783000   0.97037814   -2.8700661    1726.6567  0.080699975  0.080737687            2 
 1784000   0.97629664    -2.892972    1723.6606  0.080514788  0.080723756            2 
 1785000   0.99067587   -2.8700333    1724.5255   0.08051006  0.080709896            2 
 1786000   0.95672551   -2.8655727    1727.6747  0.080611921  0.080696403            2 
 1787000   0.96839635   -2.8741054    1719.6205  0.080191219  0.080682801            3 
 1788000   0.96393747   -2.8877702     1719.106  0.080122392  0.080668763            3 
 1789000   0.96048706   -2.8809454     1724.851  0.080345214  0.080654507            3 
 1790000   0.96463203   -2.8790444    1724.0565  0.080263339  0.080640398            7 
 1791000    0.9823358   -2.8904674    1732.0966  0.080592622  0.080626576            5 
 1792000   0.97349241   -2.8718781    1727.3678  0.080327744  0.080612608            5 
 1793000   0.98511768   -2.8965248    1725.7908  0.080209649  0.080598397            5 
 1794000   0.95639406   -2.8944197    1730.8183  0.080398471   0.08058457            3 
 1795000    1.0078864   -2.8765776    1722.6595  0.079974905  0.080570358            2 
 1796000   0.98061298   -2.8825877    1733.9008  0.080451969  0.080556029            2 
 1797000   0.95127762   -2.8593014    1731.4566  0.080293852  0.080542081            3 
 1798000   0.98994637   -2.8572575    1735.7194  0.080446766  0.080527754            3 
 1799000   0.95020995   -2.8610143    1729.1324  0.080096924  0.080513413            2 
 1800000   0.95522913   -2.8687391    1726.3442  0.079923342  0.080499343            8 
 1801000   0.95866622   -2.9029694    1731.3183   0.08010912  0.080485213            2 
 1802000   0.96547505   -2.8865836    1731.6829  0.080081525  0.080471091            5 
 1803000   0.97701622   -2.8772765    1735.5497  0.080215829  0.080457054            4 
 1804000   0.95852809   -2.8584559    1734.0661  0.080102834  0.080443305            2 
 1805000   0.97036371   -2.8637067    1732.8327  0.080001507  0.080428919            2 
 1806000   0.96716817     -2.86689    1734.3705  0.080028168  0.080414708            4 
 1807000   0.96858524   -2.8794415    1737.2185  0.080115224  0.080401033            4 
 1808000   0.95869052   -2.8763427     1747.866  0.080561669  0.080387596            3 
 1809000   0.98237464   -2.8764401    1739.6369  0.080138057  0.080374205            2 
 1810000   0.95448003   -2.8841364    1747.8505  0.080471939   0.08036083            3 
 1811000   0.95515267   -2.8652657    1739.5182   0.08004409  0.080347499            2 
 1812000   0.98389342   -2.8883876    1744.1116  0.080211166   0.08033402            3 
 1813000    0.9674395   -2.8720253    1749.6416  0.080421108   0.08032087            3 
 1814000   0.95759757   -2.8954812    1749.0455   0.08034939  0.080308049            2 
 1815000   0.95639508   -2.8843993    1747.3661  0.080228011  0.080294916            2 
 1816000   0.95683399   -2.8872907    1748.3318  0.080228146  0.080281662            3 
 1817000   0.97177396   -2.8873669    1754.7181  0.080476889  0.080268533            1 
 1818000   0.96675436   -2.8990996    1744.8215  0.079978984  0.080255794            3 
 1819000   0.97586543   -2.8975596    1753.4977  0.080332493  0.080242687            3 
 1820000   0.96812742   -2.8371249    1758.9493  0.080537974  0.080229407            2 
 1821000   0.94146516   -2.8632406     1752.545  0.080200666  0.080216363            3 
 1822000   0.97381891   -2.8654707    1748.0329  0.079950279   0.08020296            2 
 1823000    0.9275696   -2.8854688    1756.0569  0.080273217  0.080189452            3 
 1824000   0.96017222   -2.8797161     1752.322  0.080058572  0.080175715            2 
 1825000   0.94788539   -2.8781071    1753.0367   0.08004734  0.080162324            1 
 1826000   0.94802356   -2.8690295    1752.9597  0.079999987  0.080148951            3 
 1827000   0.95744882   -2.8786965    1756.8857   0.08013527    0.0801353            1 
 1828000   0.96293662   -2.8727961    1745.7818  0.079585239  0.080121487            3 
 1829000   0.93820178    -2.905359    1751.3454  0.079795214  0.080107495            3 
 1830000   0.96009137   -2.8787376    1748.7676  0.079634226  0.080093551            5 
 1831000   0.95806291   -2.8772056    1757.3671   0.07998212  0.080079504            2 
 1832000   0.96390798    -2.870693    1751.3679  0.079665571  0.080065652            7 
 1833000    0.9604063   -2.8714902    1760.7739  0.080049731  0.080051893            3 
 1834000   0.96869295   -2.8648957    1760.3641  0.079987462  0.080038021            2 
 1835000   0.95825806   -2.8745833    1760.3485  0.079943165  0.080024538            5 
 1836000   0.94228207   -2.8507438    1772.4222   0.08044763  0.080010817            6 
 1837000   0.95838504   -2.8708988    1763.7551  0.080010664  0.079997359            1 
 1838000   0.96535065   -2.8959369    1759.5349  0.079775791  0.079984056            4 
 1839000   0.95120309   -2.8810424    1757.5913  0.079644339  0.079970105            2 
 1840000   0.93091537   -2.8618029    1759.7245  0.079697669  0.079956136            6 
 1841000   0.96525587   -2.8713005    1760.0425   0.07966877  0.079942343            2 
 1842000   0.95788042   -2.8916252    1757.0566  0.079490437  0.079928485            2 
 1843000   0.93960834   -2.8819347    1758.6222  0.079518095  0.079914341            4 
 1844000   0.95695879   -2.8577301    1758.7109  0.079478982  0.079900303            1 
 1845000   0.94321493   -2.8763043     1762.418  0.079603342  0.079886422            5 
 1846000   0.94517694   -2.9002424    1760.4633  0.079471979  0.079872385            3 
 1847000   0.96084635   -2.8903872    1764.7817  0.079623791  0.079858195            4 
 1848000   0.94814078   -2.8791122    1763.8665  0.079539436  0.079844141            1 
 1849000   0.95950318   -2.9007148    1761.7701  0.079401934  0.079830073            2 
 1850000   0.98533551    -2.879762    1763.3755   0.07943133  0.079815802            2 
 1851000   0.92900633   -2.9069895    1760.3747  0.079253319   0.07980137            2 
 1852000   0.95580201   -2.8880217    1766.1574  0.079470725  0.079787319            5 
 1853000   0.94827852   -2.8642499    1771.0088  0.079646013  0.079773393            2 
 1854000   0.96249828    -2.913651    1766.0647  0.079380829  0.079759334            2 
 1855000    0.9377105   -2.8873601    1776.5449  0.079808848  0.079745395            4 
 1856000   0.94546521   -2.8995619    1766.9567  0.079335341  0.079731354            4 
 1857000   0.96882872   -2.8619598    1768.8303  0.079376697  0.079717242            3 
 1858000    0.9477989   -2.8984503    1777.2276  0.079710603  0.079703884            2 
 1859000   0.95048614   -2.9044499    1775.0087  0.079568258   0.07968999            2 
 1860000   0.95514816   -2.8997014    1775.2565  0.079536583  0.079676212            2 
 1861000   0.96751468   -2.8913008    1779.6072  0.079688662  0.079662617            2 
 1862000   0.95521581   -2.8623011    1776.7425  0.079517657  0.079649224            2 
 1863000   0.96287359   -2.8981144    1778.9408  0.079573305  0.079635573            2 
 1864000   0.95050336    -2.890414    1780.1229  0.079583461  0.079621924            2 
 1865000   0.94123913   -2.9157643    1768.0527  0.079001461  0.079607928            2 
 1866000   0.92538871   -2.9033589    1779.3691  0.079464499    0.0795939            3 
 1867000   0.93173231   -2.8953153    1780.1868  0.079458435  0.079579836            1 
 1868000   0.93688691   -2.9022576    1767.1249  0.078833195  0.079565725            2 
 1869000   0.95168919   -2.8888297    1787.3655  0.079693484  0.079551597            4 
 1870000   0.94875198   -2.9011964     1775.404  0.079117823  0.079537081            2 
 1871000   0.95111661   -2.8772204    1784.5839  0.079484408  0.079522623            1 
 1872000   0.94737886   -2.8806712    1783.7391   0.07940434  0.079508663            3 
 1873000   0.95366572   -2.8614092    1780.2691  0.079207561  0.079494336            3 
 1874000   0.95702999   -2.8785019     1776.295  0.078988571  0.079479977            2 
 1875000   0.96021059   -2.8859252    1781.2423  0.079166324  0.079465466            2 
 1876000   0.94083101   -2.8987806    1779.8939   0.07906423  0.079451594            3 
 1877000     0.963896   -2.9055353    1787.3391  0.079352652   0.07943764            2 
 1878000   0.94345887   -2.8823797    1784.1875  0.079170548  0.079423485            2 
 1879000   0.95511101   -2.8861629    1784.7844  0.079154888  0.079409552            1 
 1880000   0.95146724   -2.8951623    1784.0559  0.079080493  0.079395327            3 
 1881000    0.9366094   -2.8932599    1793.2432  0.079445472  0.079381326            1 
 1882000   0.95152993     -2.88434    1786.4954  0.079104471  0.079367517            2 
 1883000    0.9396402   -2.9067399    1780.1476  0.078781535  0.079353488            4 
 1884000   0.94472182   -2.9108542    1789.4775  0.079152403   0.07933953            3 
 1885000   0.93509071   -2.8945202    1791.6876  0.079208117  0.079325123            2 
 1886000   0.95295266    -2.887269    1784.3499  0.078841899  0.079310995            4 
 1887000   0.94553489    -2.866778    1791.4835  0.079115153  0.079296993            2 
 1888000   0.93928388   -2.8885013    1794.7057  0.079215471  0.079283402            4 
 1889000     0.960126   -2.9125665    1791.0768  0.079013444  0.079270016            3 
 1890000    0.9360579   -2.8623724    1798.1997  0.079285702  0.079256248            3 
 1891000   0.96806089   -2.8916901    1797.0376  0.079192563  0.079242656            1 
 1892000   0.94594249   -2.9093127    1795.4484  0.079080707  0.079228967            3 
 1893000   0.95352518    -2.863247    1795.5092  0.079041609  0.079215194            2 
 1894000   0.92669779   -2.8903143    1796.4339   0.07904056  0.079201568            2 
 1895000   0.95322483   -2.8902131    1799.5655  0.079136564  0.079187856            5 
 1896000   0.95303277   -2.9044596    1794.5105   0.07887265  0.079174086            2 
 1897000   0.95302569   -2.8889599     1796.184  0.078904588  0.079160264            2 
 1898000   0.93659949   -2.8885751    1801.6307  0.079102154  0.079146577            3 
 1899000   0.97087926   -2.8769141    1803.2067  0.079129662  0.079133117            2 
 1900000   0.94732839   -2.8838095     1799.537   0.07892706  0.079119451            2 
 1901000    0.9406818   -2.8727277    1806.7215  0.079200488  0.079106198            3 
 1902000   0.95573674   -2.8991133    1801.0952  0.078912337  0.079092453            4 
 1903000   0.93383902   -2.8666642    1806.0958  0.079089849  0.079079049            2 
 1904000    0.9298858   -2.8814209    1804.6085  0.078983214  0.079065537            2 
 1905000   0.94452317    -2.885521     1807.273  0.079058313  0.079052255            2 
 1906000   0.97089128   -2.8918155    1815.9893  0.079397925  0.079038975            2 
 1907000   0.94673553   -2.8886985    1809.7813  0.079085009  0.079026268            4 
 1908000   0.94900157    -2.894454    1802.1589  0.078710646  0.079012668            4 
 1909000   0.96437823   -2.9134393     1809.838  0.079004629  0.078999391            4 
 1910000   0.93891121    -2.898811    1805.8896  0.078790993  0.078986303            2 
 1911000   0.94488091   -2.9045812    1805.8611  0.078748524   0.07897307            3 
 1912000   0.94188216   -2.8976898    1818.2176  0.079245887  0.078959492            3 
 1913000   0.94567329   -2.9000416    1810.3459  0.078861556   0.07894614            1 
 1914000   0.97328002   -2.8917578    1807.6816  0.078704353    0.0789327            3 
 1915000   0.95626521   -2.8762585    1806.1349  0.078595951  0.078919258            4 
 1916000   0.96033957   -2.9084318    1814.5049  0.078918969   0.07890596            2 
 1917000     0.936081   -2.8830376    1813.5487  0.078836234  0.078892871            1 
 1918000   0.91945373   -2.9065967    1809.9953  0.078640743  0.078879278            5 
 1919000   0.93023422   -2.9145899    1815.8697  0.078854858  0.078865252            1 
 1920000   0.96264579   -2.8999845    1811.4937  0.078623858  0.078851509            3 
 1921000   0.94981659   -2.9231049    1813.9236  0.078688341  0.078838182            2 
 1922000   0.94615689   -2.9261616    1817.0307  0.078782113  0.078824902            2 
 1923000   0.96621965   -2.8997744    1819.2638  0.078837916  0.078811665            2 
 1924000   0.93818379   -2.8782682    1822.3431  0.078930313  0.078798795            3 
 1925000   0.91530111   -2.8789094    1819.9101  0.078783986  0.078786023            4 
 1926000    0.9527047   -2.9208762    1825.2025  0.078972071  0.078773002            3 
 1927000   0.96259994   -2.9267796     1816.472  0.078553536  0.078759999            3 
 1928000    0.9376938   -2.9092375    1828.3895  0.079027899  0.078747043            4 
 1929000   0.94920689    -2.923792    1827.0675  0.078929819  0.078734153            3 
 1930000   0.93015454   -2.9163951    1821.1478  0.078633326  0.078721483            7 
 1931000   0.92978626   -2.9004558    1827.1496  0.078851615  0.078708676            4 
 1932000   0.96364304   -2.9079916    1827.8782  0.078842229   0.07869604            3 
 1933000   0.94196951   -2.9114687    1827.7041  0.078793936  0.078683406            2 
 1934000   0.95022236   -2.9123542    1821.1674  0.078471535  0.078670917            2 
 1935000   0.93833886   -2.8817022    1831.8706  0.078891928  0.078658375            3 
 1936000   0.92690261    -2.896135    1835.2176  0.078995246   0.07864599            3 
 1937000     0.947863   -2.9177628    1836.0009  0.078988164  0.078633401            1 
 1938000   0.93670837   -2.9242403    1830.1037  0.078693829  0.078620776            4 
 1939000   0.95585693   -2.9089728    1835.3825  0.078880114  0.078608121            2 
 1940000   0.92738298   -2.8877887    1839.7787  0.079028293   0.07859572            2 
 1941000   0.93708639   -2.9326943    1834.3033  0.078752505   0.07858356            4 
 1942000   0.93386104   -2.8721551    1833.6805  0.078685224  0.078571312            2 
 1943000   0.92748815   -2.8975321    1841.0147  0.078959284  0.078558905            2 
 1944000   0.94814679   -2.9014154    1836.1507  0.078710165  0.078546724            4 
 1945000   0.93450925   -2.8989858    1844.9578  0.079047037  0.078534365            3 
 1946000   0.96567817    -2.917768    1838.1733  0.078715882  0.078521962            4 
 1947000   0.94277074   -2.8906926    1841.1661   0.07880355  0.078509534            3 
 1948000   0.93090866   -2.9123825    1836.9651   0.07858338  0.078497257            2 
 1949000   0.93391353   -2.9068592    1843.3836  0.078817497  0.078484721            2 
 1950000   0.94499684    -2.903561    1836.6675  0.078490063  0.078472078            2 
 1951000   0.93996773   -2.9180498    1850.2158  0.079028523  0.078459554            2 
 1952000    0.9515086   -2.8990083    1839.3986  0.078526238  0.078446769            4 
 1953000    0.9277055   -2.9280972    1848.6043  0.078878831  0.078434693            3 
 1954000   0.94408846   -2.8893973    1847.0251  0.078771113  0.078422319            2 
 1955000   0.92704073   -2.9269578    1842.0241  0.078517653  0.078410036            3 
 1956000   0.94204919   -2.9116388    1841.9721  0.078475294  0.078397317            1 
 1957000    0.9384493    -2.897701    1851.4657  0.078839453  0.078384729            3 
 1958000   0.94421272    -2.902558    1848.7526  0.078683715  0.078372724            5 
 1959000   0.94055077   -2.9157425    1843.9878  0.078440864  0.078360556            9 
 1960000   0.93086727   -2.9103656    1853.1265  0.078789391  0.078348116            1 
 1961000   0.94466174   -2.9148215    1844.5335  0.078384053  0.078335693            2 
 1962000    0.9432083   -2.8988175    1853.5365  0.078726493  0.078323526            4 
 1963000    0.9341592    -2.900807    1854.4881  0.078726784  0.078311342            6 
 1964000   0.93438679   -2.9246303    1854.1005  0.078670252  0.078298954            3 
 1965000   0.95651345   -2.8979274    1851.9687  0.078539809  0.078286481            4 
 1966000    0.9457798   -2.8951103    1854.9632  0.078626788  0.078274282            2 
 1967000   0.92997228   -2.9186479    1849.5033  0.078355505  0.078262077            3 
 1968000   0.94242669    -2.914726    1849.9199  0.078333328  0.078249896            2 
 1969000   0.95468991   -2.9192908    1846.8254  0.078162576  0.078237755            3 
 1970000    0.9234834   -2.9033921     1856.236  0.078520981  0.078225693            2 
 1971000    0.9468172   -2.8848143    1867.4833  0.078956678  0.078213963            1 
 1972000   0.93933372   -2.8659439    1861.3136  0.078655916  0.078202286            2 
 1973000   0.94415981   -2.9043045    1866.0444  0.078815863  0.078190509            2 
 1974000   0.93085794   -2.9045954    1863.6411  0.078674482  0.078178818            9 
 1975000    0.9048576   -2.9182218    1862.0864  0.078569048  0.078166932            2 
 1976000   0.92661711   -2.9351499    1860.4641   0.07846087  0.078155229            5 
 1977000   0.92256329   -2.9275073    1855.1166  0.078195776  0.078143295            3 
 1978000   0.94151933   -2.9071577    1869.2614  0.078752166  0.078131211            2 
 1979000   0.95717416   -2.9172225    1870.9065  0.078781645  0.078119487            2 
 1980000   0.94134276   -2.8968265    1870.5944  0.078728721  0.078107733            4 
 1981000   0.93162414   -2.9320832     1866.702  0.078525241  0.078096007            3 
 1982000   0.96128877   -2.9145652     1860.296   0.07821628  0.078084282            2 
 1983000    0.9341286   -2.9122285    1870.8071  0.078618555  0.078072366            3 
 1984000   0.94553241   -2.9129728    1865.3342  0.078349051  0.078060172            3 
 1985000   0.93671964   -2.9276275    1872.4882  0.078609916  0.078048371            2 
 1986000   0.95067707   -2.9455006    1865.9206  0.078294756  0.078036486            4 
 1987000    0.9199168   -2.9276654    1876.3528   0.07869287  0.078024456            1 
 1988000   0.93583683   -2.9054664    1868.1237  0.078308339  0.078012864            2 
 1989000   0.94545407   -2.9178432     1879.589  0.078749328  0.078001138            2 
 1990000   0.92655355   -2.9006231    1871.8342  0.078385018  0.077989617            5 
 1991000   0.91652893   -2.9158207    1871.7062   0.07834029  0.077977846            2 
 1992000   0.92944009   -2.9360298    1870.0947  0.078233547  0.077966454            3 
 1993000   0.95005803   -2.9097738    1872.1829  0.078281605  0.077954713            3 
 1994000   0.91049377   -2.9055973    1881.5129  0.078632266  0.077943065            2 
 1995000   0.92608473   -2.9025304    1876.3664  0.078377876   0.07793171            4 
 1996000   0.93952333   -2.9044784    1880.2982  0.078502762  0.077919974            2 
 1997000   0.94429237   -2.8985036     1882.167  0.078541438   0.07790839            3 
 1998000   0.94602582   -2.9027096    1876.6847  0.078273469  0.077896493            2 
 1999000   0.92089987   -2.9114575    1883.5042  0.078518603   0.07788495            3 
 2000000   0.92379584   -2.8958903    1879.5824  0.078315933  0.077872914            1 
 2001000   0.92609464   -2.9071314    1880.1054  0.078298576   0.07786114            2 
 2002000    0.9484295   -2.9122381    1882.4996  0.078359125  0.077849308            9 
 2003000   0.91538114   -2.8943984    1875.2053  0.078016529  0.077837717            4 
 2004000    0.9208522   -2.9028744    1884.0425  0.078345079  0.077825969            3 
 2005000   0.93674114   -2.9112698    1879.4089  0.078113421  0.077814047            3 
 2006000   0.93935016   -2.9232318    1881.4638  0.078159846  0.077802234            7 
 2007000    0.9177151   -2.9111512    1885.8209  0.078301813  0.077790525            2 
 2008000   0.94556033   -2.9092351     1892.319  0.078532495  0.077779371            3 
 2009000   0.92221926   -2.9064057    1891.3638  0.078453782  0.077768249            1 
 2010000   0.92765992    -2.950605    1894.7938  0.078556957  0.077756802            2 
 2011000   0.94174414   -2.9256643    1889.9664  0.078317851  0.077745481            2 
 2012000   0.90661858   -2.9244408    1894.0255  0.078447048   0.07773405            2 
 2013000   0.93269328    -2.911951    1890.2143  0.078250301  0.077722812            2 
 2014000   0.93801675   -2.9169148    1894.7286  0.078398238  0.077711647            3 
 2015000   0.92798012   -2.9075848    1891.9232   0.07824331  0.077700332            2 
 2016000   0.93495745   -2.9139763    1899.8466  0.078532019  0.077689424            2 
 2017000   0.92393081   -2.9130343    1901.4537   0.07855948   0.07767819            2 
 2018000   0.96082679   -2.9320615    1896.5769  0.078319164  0.077667067            4 
 2019000    0.9158885    -2.906757     1891.248  0.078060427  0.077655822            4 
 2020000   0.93502157   -2.9075632    1894.0996  0.078139424  0.077644676            1 
 2021000   0.89655137   -2.9157589    1897.6665  0.078247836  0.077633455            3 
 2022000   0.92787804   -2.9068563    1901.0852  0.078350035  0.077622138            3 
 2023000    0.9237231   -2.9244566    1894.1359  0.078025039  0.077611069            3 
 2024000    0.9287412   -2.9061161    1900.2427  0.078237925   0.07759962            3 
 2025000   0.91453951   -2.9419463    1895.9808    0.0780239  0.077588032            4 
 2026000   0.93397415   -2.9326626    1902.5024  0.078253637  0.077576514            2 
 2027000   0.92580697   -2.9234647     1898.377  0.078045428  0.077564989            5 
 2028000   0.92479382   -2.9272514    1896.4812  0.077929042  0.077553505            6 
 2029000   0.93473504   -2.9042522    1909.3426  0.078418867  0.077542276            3 
 2030000   0.92017336   -2.9322692    1899.1593  0.077962205  0.077530794            3 
 2031000   0.91668012   -2.9344883    1893.3295  0.077684616  0.077518903            6 
 2032000   0.92669288   -2.9106368    1908.0624  0.078250592  0.077507262            4 
 2033000    0.9366676   -2.9224216     1904.362   0.07806042  0.077495883            3 
 2034000   0.94249086   -2.9169763    1907.0991   0.07813418  0.077484259            2 
 2035000   0.93290549    -2.920674    1894.3269  0.077572764  0.077472582            3 
 2036000    0.9321454   -2.8931356    1901.0592  0.077810217   0.07746099            2 
 2037000   0.91615062   -2.9241831    1901.2838  0.077781207  0.077449095            2 
 2038000   0.92591701   -2.9273732     1902.652  0.077798988   0.07743716            2 
 2039000   0.93353072    -2.904679    1893.8898  0.077402724  0.077424923            3 
 2040000   0.95124811   -2.9251301    1902.1048  0.077700359  0.077412601            2 
 2041000   0.93024219   -2.9190451    1907.8549  0.077897065  0.077400302            6 
 2042000   0.94525949   -2.9274237    1905.7853  0.077774456  0.077388178            3 
 2043000   0.92972268   -2.9064779    1905.8388  0.077738569  0.077375992            2 
 2044000   0.94065106   -2.9188722    1899.0753  0.077424791  0.077363695            2 
 2045000   0.91332895   -2.9166538    1905.8243  0.077661952  0.077351322            8 
 2046000   0.91796391   -2.9478886    1903.2662  0.077519804  0.077339052            2 
 2047000   0.92039541   -2.9153449    1901.4503  0.077408007  0.077326658            5 
 2048000   0.92116027   -2.9399074    1903.8999  0.077469887  0.077314538            3 
 2049000   0.93018314   -2.9402712    1912.5112  0.077782301  0.077302281            2 
 2050000   0.91357541   -2.9236923    1904.8767  0.077434012  0.077290188            4 
 2051000   0.91658274   -2.9269419    1901.5496  0.077261077  0.077277667            2 
 2052000   0.93345252   -2.9325132    1910.8455   0.07760094  0.077265569            2 
 2053000    0.8959824   -2.9385077    1903.6513  0.077271121  0.077253097            3 
 2054000    0.9175368   -2.9249874    1908.0479  0.077411874  0.077240675            4 
 2055000   0.92655855   -2.9416954    1907.3928   0.07734764  0.077228365            4 
 2056000   0.91218994   -2.9203778    1914.2154  0.077586552  0.077216181            3 
 2057000   0.92161144   -2.9372683    1909.7845  0.077369327  0.077204096            2 
 2058000   0.93314405   -2.9186941     1920.027  0.077746475  0.077191976            3 
 2059000   0.93760557    -2.944263    1913.5741  0.077447551  0.077179888            4 
 2060000   0.91596769   -2.9518267    1915.7811  0.077499236  0.077167526            2 
 2061000   0.90474693     -2.91113    1916.5377  0.077492225  0.077155427            2 
 2062000   0.92687986   -2.9199604    1919.6291  0.077579579  0.077143482            2 
 2063000   0.92915125   -2.9141954    1923.3573  0.077692572  0.077131353            3 
 2064000   0.91225233   -2.9123077    1919.9437  0.077517106  0.077119295            1 
 2065000   0.92400843   -2.8980611    1920.4811  0.077501256  0.077107384            3 
 2066000   0.92205026   -2.9380308    1921.1879  0.077492252  0.077095251            5 
 2067000   0.90549564   -2.9286865    1925.5051  0.077628815  0.077083136            2 
 2068000   0.93224198   -2.9390202    1911.3827  0.077022192  0.077070882            3 
 2069000   0.92171919   -2.9388574    1920.7143  0.077360814  0.077058521            2 
 2070000   0.93139816   -2.9185932    1926.0073  0.077536526   0.07704614            4 
 2071000   0.89778558    -2.932526    1925.7713  0.077489589  0.077034072            3 
 2072000   0.93086518   -2.9220482     1916.919  0.077096164  0.077021765            3 
 2073000   0.92395759   -2.9311166    1926.1268   0.07742912  0.077009421            3 
 2074000   0.94739335   -2.9333738    1925.6778  0.077373747  0.076997513            4 
 2075000   0.91699511   -2.9233411    1927.6883    0.0774172  0.076985417            3 
 2076000   0.89690947   -2.9389701    1929.2689  0.077443358  0.076973353            3 
 2077000   0.91886132   -2.9401103    1923.7288   0.07718379  0.076961285            2 
 2078000   0.91207204   -2.9030629    1933.6483  0.077544445  0.076949032            5 
 2079000   0.90479272   -2.9299335    1920.7312  0.076989386  0.076937075            3 
 2080000   0.90199366   -2.9218225    1928.9957   0.07728348  0.076924876            4 
 2081000   0.91542616   -2.9644946    1917.8819  0.076801292  0.076912522            4 
 2082000   0.91051179   -2.9205847     1920.934  0.076886569  0.076900327            6 
 2083000   0.90491351   -2.9343477    1929.4409  0.077189985   0.07688803            3 
 2084000   0.92117511   -2.9368067    1928.2266   0.07710439  0.076875828            3 
 2085000   0.93002779   -2.9250785    1927.7527  0.077048468  0.076863475            3 
 2086000   0.91189986   -2.9291158    1928.6489  0.077047335  0.076851075            2 
 2087000   0.91948901   -2.9386409    1932.1462  0.077150065  0.076838669            6 
 2088000   0.90974824   -2.9321355    1927.4952  0.076927489  0.076826017            4 
 2089000   0.91446614   -2.9519467    1932.9184  0.077107005  0.076813739            2 
 2090000   0.90262005    -2.926253    1929.6661  0.076940433  0.076801558            1 
 2091000   0.93839115   -2.9329118    1933.5199  0.077057225  0.076789315            4 
 2092000   0.90958072   -2.9311388    1932.5354  0.076981175  0.076776992            2 
 2093000   0.93009983   -2.9449642    1927.9885  0.076763358  0.076764772            3 
 2094000   0.90100624   -2.9021428     1939.118  0.077169612   0.07675211            5 
 2095000   0.92344269   -2.9238327    1935.8767  0.077003848  0.076739771            2 
 2096000   0.92108234   -2.9433718    1943.8075  0.077282422   0.07672774            1 
 2097000    0.9244871   -2.9320169    1941.3882  0.077149427  0.076715744            3 
 2098000    0.9318388   -2.9228566    1940.0646   0.07706008  0.076703898            2 
 2099000   0.89138236   -2.9256018    1940.3304  0.077033922  0.076691851            2 
 2100000   0.90622772   -2.9315317    1939.6674  0.076970929  0.076679896            3 
 2101000   0.91855743   -2.8946233    1940.9918  0.076986823   0.07666769            3 
 2102000   0.91062198   -2.9318417    1940.4846  0.076930092  0.076655636            2 
 2103000   0.89703782   -2.9289008    1944.7256  0.077061563  0.076643523            2 
 2104000   0.91911184   -2.9260084     1940.565  0.076860148   0.07663132            2 
 2105000   0.91930033    -2.945697    1947.7486  0.077108022  0.076619456            3 
 2106000   0.92953752   -2.8996536     1951.589   0.07722337   0.07660768            3 
 2107000   0.91504431   -2.9574821    1940.8836  0.076763311  0.076595894            3 
 2108000   0.93035257   -2.9405549    1949.1799  0.077054866  0.076584006            6 
 2109000   0.90660489   -2.9088236    1950.8746  0.077085292  0.076572291            3 
 2110000   0.91118366   -2.9486782    1946.4898  0.076875583   0.07656045            3 
 2111000   0.93200452   -2.9398315    1945.9634  0.076818386  0.076548638            5 
 2112000   0.90509262   -2.9348232      1948.97  0.076900649  0.076536682            2 
 2113000   0.90606288    -2.919073     1960.542  0.077320633  0.076524826            3 
 2114000   0.91320959   -2.9412403    1952.9318  0.076984066  0.076513166            4 
 2115000   0.90944568   -2.9586285    1949.3809  0.076807758  0.076501299            1 
 2116000   0.90800455   -2.9369982    1955.3023  0.077004658  0.076489466            3 
 2117000   0.89676498   -2.9376633    1954.6178  0.076941339  0.076477862            3 
 2118000   0.92707609   -2.9234263    1958.2325  0.077047234  0.076466279            3 
 2119000   0.93524878   -2.9335292    1956.7762  0.076953602  0.076454794            3 
 2120000   0.92041377   -2.9456877    1957.0108  0.076926527  0.076443231            3 
 2121000   0.92593522   -2.9572288    1955.8956  0.076846442  0.076431501            3 
 2122000     0.935421   -2.9245822     1964.272  0.077139178  0.076419956            2 
 2123000   0.91232792   -2.9297202     1962.115  0.077018175  0.076408378            2 
 2124000   0.91714459   -2.9608309    1953.7878  0.076655204  0.076396746            1 
 2125000   0.90410271   -2.9325158    1963.0783  0.076983465  0.076385277            4 
 2126000   0.92845353   -2.9447624    1961.2567  0.076875849  0.076373521            4 
 2127000   0.91299162   -2.9457159    1958.5585  0.076733997  0.076361988            2 
 2128000   0.91492868   -2.9566046    1962.7486  0.076862024  0.076350011            2 
 2129000   0.91470127    -2.942787    1963.6962  0.076863012  0.076338696            4 
 2130000    0.8996842   -2.9410227    1967.0635  0.076958667  0.076327208            4 
 2131000   0.90459144   -2.9435142    1962.9058  0.076759966  0.076315944            3 
 2132000   0.89964977   -2.9208165    1969.9866  0.077000729  0.076304361            2 
 2133000    0.8965159   -2.9298777    1972.4664   0.07706151  0.076292845            1 
 2134000   0.91688113   -2.9190224    1969.2176  0.076898532  0.076281253            2 
 2135000   0.89509688   -2.9408006    1973.2568  0.077020173  0.076270031            3 
 2136000    0.8994418    -2.977318    1963.1448  0.076589606  0.076258873            4 
 2137000   0.92994392     -2.94279    1970.8287  0.076853406  0.076247649            2 
 2138000   0.93342946   -2.9649321     1962.102  0.076477315  0.076236132            7 
 2139000   0.90356808   -2.9349988    1972.3971  0.076842647  0.076224638            4 
 2140000   0.92378976   -2.9223644    1971.1933  0.076759864  0.076213357            2 
 2141000    0.8945104   -2.9512703    1968.2951  0.076611207  0.076201822            3 
 2142000   0.89577317   -2.9269168    1974.7917  0.076828187  0.076190371            3 
 2143000   0.89871762   -2.9670052    1962.3748  0.076309489  0.076178882            3 
 2144000   0.90235618   -2.9485896     1971.316  0.076621426  0.076167273            5 
 2145000   0.90300158   -2.9466337    1977.3181  0.076818886  0.076155635            4 
 2146000   0.91160402   -2.9524071     1976.995  0.076770542  0.076144353            4 
 2147000   0.90910472   -2.9543211    1977.0259  0.076735986  0.076132994            2 
 2148000    0.8962832   -2.9564779    1976.0194  0.076661214  0.076121648            2 
 2149000   0.91077803   -2.9620866    1970.7213   0.07642009  0.076110151            4 
 2150000   0.90644518   -2.9519589    1973.9524  0.076509784  0.076098936           12 
 2151000   0.88654558   -2.9379881    1979.9042  0.076704795  0.076087645            2 
 2152000    0.8901963   -2.9291446    1982.8567  0.076783484  0.076076587            1 
 2153000    0.8889513   -2.9364314    1986.6461  0.076894491  0.076065305            3 
 2154000   0.91761662   -2.9556041    1984.4237  0.076772816  0.076053779            4 
 2155000   0.87151284   -2.9513751    1989.2514  0.076923874  0.076042508            2 
 2156000   0.90941552   -2.9721774    1975.7542  0.076366503  0.076031239            4 
 2157000     0.916994   -2.9299682    1982.3044  0.076584158  0.076020007            2 
 2158000   0.89299643   -2.9624444     1982.197  0.076544523  0.076008418            2 
 2159000   0.89210365   -2.9261485    1993.2495  0.076935674  0.075996876            3 
 2160000   0.92650211   -2.9254769    1986.0607  0.076622713  0.075985801            4 
 2161000   0.90791049   -2.9360866    1986.4591   0.07660262  0.075974603            2 
 2162000   0.89834622   -2.9258974     1989.716  0.076692722  0.075963386            1 
 2163000   0.87824836   -2.9447839    1982.9331  0.076395942  0.075952187            2 
 2164000   0.89692919   -2.9814742    1989.0192   0.07659501    0.0759408            3 
 2165000   0.89887063     -2.94064    1984.6172  0.076390191  0.075929489            4 
 2166000   0.91014002   -2.9318769    1988.9195  0.076520449  0.075918414            2 
 2167000    0.9011058   -2.9179745    1989.4719  0.076506379  0.075907552            2 
 2168000   0.91478576   -2.9547167    1990.2519  0.076501073  0.075896204            4 
 2169000   0.91899364   -2.9202661    1996.7313  0.076714743  0.075884849            1 
 2170000   0.89346061   -2.9498735    1994.5089  0.076594044   0.07587362            3 
 2171000    0.9151979   -2.9580742    1990.5692  0.076407539  0.075862538            2 
 2172000   0.92094588   -2.9416014     1990.543  0.076371357  0.075851583            3 
 2173000   0.88575366   -2.9427128    1995.1312  0.076512163   0.07584056            4 
 2174000   0.90702079    -2.970464    1990.4778  0.076298597   0.07582947            6 
 2175000   0.90160334   -2.9646728     1996.418  0.076491111  0.075818215            1 
 2176000   0.89837611   -2.9403641    2005.7096  0.076811796  0.075807354            2 
 2177000   0.91325146   -2.9360889    1993.8104  0.076321021  0.075796109            2 
 2178000   0.90628545   -2.9471271    1994.0952  0.076296877  0.075784874            2 
 2179000   0.91028319    -2.929681    1995.0718  0.076299212  0.075773738            2 
 2180000    0.8832078   -2.9316227    1995.7961  0.076291899  0.075762452            4 
 2181000   0.90041756   -2.9695094    1989.8421  0.076029425  0.075751097            2 
 2182000   0.90710328   -2.9597318    1993.1783  0.076121993  0.075739732            5 
 2183000   0.89083233   -2.9507181    2005.2948  0.076549658  0.075728476            1 
 2184000   0.89778267   -2.9487443    1997.2285  0.076206828  0.075717357            3 
 2185000   0.94003887   -2.9383365    2002.8388  0.076385918  0.075706316            1 
 2186000   0.91068736   -2.9741807     1997.487  0.076146957  0.075695153            4 
 2187000   0.90302481   -2.9490414    2004.1677    0.0763667  0.075684006            5 
 2188000   0.89540156   -2.9798864    1997.4507   0.07607597  0.075672714            4 
 2189000   0.90570415   -2.9758448    2004.5807  0.076312649    0.0756614            5 
 2190000   0.91085449   -2.9712544     2007.088   0.07637321  0.075650278            2 
 2191000   0.91767118   -2.9621043    2008.1885  0.076380209  0.075639074            2 
 2192000   0.89502683   -2.9551672    2004.3914  0.076201011  0.075627868            3 
 2193000   0.87957887   -2.9878068    1996.9904  0.075885029  0.075616551            6 
 2194000   0.91106785   -2.9730688    2005.2471  0.076164048  0.075605139            3 
 2195000   0.89748389   -2.9663727    2001.5853  0.075990332  0.075593958            2 
 2196000   0.88605674   -2.9403623    2009.5485  0.076257911  0.075582772            3 
 2197000   0.90608747   -2.9437601     2009.801  0.076232781  0.075571223            2 
 2198000    0.9123008    -2.967548    2011.0711  0.076246251  0.075559933            2 
 2199000   0.89811359   -2.9637884    2012.4111  0.076262358  0.075548756            2 
 2200000   0.91113742   -2.9626294    2009.1639  0.076104694  0.075537521           10 
 2201000    0.9198339   -2.9492553    2008.0635  0.076028452  0.075526057            3 
 2202000   0.89390498   -2.9643131    2014.2521   0.07622813  0.075514833            3 
 2203000    0.9201642    -2.969107    2005.5521  0.075864432  0.075503314            5 
 2204000    0.9015894   -2.9744086    2005.8971  0.075843056  0.075491844            4 
 2205000   0.91301698    -2.993159    2013.6445  0.076101454  0.075480664            4 
 2206000   0.91113824   -2.9742793    2012.0399  0.076006341  0.075469361            3 
 2207000    0.8965137   -2.9711413    2016.0481  0.076123247  0.075458069            2 
 2208000   0.89120585   -2.9537681    2014.1641  0.076017666  0.075447178            3 
 2209000   0.89742303    -2.972731    2022.8112   0.07630946  0.075436058            3 
 2210000   0.90040202   -2.9680738    2009.9425  0.075789686  0.075424769            4 
 2211000   0.91100647   -2.9453645    2019.4708  0.076114534   0.07541351            3 
 2212000   0.88728084   -2.9272519    2017.9186  0.076021649   0.07540236            3 
 2213000   0.91492119   -2.9720895    2021.9792    0.0761402  0.075391034            2 
 2214000   0.90511693    -2.963964    2022.5063  0.076125649  0.075379576            3 
 2215000    0.9048352   -2.9796363      2008.01  0.075545898  0.075368224            3 
 2216000   0.89662756    -2.968926    2017.6504  0.075874339  0.075356957            4 
 2217000   0.89551082    -2.954873    2017.3236   0.07582783  0.075345869            2 
 2218000   0.90502429   -2.9609841    2020.5442  0.075914645  0.075334752            3 
 2219000   0.91883472   -2.9797526    2016.8521   0.07574178  0.075323336            3 
 2220000   0.89678284   -2.9512267    2030.1665   0.07620745  0.075312417            2 
 2221000   0.88524814   -2.9538044     2025.925  0.076013995  0.075301391            2 
 2222000   0.90859843   -2.9645435    2020.9574  0.075793482  0.075290186            5 
 2223000   0.87194724   -2.9447469    2028.7803  0.076052643  0.075279169            3 
 2224000   0.89332269    -2.961414    2031.0975  0.076105273  0.075268051            4 
 2225000   0.89746173    -2.942245    2032.3368  0.076117483  0.075257177            2 
 2226000   0.89302891   -2.9853589    2028.1529  0.075926658  0.075246115            3 
 2227000   0.90757986   -2.9684431    2028.8881  0.075920076  0.075235044            2 
 2228000   0.88189676   -2.9514807    2035.5432   0.07613492  0.075223957            5 
 2229000   0.89608422   -2.9823519     2032.103  0.075972147  0.075212956            2 
 2230000   0.88740663   -2.9646629    2030.2461   0.07586869  0.075201992            7 
 2231000   0.89301737   -2.9846034    2013.0658  0.075192954  0.075190784            4 
 2232000   0.90102688   -2.9653602     2025.802   0.07563478  0.075179675            3 
 2233000   0.89342738   -2.9779806    2031.3227  0.075806938  0.075168206            2 
 2234000   0.88927606   -2.9529367    2029.5805  0.075708016  0.075156913            4 
 2235000   0.92242743   -2.9769888    2023.1265  0.075433501    0.0751458            5 
 2236000   0.87737371   -2.9746503    2032.8286  0.075761353  0.075134581            3 
 2237000   0.89378836   -2.9930998    2032.3665   0.07571027   0.07512323            6 
 2238000   0.89554546   -2.9557238    2039.1183  0.075927847  0.075111848            2 
 2239000    0.9018231   -2.9667388     2028.168  0.075486376  0.075100527            3 
 2240000   0.89505122   -2.9574371    2035.6187  0.075729864  0.075089105            2 
 2241000   0.89378523   -2.9598262    2038.1619   0.07579064  0.075077596            4 
 2242000   0.89560928   -2.9923215    2032.5866  0.075549607  0.075066144            2 
 2243000   0.89970026   -2.9521153    2033.5928  0.075553305  0.075054855            3 
 2244000   0.90219621   -2.9570072    2037.0574  0.075648297   0.07504361            3 
 2245000   0.89871238   -2.9535204    2041.7895  0.075790255  0.075032438            3 
 2246000   0.88517252   -2.9771279    2036.6383  0.075565385  0.075021114            2 
 2247000   0.90270222   -2.9607476    2040.3956  0.075671104  0.075009682            6 
 2248000   0.90156897   -2.9695085    2041.6672  0.075684578  0.074998281            3 
 2249000   0.89428224   -2.9682448    2040.4228  0.075604817  0.074986907            2 
 2250000   0.89409571   -2.9547249    2033.1475  0.075301761  0.074975619            4 
 2251000    0.9004247   -2.9662685    2044.9919  0.075706794  0.074964232            2 
 2252000   0.87739646   -2.9786092    2041.7806  0.075554345  0.074952753            5 
 2253000   0.87114168   -2.9824514    2040.9577  0.075490373  0.074941302            3 
 2254000   0.91983598    -2.979062    2040.5602  0.075442186  0.074929893            9 
 2255000   0.90064208   -2.9823779    2038.2318  0.075322682  0.074918434            5 
 2256000   0.88911177   -2.9810329    2045.1013  0.075543043  0.074907041            3 
 2257000    0.8911351   -2.9255765    2043.4439  0.075448379  0.074895771            2 
 2258000   0.88241488   -2.9791469     2037.374  0.075190949  0.074884536            3 
 2259000    0.8977654   -2.9463499    2047.9326  0.075547168  0.074873188            2 
 2260000   0.88496054   -2.9751184    2054.1305  0.075742275  0.074862178            3 
 2261000   0.88775942   -2.9550359    2042.1212  0.075266151  0.074850903            5 
 2262000   0.89707926   -2.9762942    2041.3469   0.07520435  0.074839366            2 
 2263000   0.88958399   -3.0094499    2048.0541  0.075418108  0.074828075            4 
 2264000   0.88882124   -2.9722193    2045.9924  0.075308909  0.074816721            3 
 2265000   0.88638707   -2.9779621    2045.2303   0.07524762  0.074805401            4 
 2266000   0.89039716    -2.968306    2041.2952  0.075069698  0.074793929            3 
 2267000   0.90574754   -2.9452404    2050.3793  0.075370509  0.074782571            3 
 2268000   0.88046381   -2.9509664    2056.4901  0.075561807  0.074771349            1 
 2269000   0.88518876   -2.9650294    2051.6678  0.075351396  0.074759982            1 
 2270000   0.90488785   -2.9622103    2044.7798  0.075065339  0.074748608            2 
 2271000   0.87848571   -2.9459548     2056.514  0.075462865  0.074737437            3 
 2272000   0.88253662   -2.9817473    2047.8062  0.075110262  0.074726338            5 
 2273000    0.8746679   -2.9461779    2056.7303  0.075404397  0.074715464            2 
 2274000   0.89049432   -2.9774839    2055.3359  0.075320137   0.07470426            3 
 2275000   0.89536628   -2.9801748    2056.1596  0.075317202  0.074693302            3 
 2276000   0.90151956   -2.9714181    2061.2301  0.075469761  0.074682422            3 
 2277000   0.88821051    -2.949053    2064.8495  0.075569079  0.074671489            5 
 2278000   0.87548401   -2.9577123    2062.3663  0.075445066  0.074660393            2 
 2279000    0.8786805   -2.9511793    2062.1558  0.075404263  0.074649389            4 
 2280000   0.89125499    -2.995881    2055.1656  0.075115704  0.074638483            2 
 2281000   0.91191684   -2.9750944    2063.3313  0.075381095  0.074627493            2 
 2282000   0.87975483   -2.9706901    2067.3281  0.075494014  0.074616325            4 
 2283000   0.86545879   -2.9796402    2060.3899  0.075207691  0.074605177            4 
 2284000   0.89774578   -2.9850772    2058.8695  0.075119289  0.074594019            4 
 2285000   0.86605592   -2.9895902    2061.9538  0.075198899  0.074582814            2 
 2286000   0.87399657   -2.9846934    2060.2922  0.075105431  0.074571483            6 
 2287000   0.86578127   -2.9719843    2066.2743  0.075290566  0.074560231            2 
 2288000   0.89538843     -2.98405    2059.5046  0.075011096   0.07454873            2 
 2289000   0.90971677   -2.9664755    2068.0541  0.075289576  0.074537367            2 
 2290000   0.87111189   -2.9770672    2057.5412  0.074874134  0.074525945            3 
 2291000   0.88379231    -2.993903    2057.7398  0.074848677  0.074514249            2 
 2292000   0.89923989   -2.9514682     2068.304  0.075200117   0.07450274            4 
 2293000   0.87236637   -2.9563415    2062.1777  0.074944674  0.074491368            2 
 2294000   0.90141543   -2.9454746    2078.1112  0.075490817  0.074479808            1 
 2295000   0.90216148   -2.9758637    2064.4719  0.074962668  0.074468298            2 
 2296000   0.90039767   -2.9461925    2071.3072  0.075178106  0.074456843            3 
 2297000   0.88010191   -2.9803142    2063.7773  0.074872198  0.074445376            4 
 2298000   0.87021587   -2.9628303    2063.8918  0.074843771  0.074434163            3 
 2299000   0.87673478   -2.9864501    2064.7864  0.074843641  0.074422623            3 
 2300000    0.8841326   -2.9839149    2074.0273  0.075145915  0.074411121            1 
 2301000   0.89911195   -2.9984441    2069.4706  0.074948234  0.074399639            3 
 2302000   0.86591231   -2.9769866    2064.4269   0.07473309  0.074388118            2 
 2303000    0.8859285   -2.9830862    2070.0631  0.074904583  0.074376544            8 
 2304000   0.88174043   -2.9719622    2074.5245  0.075033439  0.074364893            4 
 2305000   0.86122808   -2.9742925    2066.0171  0.074693315  0.074353174            2 
 2306000   0.89316771   -2.9669563    2073.1965  0.074920372  0.074341722            4 
 2307000   0.88550439   -2.9885378    2079.8608  0.075128621  0.074330249            2 
 2308000   0.88331719   -2.9883818    2063.0946  0.074490706  0.074318826            4 
 2309000     0.885361   -2.9807304    2076.3541  0.074936988   0.07430744            3 
 2310000   0.87972828   -2.9639136    2071.7336  0.074737864  0.074295925            3 
 2311000   0.87024733   -2.9958049    2073.0503  0.074753005  0.074284454            5 
 2312000   0.86721463    -2.985707    2066.9458  0.074500643  0.074272832            2 
 2313000   0.87109685   -2.9529337    2073.6125  0.074708622  0.074261262            3 
 2314000   0.87684836   -2.9568921    2074.1803  0.074696785  0.074249673            5 
 2315000   0.87017337   -2.9651234    2069.5275  0.074497032  0.074237973            4 
 2316000   0.86255179   -2.9785626    2077.3566  0.074746568  0.074226277            4 
 2317000   0.90233242   -2.9930096    2075.8984  0.074661861  0.074214773            4 
 2318000   0.88280241   -2.9904794    2070.6978  0.074442688  0.074202942            2 
 2319000   0.88585286    -2.979633     2076.936  0.074634756  0.074191229            3 
 2320000   0.87330365   -2.9610826    2083.2417  0.074829084  0.074179534            2 
 2321000   0.86833352   -2.9758249    2081.7689  0.074743964  0.074167761            1 
 2322000   0.89605282   -2.9434699     2086.035  0.074864879  0.074156191            3 
 2323000   0.87561053   -2.9946291    2079.0096  0.074580627  0.074144505            6 
 2324000   0.89513977   -2.9778788    2080.4087  0.074598707  0.074132857            3 
 2325000   0.87479922   -2.9661123    2080.4168  0.074566909  0.074121558            7 
 2326000   0.89447906   -3.0107808    2082.7863  0.074619743  0.074109932            1 
 2327000   0.87848195   -2.9798084    2080.7375  0.074514305  0.074098528            5 
 2328000   0.88804323   -2.9934459    2081.8545  0.074522284  0.074087113            8 
 2329000   0.86839205   -2.9865363    2081.4115  0.074474434  0.074075635            2 
 2330000   0.87666049   -3.0008297    2079.9063  0.074388639  0.074064366            2 
 2331000   0.89127717   -2.9940046    2082.8788   0.07446299  0.074053007            2 
 2332000   0.87285658   -2.9510393    2088.0705  0.074616583  0.074041473            3 
 2333000      0.88631   -2.9749506    2080.8141  0.074325406  0.074030104            4 
 2334000   0.89560654   -2.9682371    2088.2011  0.074557308  0.074018672            2 
 2335000   0.87402166   -2.9614611    2090.8035  0.074618254   0.07400734            4 
 2336000   0.89654643   -2.9789565    2089.7106  0.074547325  0.073996053            3 
 2337000   0.87424889   -2.9809137    2091.1648  0.074567278   0.07398483            3 
 2338000   0.86061189   -2.9809121    2085.3664  0.074328713  0.073973395            4 
 2339000   0.88663591   -2.9863671    2086.0684  0.074321948   0.07396188            3 
 2340000    0.8760396   -2.9979641    2087.9067  0.074355651  0.073950293            2 
 2341000    0.8640509   -2.9598889    2089.4592  0.074379154   0.07393871            5 
 2342000   0.88953018   -2.9874257    2084.9915  0.074188425  0.073927013            3 
 2343000   0.88553388   -2.9949346    2091.0687   0.07437291  0.073915336            2 
 2344000   0.88466409   -2.9977841    2086.5508  0.074180559  0.073903524            4 
 2345000   0.86916188   -2.9903241    2083.3743  0.074036046  0.073891639            5 
 2346000   0.88974947   -2.9822226    2089.8319  0.074233869  0.073879989            1 
 2347000   0.88692663   -2.9830554    2083.2615  0.073968951  0.073868186            4 
 2348000   0.88475673   -2.9806269    2093.5979  0.074304299  0.073856288            4 
 2349000   0.89079429   -2.9886662    2091.2942  0.074190938  0.073844397            2 
 2350000    0.8649988   -2.9730764    2096.5839  0.074346948  0.073832627            1 
 2351000   0.88439167    -3.007937    2091.3101  0.074128387  0.073820916            1 
 2352000   0.91247244   -2.9949136    2087.6995  0.073968943  0.073809038            9 
 2353000   0.88057865   -3.0060357    2091.5655  0.074074426  0.073796986            5 
 2354000   0.88076838   -2.9880072    2094.9082  0.074161292    0.0737851            2 
 2355000   0.88662984   -3.0078995    2096.9744  0.074202916  0.073773495            2 
 2356000   0.88745713   -3.0089318    2096.7189  0.074162384  0.073761776            2 
 2357000   0.87446681   -2.9988119    2093.7456  0.074025794  0.073750221            1 
 2358000   0.87054656     -2.99455    2093.4203  0.073982906  0.073738568            3 
 2359000   0.87813149   -2.9834127    2103.1216  0.074294251  0.073726832            3 
 2360000   0.88381824   -3.0034822    2091.5407   0.07385384  0.073715232            9 
 2361000   0.87755242   -2.9957388    2102.1946  0.074198594  0.073703573            4 
 2362000   0.86359033   -2.9812652    2106.3208  0.074312758  0.073691934            3 
 2363000   0.88325765   -3.0138052    2103.5621  0.074184021  0.073680479            2 
 2364000    0.8861753   -3.0125809    2099.1574   0.07399737  0.073668852            2 
 2365000   0.88851842   -2.9762214    2098.3535  0.073937756  0.073657242            3 
 2366000   0.88217046   -2.9931275    2101.5586  0.074019392  0.073645528            7 
 2367000   0.87175852   -2.9921024    2108.2683  0.074224343  0.073633844            3 
 2368000   0.87210453   -3.0088427    2105.1458  0.074083116  0.073622406            2 
 2369000   0.88440597   -2.9848803    2101.9403  0.073939084   0.07361069            2 
 2370000   0.85331788   -2.9742227    2104.2101  0.073987696  0.073599157            2 
 2371000    0.8643225    -2.984791    2110.2516  0.074168833  0.073587668            1 
 2372000   0.88011822   -3.0025366    2104.0371  0.073919235  0.073576288            3 
 2373000   0.87881015   -3.0119233    2106.7199  0.073982296  0.073564799            4 
 2374000   0.88347667   -3.0009153    2104.9372  0.073888557  0.073553405            3 
 2375000   0.85702275    -2.991512    2114.9828  0.074209924  0.073541905            2 
 2376000   0.85534629   -2.9995666    2100.7827  0.073680651  0.073530699            3 
 2377000   0.85316715   -3.0249893    2104.2149   0.07376998  0.073519256            7 
 2378000   0.86210963   -2.9895726    2105.8487  0.073796211  0.073507702            2 
 2379000   0.88058961   -2.9898649    2109.1657  0.073881383    0.0734965            3 
 2380000    0.8809412   -2.9628492    2116.2284  0.074097633   0.07348499            3 
 2381000   0.88980669   -2.9988422    2114.5517  0.074007829  0.073473854            2 
 2382000   0.87731568   -2.9880625    2119.0045  0.074132539  0.073462521            3 
 2383000   0.86285163     -3.01948     2118.926  0.074098685  0.073451256            2 
 2384000   0.88701296    -2.992191    2113.8788  0.073891177  0.073439871            2 
 2385000   0.86057985   -2.9947466    2122.8163  0.074172478  0.073428627            3 
 2386000   0.87121377   -3.0105316    2119.9647  0.074041796  0.073417281            3 
 2387000   0.87160536   -2.9899227    2114.5159  0.073820551  0.073405977            3 
 2388000   0.84955914   -3.0019356    2120.6626  0.074004137  0.073394586            2 
 2389000   0.86429276   -2.9920689    2112.5452   0.07369001   0.07338308            4 
 2390000   0.85960366   -3.0049878    2119.4076  0.073898451  0.073371508            3 
 2391000   0.85769034   -3.0009509    2113.9105  0.073675954  0.073359972            7 
 2392000    0.8780658   -2.9604414    2118.4168  0.073802147   0.07334864            6 
 2393000   0.87269627   -3.0173441    2121.5092  0.073878996  0.073337515            7 
 2394000    0.8661176   -3.0393024    2125.3005  0.073980106  0.073326246            5 
 2395000   0.86633068   -3.0163358     2131.234   0.07415567  0.073315273            2 
 2396000    0.8704622   -3.0076807    2118.7099  0.073689132  0.073304186            3 
 2397000   0.86881907   -2.9784323    2124.0275  0.073843257  0.073293127            2 
 2398000   0.86830353   -3.0049535    2132.6992  0.074113817  0.073281882            2 
 2399000    0.8545527   -2.9714428    2124.6538  0.073803453   0.07327072            4 
 2400000   0.86492385    -3.007166    2120.1549  0.073616489  0.073259568            3 
 2401000    0.8602692   -3.0089797    2124.7694  0.073745987  0.073248446            3 
 2402000    0.8929385   -2.9722279    2130.0789   0.07389949  0.073237511            1 
 2403000   0.85845467   -3.0166932    2132.4318  0.073950334  0.073226254            2 
 2404000   0.87763284   -3.0220585    2129.8297   0.07382937  0.073215146            3 
 2405000   0.85460516   -2.9870129    2128.8806  0.073765786  0.073204245            4 
 2406000   0.86485796   -2.9857204    2136.1088   0.07398548  0.073193203            2 
 2407000   0.87161091     -2.98105    2138.9224  0.074052153  0.073182394            2 
 2408000   0.86318975    -3.011834      2131.22  0.073754844   0.07317138           10 
 2409000    0.8425382   -3.0057738    2136.9434  0.073922215  0.073160431            4 
 2410000   0.85722491   -2.9720958    2141.2643  0.074040952  0.073149665            3 
 2411000   0.88735191   -2.9970232     2140.676  0.073989906   0.07313895            8 
 2412000   0.85437588   -3.0034385    2137.7602  0.073858492  0.073128225            3 
 2413000   0.87622264    -2.987936    2139.3185  0.073881699  0.073117346            1 
 2414000   0.84852053   -2.9934357    2148.3968  0.074164486  0.073106544            3 
 2415000   0.85464525   -3.0148767    2140.9744  0.073877654  0.073095802            3 
 2416000   0.87286863   -3.0157345      2132.55  0.073556499   0.07308495            2 
 2417000    0.8673186   -2.9879416    2147.7201  0.074049099  0.073074141            3 
 2418000   0.85536085   -3.0022965    2140.6274  0.073774036  0.073063424            3 
 2419000    0.8717922   -3.0179505    2141.9652  0.073789623  0.073052625            7 
 2420000   0.88193248   -3.0130324    2141.3819  0.073739047  0.073041889            7 
 2421000   0.86451353   -2.9804002    2145.9623  0.073866249  0.073031392            8 
 2422000   0.87088693   -2.9825235    2145.2548  0.073811409  0.073020638            7 
 2423000   0.86849231   -3.0145415    2150.1959  0.073950883  0.073009972            2 
 2424000    0.8395322   -3.0019507     2143.421  0.073687465  0.072999194            3 
 2425000   0.86915239   -3.0122704    2142.8423  0.073637192  0.072988593            4 
 2426000   0.86847343   -3.0053822    2140.2708  0.073518509  0.072977899            1 
 2427000    0.8595081   -3.0097275    2143.1896  0.073588437  0.072967144            4 
 2428000   0.85243343   -2.9970087    2144.4953   0.07360294  0.072956495            1 
 2429000   0.88330796   -3.0042781    2147.4564  0.073674228  0.072945718            2 
 2430000   0.85375068   -3.0284077    2136.5012  0.073268216  0.072934854            2 
 2431000    0.8671936   -2.9833271    2147.3758  0.073610854  0.072923856            1 
 2432000   0.86537888   -2.9982477    2144.8422  0.073493771  0.072913091            2 
 2433000   0.86474592   -3.0035162    2146.8912  0.073533746  0.072902188            3 
 2434000   0.85750869   -3.0249141    2152.8324  0.073706943  0.072891118            4 
 2435000   0.86524667   -3.0368479    2148.4309  0.073526042  0.072880005            5 
 2436000   0.86431284   -3.0161478    2150.0215  0.073550269  0.072868941            3 
 2437000   0.85988498   -3.0029891    2149.5497  0.073503957  0.072857994            2 
 2438000   0.85195583   -3.0153959    2148.2113  0.073428058  0.072846917            1 
 2439000   0.85861211   -2.9982035    2157.2196   0.07370574  0.072835846            3 
 2440000   0.84962196   -3.0286328    2151.8981  0.073493787  0.072824896            2 
 2441000   0.86582886   -2.9944591    2150.4992  0.073415923  0.072813919            5 
 2442000   0.85745945    -3.002563     2164.837  0.073875138  0.072802951            1 
 2443000   0.85534596   -3.0081603    2150.0656  0.073341028  0.072792151            4 
 2444000   0.86356387   -3.0013806    2147.6224  0.073227714  0.072781348            5 
 2445000   0.86311285   -2.9989315    2160.3264  0.073630757  0.072770233            2 
 2446000   0.86679678   -3.0252071    2151.1915  0.073289436  0.072759128            5 
 2447000    0.8482259   -3.0198029    2154.8037    0.0733825  0.072747934            2 
 2448000   0.86912129   -3.0157663    2144.4119  0.072998771  0.072736928            2 
 2449000   0.84549493    -3.003825    2156.3964  0.073376766  0.072725745            5 
 2450000   0.86299079   -3.0201737    2157.5801  0.073387077  0.072714682            2 
 2451000   0.84323148   -3.0244798    2152.7708  0.073193622  0.072703769            4 
 2452000   0.86661739   -3.0122528    2152.0523  0.073139354  0.072692816            4 
 2453000   0.86731742   -3.0169062    2162.0665  0.073449739  0.072681674            3 
 2454000   0.86289725   -3.0148788    2157.2586   0.07325654  0.072670674            3 
 2455000   0.86766776   -2.9996415    2164.6319  0.073476982  0.072659641            4 
 2456000   0.84564244   -3.0232719    2168.1806  0.073567474  0.072648619            4 
 2457000   0.87267593   -3.0165032     2161.761  0.073319799  0.072637788            2 
 2458000   0.83674206   -3.0144019    2168.7534  0.073527036  0.072627031            5 
 2459000   0.87698846   -3.0127283    2170.3692   0.07355189  0.072616247            2 
 2460000   0.85221712   -3.0165555    2157.6074  0.073089682  0.072605271            6 
 2461000   0.84430102   -3.0135881    2157.3758   0.07305214  0.072594464            3 
 2462000   0.86293585   -2.9991648    2165.9108   0.07331136  0.072583661            3 
 2463000   0.85895376   -3.0096833    2160.7765   0.07310788  0.072572811            3 
 2464000   0.84918028    -3.019934    2165.9003  0.073251498  0.072561789            5 
 2465000   0.85625511   -3.0252636    2163.7691  0.073149735  0.072550737            2 
 2466000   0.83343594   -3.0276177    2175.6579  0.073521827  0.072539696            5 
 2467000   0.85672857    -2.992807     2176.329  0.073514695  0.072528955            5 
 2468000   0.86198218   -2.9988615    2171.4922   0.07332159   0.07251791            4 
 2469000   0.86407542   -3.0130818    2164.0129  0.073039454   0.07250693            2 
 2470000    0.8537671   -3.0172883    2165.7276  0.073067733  0.072495994            3 
 2471000   0.83501203   -3.0281986    2171.9732  0.073248794  0.072485088            2 
 2472000   0.86128607    -2.985718    2171.7794  0.073212629  0.072474251            4 
 2473000   0.85223013   -3.0188751    2166.6992  0.073011835  0.072463421            3 
 2474000   0.85532897   -3.0099804    2174.7505  0.073253519  0.072452807            3 
 2475000   0.86092986   -3.0118362    2172.4922  0.073147886  0.072442188            5 
 2476000     0.846422    -3.016414    2176.9121    0.0732671   0.07243161            2 
 2477000   0.86488884   -3.0170117    2170.9333  0.073036378  0.072420728            6 
 2478000   0.85703232    -3.025664    2170.9659  0.073007999  0.072409598            4 
 2479000   0.82796205   -2.9864583    2177.7938  0.073208076   0.07239882            9 
 2480000   0.86427145   -3.0210862    2175.4715  0.073100522  0.072387969            6 
 2481000   0.85199182    -3.027725    2178.3556  0.073167928  0.072376735            4 
 2482000   0.84909419   -3.0063385    2177.0431  0.073094382  0.072365697            5 
 2483000   0.85401576   -3.0327782    2165.3463  0.072672383  0.072354358            5 
 2484000     0.841029   -3.0109474    2171.5239  0.072850372  0.072343032            2 
 2485000   0.86562293     -3.00983    2180.0888  0.073108276  0.072331798            6 
 2486000   0.86424551    -3.002883     2173.494  0.072857804  0.072320581            3 
 2487000   0.85214671   -3.0273361    2175.8812  0.072908497  0.072309179            2 
 2488000   0.84420095   -3.0167723    2171.6793  0.072738455  0.072297743            4 
 2489000   0.84607842   -3.0293274    2176.8882  0.072883628  0.072286559            4 
 2490000   0.85501857   -3.0164426    2174.5832  0.072777216   0.07227522            3 
 2491000   0.85795493   -3.0240428    2174.7481  0.072753517  0.072263826            6 
 2492000   0.89365737   -3.0168718    2167.6596  0.072487279  0.072252272            4 
 2493000   0.85868211    -3.033406    2176.3122  0.072747433  0.072240696            3 
 2494000   0.85622221   -3.0166414    2172.4278  0.072588474  0.072229047            3 
 2495000   0.85591353   -3.0162031    2168.3999  0.072424846  0.072217357            2 
 2496000   0.86048386   -3.0289174    2163.3257  0.072226418  0.072205609            6 
 2497000   0.81905114   -2.9955672    2167.4712  0.072335843  0.072193793            5 
 2498000   0.87475037   -3.0214832    2170.8491  0.072419572  0.072181966            3 
 2499000   0.86659462   -3.0096419    2183.3602  0.072807797  0.072170362            7 
 2500000   0.84782634   -3.0227478    2171.8958  0.072396526  0.072158746            3 
 2501000   0.82650531    -3.007382    2184.6902   0.07279389  0.072146998            3 
 2502000   0.86734129   -3.0368099    2179.8036  0.072602038  0.072135234            2 
 2503000   0.86276292   -3.0205751    2174.9924  0.072412851  0.072123455            3 
 2504000   0.83256559   -3.0322791    2169.7817   0.07221052  0.072111624            3 
 2505000   0.86562314   -3.0164842    2175.7271  0.072379477   0.07209978            2 
 2506000   0.84357153   -3.0360124    2177.3132  0.072403338  0.072087789            4 
 2507000   0.87313851     -3.03213    2177.1374  0.072368615  0.072075827            9 
 2508000   0.84161022    -3.006588    2175.7247  0.072292818  0.072063956            2 
 2509000   0.84648788   -3.0155504    2176.4509  0.072288125  0.072052006            4 
 2510000   0.83313671   -3.0219613    2175.3906  0.072224124  0.072039835            5 
 2511000   0.85257162   -3.0356788    2176.8199  0.072242795  0.072027922            5 
 2512000   0.85634956   -3.0084292    2177.2542  0.072228445    0.0720159            2 
 2513000    0.8667273   -3.0086436    2180.7927  0.072317041  0.072003934            2 
 2514000   0.83790759   -3.0273645    2179.6804  0.072251406  0.071991925            5 
 2515000   0.86944947    -3.039239    2180.9793  0.072265715  0.071980103            6 
 2516000   0.84963447   -3.0445475     2171.517   0.07192359  0.071968084            4 
 2517000   0.84657758   -3.0282552    2183.3014  0.072285173  0.071956077            1 
 2518000   0.84160767   -3.0243629     2175.878  0.072010788  0.071944028            4 
 2519000   0.85035584   -3.0215786    2187.5129  0.072367107  0.071932036            3 
 2520000   0.86423668   -3.0273172    2185.0209  0.072255981   0.07191983            5 
 2521000   0.85016222   -3.0377835    2175.0296  0.071897052  0.071907815            4 
 2522000   0.86958234   -2.9935203    2189.6784  0.072352579  0.071895875            3 
 2523000    0.8350678   -3.0522861    2179.2986  0.071981062   0.07188375            5 
 2524000   0.84426717   -3.0250273    2179.2376  0.071950529  0.071871817            4 
 2525000   0.86804171   -3.0485254     2185.002  0.072112279   0.07185967            4 
 2526000    0.8587791   -3.0199108    2181.4078  0.071965156  0.071847692            4 
 2527000   0.84398204   -3.0484213     2189.326  0.072197797   0.07183563            4 
 2528000   0.84800002   -3.0278785    2180.8591  0.071890134  0.071823503            4 
 2529000   0.86305812   -3.0244152    2186.4182  0.072044887  0.071811569            3 
 2530000   0.84821023   -3.0254633    2191.6301  0.072188079  0.071799309            5 
 2531000   0.86133387   -3.0320874    2182.7311  0.071866557  0.071787047            3 
 2532000   0.84896899   -3.0261837    2185.8002  0.071939184  0.071774971            3 
 2533000   0.84341927   -3.0232925    2186.6708  0.071939426  0.071762813            2 
 2534000   0.85058736   -3.0553852    2183.5903  0.071809732  0.071750622            5 
 2535000   0.84811749   -3.0068925    2197.7329  0.072246314  0.071738536            3 
 2536000   0.82037272    -3.045331    2190.4944  0.071979969   0.07172639            3 
 2537000   0.82276847   -3.0303431    2186.2186  0.071811147  0.071714251            2 
 2538000   0.83237775   -3.0144914    2184.8072  0.071736513  0.071702272            2 
 2539000   0.86138464   -3.0308432    2190.2641  0.071887362  0.071690017            3 
 2540000   0.84552381   -3.0525492    2183.3868  0.071633424  0.071677796           10 
 2541000   0.82120648    -3.029851    2190.8206   0.07184903  0.071665727            5 
 2542000   0.83986328    -3.026058    2197.9156  0.072053359  0.071653684            2 
 2543000   0.85252435   -3.0277969    2195.2688  0.071938287  0.071641821            4 
 2544000   0.84976663    -2.985589    2193.0827  0.071838401  0.071629999            3 
 2545000   0.85793204    -3.038879    2194.8471  0.071867948  0.071617968            3 
 2546000   0.85756943   -3.0161214    2192.9524  0.071777705  0.071606097            3 
 2547000   0.85403264   -3.0300333    2186.7066   0.07154517  0.071594002            4 
 2548000   0.83550388   -3.0280898    2194.4608  0.071770697  0.071582014            4 
 2549000   0.82023252    -3.027193    2191.3175  0.071639776  0.071569881            3 
 2550000   0.86574469   -3.0324411     2199.006   0.07186294  0.071557749            4 
 2551000   0.84456574   -3.0085487    2204.2264  0.072005306  0.071545867            4 
 2552000   0.85341561   -3.0195111    2202.4694  0.071919718  0.071533913            3 
 2553000   0.83773924   -3.0403163    2195.1954  0.071654113  0.071521841            5 
 2554000   0.83631489   -3.0304258    2197.5581   0.07170315  0.071509752            3 
 2555000   0.85015378   -3.0337412    2210.5193  0.072097824  0.071497734            3 
 2556000   0.85059851   -3.0224175    2203.0002  0.071824471   0.07148575            4 
 2557000   0.85617205   -3.0372602    2201.3028  0.071741064  0.071473908            4 
 2558000   0.84546651   -3.0460985    2200.8928   0.07169966   0.07146208            2 
 2559000   0.82817692   -3.0086774    2209.4515  0.071950355  0.071450201            4 
 2560000   0.83311259    -3.051892    2197.2124   0.07152384  0.071438488            6 
 2561000   0.83563302   -3.0302342    2201.9087  0.071648728   0.07142669            3 
 2562000   0.83462402   -3.0816414    2200.6155  0.071578697  0.071414599            2 
 2563000   0.85414688   -3.0364236    2201.7012   0.07158607   0.07140261            3 
 2564000    0.8479236   -3.0394759    2199.1836  0.071476327  0.071390661            5 
 2565000   0.84566398   -3.0335158    2199.8709  0.071470791  0.071378906            4 
 2566000   0.84099689   -3.0395668    2204.8024  0.071603091  0.071367082            3 
 2567000   0.84606152    -3.044274    2210.7214   0.07176735  0.071355277            4 
 2568000   0.83977998   -3.0412931    2198.6272  0.071346936  0.071343398            4 
 2569000   0.85038555   -3.0495209    2206.4222   0.07157202  0.071331302            3 
 2570000   0.82552909    -3.071208    2215.1772  0.071828056  0.071319412           10 
 2571000   0.84005742   -3.0511442     2205.476  0.071485672  0.071307289            5 
 2572000   0.84084856   -3.0155832    2210.8118   0.07163076  0.071295434            3 
 2573000   0.85243766   -3.0435809    2210.0021  0.071576696  0.071283412            2 
 2574000   0.85014994   -3.0281134    2213.3559   0.07165747  0.071271281            2 
 2575000   0.84906868   -3.0232325    2210.2523  0.071529202  0.071259268            5 
 2576000   0.82925584   -3.0272936    2207.6253   0.07141645   0.07124724            4 
 2577000   0.84233651   -3.0117264    2218.4467  0.071738672  0.071235217            3 
 2578000   0.84413569   -3.0516706    2206.4827  0.071324111  0.071223116            3 
 2579000    0.8426351   -3.0093309    2216.7464  0.071628098  0.071211284            2 
 2580000   0.84244274   -3.0180281    2219.4252  0.071686859  0.071199242            7 
 2581000   0.83899941   -3.0235367     2210.878  0.071383122  0.071187422            5 
 2582000   0.83409909   -3.0223383    2216.7313  0.071544388  0.071175621            3 
 2583000   0.83478398   -3.0223283    2211.9642  0.071362892  0.071163625            3 
 2584000   0.86850332   -3.0264267    2216.3962  0.071478206  0.071151677            3 
 2585000   0.82910423   -3.0429308    2216.1087  0.071441287  0.071139775            2 
 2586000   0.82360781   -3.0248634     2210.673  0.071238496  0.071127747            4 
 2587000   0.83728564   -3.0354279    2215.3062  0.071360205  0.071115819            3 
 2588000   0.83285199   -3.0244156    2217.5913  0.071406212   0.07110382            3 
 2589000   0.84540176   -3.0496248    2207.4521  0.071052277  0.071091747            8 
 2590000   0.81659774   -3.0418738     2218.059  0.071366119  0.071079939            2 
 2591000   0.84075322   -3.0358158    2213.8387  0.071202841  0.071068082            4 
 2592000   0.84172243   -3.0230527    2210.3625   0.07106361  0.071056212            2 
 2593000   0.83236316   -3.0552538    2221.5197  0.071394772  0.071044263            4 
 2594000   0.84520198   -3.0654373    2226.0614  0.071513152  0.071032424            3 
 2595000   0.81465676   -3.0589527     2222.126  0.071359216   0.07102047            3 
 2596000   0.83128321   -3.0325804     2221.531  0.071312629  0.071008544            4 
 2597000   0.84076142   -3.0320239    2217.1059  0.071143176  0.070996495            7 
 2598000   0.82184571   -3.0322793    2223.4522  0.071319354  0.070984753            7 
 2599000   0.83360085   -3.0486524    2222.8054  0.071271175  0.070972824            3 
 2600000   0.83970421   -3.0405634    2218.8318  0.071116403  0.070960609            2 
 2601000    0.8247133   -3.0385354    2216.6548  0.071019311  0.070948529            3 
 2602000   0.83792205   -3.0325489    2220.5617  0.071117143  0.070936306            4 
 2603000   0.81904245   -3.0320085    2219.5601  0.071057758  0.070924033            5 
 2604000   0.83428834   -3.0512191    2218.9684  0.071011533  0.070911752            5 
 2605000   0.83949529   -3.0506249    2217.5745  0.070939682  0.070899718            2 
 2606000   0.82529096   -3.0283401    2223.0868  0.071088731  0.070887548            2 
 2607000   0.83498275   -3.0466412    2223.6622  0.071079855   0.07087546            4 
 2608000   0.84140507    -3.053876    2227.0312   0.07116025  0.070863107            5 
 2609000   0.85370862   -3.0367358    2226.6564  0.071121003  0.070850766            6 
 2610000   0.82916544   -3.0649475    2220.7287  0.070904493  0.070838622            2 
 2611000   0.81456203   -3.0380407    2219.1719   0.07082765  0.070826356            4 
 2612000   0.83114143   -3.0427601    2230.4212  0.071159432  0.070814236            4 
 2613000    0.8299903   -3.0247662    2225.4454  0.070973509  0.070801912            3 
 2614000   0.81782646   -3.0427637    2229.8473  0.071086692  0.070789726            2 
 2615000   0.84441054   -3.0697984    2221.7078  0.070800122  0.070777687            6 
 2616000   0.82650546   -3.0573143    2224.1136  0.070849694  0.070765433            4 
 2617000   0.82789798   -3.0445113    2234.5061  0.071153549  0.070753311            3 
 2618000   0.83500277   -3.0404663    2225.7944  0.070849071  0.070740959            5 
 2619000   0.81582293    -3.038153    2224.5968  0.070783911  0.070728878            4 
 2620000   0.82002706   -3.0355018    2231.9891  0.070992021  0.070716787            6 
 2621000   0.84650789   -3.0479927    2230.4712  0.070916673  0.070704721            4 
 2622000   0.83992793   -3.0139479    2234.9579  0.071032224  0.070692751            5 
 2623000   0.82400651   -3.0362942    2233.3433  0.070953848  0.070680956            4 
 2624000   0.84030629   -3.0691372    2221.6589  0.070555731  0.070668997            3 
 2625000   0.82368454   -3.0408665    2251.0858  0.071463041  0.070656919            2 
 2626000   0.85076482   -3.0732867    2230.5058  0.070782743   0.07064492            5 
 2627000   0.84163615   -3.0386869    2238.6514  0.071014191  0.070632994            2 
 2628000   0.81815784   -3.0574105    2223.8199  0.070516865  0.070620951            2 
 2629000   0.84420184    -3.041698    2237.2579  0.070915997  0.070608964            3 
 2630000   0.82482496   -3.0384122    2234.5562  0.070803429  0.070596929            5 
 2631000   0.81813525   -3.0338596    2238.3985  0.070898217  0.070584845            3 
 2632000   0.83765482   -3.0525798    2236.7509  0.070819114  0.070572825            2 
 2633000   0.81767038   -3.0592134     2232.078  0.070644323  0.070560774            4 
 2634000   0.81141102   -3.0232418    2233.7983  0.070671929  0.070548547            6 
 2635000   0.81632649   -3.0365184      2233.61  0.070639151   0.07053655            4 
 2636000   0.81500429   -3.0259494    2243.2319  0.070916538  0.070524457            2 
 2637000   0.86301065   -3.0384328      2234.54  0.070614967  0.070512412            2 
 2638000   0.82380601   -3.0375675    2232.7635   0.07053208  0.070500279            4 
 2639000   0.82096507   -3.0636901      2237.05  0.070640711  0.070488004            8 
 2640000   0.82110791   -3.0175817    2236.8166  0.070606584  0.070475808            7 
 2641000   0.81040875   -3.0627662    2238.5169  0.070633501  0.070463755            4 
 2642000   0.81896101   -3.0717718    2245.7649  0.070835379  0.070451544            4 
 2643000   0.84702397   -3.0674895    2249.2226    0.0709176  0.070439459            5 
 2644000   0.83670479   -3.0605599    2237.6065  0.070524662  0.070427336            4 
 2645000   0.83623713   -3.0787475    2237.3617  0.070490287  0.070415296            4 
 2646000   0.82383495   -3.0695629    2243.0316  0.070642214  0.070403218            6 
 2647000   0.80779095   -3.0615513    2242.2123  0.070589735  0.070391115            3 
 2648000   0.82881806   -3.0550377     2246.161  0.070687344  0.070378798            3 
 2649000   0.84641513   -3.0413759    2242.0934  0.070532699  0.070366785            4 
 2650000   0.81329058   -3.0457364    2250.7678  0.070778861  0.070354728            5 
 2651000   0.81315946   -3.0780753    2247.1379  0.070638057   0.07034265            3 
 2652000    0.8383689   -3.0472938    2245.2554  0.070552268  0.070330486            2 
 2653000   0.83535321   -3.0584374    2241.6836   0.07041348  0.070318427            6 
 2654000   0.81110851   -3.0618894    2244.7222   0.07048236  0.070306324            7 
 2655000   0.81506505   -3.0682617    2248.5921  0.070577277    0.0702942            2 
 2656000   0.83832321   -3.0804747    2239.0619  0.070251691  0.070282053           10 
 2657000   0.82097589   -3.0524076    2248.1753   0.07051108   0.07027011            2 
 2658000   0.83847413   -3.0622823    2250.5539  0.070559126  0.070257997            4 
 2659000    0.8238437   -3.0249852    2242.8861  0.070292281  0.070245863            6 
 2660000   0.82097932   -3.0493462     2244.804  0.070325941  0.070233623            6 
 2661000   0.83525245   -3.0772295      2249.29  0.070439996  0.070221242            4 
 2662000   0.83839475   -3.0529513    2242.9442  0.070214882   0.07020877            4 
 2663000    0.8134427   -3.0605816    2249.7038  0.070400044  0.070196599            2 
 2664000   0.81438509   -3.0567451    2259.6385  0.070684388  0.070184424            5 
 2665000   0.82226367   -3.0652208     2254.646  0.070501752  0.070172432            6 
 2666000   0.82534543   -3.0468614    2247.8047  0.070261462  0.070160186            6 
 2667000   0.82849716   -3.0769479    2248.0592  0.070243071  0.070147963            5 
 2668000    0.8232635   -3.0755957    2245.7692  0.070145215  0.070135668            2 
 2669000   0.83517379   -3.0364192    2253.7983  0.070369622  0.070123089            2 
 2670000   0.82197337   -3.0739033    2249.7747  0.070217687  0.070110953            7 
 2671000   0.83123146   -3.0562418    2256.9764  0.070416088  0.070098717            2 
 2672000   0.81900461   -3.0378699    2252.4972  0.070250039   0.07008646            3 
 2673000    0.8067503   -3.0498635    2258.1082  0.070398685  0.070074228            5 
 2674000   0.82451518   -3.0412721    2251.3541   0.07016187  0.070061994            2 
 2675000     0.818285   -3.0608853    2257.9105   0.07033989  0.070049709           12 
 2676000   0.83263506   -3.0583954    2253.2928  0.070169805  0.070037418            2 
 2677000   0.84008408   -3.0816941    2248.5886  0.069997155  0.070025052            2 
 2678000   0.81802341   -3.0663893     2261.271  0.070365666  0.070012461            2 
 2679000   0.82361628   -3.0599609    2248.4564  0.069940787  0.070000117            6 
 2680000   0.81783296   -3.0396112    2259.6576  0.070262986   0.06998771            2 
 2681000   0.81703784   -3.0569698    2254.2138  0.070067567  0.069975354            4 
 2682000   0.82254813   -3.0596204    2251.0307  0.069942539  0.069963117            6 
 2683000   0.81816074   -3.0588433    2248.8997  0.069850281   0.06995071            3 
 2684000   0.82190016   -3.0866781    2256.3593  0.070055866  0.069938043           11 
 2685000   0.82468621   -3.0532478    2254.0993  0.069959629  0.069925402            8 
 2686000   0.82304578   -3.0528496    2248.4627   0.06975871  0.069912881            3 
 2687000   0.80818523   -3.0815291    2257.0096  0.069997817  0.069900426            3 
 2688000   0.82178696   -3.0450112    2264.8028  0.070213381  0.069887867            2 
 2689000    0.8258277   -3.0684241    2255.5491  0.069900494  0.069875479            2 
 2690000    0.8344818   -3.0509636    2260.8252  0.070037954  0.069863091            3 
 2691000   0.81929448   -3.0559744    2253.6935  0.069791078  0.069850583            5 
 2692000   0.82198314   -3.0357065    2256.8005  0.069861333  0.069838192            3 
 2693000   0.82855501   -3.0529007    2249.0725  0.069596253  0.069825441            5 
 2694000   0.83001231   -3.0433844    2253.9618   0.06972166  0.069812666            2 
 2695000   0.82092333   -3.0438884    2260.7793  0.069906594   0.06980001            4 
 2696000   0.81936033   -3.0862897    2248.6587  0.069506018  0.069787407            2 
 2697000   0.81191675   -3.0604632    2251.2845  0.069561381  0.069774803            4 
 2698000   0.82011135   -3.0641452    2256.1072  0.069684557  0.069762088            4 
 2699000   0.82152856   -3.0673556    2255.9413  0.069653616  0.069749321            6 
 2700000   0.81356607   -3.0884283    2254.0756  0.069570235  0.069736644            3 
 2701000   0.82757153   -3.0652684    2255.4262  0.069586148  0.069724139            3 
 2702000   0.82415704   -3.0699629     2262.566  0.069780594  0.069711401            1 
 2703000   0.80530075   -3.0707537    2266.0449  0.069862034  0.069698868            5 
 2704000   0.83141234    -3.071993    2259.8144  0.069644182  0.069686265            3 
 2705000   0.82200016    -3.048553    2259.4576  0.069607444  0.069673494            3 
 2706000   0.81705895    -3.057177     2264.161  0.069726564  0.069660754            6 
 2707000   0.80224202      -3.0896    2253.1401  0.069361534     0.069648            2 
 2708000    0.8282537   -3.0378055    2262.6182  0.069627591  0.069635159            1 
 2709000   0.82638577   -3.0874985    2263.4442  0.069627299  0.069622423            2 
 2710000   0.81035696   -3.0796481    2254.0489  0.069312695  0.069609693            3 
 2711000   0.81803392   -3.0500807     2263.558  0.069579429  0.069596976            3 
 2712000    0.8287974   -3.0639618    2254.7907  0.069284374  0.069584336            6 
 2713000   0.82793943   -3.0675716    2252.9172   0.06920129  0.069571471            2 
 2714000   0.81315551   -3.0848283    2265.5702  0.069564303  0.069558518            5 
 2715000   0.80678413   -3.0671372    2268.2355  0.069620488  0.069545584            4 
 2716000    0.8249174   -3.0547337    2263.4186  0.069447059  0.069532854            5 
 2717000   0.80706145   -3.0589726    2266.5075  0.069516239  0.069519821            4 
 2718000   0.81394402   -3.0528994    2265.2243  0.069451321  0.069506994            5 
 2719000   0.81340267   -3.0695201     2269.539  0.069558019   0.06949404            3 
 2720000   0.81591674   -3.1001271    2258.0388   0.06918011  0.069481109            8 
 2721000   0.80730254     -3.08038    2264.7861   0.06936133  0.069468123            6 
 2722000     0.807922    -3.065149    2265.2787  0.069350928  0.069455069            2 
 2723000   0.80958429   -3.0540786    2257.8851  0.069099188   0.06944204            2 
 2724000   0.81692634   -3.0736311    2261.0878    0.0691718  0.069429058            2 
 2725000    0.8191988   -3.0893757    2265.8183  0.069291078  0.069416119            4 
 2726000   0.81763442   -3.0784255    2262.3527  0.069159718  0.069402997            3 
 2727000   0.80565238    -3.058553    2269.0745  0.069339766  0.069390235            4 
 2728000   0.81182022   -3.0929168    2257.7621  0.068968782  0.069377489            6 
 2729000   0.81004485   -3.0659413    2261.1931   0.06904828  0.069364378            8 
 2730000   0.83331897   -3.0747078    2264.8993  0.069136122  0.069351626            5 
 2731000   0.82174318    -3.090404    2274.1358  0.069392647  0.069338747            6 
 2732000    0.8013296   -3.0722145    2272.3829  0.069313779  0.069325756            6 
 2733000   0.79920429   -3.0550133     2268.208  0.069161116  0.069312853            3 
 2734000   0.82439293   -3.0517884    2261.8115  0.068940852  0.069299975            3 
 2735000   0.81150339   -3.0901221    2269.2754  0.069143065  0.069286966            4 
 2736000   0.80914524   -3.0552383    2270.3351  0.069150071  0.069274087            2 
 2737000   0.80169403     -3.06613    2278.0351  0.069359248  0.069261218            6 
 2738000   0.81516307   -3.0376503    2279.4079  0.069375698  0.069248321            5 
 2739000   0.81701703   -3.0701553    2271.5111   0.06911011   0.06923571            7 
 2740000   0.80553426   -3.0643593    2267.8379  0.068973171  0.069223038            4 
 2741000   0.82096306   -3.0674432    2269.3084  0.068992716  0.069210436            3 
 2742000   0.80906801   -3.1002515    2273.2866  0.069088456  0.069197772            3 
 2743000   0.80684957   -3.0639547    2275.2088  0.069121669  0.069185046            4 
 2744000   0.79158683   -3.0660209    2281.7469  0.069295035  0.069172306            3 
 2745000   0.81524631    -3.076271    2274.6677  0.069054879   0.06915973            3 
 2746000   0.82516551   -3.0844231    2270.6243  0.068907024  0.069147177            3 
 2747000   0.81029791   -3.0709805    2275.9259   0.06904277  0.069134589            2 
 2748000   0.81282654   -3.0603142      2279.67  0.069131186  0.069121875            2 
 2749000   0.82479345   -3.0681467    2278.3087  0.069064773  0.069109332            3 
 2750000   0.80789833   -3.0962944    2282.7325  0.069173711  0.069096829            7 
 2751000   0.81316169   -3.0882652       2279.2  0.069041561  0.069084235            4 
 2752000   0.80474005   -3.0583503    2277.8648  0.068976043  0.069071616            2 
 2753000   0.81801353   -3.0813208    2282.8018  0.069100429  0.069058965            5 
 2754000    0.8112302   -3.0825756     2289.966  0.069292122  0.069046448            2 
 2755000   0.79693459   -3.0978222    2277.4502   0.06888839  0.069033808            7 
 2756000   0.82207985   -3.0718386    2272.2237  0.068705361  0.069021007            7 
 2757000   0.81723661   -3.0725674    2280.3179  0.068925095  0.069008437            5 
 2758000   0.79624614   -3.0814342    2287.7111  0.069123493  0.068995815            2 
 2759000   0.79689314   -3.0753035    2279.5311  0.068851368   0.06898319            1 
 2760000   0.81495075   -3.0796261    2286.0606  0.069023569  0.068970769            4 
 2761000   0.80842779   -3.0725033    2284.1235  0.068940103  0.068958242            3 
 2762000   0.80835667   -3.0871714    2286.9052  0.068999071   0.06894573            6 
 2763000    0.8325435   -3.0531613    2284.6345  0.068905613  0.068933306            3 
 2764000   0.79677184   -3.0670469    2286.4244  0.068934649   0.06892098            2 
 2765000   0.81600048   -3.1008596    2287.1787   0.06893245  0.068908603            3 
 2766000   0.81032028    -3.064926    2292.1195  0.069056385  0.068896091            5 
 2767000   0.81914593   -3.0880024    2286.1641  0.068852069   0.06888354            4 
 2768000   0.79235051   -3.0771696    2284.6889  0.068782783  0.068871059            5 
 2769000   0.80673762   -3.0815997    2297.7041  0.069149636  0.068858557            3 
 2770000   0.80944482   -3.0813773    2286.2305  0.068779497  0.068846023            3 
 2771000   0.80879155   -3.1016698    2277.5746  0.068494365  0.068833195            7 
 2772000   0.79669193   -3.0636622    2295.4416  0.069006781  0.068820639            5 
 2773000   0.80039627   -3.1057769    2288.1496  0.068762759  0.068808159            6 
 2774000   0.79423421   -3.0962901    2291.0233    0.0688243  0.068795578            5 
 2775000   0.78679271   -3.0974746    2286.9945  0.068678514  0.068782852            2 
 2776000   0.80703578   -3.0835633    2284.8168    0.0685884  0.068770101            5 
 2777000   0.82855654   -3.0861638    2289.4683  0.068703286  0.068757399            5 
 2778000   0.81062895   -3.0756048    2286.8169  0.068599018  0.068744772            5 
 2779000   0.80742866   -3.0872352    2288.4663  0.068623796  0.068732097            4 
 2780000   0.82032781   -3.0700143    2296.6021  0.068842989  0.068719472            3 
 2781000     0.817912   -3.0815449    2293.0997  0.068713284  0.068706845            7 
 2782000   0.81431482   -3.0753518     2299.075  0.068867571  0.068694315            4 
 2783000   0.80838086   -3.0669751    2297.2675  0.068788701   0.06868178            5 
 2784000   0.80149841    -3.065219    2297.5552  0.068772606  0.068669176            9 
 2785000   0.80936613   -3.0804392    2299.3606  0.068801932  0.068656714            3 
 2786000   0.78303962    -3.098238    2291.0987  0.068530112   0.06864415            3 
 2787000   0.80321989   -3.0697988    2299.9204  0.068769299  0.068631597            4 
 2788000   0.80685172   -3.0637765    2294.3535  0.068578236  0.068618977            2 
 2789000   0.81455441   -3.0973245    2303.2902   0.06882067  0.068606426            8 
 2790000   0.80806033   -3.0922486    2300.2678  0.068705729  0.068593798            4 
 2791000   0.81569841   -3.0841946    2296.8565  0.068579259  0.068581073            6 
 2792000   0.79285558   -3.0647557    2307.1694  0.068862505  0.068568665            3 
 2793000   0.81528199   -3.0713036    2299.6916  0.068614739  0.068556066            6 
 2794000    0.7965186   -3.0940598    2295.5761  0.068467435   0.06854348            5 
 2795000   0.81019697   -3.1136981    2292.8311  0.068361095  0.068530792            3 
 2796000   0.80539594    -3.092831    2290.0037  0.068252376  0.068518183            2 
 2797000   0.78530294   -3.1051024    2296.1565  0.068411289  0.068505467            2 
 2798000   0.80330587   -3.1007487     2296.228  0.068388967  0.068492738            4 
 2799000   0.81143241   -3.0687585    2302.9308  0.068564095  0.068480338            4 
 2800000   0.80264261   -3.0869896    2293.5359  0.068259996  0.068467779            3 
 2801000   0.79268441   -3.0958254    2289.7411  0.068122727  0.068454988            6 
 2802000   0.79898855   -3.0961314    2302.5642  0.068479783  0.068442407            4 
 2803000   0.79211023   -3.0772664     2303.028  0.068469141  0.068429954            4 
 2804000   0.80683271   -3.0696283    2298.4172   0.06830769  0.068417552            2 
 2805000   0.78846565   -3.0930318    2306.6312  0.068527367  0.068405359            5 
 2806000   0.80072074   -3.0649296    2309.9147  0.068600461  0.068392958            4 
 2807000   0.79522426   -3.0599342    2302.4064  0.068353116  0.068380542            4 
 2808000   0.80705607   -3.0967946    2315.2261  0.068709226  0.068368267            4 
 2809000   0.80907614   -3.0681505    2305.3326  0.068391262  0.068355857            2 
 2810000   0.79190396   -3.0953145    2314.1858  0.068629472  0.068343449            5 
 2811000   0.81454747   -3.0953743    2306.5735  0.068379389  0.068331108            6 
 2812000   0.79618203   -3.0840185     2307.029  0.068368569  0.068319044            5 
 2813000   0.79615768   -3.1026222    2312.9356  0.068519244   0.06830685            3 
 2814000   0.78960668   -3.0935829    2308.1526  0.068353253  0.068294521            3 
 2815000   0.81659819   -3.0908193    2311.6094  0.068431303  0.068282115            5 
 2816000   0.82602964   -3.0638527    2315.1994   0.06851324  0.068270151            4 
 2817000   0.79663576   -3.1031682    2308.7331   0.06829763  0.068257893            4 
 2818000   0.78122203   -3.0845547    2317.0583  0.068519586  0.068245769            6 
 2819000   0.80190259   -3.0995468    2305.6553  0.068158191  0.068233579            2 
 2820000   0.80071118   -3.1167445    2318.5878  0.068516187  0.068221313            3 
 2821000   0.80654349   -3.0887584    2312.5386  0.068313204   0.06820908            3 
 2822000    0.7968095   -3.0945146    2320.4261  0.068521913  0.068196945            4 
 2823000   0.78913285   -3.1050076    2318.0904  0.068428692  0.068184735            7 
 2824000   0.79191558   -3.0803544    2313.9056  0.068280972  0.068172509            6 
 2825000    0.8136293   -3.0862401    2316.9092  0.068345405  0.068160186            4 
 2826000   0.80185254   -3.1026607    2314.2788  0.068243655  0.068147804            5 
 2827000   0.80167567   -3.1030857    2310.1249  0.068097066  0.068135306           12 
 2828000   0.78986622   -3.1070169    2305.1956  0.067927735  0.068122914            5 
 2829000   0.81123839   -3.0955283    2314.4335  0.068175841  0.068110415            5 
 2830000   0.79203538   -3.0874442    2310.8486  0.068046188  0.068097962            7 
 2831000   0.80215871   -3.0990541    2315.7365  0.068166035   0.06808564            3 
 2832000   0.79524095   -3.0893821    2314.8442  0.068115709  0.068073409            3 
 2833000   0.80361785   -3.1083325    2320.6735  0.068263134  0.068061086            8 
 2834000   0.80822816   -3.0822248     2321.253  0.068256088  0.068048785            4 
 2835000   0.80541462   -3.1089145     2324.305  0.068321723  0.068036461            4 
 2836000   0.77913914   -3.1047718    2318.3784  0.068123483  0.068024025            4 
 2837000   0.81078784   -3.0923494    2318.8432  0.068113126  0.068011582            2 
 2838000    0.7999813   -3.0822752    2324.7776  0.068263378  0.067999243            3 
 2839000   0.77884225    -3.110995    2315.8316   0.06797674   0.06798677            4 
 2840000   0.80047548   -3.1037676    2311.5075  0.067825925  0.067974315            4 
 2841000   0.80028096   -3.0857308     2323.804  0.068162735  0.067961872            3 
 2842000    0.7793918   -3.1110867    2317.5043  0.067954033  0.067949405            2 
 2843000   0.79323234    -3.094042    2324.1941  0.068126218  0.067937014            4 
 2844000   0.80072021   -3.0889322    2325.8086  0.068149572  0.067924631            3 
 2845000   0.78272183   -3.1292134    2312.0796   0.06772348   0.06791236            2 
 2846000   0.80295414   -3.1034386    2324.5356  0.068064406  0.067899788            7 
 2847000   0.78872941   -3.0898286    2323.2228  0.068002071  0.067887597            3 
 2848000   0.80052852   -3.0953353    2333.7591   0.06828649  0.067875223            4 
 2849000   0.78792792   -3.1034096    2324.9492  0.068004832  0.067862932            4 
 2850000   0.78712026   -3.0984436    2314.5258  0.067676193  0.067850744            4 
 2851000    0.7870327   -3.1090303    2318.1236  0.067757619  0.067838456            3 
 2852000   0.79273986   -3.0856823    2322.4317  0.067859738  0.067826056            3 
 2853000   0.78600486   -3.0935613     2324.197  0.067887516   0.06781377            3 
 2854000   0.79396648   -3.1187923    2329.6059  0.068021662   0.06780151            5 
 2855000    0.7830967   -3.0947726    2324.3654  0.067844874  0.067789264            2 
 2856000   0.80017603   -3.1070264    2326.6534  0.067887879  0.067776893            4 
 2857000   0.80411088   -3.1000424    2327.0018  0.067874281  0.067764596            2 
 2858000   0.80515231   -3.1000354    2330.2115  0.067944118  0.067752439            5 
 2859000   0.80127562   -3.1067375    2327.1159  0.067830124   0.06774016            6 
 2860000   0.78784298   -3.0987437    2323.4256   0.06769888  0.067727894            5 
 2861000   0.78037412   -3.0940359    2330.7508  0.067888581  0.067715483            3 
 2862000   0.77600431   -3.0622063    2326.0184  0.067727066   0.06770308            4 
 2863000   0.78945078   -3.0966289    2326.3123  0.067711967  0.067690694            8 
 2864000   0.78461116   -3.1196427    2332.2755  0.067861833  0.067678158            8 
 2865000   0.79437216   -3.1052597    2330.1447  0.067776169  0.067665541            6 
 2866000   0.81146435   -3.1033721    2322.8954  0.067541736  0.067653007            3 
 2867000   0.77950956   -3.0876764    2335.2376   0.06787692  0.067640431            4 
 2868000   0.79511455   -3.0855584    2331.3395  0.067739991  0.067627951            5 
 2869000   0.78787569   -3.1062074    2331.3039  0.067715345  0.067615535            4 
 2870000   0.80895325   -3.0904886    2326.0237  0.067538435  0.067602915            2 
 2871000    0.7879662   -3.0988928    2325.3059  0.067494076  0.067590385            6 
 2872000   0.80532275   -3.0867379    2329.1009  0.067580691  0.067577766            5 
 2873000    0.7879603   -3.1127128    2330.0349  0.067584257  0.067565386            5 
 2874000   0.79098495   -3.0903569    2329.9182   0.06755736  0.067552868            6 
 2875000     0.776167   -3.1040858    2334.5717  0.067668744  0.067540564            3 
 2876000   0.80319704   -3.1189555    2325.2868  0.067376183  0.067527853            6 
 2877000   0.79621623   -3.1155969    2329.3268  0.067469782  0.067515297            5 
 2878000   0.80077849   -3.1129605    2320.9311   0.06720324   0.06750263            3 
 2879000   0.78214474   -3.1121149    2333.0312  0.067530139  0.067489985            2 
 2880000   0.79198927   -3.0910427    2336.4345  0.067605165  0.067477436            6 
 2881000   0.81470923   -3.1503727    2322.3051  0.067173004   0.06746464            2 
 2882000   0.80694065   -3.0974981    2332.6524  0.067448891  0.067452015            3 
 2883000    0.7853355   -3.0994015    2329.6333  0.067338228  0.067439267            1 
 2884000   0.79857856   -3.0875867    2338.0691  0.067558631  0.067426482            6 
 2885000   0.77161035   -3.1035841    2331.5644  0.067347325  0.067413722            3 
 2886000   0.80455616   -3.0800869     2330.056  0.067280433  0.067401012            3 
 2887000    0.7789946   -3.1275488    2322.6552  0.067043504  0.067388266            4 
 2888000   0.79162321   -3.1142218    2330.9374  0.067259275  0.067375476            4 
 2889000   0.78701055   -3.1186549    2332.1717  0.067271595  0.067362895            7 
 2890000   0.78168939   -3.1338852    2332.7155  0.067263999  0.067350152            2 
 2891000   0.79887475   -3.1068507    2336.3617  0.067345835  0.067337454            3 
 2892000   0.77745001   -3.0990415    2333.2775  0.067233676  0.067324855            3 
 2893000   0.80983251   -3.1146308    2328.7876  0.067081103  0.067312241            1 
 2894000   0.78822332   -3.1204281    2331.5823  0.067138399  0.067299554            5 
 2895000    0.7953249   -3.1192729    2333.9834  0.067184324  0.067286982            5 
 2896000   0.77468632   -3.1034029    2336.2637   0.06722674  0.067274231            6 
 2897000   0.78681528   -3.0974235     2333.117   0.06711302  0.067261704            4 
 2898000   0.78643147   -3.1081575    2337.0734   0.06720363  0.067248892            6 
 2899000   0.79673927   -3.1267214    2342.6716  0.067341371  0.067236126            2 
 2900000   0.78501826    -3.112246    2333.5369  0.067055658  0.067223385            4 
 2901000   0.78177285    -3.102028    2340.5913  0.067235185  0.067210728            7 
 2902000   0.77346165   -3.1181057    2335.8008  0.067074453  0.067198055            3 
 2903000   0.77503847   -3.1388923    2343.4356  0.067270512   0.06718537            4 
 2904000   0.79151272    -3.083985    2341.1143  0.067180737  0.067172753            5 
 2905000   0.78879925   -3.1232038    2339.3189  0.067106106  0.067160244            3 
 2906000   0.79213853    -3.103079    2341.1421  0.067135298  0.067147696            2 
 2907000   0.78517046   -3.1033072    2339.6645  0.067069845  0.067135027            3 
 2908000   0.77671392   -3.1102188    2341.1686  0.067089885  0.067122474            2 
 2909000   0.79615542   -3.1188979     2336.347  0.066928699  0.067109758            5 
 2910000   0.78098303   -3.1224904    2338.1207  0.066956493  0.067096938            4 
 2911000   0.79576068   -3.1050467    2341.1755  0.067020942  0.067084359            2 
 2912000   0.78184293   -3.1177026     2347.229  0.067171159  0.067071828            6 
 2913000   0.78340051   -3.1183723    2350.9371  0.067254179  0.067059275            8 
 2914000   0.78064192   -3.1144188    2339.6485  0.066908275  0.067046649            3 
 2915000   0.80533931   -3.0977654     2344.597  0.067026787  0.067034095            6 
 2916000   0.77873737   -3.0966625    2342.7328  0.066950525  0.067021598            3 
 2917000   0.77794643   -3.0968285    2341.9564  0.066905393  0.067008996            3 
 2918000   0.79332877   -3.1308376    2340.8564  0.066851052  0.066996276            6 
 2919000   0.78236586   -3.0980397    2350.4751  0.067102749  0.066983606            3 
 2920000   0.77937813    -3.122785    2340.0391  0.066781938  0.066970978            4 
 2921000   0.78724076   -3.0974398    2346.5827  0.066945756  0.066958288            9 
 2922000   0.78114483   -3.1044142    2344.1421  0.066853243  0.066945451            8 
 2923000   0.77988487   -3.1217768    2344.1624   0.06683095  0.066932688            4 
 2924000   0.78096478   -3.1231581    2339.6944  0.066680757  0.066920002            9 
 2925000   0.78338221   -3.1329429    2352.4767  0.067022129  0.066907403            4 
 2926000    0.7859942    -3.096345    2348.5251  0.066886679  0.066894704            4 
 2927000    0.7912099   -3.1243195    2347.0659  0.066822284  0.066882047            7 
 2928000   0.79424907   -3.1220819    2346.9073  0.066794947  0.066869304           10 
 2929000   0.77318583   -3.1185669    2352.2579  0.066924374  0.066856558            5 
 2930000   0.78720988   -3.0916707    2351.4188  0.066877668  0.066844083            3 
 2931000   0.77574787   -3.1165467    2347.2734   0.06673699  0.066831419            3 
 2932000   0.78538484   -3.0982331     2347.827  0.066729963   0.06681888            4 
 2933000   0.79850655   -3.1005258    2343.7416  0.066591136  0.066806268            4 
 2934000   0.79077663   -3.1117406    2355.5163  0.066902871  0.066793643            3 
 2935000   0.77253003   -3.1177571    2354.4466  0.066849705  0.066781139            4 
 2936000    0.7775805   -3.1264272    2348.2005  0.066649652  0.066768583            4 
 2937000   0.78048592   -3.1227649    2350.0181  0.066678529  0.066755804            9 
 2938000   0.78978323   -3.1278849    2351.0232  0.066684344   0.06674329            5 
 2939000   0.78572648   -3.1376948    2349.0634  0.066606084  0.066730687            3 
 2940000    0.7781522   -3.1041603    2354.9191  0.066749408  0.066718139            5 
 2941000   0.77527164   -3.1218903    2358.1697  0.066818817  0.066705554           12 
 2942000   0.77907248   -3.1298908     2357.139   0.06676691  0.066693009            5 
 2943000    0.7904354   -3.1030147    2350.3915  0.066553163  0.066680328            7 
 2944000   0.77909852   -3.0761923    2365.2684  0.066951665  0.066667931            3 
 2945000   0.79281615   -3.1048819    2357.0692  0.066696923  0.066655299            4 
 2946000    0.7838239   -3.1456185    2351.9146  0.066528474  0.066642772            3 
 2947000   0.77390883   -3.1158957    2355.5952  0.066609975  0.066630288            9 
 2948000   0.80142229   -3.1146911    2363.1727   0.06680158  0.066617827            7 
 2949000   0.77974787   -3.1222443    2365.2669  0.066838105  0.066605404            3 
 2950000   0.77563176   -3.1330071    2360.6004  0.066683628  0.066592915            6 
 2951000   0.78680006   -3.1185908    2356.7407  0.066552035  0.066580197            8 
 2952000   0.78338098   -3.1128303    2368.9526  0.066874227  0.066567704            7 
 2953000   0.76887561   -3.1312438    2365.2096  0.066745953  0.066555153            4 
 2954000   0.77485292   -3.1476622    2353.4609  0.066391924  0.066542594            5 
 2955000   0.78008289    -3.104874    2361.1024  0.066584953  0.066530033            2 
 2956000   0.77686683   -3.1131279    2365.3201  0.066681328  0.066517602           10 
 2957000   0.77964265   -3.1276479    2358.7019  0.066472267  0.066505201            5 
 2958000   0.77565401   -3.1106034    2367.3897  0.066694547  0.066492726            7 
 2959000   0.78406877   -3.1375681    2358.1173  0.066410873  0.066480133            2 
 2960000   0.76541964   -3.1103192    2360.2409  0.066448224   0.06646763            6 
 2961000   0.78210102   -3.1122679    2367.5649  0.066631906  0.066454983            5 
 2962000   0.77503744   -3.1264578    2363.4931  0.066494855  0.066442498            6 
 2963000   0.77846555   -3.1365423    2358.8443  0.066341666  0.066429924           10 
 2964000    0.7997474   -3.1265053    2352.5423  0.066142104  0.066417353            2 
 2965000   0.76373625    -3.123028    2367.7469  0.066547132  0.066404688            6 
 2966000   0.76578902   -3.1404473    2367.3768  0.066514296  0.066392007            2 
 2967000   0.75554932   -3.1482556     2365.633    0.0664429  0.066379488            3 
 2968000   0.77300708   -3.1420419    2361.7375  0.066311137  0.066366774            5 
 2969000   0.78022234   -3.1062579    2365.1165  0.066383645  0.066354282            3 
 2970000   0.80048126   -3.1140493    2360.4892   0.06623146  0.066341696            4 
 2971000   0.76542588   -3.1330209    2371.2177  0.066510088  0.066329138            4 
 2972000   0.78598178   -3.1318389    2367.3834  0.066380199  0.066316498            6 
 2973000   0.77647662   -3.1394997    2360.0595  0.066152582  0.066303938            9 
 2974000   0.78401649   -3.1568147    2371.7996  0.066459304  0.066291434            7 
 2975000   0.78015035   -3.1211681     2370.878  0.066411149  0.066278925            4 
 2976000   0.78294379   -3.1310057    2367.6926  0.066299635  0.066266256            3 
 2977000   0.76629754   -3.1186366    2371.2915  0.066378106  0.066253708            3 
 2978000   0.77066655   -3.1302125    2370.4386  0.066331951  0.066241118            2 
 2979000   0.76972903   -3.1457605    2363.2531  0.066108681  0.066228391            5 
 2980000   0.77624322   -3.1456199    2365.3395   0.06614484  0.066215742            5 
 2981000   0.78239507   -3.1337242    2362.5334  0.066044208  0.066203069            4 
 2982000   0.75751624   -3.1253963    2372.4453  0.066299054  0.066190406            4 
 2983000   0.79161919   -3.0944421    2373.2393  0.066299009  0.066177764            3 
 2984000   0.76401414    -3.140602    2375.4864  0.066339544  0.066165126            3 
 2985000   0.77627765   -3.1267106    2367.0482  0.066081748  0.066152562            2 
 2986000    0.7635137   -3.1301023    2367.3836  0.066068977      0.06614            2 
 2987000   0.78120018   -3.1299961    2367.5884  0.066052573  0.066127332            7 
 2988000    0.7734774   -3.1256505    2370.0213  0.066098317  0.066114628            4 
 2989000    0.7870055   -3.1198459    2364.7325  0.065928751   0.06610194            2 
 2990000   0.76774933   -3.1494252    2363.3246  0.065867463  0.066089457            2 
 2991000   0.78734127   -3.1170291    2368.1185  0.065979008  0.066076814            5 
 2992000   0.77163836   -3.1454697    2369.2725  0.065989095  0.066064146            3 
 2993000   0.77525495   -3.1287704    2370.3354  0.065996643  0.066051519            4 
 2994000   0.76122922   -3.1268496    2373.5953  0.066065334  0.066038952            3 
 2995000   0.78187783   -3.1167717    2368.5132   0.06590187  0.066026327            4 
 2996000    0.7691345   -3.1214463    2378.3161   0.06615254  0.066013748            4 
 2997000   0.77788085   -3.1352469    2370.0272   0.06589999  0.066001085            2 
 2998000   0.77677448   -3.1113434    2372.0113  0.065933159  0.065988413            3 
 2999000   0.76909342    -3.106466    2371.8018   0.06590535  0.065975968            3 
 3000000    0.7595813   -3.1397841    2365.0462  0.065695729  0.065963288            3 
 3001000   0.76930076   -3.1275092    2364.6279   0.06566222  0.065950478            3 
 3002000   0.76673018   -3.1239098    2373.1308  0.065876382  0.065937649            7 
 3003000   0.76783491   -3.1177429    2369.7271  0.065759992  0.065924937            3 
 3004000   0.76866988   -3.1395547    2375.1962  0.065889818   0.06591186            2 
 3005000   0.78445424   -3.1370648    2367.8488  0.065664139  0.065899044            4 
 3006000   0.76415619   -3.1444871    2373.9872  0.065812464  0.065886133            4 
 3007000   0.76512545    -3.131365    2371.3085  0.065716342  0.065873143            2 
 3008000   0.77834065   -3.1271187    2370.6156  0.065675299   0.06586025            3 
 3009000   0.77218184   -3.1185533    2373.2084  0.065725279  0.065847331            4 
 3010000   0.76777329   -3.1226847    2377.7415  0.065828945  0.065834486            4 
 3011000   0.75965466    -3.133671    2371.5327  0.065635246  0.065821649            7 
 3012000   0.79702931    -3.140166    2371.4396  0.065610879  0.065808869            6 
 3013000   0.76900666    -3.132057    2367.5162   0.06548059  0.065796077            4 
 3014000   0.76683033   -3.1560766    2367.7464   0.06546523  0.065783215            4 
 3015000    0.7738386   -3.1264315    2369.4864  0.065491608  0.065770366            3 
 3016000   0.78292434   -3.1529306    2372.9013  0.065564249  0.065757557            4 
 3017000   0.76415049   -3.1279674    2372.3257  0.065526619  0.065744628            5 
 3018000   0.75703391   -3.1447791    2380.7296  0.065736955  0.065731854            5 
 3019000   0.76701581   -3.1457793    2374.5326  0.065544125  0.065719083            4 
 3020000   0.76806579    -3.124043    2377.0436   0.06559171  0.065706319            4 
 3021000   0.76644426   -3.1253832    2372.3861  0.065441524  0.065693702            3 
 3022000   0.76073352   -3.1342329    2384.4708   0.06575311  0.065681007            3 
 3023000   0.78136057   -3.1497078    2378.0915  0.065555505  0.065668192            3 
 3024000   0.76494995   -3.1478336      2369.76  0.065304234  0.065655428            7 
 3025000    0.7817849    -3.126517    2378.3551  0.065519425  0.065642734           10 
 3026000   0.78507465   -3.1307495    2383.7636  0.065646716  0.065630055            2 
 3027000   0.76071957   -3.1352536    2379.4064  0.065505075  0.065617416            2 
 3028000   0.78367841   -3.1495842    2382.7382  0.065575138  0.065604621            3 
 3029000    0.7603099   -3.1402511    2381.0302  0.065506497   0.06559194            2 
 3030000   0.77007409   -3.1378207    2384.4235  0.065578204  0.065579167            3 
 3031000   0.77191651   -3.1451729    2388.0513   0.06565631  0.065566424            2 
 3032000   0.76654096   -3.1480593    2377.5658  0.065346466   0.06555382            4 
 3033000   0.76498617   -3.1483475     2378.667  0.065355176  0.065541074            4 
 3034000   0.77367554    -3.167476     2380.414   0.06538162  0.065528322           11 
 3035000   0.76286705   -3.1570433    2385.6481  0.065503791  0.065515484            7 
 3036000   0.75454868   -3.1420787     2381.274  0.065362155  0.065502779            4 
 3037000   0.76327628   -3.1637014    2375.1617  0.065172915  0.065489945            5 
 3038000   0.76653268   -3.1370521    2391.5009  0.065599652  0.065477192            5 
 3039000   0.77079954   -3.1401554    2375.9984  0.065152968  0.065464383            2 
 3040000   0.75740963   -3.1420383    2382.8297  0.065318797  0.065451683            4 
 3041000   0.74002529   -3.1421735    2382.5563  0.065289826  0.065439014            6 
 3042000   0.74737394   -3.1203019    2385.2352   0.06534175   0.06542632            7 
 3043000   0.76949286   -3.1275852    2389.4236  0.065434976  0.065413708            8 
 3044000   0.75841302   -3.1594104    2396.2097  0.065599259  0.065401118            4 
 3045000   0.75438902   -3.1560431    2391.2649   0.06544239  0.065388548            2 
 3046000   0.75289862   -3.1236761    2388.2818  0.065339291   0.06537593            4 
 3047000   0.76793617   -3.1289315      2395.14  0.065505415  0.065363417            6 
 3048000    0.7486341   -3.1422863    2400.8796  0.065640847  0.065350874            7 
 3049000   0.78832237   -3.1556962    2400.0879  0.065597679  0.065338165            3 
 3050000    0.7674094   -3.1594329    2388.2253  0.065252058  0.065325619            5 
 3051000   0.76691062   -3.1232662    2392.7103   0.06535317  0.065313089            4 
 3052000   0.75899242   -3.1303104    2397.0039  0.065448994  0.065300802            3 
 3053000   0.76214534   -3.1460462    2404.6851  0.065637216  0.065288356            2 
 3054000   0.75936656    -3.160848    2389.9554  0.065213803  0.065275924            3 
 3055000   0.76222539   -3.1290697    2394.0066  0.065302963  0.065263349            3 
 3056000   0.75749293   -3.1412097    2391.3363  0.065208779  0.065250994            5 
 3057000   0.76690079   -3.1450419    2396.0231  0.065315208  0.065238603            3 
 3058000   0.75451142   -3.1483532    2403.1291  0.065487495  0.065226266            7 
 3059000   0.74479405   -3.1404466    2398.3137  0.065334904  0.065213967            7 
 3060000   0.77261252   -3.1533185    2394.3256  0.065204946   0.06520168            3 
 3061000   0.74530241   -3.1499927     2392.135  0.065124005  0.065189189            2 
 3062000   0.75189134   -3.1721632    2395.1288  0.065184215  0.065176627            5 
 3063000   0.76884337   -3.1335654    2398.1934   0.06524631  0.065164099            5 
 3064000   0.77371755   -3.1090484     2408.785  0.065513082  0.065151722            4 
 3065000   0.75452882   -3.1397103    2396.4025  0.065155043  0.065139412            4 
 3066000    0.7694433       -3.164    2391.8007  0.065008716  0.065126964            7 
 3067000   0.75745137   -3.1410458    2394.1061  0.065050159  0.065114388            3 
 3068000   0.74889071   -3.1534903    2395.1622  0.065057643  0.065101796            5 
 3069000   0.75871229   -3.1592363    2404.6972  0.065295351  0.065089324            6 
 3070000   0.75335637    -3.145458    2398.7854  0.065113609  0.065076704            4 
 3071000   0.75348071   -3.1423835    2397.5507  0.065058903  0.065064278            5 
 3072000   0.76935661   -3.1492951    2394.5238  0.064955614  0.065051885            3 
 3073000   0.75289306   -3.1697446    2394.8927  0.064944481  0.065039333            6 
 3074000   0.74982448   -3.1390127    2409.9517  0.065331591   0.06502679            7 
 3075000   0.74298914   -3.1632948    2396.6118  0.064948829  0.065014253            5 
 3076000   0.75848059   -3.1708603    2396.0189  0.064911651  0.065001656            4 
 3077000   0.76589063   -3.1464016    2410.9695  0.065295459  0.064989196            3 
 3078000   0.74859544   -3.1622284    2397.7933  0.064917514  0.064976627            6 
 3079000   0.76554931   -3.1657479    2404.3155  0.065072955  0.064964129            4 
 3080000   0.76414156   -3.1375167    2413.3635  0.065296631    0.0649519            3 
 3081000   0.75437055   -3.1468909    2411.7919   0.06523293  0.064939495            5 
 3082000   0.76013759   -3.1541686    2407.4438  0.065094198  0.064927162            6 
 3083000   0.76088114   -3.1674447    2399.2066  0.064850432  0.064914814            3 
 3084000   0.75065707   -3.1348816    2403.3723  0.064941967  0.064902406            5 
 3085000    0.7649167    -3.130896    2401.8248  0.064879114  0.064890061            4 
 3086000   0.76811401   -3.1557321    2400.0462   0.06481006  0.064877696            4 
 3087000   0.75482071   -3.1556455    2409.7602  0.065051295  0.064865332            3 
 3088000   0.76931439   -3.1734167    2402.8744  0.064844408  0.064852977            3 
 3089000   0.75687596   -3.1393921    2413.0932  0.065099093  0.064840621            9 
 3090000   0.76105085    -3.146086    2411.4912  0.065034821  0.064828362            4 
 3091000   0.75538724   -3.1579805    2412.3974  0.065038213  0.064816048            2 
 3092000   0.75304216   -3.1656689    2402.5399  0.064751506  0.064803646            6 
 3093000   0.74759575   -3.1387584    2407.8998  0.064874981  0.064791401            4 
 3094000   0.74483758   -3.1241575    2405.7209  0.064795327  0.064779033            9 
 3095000   0.78147423   -3.1631617    2409.4575  0.064875001  0.064766878            4 
 3096000   0.74385305   -3.1676273     2408.809   0.06483659  0.064754549            6 
 3097000   0.76220079   -3.1447444    2407.3547  0.064776523  0.064742083            6 
 3098000   0.75517204   -3.1427771    2410.8695  0.064850158  0.064729737            7 
 3099000   0.74643836   -3.1578082     2407.095  0.064727736  0.064717441            5 
 3100000   0.75077235   -3.1701922     2407.969  0.064730349  0.064704961            4 
 3101000   0.75893293    -3.171601    2406.6748  0.064674698  0.064692445            7 
 3102000   0.75076341   -3.1837471    2410.1894  0.064748264  0.064679997            5 
 3103000   0.74816454   -3.1470879    2398.0023  0.064400106  0.064667497            8 
 3104000   0.73990107    -3.171805    2406.0819  0.064596271  0.064655111            6 
 3105000   0.75141543   -3.1519403    2411.9164  0.064732057  0.064642862            7 
 3106000   0.74493738   -3.1545448    2421.8902  0.064978811  0.064630692            5 
 3107000   0.73895558   -3.1643062    2403.2017  0.064456649  0.064618429            6 
 3108000   0.74446419   -3.1417646    2418.0659  0.064834458  0.064606274            4 
 3109000   0.75639854   -3.1544228    2421.0032  0.064892334  0.064594084            4 
 3110000   0.75379402   -3.1624407    2423.4721  0.064937623   0.06458183            4 
 3111000   0.75247071   -3.1621141    2416.3081  0.064724851  0.064569526            7 
 3112000   0.75809127   -3.1590658     2425.198  0.064942107  0.064557379            5 
 3113000   0.76676979   -3.1601337    2416.0107  0.064675306  0.064545182            9 
 3114000   0.75873779   -3.1563766    2418.9048  0.064731984  0.064532954            4 
 3115000   0.76845258   -3.1660186    2418.1084  0.064689898  0.064520764            5 
 3116000   0.74874795   -3.1520838    2422.2167  0.064779008  0.064508533            3 
 3117000   0.76551298   -3.1633026    2421.2855   0.06473333  0.064496251            9 
 3118000   0.75723054   -3.1257699    2416.5384  0.064585695  0.064484088           10 
 3119000   0.76862761   -3.1539803    2423.3731  0.064747599  0.064471979            3 
 3120000   0.74645067   -3.1440458     2427.113  0.064826737  0.064459798            3 
 3121000   0.74165225   -3.1591119    2426.4261  0.064787623  0.064447525            5 
 3122000   0.75767287   -3.1904809    2409.3626  0.064311408  0.064435176            5 
 3123000   0.76936116   -3.1544458    2415.4906  0.064454333  0.064422715            3 
 3124000   0.74215941   -3.1670143     2418.261  0.064507603  0.064410456            4 
 3125000   0.76303454   -3.1528578      2419.29  0.064514399  0.064398212            4 
 3126000   0.75283902   -3.1769316    2422.9911  0.064592426  0.064385932            2 
 3127000   0.77175676   -3.1568193    2414.4552   0.06434429  0.064373654            3 
 3128000   0.73824869   -3.1545924    2419.8276  0.064466847  0.064361338            7 
 3129000   0.74369507   -3.1531876    2419.2168  0.064429977  0.064349013            2 
 3130000   0.74276373   -3.1699842    2426.5895  0.064605684  0.064336528            7 
 3131000   0.75483505   -3.1852747    2419.9648   0.06440873  0.064324269            5 
 3132000   0.74945931   -3.1803333    2420.4189  0.064400249  0.064312009            3 
 3133000   0.76215588   -3.1611721    2428.9502  0.064606614  0.064299731            7 
 3134000   0.75972866   -3.1626888    2432.9492  0.064692332  0.064287496            4 
 3135000   0.74668834   -3.1680913     2418.769  0.064294763  0.064275297            2 
 3136000   0.75031716   -3.1641436    2427.0458  0.064494202  0.064263084            5 
 3137000   0.74405869   -3.1780529    2427.2119  0.064478054  0.064250965            4 
 3138000    0.7434683   -3.1631469    2422.1491  0.064323058   0.06423876           10 
 3139000   0.73813563   -3.1927349    2420.2765  0.064252854   0.06422648            5 
 3140000   0.75535847    -3.180789    2427.1601  0.064415076  0.064214242            3 
 3141000   0.74310562    -3.165438    2427.4743  0.064402904  0.064201994           10 
 3142000   0.74945922   -3.1545385    2429.9246  0.064447396  0.064189727            9 
 3143000   0.73822623   -3.1728954    2428.4009  0.064386492  0.064177554            7 
 3144000   0.75971049   -3.1540513    2431.9666  0.064460522  0.064165283            7 
 3145000   0.74465107   -3.1722243     2427.988  0.064334604  0.064152973            4 
 3146000   0.73190204   -3.1778534     2427.258   0.06429482   0.06414071            4 
 3147000   0.74316292   -3.1523102    2434.6237  0.064469433  0.064128438            3 
 3148000   0.73985332   -3.1387312    2438.3082  0.064546489  0.064116238            7 
 3149000   0.74789395   -3.1592014    2430.0244  0.064306775   0.06410411            4 
 3150000     0.742786   -3.1480335    2436.4042  0.064455138  0.064091915           11 
 3151000   0.74049102   -3.1656774      2433.69    0.0643629  0.064079831            5 
 3152000   0.76811041   -3.1510269    2432.6354  0.064314599  0.064067744            5 
 3153000    0.7331316   -3.1547248    2431.8958  0.064274653  0.064055482            3 
 3154000   0.73785021   -3.1897002    2431.4855  0.064243434  0.064043223            5 
 3155000   0.74979153   -3.1472701    2430.4793  0.064196496  0.064031082            5 
 3156000    0.7498852   -3.1493312    2432.7323  0.064235643  0.064018874            7 
 3157000   0.73540802   -3.1660032    2425.1535  0.064015245   0.06400672            6 
 3158000   0.75832262   -3.1820724    2428.9779  0.064095892  0.063994336            5 
 3159000   0.74138448   -3.1794358    2436.7651  0.064281024  0.063982043            4 
 3160000   0.75976948   -3.1609636     2433.644  0.064178375  0.063969795            3 
 3161000   0.74617928   -3.1608816    2432.3713  0.064124519   0.06395762            3 
 3162000    0.7651041   -3.1588005    2435.1676  0.064177936  0.063945409            5 
 3163000   0.73155354   -3.1680309    2431.5171  0.064061468  0.063933315            4 
 3164000   0.74442054    -3.178997    2432.7381  0.064073381  0.063921134            3 
 3165000   0.75211034   -3.1611858     2440.588  0.064259822  0.063908911            5 
 3166000   0.76593141   -3.1787457    2432.3553  0.064022828  0.063896639            4 
 3167000   0.75128754   -3.1619025    2432.5133   0.06400677  0.063884349            8 
 3168000   0.75051069   -3.1810533    2437.2453  0.064111039  0.063872093            6 
 3169000   0.74299283   -3.1624969    2435.1859  0.064036656  0.063859962            7 
 3170000   0.74450026   -3.1955237     2425.076  0.063750684  0.063847746            5 
 3171000   0.74012494    -3.151957    2434.0431  0.063966234  0.063835486            7 
 3172000   0.73826334   -3.1955933    2432.6749  0.063910124  0.063823181            4 
 3173000   0.73569611   -3.1711123    2435.2505  0.063957624  0.063810995            7 
 3174000   0.74460702   -3.1681962    2430.2429  0.063805998  0.063798611            4 
 3175000   0.73433384   -3.1926235    2433.9632  0.063883547  0.063786249            4 
 3176000   0.75065171   -3.1871417    2431.8369  0.063807643   0.06377383            6 
 3177000   0.73268249   -3.1644355    2442.6872  0.064072164  0.063761545            5 
 3178000   0.74267983   -3.1765058    2433.5885  0.063813418  0.063749155            6 
 3179000   0.72715424   -3.1586145    2441.0827  0.063989795  0.063736741            2 
 3180000   0.73447858   -3.1753419    2444.5162  0.064059649  0.063724329            7 
 3181000   0.75279467   -3.1633821    2438.6527  0.063885903  0.063711888            6 
 3182000   0.74468678   -3.1819799    2442.9909  0.063979438  0.063699513            6 
 3183000   0.72367886    -3.178823    2432.4383  0.063683064  0.063687024            3 
 3184000   0.74322564   -3.1657194    2436.0737  0.063758209  0.063674548            5 
 3185000   0.73802992   -3.2026363     2438.893  0.063811957  0.063662144            6 
 3186000   0.73659701   -3.1525506    2440.0118  0.063821191   0.06364978            6 
 3187000   0.74316878   -3.1636231    2445.9241   0.06395576  0.063637501            5 
 3188000   0.73528261   -3.1611722    2443.1559  0.063863338  0.063625135            7 
 3189000   0.73985088    -3.159389    2440.3908  0.063771057  0.063612678           12 
 3190000   0.72200743   -3.1863453    2434.7728  0.063604304  0.063600229            5 
 3191000   0.72015586   -3.1829494    2431.6128  0.063501849  0.063587791            3 
 3192000   0.74183226   -3.1948051    2438.1393  0.063652342  0.063575377            3 
 3193000   0.72863917   -3.1694883    2440.5289  0.063694772  0.063562943            6 
 3194000   0.74582191   -3.1838335    2433.4276  0.063489552  0.063550546            9 
 3195000   0.74172098   -3.1831101    2431.1498   0.06341027  0.063538087            6 
 3196000   0.73828038   -3.1782201     2436.137  0.063520468  0.063525457            3 
 3197000    0.7157917   -3.1820974    2437.0699  0.063524918  0.063513007            5 
 3198000   0.73509179   -3.1863332    2440.9493  0.063606141  0.063500595            5 
 3199000   0.73357064   -3.1910965     2434.727  0.063424169  0.063488211            5 
 3200000   0.74595058   -3.1966828    2440.0148  0.063542053  0.063475763            6 
 3201000   0.74555522   -3.1931155    2439.4115  0.063506495  0.063463286            3 
 3202000   0.73331948   -3.1955942    2444.7753  0.063626256  0.063450763            4 
 3203000   0.74971346   -3.1662408     2447.807  0.063685268  0.063438376            2 
 3204000   0.74449329   -3.1963487    2440.8299  0.063483924  0.063425988            5 
 3205000   0.73366711   -3.1763661     2441.151  0.063472466  0.063413538            4 
 3206000   0.74082835   -3.1837766    2433.7045   0.06325911  0.063401028            3 
 3207000   0.72494455   -3.1944891    2442.8972  0.063478256  0.063388544            2 
 3208000   0.74546813   -3.1571447    2443.7205  0.063479854   0.06337613            2 
 3209000   0.73674266   -3.1653994    2445.3933  0.063503514  0.063363854            4 
 3210000   0.75179558   -3.1779011    2441.7723  0.063389727  0.063351556            5 
 3211000   0.73013559   -3.2102778    2438.1441  0.063275825  0.063339046            7 
 3212000   0.72797078   -3.1989302    2438.1972  0.063257504  0.063326566            6 
 3213000   0.74138406    -3.195731    2441.8369  0.063332217  0.063314032           14 
 3214000   0.73704027   -3.1855529     2442.825   0.06333813  0.063301627            7 
 3215000   0.74154613   -3.2035219    2430.7528  0.063005517  0.063289076            6 
 3216000    0.7357436   -3.2015147    2445.1982  0.063360235  0.063276421            6 
 3217000   0.72676387   -3.1750061     2444.994   0.06333525  0.063263868            4 
 3218000   0.73361572   -3.1911438    2447.4226  0.063378459  0.063251477            5 
 3219000   0.73608034   -3.1937401    2450.3003  0.063433268  0.063238944            5 
 3220000   0.74898743   -3.2074226    2445.3176  0.063284616  0.063226441            4 
 3221000   0.74272214   -3.2145503    2445.8417  0.063278528  0.063213824            6 
 3222000   0.73428473   -3.1927029    2441.9326  0.063157785  0.063201256            6 
 3223000   0.74136328   -3.2195165       2435.9  0.062982212  0.063188701            8 
 3224000   0.72845282   -3.1713439    2450.3319   0.06333571  0.063176169            5 
 3225000   0.72967411   -3.1822995    2442.6364   0.06311722    0.0631637            4 
 3226000   0.72661762   -3.1823443    2438.9904  0.063003473  0.063151201            5 
 3227000   0.73473696   -3.1949762    2447.1541  0.063194766  0.063138521            6 
 3228000   0.72872127   -3.1629139    2443.7818  0.063088129  0.063125892            5 
 3229000   0.74835714   -3.1898076    2443.1275  0.063051706  0.063113332            4 
 3230000   0.72988624   -3.1790241    2448.9771  0.063183104  0.063100689            7 
 3231000    0.7402753   -3.1820501    2454.1184  0.063296151  0.063088225            3 
 3232000   0.73590061   -3.2021275    2446.3654  0.063076666    0.0630757            7 
 3233000   0.73202975   -3.2110038    2442.6873   0.06296235  0.063063044           13 
 3234000   0.73260108   -3.1818086    2454.8244  0.063255628  0.063050511            4 
 3235000   0.73734498   -3.1951842    2445.8368  0.063004554  0.063037915            4 
 3236000   0.73300054   -3.1589261    2456.0136  0.063247156  0.063025516            5 
 3237000   0.74204597   -3.1911036    2448.9232  0.063045083  0.063012993            6 
 3238000    0.7529765   -3.1873967    2454.6541  0.063173103  0.063000427           10 
 3239000   0.71384072   -3.1942226    2457.1897  0.063218835  0.062987931            5 
 3240000   0.72830336   -3.1638435    2453.7814  0.063111661  0.062975502            5 
 3241000   0.73669573   -3.1900056    2450.2018  0.063000149  0.062963042            7 
 3242000   0.73215379   -3.1734256    2454.2983  0.063086014  0.062950645            2 
 3243000   0.73564162   -3.1826685    2446.8137  0.062874234  0.062938279            5 
 3244000     0.743919   -3.1888125    2452.6708  0.063005313  0.062925915            6 
 3245000   0.73225267   -3.1779613    2456.8466  0.063093133  0.062913527            3 
 3246000   0.73730049    -3.210007     2444.941  0.062768048  0.062901084            3 
 3247000   0.72482646   -3.1913737    2462.5642  0.063201012  0.062888691            3 
 3248000   0.72397056   -3.1783968    2450.2911  0.062866664  0.062876287            5 
 3249000   0.73230004   -3.1989689    2448.3379  0.062797218  0.062863896            8 
 3250000   0.72989498   -3.2183608    2460.0753  0.063078855  0.062851376            3 
 3251000   0.71494073   -3.2007233    2452.2373  0.062858539  0.062838886            4 
 3252000    0.7484376     -3.18963    2462.5093  0.063102432  0.062826496            3 
 3253000   0.71609342   -3.1933162    2455.1762   0.06289518  0.062814163            5 
 3254000   0.73842515   -3.1854631    2458.2148  0.062953668  0.062801855            7 
 3255000     0.736999    -3.206773    2460.4778  0.062992264  0.062789534            3 
 3256000   0.71872664   -3.2029405    2454.9248  0.062830794  0.062777091            4 
 3257000   0.72782072   -3.1978064    2457.5036  0.062877484  0.062764852            4 
 3258000   0.72647936   -3.1818326    2464.1504  0.063028198  0.062752483            4 
 3259000   0.73136152    -3.178051    2453.7499  0.062742915  0.062740153            4 
 3260000   0.72694045   -3.1895785    2459.7258  0.062876427   0.06272792            6 
 3261000   0.72176221   -3.1871274    2459.8351  0.062859937  0.062715511            4 
 3262000   0.74575435   -3.1943596    2454.9212  0.062715134  0.062703082            6 
 3263000   0.74343103   -3.1833259    2461.4491  0.062862629  0.062690756            5 
 3264000   0.73355558   -3.1964173    2453.6024  0.062643034  0.062678347            3 
 3265000   0.72937341   -3.2274525    2458.3544  0.062745136  0.062665973            2 
 3266000   0.74481709   -3.1768177    2465.4196  0.062906195  0.062653674            9 
 3267000   0.73275441   -3.1950764    2464.9075  0.062873877  0.062641465            7 
 3268000   0.73626475   -3.1910784    2463.6486  0.062822536  0.062629132            3 
 3269000   0.74286944   -3.1929103    2465.3349  0.062846306   0.06261689            4 
 3270000   0.72576729   -3.2038277     2458.881  0.062662614  0.062604626            3 
 3271000   0.73166474   -3.2129367    2456.5999  0.062585343  0.062592296            8 
 3272000   0.73340966   -3.1864366    2462.8553  0.062725532  0.062580027            4 
 3273000   0.70921631   -3.2003537    2464.5082  0.062748453  0.062567709            8 
 3274000   0.71991185   -3.1796693    2464.4864  0.062728731  0.062555407            5 
 3275000   0.70837957   -3.1997614    2463.3749  0.062681294  0.062543085            4 
 3276000   0.73643285   -3.2012506    2462.0823  0.062629282  0.062530736            4 
 3277000   0.72177228    -3.204879    2467.2289  0.062741047  0.062518327           14 
 3278000   0.72448132   -3.2092158    2462.8041   0.06260942  0.062505982            6 
 3279000    0.7339438   -3.2014271    2457.1606  0.062446898  0.062493614            5 
 3280000   0.72484365   -3.1931415     2467.912  0.062701017  0.062481212            6 
 3281000   0.73302722   -3.1958626    2456.2416  0.062385491  0.062468799            4 
 3282000   0.72769562     -3.17903    2453.3369   0.06229273  0.062456345            3 
 3283000   0.73569643     -3.19098     2453.777  0.062284928  0.062443895            7 
 3284000   0.73172584   -3.1866339    2466.3324  0.062584563  0.062431457            3 
 3285000   0.73753376   -3.1930743    2465.0054  0.062531847  0.062419017            3 
 3286000   0.73260937   -3.2062926    2461.6773  0.062428416  0.062406454            5 
 3287000   0.73199033   -3.2127775    2456.2001  0.062270563  0.062393958            2 
 3288000   0.71299483   -3.2077974    2455.4969  0.062233803  0.062381435            4 
 3289000   0.74506991    -3.221722    2469.9298  0.062580567  0.062368971            7 
 3290000   0.74004707   -3.2023547    2459.4734  0.062296692   0.06235655            7 
 3291000   0.73039825   -3.2069583     2470.776  0.062563963  0.062344041            4 
 3292000   0.72691451   -3.2037484    2467.4565  0.062460927  0.062331542            4 
 3293000   0.72428651   -3.2034215    2467.5534  0.062444411  0.062318944            2 
 3294000   0.71594018   -3.1992572    2454.8391  0.062103801  0.062306472            4 
 3295000   0.72506143   -3.1956655     2463.288  0.062298635  0.062293954            4 
 3296000   0.72254967   -3.1985974    2463.2323  0.062278324  0.062281477            4 
 3297000    0.7172762   -3.2184353    2462.9891  0.062253289  0.062269049            6 
 3298000   0.72580258   -3.1990064    2469.5484  0.062400153  0.062256466            9 
 3299000   0.72069425   -3.1814874    2462.5723   0.06220502  0.062244051            2 
 3300000   0.72188332   -3.2150145    2465.0369  0.062248405  0.062231496            4 
 3301000   0.73444049   -3.1889234    2473.7151  0.062448629  0.062219154            4 
 3302000   0.73186552   -3.2122817    2464.4032  0.062194709  0.062206736            2 
 3303000   0.71997662   -3.2203489    2462.6822  0.062132461  0.062194332            6 
 3304000   0.72728889    -3.204167    2472.2494  0.062354958  0.062181856            5 
 3305000   0.72562671   -3.2050153    2472.2441  0.062335958  0.062169328            8 
 3306000   0.71884303    -3.217687     2471.622  0.062301423   0.06215684            3 
 3307000   0.73146392    -3.211594    2471.7574  0.062285994  0.062144464            4 
 3308000   0.72841456   -3.2105207    2481.8072  0.062520334  0.062132033           13 
 3309000   0.72713855   -3.2246561    2470.5265   0.06221735  0.062119621            7 
 3310000   0.71124032   -3.1749191    2472.6738  0.062252614  0.062107122            3 
 3311000   0.71654907   -3.1816527    2478.1585  0.062371854  0.062094739            2 
 3312000   0.71604214   -3.2278183    2477.1774  0.062328336  0.062082441            7 
 3313000    0.7318397   -3.2237363    2468.4384  0.062089708  0.062070065            2 
 3314000   0.72879556   -3.2243733     2474.331  0.062219146  0.062057517            7 
 3315000   0.71442072    -3.215389    2474.2819  0.062199143   0.06204501            4 
 3316000   0.71293098    -3.211079    2476.0443  0.062224675  0.062032522           10 
 3317000   0.73077828   -3.1867474    2473.4433  0.062140572  0.062020052            8 
 3318000   0.70796823   -3.2295928    2474.8707  0.062157692  0.062007715            4 
 3319000   0.70787119   -3.2045954    2472.2276  0.062072603  0.061995288           13 
 3320000   0.70096278   -3.1991982    2472.9449   0.06207191  0.061982739            2 
 3321000   0.71399722   -3.1889055    2466.2743  0.061885835  0.061970351            3 
 3322000   0.71686917    -3.209429    2468.3814  0.061920064  0.061957756            2 
 3323000   0.71725397    -3.208041    2471.8957  0.061989559  0.061945319            4 
 3324000   0.71722945   -3.1970874     2472.211  0.061978816  0.061932919            2 
 3325000   0.73154484    -3.197064    2472.3315  0.061963196  0.061920492            5 
 3326000   0.71806116   -3.2046003    2471.8746  0.061933117  0.061908127            3 
 3327000   0.71187652   -3.1721755    2473.8492  0.061963962  0.061895865            2 
 3328000   0.71360271   -3.2187398     2471.729  0.061892252  0.061883444            5 
 3329000   0.73301832   -3.2048872    2473.3592  0.061914468  0.061871037            5 
 3330000    0.7162616   -3.2229144    2477.5196  0.061999991  0.061858627            4 
 3331000   0.71453043   -3.2314591    2473.2371  0.061874239  0.061846246            5 
 3332000   0.72157415   -3.2145831    2466.9379  0.061698127  0.061833933            4 
 3333000   0.71459548   -3.1918678    2480.1092   0.06200893  0.061821578            3 
 3334000   0.71841382   -3.2097085    2474.6052  0.061852759  0.061809187            5 
 3335000   0.70571462   -3.2212427    2478.5887  0.061933751  0.061796766           16 
 3336000   0.72636734   -3.1905659    2481.4397  0.061986403  0.061784309            5 
 3337000    0.7329575   -3.2026589    2480.6016  0.061946898  0.061771904            7 
 3338000   0.71202498   -3.1948072     2485.822  0.062058667  0.061759632            6 
 3339000   0.71729734    -3.213588    2482.9509  0.061968425  0.061747237            2 
 3340000   0.72273792   -3.2421073    2471.2048  0.061656805  0.061734818            6 
 3341000   0.72061419   -3.2057239    2483.6587  0.061948984  0.061722429            4 
 3342000   0.71852176   -3.1961482    2475.3729   0.06172384  0.061710078            5 
 3343000    0.7058757   -3.2102538    2478.3246  0.061778957  0.061697789            6 
 3344000   0.69914258   -3.2198168    2474.8584  0.061674103  0.061685203            9 
 3345000   0.72757562   -3.2006407     2481.186  0.061813303  0.061672841            5 
 3346000   0.72452903   -3.2005462    2481.1775  0.061794619  0.061660471            5 
 3347000   0.72436496    -3.208055    2481.2277  0.061777404  0.061648224            4 
 3348000   0.71870725   -3.2098323     2479.914  0.061726256  0.061635816            7 
 3349000   0.70346492   -3.2283445    2475.7666  0.061604622  0.061623411            4 
 3350000    0.7147881   -3.2381115    2479.1972  0.061671571  0.061611003            3 
 3351000   0.73768559   -3.2004429    2481.6078  0.061713116  0.061598643            4 
 3352000    0.7176876   -3.2188852    2479.9482  0.061653445  0.061586235           10 
 3353000   0.71250452   -3.2080934    2475.5753  0.061526376  0.061573793            5 
 3354000   0.69488763   -3.2235821    2483.3682  0.061701654  0.061561331            6 
 3355000     0.707419   -3.2375466    2477.3493  0.061533764  0.061548796            8 
 3356000   0.73861968   -3.2270145    2476.5224  0.061494894  0.061536294           10 
 3357000   0.70949043   -3.2209564    2488.2347  0.061767319  0.061523824            4 
 3358000   0.72560587   -3.2199254    2472.9027  0.061368441  0.061511369            7 
 3359000   0.71178355   -3.2304779    2478.7277  0.061494683  0.061498829            6 
 3360000   0.70822969   -3.2159732    2476.6935  0.061425931  0.061486416            5 
 3361000   0.70692343   -3.2061186     2485.703  0.061631037  0.061473902            6 
 3362000   0.70603156   -3.1934979    2489.2131   0.06169971  0.061461499            5 
 3363000   0.71228812   -3.2040732    2486.1252  0.061604847  0.061449158            9 
 3364000   0.70615128   -3.2290587    2490.1457  0.061686131  0.061436785            3 
 3365000   0.70880452    -3.224087    2492.2933  0.061720982  0.061424361            4 
 3366000   0.72459162   -3.2000848    2484.8305  0.061517888   0.06141197            2 
 3367000   0.71638783   -3.2275537    2484.4081  0.061489161  0.061399576           10 
 3368000   0.70774026   -3.2206934    2486.2763  0.061517129  0.061387257            7 
 3369000   0.71351848   -3.2038751    2484.6124  0.061457713  0.061374849            6 
 3370000   0.70639012   -3.2194212    2488.6476  0.061539259  0.061362447            5 
 3371000   0.71078535    -3.218022     2490.645   0.06157038  0.061350028            7 
 3372000   0.72504814   -3.2018047    2482.1261  0.061341589  0.061337681            5 
 3373000   0.72278617   -3.2274297    2488.1274  0.061471673  0.061325316            6 
 3374000   0.70843472   -3.2057385    2491.7653  0.061543304  0.061312991            6 
 3375000   0.70681492   -3.2231555    2491.1058  0.061508784  0.061300738            4 
 3376000   0.72677347    -3.218933    2487.4804  0.061401075   0.06128838            2 
 3377000    0.7204201   -3.2325651    2497.7558  0.061636458  0.061276003            6 
 3378000    0.7090265   -3.2332103    2484.6006  0.061293679  0.061263621            5 
 3379000   0.71541636   -3.2348172    2490.3374  0.061417023  0.061251285            6 
 3380000   0.70577267   -3.2327879    2489.0916  0.061368135   0.06123891            4 
 3381000   0.71737498   -3.2377671    2487.4982  0.061310711  0.061226449            4 
 3382000   0.69970064   -3.2164013    2487.0406  0.061281308  0.061214118            5 
 3383000   0.72253569   -3.2263418    2493.6676  0.061426436  0.061201798            9 
 3384000   0.70883041   -3.2196014    2492.5044   0.06137964  0.061189464            5 
 3385000   0.70600476   -3.2269085    2489.0706  0.061276972  0.061177159            6 
 3386000   0.70361186   -3.2186015    2490.8738  0.061303254  0.061164837            5 
 3387000   0.72213953   -3.1992193    2493.0349  0.061338326  0.061152547            3 
 3388000   0.68782338   -3.2207952    2490.2704  0.061252223  0.061140241            6 
 3389000   0.68939505   -3.2467002    2492.1243  0.061279736  0.061127804            6 
 3390000   0.70605717   -3.2268845    2495.2862  0.061339386  0.061115422            3 
 3391000   0.69458677   -3.2227728    2494.2801  0.061296571  0.061103062            4 
 3392000   0.71177478   -3.2320687    2485.1515  0.061054234  0.061090616            9 
 3393000   0.71649441   -3.2357609    2488.0492  0.061107407  0.061078213            3 
 3394000    0.7074521   -3.2176621    2494.1198  0.061238455  0.061065868            4 
 3395000   0.70293171   -3.2194547    2497.9945  0.061315526   0.06105351           14 
 3396000   0.71655844   -3.2511187    2487.4257  0.061038125  0.061041057            5 
 3397000   0.70879824   -3.2289888    2487.0613  0.061011218  0.061028547           11 
 3398000   0.71560649   -3.2231539    2489.0138  0.061041147  0.061015964            9 
 3399000    0.7323215     -3.22715     2490.052  0.061048642   0.06100352            5 
 3400000   0.70481682   -3.2608062    2490.7334  0.061047387  0.060991062            3 
 3401000   0.69723676   -3.2315449    2489.4105  0.060997023  0.060978578            3 
 3402000   0.70872767   -3.2345771    2498.7992  0.061209073  0.060966204            2 
 3403000   0.70005706   -3.2293742    2485.8267  0.060873412  0.060953711           10 
 3404000   0.70359744   -3.2398863    2488.2287  0.060914334    0.0609411            2 
 3405000   0.71480364   -3.2213948    2495.0799   0.06106412  0.060928577            3 
 3406000   0.70041586   -3.2309761    2493.5131  0.061007857  0.060916064            4 
 3407000   0.71055051   -3.2163964    2488.6781  0.060871689  0.060903503            4 
 3408000   0.69641202   -3.2180666     2491.333  0.060918744     0.060891            5 
 3409000   0.71140349   -3.2356996    2489.4344  0.060854464  0.060878378            4 
 3410000   0.70198965    -3.224908    2488.8041  0.060821213  0.060865891            7 
 3411000   0.69928248   -3.2297742    2482.6533  0.060653114  0.060853344            6 
 3412000    0.7003034   -3.2346851    2488.1298  0.060769095  0.060840857            4 
 3413000   0.70465057   -3.2331641    2489.5362  0.060785629  0.060828318            4 
 3414000   0.68803759   -3.2204392    2492.7248  0.060845655  0.060815799            4 
 3415000   0.70319447   -3.2548535    2491.1194  0.060788663  0.060803307           13 
 3416000   0.69765418   -3.2278675     2493.367  0.060825698  0.060790756           16 
 3417000   0.71662881   -3.2207132     2493.988  0.060823043  0.060778249            5 
 3418000   0.69829369   -3.2326781    2490.8741  0.060729328  0.060765771            7 
 3419000   0.71108305   -3.2377834      2489.66  0.060681974   0.06075325            5 
 3420000   0.69180605    -3.223427    2492.4834  0.060733027  0.060740772            6 
 3421000   0.71029334   -3.2521229    2503.3733  0.060980543  0.060728368            4 
 3422000    0.7175076   -3.2455754    2487.9123  0.060586215  0.060715859            5 
 3423000   0.70735011    -3.209344    2500.4665  0.060874148  0.060703444            5 
 3424000   0.69126177   -3.2502952    2496.3337  0.060755784  0.060690881            6 
 3425000   0.70563657   -3.2408898    2493.9792  0.060680759  0.060678363            6 
 3426000   0.71103987   -3.2284967    2493.8071  0.060658862  0.060665802            5 
 3427000   0.69043378   -3.2459469    2498.4292  0.060753556  0.060653312            5 
 3428000   0.69680855    -3.243231    2494.2219  0.060633554  0.060640843           10 
 3429000   0.70680947   -3.2218188    2497.4128  0.060693418  0.060628397            6 
 3430000   0.68541484   -3.2385349     2496.741  0.060659402  0.060615947            8 
 3431000   0.69365508   -3.2349386    2496.3202  0.060631501  0.060603479            5 
 3432000   0.69902563   -3.2553405    2498.8505  0.060675273   0.06059105            4 
 3433000   0.70309213   -3.2279473    2502.6902  0.060750805  0.060578568            4 
 3434000   0.70727015   -3.2254438    2493.7138  0.060515283  0.060566111            4 
 3435000   0.70776646   -3.2415413     2499.529  0.060638742  0.060553577            4 
 3436000   0.69998312   -3.2230774    2498.1714   0.06058817  0.060541067            3 
 3437000   0.69880315   -3.2433219    2498.7458  0.060584468  0.060528607            5 
 3438000   0.69888041     -3.23286    2498.2131  0.060553934  0.060516186            6 
 3439000   0.69541422   -3.2344623    2500.0436  0.060580682  0.060503666            4 
 3440000   0.69522036   -3.2196685    2498.1482  0.060517156  0.060491316            2 
 3441000   0.69232116   -3.2454613    2495.1791  0.060427663  0.060478763            6 
 3442000   0.71080539   -3.2306634    2501.4463  0.060561841   0.06046627            4 
 3443000   0.69322992   -3.2419034    2492.1612  0.060319519  0.060453739            5 
 3444000    0.6805086   -3.2312572    2497.3805  0.060428292  0.060441148           11 
 3445000   0.68480456   -3.2581693    2497.8324  0.060421683  0.060428484            3 
 3446000   0.69649921   -3.2354556    2496.1564  0.060363621  0.060415935            6 
 3447000   0.70560136   -3.2377018    2495.5348  0.060331079  0.060403394            8 
 3448000   0.71030118   -3.2432751    2491.2557  0.060210164  0.060390896            5 
 3449000   0.68566877    -3.210614    2517.2313  0.060820318  0.060378447            3 
 3450000   0.71344457   -3.2360732    2500.8521  0.060407056  0.060366023            6 
 3451000   0.70265551   -3.2387111    2497.1529  0.060300225  0.060353451            4 
 3452000   0.70382158   -3.2461253    2496.8448  0.060275318  0.060340954            5 
 3453000   0.68998912    -3.236639    2496.9491  0.060260379  0.060328362            5 
 3454000   0.69493555   -3.2366796    2508.8341  0.060529677  0.060315883            8 
 3455000   0.68503777   -3.2328417    2500.3941  0.060308589  0.060303442            6 
 3456000   0.69619356   -3.2335059    2497.8276  0.060229253  0.060291018            5 
 3457000   0.70827089    -3.237188    2500.3697   0.06027311  0.060278412            9 
 3458000   0.70050307    -3.245222    2496.3037  0.060157695    0.0602659            8 
 3459000   0.68048396   -3.2319911    2500.8051   0.06024875  0.060253409            4 
 3460000   0.70086423   -3.2502513    2507.3615  0.060389246  0.060240792            9 
 3461000   0.70619892   -3.2244463    2501.3979  0.060228207  0.060228434            4 
 3462000   0.68703956   -3.2547134    2503.5027  0.060261475   0.06021606            7 
 3463000   0.68590136   -3.2638292    2503.5124  0.060244307  0.060203593            4 
 3464000   0.69571205   -3.2517616    2504.4979  0.060250624  0.060191037           14 
 3465000   0.68548996   -3.2445078     2498.475  0.060088383  0.060178589            4 
 3466000   0.70595134   -3.2417394    2500.3878  0.060117036  0.060166111           10 
 3467000   0.68302986   -3.2549626    2506.5383  0.060247532  0.060153549            4 
 3468000   0.70589035   -3.2492795    2512.4376  0.060371915  0.060141014           11 
 3469000   0.70322235    -3.261934    2497.8052  0.060003008  0.060128596            8 
 3470000   0.69257453     -3.24756    2503.6508  0.060126099  0.060116108           11 
 3471000   0.70196392   -3.2342093    2510.9992  0.060285202  0.060103719            2 
 3472000   0.70473394   -3.2435179    2502.7671  0.060070256  0.060091377            4 
 3473000   0.69646931   -3.2593145    2509.8037  0.060221799  0.060078906            5 
 3474000   0.67968808   -3.2186107    2510.2939  0.060216223  0.060066583            5 
 3475000   0.68721656   -3.2239907    2506.7737  0.060114477  0.060054279            4 
 3476000   0.70132845   -3.2502986    2512.9435  0.060245098  0.060041909            6 
 3477000   0.71336431   -3.2569811     2515.586  0.060291103  0.060029561            6 
 3478000    0.6869188   -3.2451846    2512.0094  0.060188074   0.06001721            3 
 3479000   0.67892504   -3.2612826    2504.9597  0.060001908   0.06000488            5 
 3480000   0.69958673   -3.2416295    2511.7412   0.06014706  0.059992511            4 
 3481000   0.69155788   -3.2598104    2510.0381  0.060089009  0.059980223           15 
 3482000   0.69558423   -3.2516141    2516.8432  0.060234615  0.059968015            4 
 3483000   0.68967173   -3.2414692    2510.1319   0.06005675  0.059955842            3 
 3484000   0.69123391   -3.2403941    2511.0532  0.060061549  0.059943629            7 
 3485000   0.69956911   -3.2385207    2509.2012  0.060000028  0.059931399            4 
 3486000   0.69688495   -3.2440671    2519.9488   0.06023974  0.059919164            6 
 3487000   0.69404794   -3.2483062    2516.2338  0.060133683  0.059906953            2 
 3488000   0.68163739   -3.2491203    2513.0186  0.060039626   0.05989475            7 
 3489000   0.67985101   -3.2504306    2515.9887  0.060093357  0.059882462            4 
 3490000   0.70083748   -3.2176961    2520.6267  0.060186884  0.059870266            4 
 3491000   0.68269984   -3.2603066    2507.9782  0.059867712  0.059858078            5 
 3492000   0.68216368   -3.2713616    2520.6772  0.060153617  0.059845702            7 
 3493000   0.69087507   -3.2627539    2514.4962  0.059988935  0.059833411           10 
 3494000   0.69982813   -3.2588971    2527.0125  0.060270285  0.059821118            4 
 3495000   0.69061694   -3.2476148    2519.7898  0.060080826  0.059808978            5 
 3496000   0.69533924   -3.2587371    2520.1458  0.060072125  0.059796844            3 
 3497000   0.69006117   -3.2406339    2521.9931  0.060098968   0.05978458            8 
 3498000    0.6913292    -3.247868    2517.9611  0.059985731  0.059772314            6 
 3499000    0.6814421   -3.2470703    2515.4571  0.059908952  0.059759942           12 
 3500000   0.69973186    -3.238322    2525.8986  0.060140443  0.059747804            8 
 3501000   0.68756714   -3.2617254    2510.9303  0.059766978  0.059735543            4 
 3502000   0.68174098   -3.2671521    2521.2229  0.059994835  0.059723245            6 
 3503000   0.69645237   -3.2520904    2522.9061  0.060017749  0.059711077            6 
 3504000   0.69037147   -3.2569789    2514.0639  0.059790331  0.059698947            6 
 3505000   0.71981776   -3.2512576    2520.9772  0.059937641  0.059686817           10 
 3506000   0.68901943    -3.270728    2518.3422  0.059857916  0.059674655            5 
 3507000   0.68848857   -3.2721302    2517.4688  0.059820094  0.059662327            7 
 3508000   0.69298573   -3.2660775    2523.4014  0.059943971  0.059650057            6 
 3509000   0.69580948   -3.2490581    2516.8929  0.059772321  0.059637883            7 
 3510000   0.69868941   -3.2458587    2526.3975  0.059980948  0.059625739            3 
 3511000   0.68706965   -3.2443597    2521.2397  0.059841443  0.059613602            5 
 3512000   0.69814135   -3.2498669    2517.2641   0.05973007  0.059601509            5 
 3513000   0.68552046   -3.2695702    2512.2786  0.059594806  0.059589337            7 
 3514000   0.69442447    -3.245218    2523.5548  0.059845256  0.059577106            5 
 3515000   0.69409777   -3.2564193    2517.3596  0.059681357  0.059564927            7 
 3516000   0.69080248    -3.251325    2519.3109  0.059710629  0.059552775            5 
 3517000    0.6833909   -3.2488113    2531.9999  0.059994311   0.05954068            5 
 3518000    0.6865267   -3.2588368    2527.8645    0.0598793  0.059528503            7 
 3519000   0.69598811   -3.2446323    2525.9313  0.059816503  0.059516382            3 
 3520000   0.71138503    -3.272311    2517.8672  0.059608597    0.0595044            6 
 3521000   0.70289996   -3.2670477    2528.5729  0.059845046  0.059492281            9 
 3522000   0.69636577   -3.2540253    2532.6764  0.059925146  0.059480162           14 
 3523000   0.67852213   -3.2534196    2532.2754  0.059898652  0.059468074            4 
 3524000   0.68252569   -3.2639156    2517.9145  0.059542058  0.059455912            7 
 3525000   0.71174824   -3.2551421    2525.6939  0.059709075  0.059443783            3 
 3526000   0.68828546   -3.2423449    2526.5535  0.059712457  0.059431713            6 
 3527000   0.69859769   -3.2497738    2523.7174  0.059628518  0.059419607            4 
 3528000   0.69176167   -3.2552117    2524.8923  0.059639368  0.059407453            7 
 3529000    0.6995179   -3.2559169    2521.0396  0.059531491  0.059395358            5 
 3530000   0.67992597   -3.2522296    2532.8463  0.059793349  0.059383292            6 
 3531000   0.70214509    -3.251187    2521.1952  0.059501444  0.059371134            5 
 3532000   0.70134735   -3.2778751    2521.8878  0.059500938  0.059358974            3 
 3533000   0.67395891   -3.2608684    2528.2664  0.059634551   0.05934681            9 
 3534000   0.68470469   -3.2737076    2535.8897  0.059797437   0.05933469            8 
 3535000   0.69427632    -3.245352     2529.581    0.0596318  0.059322406            3 
 3536000   0.69452536   -3.2427156    2516.3614  0.059303388  0.059310148            6 
 3537000   0.69200189   -3.2649986    2527.5637  0.059550553  0.059297983            3 
 3538000    0.6820364   -3.2603614    2525.7781  0.059491664  0.059285825            4 
 3539000   0.69079895   -3.2703167    2527.1948  0.059508214  0.059273623            5 
 3540000    0.6895966   -3.2833297    2527.2838  0.059493498  0.059261449            4 
 3541000    0.6809417   -3.2528234    2528.4233  0.059503514  0.059249393            6 
 3542000   0.68518215   -3.2612153    2527.7827  0.059471642  0.059237214            7 
 3543000   0.69657149   -3.2634718     2526.049  0.059414079  0.059225013            9 
 3544000   0.70064898   -3.2539193    2526.7527   0.05941386  0.059212847            5 
 3545000   0.68453703   -3.2377441    2529.9772    0.0594729  0.059200792            8 
 3546000   0.68114911    -3.262416    2521.2693  0.059251488  0.059188662            9 
 3547000   0.67731381   -3.2589309    2536.5455  0.059593683  0.059176444            6 
 3548000   0.67649723   -3.2563144    2528.2624  0.059382337  0.059164237           10 
 3549000   0.68520648   -3.2715808    2529.2171  0.059388023  0.059152075            8 
 3550000   0.69111169   -3.2553288     2536.787  0.059548991  0.059139943            6 
 3551000   0.67788776   -3.2710885    2530.1313  0.059376028  0.059127794            8 
 3552000   0.69248002   -3.2662589    2525.9869   0.05926208  0.059115634            5 
 3553000   0.68008211   -3.2570869    2528.5912  0.059306482  0.059103446            4 
 3554000   0.67841856   -3.2860525    2525.5823  0.059219243  0.059091279            5 
 3555000   0.67077234   -3.2511439    2526.0508  0.059213568    0.0590791            7 
 3556000   0.68895919   -3.2497152    2527.0462  0.059220244  0.059066797            5 
 3557000   0.68597306   -3.2823628    2526.0462  0.059180167  0.059054513            6 
 3558000   0.69284882   -3.2848039    2528.0756  0.059211065  0.059042137            5 
 3559000   0.69208354   -3.2671087    2530.5281  0.059251853  0.059029853            4 
 3560000   0.67160678   -3.2752923    2530.6844  0.059238867  0.059017658            6 
 3561000   0.67418181   -3.2790138    2521.0901  0.058997709  0.059005378            6 
 3562000   0.66781289   -3.2945519    2535.0084  0.059306767  0.058993089            4 
 3563000   0.68871098   -3.2572094    2532.4211  0.059229607  0.058980772            5 
 3564000   0.66601347   -3.2775982     2535.561  0.059286406  0.058968545            7 
 3565000   0.68841861   -3.2680532    2529.3468  0.059124517  0.058956226            8 
 3566000   0.68904793    -3.244218     2533.649  0.059208472  0.058944026            9 
 3567000   0.67730118   -3.2822071    2522.8185  0.058938849  0.058931869            5 
 3568000   0.66476215   -3.2812027    2528.4805   0.05905457  0.058919586            5 
 3569000   0.68023076   -3.2742362    2532.0873  0.059122241  0.058907319           14 
 3570000   0.69359519   -3.2888537    2528.1617  0.059014046  0.058895122           10 
 3571000   0.68600853   -3.2729645    2540.3779  0.059282598  0.058882811            7 
 3572000   0.69026011   -3.2605974    2528.0964  0.058979479  0.058870562            7 
 3573000   0.68512678   -3.2490756    2537.6883  0.059186685  0.058858313           11 
 3574000   0.68042216   -3.2561274    2532.6936  0.059053666  0.058846181            5 
 3575000   0.70239776   -3.2640189    2538.9211  0.059182311  0.058833968            3 
 3576000   0.66581356   -3.2472465    2533.8553  0.059047709  0.058821787            5 
 3577000   0.68201429   -3.2620344    2527.5985  0.058885436  0.058809545            5 
 3578000   0.66686892   -3.2933108    2530.2421   0.05893055  0.058797235            8 
 3579000   0.68648502   -3.2812187    2525.4543  0.058802606  0.058784958            5 
 3580000   0.66742545   -3.2684878    2533.0514  0.058963021   0.05877268            3 
 3581000   0.68758213   -3.2718272    2529.1356  0.058855432  0.058760424            5 
 3582000   0.68277774   -3.2710982    2531.7236   0.05889921  0.058748237           24 
 3583000   0.68246365   -3.2960823    2533.4939  0.058923944  0.058735991           11 
 3584000   0.69420493   -3.2757425    2531.4467  0.058859902  0.058723677            4 
 3585000   0.68898283   -3.2583226    2526.8167  0.058735861   0.05871141            3 
 3586000   0.67725758   -3.2781301    2530.4525  0.058803972   0.05869919            6 
 3587000   0.68346151   -3.2771569    2537.0859  0.058941685  0.058686923            6 
 3588000   0.67264667   -3.2787322    2535.8938  0.058897569  0.058674685            6 
 3589000   0.67637809   -3.2566061    2534.3448  0.058845193  0.058662414            8 
 3590000   0.67947533   -3.2518276    2542.5555  0.059019393  0.058650208            7 
 3591000     0.675299   -3.2895142    2536.9629  0.058873175  0.058637928            4 
 3592000   0.66637595   -3.2681476    2535.6365  0.058826015   0.05862562            4 
 3593000   0.67749079   -3.2845939    2537.9774  0.058863934  0.058613406            7 
 3594000   0.68912358   -3.2849953    2534.5197  0.058767383  0.058601202            5 
 3595000   0.69032718   -3.2728955    2528.9336  0.058621549  0.058588968           11 
 3596000   0.67586564   -3.2960818    2536.6402   0.05878384  0.058576754            4 
 3597000   0.67497868   -3.2660521    2534.2815  0.058712852  0.058564493           11 
 3598000   0.67750869    -3.283995    2540.9127  0.058850118  0.058552207           17 
 3599000   0.68143034   -3.2754258    2537.8635  0.058763164  0.058540154            4 
 3600000   0.68478269    -3.272571    2551.3983  0.059060146  0.058528032            4 
 3601000   0.67969095   -3.2813414    2536.6919  0.058703414  0.058515843            3 
 3602000    0.6965757   -3.2657503    2543.7749  0.058850983  0.058503627            5 
 3603000   0.67406411    -3.300653    2537.7729   0.05869583   0.05849142            6 
 3604000   0.66894938   -3.2774765    2538.8157  0.058703657   0.05847926            5 
 3605000   0.67740445   -3.2605916    2534.6329  0.058590682  0.058467071           10 
 3606000   0.68401729   -3.3009154    2538.8927  0.058672876  0.058454935           11 
 3607000   0.67630934   -3.2704387    2541.8474  0.058724872  0.058442832            5 
 3608000   0.65450728   -3.2850982    2542.8795  0.058732434  0.058430663            9 
 3609000   0.69369799   -3.2879741    2540.8675  0.058669704  0.058418478            4 
 3610000   0.66478384   -3.2852369    2546.7961  0.058790308  0.058406337           11 
 3611000   0.67634865     -3.28105     2540.156  0.058620788  0.058394209            2 
 3612000   0.69019503   -3.2870369    2545.1651  0.058720125  0.058382124            5 
 3613000   0.66619364   -3.2821704    2531.8598  0.058396987  0.058369905            5 
 3614000   0.66373316   -3.2813941    2537.8202  0.058518267  0.058357762           13 
 3615000   0.67348899   -3.2659608    2546.6975  0.058706719  0.058345642            7 
 3616000   0.66948812    -3.295472    2555.3743  0.058890449  0.058333551            3 
 3617000   0.67162786   -3.2561016     2544.505  0.058623744   0.05832153            7 
 3618000   0.66465447   -3.2843045    2544.9359  0.058617466   0.05830948            6 
 3619000   0.68530628   -3.2770521    2547.1374  0.058651962  0.058297336            7 
 3620000   0.68865079   -3.2697172     2538.693  0.058441368  0.058285278            3 
 3621000   0.66754787   -3.2861814    2544.7332  0.058564236  0.058273253            7 
 3622000   0.68463974   -3.2668408    2543.7746  0.058526013  0.058261196            9 
 3623000    0.6780156    -3.287827    2546.3021  0.058567993  0.058249091            3 
 3624000   0.66161404   -3.2690773    2546.3519  0.058552978  0.058236998            9 
 3625000   0.67573686   -3.2863532    2540.2726  0.058397071  0.058224853            4 
 3626000   0.66576394   -3.2998598    2549.6084  0.058595523   0.05821263            9 
 3627000   0.67538378   -3.2863705    2546.7644  0.058514024  0.058200483           11 
 3628000    0.6631567   -3.2797517    2547.3666  0.058511728  0.058188333            6 
 3629000   0.66274204   -3.2696731    2552.0803  0.058603847  0.058176234            6 
 3630000   0.67351754   -3.2890074    2550.4076  0.058549301  0.058164112            3 
 3631000    0.6598475   -3.2825476    2541.2649  0.058323348  0.058152068            6 
 3632000   0.65770496   -3.2607144    2543.5793  0.058360391  0.058139893           11 
 3633000   0.68137551   -3.2716929     2543.102   0.05833338  0.058127704            6 
 3634000   0.67041137   -3.2979366    2542.5293  0.058304195  0.058115592            7 
 3635000   0.66515285   -3.2855677    2537.3853  0.058170227  0.058103404            6 
 3636000   0.68092788   -3.2830931    2545.0423  0.058329719  0.058091188            3 
 3637000   0.67356465   -3.2828083    2547.4091  0.058367911  0.058079048            2 
 3638000   0.68269658      -3.2858    2544.1533  0.058277288  0.058066857            5 
 3639000   0.67004148   -3.3002302    2550.2713  0.058401376  0.058054791            4 
 3640000   0.68609242   -3.3080642     2536.276  0.058064926  0.058042567            6 
 3641000   0.65989685   -3.2849395    2540.3622  0.058142502  0.058030319            6 
 3642000   0.66734163   -3.2909978    2550.5634  0.058359953  0.058018124            3 
 3643000   0.66525606   -3.2896289    2552.5141  0.058388555  0.058006021            4 
 3644000   0.67884538   -3.2970421    2547.6011  0.058260178  0.057993827            5 
 3645000    0.6679083   -3.2994279    2543.8408  0.058158227  0.057981639           10 
 3646000   0.67530529   -3.2849099    2543.2815  0.058129492  0.057969433            5 
 3647000   0.65320557    -3.299419    2542.3624  0.058092551  0.057957162            4 
 3648000   0.66203216   -3.3012098    2546.1801  0.058163836  0.057944956            6 
 3649000   0.66678447   -3.2937763    2541.6646  0.058044775  0.057932695            9 
 3650000   0.66112311   -3.2595189    2553.3505  0.058295672  0.057920511            3 
 3651000   0.66976056   -3.2757475    2548.7788  0.058175358  0.057908473            4 
 3652000   0.67698114   -3.2819828     2544.551  0.058062956  0.057896329            4 
 3653000   0.68899609   -3.2620923     2552.058  0.058218313  0.057884222            7 
 3654000   0.67072068   -3.2859726     2549.407  0.058141922  0.057872097            6 
 3655000   0.67981953    -3.303073    2557.4814  0.058310109  0.057860122            8 
 3656000   0.67066677   -3.2959381    2551.4306   0.05815624  0.057848071            9 
 3657000   0.67347967   -3.3014494    2547.4175   0.05804889  0.057835863            8 
 3658000   0.66805966   -3.2905036     2550.985  0.058114292  0.057823877            5 
 3659000   0.68060635   -3.2857105    2547.0652  0.058009138  0.057811891            8 
 3660000   0.66724721   -3.2943628    2558.1647  0.058246009  0.057799802            6 
 3661000   0.67418618   -3.2981611    2543.6021  0.057898618  0.057787728            5 
 3662000   0.67095455   -3.2868431    2558.4901  0.058221603  0.057775602            9 
 3663000   0.67805011     -3.29363    2557.1259  0.058174673  0.057763538            9 
 3664000   0.67880268   -3.2999835    2556.9876  0.058155649  0.057751455           11 
 3665000   0.65920762   -3.2722738    2554.4919  0.058083036   0.05773955            7 
 3666000   0.64589118   -3.2802701    2547.2551  0.057902689  0.057727549            6 
 3667000   0.66278996   -3.3011238    2553.5903  0.058030867   0.05771563            4 
 3668000   0.65825072   -3.2871517    2565.2908  0.058280871  0.057703652            4 
 3669000   0.66174911   -3.2868989    2559.2794   0.05812845  0.057691684            6 
 3670000   0.66234999   -3.2926304    2560.6029  0.058142663  0.057679707            9 
 3671000   0.65691417   -3.2949934    2556.3148  0.058029482  0.057667734            5 
 3672000   0.66417877   -3.3150709    2553.7829  0.057956221   0.05765568            5 
 3673000   0.66011304   -3.2913265    2552.5669  0.057912853  0.057643771            6 
 3674000   0.65561008   -3.3071068    2553.2489  0.057912558  0.057631832            6 
 3675000   0.67213226   -3.2993193    2562.2454  0.058100803  0.057619867           14 
 3676000   0.67946558   -3.3150202    2563.4047  0.058111279  0.057607968            6 
 3677000   0.68049985   -3.3118565    2559.4108  0.058004959  0.057596056            4 
 3678000   0.66470145   -3.3028016    2556.7085  0.057927962   0.05758419            4 
 3679000   0.66451545   -3.3069042     2576.942  0.058370528  0.057572265            4 
 3680000   0.65207288   -3.2931016    2557.7099  0.057919155   0.05756038            4 
 3681000   0.67196945   -3.3020989    2560.6099  0.057969074  0.057548559           10 
 3682000   0.66953905   -3.2860451    2554.5733  0.057816705   0.05753666            3 
 3683000   0.66380781   -3.3092379    2556.7881   0.05785112  0.057524828            6 
 3684000   0.64943371    -3.289354     2568.407  0.058098241  0.057512975            5 
 3685000   0.65552804   -3.3107684    2564.7054  0.057998765  0.057501078            4 
 3686000   0.66804614   -3.2984411    2563.4219  0.057954013  0.057489226            9 
 3687000   0.65681602   -3.3050355    2562.1972  0.057910614  0.057477373            6 
 3688000   0.66313146   -3.3037849    2560.2555  0.057851036  0.057465571            7 
 3689000   0.64643816   -3.3176401    2565.6967   0.05795827  0.057453738            7 
 3690000   0.66480854   -3.3181294    2563.5899  0.057894985  0.057441889            4 
 3691000   0.64542196   -3.2957187    2564.4816  0.057899432  0.057430057            6 
 3692000   0.67188349   -3.3133768    2564.7486  0.057889775  0.057418273            4 
 3693000   0.64858017   -3.3074219    2564.9956  0.057879674  0.057406446            4 
 3694000   0.66481867   -3.2914658    2558.7242  0.057722527  0.057394562            4 
 3695000   0.65277123   -3.3005142    2568.7083  0.057932078  0.057382745            4 
 3696000   0.65162368   -3.3256143    2565.1028   0.05783511  0.057370885            4 
 3697000   0.67001379     -3.30197     2564.952  0.057816067   0.05735896            8 
 3698000   0.64821708    -3.277659    2561.3828  0.057720001  0.057347153            8 
 3699000   0.66761221    -3.296634    2571.7409   0.05793775   0.05733531            4 
 3700000   0.66359978    -3.285773    2562.0801  0.057704508  0.057323571            4 
 3701000   0.66682561   -3.2778839    2562.7612  0.057704251  0.057311847            6 
 3702000   0.66471754   -3.3084006    2563.5241  0.057705837  0.057300036            6 
 3703000   0.65331973   -3.2825828    2565.1972  0.057727906  0.057288119            8 
 3704000   0.64850006   -3.2997994     2562.436  0.057650197  0.057276327            3 
 3705000   0.67625866   -3.2910632    2567.7576  0.057754331  0.057264506            5 
 3706000   0.65245004     -3.30267     2560.448  0.057574385  0.057252646            3 
 3707000   0.65772116   -3.2952226    2559.3015  0.057533078  0.057240826            7 
 3708000   0.66025932   -3.3014297    2553.8742   0.05739559  0.057228922            6 
 3709000   0.64666309   -3.3064072    2566.0333  0.057653306  0.057217069           10 
 3710000   0.65488327   -3.3056212    2568.5479  0.057694247  0.057205224            5 
 3711000    0.6371003   -3.2813479    2570.1012  0.057713582  0.057193386            7 
 3712000   0.67105667   -3.3153495    2562.3015  0.057522933  0.057181538            3 
 3713000   0.64381222   -3.2920142      2566.43  0.057600099   0.05716968            2 
 3714000   0.65233873   -3.3111186     2567.869  0.057616878   0.05715786            8 
 3715000   0.65610258    -3.305354    2557.4867  0.057368477  0.057145937            5 
 3716000   0.65640597   -3.3001808    2572.9288  0.057699335  0.057134128            4 
 3717000   0.65284976   -3.3106474    2564.9323  0.057504536  0.057122228            6 
 3718000    0.6541046   -3.3059687    2560.9543  0.057399908  0.057110376            6 
 3719000   0.66213803   -3.3137321    2569.3537  0.057572683  0.057098471            9 
 3720000   0.64747432   -3.3199572      2563.08  0.057416666  0.057086551            5 
 3721000   0.64982062    -3.324196     2571.373  0.057586961   0.05707469            7 
 3722000   0.64356949   -3.3300163     2568.128  0.057498836   0.05706282            5 
 3723000   0.64813777   -3.3145793    2563.2614   0.05737446  0.057050996            8 
 3724000   0.65836903   -3.2765411    2574.6241  0.057613321  0.057039234            5 
 3725000   0.66490184   -3.3103735    2568.4068  0.057458765  0.057027528            4 
 3726000   0.67248172   -3.3161792    2567.3903   0.05742061  0.057015783            6 
 3727000   0.64725279   -3.3279047    2567.0761  0.057398177  0.057003894            3 
 3728000   0.65773411   -3.2953092    2572.9341  0.057513728  0.056992104            7 
 3729000   0.64987618   -3.3014845      2568.34  0.057395637  0.056980366            4 
 3730000    0.6504281   -3.3309278    2573.8791  0.057504002  0.056968584            4 
 3731000   0.64533114   -3.3035881     2572.521  0.057458256  0.056956789            7 
 3732000   0.66326345    -3.323721    2581.7035  0.057647899  0.056944995           24 
 3733000   0.65604644   -3.3142033     2566.273  0.057287994  0.056933192            7 
 3734000   0.65503539   -3.3133278    2567.1236  0.057291636  0.056921379            5 
 3735000    0.6732247   -3.3108926    2575.5519  0.057464343  0.056909608            4 
 3736000    0.6465522   -3.3320731    2570.0086  0.057325316  0.056897772            6 
 3737000   0.64336298   -3.3338928    2568.9372  0.057286085  0.056885922            5 
 3738000   0.66105409   -3.3023591    2576.9706  0.057449853  0.056874263            3 
 3739000   0.65632968   -3.3194629    2576.6586  0.057427534  0.056862537            7 
 3740000   0.65360315   -3.2971641    2580.5892  0.057499759  0.056850798            6 
 3741000   0.66505164   -3.3029831    2578.0789   0.05742847  0.056839065           11 
 3742000   0.65990743   -3.3060979    2567.0537  0.057167596  0.056827251            6 
 3743000   0.63773822   -3.3103039    2573.0531  0.057285892  0.056815453            6 
 3744000   0.65895856   -3.3028315    2573.8347  0.057287987  0.056803582            9 
 3745000   0.64883188   -3.3292532    2576.5681  0.057333514  0.056791825            5 
 3746000   0.65651078   -3.3010805    2578.3488  0.057357822  0.056780078            3 
 3747000   0.64996828   -3.2781643    2576.0567  0.057291538  0.056768464            4 
 3748000   0.65347558   -3.3046034    2583.2857  0.057436982  0.056756759            7 
 3749000   0.64716609   -3.3271744    2567.0316  0.057060364  0.056745001            9 
 3750000   0.65477533   -3.3120542    2575.7811  0.057239579   0.05673333            3 
 3751000   0.65652827   -3.3224512    2576.2347  0.057234397  0.056721589            6 
 3752000   0.65215912   -3.3313557    2580.3193  0.057309864  0.056709959            5 
 3753000   0.65110983   -3.3040753    2581.6434  0.057323995  0.056698373            9 
 3754000   0.63964155    -3.326302    2578.7967  0.057245531  0.056686694            7 
 3755000   0.65297375   -3.3408848    2575.2529   0.05715164  0.056674924            8 
 3756000   0.66090424   -3.3251827     2578.939  0.057218205  0.056663189            5 
 3757000   0.65508115   -3.3225276    2576.7575  0.057154588  0.056651452            6 
 3758000   0.65353265   -3.3161365    2578.2093  0.057171574  0.056639705            9 
 3759000   0.64986052   -3.3135914     2583.938  0.057283364  0.056628026            9 
 3760000   0.64227656   -3.3353278    2577.2789  0.057120543  0.056616305            5 
 3761000   0.64270151   -3.3154277    2572.5602  0.057000802  0.056604535            4 
 3762000   0.65510167   -3.2957334    2573.9354  0.057016113  0.056592816            4 
 3763000   0.65663861   -3.3202427    2580.1313  0.057138171  0.056581052            6 
 3764000   0.64190651   -3.3146584    2577.6066  0.057067096  0.056569263            5 
 3765000   0.64095466   -3.3268827    2576.8638  0.057035497  0.056557545            4 
 3766000   0.65113254   -3.3146413    2579.7287  0.057083748  0.056545908            9 
 3767000   0.64599538    -3.315282    2578.7265  0.057046423  0.056534216            3 
 3768000    0.6361022   -3.3351029    2582.1273  0.057106496   0.05652246           11 
 3769000    0.6665557   -3.3055358    2579.9356  0.057042886  0.056510675            9 
 3770000   0.63718187   -3.3126171    2580.0021  0.057029224  0.056498931            8 
 3771000   0.65742327   -3.3098663    2580.7062  0.057029661  0.056487225           18 
 3772000   0.64804614   -3.3272467    2576.5198  0.056922054  0.056475548            3 
 3773000   0.64704043   -3.3314898     2577.591  0.056930626   0.05646375           10 
 3774000   0.64562872   -3.3163675     2588.176  0.057149267  0.056451994            5 
 3775000   0.64153012   -3.3138844    2581.8917  0.056995402  0.056440275            6 
 3776000   0.65328091   -3.3184594    2586.1857  0.057075073  0.056428633            9 
 3777000   0.63998108   -3.3287396    2587.6891  0.057093131  0.056416849            5 
 3778000   0.65424766   -3.3387015    2578.8797  0.056883707  0.056405141            3 
 3779000   0.65207846   -3.3385942    2579.9556   0.05689238  0.056393356            5 
 3780000    0.6635596   -3.3222631    2577.5162   0.05682355  0.056381536           11 
 3781000   0.65613827   -3.3205247    2575.1695  0.056756798  0.056369806            6 
 3782000   0.63849955   -3.3199743    2577.4709  0.056792501  0.056358129            5 
 3783000   0.64467321   -3.2915025    2585.8087  0.056961158  0.056346499            5 
 3784000   0.64722723   -3.3238154    2583.0555  0.056885472  0.056334883            7 
 3785000   0.65292247   -3.3470925    2579.1388  0.056784209  0.056323228            8 
 3786000   0.66634861   -3.3113438    2587.3904  0.056950836  0.056311593            8 
 3787000   0.64040871   -3.3249888    2586.3733  0.056913417  0.056300046           11 
 3788000   0.64177087   -3.3375998     2579.153   0.05673955  0.056288488            6 
 3789000   0.63718469   -3.3319975    2583.7924  0.056826612  0.056276772            5 
 3790000   0.65365398   -3.3508292    2590.2036  0.056952585   0.05626518            5 
 3791000   0.66126849   -3.3370212    2580.0854  0.056715145  0.056253543            5 
 3792000   0.63788367   -3.3157691     2591.829  0.056958266  0.056241937            5 
 3793000   0.63367701   -3.3285681    2575.3078  0.056580275  0.056230263            4 
 3794000   0.63958626   -3.3188934    2587.2224   0.05682706  0.056218635           10 
 3795000   0.64347076    -3.335701    2588.7378  0.056845361  0.056207089            9 
 3796000    0.6402828   -3.3428343    2583.3183  0.056711413  0.056195437            4 
 3797000   0.63849697   -3.2945994    2583.7457  0.056705857  0.056183766            6 
 3798000   0.64368865   -3.3214829    2587.2873  0.056768636  0.056172194           24 
 3799000   0.64086998   -3.3233974     2590.946  0.056833949   0.05616057            4 
 3800000   0.65204656   -3.3220999    2588.0865  0.056756282  0.056148916            7 
 3801000   0.63789406   -3.3216854    2591.4949  0.056816078  0.056137376            7 
 3802000   0.63215148    -3.333706    2582.2472   0.05659844  0.056125739            8 
 3803000   0.63743522   -3.3397533    2581.5175  0.056567568  0.056114067            6 
 3804000   0.65553331   -3.3192618    2585.5839  0.056641778  0.056102406            5 
 3805000   0.64830291   -3.3347538    2585.3023  0.056620725   0.05609082            4 
 3806000   0.64924096   -3.3262211    2591.2351  0.056735749  0.056079245            6 
 3807000   0.63399233   -3.3264979    2590.0072  0.056693968  0.056067629            4 
 3808000   0.64647798   -3.3215646    2586.2166  0.056596126  0.056055999            6 
 3809000   0.64898231   -3.3257738    2585.3166  0.056561579  0.056044394           15 
 3810000   0.63631766    -3.331338    2582.7535  0.056490673  0.056032765            6 
 3811000   0.64491073   -3.3471186    2588.9178   0.05661064  0.056021172            7 
 3812000   0.64781271   -3.3309541    2584.3744  0.056496467  0.056009522            3 
 3813000   0.64072164   -3.3321253    2579.9727  0.056385452  0.055997838            6 
 3814000   0.63974625   -3.3410072    2583.6128  0.056450202   0.05598611            8 
 3815000   0.62900041    -3.344963    2581.1182  0.056380914  0.055974324            3 
 3816000   0.62848949   -3.3248335    2583.2468  0.056412622  0.055962589            6 
 3817000   0.63661306   -3.3627664    2594.9089  0.056652452  0.055950898           10 
 3818000   0.63261812   -3.3287607    2588.5437  0.056498684   0.05593917            6 
 3819000   0.64333464   -3.3454143     2584.159  0.056388213  0.055927428            4 
 3820000   0.64698184   -3.3116776    2585.7613  0.056408405  0.055915775            8 
 3821000   0.64274423   -3.3387908    2587.2329  0.056425737  0.055904138           19 
 3822000   0.64433651   -3.3276521    2585.7355  0.056378325  0.055892516            3 
 3823000   0.64984772   -3.3423409    2588.7514  0.056429318  0.055880894            7 
 3824000   0.63491785   -3.3419378    2584.2992  0.056317539  0.055869266            9 
 3825000    0.6440324   -3.3368086    2580.1539  0.056212504    0.0558576           12 
 3826000   0.64643763   -3.3324677    2596.2383  0.056548141  0.055845985            7 
 3827000   0.64271802   -3.3297326      2592.77  0.056457842  0.055834382            5 
 3828000   0.64632516    -3.329654    2588.3413  0.056346685  0.055822807           16 
 3829000   0.63743206    -3.344492    2588.4131  0.056333532  0.055811264           10 
 3830000   0.63036696   -3.3364032    2593.4325  0.056428035  0.055799647            8 
 3831000   0.64208273    -3.331572    2587.2376  0.056278553  0.055788051           11 
 3832000   0.63813494    -3.343979    2589.7011  0.056317438  0.055776422           12 
 3833000   0.64647191   -3.3233757    2590.8783   0.05632834   0.05576471            5 
 3834000   0.63792733   -3.3074048    2594.7687  0.056398207  0.055753187            2 
 3835000   0.64212581   -3.3414092    2592.6804  0.056338122  0.055741624            4 
 3836000   0.65256937   -3.3417275    2595.5634  0.056386066  0.055730074           10 
 3837000   0.64512447    -3.316769    2598.9905  0.056445801  0.055718471            6 
 3838000   0.64516669   -3.3450239    2590.6815  0.056250683  0.055706895            9 
 3839000   0.63013677   -3.3443717    2601.3396  0.056467388  0.055695343            8 
 3840000   0.63188902    -3.336191    2597.9084   0.05637822  0.055683782            8 
 3841000   0.65050018   -3.3315125    2596.4778  0.056332504  0.055672195            8 
 3842000   0.63939615   -3.3460181    2601.6764  0.056430601  0.055660741            5 
 3843000   0.63912903   -3.3450661    2600.0519   0.05638069  0.055649315            5 
 3844000   0.63362559   -3.3399264    2593.0169  0.056213513  0.055637839            5 
 3845000   0.63324592   -3.3308228    2596.9027   0.05628311  0.055626361            8 
 3846000    0.6318441    -3.335753    2595.3775  0.056235428  0.055614795            4 
 3847000   0.62578399   -3.3303151    2598.3126   0.05628439  0.055603292           10 
 3848000   0.63081642   -3.3608356    2602.1193  0.056352201  0.055591759            4 
 3849000   0.62450272   -3.3491278    2595.1432  0.056186525  0.055580255            4 
 3850000   0.64414647   -3.3316678    2591.0399  0.056083116   0.05556868            4 
 3851000   0.63757564   -3.3312312    2594.2618  0.056138273  0.055557156            3 
 3852000   0.63699112   -3.3314515     2596.075  0.056162924  0.055545631            7 
 3853000   0.64588043   -3.3264478    2600.1123  0.056235668  0.055534155            8 
 3854000   0.62406742    -3.319501      2595.39  0.056118968  0.055522771            9 
 3855000   0.63822313   -3.3387364    2601.9048   0.05624524   0.05551132            9 
 3856000    0.6420532   -3.3461799    2604.4033  0.056284649  0.055499876            4 
 3857000   0.63563894   -3.3418889    2596.0905  0.056090452  0.055488396            7 
 3858000   0.64718966    -3.338628    2598.8343   0.05613518  0.055476896            7 
 3859000   0.62962189   -3.3375251    2599.4321  0.056133543   0.05546541           10 
 3860000   0.63060061    -3.360509    2595.4153  0.056032282  0.055453926            9 
 3861000   0.63713145   -3.3499549    2599.3358  0.056102387  0.055442459           10 
 3862000   0.62647448     -3.34963    2593.8872  0.055970291  0.055430965            6 
 3863000   0.64492171   -3.3398508    2600.0699  0.056089177   0.05541956            9 
 3864000   0.63716506   -3.3586193    2595.8607  0.055983884  0.055408124            8 
 3865000   0.64223964   -3.3715682     2593.264  0.055913411  0.055396655            5 
 3866000   0.63551872   -3.3527824    2604.9304  0.056150424  0.055385272            6 
 3867000   0.63485439   -3.3507305    2596.3079  0.055950087  0.055373803            7 
 3868000   0.62830233    -3.360358    2603.6605  0.056094031  0.055362343            4 
 3869000   0.65488416    -3.339624    2602.8416  0.056061893  0.055350942           16 
 3870000    0.6318716   -3.3446465    2595.0656  0.055879965  0.055339598            6 
 3871000   0.63744526   -3.3399261    2605.5228  0.056090649  0.055328314            6 
 3872000   0.63783692   -3.3355189    2588.3458  0.055706479  0.055316959            9 
 3873000   0.63191729   -3.3656728     2598.675  0.055914344  0.055305586            6 
 3874000   0.62975329   -3.3491206    2606.5852  0.056070066  0.055294203            6 
 3875000   0.62828115   -3.3533812    2603.8389  0.055996536  0.055282818            8 
 3876000     0.633393   -3.3406227    2611.1021  0.056138246  0.055271432           11 
 3877000   0.63523081   -3.3629923     2599.955  0.055884167  0.055260135            7 
 3878000   0.61875543    -3.339617    2601.4408  0.055901685  0.055248834            4 
 3879000   0.63474368   -3.3648709    2607.9282  0.056026643  0.055237494           10 
 3880000   0.63091061   -3.3548385    2603.2334  0.055911371  0.055226143            6 
 3881000   0.62302351   -3.3566078    2601.7903  0.055865977  0.055214799            5 
 3882000   0.63001244   -3.3348056    2614.9475  0.056134026  0.055203442            8 
 3883000    0.6305271   -3.3730428    2602.6791  0.055856278  0.055192219           22 
 3884000   0.62674815   -3.3508626    2602.1498  0.055830539  0.055180873            6 
 3885000    0.6271194   -3.3447173    2609.8756  0.055981888  0.055169559           11 
 3886000   0.63301942   -3.3492204    2606.6337   0.05589796  0.055158181            6 
 3887000   0.61907678   -3.3523432    2607.9107  0.055910957  0.055146826            3 
 3888000   0.62988754   -3.3462945    2605.6476  0.055848071  0.055135523            4 
 3889000   0.61721205    -3.345232    2606.6355  0.055854879  0.055124313            4 
 3890000   0.62913004   -3.3478399     2611.419  0.055942995   0.05511299            8 
 3891000     0.624055   -3.3620137    2607.9511  0.055854346  0.055101542            7 
 3892000   0.61765206   -3.3409501    2606.8468  0.055816349  0.055090269            6 
 3893000   0.64228846   -3.3702712    2607.8706  0.055823927  0.055078927            8 
 3894000   0.62224357   -3.3597466    2600.6589  0.055655259  0.055067558            7 
 3895000   0.62432914   -3.3651767    2605.2251  0.055738664  0.055056159            6 
 3896000   0.62927922   -3.3719439    2601.3999  0.055642538  0.055044801           12 
 3897000   0.62525595   -3.3453969    2610.2088  0.055816628  0.055033476           22 
 3898000   0.62504719   -3.3471458     2600.387  0.055592334  0.055022048            8 
 3899000    0.6222761   -3.3665496    2612.3316  0.055833368  0.055010629           18 
 3900000   0.62538432   -3.3508808    2608.0079  0.055726664  0.054999263           13 
 3901000   0.61233619    -3.360238    2604.4597  0.055636583  0.054987931            5 
 3902000   0.61593905   -3.3586484    2610.2046  0.055745015  0.054976561            7 
 3903000   0.62111077   -3.3521761    2606.6279  0.055654367  0.054965216            5 
 3904000   0.63283512   -3.3768452    2607.3235  0.055654959   0.05495388            6 
 3905000   0.62545968   -3.3599148    2612.3313  0.055747574  0.054942562           25 
 3906000   0.63868468   -3.3389324    2605.9274  0.055596676  0.054931256            4 
 3907000   0.62986235   -3.3688022    2604.9796   0.05556223  0.054919979            7 
 3908000   0.63786839   -3.3457788    2622.9422  0.055931043  0.054908765            9 
 3909000   0.61491596   -3.3504812    2605.2094  0.055538701  0.054897447            7 
 3910000    0.6218413   -3.3744802    2606.7636  0.055557622  0.054886199            5 
 3911000   0.61970315   -3.3701473    2607.7834  0.055565146  0.054874877            5 
 3912000   0.62084187   -3.3506609    2607.5928  0.055546881  0.054863552            7 
 3913000   0.63428584   -3.3701784    2607.9482  0.055540256  0.054852266            6 
 3914000    0.6333194   -3.3681383    2613.7412  0.055649405  0.054840952            8 
 3915000   0.63445732   -3.3863095    2609.7603  0.055550454  0.054829629           14 
 3916000   0.61843606   -3.3529396    2619.2653  0.055738536  0.054818307            8 
 3917000   0.62798285   -3.3527779    2601.9123  0.055355126  0.054806933           16 
 3918000   0.63318679   -3.3783802    2605.7977  0.055423637  0.054795513            5 
 3919000   0.61546331   -3.3612596    2606.4279  0.055422896  0.054784188            5 
 3920000   0.62340712   -3.3406053    2616.9946  0.055633388  0.054772875            7 
 3921000   0.62514003   -3.3731147    2605.8726  0.055382823  0.054761549            4 
 3922000    0.6250924   -3.3685356    2617.0639  0.055606492  0.054750117            4 
 3923000   0.61469925   -3.3725448    2608.4796  0.055409967  0.054738703            7 
 3924000   0.62426183   -3.3763897    2610.9725  0.055448787  0.054727315            5 
 3925000   0.62738336   -3.3633442    2616.0069  0.055541547  0.054715964            3 
 3926000   0.62964096   -3.3659477     2604.568  0.055284599  0.054704586            8 
 3927000   0.62133578   -3.3439071    2610.3317  0.055392829  0.054693243           11 
 3928000    0.6213468   -3.3566377     2607.243    0.0553132  0.054681854            8 
 3929000   0.62456917   -3.3543405    2610.1624  0.055361043  0.054670411            6 
 3930000   0.62240329   -3.3526851    2609.3796  0.055330356  0.054659015            7 
 3931000   0.63427976   -3.3670656     2609.556   0.05532002  0.054647574            9 
 3932000    0.6183557   -3.3686138     2609.562  0.055306079   0.05463621            8 
 3933000   0.63584899   -3.3602633    2614.9583  0.055406354  0.054624826            6 
 3934000   0.62830817   -3.3675383     2606.454  0.055212125  0.054613369           12 
 3935000   0.62455946   -3.3525497    2604.0179  0.055146503   0.05460188           21 
 3936000   0.61649007   -3.3571544    2606.8209  0.055191838  0.054590372           16 
 3937000   0.63353658   -3.3564759    2612.8831  0.055306136  0.054578986            7 
 3938000   0.61843483   -3.3557996    2612.1168  0.055275877  0.054567564           11 
 3939000   0.63294206   -3.3753167    2607.8421  0.055171407  0.054556126            7 
 3940000   0.62491784   -3.3767972    2615.1026  0.055310968  0.054544691            4 
 3941000   0.61200846   -3.3894326    2603.0156  0.055041352  0.054533213            5 
 3942000   0.60837835   -3.3511467    2613.7909  0.055255176  0.054521759           17 
 3943000   0.63568435   -3.3722303    2607.5742  0.055109776  0.054510308            5 
 3944000   0.61374449   -3.3813479    2606.8371  0.055080229  0.054498844            6 
 3945000   0.61667566   -3.3731714    2604.4661  0.055016184  0.054487328            5 
 3946000   0.61627142   -3.3802517     2605.053  0.055014634  0.054475725           14 
 3947000   0.60357978   -3.3567548    2608.5965  0.055075511   0.05446418            6 
 3948000   0.62154194   -3.3799671    2608.5882  0.055061386  0.054452631            8 
 3949000   0.62332361   -3.3533358    2609.5305  0.055067328  0.054441056            6 
 3950000   0.62145186   -3.3662064    2598.6444  0.054823722  0.054429497            7 
 3951000   0.62270501   -3.3702947    2612.2968  0.055097799  0.054417993           13 
 3952000   0.61721721   -3.3893792    2610.0242  0.055035936   0.05440647            7 
 3953000    0.6089791   -3.3593442    2602.5857  0.054865201  0.054395038            4 
 3954000   0.61299037   -3.3652519    2616.4274  0.055143049  0.054383565            8 
 3955000   0.61644078   -3.3722306    2606.7298  0.054924774  0.054372106            4 
 3956000   0.62687877   -3.3934061    2608.7984  0.054954466  0.054360642            6 
 3957000   0.62661942   -3.3595253    2609.3707  0.054952631  0.054349168            5 
 3958000   0.62104492   -3.3791823    2610.4652   0.05496179  0.054337692            8 
 3959000   0.61225534   -3.3834127    2609.7206  0.054932235  0.054326223           11 
 3960000   0.62228528   -3.4157048    2606.5297  0.054851215  0.054314628           16 
 3961000   0.62100746   -3.3867795    2617.0937  0.055059616  0.054303063           12 
 3962000    0.6239945   -3.3507881    2615.8778  0.055020146  0.054291534            5 
 3963000   0.62899529   -3.3786046    2618.4019  0.055059339  0.054280066            9 
 3964000   0.62191248   -3.3530058    2616.9494  0.055014914    0.0542686            6 
 3965000   0.63113904   -3.3896058      2611.73  0.054891341   0.05425701            8 
 3966000   0.62880182   -3.3662482    2603.2312  0.054698924  0.054245454            4 
 3967000   0.62477864   -3.3773314    2606.8452  0.054761053  0.054233919            5 
 3968000   0.61610739   -3.3711018    2610.9686   0.05483385  0.054222384           12 
 3969000   0.61349183   -3.3854188    2605.0234  0.054695208  0.054210795            9 
 3970000   0.60745969    -3.378213    2609.9068  0.054783937   0.05419924           12 
 3971000   0.61400029    -3.369078    2605.2571  0.054672566  0.054187635           11 
 3972000   0.62067583   -3.3750749    2609.4423  0.054746608  0.054176037            8 
 3973000   0.62230771    -3.375698    2603.9372  0.054617359  0.054164414           13 
 3974000   0.61259128   -3.3764928    2613.2255  0.054798388  0.054152855           12 
 3975000   0.62188095     -3.37289    2608.8561     0.054693  0.054141248            6 
 3976000   0.61414728   -3.3804474    2607.7671   0.05465642  0.054129688            7 
 3977000   0.61450521    -3.375758    2611.3866  0.054718518   0.05411808           12 
 3978000    0.6137773   -3.3774852    2607.5222  0.054623809  0.054106466            5 
 3979000   0.60912563   -3.3608042     2614.181  0.054749539  0.054094913            8 
 3980000   0.61170996   -3.3645503     2609.529   0.05463838  0.054083291            7 
 3981000   0.62038996   -3.3823205    2609.9208  0.054632856  0.054071701           14 
 3982000   0.62220429   -3.3630496    2614.2807  0.054710378  0.054060144           11 
 3983000   0.60373239    -3.380809    2612.3363  0.054655961  0.054048624           22 
 3984000   0.61920036   -3.3612837    2611.3169  0.054620919  0.054037066            7 
 3985000   0.61798263   -3.3761092    2610.0169  0.054580027  0.054025428           13 
 3986000   0.61805312   -3.3859975    2602.9318   0.05441821  0.054013813            8 
 3987000   0.62354157   -3.3877991    2612.8089  0.054611005   0.05400218            9 
 3988000   0.62290782   -3.3802544    2616.9953   0.05468479  0.053990562            8 
 3989000   0.61679201    -3.390089     2615.408  0.054637921  0.053978953           12 
 3990000   0.60031608   -3.3629827    2606.9927  0.054448468  0.053967348           15 
 3991000    0.6070098   -3.3890919    2616.7323  0.054638192  0.053955772           14 
 3992000   0.61844878    -3.365465    2607.8432  0.054438945  0.053944164            4 
 3993000   0.61487213   -3.3909683     2609.447  0.054458782    0.0539326            8 
 3994000   0.61935041   -3.3838923    2607.7431  0.054409597  0.053921013            6 
 3995000   0.61974549   -3.3706041    2612.8387  0.054502267  0.053909515            9 
 3996000   0.62123961   -3.3621015    2610.5848  0.054441626  0.053897967            8 
 3997000   0.61628128   -3.3938849    2617.4118   0.05457034  0.053886469            6 
 3998000      0.61613    -3.387256    2617.0411  0.054548964  0.053875012            9 
 3999000   0.59948595   -3.3799533    2608.5237  0.054357833  0.053863417           10 
 4000000   0.60984399   -3.3825976    2615.1966  0.054483263  0.053851877           13 
 4001000   0.60604309   -3.3804622    2611.1779  0.054385943  0.053840383           14 
 4002000    0.6170279   -3.3741796    2619.5953  0.054547629  0.053828866            4 
 4003000    0.6045023   -3.3706531    2605.7441  0.054245651  0.053817378            6 
 4004000   0.60352388   -3.3835155    2611.1412  0.054344431  0.053805852            3 
 4005000   0.62082089    -3.387352    2610.7498  0.054322717  0.053794287           13 
 4006000   0.60159463   -3.3937722     2616.346   0.05442557   0.05378269           13 
 4007000   0.61457518   -3.4036041    2611.7878  0.054317191  0.053771087            6 
 4008000     0.616129   -3.3866206     2612.259  0.054313436   0.05375951            9 
 4009000   0.60608473   -3.3747524    2614.5249  0.054346987  0.053747953            5 
 4010000   0.62296292   -3.3968466    2609.0273  0.054219188  0.053736347           10 
 4011000   0.59964323   -3.4059488    2607.6911  0.054177909  0.053724732            6 
 4012000   0.59659162   -3.3967803    2610.6641  0.054226157  0.053713109           14 
 4013000   0.60606418   -3.4019699    2607.9069  0.054155388  0.053701517            9 
 4014000   0.59524338   -3.3812958    2611.7364  0.054221401  0.053690015            6 
 4015000   0.59426775   -3.3995182    2620.2073  0.054383713  0.053678473            9 
 4016000    0.6216149   -3.3873178    2619.6821  0.054359273  0.053666945            7 
 4017000   0.59130012   -3.3954819    2612.3474  0.054193581  0.053655464           10 
 4018000   0.60510126   -3.4010578    2618.3842  0.054305297  0.053644017            7 
 4019000   0.61323405   -3.3757956    2620.2071  0.054329583  0.053632613            5 
 4020000   0.61021673   -3.3830772    2611.6435  0.054138548  0.053621126            7 
 4021000   0.62675822   -3.3906481    2621.0589  0.054320213  0.053609703           10 
 4022000   0.60685957    -3.372382    2621.8652  0.054323413  0.053598254            5 
 4023000   0.61906595    -3.399669    2624.8579  0.054371901  0.053586774           10 
 4024000   0.60133689   -3.3787103    2618.7523  0.054231947  0.053575358           20 
 4025000   0.60427746   -3.3916101    2617.9995  0.054202888  0.053563942            9 
 4026000    0.6016793   -3.4118243    2616.9391  0.054167475  0.053552391            3 
 4027000   0.61318303   -3.3747333    2615.9639  0.054133844  0.053540881            5 
 4028000   0.62352822   -3.3996173    2620.5451  0.054215183  0.053529433           13 
 4029000   0.61338784    -3.385015    2615.0436  0.054087936   0.05351799            5 
 4030000    0.6103463   -3.4005287     2617.816  0.054131845  0.053506539            7 
 4031000   0.59519256   -3.3769342    2622.2458  0.054209994  0.053495092            9 
 4032000    0.6108025   -3.3899815    2620.0446  0.054151054  0.053483662            6 
 4033000   0.60306577   -3.3853035    2618.5003  0.054105716  0.053472246            7 
 4034000   0.60614531    -3.403893    2621.1088   0.05414619  0.053460733            6 
 4035000   0.60468113   -3.4009303    2620.0084  0.054110046    0.0534493            5 
 4036000   0.59842024   -3.4036289    2615.8884   0.05401157  0.053437783            8 
 4037000   0.60071973   -3.3982557    2619.4756  0.054072239  0.053426338           13 
 4038000   0.59252752   -3.3967093    2619.3873  0.054057027  0.053414898            4 
 4039000   0.62011455   -3.4038577    2622.8465  0.054115014  0.053403433           11 
 4040000   0.60549984   -3.4070317    2624.3363  0.054132349  0.053392014            8 
 4041000   0.60109997   -3.3988464    2623.3545  0.054098708  0.053380653           11 
 4042000   0.61097619   -3.3857926    2627.1782  0.054164155  0.053369235            5 
 4043000   0.60865428   -3.3802987    2622.3288  0.054050804  0.053357873            4 
 4044000   0.60242543    -3.406887    2624.4112   0.05408035  0.053346434            6 
 4045000   0.60969199   -3.3990442    2617.7861  0.053930492  0.053335035            8 
 4046000   0.60822066   -3.4084763    2615.7745  0.053875731  0.053323567           16 
 4047000   0.59786109    -3.404799    2624.2093  0.054036102  0.053312101           11 
 4048000   0.61180189   -3.3848934    2625.0934  0.054040955   0.05330072            9 
 4049000   0.60538146   -3.4116679    2622.5568  0.053975401  0.053289265           12 
 4050000   0.60952767   -3.4120358    2616.9611  0.053846936   0.05327776           11 
 4051000   0.61141645   -3.3833089    2614.9051   0.05379135  0.053266336            9 
 4052000   0.59424093   -3.3916292    2614.3223  0.053766088  0.053254887            3 
 4053000   0.59964927   -3.3992413    2613.5433  0.053736805  0.053243398            7 
 4054000   0.60840077   -3.4093628    2623.6273  0.053930835  0.053231976            8 
 4055000   0.60862028   -3.3950944     2626.383  0.053974167  0.053220528            6 
 4056000   0.59892781   -3.4073603    2624.5706  0.053923623  0.053209124            7 
 4057000   0.60407805   -3.4053475    2623.3768  0.053885811  0.053197642            7 
 4058000   0.60652621   -3.3805525    2620.0296  0.053803795  0.053186219            8 
 4059000   0.60668242   -3.4100294    2614.2035  0.053670927  0.053174797           13 
 4060000   0.61047976    -3.394454    2613.4447  0.053642132  0.053163319            7 
 4061000   0.61973271   -3.4003079     2622.434  0.053813387  0.053151825           15 
 4062000   0.59643425   -3.3945365    2622.1381  0.053794069  0.053140275           13 
 4063000   0.59411226   -3.4021364    2615.8679  0.053652226  0.053128804            7 
 4064000   0.60378601   -3.4049411    2627.2928  0.053873295  0.053117301            5 
 4065000   0.60650908   -3.3988305    2619.4728   0.05369973   0.05310585            5 
 4066000   0.60509951    -3.424637     2619.785  0.053692921  0.053094307            8 
 4067000   0.59836624   -3.4188336    2614.1414  0.053564081  0.053082756            7 
 4068000     0.597442   -3.3800546    2620.1658  0.053674325  0.053071276            5 
 4069000   0.59866779   -3.3860933    2624.5868  0.053751675  0.053059872            3 
 4070000   0.59598967   -3.4072659     2624.959  0.053746089  0.053048484            7 
 4071000   0.60861577   -3.4079279    2619.8255  0.053627805  0.053037092           10 
 4072000   0.60965279   -3.3841077    2627.4149  0.053769952  0.053025745            7 
 4073000   0.59681952   -3.4165461    2627.8817  0.053766301  0.053014397           10 
 4074000   0.61106479   -3.4107707    2622.9756   0.05365275  0.053003016           22 
 4075000   0.59418529   -3.3870178    2629.0743    0.0537643  0.052991661            5 
 4076000   0.60667561    -3.390098    2626.3382  0.053695171  0.052980302            7 
 4077000   0.59824019   -3.4004288    2616.0017  0.053470724  0.052968954            6 
 4078000   0.59696024   -3.4122448    2628.5482  0.053713998  0.052957547            7 
 4079000   0.60484211   -3.3982865    2617.9034  0.053483358  0.052946231           11 
 4080000   0.60050793   -3.4128167    2621.9657   0.05355322  0.052934794           11 
 4081000   0.58079306   -3.4137896    2629.2091  0.053688007  0.052923374            5 
 4082000   0.59882922   -3.4147128    2624.4372  0.053577438  0.052911971            7 
 4083000   0.59567863   -3.4222722    2626.5363  0.053607159  0.052900592           19 
 4084000   0.61192116   -3.4113808    2628.2251  0.053628492  0.052889166            7 
 4085000   0.59673517   -3.4012942    2630.8419  0.053668745  0.052877736           10 
 4086000   0.59178172   -3.4055936    2626.5856  0.053568805  0.052866366            7 
 4087000   0.59108161   -3.3854341    2620.0526   0.05342249  0.052855048           13 
 4088000    0.5986939   -3.4179306    2619.7395  0.053403039  0.052843683            9 
 4089000   0.58840954    -3.397672    2637.6595  0.053755186  0.052832296            6 
 4090000    0.6033443   -3.4080913    2626.3545  0.053511706  0.052820904            7 
 4091000   0.60893084   -3.4116681    2621.0402  0.053390374   0.05280953           10 
 4092000   0.60781239   -3.3992699    2630.6089  0.053572192   0.05279817           13 
 4093000   0.60258009   -3.4016984    2622.4339   0.05339266  0.052786807           14 
 4094000   0.58954747    -3.417986    2625.1219  0.053434332  0.052775441           13 
 4095000   0.60522644   -3.4191651    2625.5628  0.053430257  0.052764058            5 
 4096000   0.58524538   -3.4076594    2620.5625   0.05331548  0.052752614           12 
 4097000    0.6032584   -3.3963443    2621.3331  0.053318141  0.052741212           10 
 4098000   0.59481767   -3.3931411    2629.5624  0.053472475   0.05272976           10 
 4099000   0.58618602   -3.3969195    2627.2327  0.053412065  0.052718392           14 
 4100000   0.58543938   -3.3970732    2634.4054  0.053544824  0.052707101            4 
 4101000   0.58626067   -3.3995029    2625.5687  0.053352204  0.052695722           10 
 4102000   0.59516502   -3.3994585    2623.9129   0.05330556  0.052684313            6 
 4103000   0.57965938   -3.4064728    2627.9849  0.053375272  0.052672911           15 
 4104000   0.59771908   -3.4209379    2625.8728   0.05331938  0.052661528           14 
 4105000   0.58523661   -3.4235682    2616.6474  0.053119111  0.052650077           11 
 4106000    0.5910092   -3.4097656    2621.5973  0.053206635  0.052638621           11 
 4107000   0.58965432   -3.4077072    2630.9784  0.053384027  0.052627237            6 
 4108000   0.58778575   -3.4175375    2638.2863  0.053519276  0.052615906            5 
 4109000   0.60726417   -3.4446994     2629.305  0.053324105  0.052604582            9 
 4110000   0.59620752   -3.4015364    2628.0753  0.053286199  0.052593252            7 
 4111000   0.59208927   -3.4125263    2626.1403  0.053234013  0.052581924            7 
 4112000   0.59251544   -3.4172449     2629.772  0.053294667   0.05257055           13 
 4113000   0.59285305   -3.4025093    2622.6531  0.053137473  0.052559174           10 
 4114000   0.59242967   -3.4148134    2625.5922   0.05318409  0.052547831           12 
 4115000   0.60289562   -3.4067549    2625.9969  0.053179363  0.052536467            5 
 4116000     0.588621   -3.4210999    2627.3619  0.053194078  0.052525144           14 
 4117000   0.59808427   -3.4122288    2628.3638  0.053201438  0.052513759            5 
 4118000   0.57603802   -3.4225352    2629.5946  0.053213426  0.052502427           12 
 4119000   0.59576414   -3.4336327    2624.2867   0.05309312  0.052491145            6 
 4120000   0.60028492   -3.4185545    2628.6503  0.053168493   0.05247985            4 
 4121000   0.59486658   -3.4038955    2631.6855  0.053216968  0.052468549            6 
 4122000   0.59804064   -3.4207339    2634.1684  0.053254254  0.052457297            8 
 4123000    0.5884593   -3.4241762    2628.2375  0.053121462  0.052446024            9 
 4124000   0.59789876   -3.4039958     2633.583  0.053216599  0.052434727            6 
 4125000   0.58215995   -3.4211025    2628.0511  0.053091942  0.052423399           10 
 4126000   0.59953442   -3.4191167    2629.4704  0.053107739  0.052412106            9 
 4127000   0.59339753   -3.4140215    2625.7549  0.053019847  0.052400774           11 
 4128000   0.59562877   -3.4247916    2637.5476  0.053245066  0.052389436            5 
 4129000   0.59847752   -3.4384446    2630.5488  0.053090919  0.052378116            9 
 4130000   0.60968161   -3.4052969    2641.2675   0.05329434  0.052366871           25 
 4131000   0.58674825   -3.4225382    2636.3775  0.053182795  0.052355631            7 
 4132000   0.59806175   -3.4348836    2625.4096  0.052948726  0.052344317            7 
 4133000   0.59262589   -3.4283953    2631.6578  0.053061896  0.052332996            9 
 4134000   0.59097943   -3.4111725    2634.6841  0.053110065  0.052321748           12 
 4135000   0.59048434   -3.4153943    2631.3392   0.05302981  0.052310522           11 
 4136000   0.57557182   -3.3997697    2638.8011  0.053167334  0.052299218           13 
 4137000   0.58584218   -3.4252462    2626.6763  0.052910247  0.052287946           10 
 4138000   0.58237515   -3.4237335    2629.4634  0.052953588  0.052276699           10 
 4139000   0.58492836   -3.3998925    2627.1078  0.052893368  0.052265504            9 
 4140000    0.5806621   -3.4237439    2629.5915  0.052930585   0.05225424            6 
 4141000   0.59032401   -3.4153024    2637.5202  0.053077361  0.052242954           11 
 4142000   0.58493702   -3.4033253    2633.4906  0.052983474  0.052231732            8 
 4143000   0.59316653   -3.4188822    2628.7044  0.052874415  0.052220444            7 
 4144000   0.58788539   -3.4336716    2629.9454  0.052886611  0.052209212            8 
 4145000   0.58762487   -3.4027765    2638.5285  0.053046411  0.052197971           10 
 4146000   0.59441619   -3.4168028     2626.762  0.052797114  0.052186722           19 
 4147000   0.58764895   -3.4204879    2629.7772  0.052844972  0.052175427           10 
 4148000   0.57530874   -3.4128507    2630.8638  0.052854062  0.052164165           11 
 4149000   0.59378612   -3.4125072    2635.7002  0.052938464  0.052152872           12 
 4150000   0.58342436   -3.4208406    2636.3128  0.052938008  0.052141588           10 
 4151000   0.58363974   -3.4226136    2634.1779  0.052882395  0.052130341           11 
 4152000   0.58866777   -3.4181791    2638.2127  0.052950641  0.052119135            7 
 4153000   0.57936295   -3.4146667    2641.3104  0.053000047  0.052107812           17 
 4154000   0.57729039   -3.4434743    2624.9077  0.052658234  0.052096452           11 
 4155000   0.58709219   -3.4070358    2628.6361  0.052720339  0.052085167            6 
 4156000   0.59366233   -3.4161383    2638.2964  0.052901355  0.052073861            9 
 4157000   0.59540335   -3.4405559    2635.3693  0.052829951   0.05206257           12 
 4158000   0.57912006   -3.4150968    2634.6959   0.05280375  0.052051245            7 
 4159000   0.58233468   -3.4155653    2631.7763  0.052732555  0.052039974            5 
 4160000   0.58041779     -3.42229    2634.7459  0.052779365  0.052028729            9 
 4161000   0.58526223   -3.4191107    2634.8927  0.052769621  0.052017457            5 
 4162000   0.58439647   -3.4196766    2638.0847  0.052820853  0.052006183            5 
 4163000     0.593552   -3.4325918    2625.6241  0.052558734  0.051994877            6 
 4164000     0.591038   -3.4199873     2633.408   0.05270189  0.051983541            6 
 4165000   0.57291552   -3.4301016    2636.8704  0.052758511  0.051972238           17 
 4166000   0.59159561   -3.4302786    2633.9979  0.052688388  0.051960942            9 
 4167000   0.57823244   -3.4316732    2629.3171  0.052582135  0.051949642           11 
 4168000   0.58390735   -3.4231104     2634.047  0.052664088  0.051938352           10 
 4169000    0.5794323   -3.4314435    2628.2182  0.052534945  0.051927146            6 
 4170000   0.58862016   -3.4409834     2631.428  0.052586491   0.05191587            5 
 4171000   0.59772506   -3.4394887    2634.0298  0.052625865  0.051904611            8 
 4172000   0.59416199   -3.4276381    2637.3856  0.052680281  0.051893362           11 
 4173000   0.59398361   -3.4398868    2635.8815   0.05263762  0.051882101            6 
 4174000   0.58477843   -3.4198713    2639.4778   0.05269681  0.051870913            4 
 4175000   0.59439282   -3.4311009    2636.9423  0.052633579  0.051859706           26 
 4176000   0.58189728   -3.4193535    2636.1423  0.052605011  0.051848492            6 
 4177000   0.58553138   -3.4296335    2636.2529  0.052594624  0.051837307            8 
 4178000   0.58186567   -3.4324207    2638.8035  0.052632908  0.051826075           22 
 4179000   0.58876143   -3.4284378    2632.7291  0.052499185  0.051814842           18 
 4180000   0.58416021   -3.4258937    2637.9847  0.052591402  0.051803618            7 
 4181000   0.58075449   -3.4141657    2639.1427  0.052601903  0.051792371           10 
 4182000   0.57681667   -3.4241505    2635.4883  0.052516504  0.051781168            8 
 4183000    0.5768357   -3.4225064    2637.4208  0.052542449  0.051769925           14 
 4184000   0.58400669   -3.4394441    2639.0291  0.052561925  0.051758686            8 
 4185000   0.59166401   -3.4464582    2638.1962  0.052532781  0.051747477            8 
 4186000   0.59056207   -3.4302495    2633.5022  0.052426785  0.051736175            5 
 4187000   0.58003454   -3.4310487    2629.1108  0.052326862  0.051724914            9 
 4188000   0.58249568    -3.443288    2637.1984  0.052475294  0.051713634            9 
 4189000    0.5810463   -3.4393731    2642.2838  0.052563934  0.051702413            7 
 4190000   0.57412541   -3.4545107    2636.9329  0.052444967  0.051691186            4 
 4191000   0.58779582   -3.4409345    2635.7868  0.052409664   0.05167991           13 
 4192000   0.57660935   -3.4253104    2634.6214  0.052373995  0.051668711            7 
 4193000   0.57711425   -3.4479594    2632.2397  0.052314169  0.051657459            6 
 4194000   0.56827264   -3.4386762     2637.449  0.052405201  0.051646114            6 
 4195000   0.56885181   -3.4315838    2637.0563  0.052384908   0.05163486            8 
 4196000   0.57429791   -3.4367664    2634.2799  0.052317285   0.05162355            5 
 4197000   0.58650901   -3.4369649    2640.0151  0.052418695  0.051612287            7 
 4198000   0.56278383   -3.4357631    2631.4091  0.052235372  0.051601028            6 
 4199000    0.5816548   -3.4479026    2638.8727  0.052371054  0.051589758           13 
 4200000   0.58573234    -3.430606    2638.9666  0.052360449  0.051578581           11 
 4201000   0.57092916   -3.4566918    2642.2879  0.052413867  0.051567346            6 
 4202000   0.58274729   -3.4381781    2641.4558  0.052384892  0.051556171            6 
 4203000   0.58033827   -3.4573114    2638.2859  0.052309578  0.051544914            5 
 4204000   0.59568086   -3.4541951    2641.0803  0.052352527  0.051533634           13 
 4205000    0.5852987   -3.4323195    2639.6969  0.052312661  0.051522365           17 
 4206000   0.56961391   -3.4188331    2640.4623  0.052315389  0.051511176            6 
 4207000   0.58435051   -3.4398808    2633.5935  0.052166895  0.051499971            5 
 4208000   0.57051301   -3.4383545    2636.6065  0.052214165  0.051488718           21 
 4209000   0.58225468   -3.4285457    2633.8011  0.052146217  0.051477453           15 
 4210000   0.58329724    -3.430304    2639.3193  0.052243058  0.051466229           12 
 4211000   0.57371419   -3.4613567    2630.3143  0.052052448  0.051454869            4 
 4212000   0.57436191   -3.4400582    2640.9003  0.052249531  0.051443535            5 
 4213000   0.58190541   -3.4376981    2638.0163  0.052180083  0.051432262            7 
 4214000   0.57606377   -3.4251671    2638.4129  0.052175545  0.051421022           14 
 4215000   0.56396734   -3.4604245    2637.1361  0.052137922  0.051409838           11 
 4216000   0.58635868   -3.4244252    2641.2381  0.052206635  0.051398622            9 
 4217000   0.57458435   -3.4373672    2635.4316  0.052079512  0.051387439            7 
 4218000   0.56412159   -3.4278761    2642.7335  0.052211425  0.051376165           11 
 4219000   0.58245061   -3.4472031    2637.6248  0.052098144  0.051364953            7 
 4220000   0.58012086   -3.4404296    2637.8102   0.05208946  0.051353759            8 
 4221000   0.57656047   -3.4403396      2637.96  0.052080075  0.051342511           14 
 4222000   0.57439474   -3.4560016    2632.2037  0.051954123  0.051331263           11 
 4223000   0.57544816   -3.4464077    2637.8318  0.052052882  0.051320043            4 
 4224000   0.57768222   -3.4400442     2638.032  0.052044508  0.051308835            4 
 4225000   0.56535857   -3.4425079     2634.859  0.051969606  0.051297661           13 
 4226000   0.56266352   -3.4380115    2633.8177  0.051936775  0.051286418            8 
 4227000   0.57521633   -3.4566694     2638.049  0.052007905  0.051275095            7 
 4228000   0.57689239   -3.4307429    2643.4216  0.052101499  0.051263901            9 
 4229000   0.56489386   -3.4447387     2635.224  0.051927643  0.051252689            8 
 4230000   0.57929949    -3.454891    2633.8748  0.051888787  0.051241426           11 
 4231000   0.57756474   -3.4452134    2639.6773  0.051990808  0.051230207            9 
 4232000   0.57011138   -3.4379461    2632.8996  0.051845061  0.051218918            7 
 4233000   0.58675228   -3.4685401    2637.2785  0.051919019  0.051207651           10 
 4234000   0.57052557   -3.4421902    2637.8713  0.051918424  0.051196407            6 
 4235000   0.58069588   -3.4641512    2643.7854  0.052022539  0.051185107           10 
 4236000   0.57490541   -3.4330926    2638.3365  0.051903063  0.051173829           13 
 4237000   0.59186353   -3.4399894    2637.2124  0.051868703  0.051162595           17 
 4238000   0.56975199    -3.449461    2637.5111  0.051862339  0.051151324           12 
 4239000   0.57438756   -3.4533219    2635.0186  0.051801104  0.051140082           15 
 4240000   0.56674571   -3.4329588    2637.4891  0.051837443  0.051128833            8 
 4241000    0.5706749   -3.4541567    2636.9578   0.05181478   0.05111754            6 
 4242000   0.56912395   -3.4276165    2635.9981  0.051783712  0.051106279            8 
 4243000   0.57324723   -3.4443351    2635.8368   0.05176834  0.051095137           12 
 4244000   0.56354444   -3.4434234    2633.6771  0.051713736  0.051083913           15 
 4245000   0.57277288   -3.4325931    2639.6738  0.051819274  0.051072655           11 
 4246000   0.57170385    -3.459372    2631.6694  0.051649972  0.051061344            7 
 4247000   0.56570364   -3.4313786    2643.0595  0.051861303  0.051050082            9 
 4248000   0.57205083   -3.4574698    2646.3076  0.051912813  0.051038818            6 
 4249000   0.57167968   -3.4536757    2642.0199  0.051816504  0.051027611           11 
 4250000   0.56930363   -3.4411499    2634.0647  0.051648327  0.051016363           12 
 4251000   0.57002429   -3.4505271    2638.9602  0.051732145  0.051005098           27 
 4252000   0.56211799   -3.4466189    2639.5152  0.051730856  0.050993857           11 
 4253000   0.58557072   -3.4500608    2637.6941   0.05168301  0.050982652            6 
 4254000   0.56375454   -3.4388519     2642.714  0.051769197  0.050971482            9 
 4255000   0.55680175   -3.4507292    2638.4705  0.051673922  0.050960264            6 
 4256000   0.56169279   -3.4405211     2636.804  0.051629152  0.050949005           12 
 4257000   0.56480802   -3.4448364    2633.8291  0.051558787  0.050937791           16 
 4258000   0.57959171   -3.4464965     2633.722  0.051544583  0.050926583           14 
 4259000   0.57885454   -3.4445148    2645.1991  0.051757046  0.050915371            5 
 4260000   0.57679504   -3.4329304    2649.6258   0.05183149  0.050904202            8 
 4261000   0.58078897   -3.4361987    2641.4601  0.051659627  0.050892994            9 
 4262000   0.56763454   -3.4470348    2640.4785  0.051628315  0.050881823            8 
 4263000   0.58081441   -3.4476494    2639.8032  0.051603003  0.050870546            9 
 4264000   0.55642634   -3.4465059    2638.7172  0.051569676  0.050859309           13 
 4265000   0.56769078   -3.4312085    2639.5396  0.051573654  0.050848114           10 
 4266000   0.57297334   -3.4635842    2636.1675  0.051495692  0.050836903           10 
 4267000   0.56180672   -3.4508862    2645.7512  0.051670792  0.050825729           10 
 4268000   0.56541925   -3.4537338    2643.7266  0.051619154  0.050814557           12 
 4269000   0.56263948   -3.4649186    2644.1503  0.051615334  0.050803394           10 
 4270000   0.55630904   -3.4676167    2647.0072  0.051659002  0.050792175           14 
 4271000   0.56025589   -3.4524116    2638.5785   0.05148245  0.050780967            6 
 4272000   0.56811391   -3.4683733    2643.8433  0.051573098  0.050769705            5 
 4273000    0.5679589   -3.4564458    2646.0004  0.051603097  0.050758462           11 
 4274000   0.57922914   -3.4680419    2638.1975  0.051438884  0.050747211           15 
 4275000   0.56471801   -3.4675391    2636.3978  0.051391771  0.050736053            5 
 4276000   0.57522722   -3.4632867    2641.0073  0.051469584  0.050724837            4 
 4277000   0.57124404   -3.4387645    2647.5043  0.051584137  0.050713651            8 
 4278000   0.55637072   -3.4574208    2640.7068  0.051439668  0.050702448            9 
 4279000   0.58304629   -3.4706311    2642.3829  0.051460289  0.050691201           18 
 4280000   0.56969523   -3.4770998    2636.5846   0.05133537  0.050679972           11 
 4281000   0.56745173   -3.4483065    2641.6841  0.051422645  0.050668708           19 
 4282000   0.55700389   -3.4570881    2643.4543  0.051445085  0.050657457           25 
 4283000   0.55731509   -3.4617895    2635.9924   0.05128789  0.050646218            4 
 4284000    0.5678121   -3.4609012    2645.9133  0.051468902   0.05063493            7 
 4285000   0.56694998   -3.4679318    2647.5525  0.051488769  0.050623687            6 
 4286000   0.57120645   -3.4558581    2648.8431  0.051501849  0.050612468            6 
 4287000   0.56547543   -3.4653406    2646.2495   0.05143942  0.050601178            9 
 4288000   0.55774445   -3.4688451    2644.4131  0.051391734  0.050589992            8 
 4289000   0.55770825   -3.4766933    2640.3327  0.051300473  0.050578738           15 
 4290000   0.58500573   -3.4828559    2641.1922   0.05130521  0.050567466           19 
 4291000   0.55739443   -3.4492059     2639.036  0.051251379  0.050556214            5 
 4292000    0.5635444   -3.4538159    2645.6187  0.051367247  0.050544949            7 
 4293000   0.56134622   -3.4588225    2640.8836  0.051263366  0.050533726           11 
 4294000   0.57354326   -3.4560449    2636.4325  0.051165045  0.050522524            8 
 4295000   0.56073903    -3.460774    2643.1435  0.051283344  0.050511274            7 
 4296000   0.56225531   -3.4496986    2643.3892  0.051276171  0.050500044            8 
 4297000   0.56628947   -3.4766991    2645.1225  0.051297853  0.050488858            9 
 4298000   0.56050876   -3.4652107    2651.9804  0.051418884  0.050477708            6 
 4299000   0.57105186    -3.464339    2640.2885  0.051180285  0.050466543           25 
 4300000   0.56007853   -3.4801198    2637.0415  0.051105456  0.050455353           11 
 4301000   0.54402116   -3.4846953    2646.2069  0.051271156  0.050444063            6 
 4302000   0.55761038   -3.4555647    2648.7957  0.051309385  0.050432825            7 
 4303000   0.55813731   -3.4659329    2645.9507  0.051242363  0.050421632            5 
 4304000   0.57010381   -3.4767817      2645.03  0.051212632  0.050410414           17 
 4305000   0.55611573   -3.4632015    2645.2705  0.051205392  0.050399225           20 
 4306000   0.57297237   -3.4599788    2644.3595  0.051175868  0.050388036           12 
 4307000   0.56283898   -3.4733879    2638.1401  0.051043651  0.050376789            7 
 4308000   0.56279064    -3.453384    2649.9565  0.051260377  0.050365577           10 
 4309000   0.57519848   -3.4700638    2639.8407  0.051052848  0.050354387           11 
 4310000   0.56470259   -3.4720692    2646.3449  0.051166761  0.050343181           10 
 4311000   0.55394427   -3.4840123    2647.8479  0.051183945  0.050332058            5 
 4312000   0.54830123   -3.4583555    2645.0225  0.051117473   0.05032091           17 
 4313000   0.55890332    -3.484557    2648.8525  0.051179622  0.050309826            7 
 4314000   0.56259341    -3.473614    2647.4701  0.051141054  0.050298694           11 
 4315000   0.56988553   -3.4854254    2650.7409  0.051192369   0.05028754            9 
 4316000   0.56838536   -3.4631125     2644.999  0.051069645  0.050276413            5 
 4317000   0.56850513   -3.4648381    2648.7226  0.051129693  0.050265254           16 
 4318000   0.56024822   -3.4548611    2644.9511  0.051045066  0.050254103            9 
 4319000   0.54927502   -3.4691402    2650.4408  0.051139168  0.050242921           10 
 4320000   0.56141616   -3.4599528    2648.3397  0.051086799  0.050231815           19 
 4321000   0.56110366   -3.4742007    2649.0225  0.051088146   0.05022068            6 
 4322000   0.57222621   -3.4793845    2648.0927  0.051058397  0.050209531           10 
 4323000   0.55901245    -3.472556    2642.3374  0.050935643  0.050198374           16 
 4324000   0.55734554   -3.4594347    2648.3025  0.051038824  0.050187289            9 
 4325000   0.56651741   -3.4570827    2644.3704  0.050951261  0.050176155           14 
 4326000   0.56592663   -3.4581802      2646.89  0.050988018  0.050165043           17 
 4327000   0.54102184   -3.4461873    2650.2317  0.051040592  0.050153957            6 
 4328000   0.56252567   -3.4710564    2644.8551  0.050925275  0.050142953            3 
 4329000   0.56130943   -3.4737761    2646.4993  0.050945162  0.050131832           10 
 4330000   0.54484958   -3.4721007    2644.7983   0.05090066  0.050120713           11 
 4331000   0.55616903   -3.4817886    2646.3689  0.050919128  0.050109592           13 
 4332000   0.55842855   -3.4815953    2648.1052  0.050940774  0.050098435            9 
 4333000    0.5476532   -3.4616849    2651.7973  0.051000026  0.050087323            9 
 4334000   0.55433893   -3.4852242    2640.5353  0.050771713  0.050076109            8 
 4335000   0.56427339   -3.4613174    2646.4096  0.050872927  0.050064914            9 
 4336000   0.55342855   -3.4658317    2647.2756  0.050877837  0.050053789           14 
 4337000   0.56190583   -3.4910984    2648.8162  0.050895707  0.050042621           10 
 4338000   0.55969682   -3.4791034    2646.4983  0.050839447  0.050031484            7 
 4339000   0.55475334   -3.4830884    2646.6833  0.050831285  0.050020364           13 
 4340000   0.55805088   -3.4752279    2644.3829  0.050775402  0.050009172           12 
 4341000   0.54586146   -3.4746237    2651.7048  0.050904262   0.04999809            7 
 4342000   0.54819764   -3.4891471    2646.1552  0.050786028  0.049986934           12 
 4343000   0.55533579   -3.4885789    2656.8239  0.050979046  0.049975786           13 
 4344000   0.56030768   -3.4887753    2647.1941  0.050782575  0.049964686            6 
 4345000   0.55613526   -3.4658314    2645.1488   0.05073166  0.049953599           15 
 4346000   0.56027047   -3.4775576    2657.7469  0.050961554    0.0499425            6 
 4347000   0.54541746   -3.4656448    2651.1795  0.050823931  0.049931421            8 
 4348000   0.55746349    -3.467189    2652.8167  0.050843619  0.049920364           10 
 4349000   0.55942423   -3.4864486    2649.2258  0.050763122  0.049909258           16 
 4350000   0.55209161   -3.4827486    2646.2394   0.05069424   0.04989813            6 
 4351000   0.53689406   -3.4930627    2648.6704  0.050729149  0.049887021            6 
 4352000   0.54229757   -3.4889923    2648.9948  0.050723705  0.049875862           13 
 4353000   0.56673875   -3.4755429    2645.9438  0.050653644  0.049864772           12 
 4354000   0.54800342   -3.4893366    2648.2608  0.050686358  0.049853718           11 
 4355000   0.55013848   -3.4906637    2652.0774  0.050747749  0.049842624           13 
 4356000   0.55370736   -3.5035064    2644.2373  0.050586113  0.049831473            5 
 4357000   0.55386098   -3.4801425    2646.9022  0.050625473  0.049820373           13 
 4358000   0.55323013   -3.4645738    2649.6986  0.050667328  0.049809299            9 
 4359000   0.55647571   -3.4872621    2645.9574  0.050584182  0.049798218           11 
 4360000   0.55128569   -3.4690558    2648.9115  0.050629042  0.049787093            6 
 4361000   0.55558222   -3.4720828    2652.2021  0.050680312  0.049775968           15 
 4362000   0.55304165   -3.4767014    2649.7641  0.050622117  0.049764843            4 
 4363000   0.55195568   -3.4811703    2651.1389  0.050636773  0.049753729            9 
 4364000    0.5622516    -3.487884    2648.5227  0.050575211  0.049742663           10 
 4365000   0.54411767   -3.4892262    2648.1599    0.0505567  0.049731536           10 
 4366000   0.55249462   -3.4818095    2648.2245  0.050546352  0.049720422            4 
 4367000   0.56137715   -3.4527238    2652.7285  0.050620726  0.049709381           13 
 4368000   0.55859294   -3.4812106    2649.9444  0.050556021  0.049698342            8 
 4369000   0.55571376   -3.4794893    2648.0378  0.050508083   0.04968722            5 
 4370000   0.55508494    -3.504281    2650.7349  0.050547957  0.049676071           16 
 4371000   0.54612482   -3.5064017    2649.1124  0.050505461  0.049664913           26 
 4372000   0.54767993   -3.4882049    2643.8022  0.050392692  0.049653775           11 
 4373000   0.54146913   -3.4950838    2639.9493  0.050307747  0.049642616           16 
 4374000   0.55569569   -3.4902221    2647.7811  0.050445456  0.049631483           13 
 4375000   0.56233397   -3.4699276    2645.6097  0.050392565  0.049620398           10 
 4376000   0.55642814   -3.4862902     2652.323  0.050508894   0.04960923            9 
 4377000    0.5562507   -3.4817436    2649.0268  0.050434597  0.049598114           10 
 4378000   0.55358986   -3.4702087    2648.9004  0.050420672  0.049587043            8 
 4379000   0.54953949   -3.4895374    2650.1525  0.050432985  0.049576019           11 
 4380000    0.5500088    -3.491399    2645.7483  0.050337677  0.049564945           18 
 4381000   0.54583515   -3.4899443    2655.6235  0.050514028    0.0495539           12 
 4382000    0.5575847   -3.4891868    2654.0318  0.050472232  0.049542858           12 
 4383000   0.54043051   -3.4872661    2652.4094   0.05042987  0.049531817            8 
 4384000   0.55559275   -3.4820337    2657.7582  0.050520038  0.049520822           10 
 4385000   0.53512073   -3.4884927    2656.8508  0.050491273  0.049509848            9 
 4386000   0.54924421   -3.4909139    2650.6163  0.050361306  0.049498909            6 
 4387000   0.56094442   -3.4901763    2648.9083  0.050317383  0.049487908           14 
 4388000   0.55260434   -3.4899637    2651.3721  0.050352706  0.049476881            8 
 4389000   0.53933987   -3.4845293    2651.5092  0.050343837  0.049465926            7 
 4390000    0.5435307   -3.4849874    2657.8092  0.050451959   0.04945498           10 
 4391000   0.54815737   -3.4922637    2654.4887  0.050377452  0.049444021            7 
 4392000   0.54862254   -3.4880864    2660.3795  0.050477753  0.049433097            5 
 4393000   0.54373134     -3.50407    2649.6516  0.050262759   0.04942214           10 
 4394000   0.55341628   -3.4760962    2647.8717  0.050217563  0.049411164            7 
 4395000     0.557871   -3.4647181    2656.5546  0.050370773  0.049400259           11 
 4396000   0.53778439   -3.4916954    2660.8912  0.050441522  0.049389376            7 
 4397000   0.54165335   -3.4988953    2651.1629  0.050245677  0.049378438           15 
 4398000   0.54552858   -3.4982543    2656.2534  0.050330707  0.049367529           11 
 4399000   0.55737118   -3.4874267    2653.1059   0.05025964  0.049356623            7 
 4400000   0.55258754   -3.4829267    2651.4404  0.050216674    0.0493457            7 
 4401000   0.54687083    -3.478096    2658.5254  0.050339418   0.04933476            8 
 4402000   0.55028047   -3.5025925    2656.4301  0.050288318   0.04932386           17 
 4403000   0.53735946   -3.5062221    2662.7444  0.050396404  0.049312966           10 
 4404000   0.54791199   -3.4791925    2655.0131  0.050238667  0.049302075            8 
 4405000   0.53880033   -3.4965983     2662.806  0.050374689  0.049291176            7 
 4406000   0.54869474   -3.4900632    2657.8145  0.050268848  0.049280239           16 
 4407000   0.54362505   -3.5071724    2653.2811  0.050171717  0.049269305            8 
 4408000   0.54262669   -3.4932807     2657.362  0.050237485   0.04925837            9 
 4409000   0.54380946   -3.5077173    2664.4289   0.05035966  0.049247415            5 
 4410000   0.54858796   -3.4879251    2663.9095  0.050338426  0.049236524           25 
 4411000   0.54350753   -3.5136715    2661.3965  0.050279538  0.049225644           12 
 4412000   0.53963645   -3.4736412    2661.3255  0.050266801   0.04921474           16 
 4413000   0.54105901   -3.4687968    2662.4793  0.050277197  0.049203899           13 
 4414000   0.54754713   -3.4985804    2650.5481  0.050040555  0.049193012            9 
 4415000   0.54546487   -3.4995931    2654.0698  0.050095693  0.049182136            8 
 4416000    0.5500221   -3.5098481     2658.943   0.05017631  0.049171291            8 
 4417000   0.55395608   -3.4947164    2659.9945  0.050184789  0.049160442           12 
 4418000   0.53284915   -3.5187992    2655.7377  0.050093136  0.049149556           17 
 4419000   0.54727161   -3.4938452    2660.1367  0.050164757  0.049138678           10 
 4420000   0.53517016   -3.5054426    2662.6845  0.050201442  0.049127812           12 
 4421000   0.55343206   -3.4816958    2658.4345  0.050109976   0.04911695           12 
 4422000    0.5618508   -3.5031517    2661.5932  0.050158172   0.04910608           13 
 4423000   0.54118383   -3.4842276    2660.9201   0.05013415  0.049095227            7 
 4424000   0.54403801   -3.4970706    2656.5026  0.050039606  0.049084367           17 
 4425000    0.5487612   -3.5002881    2665.7125  0.050201742  0.049073452            8 
 4426000   0.54914359   -3.5110004    2658.4882  0.050054379  0.049062571           11 
 4427000    0.5434041   -3.5140619    2660.7834  0.050086277  0.049051676            4 
 4428000   0.53642646   -3.4961932    2654.5395  0.049957459  0.049040776           20 
 4429000   0.53532158   -3.5046774     2658.584  0.050022278  0.049029919           11 
 4430000   0.54314014   -3.4918269    2653.5026  0.049915399  0.049019088           20 
 4431000   0.53616743   -3.5092357    2656.6783  0.049963859   0.04900824            7 
 4432000   0.54890446   -3.5058403    2656.3141  0.049945738   0.04899732           13 
 4433000   0.53672309   -3.4947573     2662.567  0.050052016   0.04898649           19 
 4434000   0.55120182   -3.5050179    2652.3011  0.049847789  0.048975595           13 
 4435000   0.53638257   -3.5080681    2660.6237  0.049992929  0.048964711           13 
 4436000   0.54699208   -3.5009133    2669.1976  0.050142726  0.048953869           13 
 4437000   0.53646773   -3.4834915    2657.5314  0.049912317  0.048943024           15 
 4438000   0.54169646   -3.5104209    2654.6842  0.049847608   0.04893218           11 
 4439000   0.54446913   -3.5118125    2662.6434  0.049985797  0.048921286           14 
 4440000   0.53229305    -3.494815    2657.5463  0.049878872  0.048910399           23 
 4441000    0.5504349   -3.5046035    2653.1708  0.049785537  0.048899543           10 
 4442000   0.54990455   -3.5092704    2662.5709  0.049950677  0.048888675            7 
 4443000   0.54207989   -3.5036193    2661.0444  0.049910804   0.04887777            6 
 4444000   0.53812474   -3.5045735    2657.5565  0.049834167  0.048866902           13 
 4445000   0.53475452   -3.4900738    2656.4891  0.049802946  0.048856034           16 
 4446000   0.54252615   -3.5023623     2659.165  0.049841899  0.048845206           16 
 4447000   0.53616894   -3.5167192    2654.4921  0.049743125  0.048834328            8 
 4448000   0.53529218   -3.5047796    2653.7206  0.049717487  0.048823466           12 
 4449000   0.54403129   -3.4946753    2664.8569  0.049914905  0.048812647            6 
 4450000   0.54771561   -3.5148047    2665.3051  0.049912081  0.048801843            8 
 4451000   0.54053331   -3.4983275    2665.1931   0.04989877  0.048790994           16 
 4452000   0.54012319    -3.521405     2653.821  0.049674697  0.048780165            8 
 4453000   0.53398133   -3.5167828    2657.6926  0.049735994  0.048769332            9 
 4454000   0.53615507   -3.5167761    2660.4253  0.049775957  0.048758514           11 
 4455000   0.53548357   -3.5128963    2660.7767  0.049771356  0.048747672            9 
 4456000   0.53732393   -3.4805752    2658.9043  0.049725171  0.048736887           12 
 4457000   0.55066205   -3.5023471    2665.8719  0.049844289  0.048726158           10 
 4458000   0.53888178   -3.4927817    2654.6973  0.049624221  0.048715337           14 
 4459000   0.53934011   -3.5088482    2654.0143  0.049600328  0.048704487           15 
 4460000   0.53042622   -3.4976112    2654.7773  0.049603462  0.048693689           11 
 4461000   0.54053584   -3.5145511    2666.5752  0.049812733  0.048682894            7 
 4462000   0.53222153   -3.5001196    2657.7454  0.049636662  0.048672035            5 
 4463000   0.52810518   -3.4993878    2664.0789  0.049743799  0.048661145           11 
 4464000   0.53630646   -3.5154827    2657.9276  0.049617824  0.048650266           12 
 4465000   0.53477327   -3.5282882    2659.8046  0.049641744  0.048639341           12 
 4466000   0.54629712   -3.5086248    2665.9454  0.049745212   0.04862847            6 
 4467000   0.52510376   -3.4995874    2660.5881  0.049634133  0.048617616           11 
 4468000   0.52450879   -3.5075707     2657.307  0.049561828  0.048606769           12 
 4469000   0.53457512   -3.5024625    2663.5112  0.049666428  0.048595863           11 
 4470000   0.53924805   -3.4979248    2664.2861  0.049669764  0.048585015           12 
 4471000   0.54556813   -3.5090293     2661.776  0.049611868  0.048574191           14 
 4472000   0.52540785   -3.5201048    2653.1879   0.04944074  0.048563265           19 
 4473000   0.53550122   -3.5133182    2656.9587  0.049499938  0.048552341            9 
 4474000    0.5347866   -3.5163817    2657.9167  0.049506718  0.048541431           16 
 4475000   0.52286264   -3.5153667    2651.4164  0.049374606  0.048530567           16 
 4476000   0.53528499   -3.5154174    2662.0547  0.049561637  0.048519749            8 
 4477000   0.53232296   -3.5049505    2659.8772  0.049510037  0.048508953            5 
 4478000   0.53796557   -3.5021145    2658.7049  0.049477165  0.048498106            3 
 4479000   0.54155851    -3.519012     2657.943  0.049451942  0.048487169            9 
 4480000   0.53758711    -3.519765    2661.7532  0.049511777  0.048476306            9 
 4481000   0.54120213   -3.5183206    2657.8468  0.049428082  0.048465402           14 
 4482000   0.52632343   -3.5107792     2662.293  0.049499721  0.048454522           11 
 4483000    0.5386938    -3.521528    2658.1049  0.049410828  0.048443599            8 
 4484000   0.52816005   -3.5377602    2654.5753  0.049334212  0.048432699            9 
 4485000   0.52358344   -3.4870019    2660.3135  0.049429831  0.048421882           12 
 4486000   0.53656796   -3.5030348    2658.9436  0.049393364  0.048410999            8 
 4487000   0.54475563   -3.5202648    2662.1734  0.049442341  0.048400122           12 
 4488000   0.52668542   -3.4970049    2662.8223  0.049443374  0.048389302            9 
 4489000   0.54274187   -3.5152878    2659.4794  0.049370301  0.048378458           17 
 4490000   0.52680344   -3.5011667    2662.3654  0.049412869  0.048367636            8 
 4491000   0.53488328   -3.5141348    2659.0353  0.049340075  0.048356771           17 
 4492000   0.54123313   -3.4942045    2658.9447   0.04932741  0.048345937           20 
 4493000   0.53638213   -3.5117153    2659.9984  0.049335974  0.048335124            8 
 4494000   0.53565175   -3.5180673    2662.1391  0.049364691  0.048324256           22 
 4495000   0.53191608    -3.514448    2661.9252  0.049349745  0.048313396           10 
 4496000   0.53360312   -3.5246193    2653.6265  0.049184952  0.048302549            7 
 4497000   0.53528917   -3.5316783    2649.9792  0.049106426  0.048291632           17 
 4498000   0.53362274   -3.5105105     2663.063   0.04933791  0.048280765           10 
 4499000    0.5344579   -3.5180672    2652.9833   0.04914024  0.048269902            5 
 4500000   0.52600628   -3.5207155    2660.7122  0.049272447  0.048259016           13 
 4501000   0.52744841   -3.5210579     2655.483  0.049164686  0.048248161            6 
 4502000   0.52444668   -3.5093048    2662.7662  0.049288579  0.048237327           10 
 4503000   0.53238995   -3.5013324     2661.574  0.049255571  0.048226476            8 
 4504000   0.53883865   -3.5387724    2660.1156  0.049217651  0.048215696            7 
 4505000   0.54574164   -3.5187508    2665.5381  0.049307031  0.048204885            5 
 4506000   0.53528799   -3.5127462    2661.3848  0.049219278   0.04819407            9 
 4507000   0.53157352   -3.5146159    2656.7847  0.049123302  0.048183284           13 
 4508000   0.53304041     -3.52563    2656.9357  0.049115198  0.048172448           13 
 4509000   0.52008452   -3.5250565    2657.7655   0.04911964   0.04816164           19 
 4510000    0.5376542   -3.5072305    2662.5924  0.049197939  0.048150794           12 
 4511000   0.53328757   -3.5358751    2655.1354  0.049049275  0.048139942            6 
 4512000   0.54364491    -3.518075    2662.9311  0.049182386  0.048129111           10 
 4513000    0.5370873    -3.530279    2653.7211  0.049001424  0.048118281           14 
 4514000   0.53776178   -3.5182904    2664.8348  0.049195739  0.048107425           11 
 4515000   0.53421567   -3.5359054     2658.823  0.049073883  0.048096592           17 
 4516000    0.5308278   -3.5342638    2654.6695  0.048986372  0.048085758           17 
 4517000   0.52568803   -3.5206753    2660.0521  0.049074831  0.048074983           17 
 4518000    0.5152493   -3.5298392    2652.4607  0.048923948  0.048064133            7 
 4519000   0.53598825   -3.5132691    2659.1776  0.049036984  0.048053272            8 
 4520000     0.528736   -3.5233503     2658.563  0.049014805   0.04804242           12 
 4521000   0.54920956   -3.5362116    2657.9951  0.048993495  0.048031519           22 
 4522000   0.51746974   -3.5309902    2664.2544   0.04909801  0.048020628           15 
 4523000   0.53628627   -3.5353354    2654.1906  0.048901736  0.048009766           17 
 4524000   0.54502003   -3.5322169    2651.8723  0.048848222   0.04799886            7 
 4525000    0.5314995    -3.552114    2653.8214  0.048873323  0.047987993           22 
 4526000   0.52669639   -3.5360733     2665.797   0.04908302  0.047977113           11 
 4527000   0.52698408   -3.5217143    2656.5808  0.048902526  0.047966238            8 
 4528000   0.52776909   -3.5395213    2664.1205  0.049030487  0.047955348            6 
 4529000   0.52562867   -3.5295574    2664.0449  0.049018269  0.047944496           11 
 4530000   0.52696012   -3.5187185    2662.0228   0.04897025  0.047933645           17 
 4531000   0.53769676   -3.5250789    2657.0411   0.04886782   0.04792278           12 
 4532000    0.5098848    -3.538132    2657.5588  0.048866557  0.047911904           12 
 4533000    0.5279081    -3.532886    2661.0671  0.048920272  0.047901028           15 
 4534000     0.521349   -3.5230432    2649.6137  0.048698972  0.047890145            5 
 4535000   0.53794153   -3.5435545    2660.6551  0.048891127  0.047879301           19 
 4536000   0.52568726   -3.5211622    2654.7551  0.048771956   0.04786845           14 
 4537000   0.52725507    -3.522534    2658.0296  0.048821351  0.047857619           21 
 4538000    0.5242131   -3.5491628    2655.0269  0.048755452  0.047846788           17 
 4539000   0.50835561   -3.5422506    2659.9948  0.048835919  0.047835908           13 
 4540000    0.5230711   -3.5386974    2654.8064  0.048729926  0.047825014            8 
 4541000   0.53357479   -3.5276139    2662.5582  0.048861451  0.047814169           14 
 4542000       0.5304   -3.5468039    2659.8687  0.048801349  0.047803299           11 
 4543000   0.52363665   -3.5314131    2666.9203  0.048919956  0.047792428           13 
 4544000   0.52775406     -3.55618    2652.4343  0.048643529   0.04778151           14 
 4545000   0.52459422   -3.5095164    2660.7059  0.048784487  0.047770663            9 
 4546000   0.52793851   -3.5357107    2656.7465  0.048701175  0.047759838           16 
 4547000   0.51976326   -3.5226131    2654.6406  0.048651869  0.047749012            6 
 4548000    0.5256397   -3.5132786    2665.3779  0.048837913  0.047738195           13 
 4549000     0.519264   -3.5392704    2661.9197  0.048763826  0.047727353           24 
 4550000   0.51869168   -3.5131621    2661.6493  0.048748156  0.047716552            7 
 4551000   0.50691344   -3.5391694    2665.6909   0.04881145  0.047705757            7 
 4552000   0.52906922   -3.5395429    2660.3203  0.048702407  0.047694918           24 
 4553000   0.53221474   -3.5361081    2661.3422  0.048710415  0.047684086           25 
 4554000   0.52837182   -3.5400419     2660.128    0.0486775  0.047673287            6 
 4555000   0.52480593   -3.5286407    2658.4862  0.048636776  0.047662452            9 
 4556000   0.52838051     -3.52447     2662.977  0.048708241  0.047651608           12 
 4557000   0.51606963   -3.5483777    2655.2461   0.04855618  0.047640768           30 
 4558000    0.5270543    -3.559033    2665.6146  0.048735093   0.04762992           20 
 4559000   0.52087767   -3.5335262    2662.5078  0.048667613  0.047619083           10 
 4560000   0.53221077   -3.5360979    2660.2297  0.048615309  0.047608265           11 
 4561000   0.51982118   -3.5481829    2653.7944  0.048487072  0.047597428            9 
 4562000   0.52674051   -3.5375422    2660.2362  0.048594114  0.047586547           18 
 4563000   0.50595884   -3.5418781    2665.2674  0.048675348  0.047575719           14 
 4564000   0.52253806   -3.5399971    2662.0475  0.048605892  0.047564887           17 
 4565000   0.52490314   -3.5399558    2656.9032  0.048501337  0.047554105           26 
 4566000   0.51592398   -3.5321918    2661.4141  0.048573041  0.047543323           13 
 4567000    0.5204625   -3.5457116    2662.7963  0.048587626  0.047532528           12 
 4568000   0.52833413   -3.5459543    2655.4784  0.048443491  0.047521764           18 
 4569000     0.526158   -3.5411268    2656.6707  0.048454634  0.047510932           12 
 4570000   0.50958217   -3.5420991    2653.4832  0.048385908  0.047500115            7 
 4571000   0.52738742   -3.5330343    2657.8257  0.048454491  0.047489282           14 
 4572000   0.52096869   -3.5439891    2656.1777  0.048413854  0.047478467            9 
 4573000   0.52128185   -3.5367727    2664.2988  0.048551257  0.047467633           11 
 4574000   0.51940247   -3.5526964    2665.9694   0.04857108  0.047456835            9 
 4575000   0.51673868   -3.5435062    2659.5861   0.04844419  0.047446026            9 
 4576000   0.51204583   -3.5315838     2658.158  0.048407598  0.047435191           21 
 4577000   0.51977674   -3.5431185    2653.6125  0.048314261  0.047424346           11 
 4578000   0.52403912   -3.5356587    2662.1862  0.048459776  0.047413501            9 
 4579000   0.51589052   -3.5652828    2659.1308  0.048393587  0.047402655           27 
 4580000   0.51383111   -3.5407707    2654.1247  0.048291934  0.047391836           22 
 4581000   0.52297031   -3.5383621    2664.6794  0.048473394  0.047380975           11 
 4582000   0.51285711   -3.5500538     2666.327   0.04849278  0.047370156           20 
 4583000    0.5276089   -3.5406176    2663.5427  0.048431572   0.04735935            8 
 4584000   0.51324127   -3.5646398    2658.9292  0.048337137  0.047348544           16 
 4585000   0.51684664   -3.5498888    2660.8192  0.048360946  0.047337738           14 
 4586000   0.52114575   -3.5436953    2657.8021  0.048295576  0.047326916           21 
 4587000   0.50859628   -3.5415579    2665.9371  0.048432837  0.047316107            5 
 4588000   0.52226728   -3.5224988    2665.3846  0.048412246  0.047305339           20 
 4589000   0.51963986   -3.5257556    2660.7831  0.048318135  0.047294622            9 
 4590000   0.51727892   -3.5351561    2655.8985  0.048218928  0.047283877            8 
 4591000   0.51436165   -3.5322793    2655.2231  0.048196165  0.047273122           28 
 4592000    0.5228694    -3.560852    2657.5729  0.048228311  0.047262304            8 
 4593000   0.50706165    -3.553144    2661.4112  0.048287453   0.04725152           28 
 4594000   0.52194758   -3.5329721    2660.6266  0.048262708  0.047240751           18 
 4595000   0.52177675   -3.5487861    2658.4536  0.048212797  0.047229968           10 
 4596000   0.51390901    -3.570082    2660.5897  0.048241038  0.047219219           23 
 4597000    0.5275391   -3.5491714     2661.517  0.048247353  0.047208436           17 
 4598000   0.51251698   -3.5468638    2658.6099  0.048184172  0.047197663           17 
 4599000   0.50711384   -3.5454359    2656.3193   0.04813219  0.047186904           15 
 4600000   0.51210707   -3.5419811    2665.6743  0.048291201  0.047176153            7 
 4601000   0.51637887   -3.5518538    2667.4483  0.048312835   0.04716539            5 
 4602000   0.52363999   -3.5466216    2665.5933  0.048268746  0.047154695           11 
 4603000   0.51812091   -3.5337776    2661.4408  0.048183083  0.047144002           13 
 4604000   0.50727066   -3.5642297    2650.6555  0.047977401  0.047133236           14 
 4605000   0.51301034   -3.5613068    2663.8972  0.048206609   0.04712244           25 
 4606000   0.51914945   -3.5485619    2663.7955  0.048194302  0.047111697           10 
 4607000    0.5136964    -3.562861    2657.3594  0.048067423  0.047100907           11 
 4608000   0.51418779   -3.5581269    2658.0814  0.048070048  0.047090147           21 
 4609000   0.51942247   -3.5463217    2665.3389  0.048190838  0.047079438           19 
 4610000   0.51445189   -3.5666825    2652.9955  0.047957258  0.047068633           15 
 4611000   0.50412425   -3.5509446    2661.4005  0.048098758  0.047057831           12 
 4612000   0.50853907   -3.5432997    2666.9377  0.048188381  0.047047086           23 
 4613000   0.51437546   -3.5577317    2663.3506  0.048113133  0.047036366            8 
 4614000    0.5016862   -3.5567037    2661.3204  0.048066038  0.047025649           18 
 4615000   0.50479189   -3.5713408    2651.4951  0.047878207  0.047014879           23 
 4616000   0.51066405    -3.566064    2659.4948  0.048012255  0.047004071           24 
 4617000   0.50860364   -3.5501277    2660.2406  0.048015317  0.046993279           16 
 4618000   0.51362811   -3.5471599    2664.0746  0.048074105  0.046982532           21 
 4619000    0.4966777   -3.5515054    2657.9821   0.04795378  0.046971805           12 
 4620000   0.50613033   -3.5556089    2663.3531   0.04804028  0.046961052           14 
 4621000   0.52010357   -3.5502136    2662.8514  0.048020835  0.046950368            7 
 4622000   0.50642908   -3.5485047    2663.5484  0.048023014  0.046939686           10 
 4623000   0.50579976   -3.5606466    2664.7853  0.048034921  0.046928948           13 
 4624000   0.51492098   -3.5415224    2666.5145  0.048055698  0.046918221           24 
 4625000   0.50881123   -3.5553736    2664.8487  0.048015292  0.046907539            7 
 4626000   0.51592679    -3.562198    2664.9198  0.048006193  0.046896757           10 
 4627000   0.52101653   -3.5781571    2664.7689    0.0479931  0.046885991           12 
 4628000   0.52584085   -3.5574115    2665.5355  0.047996533  0.046875236           15 
 4629000   0.50884405   -3.5646906    2658.8594  0.047865978  0.046864533            9 
 4630000   0.51580899   -3.5534658    2663.2529  0.047934717   0.04685378           11 
 4631000   0.51133756   -3.5408527    2664.3425  0.047943974   0.04684309           10 
 4632000   0.49821129   -3.5467325    2664.9803  0.047945098  0.046832398            9 
 4633000   0.51027442   -3.5509834    2663.2082  0.047902875  0.046821716           14 
 4634000   0.49950295   -3.5593105    2662.1086  0.047872763  0.046811038           34 
 4635000   0.51123774   -3.5623507    2665.0227  0.047914827  0.046800309           13 
 4636000   0.50491119   -3.5558238    2664.5859  0.047896641  0.046789614           38 
 4637000   0.51561852   -3.5403172      2661.41  0.047829236  0.046778953            6 
 4638000    0.5090477   -3.5493928    2663.2154  0.047851362  0.046768316           19 
 4639000   0.50990219   -3.5690564    2664.5721  0.047865418  0.046757652           10 
 4640000   0.50015972   -3.5791138     2662.181  0.047812159  0.046746943           22 
 4641000   0.52049125   -3.5690615    2665.3631  0.047858995  0.046736223           15 
 4642000   0.50220939   -3.5567659    2663.7733  0.047820143   0.04672555            6 
 4643000   0.50522951   -3.5580519    2665.6684  0.047843859  0.046714874           13 
 4644000    0.5126326   -3.5578397    2667.6278  0.047868716  0.046704191           13 
 4645000   0.50022709   -3.5532731    2662.0679  0.047758663  0.046693509           22 
 4646000   0.50589594   -3.5744768      2655.99  0.047639367   0.04668284            8 
 4647000   0.50580963   -3.5531093    2660.8019  0.047715406   0.04667217            8 
 4648000   0.51400696   -3.5794531    2662.8331  0.047741557  0.046661485           26 
 4649000   0.48462932   -3.5744702    2670.6156   0.04787079  0.046650803            5 
 4650000   0.50822868   -3.5599703    2657.7351  0.047629661  0.046640125           50 
 4651000   0.50883364   -3.5618319    2660.5415  0.047669704  0.046629456           44 
 4652000   0.49970558   -3.5523956    2665.6176  0.047750387  0.046618705           32 
 4653000   0.49959933   -3.5536739    2665.1983  0.047732615  0.046608015           22 
 4654000   0.50963637   -3.5676686    2665.3379  0.047724858  0.046597375           20 
 4655000   0.51287787   -3.5681033    2665.0109  0.047708753  0.046586704           26 
 4656000   0.50247787   -3.5714102    2662.2891   0.04764979  0.046576055           20 
 4657000   0.51149386   -3.5651773    2660.8508  0.047613821  0.046565383           20 
 4658000   0.50570015   -3.5752244    2663.4012  0.047649228  0.046554733           11 
 4659000   0.50516776   -3.5596107    2659.4933  0.047569101  0.046544068           16 
 4660000    0.5122992   -3.5590643    2659.3675  0.047556643  0.046533413           19 
 4661000   0.50252216   -3.5567549    2669.4842  0.047727316  0.046522784           19 
 4662000   0.50009565   -3.5698022    2660.2164  0.047551415  0.046512182           14 
 4663000   0.50215846   -3.5553675    2664.6031  0.047619613  0.046501522            6 
 4664000   0.51508458   -3.5602762    2663.9306  0.047597387  0.046490902           21 
 4665000   0.49990251   -3.5730431    2664.7773   0.04760231  0.046480235           19 
 4666000    0.5192694    -3.550199    2669.5777  0.047677841  0.046469576           10 
 4667000   0.50133949   -3.5503885     2662.367  0.047538872  0.046458951           20 
 4668000   0.50150466   -3.5795907    2659.0563  0.047469586  0.046448286           18 
 4669000   0.50923086   -3.5688299    2666.1304  0.047585679  0.046437587           11 
 4670000   0.49781185   -3.5656912     2661.974  0.047501321  0.046426859           10 
 4671000   0.50323824   -3.5839661    2660.5596  0.047465918  0.046416144           23 
 4672000    0.5026902   -3.5878949    2665.4676    0.0475433  0.046405451            7 
 4673000   0.50661782   -3.5677455    2659.9133  0.047434077  0.046394735           37 
 4674000    0.5082425   -3.5629266      2659.41  0.047414954  0.046384035           26 
 4675000   0.49997932   -3.5727202    2653.1529  0.047293279  0.046373339           13 
 4676000   0.50102395   -3.5733136     2659.295  0.047392626  0.046362618           33 
 4677000   0.50429301   -3.5684004    2662.5626  0.047440714  0.046351898           14 
 4678000   0.49632783   -3.5842822    2662.3951  0.047427588  0.046341211           28 
 4679000   0.49774648   -3.5816077    2653.5884  0.047260604  0.046330467           17 
 4680000   0.50357241   -3.5804938    2665.3032  0.047459102  0.046319763           25 
 4681000   0.51171905   -3.5717407    2653.5499  0.047239727  0.046309051           10 
 4682000   0.49014116   -3.5798399    2663.0694   0.04739907  0.046298357           28 
 4683000   0.51157623   -3.5543959    2667.8756  0.047474475  0.046287726           22 
 4684000   0.50199012   -3.5740135    2672.3597  0.047544117   0.04627711           10 
 4685000   0.49259839    -3.573126    2662.2179  0.047353574  0.046266505           23 
 4686000   0.49069438   -3.5762852     2660.066  0.047305199  0.046255867           28 
 4687000   0.49287989   -3.5669929    2662.8915  0.047345343   0.04624519           27 
 4688000   0.50011189   -3.5753168    2659.0086  0.047266223  0.046234483           24 
 4689000   0.50227361   -3.5834141    2657.9297  0.047236969  0.046223762           10 
 4690000    0.5045232    -3.577771    2656.1553  0.047195368  0.046213067           11 
 4691000    0.5034156   -3.5781683    2658.7041  0.047230585  0.046202401           23 
 4692000   0.50080347   -3.5734487    2662.3842   0.04728588  0.046191772           11 
 4693000   0.50047274   -3.5656883    2664.8346  0.047319317  0.046181166           28 
 4694000   0.49894269   -3.5584479    2664.2319  0.047298536  0.046170557           30 
 4695000   0.49655705   -3.5775554    2661.7396  0.047244224  0.046159915            9 
 4696000    0.5025757   -3.5860743    2659.2291  0.047189613  0.046149308           15 
 4697000   0.48665759   -3.5601678     2665.524   0.04729125  0.046138711           17 
 4698000   0.49722431   -3.5840646    2665.4766  0.047280343  0.046128057            9 
 4699000   0.49545324   -3.5708897    2671.3271  0.047374036  0.046117428           18 
 4700000   0.50496448   -3.5802955     2659.857  0.047160584  0.046106805           19 
 4701000   0.51385819   -3.5621025    2667.6696  0.047289045  0.046096162            9 
 4702000   0.50115625   -3.5832508    2660.5121  0.047152136  0.046085557           13 
 4703000   0.49387443   -3.5920615    2658.9256  0.047113998   0.04607494           28 
 4704000   0.49326571   -3.5748414    2662.2065  0.047162104  0.046064261           13 
 4705000    0.5059185   -3.5703741     2667.199  0.047240506  0.046053643           24 
 4706000   0.49272195   -3.5792706    2659.7327  0.047098256  0.046042991           29 
 4707000   0.50586367   -3.5816464    2662.3049  0.047133789  0.046032346           29 
 4708000   0.49759359   -3.5954216    2659.4888   0.04707393  0.046021677           38 
 4709000   0.51007335   -3.5819715    2663.9087  0.047142151   0.04601108           22 
 4710000   0.51228229   -3.5747529    2662.3715  0.047104945  0.046000466           20 
 4711000   0.49975093    -3.569521    2666.5429  0.047168734   0.04598985           39 
 4712000   0.49254688   -3.5735736    2665.9037   0.04714742  0.045979224           16 
 4713000   0.50729952   -3.5835166    2663.1555  0.047088824  0.045968567           21 
 4714000   0.50932942   -3.5750622    2670.0697  0.047201063  0.045957937           21 
 4715000   0.50036561   -3.5725363    2667.6669  0.047148584  0.045947365           21 
 4716000   0.49758229   -3.5783052     2663.007  0.047056245  0.045936793           16 
 4717000   0.48559909   -3.5980722    2663.5516   0.04705589  0.045926211           32 
 4718000   0.49822907   -3.5813575    2664.3486  0.047059994  0.045915611           15 
 4719000   0.49536386   -3.5686661    2663.1063  0.047028083  0.045905025           15 
 4720000   0.50835074   -3.5833133    2670.4539  0.047147845  0.045894452           15 
 4721000   0.50064283   -3.5857918      2664.63  0.047035055  0.045883885            9 
 4722000   0.48809363   -3.5719108    2658.7054  0.046920539  0.045873295           11 
 4723000   0.48571274   -3.5778545    2666.9149  0.047055455  0.045862719           18 
 4724000   0.48505102   -3.5898092    2666.3067  0.047034763   0.04585211            9 
 4725000   0.50260716   -3.5836801    2660.5264  0.046922864   0.04584153           23 
 4726000   0.49586767   -3.5736252    2665.9611  0.047008766  0.045830938           19 
 4727000   0.50686348   -3.5863911    2666.3455  0.047005597  0.045820325           10 
 4728000   0.50188792   -3.5911279    2659.1268  0.046868422  0.045809714           11 
 4729000   0.49915049   -3.5676942     2665.467  0.046970237  0.045799144           20 
 4730000   0.47617035   -3.5888398    2660.3622  0.046870371  0.045788557           13 
 4731000   0.49714547   -3.5727096    2663.9358  0.046923409  0.045777982           28 
 4732000   0.49494497   -3.5842479    2662.2695  0.046884148  0.045767425           15 
 4733000   0.49709155   -3.5884786    2666.3367  0.046945853  0.045756855           24 
 4734000    0.4825259    -3.586673    2666.7271  0.046942808  0.045746307           38 
 4735000    0.4887144   -3.5929888    2667.1898  0.046941039  0.045735744           27 
 4736000   0.49491835   -3.5974369    2666.1505  0.046912839    0.0457252           23 
 4737000   0.49508885   -3.6019386     2661.957  0.046829165  0.045714607            9 
 4738000   0.49047391   -3.5760134     2670.683  0.046972755  0.045704015           14 
 4739000   0.49244091    -3.583226    2664.7411  0.046858358  0.045693445           12 
 4740000   0.49897073   -3.5742257     2662.824  0.046814768  0.045682888            7 
 4741000   0.49545347   -3.5953985     2666.902  0.046876574  0.045672322           15 
 4742000   0.49257077   -3.5937108    2661.0706   0.04676421  0.045661723           33 
 4743000    0.4894921   -3.5919313    2660.6029  0.046746133  0.045651126           27 
 4744000   0.47835853   -3.5960792    2666.4018  0.046838142  0.045640503           34 
 4745000   0.49038351   -3.5831613    2665.7292   0.04681646  0.045629944           32 
 4746000   0.49415688   -3.5884944    2656.8883  0.046651361  0.045619342           44 
 4747000   0.48351376   -3.5883971    2664.2681  0.046771086  0.045608735           14 
 4748000   0.49822549   -3.5904223     2665.644  0.046785383  0.045598122           12 
 4749000   0.49832336   -3.5814907    2665.4726  0.046772524  0.045587553           34 
 4750000   0.49952999   -3.5701716    2667.2759  0.046794314  0.045577044           19 
 4751000   0.49215112   -3.5886099    2660.0152   0.04665711  0.045566533           19 
 4752000   0.49060433     -3.58956    2657.7268  0.046607162   0.04555596           12 
 4753000   0.49447268   -3.5921952     2664.909   0.04672328  0.045545411           12 
 4754000   0.50049104   -3.5891942    2665.0799  0.046716448  0.045534841           16 
 4755000   0.49319055   -3.5871002    2665.8477  0.046720079  0.045524313           14 
 4756000   0.49867632   -3.6192831    2666.9033  0.046728751  0.045513693           14 
 4757000    0.5020343   -3.6002841    2664.7318  0.046680887  0.045503121           26 
 4758000   0.48670198   -3.5937146    2664.2156  0.046662036  0.045492515           25 
 4759000   0.47979873   -3.5947112    2668.1562  0.046721233  0.045481978           19 
 4760000   0.49591546   -3.5903503    2667.7495  0.046704298  0.045471462           15 
 4761000   0.50241886   -3.5868983    2664.1791  0.046631994  0.045460892           21 
 4762000   0.48488232   -3.6012007    2664.3654  0.046625463  0.045450362           26 
 4763000   0.48966038   -3.5988269    2668.0559  0.046680242  0.045439758           22 
 4764000   0.48706943   -3.6073706    2660.1889   0.04653283  0.045429192           17 
 4765000   0.49045861    -3.587348    2665.5117  0.046616154  0.045418602           24 
 4766000   0.49246426   -3.5936991    2659.7811  0.046506174  0.045408036           14 
 4767000   0.48769351   -3.6059824    2656.1434  0.046432826  0.045397451           20 
 4768000   0.48262251   -3.6145192     2660.826  0.046504928   0.04538688           19 
 4769000   0.48935202   -3.5894684    2659.3149  0.046468773  0.045376326           20 
 4770000   0.48342604   -3.5896172    2660.7614  0.046484301  0.045365756           20 
 4771000   0.49368772   -3.5957734    2661.9621  0.046495531  0.045355235           25 
 4772000   0.48731862   -3.5988436    2662.1385  0.046488867  0.045344699           17 
 4773000   0.49447295   -3.6023667    2662.2123  0.046480416  0.045334164           12 
 4774000   0.47405308   -3.5918764    2658.5289  0.046406384   0.04532361           13 
 4775000   0.48060655   -3.5968408    2660.8361   0.04643693  0.045313048           15 
 4776000   0.48904577   -3.6058844    2661.3689  0.046436504  0.045302424           26 
 4777000    0.4832958   -3.5935373    2663.8102   0.04646937  0.045291841           21 
 4778000   0.47794332   -3.5995654    2653.5766   0.04628116   0.04528123           21 
 4779000   0.48515931   -3.6107321    2655.6066  0.046306873  0.045270645           12 
 4780000   0.48337048   -3.6076797    2667.5481  0.046505371  0.045260092           23 
 4781000   0.48558736   -3.6036097    2661.6845  0.046393441  0.045249553            9 
 4782000   0.48505974   -3.6091002     2660.513  0.046363325  0.045238975           31 
 4783000    0.4819391   -3.5831589    2666.9951  0.046466568   0.04522844            9 
 4784000    0.4929297   -3.5832437    2662.0497   0.04637071  0.045217946            7 
 4785000   0.48238083   -3.5961965    2657.3519  0.046279205  0.045207404           18 
 4786000   0.47453098   -3.5946149    2658.6692  0.046292471  0.045196851           23 
 4787000   0.48504588    -3.610083    2656.8768  0.046251599  0.045186271           25 
 4788000   0.49548471   -3.6046305    2658.8634  0.046276515  0.045175718           14 
 4789000    0.4893427   -3.6122539    2663.5682   0.04634872   0.04516515           12 
 4790000   0.46918033   -3.6091973    2668.4469  0.046423919  0.045154597           18 
 4791000   0.48379374   -3.5957143    2663.0897  0.046321048  0.045144039           15 
 4792000    0.4886806   -3.5833495    2668.6874  0.046408727  0.045133509            6 
 4793000   0.48598244    -3.601021    2663.4491  0.046307968  0.045123005           10 
 4794000   0.50597377   -3.6121171    2662.1836   0.04627631  0.045112441           12 
 4795000   0.49017731   -3.6143043    2664.0855  0.046299714  0.045101906           13 
 4796000   0.48076269   -3.6031724     2658.127  0.046186527  0.045091341            8 
 4797000   0.47744192   -3.6139456    2666.6368  0.046324731  0.045080794           20 
 4798000   0.48000219   -3.6129214    2657.7746  0.046161155  0.045070215           41 
 4799000   0.49169645   -3.6171294    2660.2527  0.046194567  0.045059635           27 
 4800000   0.48011652   -3.5871674    2665.3479  0.046273401  0.045049075           24 
 4801000   0.48158643   -3.6049635    2668.4601  0.046317783  0.045038579           42 
 4802000   0.47581824     -3.61097    2657.6918  0.046121265  0.045028048           38 
 4803000   0.48435223   -3.5925792    2665.9572  0.046255069  0.045017546           65 
 4804000   0.47636105   -3.5768702    2665.7306  0.046241511  0.045007052           12 
 4805000   0.47241753   -3.6015291     2660.711  0.046144831  0.044996548           20 
 4806000   0.48038493   -3.6050771     2668.884  0.046276946  0.044986033            8 
 4807000   0.48706754   -3.6040304    2664.9577  0.046199253   0.04497551           20 
 4808000   0.49123879   -3.5932844    2652.9758  0.045981972  0.044964957           13 
 4809000    0.4766202   -3.6059114    2662.3386  0.046134653  0.044954418           16 
 4810000   0.47886312    -3.616644    2660.4581  0.046092482  0.044943907           20 
 4811000   0.48503642   -3.6023744    2666.6971  0.046190971  0.044933402           20 
 4812000   0.47680236   -3.6136691    2665.1206   0.04615407  0.044922899           43 
 4813000   0.47727841   -3.6001623    2666.1025  0.046161481  0.044912408           33 
 4814000   0.48532886   -3.6105308    2666.0575  0.046151113  0.044901911           45 
 4815000    0.4834662   -3.6098127    2659.4004  0.046026314  0.044891422           18 
 4816000   0.47570737   -3.6103228    2663.4931  0.046087574  0.044880916           19 
 4817000   0.48763717   -3.6197659    2664.5856  0.046096906  0.044870408           11 
 4818000    0.4733463   -3.6136706    2662.3665  0.046048957  0.044859902           15 
 4819000   0.48026107   -3.6215238    2664.8679  0.046082657  0.044849406           31 
 4820000   0.48256384   -3.6105211    2662.4483  0.046031264   0.04483887           36 
 4821000    0.4682193   -3.6107888    2662.3783  0.046020506  0.044828349           14 
 4822000   0.46914876   -3.5961013    2668.3735  0.046114571  0.044817874           21 
 4823000    0.4821765   -3.6171543    2664.2817   0.04603431  0.044807419           18 
 4824000   0.47365239   -3.6029746    2668.0189  0.046089326  0.044796986           30 
 4825000   0.47911548   -3.6104601    2664.0518  0.046011258  0.044786544           12 
 4826000   0.47548321   -3.6133762    2667.0398  0.046053318  0.044776044           23 
 4827000   0.49077598   -3.6220716    2658.3496  0.045893751   0.04476553           28 
 4828000   0.47914612   -3.6149271    2660.5458  0.045922153  0.044755056           26 
 4829000     0.482779   -3.6053083    2656.0834  0.045835636  0.044744552           12 
 4830000   0.48389431   -3.6191153    2666.1891  0.046000503  0.044734074           13 
 4831000    0.4874532   -3.6242892    2661.6981  0.045913512  0.044723564           15 
 4832000   0.47123208   -3.6204502    2659.7016  0.045869578  0.044713047           15 
 4833000   0.47063793   -3.6208768    2667.2295  0.045989887  0.044702557           16 
 4834000   0.47938664   -3.6259805    2662.0102  0.045890398  0.044692065           39 
 4835000    0.4897014   -3.6279914    2663.6567  0.045909285  0.044681564           41 
 4836000   0.47426671   -3.6167022    2667.4663  0.045965438  0.044671045           55 
 4837000   0.47508724   -3.6320564    2662.9316   0.04587781  0.044660543           24 
 4838000    0.4757743   -3.6257505    2667.0164  0.045938686  0.044650054          100 
 4839000   0.47501331   -3.6281117     2666.545  0.045921076  0.044639578          121 
 4840000   0.47956116   -3.6262002    2663.3595  0.045856741  0.044629104           46 
 4841000   0.47664555   -3.6061279    2661.9572  0.045823129  0.044618645           29 
 4842000   0.48632515   -3.6134914    2665.0917  0.045867611  0.044608222           19 
 4843000   0.47955606   -3.6237019    2663.6499  0.045833332  0.044597766           16 
 4844000    0.4785153   -3.6099353    2663.5373  0.045821932  0.044587333           29 
 4845000   0.46442887   -3.6355671    2663.7144  0.045815521  0.044576872           20 
 4846000   0.47385805   -3.6253453    2660.0987   0.04574389  0.044566406           24 
 4847000   0.47890856    -3.621457    2658.3767  0.045704846   0.04455593           29 
 4848000   0.47762506   -3.6006221    2664.8547  0.045806772  0.044545488           48 
 4849000   0.47966863   -3.6348535    2655.9108  0.045643617  0.044535031           27 
 4850000    0.4766126   -3.6149125    2659.9676   0.04570391  0.044524552           25 
 4851000   0.47716098   -3.6207599    2657.6289  0.045654314  0.044514055           36 
 4852000   0.47014806   -3.6116222    2669.7873  0.045853725  0.044503605           34 
 4853000   0.47525117   -3.6259459    2665.6285  0.045772863   0.04449317           14 
 4854000   0.46773929    -3.636637    2664.1085  0.045737339  0.044482671           13 
 4855000   0.46677242   -3.6364666    2658.4973  0.045631605  0.044472165           13 
 4856000   0.48688385   -3.6416446    2660.0035  0.045648056  0.044461656           26 
 4857000   0.47306483   -3.6256904     2664.117  0.045709234  0.044451212           13 
 4858000   0.47281635   -3.6206029    2662.0848  0.045664966  0.044440804           54 
 4859000    0.4737927   -3.6171371    2662.7825  0.045667532   0.04443037           26 
 4860000    0.4635246   -3.6332539    2668.2269   0.04575149  0.044419949           22 
 4861000   0.47293135   -3.6262737     2665.556  0.045696289  0.044409484           23 
 4862000   0.46200849   -3.6290912    2664.4502  0.045667939  0.044399053           15 
 4863000   0.48478517   -3.6320097    2664.6014  0.045661138  0.044388635           23 
 4864000   0.47493883   -3.6259572    2668.5931   0.04572014  0.044378237           24 
 4865000   0.47465771   -3.6229755    2659.9685  0.045563009  0.044367799           28 
 4866000   0.47756602    -3.619613    2662.8327  0.045602697  0.044357389           37 
 4867000   0.48134654   -3.6092742    2665.3622  0.045636637  0.044346975           21 
 4868000   0.47657337   -3.6202869    2663.2071   0.04559037  0.044336582           12 
 4869000   0.47398985    -3.625192    2657.7651  0.045487867  0.044326163           19 
 4870000   0.47017665   -3.6016875    2663.4983  0.045576631  0.044315749           13 
 4871000   0.47271097   -3.6028644    2663.3081  0.045564019   0.04430537           13 
 4872000   0.48429711   -3.6271886    2662.6907  0.045544108  0.044294968           20 
 4873000   0.46522256   -3.6185621    2655.5658  0.045412919  0.044284543           15 
 4874000   0.46814211   -3.6159668    2658.7562  0.045458148  0.044274124           18 
 4875000   0.46032357   -3.6464052    2656.0001   0.04540171  0.044263683           11 
 4876000   0.47806056   -3.6341127    2661.1716  0.045480783  0.044253236           29 
 4877000   0.46825522   -3.6266658    2664.1412  0.045522199  0.044242807           13 
 4878000   0.47137444    -3.630509    2658.7012  0.045419932  0.044232365           11 
 4879000   0.47822808   -3.6363991    2655.8914  0.045362632  0.044221919           28 
 4880000   0.48133655   -3.6116613    2661.3135  0.045445927  0.044211458           20 
 4881000   0.46960324   -3.6282589    2659.4456  0.045404725  0.044201049           25 
 4882000   0.47833833   -3.6397507    2658.3586  0.045376871  0.044190601           23 
 4883000   0.46878384   -3.6436889    2664.7208  0.045476155  0.044180135           24 
 4884000   0.47029151   -3.6225975    2663.2876  0.045442391  0.044169729           20 
 4885000   0.46583684   -3.6254267    2661.7283  0.045406487  0.044159291           12 
 4886000   0.47071565   -3.6327671    2666.4855  0.045478331  0.044148878           13 
 4887000   0.47600539   -3.6143247    2664.4153  0.045433723  0.044138511           23 
 4888000   0.45556188   -3.6175651    2663.2054  0.045403802  0.044128153            8 
 4889000   0.46960294    -3.625165    2656.9197  0.045287376  0.044117743           10 
 4890000   0.46939258   -3.6329904    2663.9767  0.045398375  0.044107346            9 
 4891000   0.47519042   -3.6330115    2662.9771  0.045372063  0.044096929           38 
 4892000   0.45586755   -3.6280735    2656.6272  0.045254619  0.044086512           34 
 4893000   0.47129738   -3.6535329    2658.2606   0.04527319  0.044076064           39 
 4894000   0.46595581    -3.617762    2664.9979  0.045378659  0.044065632           21 
 4895000   0.46532027   -3.6367265    2656.4866  0.045224492  0.044055197           24 
 4896000   0.46773276   -3.6265371    2664.3589  0.045349246  0.044044804            8 
 4897000   0.47175851   -3.6171872    2662.2199  0.045303585   0.04403438           12 
 4898000   0.47330229   -3.6318295    2664.0107  0.045324804  0.044023949           16 
 4899000   0.45686728   -3.6282507    2661.2983  0.045269415  0.044013544           19 
 4900000   0.46979966   -3.6242186    2655.1737  0.045156015  0.044003132           22 
 4901000   0.46374122   -3.6297567    2664.9869  0.045313659  0.043992741           13 
 4902000    0.4709943   -3.6354091    2659.7393  0.045215207  0.043982374            9 
 4903000   0.46901439   -3.6299839    2665.6061  0.045305699  0.043971973           27 
 4904000    0.4701735   -3.6386483    2669.2153  0.045357791  0.043961614           67 
 4905000   0.46874375   -3.6326369    2670.6507  0.045372931  0.043951269           22 
 4906000   0.47028022    -3.637206    2663.8846  0.045248753  0.043940924           20 
 4907000     0.459074   -3.6289344    2660.1884  0.045176762  0.043930539           10 
 4908000   0.46677324   -3.6497346    2660.4223  0.045171528  0.043920118           22 
 4909000   0.46046336    -3.648821    2655.3684  0.045076532  0.043909691           38 
 4910000   0.47366485   -3.6380739     2659.862  0.045143619   0.04389929           13 
 4911000   0.45933119   -3.6220289    2653.2763  0.045022675   0.04388891           10 
 4912000   0.47226519   -3.6407621    2647.6442  0.044917959  0.043878519           18 
 4913000   0.47513943   -3.6344781    2660.2025  0.045121828  0.043868105           12 
 4914000    0.4579224   -3.6478524    2660.7642  0.045122171  0.043857738           29 
 4915000   0.45988737   -3.6353348    2670.4976  0.045278019  0.043847346           32 
 4916000   0.47119075   -3.6503703    2660.5535  0.045100242  0.043836971           16 
 4917000   0.46419993   -3.6408844     2663.811  0.045146278  0.043826597           22 
 4918000   0.46352444   -3.6304111    2662.5552   0.04511582   0.04381623           22 
 4919000   0.46672661   -3.6344698    2668.0808  0.045200258  0.043805828           15 
 4920000   0.45653826   -3.6247583    2667.4454  0.045180308  0.043795489           19 
 4921000   0.47389696    -3.657548    2655.8787  0.044975254  0.043785121           45 
 4922000   0.46483008   -3.6596205     2665.817  0.045134379  0.043774709           19 
 4923000   0.46611197   -3.6359864    2658.6246  0.045003462   0.04376432           21 
 4924000   0.46569831   -3.6569842    2657.0678  0.044967976  0.043753908           28 
 4925000   0.47168892   -3.6488247     2664.869  0.045090845  0.043743485           21 
 4926000    0.4667603    -3.645737    2657.7763  0.044961705  0.043733095           31 
 4927000   0.46302792   -3.6507084     2664.416   0.04506488  0.043722711           31 
 4928000   0.46182403   -3.6350787    2657.2306   0.04493423  0.043712307           27 
 4929000   0.46801567   -3.6518435    2657.2548  0.044925523  0.043701906           13 
 4930000    0.4660782   -3.6430832    2659.4879  0.044954157  0.043691547           14 
 4931000   0.45622093   -3.6496121    2660.6953  0.044965445  0.043681179           36 
 4932000   0.46626829   -3.6463484    2655.1379  0.044862427  0.043670816           25 
 4933000    0.4632018   -3.6528821    2661.5086  0.044960954  0.043660465           45 
 4934000   0.47450203   -3.6448744    2660.8662  0.044940992  0.043650087           47 
 4935000   0.46715196   -3.6451689    2658.0864  0.044884944   0.04363971           22 
 4936000   0.45484696   -3.6445481    2656.2121  0.044844207  0.043629317           22 
 4937000   0.45999387   -3.6543482    2656.7254  0.044843789  0.043618931           21 
 4938000   0.45788527   -3.6501723    2660.4502  0.044897566  0.043608586           15 
 4939000   0.45886218   -3.6402963    2656.1514  0.044815944  0.043598233           14 
 4940000   0.45648689   -3.6341855    2659.9643  0.044871192  0.043587899           20 
 4941000   0.47049134   -3.6499849    2655.4116  0.044785327  0.043577565           23 
 4942000   0.46628683   -3.6468459    2662.5809  0.044897155  0.043567188           14 
 4943000   0.45400538   -3.6362971    2663.4007  0.044901894  0.043556821           36 
 4944000   0.46092609   -3.6362822    2660.6926  0.044847165  0.043546504           35 
 4945000   0.45805122   -3.6461555     2659.034  0.044810146  0.043536187           40 
 4946000   0.47117602   -3.6572695    2657.0602  0.044767828  0.043525857           36 
 4947000   0.45788398   -3.6552265    2661.9714  0.044841511  0.043515519           32 
 4948000   0.46606689   -3.6429011    2660.5702  0.044808849  0.043505165           12 
 4949000   0.46641703    -3.640256     2658.087  0.044757981  0.043494844           14 
 4950000   0.46289858   -3.6412314    2660.6141  0.044791483   0.04348453           21 
 4951000   0.46784939   -3.6362757    2658.7322  0.044750761  0.043474202           31 
 4952000   0.45966838   -3.6492138    2657.8071  0.044726157  0.043463894           40 
 4953000   0.45954352   -3.6558961    2650.4358  0.044593105  0.043453537           57 
 4954000   0.46632959   -3.6628698    2658.0122   0.04471155  0.043443145           51 
 4955000    0.4649182   -3.6484742    2657.3313  0.044691075  0.043432773           53 
 4956000   0.45239147   -3.6351272    2658.8955  0.044708358  0.043422402           60 
 4957000   0.45749394   -3.6504785     2658.155  0.044686891  0.043411994           37 
 4958000   0.45083881    -3.644242    2653.0813    0.0445926   0.04340164           21 
 4959000   0.45420608   -3.6619572    2656.1348  0.044634919  0.043391236           14 
 4960000   0.45951952   -3.6478243    2654.6253  0.044600559  0.043380878           30 
 4961000   0.45905517    -3.643309     2655.665  0.044609034  0.043370504           14 
 4962000   0.46715815   -3.6650177    2657.8269  0.044636351  0.043360128           55 
 4963000   0.46233958   -3.6613539    2659.1304  0.044649244   0.04334974           55 
 4964000   0.46238033   -3.6478364    2652.6119   0.04453082  0.043339357           43 
 4965000    0.4660834   -3.6299417    2655.7388  0.044574333  0.043328996           24 
 4966000      0.45613   -3.6591988    2656.7491  0.044582311  0.043318636          115 
 4967000   0.45496542   -3.6562571    2661.4436  0.044652098   0.04330825          112 
 4968000   0.46166708    -3.665344    2662.0593  0.044653437  0.043297885           64 
 4969000   0.45529206   -3.6588512    2655.9324  0.044541698  0.043287519           32 
 4970000   0.45498328   -3.6507601    2653.9611  0.044499683  0.043277145           70 
 4971000   0.44855939   -3.6510572    2649.9803  0.044423998  0.043266734           57 
 4972000   0.45361074    -3.670172    2657.5418  0.044541798  0.043256341           47 
 4973000   0.45977138   -3.6568148    2657.9072  0.044538963  0.043245996           20 
 4974000   0.45602049   -3.6438453    2659.7744  0.044561292  0.043235689           12 
 4975000   0.45592191   -3.6490086    2659.9448   0.04455519  0.043225407           23 
 4976000   0.45609694   -3.6514165    2660.8422  0.044561264  0.043215097           11 
 4977000   0.45619601   -3.6512363     2666.232  0.044642555  0.043204814           11 
 4978000   0.44637153    -3.656408    2660.8397  0.044543319  0.043194527           10 
 4979000   0.44989483   -3.6348776    2655.9252   0.04445212  0.043184229           17 
 4980000    0.4565314   -3.6452979    2655.9556  0.044443702  0.043173966           11 
 4981000    0.4580058   -3.6692444    2658.9083  0.044484178   0.04316367           16 
 4982000   0.45257603   -3.6549985    2662.5047  0.044535406  0.043153398           17 
 4983000   0.46388442   -3.6540299    2656.3247  0.044423118  0.043143128           41 
 4984000   0.46145227   -3.6562457    2658.8849  0.044457011  0.043132812           24 
 4985000   0.46776262   -3.6650011    2662.5236   0.04450892  0.043122549           20 
 4986000   0.44849949   -3.6579099     2662.401  0.044497945  0.043112258           14 
 4987000   0.45023338   -3.6522424    2656.5725  0.044391626  0.043101942           33 
 4988000   0.45721331   -3.6449241    2655.2428  0.044360512  0.043091642           14 
 4989000   0.45322612    -3.663496     2655.637  0.044358204   0.04308136           44 
 4990000   0.44584229   -3.6858743    2665.7452  0.044518123  0.043071061           43 
 4991000   0.45367663   -3.6923857    2655.5976  0.044339771  0.043060743           32 
 4992000   0.45743745   -3.6500338    2654.8978  0.044319207  0.043050442           82 
 4993000   0.45091619   -3.6641983     2663.613  0.044455788  0.043040124           38 
 4994000   0.43814564   -3.6691328    2654.2121  0.044290016  0.043029786           38 
 4995000   0.44820014   -3.6643833    2657.6623   0.04433871  0.043019445           61 
 4996000   0.44368603   -3.6762423    2656.0138  0.044302338  0.043009124           28 
 4997000   0.44003326   -3.6589374    2658.0141  0.044326831  0.042998797           88 
 4998000   0.45615372    -3.657151     2662.238  0.044388388  0.042988474           45 
 4999000   0.45008003   -3.6542871    2659.9784  0.044341842  0.042978173           52 
 5000000   0.44718465   -3.6638358    2664.4708  0.044407846  0.042967873           25 
 5001000   0.44826009   -3.6501888    2660.7356  0.044336726  0.042957585           44 
 5002000   0.45006284   -3.6583774    2655.8061  0.044245737  0.042947294           25 
 5003000   0.44911239   -3.6703745    2656.5374  0.044249074  0.042936979           24 
 5004000   0.45476657   -3.6603876    2660.1429  0.044300274    0.0429267           30 
 5005000   0.44992142   -3.6488741    2655.7357  0.044218043  0.042916387           44 
 5006000   0.44636527   -3.6659699    2655.0423  0.044197669  0.042906072           22 
 5007000   0.45243081   -3.6614595    2657.5047  0.044229823  0.042895793           23 
 5008000   0.46261388   -3.6637412    2652.3416  0.044135077  0.042885515           32 
 5009000   0.44735528   -3.6607591    2654.5651  0.044163258  0.042875214           57 
 5010000   0.44774345    -3.664831    2653.0236  0.044128803  0.042864881           26 
 5011000   0.45547623   -3.6712673    2653.4116  0.044126449  0.042854568           27 
 5012000   0.46267418   -3.6823808    2654.4417  0.044134772  0.042844259           29 
Loop time of 12246.3 on 48 procs for 5000000 steps with 4000 atoms

Performance: 70551.982 tau/day, 408.287 timesteps/s
99.4% CPU use with 48 MPI tasks x no OpenMP threads

MPI task timing breakdown:
Section |  min time  |  avg time  |  max time  |%varavg| %total
---------------------------------------------------------------
Pair    | 810.34     | 869.37     | 931.8      | 113.4 |  7.10
Neigh   | 81.21      | 85.055     | 89.328     |  23.5 |  0.69
Comm    | 776.17     | 837.26     | 894.67     | 112.7 |  6.84
Output  | 13.871     | 13.876     | 13.96      |   0.3 |  0.11
Modify  | 10308      | 10330      | 10347      |  10.0 | 84.35
Other   |            | 110.8      |            |       |  0.90

Nlocal:        83.3333 ave          91 max          77 min
Histogram: 4 3 6 7 6 10 4 4 2 2
Nghost:        2192.90 ave        2212 max        2166 min
Histogram: 1 1 5 4 5 9 9 3 7 4
Neighs:        14506.0 ave       15927 max       12690 min
Histogram: 2 0 5 7 4 6 8 10 3 3
FullNghs:      29011.8 ave       31889 max       26620 min
Histogram: 4 4 4 7 11 5 6 3 2 2

Total # of neighbors = 1392565
Ave neighs/atom = 348.14125
Neighbor list builds = 271315
Dangerous builds = 0

#clear
#
#next RN
#
#jump SELF
Total wall time: 3:24:09
