
units lj                  # Use reduced LJ style units
atom_style atomic         # Uncharged point particles
atom_modify map hash      # Needed for indexing of clusters etc
                          # Used to be able to find where atoms are in relation to each other.

lattice fcc 1.0 spacing 1 1 1
Lattice spacing in x,y,z = 1.5874011 1.5874011 1.5874011
region box block 0 10 0 10 0 10 units lattice
create_box 2 box
Created orthogonal box = (0.0000000 0.0000000 0.0000000) to (15.874011 15.874011 15.874011)
  3 by 4 by 4 MPI processor grid
create_atoms 1 box
Created 4000 atoms
  using lattice units in orthogonal box = (0.0000000 0.0000000 0.0000000) to (15.874011 15.874011 15.874011)
  create_atoms CPU = 0.003 seconds
set type 1 type/fraction 2 0.56 78393
Setting atom values ...
  2252 settings made for type/fraction
mass 1 1.0
mass 2 1.0
pair_style lj/cut  3.5
pair_modify tail  yes
pair_coeff 1  1  1.0  1.0   # Intearaction between 1 and 1 set with epsilon = 1 and sigma = 1
pair_coeff 1  2  1.5  0.8
pair_coeff 2  2  0.5  0.88

write_data data.0
System init for write_data ...
Neighbor list info ...
  update every 1 steps, delay 10 steps, check yes
  max neighbors/atom: 2000, page size: 100000
  master list distance cutoff = 3.8
  ghost atom cutoff = 3.8
  binsize = 1.9, bins = 9 9 9
  1 neighbor lists, perpetual/occasional/extra = 1 0 0
  (1) pair lj/cut, perpetual
      attributes: half, newton on
      pair build: half/bin/atomonly/newton
      stencil: half/bin/3d
      bin: standard
WARNING: Not all mixed pair coeffs generated from mixing. Use write_data with 'pair ij' option to store all pair coeffs. (../write_data.cpp:312)


#############################
#   M E L T   S Y S T E M   #
#############################

velocity all create 2.4 2750902 mom yes dist gaussian # Assign velocities
                                                    # Temperature 2.4, random number seed, zero linear momentum
                                                                                # Gaussian distribution

timestep 0.002   # simulation timestep
thermo 1000       # output thermodynamic data every 1000 steps bf 100

# Define a fix  in this case with index 1 applied to all
# particles in the simulation. This fix is for simulations
# in the anisotropic NPT ensemble. Note that we use the MTK
# correction.
fix 1 all npt temp 2.4 2.4 0.1 iso 5.68 5.68 0.5 mtk yes tchain 5 pchain 5 # Use NPT ensemble
                                                                         # Set temperature and pressure and damping
                                                                         # Numbers of thermostats in chain and in barostat
run 10000          # run for 10000 steps
Per MPI rank memory allocation (min/avg/max) = 3.642 | 3.644 | 3.648 Mbytes
Step Temp E_pair E_mol TotEng Press Volume 
       0          2.4   -4.9459583            0   -1.3468583   -4.1435722         4000 
    1000    2.4164195   -4.6420021            0   -1.0182789    5.9458171    3633.9651 
    2000    2.4549038   -4.7089463            0   -1.0275113    5.5475135    3625.6307 
    3000    2.4221119   -4.7019292            0   -1.0696696    5.2128886    3660.1474 
    4000    2.4362315   -4.6716331            0   -1.0181994    5.7791917    3624.4266 
    5000    2.4306203   -4.7025702            0   -1.0575513    5.7622492    3600.7962 
    6000    2.4423134   -4.6490356            0  -0.98648141    5.6015522    3658.9516 
    7000    2.3546679   -4.7010446            0   -1.1699259    5.4542895    3641.4991 
    8000    2.3891787   -4.6592079            0   -1.0763358    6.1487272    3601.8191 
    9000    2.4227473   -4.6289865            0  -0.99577408    5.6337265    3651.8247 
   10000    2.3870263     -4.63227            0   -1.0526257    5.4693947    3658.1495 
Loop time of 2.63447 on 48 procs for 10000 steps with 4000 atoms

Performance: 655919.601 tau/day, 3795.831 timesteps/s
99.6% CPU use with 48 MPI tasks x no OpenMP threads

MPI task timing breakdown:
Section |  min time  |  avg time  |  max time  |%varavg| %total
---------------------------------------------------------------
Pair    | 1.2248     | 1.2673     | 1.3365     |   2.4 | 48.10
Neigh   | 0.21631    | 0.22241    | 0.23113    |   0.7 |  8.44
Comm    | 0.8129     | 0.88302    | 0.95053    |   3.4 | 33.52
Output  | 0.00024629 | 0.00024981 | 0.00031887 |   0.0 |  0.01
Modify  | 0.22184    | 0.24567    | 0.27514    |   2.8 |  9.33
Other   |            | 0.01586    |            |       |  0.60

Nlocal:        83.3333 ave          90 max          76 min
Histogram: 3 4 4 5 3 8 5 12 1 3
Nghost:        1742.50 ave        1763 max        1716 min
Histogram: 3 4 3 3 4 8 7 6 4 6
Neighs:        10432.8 ave       11625 max        9246 min
Histogram: 4 3 1 6 7 12 7 4 2 2

Total # of neighbors = 500772
Ave neighs/atom = 125.19300
Neighbor list builds = 901
Dangerous builds = 180

# Equilibrate just above the melting temperature to avoid step fn in T

fix 1 all npt temp 1.25 1.25 0.1 iso 5.68 5.68 0.5 mtk yes tchain 5 pchain 5
run 2000
Per MPI rank memory allocation (min/avg/max) = 3.644 | 3.646 | 3.650 Mbytes
Step Temp E_pair E_mol TotEng Press Volume 
   10000    2.3870263     -4.63227            0   -1.0526257    5.4693947    3658.1495 
   11000    1.2263804   -6.7876948            0   -4.9485841    5.6240179    2795.7557 
   12000    1.2366842   -6.8784503            0   -5.0238878    5.3517137     2785.397 
Loop time of 0.65183 on 48 procs for 2000 steps with 4000 atoms

Performance: 530199.961 tau/day, 3068.287 timesteps/s
99.6% CPU use with 48 MPI tasks x no OpenMP threads

MPI task timing breakdown:
Section |  min time  |  avg time  |  max time  |%varavg| %total
---------------------------------------------------------------
Pair    | 0.29866    | 0.32314    | 0.34586    |   1.9 | 49.57
Neigh   | 0.042641   | 0.044658   | 0.047966   |   0.5 |  6.85
Comm    | 0.21242    | 0.23321    | 0.25848    |   2.4 | 35.78
Output  | 5.0821e-05 | 5.2669e-05 | 6.7686e-05 |   0.0 |  0.01
Modify  | 0.039768   | 0.045918   | 0.05205    |   1.7 |  7.04
Other   |            | 0.004844   |            |       |  0.74

Nlocal:        83.3333 ave          91 max          77 min
Histogram: 3 2 9 7 8 10 0 3 2 4
Nghost:        2101.69 ave        2120 max        2082 min
Histogram: 1 3 6 8 5 7 6 4 7 1
Neighs:        13726.5 ave       15251 max       12317 min
Histogram: 3 4 6 7 5 7 6 4 2 4

Total # of neighbors = 658873
Ave neighs/atom = 164.71825
Neighbor list builds = 146
Dangerous builds = 15

#############################
# L I N E A R  Q U E N C H  #
#############################

# Define solid atoms. This closely follows ten Wolde  Ruiz-Montero and Frenkel  Faraday Discuss  1996  104  93-110
# Compute components of the per-atom q6 vector
compute q6 all orientorder/atom degrees 1 6 components 6 nnn NULL cutoff 1.3 # compute the Q6 parameter.
                                                                             # Use all neighbours within 1.3 unit cell.

# get number of connections
compute coord_number all coord/atom orientorder q6 0.5

# An atom is solid if it has 8 or more connections (of a possible 14)
variable is_solid atom c_coord_number>=8
group solid dynamic all var is_solid    # Must be dynamic to update
dynamic group solid defined

# do clustering
compute cluster solid cluster/atom 1.3 # Create a cluster where all atoms within are solid and max 1.3 units from another member

# define chunks one chunk per cluster
compute clus_chunks solid chunk/atom c_cluster nchunk every compress yes  # Says which atoms are in which chunk

# count the size of each chunk
compute size_chunks solid property/chunk clus_chunks count


# Find the maximum entry in the vector of chunk sizes
variable max_n equal max(c_size_chunks)


# Thermo style which includes this variable
# thermo_style custom step temp pe vol v_max_n

thermo ${N}  # Print the thermo information every 100 steps
thermo 1000  

# Reset the npt fix at a lower temperature (below freezing)
fix 1  all npt temp  ${temp} ${temp}  0.1  iso  5.68  5.68  0.5  mtk yes tchain  5  pchain  5
fix 1  all npt temp  0.45 ${temp}  0.1  iso  5.68  5.68  0.5  mtk yes tchain  5  pchain  5
fix 1  all npt temp  0.45 0.45  0.1  iso  5.68  5.68  0.5  mtk yes tchain  5  pchain  5

dump dmp2 all dcd ${N} traj.dcd
dump dmp2 all dcd 1000 traj.dcd


compute msd all msd com yes
variable twopoint equal c_msd[4]/6/(step*dt+1.0e-6)
fix 9 all vector 10 c_msd[4]
variable fit equal slope(f_9)/6/(10*dt)
thermo_style custom step temp pe c_msd[4] v_twopoint v_fit v_max_n

fix 1 all npt temp 1.25 ${temp} 0.1 iso 5.68 5.68 0.5 mtk yes tchain 5 pchain 5
fix 1 all npt temp 1.25 0.45 0.1 iso 5.68 5.68 0.5 mtk yes tchain 5 pchain 5
run 2000000 # 5000000  # Run for this many steps
Neighbor list info ...
  update every 1 steps, delay 10 steps, check yes
  max neighbors/atom: 2000, page size: 100000
  master list distance cutoff = 3.8
  ghost atom cutoff = 3.8
  binsize = 1.9, bins = 8 8 8
  4 neighbor lists, perpetual/occasional/extra = 1 3 0
  (1) pair lj/cut, perpetual
      attributes: half, newton on
      pair build: half/bin/atomonly/newton
      stencil: half/bin/3d
      bin: standard
  (2) compute orientorder/atom, occasional
      attributes: full, newton on
      pair build: full/bin/atomonly
      stencil: full/bin/3d
      bin: standard
  (3) compute coord/atom, occasional
      attributes: full, newton on
      pair build: full/bin/atomonly
      stencil: full/bin/3d
      bin: standard
  (4) compute cluster/atom, occasional
      attributes: full, newton on
      pair build: full/bin/atomonly
      stencil: full/bin/3d
      bin: standard
Per MPI rank memory allocation (min/avg/max) = 9.846 | 9.849 | 9.851 Mbytes
Step Temp PotEng c_msd[4] v_twopoint v_fit v_max_n 
   12000    1.2366842   -6.8784503 1.8112246e-30 1.2577948e-32 8.3333333e+20            3 
   13000    1.2459167    -6.874795   0.45211219  0.002898155   0.03696474            2 
   14000     1.230656   -6.8770009   0.87558972 0.0052118434  0.035224392            2 
   15000    1.2484364   -6.8436045     1.293003 0.0071833499  0.035765226            4 
   16000    1.2468218   -6.8382933    1.6897552 0.0088008079  0.035081621            3 
   17000     1.237854   -6.8967194    2.0683704   0.01013907  0.034047607            2 
   18000    1.2281499    -6.891967    2.4598933  0.011388394  0.033740473            3 
   19000    1.2332651   -6.9239457    2.8794351  0.012629101  0.033534837            3 
   20000    1.2490818   -6.8695056    3.3131421  0.013804759  0.033735118            4 
   21000    1.2429178   -6.8776282    3.6944087  0.014660352  0.033651804            2 
   22000    1.2503458   -6.8901245    4.0360202  0.015287955  0.033547489            4 
   23000    1.2492051   -6.8912922    4.4814769  0.016237235  0.033380149            3 
   24000    1.2335499    -6.866378    4.9063496  0.017035936   0.03334695            5 
   25000    1.2435265   -6.8798802    5.3093723  0.017697907  0.033406681            4 
   26000    1.2283567   -6.9245974    5.6789602  0.018201795  0.033402882            1 
   27000    1.2425333   -6.9057039    5.9612177   0.01839882  0.033323938            2 
   28000    1.2382124   -6.9288223    6.3253437  0.018825427  0.033090984            2 
   29000    1.2355943   -6.9307937     6.841019    0.0196581  0.032972401            1 
   30000    1.2487847   -6.9523982    7.2308722  0.020085756  0.032984512            2 
   31000    1.2288138    -6.871543    7.6520625   0.02057006  0.033014569            3 
   32000    1.2397073   -6.9003476      8.01877  0.020882213  0.033048845            2 
   33000    1.2205158   -6.9158837    8.4402611   0.02131379    0.0330495            4 
   34000    1.2296194   -6.9241945    8.8642997  0.021726224  0.033102549            3 
   35000    1.2487084   -6.9255312    9.3214959  0.022194038  0.033164461            3 
   36000    1.2476882   -6.9359105     9.788525  0.022658622  0.033262831            2 
   37000    1.2572959   -6.9367164    10.250376  0.023086432  0.033400139            2 
   38000    1.2472705   -6.9379494    10.520951   0.02307226  0.033466187            3 
   39000    1.2348043   -6.8668798     10.96932  0.023438717  0.033494448            2 
   40000    1.2154394   -6.8903988    11.414058  0.023779288  0.033525348            1 
   41000    1.2195457   -6.8983277    11.784201  0.023951628  0.033584253            6 
   42000    1.2121059   -6.9698094    12.194391  0.024195221  0.033613417            2 
   43000    1.2378246   -6.9255538    12.588165  0.024395668  0.033661496            2 
   44000    1.2560458   -6.9018453    13.025349  0.024669222  0.033679611            3 
   45000    1.2331693   -6.9306539    13.586464  0.025160119   0.03373587            2 
   46000    1.2123477   -6.9773196     14.06681  0.025483352  0.033861807            3 
   47000     1.243975   -6.9365155    14.428932  0.025583213   0.03396309            2 
   48000    1.2442698   -6.9065559    14.859451  0.025797657  0.034018038            2 
   49000    1.2490279   -6.9459169    15.295321   0.02601245  0.034087704            1 
   50000    1.2284579   -6.8876385    15.666494  0.026110824  0.034146846            2 
   51000    1.2360058   -6.9282814     15.91148   0.02599915  0.034159148            2 
   52000     1.271499   -6.9544436    16.348596  0.026199673  0.034157873            3 
   53000    1.2436972   -6.8882443    16.804923  0.026422835  0.034157932            1 
   54000     1.237062   -6.9501999    17.197392  0.026539186  0.034172675            5 
   55000     1.234294   -6.9143333    17.630601  0.026713031  0.034188237            1 
   56000    1.2445883   -6.9124583    18.069015  0.026888415  0.034192976            2 
   57000    1.2271449   -6.9078288      18.5857  0.027172076  0.034207053            4 
   58000    1.2330702   -6.9063033     19.03582  0.027350315  0.034242908            3 
   59000    1.2378966   -6.9380519    19.262515  0.027206942  0.034275762            1 
   60000    1.2355492   -6.8916506    19.765333  0.027451852  0.034290029            2 
   61000    1.2335501   -6.9232056     20.18599  0.027576488  0.034307771            1 
   62000    1.2288769   -6.9432961    20.613647  0.027706515  0.034314358            2 
   63000    1.2333439   -6.9565267    20.946948  0.027707603  0.034316818            2 
   64000    1.2316517   -6.9298608    21.313101  0.027751434  0.034313641            2 
   65000    1.2286214   -6.9045931    21.669954  0.027781992  0.034300166            4 
   66000    1.2120966   -6.9647437    21.980192  0.027752767  0.034272475            2 
   67000    1.2026193   -6.9606322     22.31851  0.027759341  0.034237205            5 
   68000    1.2294607    -6.930602     22.62519  0.027726948  0.034196732            1 
   69000    1.2250036   -6.9007015    23.084941  0.027880363  0.034156977            3 
   70000    1.2089884   -6.9583662    23.465877  0.027935567  0.034118554            5 
   71000    1.2311615   -6.9425643    23.712792  0.027831915   0.03407477            3 
   72000    1.2397789   -6.9253676    23.891786  0.027652529  0.034010135            4 
   73000    1.2567743   -6.9599106    24.351408   0.02779841   0.03394196            2 
   74000    1.2211471   -6.9653916    24.758175  0.027880828  0.033881633            5 
   75000    1.2376471   -6.9756036    25.138796  0.027931995   0.03382238            1 
   76000    1.2020322   -6.9548333    25.409355  0.027861135   0.03376274            1 
   77000    1.2385878   -6.8928046    25.762334  0.027881313  0.033684759            4 
   78000    1.2328561    -6.944834    26.060737  0.027842668  0.033612794            3 
   79000    1.2200799   -6.9984288    26.328472   0.02777265   0.03353583            3 
   80000    1.2521102   -6.9416997    26.978303  0.028102399  0.033475179            4 
   81000    1.2193384   -6.9304847    27.499036  0.028291189  0.033425439            3 
   82000    1.2461432    -7.001248    27.736624  0.028187626  0.033386648            2 
   83000    1.2295167   -6.9336231    28.061374   0.02817407  0.033342069            5 
   84000     1.245624    -6.950017    28.381414  0.028156165  0.033291728            4 
   85000    1.2372958   -6.9788645    28.691048  0.028128478  0.033238127            1 
   86000    1.2313976   -6.9730765    29.054873  0.028153946  0.033180519            2 
   87000    1.2270201   -6.9761499    29.334927  0.028098589  0.033126606            1 
   88000    1.2228584   -6.9215593    29.876812  0.028292435  0.033072891            1 
   89000    1.2290164    -6.931612    29.942304  0.028035865  0.033010731            2 
   90000    1.2243755   -6.9728549    30.398233  0.028146512  0.032940472            2 
   91000    1.2209305   -6.9556444    30.691189  0.028105484  0.032877305            3 
   92000    1.2192878   -6.9450848     30.94724   0.02803192  0.032813534            3 
   93000    1.2041583    -6.983588    31.151353  0.027913398  0.032739473            3 
   94000    1.2568284   -6.9787825    31.517136  0.027940723  0.032664312            2 
   95000    1.2121892   -6.9555152    32.004392  0.028074028  0.032600073            3 
   96000    1.2295018   -6.9918001    32.247797  0.027992879  0.032538629            2 
   97000    1.2396144   -6.9180677    32.806736  0.028184481  0.032477895            2 
   98000    1.2198942   -7.0383661    32.790873  0.027883395  0.032412412            1 
   99000    1.2047517   -6.9745116     33.33198  0.028057222  0.032348863            3 
  100000    1.2065831   -6.9477277      33.7176     0.028098  0.032284611            2 
  101000    1.2037264   -6.9796991    33.907824  0.027976752  0.032219168            2 
  102000    1.2206651   -6.9861284    34.272243  0.028000199  0.032154379            2 
  103000    1.1942849   -6.9649379    34.585236  0.027981583  0.032094148            2 
  104000    1.2355593   -7.0251637    34.751257  0.027845559  0.032030444            2 
  105000    1.2115024   -6.9879876    35.215852  0.027949088   0.03196403            3 
  106000    1.2137919   -6.9901298    35.569638  0.027963552  0.031903099            2 
  107000    1.2199537   -7.0015085    35.931399  0.027983955  0.031845821            3 
  108000    1.1963846   -6.9909284     36.48034  0.028148411  0.031796774            3 
  109000    1.2255622   -6.9716832    36.874122  0.028191225  0.031749902            2 
  110000    1.1839317   -6.9991093    37.026055  0.028050041   0.03170525            2 
  111000    1.2537624   -6.9970145    37.559507  0.028197828  0.031661997            3 
  112000    1.2189183   -6.9883235    37.880654   0.02818501  0.031621908            3 
  113000      1.23085   -7.0114651    38.333111  0.028269256  0.031585642            2 
  114000    1.1997687   -7.0252938    38.736007  0.028315795    0.0315534            1 
  115000    1.2104218   -7.0104034    38.931154  0.028210981  0.031520587            2 
  116000    1.1868627   -6.9748951    39.405929  0.028308857  0.031492976            4 
  117000    1.2067854   -6.9999136    39.880825  0.028405146  0.031466046            1 
  118000    1.1977396   -7.0153084    40.215074  0.028400476  0.031441275            2 
  119000    1.2027247   -7.0426065    40.634709  0.028455679  0.031410445            2 
  120000    1.2149408   -7.0047118     40.96553  0.028448284  0.031385226            2 
  121000    1.2263254   -6.9684515    41.393387  0.028507842  0.031363258            2 
  122000    1.2179139   -6.9919763    41.586261  0.028405916  0.031340912            2 
  123000    1.2181384   -6.9815915    42.196596  0.028588479  0.031324486            3 
  124000    1.1812416   -7.0284716    42.569148  0.028608298  0.031309093            4 
  125000    1.2054128   -6.9945237    42.902332  0.028601555  0.031290295            3 
  126000    1.1942736   -7.0028659    43.308738  0.028643345  0.031274179            3 
  127000    1.2423786   -6.9744717    43.849594  0.028772699  0.031261439            2 
  128000    1.2241492    -6.955451    44.516545  0.028982125  0.031255845            4 
  129000    1.2077765   -6.9994709    44.572346  0.028793505    0.0312511            2 
  130000    1.2047814   -6.9640189    45.110694  0.028917111  0.031245393            2 
  131000    1.2139206   -7.0226993    45.706045  0.029075092  0.031244748            2 
  132000    1.1787758   -7.0470143    46.015095  0.029049934  0.031247204            3 
  133000    1.2130681   -7.0248096    46.361044  0.029048273  0.031249198            1 
  134000    1.1923156   -6.9907455    46.652542  0.029012775  0.031249575            2 
  135000    1.2290151   -7.0224386    47.200746  0.029136263  0.031250626            2 
  136000    1.1999353   -7.0519542    47.390898   0.02903854  0.031251743            3 
  137000    1.1947715   -7.0290013     47.98563  0.029188339  0.031255616            2 
  138000     1.194965   -6.9986789    48.661942  0.029385231  0.031263147            1 
  139000    1.2428147   -6.9859595    48.617522  0.029147195  0.031268758            3 
  140000    1.2070252   -7.0389942    48.972672    0.0291504  0.031272848            2 
  141000    1.2293234   -7.0353955    49.537582  0.029277531  0.031283733            6 
  142000     1.193997   -7.0219282    50.194336   0.02945677  0.031292834            3 
  143000    1.1982241   -7.0573048    50.367099  0.029351456  0.031305099            2 
  144000    1.1980043   -7.0075298    50.993783  0.029510291  0.031317416            2 
  145000    1.1727461   -7.0457509    50.974089  0.029295453  0.031327041            3 
  146000    1.2177854   -7.0386886    51.622418  0.029464851  0.031334963            1 
  147000    1.1848993   -7.0356046    51.790477  0.029359681  0.031336703            3 
  148000    1.2070241    -7.038325    52.048673  0.029306685  0.031337685            2 
  149000    1.1695858   -7.0422393    52.183227   0.02918525  0.031337368            3 
  150000    1.1919062   -7.0063798    52.689898  0.029272166  0.031337501            2 
  151000    1.2156733   -7.0192739    53.065498  0.029285595  0.031336312            2 
  152000    1.2135179   -7.0501047    53.178175  0.029154701   0.03133131            2 
  153000    1.1958208   -7.0268474     53.68141   0.02923824  0.031324704            1 
  154000    1.2004229   -7.0311347    53.700612  0.029058773   0.03131516            2 
  155000    1.1792458   -7.0700845    53.982419  0.029022806  0.031303709            1 
  156000    1.1920366   -7.0134869    54.713203  0.029227138  0.031291839            8 
  157000    1.1823151   -7.0440226    54.921331  0.029151449  0.031280197            4 
  158000    1.2124638   -7.0606832    55.155638  0.029090527  0.031268528            3 
  159000    1.1831515   -7.0192839    55.279551  0.028972511  0.031252555            2 
  160000    1.1842412   -7.0478036    55.696239  0.029008458  0.031237359            2 
  161000    1.2065646   -7.0556007    56.169793  0.029073392  0.031223206            2 
  162000    1.1983523   -7.0260916    56.725651  0.029179862  0.031212974            2 
  163000    1.1928846   -7.0630944    56.962979  0.029122177  0.031201858            1 
  164000    1.1803601   -7.0595356    57.065803  0.028996851  0.031189084            3 
  165000    1.2129638   -7.0312966    57.475493  0.029028027  0.031172398            2 
  166000     1.182246   -7.0652311    57.706113  0.028968932  0.031153082            1 
  167000    1.1740598    -7.071187    57.834503  0.028859533  0.031135125            1 
  168000    1.2126626   -7.0511305    58.227419  0.028882648  0.031114403            1 
  169000    1.2309602   -7.0204816    58.953629  0.029069837  0.031097221            2 
  170000    1.1916428    -7.017517       59.116  0.028978431  0.031080468            3 
  171000      1.18897   -7.0341554    59.264243   0.02888121  0.031059836            2 
  172000    1.1886423   -6.9711519    59.985786  0.029062881  0.031040214            2 
  173000    1.1776478   -7.0406496    59.966805  0.028885744   0.03102327            3 
  174000    1.1867554   -7.0497412    60.488584  0.028969629  0.031003592            4 
  175000    1.1640834   -7.0906562    60.527934  0.028822826  0.030984086            3 
  176000    1.2033442    -7.067126    61.070779  0.028916089  0.030965527            5 
  177000    1.1808357   -7.0327414    61.343822  0.028881272  0.030947225            1 
  178000     1.199496   -7.0636396    61.611473  0.028844322   0.03092604            3 
  179000    1.1829335   -7.0485521    62.090875  0.028906366  0.030907723            1 
  180000    1.1830834   -6.9972893    62.585338  0.028974693  0.030889976            1 
  181000    1.1821467   -7.0531622    62.550303  0.028798482  0.030870819            2 
  182000    1.1742492   -7.0573854    63.084299  0.028884752   0.03084948            3 
  183000    1.1679859   -7.0699698    63.220455  0.028788914  0.030828576            3 
  184000    1.1956661   -7.0727403    63.441188  0.028732422  0.030806862            2 
  185000    1.1683764   -6.9891772    64.113974  0.028880168  0.030785982            2 
  186000    1.1602328   -7.0611228    64.441314  0.028871556    0.0307676            1 
  187000    1.1949002   -7.0946052    64.483644  0.028736027  0.030748707            7 
  188000    1.1979912   -7.0767392     64.91651  0.028775049  0.030729178            5 
  189000    1.1739988   -7.0868102    64.950156  0.028637635  0.030709071            7 
  190000    1.1831483   -7.0895592    65.449723  0.028706019  0.030688404            2 
  191000    1.1859186    -7.102957    65.547851  0.028598539  0.030667385            3 
  192000     1.182915    -7.052644    66.285731  0.028769849  0.030644518            3 
  193000    1.1888686   -7.1012966    66.278857  0.028617814  0.030623696            4 
  194000     1.161206   -7.0804341    66.677388  0.028641489  0.030601422            4 
  195000    1.2043508   -7.0724143    66.932547  0.028603652  0.030578565            1 
  196000    1.1962979   -7.1048772    67.080889  0.028520786   0.03055578            3 
  197000    1.1653955   -7.0321766    68.014606  0.028770984  0.030535605            1 
  198000    1.1604766   -7.0218758    68.143331  0.028679853  0.030516081            4 
  199000    1.1435894   -7.0544775    68.608578   0.02873056  0.030497206            5 
  200000    1.1680825   -7.0593905    68.774737   0.02865614  0.030479331            2 
  201000    1.1702672   -7.0566978    69.207255  0.028692892  0.030459765            2 
  202000    1.1686259   -7.0723349    69.839627  0.028811727  0.030442857            3 
  203000    1.1524922   -7.0839119    69.835341  0.028668038  0.030424348            2 
  204000    1.1517843   -7.0929739    70.212029  0.028681384  0.030402916            2 
  205000     1.173602   -7.0797758    70.267574  0.028564055  0.030382355            3 
  206000    1.1687786    -7.105723    70.597159  0.028558721  0.030361242            5 
  207000    1.1573584   -7.1099724    70.828181  0.028513761  0.030338427            5 
  208000    1.1691337   -7.1516181    71.029865  0.028457478  0.030316557            2 
  209000    1.1659546   -7.1173953    71.425915  0.028479233  0.030292485            1 
  210000    1.1863128   -7.0723108     71.74187  0.028468996  0.030268849            7 
  211000    1.1626672   -7.0767087    71.852736  0.028377858  0.030245312            4 
  212000    1.1793989   -7.1115681    72.266176  0.028406515  0.030220382            2 
  213000    1.1715574   -7.1074961    72.630021  0.028415501  0.030197026            5 
  214000    1.1566453    -7.066588    73.001791  0.028427489  0.030173183            3 
  215000    1.1817395   -7.0722237    73.493219  0.028485744  0.030151615            4 
  216000    1.1514682   -7.1498017    73.308738  0.028282692  0.030130988            1 
  217000     1.163436   -7.1061934    73.911705  0.028383911  0.030109946            1 
  218000     1.165495   -7.1093549    74.386086  0.028435048  0.030087867            3 
  219000     1.146041   -7.1066452    74.547406  0.028366593   0.03006585            2 
  220000     1.149584   -7.1221872      75.0871  0.028442083  0.030045479            1 
  221000    1.1545159   -7.1155362    75.199125  0.028355628  0.030024826            4 
  222000    1.1498513   -7.1213079    75.330852  0.028277347  0.030003007            2 
  223000    1.1537963   -7.1155542    75.490351  0.028210146  0.029980932            4 
  224000    1.2009452   -7.1274445    75.923968  0.028245524  0.029958067            1 
  225000    1.2026361   -7.1040981    76.698944  0.028407016  0.029935881            5 
  226000    1.1968975   -7.1062634    76.970902  0.028381601  0.029915174            2 
  227000    1.1838444   -7.1006612    76.944832  0.028247002  0.029894488            2 
  228000    1.1807488   -7.1090679    77.285007  0.028247444  0.029873443            3 
  229000    1.1468655   -7.0876645    77.461653  0.028188374  0.029850793            4 
  230000    1.1861075    -7.123476    77.432923  0.028055407  0.029826145            2 
  231000    1.1676202   -7.1253958    77.813738  0.028071334  0.029801791            2 
  232000    1.1904229   -7.1281274    78.389494  0.028157146  0.029779366            4 
  233000    1.1664445   -7.1025228     78.71402  0.028152368  0.029756577            4 
  234000    1.1802979   -7.1362545     78.93935  0.028112304   0.02973214            2 
  235000    1.1671808   -7.1112307    79.257071  0.028105344  0.029708285            2 
  236000    1.1663394   -7.1366845    79.172292  0.027956318  0.029683694            4 
  237000    1.1397678   -7.0925198    79.818451   0.02806556  0.029659384            7 
  238000    1.1420561   -7.1088096    80.079203  0.028038936  0.029636338            3 
  239000    1.1474621   -7.1384984    80.479465   0.02806118  0.029613834            4 
  240000    1.1953644   -7.1040402    81.122579  0.028167562  0.029593058            2 
  241000    1.1502239   -7.1323189    81.191042  0.028074358    0.0295726            5 
  242000    1.1756705   -7.1081156    81.908088  0.028205264  0.029553089            2 
  243000    1.1410234    -7.130979    81.886203  0.028081688   0.02953449            3 
  244000    1.1721034    -7.103965    82.404972  0.028143774  0.029515709           10 
  245000    1.1809603   -7.1389071    82.441486  0.028041322  0.029495513            2 
  246000    1.1654457    -7.135603    82.930545  0.028093003  0.029476443            1 
  247000    1.1121437   -7.1562826    82.704071  0.027902858  0.029456186            3 
  248000    1.1582723   -7.1540528     83.10793  0.027926052  0.029434092            2 
  249000    1.1542386   -7.1286695    83.612897  0.027982897  0.029412527            2 
  250000    1.1528681     -7.11649    83.895588  0.027965196  0.029391402            1 
  251000    1.1590193     -7.15795    83.885987  0.027850593  0.029369449            2 
  252000    1.1699603   -7.1863775    84.357105  0.027895868  0.029347857            4 
  253000    1.1429464   -7.1363901     84.68714  0.027894315  0.029327033            4 
  254000    1.1746349   -7.1518538    85.351164   0.02800235  0.029306361            4 
  255000    1.1863276   -7.1000004    85.677327  0.027999126  0.029287193            3 
  256000    1.1504491   -7.1160107    85.940026  0.027975269  0.029268032            3 
  257000    1.1788006   -7.1601816    86.171253  0.027941392  0.029248342            3 
  258000    1.1401915   -7.1572207    86.533173  0.027949991  0.029227931            3 
  259000    1.1528032   -7.1243926    87.000068    0.0279923  0.029208985            2 
  260000     1.132738   -7.1494907    87.056639  0.027902769  0.029189335            3 
  261000    1.1666982   -7.1357986    87.564151  0.027957902  0.029170225            2 
  262000    1.1410305   -7.1152825    87.646379  0.027877347  0.029151403            3 
  263000    1.1413593   -7.1305798    88.043824  0.027897283  0.029133242            4 
  264000    1.1785272   -7.1443279    88.460858  0.027923251  0.029114511            3 
  265000    1.1453673   -7.1581616    88.455589  0.027816223  0.029096934            4 
  266000    1.1402752   -7.1688109    88.822822  0.027826699  0.029078917            2 
  267000    1.1468571   -7.1424285    89.684271  0.027991345  0.029060633            5 
  268000    1.1228604   -7.1386641    89.769058  0.027913264  0.029043695            3 
  269000     1.145092   -7.1549582    89.887532  0.027846199  0.029025906            4 
  270000    1.1592734   -7.1249725    90.530742  0.027941587  0.029009126            4 
  271000    1.1381791   -7.1435618    90.501586  0.027829516  0.028993095            3 
  272000     1.114665   -7.1358546    90.972079  0.027871348  0.028976454            4 
  273000    1.1241687    -7.130917    91.507101  0.027932571  0.028961162            2 
  274000    1.1380887   -7.1312996    91.500256  0.027828545  0.028944793            3 
  275000    1.1365771    -7.113121    91.838994  0.027829998  0.028927499            3 
  276000    1.1202274   -7.1572327    92.076433  0.027800855  0.028909203            4 
  277000      1.13551   -7.1714595    92.212216  0.027741341  0.028891009            4 
  278000    1.1431348    -7.173497    92.223376  0.027644897  0.028871937            4 
  279000    1.1532709   -7.1847083    92.580999  0.027652628  0.028851663            4 
  280000     1.120141   -7.1890947    92.616814  0.027564528  0.028832014            3 
  281000    1.1549566   -7.1673566    93.157611  0.027626812  0.028812042            2 
  282000    1.1263933   -7.1679404    93.449293  0.027615039  0.028792701            2 
  283000    1.1336129   -7.1045048    93.390103   0.02750003  0.028772604            2 
  284000    1.1371947   -7.2230788    93.375185  0.027398822  0.028751962            5 
  285000    1.1566587   -7.2047046    93.860796  0.027444677  0.028731685            2 
  286000     1.147517   -7.1762871    94.386387  0.027501861  0.028712001            2 
  287000    1.1174501   -7.2016439     94.54263  0.027451402  0.028691989            2 
  288000    1.1319022   -7.1744445    94.981551  0.027483087  0.028671885            5 
  289000    1.1272672   -7.1384765    95.273507  0.027472176  0.028652882            2 
  290000    1.1287139   -7.1682515    95.573213  0.027463567  0.028632499            5 
  291000    1.1507998   -7.1365679    95.926075  0.027470239  0.028612207            4 
  292000    1.1187742   -7.2289998    96.027954  0.027405238  0.028592541            6 
  293000    1.1175199   -7.2304267    96.165625   0.02735086  0.028572137            2 
  294000    1.1364421   -7.1600109    96.698752  0.027408943  0.028552209            4 
  295000     1.144268   -7.1729214    97.484307   0.02753794  0.028532377            2 
  296000     1.128218   -7.2238328    96.991983  0.027306301  0.028512684            1 
  297000    1.1159535   -7.2072827    97.616213   0.02738951  0.028493902            3 
  298000    1.1300727   -7.1544921    98.260993  0.027477906  0.028474762            2 
  299000    1.1255239   -7.2318599    98.103263  0.027342046  0.028456192            1 
  300000    1.1342336   -7.1512247    98.682471  0.027411797  0.028437809            3 
  301000    1.1424584   -7.1713453    99.058246  0.027424763  0.028419542            4 
  302000    1.1225376    -7.201987    98.771746  0.027254897  0.028401205            3 
  303000    1.1527436   -7.1750201    99.469379  0.027356815  0.028382347            3 
  304000    1.1305827   -7.1609119    100.18757  0.027463699  0.028365124            2 
  305000    1.1326501   -7.1693441    100.07084   0.02734176  0.028347463            3 
  306000     1.131461   -7.1767983    100.47376  0.027362135  0.028329851            2 
  307000    1.1312668   -7.1727241    100.83537  0.027371165   0.02831266            2 
  308000     1.133272    -7.163717    100.96047  0.027316144  0.028295251            2 
  309000     1.124395   -7.1554068    101.25932  0.027308338  0.028277924            2 
  310000     1.110841   -7.2217925    101.21646  0.027208726   0.02826035            3 
  311000    1.1045412    -7.200405    101.88918  0.027301495  0.028243115            4 
  312000    1.1251202   -7.1947603    102.41312  0.027353932  0.028225049            3 
  313000    1.1097724   -7.1959563    102.34103  0.027247345    0.0282081            5 
  314000    1.1426094   -7.1980869    102.88725  0.027305535   0.02819168            4 
  315000    1.1495623   -7.1899926    103.15351  0.027289288  0.028176395            3 
  316000    1.1517263   -7.1513217    103.92891  0.027407413  0.028162141            5 
  317000    1.1246499   -7.1409899    104.33305  0.027427195  0.028148334            2 
  318000    1.1533325   -7.2179064    104.19159  0.027303877  0.028133127            5 
  319000     1.157151   -7.1872473    104.47139  0.027291376    0.0281171            4 
  320000    1.1307725   -7.1876281    104.96427  0.027334445  0.028102495            5 
  321000    1.1121395   -7.1277287    106.03826  0.027528106  0.028089135            2 
  322000     1.112912   -7.2213815     105.2704  0.027243892   0.02807549            3 
  323000     1.105532   -7.1945231    106.05482  0.027361924  0.028061393            1 
  324000    1.1320877    -7.199648    106.31745  0.027345023  0.028047877            2 
  325000    1.1133707   -7.2123428    106.68661   0.02735554  0.028033834            2 
  326000    1.1042409   -7.2311229     106.9506  0.027339112  0.028019443            4 
  327000    1.1500759   -7.2073376    107.16176  0.027309316  0.028006737            3 
  328000    1.0876702   -7.2316774     107.0292  0.027192377  0.027992639            7 
  329000     1.122189   -7.1793665    107.69706   0.02727889  0.027978056            2 
  330000    1.1211136   -7.2252667    107.54417  0.027157619  0.027964088            3 
  331000     1.104934   -7.1762634    108.17493  0.027234372    0.0279501            5 
  332000    1.0900374   -7.2299336     108.2785  0.027178337  0.027936096            2 
  333000    1.0920541   -7.2252476    108.33075  0.027109798  0.027921896            9 
  334000    1.1297839   -7.1828241    109.09015  0.027218101  0.027907861            3 
  335000     1.138085   -7.2694804    109.09479  0.027138008  0.027892933            4 
  336000    1.1147962   -7.2581321    109.03777  0.027043097  0.027878624            3 
  337000     1.114793   -7.2492268    109.57972  0.027096864  0.027863537            3 
  338000    1.1089351   -7.2232811    110.04293  0.027130901  0.027849437            3 
  339000    1.1315939   -7.2028766    110.03293   0.02704841  0.027835568            3 
  340000    1.1042338   -7.2556037    110.46006  0.027073543  0.027821208            3 
  341000    1.1275618   -7.2028752    111.06553  0.027142115  0.027807487            2 
  342000    1.1385162   -7.2079166    111.39027  0.027141878  0.027794412            2 
  343000    1.1166952   -7.1954793    111.56699  0.027105683  0.027780948            2 
  344000    1.1031522    -7.241004    111.73327  0.027067168  0.027767405            1 
  345000    1.1470658   -7.2435403    112.00432  0.027054183  0.027753692            5 
  346000    1.1120771   -7.2165731    112.48014  0.027090594  0.027739859            2 
  347000    1.1161664   -7.2333227    112.54761  0.027028724  0.027725959            5 
  348000    1.0969037   -7.2385837    112.76599  0.027003351  0.027711861            5 
  349000     1.104078   -7.2453697    113.64738  0.027136433  0.027697719            2 
  350000    1.1096885   -7.2408101    113.80876  0.027097323  0.027685217            3 
  351000    1.1446015   -7.2318516    113.94549  0.027052585  0.027672912            2 
  352000    1.1225912   -7.2481687     114.3115  0.027062381  0.027660087            3 
  353000      1.13874   -7.2514534      114.121  0.026940746  0.027647159            3 
  354000    1.0981656   -7.2775868    114.42553  0.026936331  0.027633795            4 
  355000    1.1188325   -7.2239202    115.07492  0.027012893  0.027620279            2 
  356000    1.1042338   -7.2162075    115.27251  0.026983266  0.027607287            1 
  357000    1.1072973   -7.2572216    114.98388  0.026840307   0.02759345            2 
  358000    1.1106443   -7.2449873     115.6292  0.026915549  0.027579169            2 
  359000     1.122641   -7.2755351    116.02925  0.026933438  0.027564818            4 
  360000    1.1280202   -7.2827975    115.91907  0.026833118  0.027550528            2 
  361000    1.1100886   -7.2829877    116.50294  0.026893569  0.027537108            6 
  362000    1.0861862   -7.2511036    117.01409  0.026936945  0.027524285            3 
  363000      1.07666   -7.2921802    117.35604   0.02694124  0.027511357            6 
  364000     1.096739   -7.2878321    117.31548   0.02685794  0.027498749            3 
  365000    1.0963016   -7.2522326    117.87907  0.026913031  0.027486358            4 
  366000    1.1125129   -7.2788198    118.34103  0.026944678   0.02747441            2 
  367000    1.0984475    -7.233539    118.58973  0.026927731  0.027462423            7 
  368000    1.1228257   -7.2769421    118.54996  0.026845552  0.027450231            3 
  369000    1.1110812   -7.2743038    118.50046  0.026761622  0.027437118            9 
  370000    1.1223925   -7.2963148    118.97441  0.026796038  0.027423394            2 
  371000    1.0840117   -7.2910247    119.62108  0.026869066  0.027410373            3 
  372000    1.1357657   -7.3133726    119.15831   0.02669317  0.027397074            3 
  373000     1.103831   -7.2570227    119.75487  0.026754885  0.027383839            4 
  374000    1.0930877   -7.2563126    119.82616  0.026699234  0.027370153            3 
  375000    1.1050119   -7.2522607     120.1048  0.026689956  0.027356563            3 
  376000    1.1201605   -7.3027848    120.26947  0.026655469  0.027343088            4 
  377000    1.1125619   -7.2874206    120.81109  0.026704485  0.027329447            7 
  378000      1.11174   -7.3185967    120.83326  0.026638725  0.027315539            5 
  379000    1.0977222    -7.305729    121.23353   0.02665645  0.027301636            4 
  380000    1.1074886   -7.3057879    121.46682  0.026637461  0.027287921            2 
  381000    1.0872179   -7.3130422    121.86458  0.026654545  0.027273955            4 
  382000    1.1120905   -7.2798461    122.30581  0.026681024   0.02726078            4 
  383000    1.0971501    -7.242512    122.92087  0.026745184  0.027248032            2 
  384000    1.0882266   -7.2511391    123.18767  0.026733435  0.027235157            3 
  385000    1.1052067   -7.2737447    123.19039  0.026664587  0.027222211            2 
  386000    1.0920249    -7.282606    123.42008  0.026645094  0.027209074            6 
  387000     1.089317   -7.2843324    123.62802  0.026621021   0.02719629            2 
  388000    1.0828995   -7.2980973    123.84029     0.026598   0.02718375            3 
  389000    1.1036012   -7.2890437    124.17454  0.026601229  0.027170684            4 
  390000    1.0801105   -7.2793341    124.60199  0.026624357  0.027157578            2 
  391000    1.1052074     -7.28035    124.59984  0.026555805   0.02714478            3 
  392000    1.1166358   -7.3036441    125.23619   0.02662334  0.027131877            3 
  393000    1.0766036   -7.2728213    125.62344   0.02663771  0.027119225            6 
  394000    1.0917969   -7.2794977    125.82593  0.026612928  0.027106165            5 
  395000    1.1062109   -7.2760048    126.08163    0.0265995  0.027093049            4 
  396000    1.1137101   -7.2836616     126.1419  0.026545012  0.027080598            3 
  397000    1.0987018   -7.2772441    126.68539  0.026592231  0.027067878            2 
  398000    1.0955054   -7.2990664     126.5872  0.026504857  0.027054852            4 
  399000    1.0937986   -7.3198955    126.77875  0.026478436  0.027041656            7 
  400000    1.1056174    -7.278238     126.9572  0.026449417  0.027028141            2 
  401000    1.1001388   -7.2878126    127.56478  0.026509722   0.02701463            3 
  402000    1.1133995    -7.306557    127.33419  0.026395977  0.027001191            4 
  403000    1.1050282    -7.314347    127.61424  0.026388387  0.026987141            1 
  404000    1.0894705    -7.312054     127.4861  0.026296637  0.026972521            1 
  405000    1.0859299   -7.2741161    128.21196  0.026381061   0.02695845            3 
  406000     1.088262   -7.2703048    128.29127  0.026332363  0.026944526            3 
  407000    1.1036927   -7.2756348    128.45621  0.026301436  0.026929793            5 
  408000    1.0715072    -7.284563     128.6166   0.02626973    0.0269145            7 
  409000    1.0876908   -7.3015438    128.99011  0.026281603   0.02689977            4 
  410000    1.0876869   -7.2703367    129.33624  0.026287854  0.026884661            1 
  411000    1.0927764   -7.2746348    129.76424  0.026310673   0.02686994            3 
  412000     1.085542   -7.2766183    130.02958  0.026300481   0.02685504            3 
  413000    1.0847155    -7.301544    130.12025  0.026255095  0.026840264            3 
  414000    1.0943682   -7.3197647    129.76333  0.026119834  0.026825051            3 
  415000    1.0982682   -7.3032377     129.6312  0.026030361  0.026809312            4 
  416000    1.0949177   -7.3162639    130.09619  0.026060936  0.026793208            3 
  417000    1.0840152   -7.2839991    130.65135  0.026109382   0.02677677            4 
  418000     1.080721   -7.4035823    130.65199  0.026047047   0.02676042            3 
  419000    1.1112443   -7.3095075    131.22072  0.026097995  0.026744333            1 
  420000    1.0674702   -7.3425102    131.00909  0.025993867  0.026728357            3 
  421000    1.0847332   -7.3280936    131.11934  0.025953947  0.026711748            3 
  422000    1.1160819   -7.3221934    131.45567   0.02595886  0.026695411            3 
  423000     1.069411   -7.2645069     131.9699  0.025998798    0.0266795            4 
  424000    1.0877799   -7.3042267     132.2402  0.025990605  0.026663053            6 
  425000    1.0965614   -7.3802704    131.90517  0.025863758  0.026647206            2 
  426000    1.0663769   -7.3491957    132.45488   0.02591058  0.026630465            5 
  427000    1.0773914   -7.3425684    132.75705  0.025908871  0.026614229            4 
  428000    1.0945404   -7.3505435    132.75484  0.025847905  0.026597753            5 
  429000     1.090365   -7.3580561    132.94324   0.02582425  0.026581001            8 
  430000    1.1047545   -7.3496581    133.46748  0.025865791  0.026564558            2 
  431000    1.0666725   -7.2842458    134.08542  0.025925256  0.026548418            2 
  432000    1.0854949   -7.3128252    134.29434  0.025905544  0.026532922            4 
  433000    1.0730065   -7.3636966    134.08232  0.025804912  0.026516766            2 
  434000    1.0689586   -7.3513219    134.11525  0.025751777  0.026499868            2 
  435000    1.0734787   -7.3204598    134.57106  0.025779896  0.026482831            3 
  436000    1.0618344   -7.3126179    134.56574  0.025719751  0.026465577            4 
  437000    1.0911682   -7.3458262    134.96717  0.025737447   0.02644784            3 
  438000    1.0704804   -7.3510203    134.58125   0.02560526  0.026429695            3 
  439000    1.0836463   -7.3352829    134.80138  0.025588721  0.026411181            2 
  440000    1.0809054   -7.3125964    135.56704  0.025675576  0.026392992            2 
  441000    1.0625064   -7.3281858    135.56923  0.025617768   0.02637468            1 
  442000    1.0488118   -7.2917885    135.44646  0.025536663  0.026356192            2 
  443000    1.0860468   -7.3589445    135.36594  0.025463872  0.026337307            4 
  444000    1.0553886   -7.3373247      135.765  0.025481419  0.026318002            4 
  445000    1.0662992   -7.3425922    135.79334  0.025429464  0.026298791            4 
  446000     1.078383   -7.3782725    136.22961  0.025453962  0.026279896            3 
  447000    1.0768145   -7.3314305    136.26973  0.025404498  0.026260857            6 
  448000    1.0671549   -7.3375323    136.70696  0.025429122  0.026242546            2 
  449000    1.0629118   -7.3723772     136.9128   0.02541069  0.026224068            2 
  450000     1.077801   -7.3830758    136.97975   0.02536662  0.026204935            2 
  451000    1.0727174   -7.3473888    137.42737  0.025393083  0.026185487            3 
  452000    1.0697757   -7.3624307    137.24568  0.025303408  0.026166385            4 
  453000    1.0776418   -7.3444565    137.45673  0.025286375  0.026146837            3 
  454000    1.0784863   -7.3614829    137.36082  0.025213073  0.026127167            4 
  455000    1.0597417   -7.3594127    137.29073  0.025144822  0.026106871            1 
  456000    1.0667457   -7.3371353    137.99811  0.025218952  0.026086583            4 
  457000    1.0578117   -7.3589865    137.83273  0.025133612  0.026066286            4 
  458000    1.0626309   -7.3006505    138.14243  0.025135086    0.0260463            2 
  459000    1.0656544   -7.3588227    138.41159  0.025129192  0.026025636            2 
  460000    1.0836779   -7.3777206    138.49372  0.025089442  0.026004978            6 
  461000    1.0772737   -7.4273899    138.15268  0.024973369  0.025984161            2 
  462000    1.0601788   -7.3649878    138.85572  0.025046125  0.025963736            4 
  463000    1.0546462   -7.3506297    139.29994  0.025071983  0.025942803            8 
  464000    1.0686659    -7.361324    139.04875  0.024972836  0.025922059            2 
  465000    1.0509609   -7.3528307    139.38567  0.024979511  0.025901312            3 
  466000    1.0806984   -7.3589527    139.74644  0.024990421  0.025880775            6 
  467000    1.0618474   -7.3983023    139.81854  0.024949775  0.025859632            4 
  468000    1.0487748   -7.3908844    139.78186  0.024889932   0.02583825            3 
  469000     1.058681   -7.3506522    140.18459   0.02490842  0.025817115            4 
  470000    1.0606781   -7.3948536    140.54959  0.024920141  0.025795747            3 
  471000    1.0732798    -7.375439    141.15931  0.024975108  0.025774761            2 
  472000    1.0529179   -7.3409938    140.77044  0.024853538  0.025754155            5 
  473000    1.0675621   -7.3835865    141.05852  0.024851747  0.025733484            3 
  474000    1.0549019    -7.385865    141.47174  0.024871966  0.025712688            4 
  475000    1.0684682   -7.3863832    141.39699   0.02480649  0.025691832            4 
  476000    1.0577017   -7.3946511    141.62837  0.024794883  0.025670771            7 
  477000    1.0541013   -7.3240253    142.55846  0.024905392  0.025650185            5 
  478000    1.0728886   -7.3485418    142.26474  0.024802081  0.025630138            4 
  479000    1.0534393   -7.3471926    142.61336  0.024810954  0.025609444            3 
  480000    1.0919177   -7.3936898    142.83144  0.024797125   0.02558955            3 
  481000      1.05635   -7.3720899    143.05768  0.024784767  0.025569981            4 
  482000    1.0642589   -7.3723532    143.15106  0.024749492  0.025550121            2 
  483000    1.0640457   -7.2815758    144.43203  0.024919259  0.025530673            1 
  484000    1.0564599   -7.3734772    143.66701  0.024736056  0.025511132            3 
  485000    1.0591045   -7.3555397    143.52501  0.024660654  0.025491456            5 
  486000    1.0676667   -7.3982803    143.74122  0.024646986  0.025471249            6 
  487000    1.0587232   -7.4124697    143.69537   0.02458853  0.025450855            4 
  488000     1.069996   -7.3811503    144.40998  0.024660174  0.025430921            2 
  489000    1.0619222   -7.3893665    144.50051  0.024625173  0.025411094            4 
  490000       1.0898   -7.4017116     144.2684  0.024535441  0.025390993            4 
  491000    1.0514546   -7.3497239    145.01835  0.024612754  0.025370945            7 
  492000    1.0464567   -7.4028363    144.48827  0.024472945  0.025350324            5 
  493000    1.0835259   -7.4364052    144.43957  0.024415072  0.025329819            6 
  494000    1.0278157   -7.3797725    144.90211  0.024443675  0.025309124            5 
  495000    1.0490357    -7.384876    145.07185   0.02442287  0.025288343            2 
  496000    1.0706024   -7.3943384    145.40625  0.024429814  0.025267526            5 
  497000    1.0413457   -7.3925658    145.99195  0.024478865  0.025247555            4 
  498000    1.0431401   -7.3873485    146.52524  0.024518949   0.02522781            2 
  499000    1.0464065   -7.4037346     146.4359  0.024454894   0.02520783            5 
  500000    1.0654231   -7.4283216    146.65203  0.024442005  0.025187868            4 
  501000    1.0708553   -7.3682049    147.18507  0.024481881  0.025168251            2 
  502000    1.0727656   -7.3816498    147.26379  0.024446181  0.025148566            2 
  503000    1.0493596   -7.4074426    147.06054  0.024363907  0.025128645            4 
  504000    1.0528276   -7.4015417    147.40227  0.024372069  0.025109013            7 
  505000    1.0740438   -7.3810754    148.03168  0.024427671  0.025089297            6 
  506000    1.0660489   -7.4560409    147.91665  0.024360449  0.025069645            3 
  507000    1.0568559   -7.4089709    148.10459  0.024343293  0.025049621            2 
  508000    1.0719297   -7.3940896    148.36813  0.024338604  0.025029982            4 
  509000    1.0701881   -7.4226932     148.3657   0.02429039  0.025010519            6 
  510000    1.0494627   -7.4275841    147.96731  0.024177665  0.024990745            3 
  511000    1.0651039   -7.4086623    148.95201  0.024290934  0.024970975            3 
  512000    1.0640832   -7.3670293    148.94088   0.02424168   0.02495111            4 
  513000    1.0597198   -7.4157805     149.2963   0.02425216  0.024931373            3 
  514000    1.0517344   -7.4462971    148.69372  0.024107283  0.024911714            4 
  515000    1.0566636    -7.436953    148.87428  0.024089689  0.024891625            4 
  516000    1.0469202   -7.4046643    149.76573  0.024186971  0.024871646            2 
  517000    1.0405449    -7.445015    149.90005   0.02416184  0.024851953            4 
  518000    1.0567452   -7.4177033    150.29796  0.024179208  0.024832678            2 
  519000    1.0607573   -7.4840941    149.60767  0.024021784  0.024813013            6 
  520000    1.0363623   -7.4059996    150.60079  0.024134742  0.024793055            4 
  521000    1.0484924   -7.4722737    150.29387  0.024039326  0.024773105            3 
  522000    1.0314184   -7.4871697    150.14364  0.023969291  0.024753142            4 
  523000    1.0514698   -7.4727642    150.42711  0.023968628  0.024732799            7 
  524000    1.0437878   -7.4415204    150.78912  0.023980458  0.024713062            6 
  525000    1.0528868   -7.4207463    151.08979  0.023982507  0.024693277            7 
  526000    1.0388026   -7.4105677     151.2957  0.023969534  0.024673296            2 
  527000    1.0144438   -7.4454053    151.50175  0.023956633  0.024653523            3 
  528000      1.05483   -7.4039564    151.86255  0.023968205  0.024634309            6 
  529000    1.0283652   -7.4509727    151.83294  0.023918232  0.024615006            2 
  530000     1.055099   -7.4661459    151.74854  0.023859833  0.024595547           10 
  531000    1.0422493   -7.4430472    152.55292  0.023941136  0.024576047            2 
  532000    1.0386045   -7.4508997    153.09035  0.023980319  0.024556965            2 
  533000    1.0436618   -7.4581375    152.27555  0.023807935  0.024537769            4 
  534000     1.035447   -7.4302697    153.58425  0.023967579  0.024518859           11 
  535000    1.0477194   -7.4168816    153.30946  0.023879978  0.024499802            4 
  536000    1.0389743   -7.4383813     153.4372  0.023855287  0.024480569            7 
  537000    1.0389313   -7.4732052    153.47247  0.023816337  0.024461554            2 
  538000      1.02714   -7.4070562    154.23189  0.023889698  0.024442351            4 
  539000    1.0503467   -7.4169526    154.34071    0.0238622  0.024423931            8 
  540000    1.0323643   -7.3873772    154.03431  0.023770727  0.024405111           14 
  541000    1.0414802   -7.4573792    154.18116  0.023749408  0.024386452            3 
  542000    1.0380908   -7.4006419    154.96322  0.023825833   0.02436788            2 
  543000    1.0448558   -7.4416642    154.89108  0.023770884  0.024349118            5 
  544000    1.0366489   -7.4690152    155.11438  0.023761394  0.024330327            5 
  545000    1.0479196   -7.4987189    155.04199  0.023706726  0.024311384            1 
  546000     1.034384   -7.4647625    155.35048  0.023710391  0.024292883            4 
  547000    1.0057053   -7.4407766    155.30817  0.023660599  0.024274067            4 
  548000    1.0346312   -7.4654855    155.63883  0.023667705  0.024255349            6 
  549000     1.022618   -7.4146885    156.32867  0.023729306  0.024236841            5 
  550000    1.0401855    -7.481004    155.74927  0.023598374  0.024217484            3 
  551000    1.0394667   -7.4854986    155.83859  0.023569054  0.024198628            7 
  552000    1.0212452   -7.5036727    156.21535  0.023583236  0.024179605            4 
  553000    1.0367191   -7.4768205     156.3214  0.023556571  0.024160426            3 
  554000     1.054912   -7.4704902    156.39297  0.023524815   0.02414153            2 
  555000    1.0240835   -7.4462634    157.04463  0.023580274  0.024122816            1 
  556000    1.0236123   -7.4490132    157.14671  0.023553165  0.024104079            4 
  557000    1.0334192   -7.4742088    157.34748  0.023540915  0.024085434            2 
  558000     1.036796   -7.4735805    157.46523  0.023516312  0.024066985            3 
  559000    1.0318597   -7.4299268    158.38825  0.023611844  0.024048612            3 
  560000    1.0293412   -7.4478025    158.07474  0.023523027  0.024030638            5 
  561000    1.0294434   -7.4797813    157.80014  0.023440305  0.024011743            5 
  562000    1.0309707   -7.5019212    157.91982  0.023416343  0.023992723            4 
  563000    1.0185154    -7.463401    157.90871  0.023373107  0.023973965            5 
  564000    1.0487205   -7.4694175    158.51057  0.023420592  0.023955404            7 
  565000     1.025132   -7.4848283    158.17369  0.023329453   0.02393671            4 
  566000   0.98558199   -7.4777858    158.84092  0.023386472  0.023917848            5 
  567000    1.0080216   -7.4919216    159.53743  0.023447593  0.023899016            4 
  568000     1.026599   -7.4766593    159.30945  0.023372866  0.023880689            4 
  569000    1.0199062   -7.4743476     159.3924  0.023343937  0.023861922            6 
  570000    1.0140682   -7.4530605    159.95352  0.023385018   0.02384341            3 
  571000    1.0173283   -7.4580969    160.12826  0.023369565  0.023825087            4 
  572000    1.0227823   -7.4415551    160.51932  0.023385682  0.023807113            3 
  573000      1.03868   -7.4850765    159.47392  0.023192833  0.023788691            3 
  574000     1.002583   -7.4927896    160.13754  0.023248771  0.023770237            3 
  575000    1.0359031   -7.5092346    160.35065  0.023239225  0.023752092            5 
  576000    1.0414897   -7.5203573    161.07915  0.023304275  0.023733928            4 
  577000    1.0305793   -7.5024228    160.87941  0.023235038  0.023715753            2 
  578000     1.009637   -7.4967468     161.3581  0.023263856  0.023697606            2 
  579000    1.0173309   -7.5002303    160.93546  0.023162847  0.023679501            3 
  580000   0.99950995   -7.4720838    161.93627  0.023266706  0.023661576            3 
  581000    1.0264733   -7.5439406    160.86733  0.023073341   0.02364366            4 
  582000    1.0236715    -7.491363    161.83109  0.023171691  0.023625812           10 
  583000    1.0107674   -7.4936936    161.73068  0.023117593  0.023608145            2 
  584000    1.0381115   -7.4502729    162.48751  0.023186003  0.023590433           10 
  585000    1.0190082   -7.5080399    162.38887  0.023132318   0.02357277            4 
  586000     1.035528   -7.4503323    162.87794  0.023162392  0.023554994            2 
  587000     1.029412   -7.5319831    162.59955  0.023083411  0.023537665            4 
  588000    1.0157589   -7.5130304    162.97744  0.023097709  0.023519861            3 
  589000    1.0195426   -7.5343488    163.12971  0.023080038    0.0235022            9 
  590000    1.0220424   -7.5401519    163.30084   0.02306509  0.023484305            7 
  591000    1.0326783   -7.4858644    163.16047   0.02300627  0.023466575            4 
  592000    1.0155952   -7.4991773    163.70838  0.023044536  0.023449092            2 
  593000      1.03856   -7.5387715    163.65253  0.022997826  0.023431212            3 
  594000    1.0161292   -7.5137426    163.91627  0.022996109  0.023413227            3 
  595000    1.0224716    -7.547825    163.44816  0.022891899  0.023395481            4 
  596000   0.99553851   -7.5021982    164.00946  0.022931972  0.023377471            9 
  597000    1.0139452   -7.5358181     164.3902  0.022946705  0.023359809            5 
  598000    1.0091299   -7.4987198    164.79145  0.022964249  0.023342289            3 
  599000    1.0101559   -7.5407739    164.61502  0.022901366  0.023325139           15 
  600000    1.0089574   -7.5210102    165.26699  0.022953748  0.023307721            6 
  601000    1.0379397   -7.5550346    164.53212  0.022813661  0.023290068            6 
  602000    1.0125914   -7.5258831     164.9374  0.022831867  0.023272739            5 
  603000    1.0079754   -7.4898322    165.66111  0.022894018   0.02325549            3 
  604000    1.0242033   -7.5383692      165.753  0.022868791  0.023238389           10 
  605000    1.0016806   -7.4889756    165.93593  0.022856189  0.023221242            2 
  606000    1.0186964   -7.5585132    165.92488  0.022816953  0.023203819            3 
  607000    1.0069414   -7.5512206    166.20579  0.022817928  0.023186417            3 
  608000    1.0078828   -7.5484567     166.5112  0.022822258  0.023168911            4 
  609000    1.0065335   -7.5143817    166.44472  0.022775687  0.023151457            3 
  610000    1.0192984   -7.5708232    166.15349  0.022698564  0.023134091            2 
  611000    1.0156256   -7.5163522    166.99073  0.022775604  0.023116467            3 
  612000    1.0296045   -7.5104106    166.90525   0.02272675  0.023099211            8 
  613000    1.0081106   -7.5442563    166.76653  0.022670817  0.023081855            5 
  614000    1.0131504   -7.5333867    166.86398  0.022647119  0.023064442            3 
  615000    1.0018986   -7.5796143    166.85275  0.022608774  0.023047289            4 
  616000    1.0118256   -7.5436657    167.16785  0.022614698  0.023030049            2 
  617000   0.99650722   -7.5663226    167.62469  0.022639748  0.023012765            4 
  618000    1.0168474   -7.5144443    168.00273  0.022654089  0.022995926           10 
  619000    1.0017796   -7.5672269    167.95177  0.022610632  0.022979099            8 
  620000    1.0079442   -7.5403787    168.49343  0.022646967  0.022962014            3 
  621000    1.0145406   -7.5302982    168.60144  0.022624992  0.022945152            2 
  622000    1.0292942   -7.5378876    168.97693  0.022638924  0.022927868            5 
  623000   0.98401765   -7.5498082     168.5002  0.022538817  0.022910742            3 
  624000    1.0351938   -7.5803197    168.39072  0.022488076  0.022893424            2 
  625000    1.0141618   -7.5565501    169.22372  0.022563162  0.022876303            3 
  626000   0.98365893   -7.5260411    169.03518  0.022502021  0.022859058            7 
  627000   0.99854341   -7.5762566    168.73631   0.02242641  0.022841908            3 
  628000    1.0087347   -7.5560706    169.57796  0.022502383  0.022824973            3 
  629000    1.0155591    -7.580409    169.76415  0.022491276  0.022807983            3 
  630000    1.0086575   -7.5422471    170.16239  0.022508252  0.022790889            4 
  631000   0.98968976    -7.558888    170.05394   0.02245826  0.022773826            5 
  632000   0.98335353   -7.5514753    170.02706   0.02241918  0.022756729            3 
  633000    1.0045979   -7.5619752    170.05351  0.022387245  0.022739436            4 
  634000    1.0175692   -7.5039547     170.5741   0.02242036  0.022722222            8 
  635000    1.0167486   -7.5555061     169.9434  0.022302283  0.022704777            4 
  636000    1.0055412   -7.5765503    169.84649  0.022254519  0.022686899            3 
  637000    1.0279424   -7.5768241     170.2783  0.022276072  0.022668987            8 
  638000     1.006479   -7.6087226    169.73755  0.022170526  0.022650863            7 
  639000    1.0091893   -7.5494016    170.38872  0.022220751  0.022632913            4 
  640000   0.99978001   -7.5361179    170.15355  0.022155411  0.022614675            3 
  641000   0.98680364   -7.5805024    170.21464  0.022128788  0.022596596            3 
  642000   0.98811278   -7.5530661    170.41338  0.022120117   0.02257824            6 
  643000     1.009115   -7.5720005    170.72049  0.022125518  0.022560003            3 
  644000   0.98680663   -7.5223052    171.13056  0.022144223  0.022541853            4 
  645000     1.039103   -7.5615755     171.4436  0.022150336   0.02252382            4 
  646000   0.98143278   -7.5673333    171.20725  0.022085558  0.022505485            5 
  647000   0.96699223   -7.5620835    171.36388  0.022071597  0.022487289            4 
  648000     1.006203   -7.6072718    171.69414  0.022080008  0.022469233            7 
  649000   0.99223819   -7.5802314    172.33541  0.022128326  0.022451659            9 
  650000   0.98435491   -7.5605428    171.55853  0.021994683  0.022433632            8 
  651000   0.99308585   -7.5865281    172.53072  0.022085345  0.022415655            6 
  652000   0.99488736   -7.5507901    172.27375  0.022018628  0.022397484            2 
  653000    1.0023842   -7.5511162    171.99499  0.021949335  0.022379561            4 
  654000    1.0039814   -7.5625439    172.73196  0.022009679  0.022361528            8 
  655000   0.97962347   -7.5979266    172.56016  0.021954219  0.022343649            2 
  656000   0.99324358   -7.5605974    172.98272  0.021974431  0.022325771            6 
  657000    1.0171418   -7.6056066    172.80101  0.021917936  0.022307835            4 
  658000   0.98748988   -7.5669305    173.23151  0.021939148  0.022289829            4 
  659000   0.99029592   -7.5756501    173.65359  0.021959229  0.022271927            6 
  660000   0.98508504    -7.590959    172.79223  0.021817201   0.02225406            9 
  661000     1.004795   -7.6161994    172.55153  0.021753849  0.022235798            6 
  662000   0.99508911   -7.6341691    172.71423  0.021741469   0.02221743            6 
  663000    1.0032701   -7.6233707    173.13783  0.021761919   0.02219913            6 
  664000   0.99225371   -7.6164846    173.47591  0.021771575  0.022181005            4 
  665000   0.98811478   -7.6211341    173.63844  0.021759203  0.022162706            9 
  666000    1.0015785   -7.5944816    173.22676   0.02167502  0.022144205            6 
  667000   0.98540145   -7.5914525    173.45089  0.021670526  0.022125806            6 
  668000   0.99207882   -7.5815286     173.3785  0.021629054  0.022107145            4 
  669000   0.98038264   -7.6175467    173.65281  0.021630893  0.022088356            5 
  670000   0.98709479   -7.6281768    173.36167  0.021562396  0.022069549            6 
  671000   0.99375755   -7.6467398    173.36805  0.021531054  0.022050632            6 
  672000   0.97839315   -7.5686439    174.97182  0.021697894  0.022032012            6 
  673000   0.96971894   -7.6074154    174.63134  0.021623495  0.022013371            3 
  674000   0.98103687    -7.620698    174.27949  0.021547909  0.021995047            3 
  675000   0.96638785   -7.6030547    174.78625  0.021578549  0.021976659            5 
  676000   0.96567134   -7.6233914     174.5848  0.021521795  0.021958279            3 
  677000   0.97293247    -7.632127    174.66018  0.021499284  0.021939892            2 
  678000   0.99239871   -7.6066219    174.91663  0.021499095  0.021921518            9 
  679000   0.97744673   -7.6216032    174.81899  0.021455448  0.021902874            6 
  680000   0.95861534   -7.6208545    174.83791  0.021426215  0.021884355            8 
  681000   0.99071384   -7.6182414    174.71839  0.021380126  0.021865482            2 
  682000   0.97461819   -7.6361127    174.85226  0.021365134  0.021846535            4 
  683000   0.97790622    -7.580163    175.27735  0.021385718  0.021827767            6 
  684000   0.98625984    -7.671835    174.79818  0.021296075  0.021808958            3 
  685000   0.97886911   -7.6395746    175.43229  0.021342128  0.021789962           11 
  686000   0.98965719   -7.6737605    175.65919   0.02133858  0.021771412            8 
  687000   0.98868499   -7.5695455    176.08579  0.021359266  0.021752953            6 
  688000   0.97427942   -7.6262461    176.10474  0.021330516  0.021734302           12 
  689000   0.98213473   -7.6427198    175.67594  0.021247694  0.021715339            4 
  690000   0.95406253    -7.682106    175.37461  0.021180508  0.021696327            4 
  691000    0.9771922   -7.6402257    175.98404  0.021223352  0.021677123            6 
  692000   0.98477343   -7.6410505    176.18347    0.0212167  0.021658048            4 
  693000   0.99261869   -7.6239328    175.95248  0.021158307  0.021638913            5 
  694000    0.9812996   -7.6366639    175.37479  0.021058452  0.021619526            9 
  695000   0.97386055   -7.6646363    175.74297  0.021072299  0.021600073            3 
  696000   0.97110388   -7.6303564    175.64556  0.021030359  0.021580665            2 
  697000   0.97107412   -7.6065467    176.06113  0.021049872  0.021561035            5 
  698000   0.96951209   -7.6455908    175.89886  0.021000342  0.021541651            3 
  699000   0.97376144    -7.650088     175.5947  0.020934037  0.021522178            6 
  700000    0.9795693   -7.7019835    175.71864  0.020918886   0.02150235            4 
  701000   0.96690827   -7.6973279    176.06476  0.020930191  0.021482483            5 
  702000   0.96692496   -7.6650955    175.89858  0.020880649  0.021462767            9 
  703000   0.97916528   -7.6541033     176.1667  0.020882729  0.021442786            6 
  704000   0.97621199   -7.6701833    176.26813  0.020865072    0.0214229            4 
  705000   0.97767499   -7.6804873    176.19181  0.020826456   0.02140328           12 
  706000    0.9887961   -7.6547281    176.82346  0.020871513  0.021383807            8 
  707000   0.97399074   -7.6639204    176.42647  0.020795199  0.021364412           10 
  708000   0.97726813   -7.6482458    177.19033  0.020855735  0.021345002           13 
  709000    0.9529301   -7.5906334    177.70675  0.020887018  0.021325835            5 
  710000   0.96159074   -7.6630885    177.51575  0.020835182  0.021306786            4 
  711000    0.9795359   -7.6254707    177.75176   0.02083354  0.021287838            4 
  712000   0.96725695    -7.666114    177.70963  0.020799349   0.02126871            4 
  713000   0.97709413    -7.623096     177.3231     0.020725  0.021249618            5 
  714000   0.96608709   -7.6436698    177.77184  0.020748347  0.021230588            5 
  715000   0.96638808   -7.6509538    177.65927  0.020706209  0.021211304           15 
  716000   0.97158532   -7.6056875    178.00346  0.020717349  0.021192028            9 
  717000   0.96755733   -7.6353626    178.32682  0.020726037  0.021172811            5 
  718000   0.96953549   -7.6888006    178.10196  0.020671073   0.02115341            4 
  719000   0.96293788    -7.661401    178.47209  0.020685222  0.021134091            6 
  720000   0.96542839   -7.6535119    178.48386  0.020657854   0.02111477            4 
  721000   0.97274023   -7.6749556    177.88221  0.020559663   0.02109546            5 
  722000   0.94922041   -7.6642852    178.63807  0.020618429  0.021076196            8 
  723000   0.95705588   -7.6794172    178.47908  0.020571586    0.0210569            2 
  724000   0.98208498   -7.7100803    179.06213  0.020610282   0.02103762            2 
  725000   0.95321444   -7.6767535    178.79069  0.020550654  0.021018397            3 
  726000   0.98625776   -7.6582859    179.35221  0.020586801  0.020999204           10 
  727000   0.95780153    -7.647779    179.30993  0.020553638   0.02098025           15 
  728000   0.95823342   -7.6607294    179.19617  0.020512383  0.020961054            8 
  729000   0.95903762   -7.6669925    179.71841  0.020543943  0.020942004            3 
  730000   0.96095906     -7.65159    179.98769   0.02054654  0.020923056            6 
  731000   0.96640812    -7.723319    179.62455  0.020477035  0.020903992            6 
  732000   0.95767166   -7.6994012     179.7153  0.020459392   0.02088517            3 
  733000    0.9554829   -7.6848286    180.08492  0.020473501  0.020866505            8 
  734000   0.95911363   -7.6773713     180.0343  0.020439862  0.020847784            9 
  735000   0.97035145    -7.679657     180.1209  0.020421871  0.020829052            3 
  736000    0.9540063   -7.6850112    180.00208   0.02038067  0.020810524            6 
  737000   0.96423982   -7.6585382    180.64042  0.020425195  0.020791937            3 
  738000   0.94438261   -7.6804568    180.73817  0.020408556  0.020773173            7 
  739000   0.96401757   -7.6159385    181.06469  0.020417759  0.020754663            2 
  740000   0.95775974   -7.6640045    180.98764  0.020381491  0.020735979            9 
  741000   0.94156852   -7.6851307    181.03162  0.020358931  0.020717206            6 
  742000   0.97119635   -7.6852282    180.49599  0.020271337  0.020698447            6 
  743000   0.95140274   -7.7149155    180.85601  0.020284433  0.020679788            4 
  744000   0.96654142   -7.7049594    181.01034  0.020274456   0.02066118            8 
  745000   0.93917781   -7.6847777    181.10103  0.020257386  0.020642467            3 
  746000   0.95394192   -7.7083857    181.05559  0.020225155  0.020623771            2 
  747000   0.96994449   -7.7275141    181.53791  0.020251887   0.02060511            8 
  748000    0.9616543    -7.685881    181.60126  0.020231869  0.020586604           10 
  749000   0.96905135   -7.6942464    181.69291  0.020215054  0.020567982            4 
  750000   0.96296774   -7.7314822    181.10927  0.020123253   0.02054893           10 
  751000   0.93908651    -7.695386    181.33914  0.020121965  0.020530018            5 
  752000   0.96816182   -7.7087986    181.42356  0.020104561  0.020511248            5 
  753000   0.95006377   -7.6792142    182.15985  0.020159346  0.020492588            6 
  754000   0.94786416   -7.6695345    182.51471  0.020171829  0.020473951            4 
  755000   0.94854521    -7.690376    182.36367  0.020128441  0.020455406            4 
  756000    0.9507866   -7.7299602    181.90569  0.020051332  0.020436798            3 
  757000   0.96762225    -7.692089    182.08705  0.020044809  0.020418025            7 
  758000   0.95529182   -7.6825967    182.24313  0.020035524  0.020399492            3 
  759000   0.94004986   -7.7162802    181.75285  0.019955297  0.020380772            8 
  760000    0.9464708   -7.6823302    182.61358  0.020023419  0.020362127            4 
  761000   0.94630296   -7.7046182    182.56411   0.01999169  0.020343469            3 
  762000   0.95197266   -7.7061164    182.83655  0.019995248  0.020324595            8 
  763000   0.95301598   -7.6988034    182.56827  0.019939741  0.020305939            4 
  764000   0.93766793     -7.71549    182.77421  0.019936105  0.020287055            5 
  765000   0.94283125    -7.713571    182.62056  0.019893307  0.020268342            7 
  766000   0.94252037   -7.6966724    182.77804   0.01988447  0.020249671            3 
  767000   0.96198108   -7.7433571    183.10788  0.019894381  0.020231079            9 
  768000   0.92969533   -7.7474414    182.56398   0.01980946  0.020212124            5 
  769000   0.94467335   -7.7685841    182.36277  0.019761896  0.020193223            7 
  770000   0.93053283   -7.7178111    183.12319  0.019818528  0.020174341            5 
  771000   0.91488601   -7.7629255    182.78554  0.019756327  0.020155579            7 
  772000   0.94976351   -7.7548725    183.48214   0.01980593  0.020136753            7 
  773000   0.94195312   -7.7360082    183.43146  0.019774845   0.02011829            4 
  774000   0.94149254   -7.7177419    183.87359  0.019796898  0.020099721            5 
  775000   0.95089664   -7.7041595    184.21784   0.01980837  0.020081362            4 
  776000   0.94291775   -7.7468162    183.73112  0.019730576  0.020063142            5 
  777000   0.93178859   -7.7047995    184.82172  0.019822149  0.020045094            3 
  778000   0.94648808   -7.7255594    184.27642  0.019738262  0.020026944            4 
  779000   0.96113844   -7.7327034    184.02474  0.019686001  0.020008733            6 
  780000   0.94055267   -7.7134439    184.66227  0.019728875  0.019990628            6 
  781000   0.92864821   -7.7318898    184.61967  0.019699068  0.019972496            9 
  782000   0.93879003   -7.7336121    184.87831  0.019701439  0.019954305            4 
  783000   0.94639858   -7.7241081    184.18857   0.01960287   0.01993606            4 
  784000   0.93263375   -7.7589738    185.22797  0.019688347  0.019918085            4 
  785000   0.93154707    -7.699127    184.95652  0.019634451  0.019900443            4 
  786000   0.96210163   -7.7059505    185.92626  0.019712284   0.01988269            5 
  787000    0.9337852   -7.7007645    186.25605  0.019722157   0.01986496           10 
  788000   0.93901489   -7.7556355     185.1453  0.019579663  0.019847121            8 
  789000   0.94744296   -7.7595682    185.28251   0.01956934    0.0198292            5 
  790000    0.9320138   -7.7496102    185.61501  0.019579642   0.01981141            4 
  791000   0.93204761   -7.7361406    185.47551  0.019540193  0.019793606            5 
  792000   0.93654679   -7.7407724    185.76918  0.019546421  0.019775747            4 
  793000   0.92148574   -7.7402444    186.28515  0.019575993  0.019758182            8 
  794000   0.93344237   -7.7436288    185.95511  0.019516699  0.019740643           11 
  795000   0.92918034   -7.7520027    185.97046  0.019493759   0.01972299            3 
  796000   0.94109428   -7.7643354    185.91902  0.019463883  0.019705226            7 
  797000   0.95778132   -7.7130982     186.9435  0.019546581  0.019687771           15 
  798000   0.92014453   -7.7511585    186.41292  0.019466679  0.019670321            5 
  799000   0.94253073   -7.7786591    185.98743  0.019397938   0.01965276            7 
  800000   0.92095128   -7.7766332    186.05618  0.019380853  0.019634948           15 
  801000   0.91160735   -7.7684611    186.37726   0.01939006  0.019617119           22 
  802000   0.91940584   -7.8310912    186.34143   0.01936216   0.01959931           17 
  803000   0.93736934   -7.8020209    186.30769  0.019334547  0.019581478            7 
  804000   0.94759359   -7.7706913    186.38672  0.019318689  0.019563743            8 
  805000   0.92435053   -7.7866511    186.54164  0.019310728  0.019545981           10 
  806000    0.9376431   -7.7864036    187.27099  0.019362178  0.019528364           13 
  807000   0.91428542   -7.7565505    187.22138  0.019333063  0.019510815            2 
  808000   0.93517641   -7.8019537    186.43103  0.019227622  0.019493038           11 
  809000   0.95192241   -7.7742706    186.70013  0.019231575  0.019475144           11 
  810000   0.92517611   -7.7887242     187.3153  0.019271122  0.019457346            3 
  811000   0.93516819   -7.7523106    187.40129  0.019256195  0.019439558            8 
  812000   0.95035852   -7.7882266     187.1278  0.019204413  0.019421835            7 
  813000   0.92256855   -7.7720387    187.39923  0.019208613  0.019404066            4 
  814000   0.91996569   -7.7586858    187.69622   0.01921542  0.019386505            3 
  815000   0.95017226   -7.7903308    187.50976  0.019172778  0.019368861            8 
  816000   0.91469867   -7.7461059    188.13962  0.019213605  0.019351292            8 
  817000   0.93391751   -7.7535742    187.94316  0.019170049  0.019333759            7 
  818000    0.9259557   -7.7690766    187.84005  0.019136109   0.01931627            3 
  819000    0.9458792    -7.741787    188.36151  0.019165803  0.019298978            9 
  820000   0.93588503   -7.7575544    187.91449  0.019097001    0.0192815            6 
  821000   0.90108299   -7.7825643    188.11317  0.019093906  0.019264058            4 
  822000   0.91119519   -7.7761669    188.10285  0.019069632  0.019246671            9 
  823000    0.9133773   -7.7872423    188.12751  0.019048958  0.019229331            5 
  824000   0.91335193   -7.8284545    187.58414  0.018970888  0.019211789            6 
  825000   0.91890205   -7.8107878     187.6822  0.018957798  0.019194211           13 
  826000   0.93106787   -7.7803136    188.89062  0.019056762  0.019176889            4 
  827000   0.90799974   -7.8074445    188.42284  0.018986582  0.019159537            6 
  828000   0.93937998   -7.8297404    188.14687  0.018935877  0.019142164           12 
  829000   0.92525542   -7.8115058    188.95376  0.018994145  0.019124919            6 
  830000   0.93808625    -7.806706    188.90732  0.018966598  0.019107675            5 
  831000   0.93559169   -7.8002805    189.05586   0.01895867  0.019090548           10 
  832000   0.93297835   -7.7886842    189.45494  0.018975856  0.019073527            9 
  833000   0.91639645   -7.8085558    189.66089  0.018973678  0.019056509            6 
  834000   0.92924433   -7.8111067    189.80405  0.018965233  0.019039586           12 
  835000    0.9094341   -7.8308053    190.08442  0.018970501  0.019022751           13 
  836000   0.90149086   -7.8103602    189.57819  0.018897347  0.019005878           16 
  837000   0.91987501   -7.7916546    190.18035  0.018934722  0.018989074            3 
  838000   0.92723496   -7.8291672    190.03464  0.018897637  0.018972221           12 
  839000   0.93338956   -7.8115553    190.48942  0.018920284  0.018955563            2 
  840000    0.9191755    -7.771283    191.09583   0.01895792  0.018939094            3 
  841000   0.92852819   -7.8404676    190.35661  0.018862129  0.018922731            4 
  842000   0.92219646   -7.8179443    191.06821  0.018910156  0.018906276            4 
  843000   0.92536759   -7.7974895    191.22343  0.018903068  0.018889897           11 
  844000   0.90428038   -7.7986349    191.00372  0.018858977  0.018873536            8 
  845000   0.92712026   -7.8145157    190.86089  0.018822573  0.018857307            3 
  846000   0.90700378    -7.799136    191.22953  0.018836636  0.018841222            5 
  847000   0.91309506   -7.8105572    191.61242  0.018852068  0.018825027            5 
  848000   0.91960261   -7.8418922    191.36653  0.018805673   0.01880879            4 
  849000   0.92563443   -7.7912286    192.31437  0.018876557  0.018792729            9 
  850000   0.91801735   -7.8418927    191.50415  0.018774916  0.018776786            6 
  851000   0.91595964   -7.8208939    191.38694  0.018741377  0.018760843           11 
  852000   0.90501924   -7.8396815    191.58557  0.018738808   0.01874489           21 
  853000   0.89710809   -7.8113094    191.72281  0.018730247  0.018728919           17 
  854000   0.92715009   -7.8508665    192.15322  0.018750314  0.018712885           12 
  855000   0.89855693    -7.826185    192.49179  0.018761383  0.018696964           15 
  856000    0.9162043    -7.849657      192.092  0.018700545  0.018680966            6 
  857000   0.91077348   -7.8357715    191.97702  0.018667544  0.018665013            9 
  858000   0.93308583   -7.8352707    192.59722  0.018706024  0.018649089           13 
  859000   0.91333019   -7.8038018    191.96953  0.018623353  0.018633177            6 
  860000   0.90620838   -7.7921407    193.10895  0.018712107  0.018617294            8 
  861000   0.91647498   -7.8283896    192.80061  0.018660531  0.018601719            4 
  862000   0.90845361   -7.8350486    192.69703   0.01862887  0.018586042            5 
  863000   0.90223847    -7.850659    192.75469  0.018612851  0.018570327            9 
  864000   0.90576975   -7.8512795    193.12541  0.018627065  0.018554587           12 
  865000   0.92292394   -7.8916654    192.64282  0.018559038  0.018538791            3 
  866000   0.89592187    -7.856382    192.98043  0.018570096  0.018523116            7 
  867000   0.90706704   -7.8497311    193.61712  0.018609873  0.018507688            4 
  868000     0.913219   -7.8688564    193.62916  0.018589589  0.018492231           12 
  869000   0.90832099   -7.8605436    193.45058  0.018551072  0.018476696           11 
  870000    0.9074304   -7.8690349    193.60635  0.018544669  0.018461049           19 
  871000   0.91039991   -7.8836716    193.82652  0.018544444  0.018445392            7 
  872000   0.90153767   -7.8403125    193.53942   0.01849574  0.018429766           13 
  873000   0.90741561   -7.8755859    193.79663  0.018499105  0.018414212            6 
  874000   0.89374992   -7.8434531    194.26512  0.018522609  0.018398753            8 
  875000   0.90415687   -7.8249996    194.44201  0.018518287  0.018383412            3 
  876000   0.91805903    -7.855591    195.10051   0.01855979  0.018368191            7 
  877000   0.90481427   -7.8414769    194.34692   0.01846702  0.018352935            7 
  878000   0.89261258   -7.8448356    194.80794  0.018489743  0.018337731            6 
  879000   0.90366626   -7.8595433    193.97651  0.018389885  0.018322577            5 
  880000   0.90081581    -7.907392    194.20328  0.018390462  0.018307217            3 
  881000   0.90604696   -7.8691027    194.56655  0.018403949  0.018291727            7 
  882000    0.9000391   -7.8710971     194.4903  0.018375878  0.018276251            7 
  883000   0.88767737   -7.8413451    195.06581  0.018409382  0.018260887            9 
  884000   0.89261951   -7.8458219    194.84439  0.018367684  0.018245446            6 
  885000   0.91006849   -7.8643766    194.43866  0.018308725  0.018229976            7 
  886000   0.91743082    -7.876053    195.22082  0.018361627  0.018214569            7 
  887000    0.8899841    -7.883725    194.59757  0.018282372   0.01819915            4 
  888000   0.89793503   -7.8375277    195.27465  0.018325324  0.018183845            7 
  889000    0.8947844   -7.8574982    195.16249  0.018294197  0.018168394            7 
  890000   0.91155233   -7.8353103    195.50224  0.018305453  0.018153159            6 
  891000   0.89404477   -7.8882094    194.88707  0.018227373  0.018137979            5 
  892000   0.90258701   -7.8807881    195.42511  0.018257204  0.018122753            6 
  893000   0.90784795   -7.8447043    195.13788  0.018209955  0.018107412            9 
  894000   0.90468035   -7.9084475    195.13623  0.018189432  0.018091988           12 
  895000   0.88763091    -7.883935    195.50834  0.018203756  0.018076559            6 
  896000   0.89296932   -7.8790976    195.74493  0.018205443  0.018061138            2 
  897000   0.90383684   -7.8728698    195.68085  0.018179195  0.018045628            6 
  898000   0.90261509   -7.8898943    195.54705  0.018146534  0.018030259           15 
  899000   0.89663165   -7.8748054    195.48942  0.018121006  0.018014923            6 
  900000   0.89134841   -7.8866243    195.85693  0.018134901  0.017999616            8 
  901000   0.87846031   -7.9052179    195.42177  0.018074526  0.017984263           15 
  902000   0.88941144   -7.9057229    195.32092   0.01804517   0.01796885           20 
  903000   0.88463162     -7.87327    195.80217  0.018069598  0.017953477            8 
  904000   0.90109813   -7.8769167    196.33117  0.018098375  0.017938173            4 
  905000   0.89630792   -7.8812767    195.69154  0.018019479  0.017922819            4 
  906000   0.88626848   -7.8790276    196.07749  0.018035089  0.017907481            9 
  907000   0.90718074   -7.9202509    196.30607  0.018036206  0.017892299            5 
  908000    0.8707242   -7.8770335    196.22056  0.018008495  0.017877086           11 
  909000   0.90485489    -7.903824    196.21369  0.017988054  0.017861779            6 
  910000   0.88185296   -7.8652384    196.30575  0.017976717  0.017846505            8 
  911000   0.88664293   -7.8580111    196.69962  0.017993013  0.017831372            6 
  912000   0.87983012   -7.8796668    196.31907  0.017938512  0.017816086            4 
  913000   0.88921816    -7.873162    196.38553  0.017924929  0.017800784            5 
  914000   0.88378581   -7.8887863    196.42567  0.017908978  0.017785416           11 
  915000   0.87825268    -7.870652    197.16084  0.017956361   0.01777012            6 
  916000   0.88654852   -7.8978234    197.06225  0.017927788  0.017755013            8 
  917000   0.88026048   -7.8876841    196.86081  0.017889932  0.017739801            4 
  918000   0.89299119   -7.9117002    196.86311  0.017870653  0.017724607           24 
  919000   0.87617379    -7.904771    196.95527  0.017859564  0.017709306            4 
  920000   0.86991464   -7.9032625     197.0223  0.017846223  0.017694097            7 
  921000   0.87721552   -7.8765842    197.56207  0.017875685  0.017678973           10 
  922000   0.89285685   -7.9312948    196.92707  0.017798904  0.017663883           11 
  923000    0.8974227     -7.93157    196.51826   0.01774271  0.017648602            7 
  924000   0.89024774   -7.9714659    197.31485  0.017795351  0.017633376            7 
  925000   0.89288952   -7.9647026    196.93539  0.017741927  0.017618193           15 
  926000   0.87958688   -7.9379016    197.41925  0.017766311  0.017603043           34 
  927000   0.89316992   -7.9310456    197.76432  0.017778166  0.017587943           20 
  928000   0.87359831   -7.9442961    197.45055  0.017730832  0.017572858            9 
  929000    0.8671722   -7.9409744    196.99934  0.017671272   0.01755778           11 
  930000   0.87765284   -7.9544121    197.38144  0.017686509  0.017542663           26 
  931000   0.87737056    -7.941963     197.7196   0.01769778  0.017527457            5 
  932000   0.89428702   -7.9662518    197.57011  0.017665424  0.017512275            9 
  933000   0.88179157   -7.9536123    197.87335  0.017673576  0.017497096            8 
  934000   0.88838128   -7.9809634     197.3481  0.017607789  0.017481879           18 
  935000   0.87177599   -7.9926987    197.42603  0.017595903  0.017466648            7 
  936000   0.86577899   -7.9571289    197.46834  0.017580871   0.01745137           12 
  937000   0.87137319   -7.9475918    197.51922  0.017566633   0.01743604           21 
  938000   0.86050695   -7.9511777    197.67683  0.017561907   0.01742074           26 
  939000   0.87306855   -7.9472103    197.99048   0.01757104  0.017405439           29 
  940000   0.87579996   -7.9580948    197.77893  0.017533593  0.017390153           22 
  941000    0.8720203   -7.9763795    197.31234   0.01747364  0.017374887           29 
  942000   0.88474853   -7.9701502    197.81506  0.017499563  0.017359706           12 
  943000   0.87029409   -7.9477989     198.0333  0.017500292  0.017344587           48 
  944000   0.87356315   -7.9312764    198.22739  0.017498887  0.017329429           20 
  945000   0.86303689   -7.9737454    197.74403  0.017437745  0.017314292           15 
  946000   0.88686447    -7.943721    198.47671  0.017483854  0.017299285           34 
  947000   0.86913653    -7.988503     197.9326  0.017417511  0.017284215           36 
  948000   0.88430416   -7.9525072    198.60562    0.0174583  0.017269272           31 
  949000   0.88611886    -7.961171    199.27425  0.017498617  0.017254428           33 
  950000   0.88475123   -7.9513223    198.53196  0.017415084  0.017239527           18 
  951000   0.87382766   -7.9974823      198.851  0.017424728  0.017224671           23 
  952000   0.89464521   -7.9704246    199.26767  0.017442898  0.017209783           13 
  953000   0.87002885   -7.9456616    199.24564  0.017422669  0.017194984           29 
  954000   0.86430696   -7.9790137    198.69243  0.017356083  0.017180139           29 
  955000    0.8786314   -8.0206494    198.25428  0.017299676  0.017165201           30 
  956000   0.87615238   -7.9855649    199.51911  0.017391833   0.01715027           14 
  957000   0.86934518     -7.98472    198.85395  0.017315739  0.017135332            9 
  958000   0.85795314   -8.0020378     198.6434   0.01727935  0.017120446            5 
  959000   0.88583732    -7.977848    199.01779  0.017293864  0.017105564           16 
  960000   0.86086847   -8.0032524    199.26759  0.017297534  0.017090837           10 
  961000   0.87879369   -7.9465767     199.7275  0.017319416  0.017076139           13 
  962000   0.85540538   -7.9599922     200.0065   0.01732558  0.017061601           16 
  963000   0.85656724   -7.9845411    199.95053  0.017302746  0.017046915           12 
  964000   0.88926855   -7.9693408    199.28362  0.017227146  0.017032241            7 
  965000    0.8736613   -8.0090857    199.59735  0.017236386  0.017017502            8 
  966000   0.89181733   -7.9856479    199.33438  0.017195858  0.017002793           11 
  967000   0.88009296   -7.9592083    199.79934  0.017218144  0.016988152           10 
  968000   0.87312053   -8.0238956    199.15154  0.017144588  0.016973445            7 
  969000    0.8348651   -7.9890502     199.4423  0.017151901  0.016958667            9 
  970000   0.86230711   -7.9958244    199.72243  0.017158284  0.016944003           16 
  971000   0.87314175   -8.0051917     200.1376  0.017176245  0.016929348            9 
  972000   0.86037964   -7.9668875    200.10179  0.017155503  0.016914717            5 
  973000   0.87283408    -8.009638    199.95037  0.017124904  0.016899998            9 
  974000   0.88686349    -7.961479     199.9502  0.017107306  0.016885268           11 
  975000   0.84997831   -7.9914713    200.40688  0.017128793  0.016870599           13 
  976000   0.87028038    -7.989106    199.96486  0.017073502  0.016855841            5 
  977000   0.86705302   -7.9789551    200.15589  0.017072321  0.016841108            6 
  978000   0.85774869   -7.9892103    200.01492  0.017042853  0.016826432            6 
  979000   0.85230486   -7.9581306    200.39997   0.01705822  0.016811703           17 
  980000   0.87882581   -7.9985392    199.72711  0.016983598  0.016796916            4 
  981000   0.85391721   -7.9859804    200.18239   0.01700496  0.016782114           18 
  982000   0.85272654   -7.9958372    199.82442  0.016957266  0.016767354            7 
  983000   0.85795197   -7.9973853    200.14464  0.016967162  0.016752544            5 
  984000   0.85608333   -7.9862912    200.51086  0.016980933  0.016737781            4 
  985000   0.85020232   -8.0385662    200.07848  0.016927113  0.016723121            7 
  986000   0.87160463   -7.9986527    200.16047  0.016916875    0.0167084            8 
  987000   0.85421143   -7.9862555    200.79116  0.016952985  0.016693654           14 
  988000   0.86284282   -7.9746492    200.27685  0.016892447  0.016678873            6 
  989000   0.85255331   -8.0092188    200.15747  0.016865307  0.016664083           15 
  990000   0.87112598    -8.019361    200.41756  0.016870165  0.016649282            4 
  991000   0.84109404   -8.0069265    200.63685  0.016871582  0.016634463            8 
  992000     0.868949   -7.9965752    199.95346  0.016797166  0.016619607           15 
  993000    0.8702174    -8.017953     200.0085  0.016784869  0.016604794           12 
  994000   0.85729494    -8.021379    200.24911  0.016788155  0.016589864           14 
  995000   0.84928989    -8.038393     199.7395  0.016728601  0.016574872           15 
  996000   0.85514221   -8.0145656    200.17609  0.016748334  0.016559941           11 
  997000   0.85047305   -8.0145838    200.25576  0.016738195  0.016545021            7 
  998000   0.84491952   -7.9971165    199.82029  0.016685061  0.016530071           13 
  999000   0.86572862   -8.0348216    199.95863  0.016679899  0.016515078           17 
 1000000   0.84915346   -7.9804441    200.53693  0.016711411  0.016500213           20 
 1001000   0.85322768   -8.0264842    200.59982  0.016699952   0.01648537           14 
 1002000   0.84676411    -8.023109    199.84897  0.016620839   0.01647055            7 
 1003000   0.86125807   -8.0449891      200.418  0.016651546  0.016455688           10 
 1004000   0.83099086   -8.0281861    201.07037  0.016689108  0.016440924           15 
 1005000   0.85279886   -7.9944888    200.57286  0.016631249  0.016426089            9 
 1006000   0.85392611   -7.9949639    201.00066  0.016650154  0.016411288           15 
 1007000   0.86651185     -8.02562    200.78536  0.016615802  0.016396535           19 
 1008000   0.85468812   -8.0023184    200.87877  0.016607041  0.016381799           21 
 1009000   0.83865447   -8.0340165    200.33635  0.016545784  0.016367041            6 
 1010000   0.85845526    -8.029659    200.82667  0.016569857  0.016352252           20 
 1011000   0.84358966   -7.9978338    201.26303  0.016589435  0.016337535           22 
 1012000   0.83643816   -8.0329558    200.56093  0.016515228  0.016322724           37 
 1013000   0.84469171   -7.9899468    201.00179  0.016535192  0.016307904           13 
 1014000   0.86381231   -7.9845793    200.95202  0.016514795  0.016293163           26 
 1015000   0.85167788   -8.0090476    201.38808  0.016534325  0.016278419           13 
 1016000   0.85709228   -8.0293968     200.6837  0.016460277  0.016263538           14 
 1017000   0.85244751   -8.0302704    200.54982  0.016433122  0.016248691           18 
 1018000   0.85526058   -8.0110543    200.97924  0.016452132  0.016233847           46 
 1019000    0.8430863   -8.0653852    200.19841   0.01637213  0.016218936           27 
 1020000   0.85790397   -8.0296882    201.35012  0.016450173  0.016204079           15 
 1021000   0.83598655   -8.0676189    200.58901   0.01637194  0.016189187           18 
 1022000   0.84500707   -8.0451161    200.44001  0.016343771  0.016174356           18 
 1023000   0.85345918   -8.0487503     201.1161  0.016382869  0.016159513           16 
 1024000   0.83168603   -8.0705834     200.0503  0.016280135  0.016144629           29 
 1025000   0.85705684   -8.0119048    201.45113  0.016378141  0.016129791           22 
 1026000   0.82942359   -8.0374749    200.82884  0.016311634  0.016114981           12 
 1027000   0.83094237   -8.0492004    200.93878  0.016304672  0.016100222           38 
 1028000   0.83185234   -8.0497141    201.02679  0.016295946  0.016085408           34 
 1029000   0.84230491   -8.0448494    201.13186  0.016288618   0.01607058           30 
 1030000   0.85259601   -8.0753499    201.36502  0.016291669  0.016055839           60 
 1031000   0.83769373   -8.0863536    200.74655  0.016225877  0.016040984           42 
 1032000   0.83143192   -8.0707518    200.96893  0.016228112  0.016026206           21 
 1033000   0.83595604   -8.0462867    201.32412  0.016241055  0.016011464           67 
 1034000   0.84170342   -8.0563758    201.21069  0.016216207  0.015996719           59 
 1035000   0.84655875   -8.0785394    201.56042  0.016228697  0.015981894           65 
 1036000   0.83590809    -8.095742    201.28594  0.016190954  0.015967105           67 
 1037000   0.83377797   -8.0584492    201.42665  0.016186648  0.015952347           51 
 1038000   0.82085842    -8.091137    200.71048  0.016113558  0.015937572           37 
 1039000   0.84120448   -8.1010009    200.95942  0.016118016  0.015922735           78 
 1040000   0.81622787   -8.0780927    201.60433  0.016154193   0.01590798           64 
 1041000   0.82254407    -8.112882    200.69733  0.016066068  0.015893333           89 
 1042000   0.84000156   -8.0681389    201.70044  0.016130873  0.015878763           56 
 1043000   0.84172553   -8.1003013    201.93311  0.016133997  0.015864269           49 
 1044000   0.85454892   -8.0808936    201.63978   0.01609513  0.015849743           61 
 1045000   0.84204091   -8.0892376    201.78698  0.016091466  0.015835168           63 
 1046000   0.83731576   -8.0852898    201.83726  0.016080088  0.015820609           88 
 1047000   0.82715715   -8.0986045     201.4083  0.016030588  0.015805997           70 
 1048000   0.84985347   -8.0879085    201.18995  0.015997929  0.015791349           85 
 1049000   0.83662862   -8.0648529    201.90258   0.01603929  0.015776731           67 
 1050000   0.82905805   -8.1051023    201.93188   0.01602634   0.01576211           58 
 1051000    0.8199741   -8.1317888     201.5991  0.015984705  0.015747459           88 
 1052000   0.82653335    -8.097624    201.78412  0.015984167  0.015732832           81 
 1053000   0.82163024   -8.1384083     201.4309  0.015941033  0.015718257           81 
 1054000   0.82725295   -8.0761999    202.20526  0.015987133  0.015703725           77 
 1055000   0.83209479   -8.1329245    201.81455  0.015941118  0.015689244           81 
 1056000   0.83760508   -8.1089342    201.94956  0.015936676  0.015674722           97 
 1057000   0.81630999   -8.1357132    202.02485  0.015927535  0.015660267           89 
 1058000   0.82262433   -8.1461503    202.14869  0.015922235  0.015645801          117 
 1059000   0.82580555   -8.1478415     201.8286  0.015882011  0.015631277           99 
 1060000   0.85009911   -8.1499301    201.59545  0.015848699  0.015616745          150 
 1061000   0.84523248   -8.1569476    201.68065  0.015840453  0.015602162          115 
 1062000   0.81108874   -8.1633356     201.3363  0.015798517   0.01558752          116 
 1063000   0.83570198    -8.130285    201.72967  0.015814493  0.015573014          230 
 1064000   0.81709253    -8.170137     201.7193  0.015798817  0.015558474          148 
 1065000   0.83173309   -8.1486521    201.91083  0.015798969  0.015543958          175 
 1066000   0.83663185   -8.1698095     201.9034  0.015783568  0.015529398          445 
 1067000   0.79559961    -8.181184    202.03432  0.015779001   0.01551486          205 
 1068000   0.84011954    -8.190966    201.61371  0.015731407  0.015500331          273 
 1069000   0.79969767   -8.1517122    201.78679  0.015730183   0.01548579          257 
 1070000    0.8257761   -8.1599294    202.42414   0.01576512  0.015471252          231 
 1071000   0.82612879   -8.1918833    201.98785  0.015716453  0.015456756          237 
 1072000   0.83881648   -8.1777934    202.16868  0.015715849  0.015442298          298 
 1073000   0.82209255   -8.1957549      201.701   0.01566488  0.015427791          281 
 1074000    0.8365853   -8.1961535     202.1877  0.015688058  0.015413255          256 
 1075000   0.80711981   -8.2046542    202.22613  0.015676444  0.015398822          237 
 1076000   0.80794643   -8.2197743    202.07732   0.01565035  0.015384351          308 
 1077000   0.82986947   -8.2355767    202.05985  0.015634467  0.015369894          313 
 1078000   0.84208822    -8.216791    201.38424  0.015567736  0.015355366          283 
 1079000   0.82038651   -8.1989106    202.29099  0.015623338  0.015340852          340 
 1080000   0.82580729   -8.1932378    202.06372  0.015591337  0.015326329          367 
 1081000   0.81513421   -8.2103174    201.73284  0.015551406  0.015311841          398 
 1082000    0.8040954   -8.2381076    201.40736  0.015511965  0.015297324          738 
 1083000   0.80785281   -8.2506494    202.15215  0.015554952  0.015282805          380 
 1084000   0.81607216    -8.230696    201.85546  0.015517793  0.015268283          414 
 1085000    0.8289467   -8.2489092    201.85866  0.015503738  0.015253732          789 
 1086000   0.82586684   -8.3015188    201.68171  0.015475883  0.015239183          400 
 1087000   0.80224265   -8.2541327    201.58134  0.015453951  0.015224601          427 
 1088000   0.83080701   -8.3061782      201.191   0.01540985  0.015209976          915 
 1089000   0.80145547   -8.2586781    201.92015  0.015451496  0.015195353          444 
 1090000   0.81173367   -8.2828955    201.69994  0.015420484  0.015180703          452 
 1091000   0.81207103   -8.2801695    201.53734  0.015393931  0.015166004          945 
 1092000   0.81604831   -8.2675303    201.48518  0.015375853  0.015151312          976 
 1093000   0.82947068   -8.3229703    201.34591  0.015351168  0.015136644         1021 
 1094000   0.83060099    -8.303624    200.88769  0.015302231   0.01512195          541 
 1095000   0.80979362   -8.3342012    201.17931   0.01531045  0.015107165          563 
 1096000   0.81814583   -8.3274463    201.35347  0.015309723  0.015092413         1016 
 1097000   0.82543265   -8.3115242    201.26109  0.015288749  0.015077559         1014 
 1098000   0.80625851   -8.3603511    200.67281  0.015230177   0.01506272          717 
 1099000   0.84370035   -8.3610637    200.68525  0.015217262  0.015047921         1109 
 1100000   0.81130335    -8.346681    201.18577  0.015241346  0.015033079         1220 
 1101000   0.80601668    -8.352349    200.88372  0.015204641  0.015018194         1200 
 1102000   0.82645107   -8.3701994    201.00024  0.015199655  0.015003325         1230 
 1103000   0.80705873   -8.3616392     201.0226  0.015187564  0.014988438          765 
 1104000   0.81625753   -8.3816424    201.01244   0.01517304  0.014973508         1300 
 1105000   0.81219025   -8.3883764    200.60788    0.0151288  0.014958619         1282 
 1106000   0.80802727   -8.3843035    200.96788  0.015142245  0.014943728         1362 
 1107000    0.8159302   -8.4023135    200.79751  0.015115742  0.014928839         1367 
 1108000   0.82212237   -8.4234318     200.3466  0.015068186  0.014913911         1428 
 1109000   0.80394878   -8.4031014    200.76889   0.01508633  0.014898925          788 
 1110000   0.80214318   -8.4235839    200.80691  0.015075594  0.014883912         1424 
 1111000   0.80047929   -8.3915311    200.35011  0.015027761  0.014868902         1494 
 1112000   0.82162038   -8.4407766    199.97898  0.014986435  0.014853912         1499 
 1113000   0.81713378    -8.433061    200.31407  0.014998058  0.014838898         1587 
 1114000    0.8210954    -8.449343    200.63094  0.015008299  0.014823816         1626 
 1115000   0.82408459   -8.4643988    200.07538  0.014953317  0.014808745         1646 
 1116000   0.80814562   -8.4495201    200.30442   0.01495702   0.01479371         1643 
 1117000   0.79602901   -8.4424735    200.10818   0.01492899   0.01477865         1608 
 1118000   0.79721045   -8.4291315    200.51081  0.014945648   0.01476356         1695 
 1119000   0.80818051   -8.4521829    200.53491  0.014934086  0.014748512         1779 
 1120000   0.81970422    -8.462839    200.28493  0.014902153  0.014733449         1812 
 1121000   0.80304458    -8.458646    199.77819  0.014851188  0.014718363         1757 
 1122000   0.80520192   -8.4805608    200.04481  0.014857755  0.014703258         1870 
 1123000   0.81508416    -8.498285    199.64212  0.014814643  0.014688117         1869 
 1124000   0.78635306   -8.4559712    199.94834  0.014824165  0.014672981         1906 
 1125000   0.80704114   -8.4970603    199.87039  0.014805214  0.014657845         1885 
 1126000   0.79147208   -8.5003233    199.66048   0.01477653  0.014642688         1971 
 1127000   0.81766803   -8.5092918     199.4599  0.014748588  0.014627572         1981 
 1128000   0.78783568   -8.5081334    199.76163  0.014757804  0.014612452         1959 
 1129000   0.79959164   -8.5103617    199.99439  0.014761913  0.014597316         2046 
 1130000   0.80208309   -8.5205426    199.64474  0.014723063  0.014582186         2062 
 1131000   0.78100238    -8.525885    199.54842  0.014702949  0.014567046         2078 
 1132000   0.80620204   -8.5637249    199.26755  0.014669284  0.014551877         2149 
 1133000   0.80774687   -8.5369133    199.34487  0.014662023  0.014536676         2088 
 1134000    0.8029863   -8.5478317    199.66961  0.014672958  0.014521519         2188 
 1135000   0.78894118    -8.564417    199.50387  0.014647861  0.014506298         2080 
 1136000   0.78458032   -8.5685172    199.80428  0.014657004   0.01449111         2184 
 1137000   0.81865664   -8.5770946    198.48768  0.014547616  0.014475951         2212 
 1138000   0.81585893   -8.5616034    199.16733  0.014584602  0.014460786         2162 
 1139000   0.79179247    -8.576311    199.72796  0.014612815  0.014445619         2141 
 1140000   0.80835615   -8.5670754    199.16308  0.014558704  0.014430453         2184 
 1141000   0.79806983    -8.578797    199.30073  0.014555999  0.014415292         2247 
 1142000   0.78092777   -8.5796272    199.67519  0.014570577  0.014400157         2234 
 1143000   0.78201085   -8.5721205    199.42404  0.014539519  0.014385023         2242 
 1144000   0.79541037   -8.5697226    199.66674  0.014544488  0.014369948         2175 
 1145000   0.79190315   -8.5938641    199.28782  0.014504208  0.014354803         2225 
 1146000   0.80666691   -8.5864494    199.30128   0.01449253  0.014339686         2307 
 1147000   0.79400638    -8.585292    199.25415  0.014476471   0.01432448         2295 
 1148000   0.79449228   -8.6288413    199.35431  0.014471132   0.01430934         2320 
 1149000   0.79239645   -8.6037735    198.65734  0.014407988  0.014294159         2312 
 1150000   0.78471514   -8.6241159    199.31527  0.014443136  0.014279009         2309 
 1151000   0.76939143   -8.5888112    199.13759  0.014417723  0.014263859         2392 
 1152000   0.78162267   -8.6250974     198.8877  0.014387131  0.014248705         2403 
 1153000   0.78886289   -8.6470232    198.79155  0.014367704  0.014233559         2400 
 1154000   0.80432464   -8.6293597    199.02772  0.014372308  0.014218426         2431 
 1155000   0.78372638   -8.6114667    198.70639   0.01433668  0.014203232         2448 
 1156000   0.80097817   -8.6475429    198.70082  0.014323877  0.014188059         2482 
 1157000   0.79701987   -8.6454537     199.0581   0.01433723  0.014172907         2480 
 1158000   0.80045065    -8.641622    198.76504  0.014303759  0.014157771         2529 
 1159000   0.77908123    -8.671866    198.12723  0.014245558  0.014142582         2611 
 1160000   0.80258117   -8.6578729    198.32334  0.014247366  0.014127435         2544 
 1161000   0.78164074   -8.6995795    197.95881   0.01420893  0.014112258         2641 
 1162000   0.82199955   -8.6763753    198.26846  0.014218909  0.014097072         2575 
 1163000   0.79045014   -8.6642548    198.09261  0.014194082  0.014081901         2684 
 1164000   0.77871362   -8.6618444    198.23241  0.014191897  0.014066754         2680 
 1165000   0.78692816   -8.6716565    198.12116  0.014171757    0.0140516         2669 
 1166000   0.79509588   -8.6763512    198.59371  0.014193375  0.014036452         2659 
 1167000   0.78491696   -8.6708899    198.37178  0.014165366  0.014021327         2627 
 1168000   0.79051241   -8.6868326    198.83866  0.014186548  0.014006173         2637 
 1169000     0.772062   -8.7122999    198.05122  0.014118279     0.013991         2697 
 1170000   0.78286448   -8.6884857    197.91838  0.014096751  0.013975848         2712 
 1171000   0.80215901   -8.7015196    198.61693  0.014134424  0.013960682         2753 
 1172000   0.78388915   -8.6736012    197.75015  0.014060733  0.013945497         2762 
 1173000   0.76691322   -8.7082452    198.11542  0.014074696  0.013930337         2790 
 1174000   0.77554949   -8.6962962    198.26947  0.014073642  0.013915146         2792 
 1175000   0.80180824   -8.7401638    198.09705  0.014049436  0.013899982         2826 
 1176000   0.78883154   -8.7360511    197.96756  0.014028313  0.013884849         2822 
 1177000   0.78282472   -8.7086546    198.14224  0.014028762  0.013869726         2716 
 1178000   0.78516683   -8.7303899    197.55464  0.013975286  0.013854625         2776 
 1179000   0.80345927   -8.7375207     197.6386  0.013969367  0.013839502         2755 
 1180000   0.80313442   -8.7439198    198.03921   0.01398582  0.013824353         2890 
 1181000   0.78993658   -8.7022877    197.89088  0.013963511  0.013809236         2825 
 1182000     0.786656   -8.7361897    197.56162  0.013928484  0.013794113         2824 
 1183000   0.78017187   -8.7425752    198.00027   0.01394761  0.013779038         2818 
 1184000   0.78873533   -8.7578552    197.42594  0.013895407   0.01376395         2879 
 1185000   0.77276969   -8.7275322    198.02494  0.013925805  0.013748909         2810 
 1186000   0.76803241   -8.7101049    198.38215  0.013939161  0.013733834         2901 
 1187000   0.78251768   -8.7264274    197.82071  0.013888002  0.013718781         2945 
 1188000   0.79257018   -8.7540461    197.79823  0.013874736   0.01370373         2922 
 1189000    0.7638467   -8.7585573    197.76131  0.013860479  0.013688668         2900 
 1190000    0.7704526   -8.7791136    197.50038  0.013830559  0.013673626         2930 
 1191000   0.81118007   -8.7457016    197.62394  0.013827592  0.013658604         2941 
 1192000   0.76574206   -8.7702201    197.89375  0.013834854  0.013643587         2980 
 1193000   0.76958236   -8.7882576     197.2298  0.013776879  0.013628579         2982 
 1194000   0.77903574   -8.7541375    197.82813    0.0138071  0.013613573         2967 
 1195000   0.78365635   -8.7392047    197.49272  0.013772156   0.01359862         2894 
 1196000   0.77326052   -8.7558678    197.64085  0.013770962  0.013583665         2904 
 1197000    0.7666891   -8.7810696    196.70953   0.01369462  0.013568706         2948 
 1198000   0.78270958   -8.7622899    197.51551  0.013739254  0.013553772         2925 
 1199000   0.78363734   -8.7618293    197.65945  0.013737799  0.013538868         2884 
 1200000   0.77781897   -8.7879411    197.22603  0.013696252  0.013523962         2945 
 1201000   0.76857442   -8.7845465    197.12899  0.013678115  0.013509062         2967 
 1202000   0.77433981   -8.7914543    197.50717  0.013692954  0.013494193         2938 
 1203000   0.76380948   -8.7944147    197.46799  0.013678858  0.013479333         2919 
 1204000   0.78391146   -8.7699969    197.23301  0.013651233  0.013464452         2950 
 1205000   0.75030457   -8.7860499    197.75225  0.013675813  0.013449644         2948 
 1206000   0.78576595   -8.8022489    197.42642  0.013641958  0.013434821         2965 
 1207000   0.76822324   -8.7984285    197.23415  0.013617381  0.013420021         2973 
 1208000   0.77300698   -8.7715824    197.25885  0.013607812  0.013405258         2902 
 1209000   0.76542696    -8.782701    196.99438  0.013578328  0.013390488         2953 
 1210000   0.76093385   -8.7659856    196.97049  0.013565461  0.013375736         2948 
 1211000   0.77271073   -8.7938935    197.22351   0.01357167     0.013361         2995 
 1212000    0.7533881   -8.7607156    197.35241  0.013569335  0.013346267         2957 
 1213000   0.74696185   -8.8119101     197.2202  0.013549066  0.013331563         3078 
 1214000   0.77708521   -8.8122436    197.30449  0.013543691   0.01331683         2988 
 1215000   0.75695832   -8.7945022    197.31498  0.013533264  0.013302131         2938 
 1216000   0.77600132   -8.7980429    197.25651  0.013518127  0.013287463         2954 
 1217000   0.75889951   -8.8058295    197.02835  0.013491396  0.013272777         2976 
 1218000   0.78226945   -8.7949059    197.10858  0.013485809  0.013258124         2984 
 1219000   0.75930326   -8.7857687    197.39561  0.013494367  0.013243509         2995 
 1220000   0.76268564   -8.8163018    197.21804  0.013471178  0.013228907         2951 
 1221000   0.78501064   -8.7821069    197.44706  0.013475775   0.01321431         2911 
 1222000   0.77770559     -8.81052    197.45722  0.013465441  0.013199737         2979 
 1223000   0.77299917    -8.795602    197.12776  0.013431981  0.013185186         2973 
 1224000   0.75973764   -8.7971947    197.30362   0.01343298  0.013170668         3009 
 1225000   0.77473987   -8.7890368    197.35382   0.01342543  0.013156181         3011 
 1226000   0.76751262   -8.7910214    197.48025  0.013423073  0.013141671         2927 
 1227000   0.77083746   -8.8009834    197.39097   0.01340607  0.013127162         2966 
 1228000   0.76588613   -8.7779023    197.62666  0.013411147  0.013112669         2962 
 1229000    0.7690055    -8.803981    197.01348  0.013358657  0.013098177         3010 
 1230000   0.76744045   -8.8180147    197.43594  0.013376418  0.013083718         3019 
 1231000   0.76359097    -8.772133    197.09378   0.01334239  0.013069287         3019 
 1232000   0.78198439   -8.8297726     197.3664      0.01335  0.013054835         3023 
 1233000   0.76843406   -8.8189254     197.4602  0.013345512  0.013040398         3018 
 1234000   0.76341454     -8.79028    197.29501  0.013323542  0.013025993         2953 
 1235000    0.7693288    -8.821697    197.12343  0.013301176  0.013011598         2989 
 1236000   0.78001256    -8.818071    197.11293  0.013289707  0.012997199         3048 
 1237000   0.75812391   -8.8349253    196.80056  0.013257919  0.012982818         2991 
 1238000   0.76050143   -8.8494191    197.09306  0.013266899  0.012968447         3052 
 1239000   0.76304018   -8.7880712    197.25069  0.013266794  0.012954133         3040 
 1240000   0.73997956   -8.7981602    197.06039  0.013243306  0.012939818         3023 
 1241000    0.7503793    -8.832824    196.71236  0.013209264  0.012925506         3090 
 1242000   0.76958297   -8.8169574    196.82532  0.013206208  0.012911227         3023 
 1243000   0.75084792   -8.8407462    197.12242  0.013215502  0.012896942         3080 
 1244000   0.75062349   -8.8177394    197.49584  0.013229893  0.012882716         3049 
 1245000   0.73885617   -8.8108214    196.94993  0.013182726  0.012868487         3077 
 1246000   0.73502886   -8.8287015    196.85972  0.013166113  0.012854261         3094 
 1247000   0.76037998   -8.8100119    196.94508  0.013161259  0.012840049         2997 
 1248000   0.74549674   -8.8376094    197.15993   0.01316506  0.012825882         3117 
 1249000   0.76169372   -8.8186633     197.3549  0.013167527  0.012811729         2979 
 1250000    0.7677638    -8.825734    196.96743  0.013131162  0.012797595         3006 
 1251000   0.75943534   -8.8346371    196.66752  0.013100688  0.012783485         3056 
 1252000   0.75193831   -8.8243618    197.07918  0.013117624  0.012769358         3066 
 1253000   0.76529818    -8.840181    196.78794  0.013087786  0.012755239         3094 
 1254000   0.77952744   -8.8449253    196.32684  0.013046706  0.012741165         3030 
 1255000   0.75607183   -8.8501877      197.137  0.013090106   0.01272709         2979 
 1256000   0.74185573   -8.8259144    197.08329  0.013076121  0.012713026         2981 
 1257000   0.74656601   -8.8283213    197.07138  0.013064928  0.012698989         3003 
 1258000   0.75057737   -8.8144284    197.12875  0.013058344  0.012684953         3057 
 1259000   0.74346888    -8.836644    197.08161  0.013044851  0.012670942         3112 
 1260000   0.75800121   -8.8445345    196.83392  0.013018116  0.012656951         3082 
 1261000   0.74807858   -8.8393227     197.5334  0.013054018  0.012642973         3110 
 1262000   0.74507834   -8.8115878     197.0402  0.013011107  0.012628997         3125 
 1263000   0.75384825   -8.8375589    196.94965   0.01299483   0.01261504         3084 
 1264000   0.73130092   -8.8268775    197.16312  0.012998623  0.012601106         3085 
 1265000   0.73912435   -8.8280506    196.93687  0.012973443  0.012587157         3078 
 1266000   0.75138172   -8.8525853    196.55944  0.012938351  0.012573243         3058 
 1267000   0.75608252    -8.857273    196.43147  0.012919723  0.012559363         3107 
 1268000   0.75192688   -8.8176122    196.89707  0.012940133  0.012545479         3108 
 1269000   0.74264414   -8.8584928    196.89141  0.012929564    0.0125316         3127 
 1270000   0.76729304   -8.8531388    196.57382  0.012898545  0.012517708         3125 
 1271000    0.7396467   -8.8609087    196.83726  0.012905669  0.012503862         3141 
 1272000   0.75393448    -8.848843    196.89993  0.012899628  0.012490045         3070 
 1273000   0.75343763   -8.8564194    196.89422  0.012889121  0.012476228         3168 
 1274000   0.74514782   -8.8639744    196.50956  0.012853843  0.012462441         3125 
 1275000   0.73335789   -8.8764388    196.55884  0.012846983  0.012448642         3141 
 1276000   0.75260629   -8.8404639    196.59746  0.012839437   0.01243489         3061 
 1277000   0.75862101   -8.8597288    196.59699  0.012829352  0.012421126         3098 
 1278000   0.75387317   -8.8830261    196.69715  0.012825844  0.012407385         3187 
 1279000   0.74601435    -8.856575    196.47002  0.012801017  0.012393654         3113 
 1280000   0.75281983   -8.8567369    196.62534  0.012801129  0.012379943         3117 
 1281000   0.73845219   -8.8582211    196.93294  0.012811146  0.012366252         3109 
 1282000   0.73426094   -8.8624775    196.67198   0.01278419  0.012352574         3109 
 1283000   0.73721722   -8.8637019    196.75144  0.012779387  0.012338923         3082 
 1284000   0.74901576    -8.854972    197.17393  0.012796854  0.012325288         3062 
 1285000   0.73830257   -8.8841292    196.34165  0.012732922   0.01231168         3129 
 1286000   0.72648136   -8.8708367    196.86323  0.012756819  0.012298079         3133 
 1287000   0.76100701    -8.862868    196.45442  0.012720436   0.01228448         3155 
 1288000   0.73774842   -8.8847297     196.5219  0.012714926  0.012270924         3111 
 1289000   0.73785321    -8.887234    196.18579  0.012683333  0.012257343         3131 
 1290000   0.73359802   -8.8624955    196.50848  0.012694346  0.012243776         3132 
 1291000   0.73911813   -8.8925985    196.43797  0.012679962    0.0122302         3102 
 1292000   0.75372237   -8.8857873    196.62401  0.012682147  0.012216671         3135 
 1293000   0.72631932   -8.8786769    196.54888  0.012667497  0.012203143         3108 
 1294000   0.73386571   -8.8980629    196.65261  0.012664387  0.012189649         3165 
 1295000   0.73482714   -8.8737776    196.54535  0.012647706  0.012176156         3066 
 1296000   0.72645716   -8.8917751    196.51104  0.012635741   0.01216268         3179 
 1297000   0.75415084   -8.8768135    196.49382  0.012624892   0.01214922         3154 
 1298000   0.72731515   -8.8891441    196.69255  0.012627924  0.012135784         3158 
 1299000   0.73757864    -8.896554    196.26798  0.012590966  0.012122338         3151 
 1300000   0.73478156   -8.8933379    196.13596  0.012572818  0.012108912         3155 
 1301000   0.73302072   -8.8764619    195.98807  0.012553681  0.012095525         3159 
 1302000    0.7229281   -8.8859454    196.31924  0.012565235  0.012082154         3175 
 1303000   0.75000756   -8.8802523    195.99656  0.012534955  0.012068787         3158 
 1304000   0.73416635   -8.8768623    196.48038  0.012556261   0.01205543         3107 
 1305000   0.73430494   -8.8988812    196.57879  0.012552924  0.012042104         3135 
 1306000    0.7337259   -8.9058712    195.73689  0.012489592  0.012028783         3154 
 1307000   0.74366654   -8.9005689    196.31305  0.012516772  0.012015496         3168 
 1308000   0.73911318   -8.8841689     196.2501  0.012503192  0.012002227         3144 
 1309000   0.73332405   -8.8975509    196.47436  0.012507917  0.011988985         3110 
 1310000   0.74755398    -8.884504    196.51313  0.012500835  0.011975754         3107 
 1311000   0.71717796   -8.8930713    196.70463  0.012503473  0.011962537         3133 
 1312000   0.71985477   -8.8592187     196.3269   0.01246995  0.011949323         3144 
 1313000   0.71008761   -8.9160107    195.95559  0.012436887  0.011936142         3145 
 1314000   0.73039754   -8.9161116    196.81725  0.012482068  0.011922976         3154 
 1315000   0.74578263   -8.9185036    196.58403  0.012457796  0.011909834         3175 
 1316000   0.72068113    -8.894975    196.00169  0.012411454  0.011896692         3154 
 1317000   0.73030377   -8.9015084    195.91585  0.012396599  0.011883556         3109 
 1318000   0.72306435   -8.9030266    196.58264  0.012429352  0.011870441         3203 
 1319000   0.72580921   -8.9163765    196.40485  0.012408696  0.011857366         3153 
 1320000   0.73160989   -8.9042376    196.56433  0.012409365  0.011844307         3168 
 1321000   0.73698171   -8.9110968     196.3992  0.012389553  0.011831267         3132 
 1322000   0.73603287   -8.8900297    196.41316  0.012381062  0.011818242         3129 
 1323000   0.72830442   -8.9032274    196.06974  0.012350071  0.011805216         3134 
 1324000   0.72436626    -8.911614    196.48385  0.012366808  0.011792209         3117 
 1325000   0.69595426   -8.9009979    196.42715  0.012353909  0.011779211         3160 
 1326000   0.70570735   -8.9202001    196.14156  0.012326644  0.011766248         3136 
 1327000   0.72605637   -8.8752845     196.4625  0.012337509  0.011753295         3172 
 1328000   0.72757711   -8.8994295    196.37654  0.012322825  0.011740359         3119 
 1329000   0.70967579   -8.9378039    196.03008  0.012291828  0.011727432         3138 
 1330000   0.70409637   -8.9409983    196.17335  0.012291563  0.011714524         3134 
 1331000   0.72549609   -8.9021465     196.6048  0.012309341  0.011701622         3100 
 1332000   0.70422541   -8.9189176    196.64856  0.012302838  0.011688739         3162 
 1333000   0.74025723   -8.8884164    196.38262  0.012276983  0.011675881         3161 
 1334000   0.70913185   -8.8966739      196.709  0.012288169  0.011663038         3103 
 1335000   0.72917086   -8.9192306    196.01545  0.012235671    0.0116502         3190 
 1336000   0.73901621   -8.8964713    196.20252  0.012238181  0.011637391         3203 
 1337000   0.72883976   -8.9140641     196.2736  0.012233458  0.011624612         3178 
 1338000   0.73018723   -8.9116969    196.22727  0.012221429  0.011611829         3139 
 1339000    0.7287199   -8.9384126    195.77415  0.012184102  0.011599069         3122 
 1340000   0.71968644   -8.9019745    196.20751  0.012201959  0.011586309         3176 
 1341000   0.72478727   -8.9368806    196.27172   0.01219685  0.011573565         3177 
 1342000   0.71173129   -8.8991913    196.33662  0.012191792  0.011560851         3110 
 1343000   0.71688141   -8.9254749    195.95193  0.012158844  0.011548145         3174 
 1344000   0.73340005   -8.9261745    196.19034   0.01216458   0.01153546         3155 
 1345000    0.7282372   -8.9121626    195.97743  0.012142344  0.011522791         3142 
 1346000   0.73279857    -8.944594    196.04301  0.012137383  0.011510152         3172 
 1347000    0.7128816   -8.9101209    196.20433  0.012138352   0.01149752         3183 
 1348000   0.69709431   -8.9472512    195.91807  0.012111651  0.011484885         3130 
 1349000   0.71052403   -8.9127982    195.88566  0.012100671  0.011472288         3164 
 1350000   0.71041459   -8.9210856    196.21308  0.012111919    0.0114597         3174 
 1351000   0.71776466   -8.9305398    196.24114  0.012104684  0.011447094         3162 
 1352000    0.7154412   -8.9011553    196.17872  0.012091884  0.011434536         3173 
 1353000   0.71949886   -8.9252923    195.92422  0.012067271  0.011421979         3171 
 1354000   0.71434566   -8.9408759    195.97338  0.012061385   0.01140943         3187 
 1355000   0.71570363   -8.9064906    195.85423  0.012045156  0.011396904         3150 
 1356000   0.71692377    -8.915881    196.01337  0.012046053  0.011384385         3201 
 1357000   0.71516177   -8.9400675    196.00244  0.012036504  0.011371894         3239 
 1358000   0.70887105   -8.9435834    195.90165  0.012021456  0.011359398         3119 
 1359000   0.71485945   -8.9220954    195.90486  0.012012807  0.011346943         3154 
 1360000    0.7185043   -8.9416989    195.80801   0.01199804  0.011334488         3185 
 1361000   0.70649145   -8.9533734    195.67376  0.011981004  0.011322048         3170 
 1362000     0.717437   -8.9416842    196.02688  0.011993813  0.011309638         3201 
 1363000   0.70440863   -8.9435326    196.00016   0.01198338  0.011297246         3173 
 1364000   0.71951015   -8.9421623    196.01925  0.011975761  0.011284873         3211 
 1365000   0.71382585   -8.9311394    195.87922  0.011958438  0.011272518         3211 
 1366000   0.72845263   -8.9468232    195.84753  0.011947751  0.011260154         3196 
 1367000   0.70339717    -8.927228    195.84697  0.011938977  0.011247826         3148 
 1368000   0.70040328   -8.9276865    195.66963  0.011919446  0.011235525         3142 
 1369000   0.70616704   -8.9327017    195.76446  0.011916512  0.011223243         3177 
 1370000   0.70473058    -8.925616    196.05358    0.0119254  0.011210953         3182 
 1371000   0.70826321   -8.9370796    195.86458  0.011905214  0.011198698         3189 
 1372000   0.71018758   -8.9498699    195.60568  0.011880811  0.011186438         3213 
 1373000   0.70833788   -8.9595079     195.6551  0.011875158  0.011174199         3218 
 1374000   0.70997105   -8.9282856    196.34364  0.011908275  0.011161967         3180 
 1375000   0.70696772   -8.9146058    195.54276  0.011851076  0.011149763         3170 
 1376000   0.70747143     -8.93329    195.65661  0.011849359  0.011137568         3239 
 1377000   0.70201011   -8.9731187    195.65554  0.011840688  0.011125385         3257 
 1378000   0.70712955   -8.9565766    195.69628   0.01183456  0.011113231         3199 
 1379000   0.69568444   -8.9638573    195.87501  0.011836778  0.011101093         3233 
 1380000   0.69213377   -8.9508235    195.68337  0.011816629  0.011088968         3187 
 1381000   0.70310082   -8.9140667    195.87963  0.011819915  0.011076858         3153 
 1382000     0.705435    -8.954333    195.63025  0.011796325  0.011064774         3203 
 1383000   0.71786426   -8.9660437    195.86002   0.01180164  0.011052714         3127 
 1384000   0.69087797   -8.9681293    195.88236  0.011794458  0.011040661         3178 
 1385000   0.69890692   -8.9655437    195.80289  0.011781161  0.011028628         3188 
 1386000   0.69185358   -8.9782819    195.28713  0.011741651  0.011016615         3158 
 1387000   0.68098851     -8.94538    195.77215  0.011762326  0.011004601         3193 
 1388000   0.69109208   -8.9465835    196.20643  0.011779925  0.010992623         3180 
 1389000   0.69831508   -8.9450095    196.02458  0.011760534  0.010980645         3200 
 1390000   0.70028524   -8.9782581    195.65369  0.011729838  0.010968674         3224 
 1391000    0.7076034   -8.9622128    195.74981  0.011727163  0.010956732         3200 
 1392000   0.70055939   -8.9554648    195.94307  0.011730308  0.010944812         3209 
 1393000   0.71531567   -8.9583262    195.77669  0.011711934  0.010932903         3197 
 1394000    0.7157572   -8.9504283    195.56765  0.011691036  0.010921015         3179 
 1395000   0.69177721   -8.9480182    195.79626  0.011696312  0.010909131         3170 
 1396000   0.70197286   -8.9667473    195.40181  0.011664387  0.010897243         3196 
 1397000   0.70905443    -8.950576    195.69456    0.0116735  0.010885394         3221 
 1398000   0.69285402    -8.983064    195.66189  0.011663203  0.010873566         3173 
 1399000   0.69661918   -8.9685969    195.93004  0.011670839   0.01086176         3163 
 1400000    0.6961515   -8.9448944    196.10932  0.011673174  0.010849952         3253 
 1401000   0.69476776    -8.977199     195.8245    0.0116479  0.010838166         3195 
 1402000   0.69716211   -8.9577438     195.7742  0.011636602  0.010826399         3169 
 1403000   0.69114739   -8.9706027    196.02545  0.011643232  0.010814642         3191 
 1404000   0.68714305   -8.9646135    196.02156  0.011634708  0.010802909         3182 
 1405000   0.69298591   -8.9879179    195.67772  0.011606033  0.010791179         3203 
 1406000   0.69111256   -8.9622826    195.91817   0.01161203  0.010779469         3214 
 1407000   0.68637556    -8.973062    195.53597   0.01158114  0.010767779         3252 
 1408000   0.68245928   -8.9735955    195.48433  0.011569859  0.010756095         3213 
 1409000   0.66156319   -8.9656095    195.57464  0.011566989  0.010744414         3203 
 1410000    0.6784668   -8.9901802    195.43176  0.011550341  0.010732762         3237 
 1411000   0.70437384   -8.9588718     195.7181  0.011559065  0.010721125         3181 
 1412000   0.66901481   -8.9722758    195.53696  0.011540189  0.010709499         3191 
 1413000   0.70651011   -8.9864191    195.80652  0.011547919  0.010697905         3216 
 1414000   0.69312639   -8.9838762    195.48091  0.011520563  0.010686309         3233 
 1415000   0.69729318   -8.9586447    195.59333  0.011519042   0.01067474         3251 
 1416000    0.6849404   -8.9618076    195.43686  0.011501698  0.010663163         3228 
 1417000   0.70063584    -8.970806    195.60858   0.01150368  0.010651608         3208 
 1418000   0.69000279   -8.9798852    195.65411  0.011498243  0.010640067         3217 
 1419000   0.67841206   -8.9752695    195.42323  0.011476582  0.010628546         3240 
 1420000   0.68625072   -8.9687317    195.46535  0.011470971  0.010617055         3208 
 1421000   0.68450853   -8.9970538    195.24424  0.011449932  0.010605566         3237 
 1422000   0.67914229    -8.980777    195.83693  0.011476613  0.010594102         3254 
 1423000   0.69018485   -8.9918378    195.36947  0.011441173  0.010582644         3278 
 1424000   0.68256295   -8.9680021     195.8474  0.011461107  0.010571213         3231 
 1425000   0.68791314   -8.9795306       195.39  0.011426316  0.010559795         3203 
 1426000   0.66406232   -8.9861876    195.74001  0.011438757  0.010548393         3243 
 1427000   0.69851855   -8.9732249    195.73614  0.011430515  0.010536999         3232 
 1428000   0.67818175   -8.9977358    195.53237  0.011410619  0.010525625         3185 
 1429000   0.68092972   -8.9769225    195.81836  0.011419312  0.010514265         3237 
 1430000   0.67391575   -8.9951393     195.5425  0.011395251   0.01050292         3247 
 1431000    0.6867384   -8.9527264    195.88047  0.011406969  0.010491598         3202 
 1432000   0.67740165   -8.9981711      195.432  0.011372905  0.010480271         3238 
 1433000   0.68524977   -8.9693956    195.86206  0.011389978  0.010468956         3255 
 1434000    0.6719368   -8.9761226    195.48345  0.011360033  0.010457676         3222 
 1435000   0.68244541   -9.0034699    195.19322  0.011335263  0.010446397         3247 
 1436000   0.68123277   -8.9900812    195.19027  0.011327198  0.010435134         3246 
 1437000   0.69200191   -9.0088826    195.39998  0.011331476  0.010423892         3219 
 1438000   0.68772227   -8.9937888    195.49716  0.011329228   0.01041266         3280 
 1439000    0.6716796   -8.9850907    195.50466  0.011321789   0.01040143         3234 
 1440000   0.68189577    -8.971311    195.62337  0.011320797  0.010390228         3238 
 1441000   0.66943378   -8.9926501    195.68274  0.011316374  0.010379026         3232 
 1442000   0.66792052   -9.0054294    195.36626  0.011290237  0.010367841         3197 
 1443000   0.67924806   -9.0131168    195.53498  0.011292156  0.010356683         3259 
 1444000   0.69371257   -8.9971108    195.70353  0.011294063  0.010345544         3250 
 1445000   0.67592427   -9.0177099      195.373  0.011267185  0.010334406         3268 
 1446000   0.66908431   -9.0053665    195.08614  0.011242862  0.010323282         3259 
 1447000   0.68580875   -9.0120705    194.99623  0.011229914  0.010312184         3279 
 1448000   0.68815994   -9.0060051    195.28605  0.011238838  0.010301097         3264 
 1449000   0.68721806   -8.9978164    195.32418  0.011233275  0.010290012         3262 
 1450000   0.68342159   -9.0016863    195.39849  0.011229798  0.010278964         3253 
 1451000   0.67358091   -9.0019995    195.83985  0.011247407  0.010267926         3224 
 1452000   0.65702511   -8.9991833      195.129  0.011198864  0.010256893         3262 
 1453000   0.67656075   -9.0006495    195.44899  0.011209508  0.010245883         3296 
 1454000   0.67500105   -9.0158022    195.09828  0.011181699  0.010234896         3229 
 1455000   0.68241816   -9.0248849    195.55064  0.011199922  0.010223918         3250 
 1456000   0.67436922   -9.0209217    195.44806  0.011186359  0.010212951         3266 
 1457000   0.66130048   -9.0004797    195.22965  0.011166189  0.010202004         3279 
 1458000   0.65948753   -9.0075851    195.36977  0.011166539  0.010191069         3303 
 1459000   0.67187676   -8.9981629    195.32426  0.011156286  0.010180146         3221 
 1460000   0.67665967   -8.9986334    195.65593  0.011167576  0.010169236         3281 
 1461000   0.65975884   -9.0308197    195.11854   0.01112928  0.010158352         3231 
 1462000   0.68386784   -9.0102461    195.35068    0.0111349  0.010147468         3237 
 1463000   0.66554617   -8.9931366     195.3806  0.011128993  0.010136605         3215 
 1464000   0.67161919   -8.9931393    195.85273  0.011148266  0.010125751         3220 
 1465000   0.67100484   -9.0114057     195.4739  0.011119107  0.010114909         3262 
 1466000   0.66440369   -9.0090062    195.08754   0.01108956  0.010104074         3261 
 1467000   0.65747365   -8.9917523    195.63283  0.011112976  0.010093261         3289 
 1468000   0.67592905   -9.0332423    195.31297  0.011087249  0.010082456         3280 
 1469000   0.66234147   -9.0306728    195.43453  0.011086597  0.010071664         3288 
 1470000   0.66087637   -9.0289286    195.53626  0.011084822  0.010060894         3287 
 1471000   0.66569988   -9.0003001    195.39113  0.011069065  0.010050141         3242 
 1472000   0.65864402   -8.9985916     195.4051  0.011062336  0.010039408         3285 
 1473000    0.6763912   -9.0167358    194.98821   0.01103124  0.010028695         3262 
 1474000   0.68030031   -9.0178455    195.14885  0.011032838  0.010017977         3297 
 1475000   0.66950519   -9.0116394    195.00213   0.01101707  0.010007284         3269 
 1476000   0.67415699   -9.0065236    195.39485  0.011031778 0.0099966002         3296 
 1477000   0.65223219    -9.019082    195.35112  0.011021841 0.0099859323         3242 
 1478000   0.66052767   -9.0358643    195.04126  0.010996913 0.0099752811         3286 
 1479000    0.6564448   -9.0330942    195.06211  0.010990653  0.009964638         3257 
 1480000   0.68447083   -9.0015125    195.66674  0.011017272 0.0099540026         3301 
 1481000   0.64499114   -9.0382107    194.98363  0.010971395 0.0099433895         3306 
 1482000   0.66099726    -9.000234    194.86887  0.010957539 0.0099327767         3265 
 1483000   0.66347736   -9.0146014    195.20427  0.010968997 0.0099221861         3240 
 1484000   0.64968602   -9.0137324    194.91403  0.010945307 0.0099116081         3234 
 1485000    0.6565727   -9.0368282    195.12536  0.010949796 0.0099010475         3291 
 1486000   0.67344087   -9.0005104    194.75422  0.010921614 0.0098904985         3270 
 1487000    0.6609299   -9.0177242    195.22339  0.010940562 0.0098799673         3299 
 1488000   0.65753564    -9.027331    195.07275  0.010924773 0.0098694625         3241 
 1489000    0.6605796    -9.036678    195.12352  0.010920278 0.0098589591         3312 
 1490000   0.64848197   -9.0108594    195.20638  0.010917583 0.0098484685         3243 
 1491000   0.64414488   -9.0276035    195.41902  0.010922145 0.0098380056         3310 
 1492000   0.64967096   -9.0242691    194.99417  0.010891095 0.0098275447         3275 
 1493000   0.66223085   -8.9981726     195.2457   0.01089784 0.0098171077         3272 
 1494000   0.65290566   -9.0354543    195.14889  0.010885145 0.0098066839         3322 
 1495000   0.64820488   -9.0187237    194.92094  0.010865158 0.0097962832         3278 
 1496000   0.65122108   -9.0456812    194.99432  0.010861983 0.0097858794         3295 
 1497000   0.66583776   -9.0180284    195.10893  0.010861107 0.0097754932         3228 
 1498000   0.65554987   -9.0312607    194.92489  0.010843619 0.0097651246         3290 
 1499000   0.66198458   -9.0374591    194.89623  0.010834791 0.0097547543         3278 
 1500000   0.64927471   -9.0348383    195.00837  0.010833798 0.0097443981         3283 
 1501000   0.67068495    -9.025764    194.93278  0.010822384 0.0097340792         3307 
 1502000   0.65386315   -9.0276101    194.91808  0.010814363 0.0097237592         3312 
 1503000   0.64835006   -9.0366167    195.04766  0.010814352 0.0097134444         3239 
 1504000   0.65116565   -9.0342013    195.06397  0.010808066  0.009703159         3258 
 1505000   0.64907146   -9.0512111    194.73394   0.01078261 0.0096928899         3331 
 1506000    0.6484282   -9.0308133    194.93129   0.01078637  0.009682626         3259 
 1507000   0.64500589   -9.0444147    194.80216  0.010772072 0.0096723613         3319 
 1508000   0.65274423   -9.0349201    194.98322  0.010774935 0.0096621286         3291 
 1509000   0.66218901   -9.0312798    194.94879  0.010765893 0.0096519055         3259 
 1510000   0.65322838   -9.0425103    195.07906  0.010765952 0.0096416927         3281 
 1511000   0.64955274   -9.0541571    194.67717  0.010736663 0.0096314898         3283 
 1512000   0.66014337   -9.0518833    195.11969  0.010753951 0.0096213048         3260 
 1513000   0.64034807   -9.0575069    194.90496  0.010735017 0.0096111258         3281 
 1514000   0.65586589   -9.0256661    195.19567  0.010743927 0.0096009696         3299 
 1515000   0.63632563   -9.0536644    195.19022  0.010736536 0.0095908149         3310 
 1516000    0.6545103   -9.0361501    194.84031  0.010710219 0.0095806904         3294 
 1517000    0.6480862   -9.0472055    195.12532  0.010718815 0.0095705689         3330 
 1518000   0.64459861   -9.0395501    195.28544  0.010720545 0.0095604685         3247 
 1519000   0.65381148   -9.0620985    195.07042  0.010701691 0.0095503752         3317 
 1520000   0.65264833   -9.0480046    194.93503  0.010687228 0.0095402942         3281 
 1521000   0.65343066   -9.0498538    195.04532  0.010686244 0.0095302393         3255 
 1522000   0.64684851   -9.0544357    194.72768  0.010661831 0.0095201889         3300 
 1523000   0.64878166   -9.0612988    194.77644  0.010657499 0.0095101489         3261 
 1524000   0.66430977   -9.0215078    194.84453  0.010654228 0.0095001282         3302 
 1525000   0.65580568   -9.0555079    194.93675  0.010652282 0.0094901172         3282 
 1526000   0.63617152   -9.0530882    195.10526  0.010654503 0.0094801167         3285 
 1527000    0.6444465    -9.050222    194.72854  0.010626967 0.0094701236         3271 
 1528000   0.64745984   -9.0333468    194.46671  0.010605732 0.0094601518         3263 
 1529000   0.63845804   -9.0520419    194.89316  0.010622039 0.0094501971         3293 
 1530000    0.6340231   -9.0514938    195.06498  0.010624454 0.0094402416         3320 
 1531000   0.63680476   -9.0567547    194.71812  0.010598635 0.0094303129         3247 
 1532000   0.64862295   -9.0509097    195.08415  0.010611627 0.0094204029         3333 
 1533000   0.65286187   -9.0569182    194.84082  0.010591478 0.0094104991         3304 
 1534000   0.64320852   -9.0562253    194.61819  0.010572479 0.0094006107         3274 
 1535000   0.63500359   -9.0593921    195.01033   0.01058688 0.0093907294         3305 
 1536000   0.63298126   -9.0659177    195.04378  0.010581802 0.0093808646         3301 
 1537000   0.64060242   -9.0354477     195.0771  0.010576724 0.0093710228         3278 
 1538000   0.62746432   -9.0835268    194.67009  0.010547794 0.0093611817         3333 
 1539000   0.64062422   -9.0558295    194.74554  0.010545026 0.0093513599         3258 
 1540000     0.633925   -9.0791896    194.88663  0.010545813 0.0093415494         3277 
 1541000   0.65381713   -9.0623888    194.91665  0.010540593 0.0093317458         3290 
 1542000   0.63130985   -9.0572425    194.97029  0.010536656 0.0093219526         3309 
 1543000   0.64532035   -9.0813679    194.82057  0.010521741 0.0093121725         3269 
 1544000   0.63807249   -9.0584278    194.39683  0.010492057  0.009302414         3337 
 1545000   0.63521591   -9.0727886     194.7591  0.010504806 0.0092926753         3357 
 1546000   0.62866691     -9.06702     194.9365  0.010507573 0.0092829439         3283 
 1547000   0.62507572   -9.0599019    194.99133  0.010503735 0.0092732249         3281 
 1548000   0.62640424   -9.0699341    194.49343  0.010470146 0.0092635259         3327 
 1549000   0.64154629    -9.058821    194.83335  0.010481673 0.0092538268         3328 
 1550000   0.62960567   -9.0614862    195.07081  0.010487678 0.0092441559         3318 
 1551000   0.63935758   -9.0930139    194.96746  0.010475363    0.0092345         3267 
 1552000   0.64259844     -9.07385    194.53086  0.010445171  0.009224841         3316 
 1553000   0.64339847   -9.0679485    194.76416  0.010450964 0.0092151966         3276 
 1554000   0.63196196   -9.0770469     194.6822  0.010439843  0.009205567         3293 
 1555000   0.63474703   -9.0710111    194.81275  0.010440126 0.0091959555         3275 
 1556000   0.63544876    -9.071063    194.70428  0.010427607 0.0091863549         3257 
 1557000   0.63547515   -9.0725243    194.16872  0.010392246 0.0091767775         3316 
 1558000   0.63584568   -9.0751644    194.32116  0.010393729 0.0091672049         3235 
 1559000   0.64302335   -9.0592883    194.83452  0.010414503 0.0091576478         3284 
 1560000   0.64084392   -9.0932642    194.57455   0.01039394 0.0091480984         3291 
 1561000   0.61782001   -9.0705618    194.90848  0.010405108 0.0091385622         3270 
 1562000   0.62562531   -9.0689433    194.44199  0.010373559 0.0091290254         3368 
 1563000   0.62624689   -9.0515288    194.53938  0.010372114 0.0091195107         3305 
 1564000   0.63167281   -9.0839528    194.80916  0.010379857 0.0091100124         3265 
 1565000   0.62395283   -9.0824514    194.54648  0.010359238 0.0091005278         3320 
 1566000   0.62976526   -9.0650816    194.89274  0.010371048 0.0090910589         3326 
 1567000   0.62795334    -9.078721    194.72344  0.010355426 0.0090815932         3327 
 1568000   0.62766389   -9.0747414    193.87287  0.010303618 0.0090721366         3303 
 1569000    0.6281483   -9.0650545    194.78257  0.010345367  0.009062702         3272 
 1570000   0.63527252   -9.0883975    194.30894  0.010313638 0.0090532726         3299 
 1571000   0.61883174   -9.0884778    194.57148     0.010321 0.0090438536         3311 
 1572000   0.63694415   -9.0935728    194.60721  0.010316328 0.0090344632         3261 
 1573000    0.6357537   -9.0761024    194.81211  0.010320625 0.0090250857         3277 
 1574000   0.62715065   -9.0758917    194.54073    0.0102997 0.0090157166         3288 
 1575000   0.61659118   -9.0843933    194.34867  0.010282998 0.0090063487         3323 
 1576000   0.63280455   -9.0856935    194.80336  0.010300516 0.0089969961         3322 
 1577000    0.6223789   -9.0957828     194.6917  0.010288084 0.0089876678         3278 
 1578000   0.63022217   -9.0834809    194.86335  0.010290629 0.0089783368         3341 
 1579000   0.63087187   -9.0783915    194.17463  0.010247764   0.00896903         3359 
 1580000   0.61559874   -9.0905245    194.66004   0.01026688 0.0089597319         3312 
 1581000   0.62078803    -9.088493    194.50004  0.010251952 0.0089504469         3292 
 1582000   0.61945722   -9.1007717    194.60953   0.01025124 0.0089411777         3311 
 1583000   0.61373802   -9.0912087    194.76601  0.010253001   0.00893191         3307 
 1584000    0.6242424   -9.0967277    194.24105   0.01021891  0.008922659         3335 
 1585000   0.62885506   -9.0804248    194.56473  0.010229481 0.0089134111         3255 
 1586000   0.62147428   -9.0751939    194.72355  0.010231376  0.008904188         3305 
 1587000   0.61819437   -9.0700347    194.67962  0.010222622 0.0088949726         3325 
 1588000   0.61297966   -9.1125386    194.34215  0.010198476 0.0088857657         3336 
 1589000   0.61414545   -9.0861723    194.36782  0.010193403   0.00887657         3271 
 1590000   0.62218749   -9.0923225    194.55175  0.010196633 0.0088673919         3290 
 1591000   0.61057748   -9.0987909    194.43455  0.010184085 0.0088582281         3327 
 1592000   0.61050453   -9.1068344    194.82383  0.010198065 0.0088490788         3325 
 1593000    0.6084328   -9.0929437    194.49833  0.010174636  0.008839941         3281 
 1594000   0.62216251   -9.0895971    194.53662  0.010170254 0.0088308166         3297 
 1595000    0.6159444   -9.0949801    194.47254   0.01016053 0.0088216987         3329 
 1596000   0.60822304   -9.0828693    194.60284  0.010160967 0.0088125952         3305 
 1597000   0.61370134   -9.0864569    194.51708  0.010150129 0.0088035023         3288 
 1598000   0.60094099   -9.1061392    194.34143  0.010134618 0.0087944226         3338 
 1599000   0.60605903   -9.1030947    194.56586  0.010139976 0.0087853611         3313 
 1600000   0.61675566   -9.1288386     194.3891  0.010124432  0.008776309         3332 
 1601000   0.61767442   -9.0928234    194.34691  0.010115912 0.0087672586         3290 
 1602000   0.60526654   -9.0913905    194.35234   0.01010988 0.0087582305         3297 
 1603000    0.6240703   -9.0943828    194.12974  0.010092001 0.0087492163         3310 
 1604000   0.61023043   -9.0936508    194.51192  0.010105565 0.0087402097         3325 
 1605000   0.62212382   -9.1018863    194.47017  0.010097101 0.0087312229         3350 
 1606000   0.60301931   -9.0993946    194.28079  0.010080987 0.0087222278         3308 
 1607000   0.60653701   -9.0953173    194.38471  0.010080103 0.0087132566         3302 
 1608000   0.60064557   -9.1103736    194.36349  0.010072735 0.0087043037         3322 
 1609000   0.60780481   -9.0999944    194.34353  0.010065441 0.0086953565         3328 
 1610000   0.60921086   -9.1195497     194.2753  0.010055657 0.0086864251         3316 
 1611000   0.60159259   -9.1233295    194.24298  0.010047744 0.0086775041         3335 
 1612000   0.60560818   -9.1044657    194.19913  0.010039244 0.0086685941         3296 
 1613000   0.62427785   -9.1077387    194.59385  0.010053412 0.0086596995         3341 
 1614000   0.60115043   -9.0961036    194.38766  0.010036538  0.008650816         3336 
 1615000   0.60462737    -9.092566    194.56887  0.010039674 0.0086419396         3316 
 1616000   0.59524357   -9.1216011    194.57805  0.010033934 0.0086330788         3308 
 1617000   0.60139393     -9.09499    194.52813  0.010025156 0.0086242312         3340 
 1618000   0.61039126   -9.1049973    194.31369  0.010007916 0.0086153897         3342 
 1619000   0.60593834   -9.1038828    194.25595 0.0099987619 0.0086065578         3288 
 1620000   0.59997575   -9.1159276    194.23781 0.0099916568 0.0085977405         3264 
 1621000   0.60123539   -9.1386011    194.72755   0.01001067 0.0085889347         3324 
 1622000   0.60066547    -9.090701    194.22066 0.0099784557 0.0085801365         3337 
 1623000   0.61197029   -9.1101515    194.22913 0.0099727423 0.0085713461         3342 
 1624000   0.60661951    -9.128135    193.87129 0.0099482395 0.0085625738         3347 
 1625000    0.6120778   -9.1273985    194.17263 0.0099575707 0.0085538161         3314 
 1626000   0.60778076   -9.1502238    193.87963 0.0099364306  0.008545064         3327 
 1627000   0.61341092   -9.1080521    194.31479 0.0099526119 0.0085363371         3301 
 1628000   0.59206404   -9.1100663    194.06073 0.0099334934 0.0085276205         3326 
 1629000   0.59862816   -9.1190586    194.34839  0.009942111 0.0085189175         3316 
 1630000    0.5995428   -9.1050912     194.0393 0.0099202095 0.0085102216         3335 
 1631000   0.60162764   -9.1055189    194.18281 0.0099214598 0.0085015364         3280 
 1632000   0.60816743    -9.112739    194.44304 0.0099286681 0.0084928648         3308 
 1633000   0.60603331   -9.1237329    193.93326  0.009896574 0.0084842017         3293 
 1634000   0.60911285   -9.1180519    194.58013 0.0099235072 0.0084755568         3281 
 1635000   0.60594109   -9.1307085    194.10341 0.0098931399 0.0084669177         3316 
 1636000   0.60055484   -9.1107178    194.32881 0.0098985741  0.008458286         3333 
 1637000   0.59973797   -9.1192605    194.36134 0.0098941837 0.0084496673         3356 
 1638000   0.58372412     -9.11523    194.22265 0.0098810873 0.0084410605         3350 
 1639000   0.61667473   -9.1223094    194.12297 0.0098699905 0.0084324698         3316 
 1640000   0.60486278   -9.1234106    194.42437 0.0098792871 0.0084238931         3353 
 1641000    0.6027013   -9.1173608     194.0452 0.0098540118 0.0084153231         3316 
 1642000   0.59155134   -9.1158345    194.13138 0.0098523841 0.0084067636         3329 
 1643000    0.5976983   -9.1332642    194.20861 0.0098503047 0.0083982171         3388 
 1644000   0.61501297   -9.1153861    194.29073 0.0098484756 0.0083896875         3342 
 1645000   0.59600768   -9.1265394    193.72613 0.0098138869 0.0083811605         3362 
 1646000   0.60237332   -9.1214748    194.21318  0.009832583 0.0083726528         3293 
 1647000   0.60042111   -9.1248162    194.06765 0.0098192497 0.0083641521         3344 
 1648000   0.59446459    -9.128418    193.71866 0.0097956443 0.0083556626         3359 
 1649000   0.58584256   -9.1209419    194.07414 0.0098076684  0.008347182         3266 
 1650000     0.598225   -9.1274201    194.21796 0.0098089877 0.0083387181         3301 
 1651000   0.60080326   -9.1166901    194.17322 0.0098007886 0.0083302669         3335 
 1652000   0.58445702   -9.1219229     194.0202 0.0097871368 0.0083218233         3313 
 1653000   0.60299634   -9.1395202    193.90975 0.0097756477  0.008313389         3325 
 1654000   0.59163479   -9.1353807    193.87796 0.0097681356 0.0083049662         3300 
 1655000   0.59737901   -9.1302063    193.83166 0.0097599022  0.008296556         3271 
 1656000   0.58561716   -9.1340467    194.01883 0.0097634275 0.0082881527         3344 
 1657000   0.60719338   -9.1451092    194.00374 0.0097567762 0.0082797636         3330 
 1658000   0.59313373   -9.1305788    194.27187 0.0097643683 0.0082713821         3327 
 1659000   0.58571053   -9.1199499    194.22172 0.0097559634 0.0082630101         3308 
 1660000   0.59300993   -9.1307097    193.98848 0.0097383777 0.0082546486         3324 
 1661000   0.59144922   -9.1318741    194.21665 0.0097439618 0.0082462985         3283 
 1662000    0.5888452   -9.1496173    194.17046 0.0097357831 0.0082379708         3304 
 1663000   0.59150258   -9.1417123    194.34261 0.0097385555 0.0082296473         3310 
 1664000   0.59185021   -9.1261591    194.20579  0.009725851 0.0082213354         3303 
 1665000   0.59523176   -9.1320251    193.98677 0.0097090473 0.0082130379         3306 
 1666000   0.58828434   -9.1299406    193.78955 0.0096933548 0.0082047521         3261 
 1667000   0.59990127   -9.1324195    193.86053 0.0096910883 0.0081964796         3345 
 1668000   0.58535418   -9.1577038    194.13125 0.0096988033 0.0081882121         3270 
 1669000    0.5858887   -9.1551671    194.15055  0.009693956 0.0081799606         3310 
 1670000   0.59051506   -9.1685893    193.94113 0.0096777011 0.0081717129         3342 
 1671000   0.59335889   -9.1206752    194.23468 0.0096865488 0.0081634787         3317 
 1672000   0.59406565   -9.1331485    194.06788  0.009672442 0.0081552557         3354 
 1673000   0.58954993   -9.1402895    193.57416 0.0096420681 0.0081470426         3287 
 1674000   0.58569715   -9.1279995    193.95216 0.0096551254 0.0081388347         3342 
 1675000   0.58086791   -9.1483303    194.06157 0.0096548046 0.0081306417         3347 
 1676000    0.5847447   -9.1272865     194.4004  0.009665891 0.0081224564         3338 
 1677000   0.58625686   -9.1380422    193.81909  0.009631241 0.0081142872         3375 
 1678000   0.58358396   -9.1736483    193.79349 0.0096242296 0.0081061171         3341 
 1679000   0.58285222   -9.1523143    193.67677 0.0096127043  0.008097966         3331 
 1680000   0.57931568   -9.1576883    193.86343 0.0096162417 0.0080898294         3328 
 1681000   0.59094559   -9.1592659    193.76375 0.0096055797 0.0080816975         3336 
 1682000   0.57731862   -9.1552978    193.92383 0.0096077999 0.0080735752         3383 
 1683000   0.57197891   -9.1723601    193.78283 0.0095951096 0.0080654667         3339 
 1684000   0.58835564   -9.1731065    193.87553 0.0095939991 0.0080573701         3300 
 1685000   0.58991291   -9.1439677    194.12328 0.0096005577  0.008049284         3288 
 1686000   0.57693094   -9.1432063    194.33013 0.0096050874  0.008041212         3330 
 1687000   0.56683901   -9.1395975    194.09327 0.0095876934 0.0080331464         3337 
 1688000   0.59193126   -9.1514697    193.90627 0.0095727819  0.008025088         3320 
 1689000     0.580784   -9.1494334    193.97221 0.0095703676 0.0080170449         3353 
 1690000   0.58673135   -9.1573066    193.74317 0.0095534106 0.0080090079         3343 
 1691000   0.58923599   -9.1723985      193.754 0.0095482948 0.0080009747         3346 
 1692000   0.57402377   -9.1734368    193.69845 0.0095399156 0.0079929689         3304 
 1693000    0.5699046   -9.1479968    193.53343  0.009526158 0.0079849659         3311 
 1694000   0.57581741   -9.1592581    193.56474  0.009522075 0.0079769735         3312 
 1695000   0.57153933   -9.1652005    193.32613 0.0095047262 0.0079689968         3378 
 1696000   0.56544953   -9.1620351    193.75905 0.0095203936 0.0079610238         3304 
 1697000   0.57494708   -9.1487763    193.77289 0.0095154633 0.0079530685         3336 
 1698000   0.57354719   -9.1498432    193.49138 0.0094960436  0.007945124         3335 
 1699000   0.58427083   -9.1699436    193.50777 0.0094912581 0.0079371827         3366 
 1700000   0.57616761   -9.1683257    193.47531 0.0094840837 0.0079292489         3342 
 1701000   0.57696126   -9.1385778    193.55683  0.009482502 0.0079213312         3304 
 1702000   0.57993682   -9.1635307    194.15494 0.0095062153 0.0079134274         3339 
 1703000    0.5704098   -9.1558675    194.33612 0.0095094988 0.0079055333         3288 
 1704000   0.56543117   -9.1605777    193.72381 0.0094739736 0.0078976462         3337 
 1705000   0.58315475   -9.1799809    193.72495 0.0094684726 0.0078897715         3333 
 1706000   0.57162711   -9.1703737      193.708 0.0094620947  0.007881901         3327 
 1707000    0.5792429   -9.1747369    193.80172 0.0094611266 0.0078740449         3339 
 1708000   0.56794443   -9.1719654    193.55109 0.0094433593 0.0078662048         3345 
 1709000   0.59182799   -9.1600015    193.55305 0.0094379289 0.0078583704         3345 
 1710000   0.56155955   -9.1712329    193.69646 0.0094393988 0.0078505472         3318 
 1711000   0.57331394    -9.144696    193.93081 0.0094452957 0.0078427319         3343 
 1712000   0.57950852   -9.1679725     193.7748 0.0094321844 0.0078349316         3306 
 1713000    0.5668189   -9.1615008    193.89533 0.0094325419 0.0078271389         3372 
 1714000   0.55524854   -9.1619733    193.81464 0.0094231156 0.0078193603         3322 
 1715000    0.5705321   -9.1595854    193.69151 0.0094116378 0.0078115861         3345 
 1716000   0.59288189   -9.1906287    193.34814 0.0093894785 0.0078038237         3330 
 1717000   0.57205885   -9.1598881      193.597 0.0093960884 0.0077960729         3365 
 1718000   0.56056338   -9.1714146    193.28194 0.0093753366 0.0077883276         3328 
 1719000   0.56522981   -9.1711164    193.59188 0.0093849078 0.0077806028         3365 
 1720000   0.56481291    -9.171696    194.03014 0.0094006851 0.0077728858         3361 
 1721000   0.56592578   -9.1607419    193.48555  0.009368853 0.0077651734         3313 
 1722000   0.56449731   -9.1762178    193.76882 0.0093771204 0.0077574654         3320 
 1723000   0.57693322   -9.1659346    193.69732 0.0093682204 0.0077497729         3331 
 1724000   0.56471758   -9.1831845    193.42783 0.0093497599 0.0077420932         3342 
 1725000   0.55737592   -9.1766282    193.41623 0.0093437791 0.0077344192         3329 
 1726000   0.55451183   -9.1621337    193.70853 0.0093524781 0.0077267597         3349 
 1727000    0.5612475   -9.1745957    193.65527 0.0093444927 0.0077191149         3362 
 1728000   0.56444051   -9.1675564    193.65394 0.0093390212 0.0077114737         3351 
 1729000   0.56197255   -9.2167506    193.91311 0.0093461108 0.0077038406         3346 
 1730000   0.55788711   -9.1746346    193.39408 0.0093157069 0.0076962139         3294 
 1731000   0.56239957   -9.1953516    193.54742 0.0093177073 0.0076885962         3332 
 1732000   0.56044924   -9.1634886    193.43772 0.0093070499 0.0076809951         3347 
 1733000   0.54971943   -9.1687484    193.62702 0.0093107818 0.0076734112         3358 
 1734000   0.56778354   -9.1559341    193.61178 0.0093046801 0.0076658304         3349 
 1735000    0.5596398   -9.1782033    193.32197 0.0092853974 0.0076582562         3363 
 1736000   0.56338714   -9.1630556    193.56312 0.0092916243 0.0076507001         3337 
 1737000    0.5546871   -9.1832705    193.34511  0.009275816  0.007643145         3349 
 1738000   0.55221526   -9.1820523    193.43737 0.0092749026 0.0076355978         3333 
 1739000    0.5571972    -9.200757    193.68457 0.0092814149 0.0076280727         3346 
 1740000   0.55778767   -9.2002236    193.50367 0.0092674172  0.007620548         3361 
 1741000   0.54884226   -9.1907659     193.4615 0.0092600755 0.0076130411         3323 
 1742000    0.5684614   -9.1866022     193.4566 0.0092545254 0.0076055377         3336 
 1743000   0.56214909   -9.1962675    193.50735  0.009251642 0.0075980424         3377 
 1744000   0.55543768   -9.1906022    193.61587 0.0092515229 0.0075905571         3363 
 1745000   0.56158805   -9.1763768    193.38915 0.0092353938 0.0075830797         3335 
 1746000   0.56813764   -9.1856759    193.21483 0.0092217847 0.0075756091         3345 
 1747000   0.54886408   -9.1901097    193.64427 0.0092369904 0.0075681606         3364 
 1748000   0.55669147   -9.2034737    193.70742 0.0092347166 0.0075607173         3345 
 1749000   0.55453559   -9.1876875    193.57451 0.0092231041 0.0075532735         3321 
 1750000   0.55008415   -9.1813295    193.76101 0.0092267149 0.0075458487         3343 
 1751000   0.56414515   -9.1919228     193.3752 0.0092030841 0.0075384317         3366 
 1752000   0.56327109   -9.1885193    193.45239 0.0092015028 0.0075310221         3376 
 1753000   0.54315823   -9.1902036     193.3941 0.0091934824 0.0075236213         3376 
 1754000   0.54040034   -9.1815106    193.30416 0.0091839681 0.0075162383         3358 
 1755000   0.55023849   -9.1683551    193.41023 0.0091837718 0.0075088644         3341 
 1756000   0.55223383   -9.2199611    193.45475 0.0091806542 0.0075015048         3383 
 1757000   0.55345675   -9.1975184    193.48848  0.009177029  0.007494148         3356 
 1758000   0.53624795   -9.1896545    193.28688 0.0091622524 0.0074867972         3352 
 1759000   0.56106092   -9.1813652    193.48165 0.0091662712 0.0074794651         3360 
 1760000   0.55792603    -9.190405     193.5355 0.0091636126 0.0074721397         3364 
 1761000   0.55215047   -9.1911232    193.25459 0.0091451158 0.0074648166         3352 
 1762000   0.54696489   -9.2050985     193.2673 0.0091405269 0.0074575024         3374 
 1763000   0.55254866   -9.1886688    193.22992 0.0091335754 0.0074502061         3314 
 1764000   0.55998305   -9.1861338    193.41345 0.0091370677 0.0074429178         3405 
 1765000   0.55078743   -9.2067034    193.04505 0.0091144973  0.007435638         3347 
 1766000   0.53984612   -9.1860946    193.62463 0.0091366851 0.0074283622         3356 
 1767000    0.5515065    -9.183136    193.69686 0.0091349206  0.007421102         3394 
 1768000   0.54492251   -9.2188495    193.35296 0.0091135446  0.007413851         3358 
 1769000   0.53341298   -9.1947529    193.29304 0.0091055699 0.0074066026         3342 
 1770000   0.54562321    -9.214136    193.13385 0.0090929308 0.0073993616         3367 
 1771000    0.5401552   -9.2321861    193.36781 0.0090988051 0.0073921367         3355 
 1772000   0.54522412    -9.209836    193.23795 0.0090875637 0.0073849219         3368 
 1773000     0.552237   -9.2021907    193.27948 0.0090843899 0.0073777119         3340 
 1774000   0.55123705   -9.2255651    193.45709 0.0090876125 0.0073705102         3329 
 1775000   0.54010759   -9.2107793    193.31288 0.0090757218  0.007363322         3357 
 1776000   0.54156825   -9.2030653    193.19458 0.0090650608 0.0073561404         3366 
 1777000   0.53847598   -9.2112943    193.79171 0.0090879624 0.0073489757         3365 
 1778000   0.54621926   -9.2185342    193.64125 0.0090757993 0.0073418188         3343 
 1779000   0.54103002   -9.1996215    193.17868 0.0090490292 0.0073346669         3360 
 1780000   0.54953737   -9.2199508    193.11729 0.0090410715 0.0073275236         3375 
 1781000   0.54659816   -9.2122649    193.40736 0.0090495678 0.0073203907         3383 
 1782000   0.53701876   -9.2308188    193.06979 0.0090287032 0.0073132667         3349 
 1783000   0.54333657   -9.2167248     193.0971 0.0090249158 0.0073061447         3347 
 1784000   0.54620905   -9.2165459    193.52921 0.0090400417 0.0072990394         3365 
 1785000   0.53737653    -9.213095    193.27449 0.0090230854 0.0072919447         3382 
 1786000     0.542368   -9.2178638    193.47299 0.0090272951 0.0072848571         3367 
 1787000   0.53792447   -9.2110503    193.17152 0.0090081852 0.0072777778         3347 
 1788000   0.52768545   -9.2058177    193.08406 0.0089990706 0.0072707066         3368 
 1789000   0.54303904   -9.2357347    193.43068 0.0090101865 0.0072636486         3342 
 1790000   0.53242829   -9.2091194    193.33015 0.0090004726 0.0072565987         3364 
 1791000   0.53084872    -9.209375    192.93806 0.0089772035 0.0072495558         3363 
 1792000   0.53141123   -9.2149431    193.14493 0.0089818139 0.0072425285         3374 
 1793000   0.54445499   -9.2185327    193.08693  0.008974109 0.0072355029         3369 
 1794000   0.53401109   -9.2257754    193.41664 0.0089844221 0.0072284883         3307 
 1795000   0.53289322   -9.2216144    193.12997  0.008966108 0.0072214805         3380 
 1796000   0.52998268   -9.2056584    193.31808  0.008969844 0.0072144817         3370 
 1797000   0.53452849   -9.2107939    193.29173 0.0089636305 0.0072074989         3403 
 1798000   0.53886987   -9.2165282    193.27546 0.0089578912 0.0072005175         3316 
 1799000   0.53369052   -9.2318168    193.11956 0.0089456903 0.0071935494         3383 
 1800000   0.54725398   -9.2101273    193.55655 0.0089609515 0.0071865876         3367 
 1801000   0.53752272    -9.199637    193.21298 0.0089400788  0.007179631         3385 
 1802000   0.53198084   -9.2172171    193.01195 0.0089258209 0.0071726914         3342 
 1803000   0.53606941   -9.2124857     192.9548 0.0089182288 0.0071657592         3336 
 1804000   0.54218481   -9.2121493    193.19088 0.0089241906 0.0071588375         3384 
 1805000   0.53608729   -9.2259629    193.21749 0.0089204749 0.0071519188         3344 
 1806000   0.53074283    -9.232325     193.2249 0.0089158775 0.0071450129         3356 
 1807000   0.53043177   -9.2272143    193.11788  0.008906008 0.0071381144         3394 
 1808000   0.53190906    -9.235981    193.05836 0.0088983386 0.0071312252         3339 
 1809000   0.53992048   -9.2000899    193.03526 0.0088923557 0.0071243454         3371 
 1810000   0.53316298   -9.2245977    193.06954 0.0088890212 0.0071174825         3356 
 1811000   0.51534059   -9.2322113    193.15623 0.0088881021 0.0071106228         3370 
 1812000   0.51847304    -9.217635     192.7007 0.0088622471 0.0071037671         3346 
 1813000   0.51877575   -9.2332733    193.04798 0.0088733215 0.0070969257         3357 
 1814000   0.52810355   -9.2215774    193.25458 0.0088779209 0.0070900957         3378 
 1815000   0.53396078   -9.2277667     193.0348 0.0088629383 0.0070832741         3378 
 1816000   0.53723882   -9.2256383    193.18342 0.0088648781 0.0070764592         3344 
 1817000   0.52537455   -9.2355179    193.19383 0.0088604767 0.0070696563         3357 
 1818000   0.51266782   -9.2334019    193.20012 0.0088558909 0.0070628582         3374 
 1819000   0.52626703   -9.2387803    193.19235 0.0088506668 0.0070560725         3409 
 1820000   0.50460117   -9.2240626    193.26126 0.0088489589 0.0070492881         3354 
 1821000   0.53362971    -9.235029    192.75905  0.008821117 0.0070425171         3367 
 1822000   0.51601107   -9.2413145    193.01645 0.0088280486 0.0070357478         3368 
 1823000   0.51841835   -9.2319595    193.13485 0.0088286183 0.0070289911         3346 
 1824000   0.52400319   -9.2372704    193.30305 0.0088314623 0.0070222409         3336 
 1825000    0.5162365   -9.2347435     192.8602  0.008806402 0.0070155048         3333 
 1826000   0.53124792   -9.2272287    193.40802 0.0088265798 0.0070087766         3345 
 1827000   0.52666476   -9.2370336    192.96328 0.0088014634 0.0070020492         3381 
 1828000    0.5219636   -9.2577646    192.82544 0.0087903647 0.0069953345         3375 
 1829000   0.52737845   -9.2351254    193.30993 0.0088076329 0.0069886295         3314 
 1830000   0.51409644   -9.2532074    192.84034 0.0087814363 0.0069819318         3374 
 1831000   0.52475391   -9.2269529    192.98939  0.008783424  0.006975239         3337 
 1832000   0.50407277   -9.2288423    193.09194  0.008783294 0.0069685595         3352 
 1833000   0.51074844   -9.2458796     192.9515 0.0087721175 0.0069618859         3395 
 1834000   0.51131979   -9.2260549    193.12145 0.0087750568 0.0069552213         3373 
 1835000   0.52194639   -9.2277657    192.71943 0.0087520179 0.0069485676         3364 
 1836000    0.5189992   -9.2490144    193.09755 0.0087644132 0.0069419175         3331 
 1837000   0.51023816   -9.2279057    193.13177 0.0087611945 0.0069352804         3382 
 1838000   0.52004368   -9.2433149    193.01527 0.0087511459 0.0069286538         3387 
 1839000    0.5113954   -9.2436976    193.04864 0.0087478994 0.0069220355         3336 
 1840000   0.50276941   -9.2674211    192.76136  0.008730134 0.0069154237         3396 
 1841000   0.52359725   -9.2362296    193.19407 0.0087449786 0.0069088153         3362 
 1842000   0.53170243   -9.2580201    193.11232 0.0087365327 0.0069022223         3391 
 1843000   0.51671306   -9.2310433    192.89776 0.0087220906 0.0068956304         3320 
 1844000   0.52057762   -9.2527294    193.13858 0.0087282438 0.0068890518         3359 
 1845000   0.52280859   -9.2662532    193.31655 0.0087315517 0.0068824847         3387 
 1846000   0.50516928   -9.2436739    193.05252 0.0087149026 0.0068759222         3375 
 1847000   0.52150051   -9.2466813    192.94198 0.0087051966 0.0068693709         3382 
 1848000   0.51879314   -9.2653036    192.66454 0.0086879752  0.006862825         3412 
 1849000   0.51405333   -9.2531857    192.87652 0.0086928304 0.0068562905         3377 
 1850000    0.5233518   -9.2527962    193.04226 0.0086955974 0.0068497569         3376 
 1851000   0.50913543   -9.2387579    192.82125 0.0086809496 0.0068432356         3374 
 1852000   0.52368986   -9.2530015    192.99282 0.0086839823 0.0068367266         3390 
 1853000   0.51076896   -9.2514142    192.96177 0.0086778994 0.0068302202         3361 
 1854000   0.50429066   -9.2420681    192.94147 0.0086723061 0.0068237208         3371 
 1855000   0.51951584   -9.2627528    193.13564 0.0086763538 0.0068172294         3385 
 1856000   0.50937682   -9.2442394    192.91403 0.0086617293 0.0068107508         3378 
 1857000   0.50555507   -9.2575665    193.01372 0.0086615381 0.0068042806         3377 
 1858000   0.50984365   -9.2450516    192.92587 0.0086529363 0.0067978191         3387 
 1859000   0.51604668   -9.2398272    192.82385 0.0086437084  0.006791366         3349 
 1860000     0.506257   -9.2535842    192.81968 0.0086388745 0.0067849121         3389 
 1861000   0.50846131   -9.2335746    192.51395 0.0086205423 0.0067784772         3393 
 1862000   0.51523011   -9.2538263    192.94337 0.0086351313   0.00677205         3380 
 1863000   0.51163187   -9.2593506    192.54585 0.0086127148 0.0067656261         3360 
 1864000    0.5225991   -9.2679403    192.89018 0.0086234879 0.0067592083         3356 
 1865000   0.49826615   -9.2717355    192.61323 0.0086064894 0.0067528023         3357 
 1866000   0.50507463   -9.2459055    192.80432 0.0086104109  0.006746402         3360 
 1867000   0.50827626   -9.2651512    192.77575 0.0086045238 0.0067400183         3395 
 1868000   0.51610787    -9.270761    192.68547 0.0085958902 0.0067336411         3348 
 1869000   0.50783006   -9.2599567     192.8485 0.0085985598 0.0067272697         3347 
 1870000   0.50645915   -9.2597616    193.01229 0.0086012609 0.0067209036         3376 
 1871000   0.50445969   -9.2606453    192.76097 0.0085854698 0.0067145495         3367 
 1872000   0.50475079   -9.2668941    193.03461 0.0085930647 0.0067081982         3362 
 1873000   0.51088569   -9.2799158    192.89731 0.0085823681 0.0067018618         3394 
 1874000   0.50158678   -9.2554361    192.63094 0.0085659436 0.0066955303         3339 
 1875000   0.50829854   -9.2686445     192.7772 0.0085678756 0.0066892092         3369 
 1876000   0.51732459   -9.2679999    192.55961 0.0085536431 0.0066828947         3386 
 1877000   0.50277353    -9.262326    192.84292 0.0085616641  0.006676586         3362 
 1878000   0.49195876   -9.2677036    192.84912 0.0085573802 0.0066702878         3371 
 1879000    0.4979354   -9.2641094    192.70039 0.0085462297 0.0066639992         3363 
 1880000   0.52096306   -9.2555886    192.35901 0.0085265518 0.0066577142         3365 
 1881000   0.50430911   -9.2798011    192.91127 0.0085464855 0.0066514354         3358 
 1882000   0.49614896   -9.2702723          193 0.0085458733 0.0066451721         3371 
 1883000   0.50004929   -9.2636619    192.81755 0.0085332604 0.0066389115         3369 
 1884000   0.49824446   -9.2697259    192.69856 0.0085234677 0.0066326615         3369 
 1885000   0.51853058    -9.271887    192.78673 0.0085228438 0.0066264168         3341 
 1886000   0.49814293     -9.28528    192.83597 0.0085205007 0.0066201839         3390 
 1887000   0.49426164   -9.2800958    192.45951 0.0084993599 0.0066139509         3322 
 1888000   0.49409149   -9.2706302    192.77578 0.0085088178 0.0066077333         3354 
 1889000   0.48779573    -9.254599    192.63367 0.0084980443 0.0066015227         3380 
 1890000   0.50662044   -9.2830092    192.69988 0.0084964673 0.0065953158         3371 
 1891000   0.49459489   -9.2653643    192.42976 0.0084800707 0.0065891192         3351 
 1892000   0.49889476   -9.2846221    192.69764 0.0084873872 0.0065829276         3378 
 1893000   0.50212956   -9.2693318    192.53191 0.0084756077 0.0065767527         3348 
 1894000   0.49469965   -9.2688124    192.88136 0.0084865083 0.0065705785         3370 
 1895000   0.49862478   -9.2744664    192.68735 0.0084734982 0.0065644124         3414 
 1896000   0.51136428   -9.2729795    192.55048 0.0084630132 0.0065582561         3328 
 1897000   0.49440763   -9.2678325    192.86058 0.0084721746 0.0065521113         3369 
 1898000   0.49110219   -9.2717027    192.48428  0.008451189 0.0065459663         3347 
 1899000   0.50121099    -9.284684    192.44557 0.0084450399 0.0065398302         3354 
 1900000   0.48770885    -9.273374    192.85266   0.00845845  0.006533705         3367 
 1901000   0.49838333   -9.2938749    192.76712 0.0084502509 0.0065275865         3368 
 1902000   0.49287835   -9.2756222    192.38026 0.0084288582 0.0065214723         3345 
 1903000   0.49089044   -9.2805795    192.49286 0.0084293596 0.0065153713         3367 
 1904000   0.49592362   -9.2845232    192.59699 0.0084294902 0.0065092743         3369 
 1905000   0.49400718   -9.2801669    192.51792 0.0084216064 0.0065031836         3358 
 1906000   0.49673832   -9.2794034    192.38148 0.0084112226 0.0064971016         3359 
 1907000   0.49230503   -9.2918462    192.49139 0.0084116146  0.006491027         3374 
 1908000    0.4933597   -9.2947162    192.52253 0.0084085661 0.0064849592         3341 
 1909000   0.49922441   -9.2759326    192.58196 0.0084067558 0.0064789008         3371 
 1910000   0.49394101   -9.2623966    192.74174 0.0084093257 0.0064728493         3360 
 1911000    0.4877246   -9.2724875    192.87445 0.0084107122 0.0064668049         3359 
 1912000    0.4882124   -9.2926816    192.71497 0.0083993623 0.0064607683         3346 
 1913000   0.49036825   -9.2880238    192.43263 0.0083826726 0.0064547395         3355 
 1914000   0.49312185   -9.2957726    192.49876  0.008381172 0.0064487178         3382 
 1915000    0.4824802    -9.304247    192.78728 0.0083893508 0.0064427062         3377 
 1916000   0.49043478   -9.2723851    192.53861 0.0083741566 0.0064367007         3332 
 1917000   0.49368028   -9.2934464    192.61258 0.0083730038 0.0064307044         3373 
 1918000    0.4798088   -9.2708915    192.44564 0.0083613852 0.0064247151         3377 
 1919000   0.48592022   -9.2951575    192.45164 0.0083572885 0.0064187348         3391 
 1920000   0.48549327    -9.286277    192.50863 0.0083554093 0.0064127577         3380 
 1921000   0.47916071   -9.2965319    192.67999 0.0083584935 0.0064067847         3370 
 1922000   0.48583647   -9.2855073    192.09469 0.0083287675 0.0064008184         3338 
 1923000   0.48882462   -9.2898705    192.33252 0.0083347428 0.0063948654         3379 
 1924000   0.48736077   -9.2838536    192.57549 0.0083409344 0.0063889144         3354 
 1925000   0.48148919   -9.2864252    192.93326 0.0083520892 0.0063829731         3375 
 1926000    0.4889576   -9.2953197    192.56144  0.008331665 0.0063770438         3361 
 1927000    0.4840679   -9.2959939    192.62937  0.008330279 0.0063711221         3335 
 1928000   0.47881246   -9.2980716    192.46189 0.0083187194 0.0063652058         3401 
 1929000   0.48224454    -9.300637    192.37747 0.0083107597 0.0063592986         3407 
 1930000   0.49092019   -9.2953839    192.13151 0.0082958338   0.00635339         3375 
 1931000   0.48191411   -9.3020588    192.54309 0.0083092995  0.006347491         3401 
 1932000   0.48897849   -9.3030796     192.4487 0.0083009275 0.0063416054         3350 
 1933000   0.48319598   -9.2893545    192.75165 0.0083096934 0.0063357241         3366 
 1934000    0.4811474   -9.2980096    192.70491 0.0083033827  0.006329851         3407 
 1935000   0.49102489    -9.309442    192.64694 0.0082965954 0.0063239848         3377 
 1936000   0.48288676   -9.2884409     192.3451 0.0082793174 0.0063181278         3406 
 1937000   0.48034241   -9.3038898    192.22309 0.0082697938 0.0063122758         3337 
 1938000   0.47277071   -9.3071064     192.5552 0.0082798074 0.0063064334         3372 
 1939000   0.47915217   -9.3040608    192.30652 0.0082648496 0.0063005945         3349 
 1940000   0.47634905    -9.301341    192.47872 0.0082679863 0.0062947605         3405 
 1941000   0.48641472    -9.322428    192.33334  0.008257485 0.0062889422         3380 
 1942000   0.48633841   -9.2997874    192.25578 0.0082499047 0.0062831226         3406 
 1943000   0.48338866   -9.3072246    192.39092  0.008251455 0.0062773158         3401 
 1944000   0.47559351   -9.2989874    192.42473 0.0082486594 0.0062715134         3362 
 1945000   0.48265498   -9.3053571    192.25014 0.0082369385 0.0062657192         3391 
 1946000   0.47680965   -9.3044894    192.12203 0.0082272196 0.0062599364         3420 
 1947000   0.48026571   -9.3038775    192.39506 0.0082346798 0.0062541609         3360 
 1948000   0.46803468   -9.3118485    192.28435 0.0082257167 0.0062483907         3393 
 1949000   0.48533352   -9.3073128    192.16865 0.0082165492 0.0062426263         3395 
 1950000   0.47286634   -9.3252801    192.54954 0.0082286127  0.006236869         3372 
 1951000   0.47365707   -9.3153966    192.17089 0.0082082217 0.0062311182         3376 
 1952000   0.48394896    -9.317525    192.46986 0.0082167801 0.0062253735         3385 
 1953000    0.4775175   -9.2968771    192.26314 0.0082037523 0.0062196404         3412 
 1954000   0.46799283   -9.3004278    192.13553 0.0081941116 0.0062139117         3385 
 1955000   0.46743552   -9.3041401     192.1756 0.0081916283 0.0062081857         3375 
 1956000   0.47984745   -9.3108288    192.28395 0.0081920564 0.0062024668         3377 
 1957000   0.47152246   -9.3054305    192.41525 0.0081934616 0.0061967558         3392 
 1958000   0.46083037   -9.3183237    192.26031 0.0081826828 0.0061910542         3373 
 1959000   0.47693021   -9.3203675    192.59203 0.0081926164 0.0061853579         3386 
 1960000   0.46322876   -9.3050847    192.19605  0.008171601 0.0061796701         3384 
 1961000   0.47562078   -9.3144077    192.29468 0.0081716249 0.0061739903         3346 
 1962000   0.46061545   -9.3133026    192.42262 0.0081728943  0.006168317         3403 
 1963000    0.4595009   -9.3114571    191.93198 0.0081479021 0.0061626535         3379 
 1964000   0.47032664   -9.3302438    192.33273 0.0081607573 0.0061569943         3379 
 1965000   0.47116895   -9.2981771    192.33503  0.008156702 0.0061513391         3367 
 1966000   0.46694943   -9.3176204    192.18505 0.0081461956 0.0061456957         3405 
 1967000   0.47739419   -9.3330339    192.19545 0.0081424947 0.0061400607         3386 
 1968000     0.470664   -9.3219473    192.26051 0.0081411125 0.0061344289         3352 
 1969000   0.46778553   -9.3075961    192.24226 0.0081362055 0.0061288059         3377 
 1970000   0.45953575   -9.3244145    192.22311  0.008131265 0.0061231886         3365 
 1971000   0.46855824   -9.3062144    192.36005 0.0081329294 0.0061175785         3368 
 1972000   0.47359757   -9.3223174    192.18968 0.0081216058 0.0061119729         3377 
 1973000   0.46524818   -9.3158324    192.23524 0.0081194139 0.0061063768         3362 
 1974000   0.45467275   -9.3278495    192.06114 0.0081079509 0.0061007903         3340 
 1975000   0.47004459   -9.3124555    192.00292  0.008101389 0.0060952119         3364 
 1976000   0.46937019   -9.3186371    192.16756 0.0081042326 0.0060896348         3399 
 1977000   0.46163872   -9.3306545    192.66851 0.0081212489 0.0060840636         3357 
 1978000   0.45944366   -9.3125522    192.23547 0.0080988993 0.0060785045         3374 
 1979000   0.46510788    -9.339025    192.28006 0.0080966844  0.006072948         3327 
 1980000   0.46228116   -9.3335075    192.38043 0.0080968194  0.006067403         3383 
 1981000   0.46784341   -9.3051842    192.10368 0.0080810905 0.0060618616         3343 
 1982000   0.46932649   -9.3306762    192.48745 0.0080931485 0.0060563306         3351 
 1983000    0.4566281   -9.3250647    192.46846 0.0080882696 0.0060508019         3396 
 1984000   0.45588448   -9.3465222    191.99348 0.0080642424 0.0060452785         3417 
 1985000     0.462699   -9.3165642     192.3752  0.008076205 0.0060397628         3368 
 1986000    0.4620842   -9.3098952      192.148  0.008062605 0.0060342555         3399 
 1987000   0.46440367   -9.3299338    192.26891  0.008063618 0.0060287518         3351 
 1988000   0.46170566   -9.3268685     192.3135  0.008061431 0.0060232598         3385 
 1989000   0.45973033   -9.3278632    192.28402  0.008056143 0.0060177669         3393 
 1990000   0.46045288    -9.325268    192.30823 0.0080531082 0.0060122861         3360 
 1991000   0.45779527    -9.327047     192.0353 0.0080376404 0.0060068093         3422 
 1992000   0.46135241   -9.3257467     191.9429 0.0080297397 0.0060013406         3379 
 1993000   0.45940836   -9.3275823    192.09983 0.0080322727 0.0059958848         3392 
 1994000   0.44989414   -9.3380599    192.09844 0.0080281864 0.0059904312         3390 
 1995000   0.46388862   -9.3282726    192.13089 0.0080255177 0.0059849867         3397 
 1996000    0.4455261   -9.3327543    192.24721 0.0080263531   0.00597955         3381 
 1997000   0.45791007   -9.3392737    192.05209 0.0080141919 0.0059741154         3396 
 1998000   0.44887842   -9.3456836    191.82943 0.0080008937 0.0059686856         3401 
 1999000   0.45006112   -9.3338128    192.08941 0.0080077294  0.005963261         3396 
 2000000   0.45320139   -9.3120241    192.26159 0.0080108995 0.0059578448         3389 
 2001000   0.44731598   -9.3318819    192.39719 0.0080125432 0.0059524361         3392 
 2002000    0.4500856   -9.3318715    191.92695 0.0079889673 0.0059470328         3398 
 2003000   0.44900906   -9.3388891    192.10826 0.0079925222 0.0059416377         3412 
 2004000   0.45255062   -9.3403912    192.03118 0.0079853287 0.0059362501         3378 
 2005000   0.45548901   -9.3410473     192.1603 0.0079867123 0.0059308691         3387 
 2006000   0.44948239   -9.3326059    191.74975 0.0079656758 0.0059254936         3431 
 2007000   0.45333601   -9.3431082    192.18518 0.0079797866 0.0059201279         3412 
 2008000   0.44997604   -9.3352772    192.20867 0.0079767876 0.0059147655         3373 
 2009000   0.45534137   -9.3523021    192.14349 0.0079701134 0.0059094064         3407 
 2010000    0.4491616   -9.3446372    192.25173 0.0079706356 0.0059040604         3375 
 2011000   0.44842666   -9.3473482    192.15413 0.0079626275 0.0058987184         3398 
 2012000   0.44171342   -9.3481441    191.88743 0.0079476237 0.0058933836         3395 
Loop time of 5254.14 on 48 procs for 2000000 steps with 4000 atoms

Performance: 65776.756 tau/day, 380.653 timesteps/s
99.4% CPU use with 48 MPI tasks x no OpenMP threads

MPI task timing breakdown:
Section |  min time  |  avg time  |  max time  |%varavg| %total
---------------------------------------------------------------
Pair    | 393.85     | 425.82     | 462.85     |  90.1 |  8.10
Neigh   | 36.939     | 38.464     | 40.017     |  13.0 |  0.73
Comm    | 330.59     | 374.95     | 410.66     | 102.2 |  7.14
Output  | 6.1969     | 6.1988     | 6.2427     |   0.3 |  0.12
Modify  | 4333.3     | 4359.8     | 4374.4     |  12.5 | 82.98
Other   |            | 48.87      |            |       |  0.93

Nlocal:        83.3333 ave          92 max          77 min
Histogram: 4 3 4 6 15 6 6 2 1 1
Nghost:        2424.67 ave        2446 max        2409 min
Histogram: 5 10 4 4 4 8 2 7 2 2
Neighs:        16802.2 ave       19060 max       14718 min
Histogram: 2 8 5 5 8 2 4 7 1 6
FullNghs:      33604.3 ave       37417 max       30770 min
Histogram: 5 3 5 7 11 9 3 3 1 1

Total # of neighbors = 1613005
Ave neighs/atom = 403.25125
Neighbor list builds = 106328
Dangerous builds = 0

#clear
#
#next RN
#
#jump SELF
Total wall time: 1:27:37
