
units lj                  # Use reduced LJ style units
atom_style atomic         # Uncharged point particles
atom_modify map hash      # Needed for indexing of clusters etc
                          # Used to be able to find where atoms are in relation to each other.

lattice fcc 1.0 spacing 1 1 1
Lattice spacing in x,y,z = 1.5874011 1.5874011 1.5874011
region box block 0 10 0 10 0 10 units lattice
create_box 2 box
Created orthogonal box = (0.0000000 0.0000000 0.0000000) to (15.874011 15.874011 15.874011)
  3 by 4 by 4 MPI processor grid
create_atoms 1 box
Created 4000 atoms
  using lattice units in orthogonal box = (0.0000000 0.0000000 0.0000000) to (15.874011 15.874011 15.874011)
  create_atoms CPU = 0.002 seconds
set type 1 type/fraction 2 0.7 78393
Setting atom values ...
  2825 settings made for type/fraction
mass 1 1.0
mass 2 1.0
pair_style lj/cut  3.5
pair_modify tail  yes
pair_coeff 1  1  1.0  1.0   # Intearaction between 1 and 1 set with epsilon = 1 and sigma = 1
pair_coeff 1  2  1.5  0.8
pair_coeff 2  2  0.5  0.88

write_data data.0
System init for write_data ...
Neighbor list info ...
  update every 1 steps, delay 10 steps, check yes
  max neighbors/atom: 2000, page size: 100000
  master list distance cutoff = 3.8
  ghost atom cutoff = 3.8
  binsize = 1.9, bins = 9 9 9
  1 neighbor lists, perpetual/occasional/extra = 1 0 0
  (1) pair lj/cut, perpetual
      attributes: half, newton on
      pair build: half/bin/atomonly/newton
      stencil: half/bin/3d
      bin: standard
WARNING: Not all mixed pair coeffs generated from mixing. Use write_data with 'pair ij' option to store all pair coeffs. (../write_data.cpp:312)


#############################
#   M E L T   S Y S T E M   #
#############################

velocity all create 2.4 3143649 mom yes dist gaussian # Assign velocities
                                                    # Temperature 2.4, random number seed, zero linear momentum
                                                                                # Gaussian distribution

timestep 0.002   # simulation timestep
thermo 1000       # output thermodynamic data every 1000 steps bf 100

# Define a fix  in this case with index 1 applied to all
# particles in the simulation. This fix is for simulations
# in the anisotropic NPT ensemble. Note that we use the MTK
# correction.
fix 1 all npt temp 2.4 2.4 0.1 iso 5.68 5.68 0.5 mtk yes tchain 5 pchain 5 # Use NPT ensemble
                                                                         # Set temperature and pressure and damping
                                                                         # Numbers of thermostats in chain and in barostat
run 10000          # run for 10000 steps
Per MPI rank memory allocation (min/avg/max) = 3.642 | 3.644 | 3.648 Mbytes
Step Temp E_pair E_mol TotEng Press Volume 
       0          2.4   -4.1690742            0  -0.56997417    -3.744831         4000 
    1000    2.4390346   -3.7954535            0  -0.13781619    5.5748518    3654.2379 
    2000    2.4588623   -3.7765305            0 -0.089159197    6.1164585    3629.5273 
    3000    2.4178465   -3.7928403            0  -0.16697718    5.7486073    3646.3461 
    4000    2.4048435   -3.8248925            0  -0.21852915    5.6694282    3637.7637 
    5000    2.4161757   -3.7986034            0  -0.17524596    5.8398654    3633.9184 
    6000    2.3901856     -3.73784            0  -0.15345793    5.4892924    3703.7024 
    7000    2.4279922   -3.7629786            0  -0.12190079    5.7119363    3672.0124 
    8000    2.3860348    -3.802453            0  -0.22429557    5.3482427    3678.5877 
    9000    2.4481709   -3.7471084            0 -0.075770058    5.6539765    3679.9009 
   10000    2.3686372   -3.8015072            0  -0.24943964     5.833154    3626.0949 
Loop time of 2.61173 on 48 procs for 10000 steps with 4000 atoms

Performance: 661629.243 tau/day, 3828.873 timesteps/s
99.6% CPU use with 48 MPI tasks x no OpenMP threads

MPI task timing breakdown:
Section |  min time  |  avg time  |  max time  |%varavg| %total
---------------------------------------------------------------
Pair    | 1.2083     | 1.2554     | 1.3242     |   2.3 | 48.07
Neigh   | 0.21574    | 0.22355    | 0.23626    |   0.9 |  8.56
Comm    | 0.82445    | 0.87937    | 0.94172    |   2.9 | 33.67
Output  | 0.00025147 | 0.00025724 | 0.00033159 |   0.0 |  0.01
Modify  | 0.21008    | 0.23719    | 0.25764    |   2.6 |  9.08
Other   |            | 0.01596    |            |       |  0.61

Nlocal:        83.3333 ave          91 max          68 min
Histogram: 1 0 1 2 6 6 13 6 7 6
Nghost:        1756.44 ave        1795 max        1706 min
Histogram: 1 0 4 2 7 12 12 8 0 2
Neighs:        10524.3 ave       12050 max        8345 min
Histogram: 1 1 3 2 5 13 8 8 5 2

Total # of neighbors = 505167
Ave neighs/atom = 126.29175
Neighbor list builds = 905
Dangerous builds = 194

# Equilibrate just above the melting temperature to avoid step fn in T

fix 1 all npt temp 1.25 1.25 0.1 iso 5.68 5.68 0.5 mtk yes tchain 5 pchain 5
run 2000
Per MPI rank memory allocation (min/avg/max) = 3.644 | 3.646 | 3.649 Mbytes
Step Temp E_pair E_mol TotEng Press Volume 
   10000    2.3686372   -3.8015072            0  -0.24943964     5.833154    3626.0949 
   11000    1.2611488   -5.5781611            0   -3.6869108    5.7902663    2787.9465 
   12000    1.2415153       -5.577            0   -3.7151927    5.7477469    2791.6359 
Loop time of 0.65698 on 48 procs for 2000 steps with 4000 atoms

Performance: 526043.433 tau/day, 3044.233 timesteps/s
99.6% CPU use with 48 MPI tasks x no OpenMP threads

MPI task timing breakdown:
Section |  min time  |  avg time  |  max time  |%varavg| %total
---------------------------------------------------------------
Pair    | 0.29736    | 0.32406    | 0.35228    |   1.9 | 49.33
Neigh   | 0.04138    | 0.044078   | 0.046727   |   0.5 |  6.71
Comm    | 0.20796    | 0.23801    | 0.26886    |   2.6 | 36.23
Output  | 5.3798e-05 | 5.5063e-05 | 7.0606e-05 |   0.0 |  0.01
Modify  | 0.042762   | 0.045773   | 0.049206   |   0.9 |  6.97
Other   |            | 0.005004   |            |       |  0.76

Nlocal:        83.3333 ave          92 max          77 min
Histogram: 6 4 5 5 10 4 8 3 1 2
Nghost:        2091.42 ave        2108 max        2072 min
Histogram: 3 3 4 5 4 8 10 1 5 5
Neighs:        13666.8 ave       15398 max       12179 min
Histogram: 5 3 5 5 10 7 5 4 0 4

Total # of neighbors = 656007
Ave neighs/atom = 164.00175
Neighbor list builds = 143
Dangerous builds = 9

#############################
# L I N E A R  Q U E N C H  #
#############################

# Define solid atoms. This closely follows ten Wolde  Ruiz-Montero and Frenkel  Faraday Discuss  1996  104  93-110
# Compute components of the per-atom q6 vector
compute q6 all orientorder/atom degrees 1 6 components 6 nnn NULL cutoff 1.3 # compute the Q6 parameter.
                                                                             # Use all neighbours within 1.3 unit cell.

# get number of connections
compute coord_number all coord/atom orientorder q6 0.5

# An atom is solid if it has 8 or more connections (of a possible 14)
variable is_solid atom c_coord_number>=8
group solid dynamic all var is_solid    # Must be dynamic to update
dynamic group solid defined

# do clustering
compute cluster solid cluster/atom 1.3 # Create a cluster where all atoms within are solid and max 1.3 units from another member

# define chunks one chunk per cluster
compute clus_chunks solid chunk/atom c_cluster nchunk every compress yes  # Says which atoms are in which chunk

# count the size of each chunk
compute size_chunks solid property/chunk clus_chunks count


# Find the maximum entry in the vector of chunk sizes
variable max_n equal max(c_size_chunks)


# Thermo style which includes this variable
# thermo_style custom step temp pe vol v_max_n

thermo ${N}  # Print the thermo information every 100 steps
thermo 1000  

# Reset the npt fix at a lower temperature (below freezing)
fix 1  all npt temp  ${temp} ${temp}  0.1  iso  5.68  5.68  0.5  mtk yes tchain  5  pchain  5
fix 1  all npt temp  0.45 ${temp}  0.1  iso  5.68  5.68  0.5  mtk yes tchain  5  pchain  5
fix 1  all npt temp  0.45 0.45  0.1  iso  5.68  5.68  0.5  mtk yes tchain  5  pchain  5

dump dmp2 all dcd ${N} traj.dcd
dump dmp2 all dcd 1000 traj.dcd


compute msd all msd com yes
variable twopoint equal c_msd[4]/6/(step*dt+1.0e-6)
fix 9 all vector 10 c_msd[4]
variable fit equal slope(f_9)/6/(10*dt)
thermo_style custom step temp pe c_msd[4] v_twopoint v_fit v_max_n

fix 1 all npt temp 1.25 ${temp} 0.1 iso 5.68 5.68 0.5 mtk yes tchain 5 pchain 5
fix 1 all npt temp 1.25 0.45 0.1 iso 5.68 5.68 0.5 mtk yes tchain 5 pchain 5
run 2000000 # 5000000  # Run for this many steps
Neighbor list info ...
  update every 1 steps, delay 10 steps, check yes
  max neighbors/atom: 2000, page size: 100000
  master list distance cutoff = 3.8
  ghost atom cutoff = 3.8
  binsize = 1.9, bins = 8 8 8
  4 neighbor lists, perpetual/occasional/extra = 1 3 0
  (1) pair lj/cut, perpetual
      attributes: half, newton on
      pair build: half/bin/atomonly/newton
      stencil: half/bin/3d
      bin: standard
  (2) compute orientorder/atom, occasional
      attributes: full, newton on
      pair build: full/bin/atomonly
      stencil: full/bin/3d
      bin: standard
  (3) compute coord/atom, occasional
      attributes: full, newton on
      pair build: full/bin/atomonly
      stencil: full/bin/3d
      bin: standard
  (4) compute cluster/atom, occasional
      attributes: full, newton on
      pair build: full/bin/atomonly
      stencil: full/bin/3d
      bin: standard
Per MPI rank memory allocation (min/avg/max) = 9.845 | 9.849 | 9.853 Mbytes
Step Temp PotEng c_msd[4] v_twopoint v_fit v_max_n 
   12000    1.2415153       -5.577 2.859818e-30 1.9859846e-32 8.3333333e+20            3 
   13000    1.2632167   -5.6462038   0.61184046 0.0039220541  0.050602812            2 
   14000    1.2361756   -5.6196804    1.2313893  0.007329698  0.051072527            2 
   15000    1.2588872   -5.6072603    1.8645405  0.010358558  0.051228711            2 
   16000    1.2512704   -5.6108367    2.5575502  0.013320573  0.052373457            3 
   17000    1.2595931   -5.6621736     3.194524  0.015659431  0.053470642            2 
   18000    1.2351154   -5.6369849    3.8754699   0.01794199  0.053920072            2 
   19000    1.2372466   -5.6277394     4.431729  0.019437407  0.053809023            5 
   20000    1.2317519   -5.6151747    5.1062024  0.021275843  0.053720624            2 
   21000    1.2504896   -5.6572896    5.5877818  0.022173737  0.053145505            2 
   22000    1.2379343   -5.6261588    6.1375291  0.023248216  0.052241434            1 
   23000    1.2111433   -5.6658158     6.755578  0.024476731  0.051785874            2 
   24000    1.2772708   -5.6472505     7.400821  0.025697295  0.051528609            2 
   25000    1.2302053   -5.6365844    7.9692567  0.026564189  0.051280443            4 
   26000    1.2290816   -5.6254829    8.5780408   0.02749372  0.051040581            3 
   27000    1.2691472    -5.584051     9.252404  0.028556802  0.050987804            2 
   28000    1.2520053   -5.6825279    9.7671698  0.029068957  0.050915364            2 
   29000    1.2432446   -5.6565449    10.434383  0.029983859  0.050859219            4 
   30000    1.2412789   -5.6589649    11.113708  0.030871411  0.050921458            2 
   31000    1.2638163   -5.6056653    11.791952  0.031698795  0.051005754            1 
   32000    1.2522701   -5.6691351    12.499871  0.032551747  0.051174369            2 
   33000    1.2567575   -5.5903277    13.222372  0.033389827  0.051361309            4 
   34000    1.2113602   -5.5835967     13.89563  0.034057916  0.051610369            2 
   35000    1.2377173   -5.6480644    14.515476  0.034560656  0.051819273            3 
   36000    1.2324807   -5.6404684    15.169992  0.035115722   0.05202239            3 
   37000    1.2482796   -5.6218496    15.686448  0.035329837  0.052109037            2 
   38000    1.2276071   -5.6131212    16.329624   0.03581058  0.052145738            1 
   39000    1.2345743   -5.6324527    16.800969  0.035899506  0.052153809            3 
   40000    1.2271919   -5.6547152    17.347187  0.036139972  0.052084065            2 
   41000    1.2169469    -5.663198    17.885446  0.036352533  0.051967328            2 
   42000    1.2073206   -5.6428933    18.605216  0.036915111  0.051877933            2 
   43000    1.2569898   -5.6527056    19.154617   0.03712135  0.051791714            3 
   44000    1.2553837   -5.6230737    19.667091  0.037248278   0.05169086            4 
   45000    1.2319442   -5.6558429    20.343389  0.037672942  0.051575034            2 
   46000     1.230383   -5.6353544    20.828672  0.037733101  0.051461687            1 
   47000    1.2468355   -5.6232234    21.508965  0.038136462  0.051397059            2 
   48000    1.2384661   -5.6829223    22.014248   0.03821918  0.051327485            5 
   49000    1.2183125   -5.6181323     22.76838  0.038721734  0.051268361            4 
   50000    1.2391562   -5.6421572    23.286309  0.038810515  0.051187014            3 
   51000    1.2271938   -5.6380715     23.81111  0.038907042  0.051111137            2 
   52000    1.2179246    -5.663359    24.390549  0.039087417  0.051032664            1 
   53000    1.2302771   -5.6377072    25.179605  0.039590574  0.050986327            2 
   54000    1.2294329   -5.7169321    25.595126   0.03949865   0.05095105            4 
   55000    1.2419663   -5.7018564    26.061477  0.039487087  0.050888835            3 
   56000    1.2198404    -5.642749     26.69568  0.039725714  0.050810286            1 
   57000    1.1993008   -5.6515386    27.389535  0.040043179  0.050749129            2 
   58000    1.2131864   -5.6588088    27.840842   0.04000121  0.050693012            3 
   59000    1.2384081   -5.6504952    28.729907  0.040578964  0.050663167            1 
   60000    1.2138148   -5.7160383    29.306605  0.040703618  0.050662088            2 
   61000    1.2397289    -5.630439    29.882645  0.040823285  0.050639881            4 
   62000    1.2170938   -5.6707971    30.441854   0.04091647  0.050605491            2 
   63000    1.2275037   -5.6765461    30.947908  0.040936386  0.050567779            1 
   64000    1.2492519   -5.6462059    31.428153  0.040922074  0.050516721            2 
   65000    1.2245305   -5.6735231    31.915279  0.040917024  0.050446623            2 
   66000    1.2470278   -5.6589471    32.374812  0.040877288  0.050364323            4 
   67000     1.235619   -5.6881743    32.919932  0.040945189   0.05027557            3 
   68000    1.2211835   -5.6428339    33.493397  0.041045829  0.050189798            3 
   69000    1.2202043   -5.6814511    33.868511  0.040903999  0.050093649            1 
   70000    1.1878026   -5.6780369    34.446155  0.041007328  0.049987956            2 
   71000    1.2385656   -5.7123011     34.89903  0.040961303  0.049871202            3 
   72000    1.2478973    -5.708542    35.259392  0.040809481  0.049751141            2 
   73000     1.232748   -5.6367633    36.035457  0.041136367   0.04963507            4 
   74000    1.2178846   -5.6939842    36.410284  0.041002572   0.04952261            2 
   75000    1.2239671   -5.6570433    37.245841  0.041384267  0.049414759            4 
   76000    1.2343784   -5.7022253    37.635339  0.041266819  0.049320426            1 
   77000    1.2451838   -5.6913996      38.0024  0.041128138  0.049226656            2 
   78000    1.2352895   -5.6839252    38.748916  0.041398415  0.049137137            3 
   79000    1.1953378   -5.6248002     39.47437   0.04163963  0.049071785            2 
   80000    1.2180387   -5.6254282    39.914813   0.04157793  0.049007949            4 
   81000    1.2211837   -5.6794213    40.724337  0.041897466  0.048954386            2 
   82000    1.2038439   -5.6800837     41.23431  0.041904787  0.048908599            2 
   83000     1.229689   -5.6872741     41.66531   0.04183264  0.048859555            4 
   84000    1.2425108   -5.7732079    42.236377  0.041901168  0.048814061            2 
   85000    1.2222413   -5.6829071    42.954787  0.042112536  0.048773059            2 
   86000    1.2185142   -5.6952668    43.339197  0.041995346   0.04872971            2 
   87000    1.1868493   -5.6479499    43.976846  0.042123416  0.048676975            1 
   88000     1.216294   -5.6509979    44.328976  0.041978197  0.048619983            2 
   89000     1.186207   -5.6709046    44.916905  0.042057027  0.048558865            1 
   90000    1.2046978   -5.6932873    45.453814  0.042086865  0.048499224            6 
   91000    1.2010522   -5.6424214    46.188363  0.042297035  0.048450711            1 
   92000    1.2111755   -5.6957487    46.646889  0.042252617  0.048413427            5 
   93000    1.1920682   -5.6660833    47.469286  0.042535203  0.048378735            3 
   94000    1.2240379   -5.7012389    47.987581  0.042542182  0.048347336            3 
   95000    1.2666261   -5.6776958    48.398441  0.042454772  0.048312882            1 
   96000    1.2301165   -5.6594834    49.413865   0.04289398  0.048298192            4 
   97000    1.2529305   -5.7098162    49.873201  0.042846392  0.048294157            2 
   98000    1.2254297   -5.6792836     50.66127  0.043079311  0.048288858            3 
   99000    1.2422897   -5.6772043    50.899289  0.042844519  0.048284313            2 
  100000    1.2017032   -5.6585052    51.511271  0.042926059  0.048265472            3 
  101000    1.1793111   -5.6483246    52.158747  0.043035269  0.048250163            1 
  102000    1.2171103    -5.652305    52.851979  0.043179721  0.048235497            3 
  103000    1.2121089   -5.7095468     53.35029  0.043163665  0.048221767            1 
  104000    1.2106722   -5.6965863     53.95441    0.0432327  0.048213422            6 
  105000     1.196198   -5.6855072    54.587025  0.043323036  0.048210235            2 
  106000    1.2322798   -5.7025629    55.266112  0.043448201    0.0482098            2 
  107000     1.198661   -5.7368384    55.598955  0.043301367  0.048206051            2 
  108000    1.1553203   -5.7476343     56.08737  0.043277291  0.048196198            2 
  109000    1.2212171   -5.6622474    56.687552  0.043339107  0.048180901            3 
  110000    1.1966699   -5.7097619    57.161444  0.043304124  0.048167014            1 
  111000    1.2058485    -5.687064    58.072155  0.043597714  0.048155829            2 
  112000    1.1949514   -5.7418693    58.431554  0.043475858  0.048144399            2 
  113000    1.2151619   -5.6809558    59.101416  0.043585115  0.048132555            2 
  114000      1.23181   -5.7017841    59.190904  0.043268204  0.048115543            2 
  115000    1.1866698   -5.7246368    59.860317  0.043377041  0.048093882            2 
  116000    1.2080352   -5.7298868    60.631984   0.04355746  0.048078116            2 
  117000    1.1941183   -5.7583207    60.916461  0.043387793  0.048070122            2 
  118000     1.206751   -5.6944746    61.759603  0.043615539  0.048054313            2 
  119000    1.2251344   -5.7379035    61.968618   0.04339539  0.048035526            4 
  120000    1.2033753   -5.6864788    62.915675  0.043691441  0.048017632            2 
  121000    1.2259677   -5.7405159    63.122672  0.043472914  0.048000923            6 
  122000    1.2216275   -5.7316109    63.840626  0.043606985  0.047987364            2 
  123000    1.2150471   -5.7444863    64.608423  0.043772644  0.047973969            3 
  124000    1.1967473   -5.7000035    65.409142  0.043957756  0.047971176            1 
  125000     1.213258   -5.7181261    66.075732  0.044050488  0.047967458            3 
  126000     1.205762   -5.7233297    66.589127  0.044040428  0.047970386            2 
  127000    1.2046039    -5.703219     67.33471   0.04418288  0.047968332            5 
  128000    1.1830181    -5.701481    67.380566  0.043867556  0.047964194            3 
  129000    1.1897827   -5.7134127    67.846568  0.043828532  0.047957616            2 
  130000    1.1990604    -5.709375    68.542286  0.043937363  0.047947558            4 
  131000    1.1949913   -5.6978327    68.827525  0.043783413  0.047933249            4 
  132000    1.1903305    -5.693962    69.531282  0.043896011  0.047909322            4 
  133000    1.1727862    -5.729804    69.763448  0.043711434   0.04788638            3 
  134000    1.2068794   -5.7207044    70.415172   0.04379053  0.047863274            3 
  135000    1.2114339   -5.7231466     71.17787  0.043936957  0.047845777            2 
  136000    1.1987329   -5.7289029    71.542436  0.043837277   0.04783047            5 
  137000    1.1890993   -5.7329847    71.908283  0.043739831  0.047808132            4 
  138000    1.2374525   -5.7227837    72.743264  0.043927092  0.047786329            4 
  139000    1.1624784    -5.706932    73.223301  0.043898861  0.047762937            3 
  140000    1.2023159   -5.7439204    73.630602  0.043827739  0.047741629            2 
  141000    1.2147254    -5.723726    74.301259  0.043913273  0.047720112            2 
  142000    1.2012055   -5.7400546    74.617853   0.04378982  0.047700752            4 
  143000    1.1802401   -5.7656275    74.836766  0.043611169  0.047676109            3 
  144000    1.1833714   -5.7537978    75.303915  0.043578655  0.047649519            2 
  145000    1.1952521   -5.7404615    76.117559  0.043745723  0.047617767            2 
  146000    1.1624282     -5.74362    76.461001  0.043642124  0.047593241            2 
  147000    1.2034834   -5.7406944    77.429475   0.04389426  0.047569477            3 
  148000    1.2230339   -5.7113813    77.909831  0.043868148  0.047550444            5 
  149000    1.1910445   -5.7522107    78.491135  0.043898845   0.04753035            4 
  150000     1.235139   -5.7797672    78.518934   0.04362163  0.047510795            5 
  151000    1.1858662   -5.7443623    79.655682  0.043960089  0.047491185            2 
  152000    1.1977822   -5.6886665    80.505215  0.044136631  0.047476459            3 
  153000    1.1872173   -5.7571067     81.02228  0.044129782  0.047466328            1 
  154000    1.1969345   -5.7284741    81.603372  0.044157669  0.047455902            2 
  155000    1.2362056   -5.7857816    81.934897   0.04405102  0.047448583            5 
  156000    1.1929152   -5.7344162    82.747748  0.044202857  0.047440087            3 
  157000    1.1637556   -5.7928315    82.923804  0.044014758  0.047427493            2 
  158000    1.1660593   -5.7461918    83.904764  0.044253567  0.047415123            3 
  159000    1.1903637   -5.7363068    84.619787  0.044349993  0.047402324            2 
  160000    1.2016832   -5.7078726    85.112338  0.044329343  0.047393319            5 
  161000    1.2003236   -5.7470784    85.711043  0.044363894  0.047387514            6 
  162000    1.1874515   -5.7257717    86.279109  0.044382258  0.047379145            3 
  163000    1.1995293   -5.7684249    86.422099  0.044183077  0.047365134            2 
  164000    1.2099959   -5.7306993    87.262019  0.044340457  0.047354601            2 
  165000    1.1655123   -5.7681377    87.164499  0.044022474  0.047341301            3 
  166000    1.2069262   -5.7394565    88.361905  0.044358386  0.047326055            4 
  167000    1.1711447   -5.7354153    88.420993  0.044122252  0.047317779            2 
  168000     1.186241   -5.7318201    89.491464  0.044390607  0.047306595            3 
  169000    1.2011684   -5.7495111    89.938495   0.04434837  0.047298328            1 
  170000    1.2124093   -5.7706294    90.480082  0.044352981  0.047291841            2 
  171000    1.2188016   -5.7883418      90.8276  0.044262963  0.047281759            2 
  172000    1.1919827   -5.7914644    91.898406  0.044524421  0.047278651            2 
  173000    1.1945653   -5.7561273    92.973359  0.044784855  0.047279494            2 
  174000    1.1944349   -5.7584145    93.431173   0.04474673  0.047278514            5 
  175000    1.1735377   -5.7702777    93.195146  0.044378641  0.047279352            1 
  176000    1.1969029    -5.729476    94.348439  0.044672556   0.04727522            2 
  177000    1.1987825   -5.7998501    94.385512  0.044437623  0.047268539            3 
  178000    1.1961619   -5.7838733    95.399313  0.044662599  0.047262761            3 
  179000    1.1844301   -5.7395467    95.616781   0.04451433  0.047256875            2 
  180000    1.1811087   -5.7758333    96.095436  0.044488628  0.047252081            2 
  181000    1.1709432   -5.7942378    96.582716   0.04446718   0.04725007            2 
  182000    1.1749543    -5.727674    97.385976  0.044590648  0.047243213            7 
  183000    1.1616601   -5.7589729    98.121068  0.044681725  0.047241204            5 
  184000     1.182335   -5.7370154    98.631844  0.044670219  0.047235647            2 
  185000    1.1898116    -5.727657    99.157318  0.044665459  0.047227835            4 
  186000    1.1740233   -5.7808782    99.598053  0.044622783  0.047220064            3 
  187000    1.1665526   -5.7836406    100.09476   0.04460551  0.047214885            2 
  188000    1.1761911   -5.7690887    100.55706  0.044573164   0.04720783            1 
  189000    1.1614172    -5.780517    101.47581  0.044742421  0.047198388            4 
  190000    1.1749773   -5.7538568    101.80192  0.044649965  0.047192202            3 
  191000    1.1436437   -5.7527584    102.42584  0.044688411  0.047184516            4 
  192000    1.1699914   -5.7618465    102.92915  0.044674108   0.04717831            2 
  193000    1.1604856   -5.7606382    103.75583   0.04479958  0.047177668            3 
  194000    1.1490593   -5.7935891    103.96313  0.044657701  0.047173801            3 
  195000     1.166442   -5.7914451    104.44778  0.044635805  0.047166966            3 
  196000    1.1640875   -5.7853087    105.30027  0.044770523  0.047161672            3 
  197000    1.1900389   -5.7591817    105.64423  0.044688762  0.047153726            3 
  198000    1.1756608   -5.7726067    105.77847  0.044519558  0.047141362            3 
  199000    1.1662619   -5.7834056    105.85552  0.044328108   0.04712712            3 
  200000    1.1984962   -5.7804832    106.62865  0.044428604  0.047109917            6 
  201000    1.1934977     -5.79468    107.41565  0.044533851  0.047094062           10 
  202000    1.1664739   -5.7927788    107.39639   0.04430544  0.047077206            2 
  203000    1.1749081    -5.804483    107.90633  0.044296524  0.047059566            2 
  204000    1.1774096   -5.8142387    108.14932  0.044178642  0.047043539            3 
  205000    1.1497074   -5.7871437    109.63104  0.044565462  0.047030701            5 
  206000    1.1692337   -5.7692076     109.6692  0.044364564  0.047016192            3 
  207000    1.1778456   -5.8126486     109.9854  0.044277536  0.047002451            1 
  208000    1.1900862   -5.7784485    110.98855  0.044466567  0.046987583            2 
  209000    1.1589402   -5.8085374    111.20372  0.044339603  0.046974972            2 
  210000    1.1531641   -5.7950323    111.98518  0.044438562  0.046960556            4 
  211000     1.150683    -5.789599    112.56409  0.044456593  0.046946211            2 
  212000    1.1878101   -5.7671242     112.8199  0.044347445  0.046930827            3 
  213000    1.1423966   -5.7805524    113.32118   0.04433536  0.046913751            3 
  214000    1.1580409   -5.7650506    113.96487  0.044378843  0.046897604            3 
  215000    1.1761646   -5.7709137    114.88076  0.044527426  0.046882234            3 
  216000    1.1676534   -5.8184487    114.79323   0.04428751  0.046867473            2 
  217000    1.1557442   -5.8069906    115.59465  0.044391186  0.046850173            1 
  218000    1.1451993   -5.7698492    115.64642  0.044207348  0.046831712            3 
  219000    1.1281232   -5.8088235    115.96301  0.044125954  0.046811028            1 
  220000    1.1806345   -5.8240166    116.64434  0.044183462  0.046790955            5 
  221000    1.1599372   -5.8209591    117.06818  0.044143356  0.046769696            3 
  222000    1.1491492   -5.7966665    117.25505   0.04401466  0.046748051            8 
  223000    1.1505425   -5.8067257    118.10521  0.044134979   0.04672548            2 
  224000    1.1677675   -5.7843911    118.60556  0.044124093  0.046703346            1 
  225000    1.1758877   -5.8001281    119.79366  0.044368023   0.04668262            1 
  226000    1.1944928   -5.7961217    120.09205   0.04428173  0.046665365            2 
  227000    1.1572137   -5.8040007    120.49677  0.044235233  0.046646989            8 
  228000    1.1670296   -5.8212588    120.81107  0.044156092  0.046628358            3 
  229000    1.1632567   -5.7844787    121.21108  0.044108836    0.0466067            4 
  230000    1.1731445   -5.8127223    121.38257  0.043979192  0.046584787            1 
  231000    1.1710565   -5.7767313      122.276  0.044111111   0.04656308            2 
  232000    1.1522834   -5.7985174    122.88236  0.044138779  0.046541988            1 
  233000    1.1627185   -5.8256876    123.82099  0.044285047  0.046523333            2 
  234000    1.1737328   -5.8137706    124.45037  0.044319933  0.046505313            2 
  235000    1.1660973   -5.8083571    124.83351  0.044267201  0.046491677            3 
  236000    1.2082793   -5.8363807    124.99295  0.044135928  0.046474508            4 
  237000    1.1804913   -5.8126978    125.85246   0.04425192  0.046455891            6 
  238000    1.1741269   -5.8275004    126.07763  0.044144829  0.046438684            4 
  239000      1.15606    -5.836134    127.10244  0.044317447  0.046422675            3 
  240000    1.1741742   -5.7904612    127.22519  0.044175413  0.046404513            1 
  241000     1.164753    -5.868501    127.13373  0.043960486  0.046385128            3 
  242000     1.156529   -5.8240901     128.2373  0.044158851  0.046366066            2 
  243000    1.1623029   -5.7926498    128.64309  0.044116286  0.046347703            3 
  244000      1.14022   -5.7975005     129.5259  0.044236989  0.046330512            2 
  245000    1.1854078   -5.8109332    129.76917  0.044139173  0.046311334            3 
  246000    1.1568482   -5.8181979    129.79182   0.04396742  0.046292632            2 
  247000    1.1721335   -5.8375003    130.65695  0.044081292  0.046272482            2 
  248000    1.1596042   -5.7822082    131.25263  0.044103705  0.046255372            2 
  249000     1.147508   -5.8342847     131.1474  0.043891364  0.046234751            3 
  250000    1.1278084   -5.8532779    131.14158   0.04371386  0.046210598            2 
  251000    1.1546682   -5.8373926    132.34719  0.043939971  0.046188261            2 
  252000     1.165392    -5.833783    132.48647  0.043811664   0.04616678            4 
  253000    1.1430971   -5.8163817    133.59029  0.044002071  0.046144628            1 
  254000    1.1746734   -5.8251493    133.67774  0.043857527  0.046124196            6 
  255000    1.1882838   -5.8457284    133.76875  0.043715278  0.046101134            3 
  256000    1.1446949   -5.8349389    133.98546  0.043615058  0.046077591            3 
  257000    1.1500773   -5.8528056    135.04726  0.043789643  0.046054544            2 
  258000    1.1541519   -5.8554443    134.67796  0.043500632  0.046028526            3 
  259000    1.1508413   -5.8189487    135.49657  0.043596064  0.046002714            3 
  260000    1.1652751   -5.8186641    136.44693  0.043732992  0.045978018            8 
  261000    1.1518547   -5.8246256    136.88527  0.043705388  0.045954586            3 
  262000    1.2034149   -5.8230276    137.17887  0.043631957  0.045929726            3 
  263000     1.156118   -5.8153954    137.91792  0.043700227  0.045906154            3 
  264000    1.1495452   -5.8285853    138.16824  0.043613711  0.045883655            2 
  265000    1.1390697   -5.8165804     138.4492  0.043537483  0.045859019            2 
  266000    1.1437792   -5.8427473    138.93512  0.043526039  0.045833282            2 
  267000    1.1378853   -5.8443475    138.90816  0.043354607  0.045805241            1 
  268000    1.1246818    -5.844698    139.58878   0.04340447  0.045776179            4 
  269000    1.1421129   -5.8188394    140.49799   0.04352478  0.045747089            2 
  270000    1.1270764   -5.8292266    140.56309   0.04338367  0.045718129            3 
  271000    1.1426158   -5.8617719    140.81952  0.043302435   0.04568906            6 
  272000    1.1601712   -5.8329231    141.64499  0.043396135  0.045660249            2 
  273000    1.1398143    -5.822532    141.99097  0.043342787  0.045632129            4 
  274000    1.1546186   -5.8269689    142.46708  0.043329404  0.045605312            2 
  275000    1.1558897   -5.8684674    142.70461  0.043243821  0.045577855            4 
  276000    1.1588545   -5.8420003    143.18136  0.043231088  0.045551339            5 
  277000    1.1414713   -5.8088655    144.21043  0.043384606  0.045525317            2 
  278000    1.1640851   -5.8623474    144.63254  0.043355078  0.045496906            5 
  279000    1.1407809   -5.8586314    145.02236  0.043316117  0.045468263            2 
  280000    1.1334133   -5.9017568    144.76417  0.043084576   0.04544117            6 
  281000    1.1512161   -5.8582955    145.60069  0.043179326  0.045414272            4 
  282000    1.1473749   -5.8859645    145.78267  0.043079985  0.045388658            4 
  283000    1.1562182   -5.8485881    146.93006  0.043265623   0.04536424            3 
  284000    1.1313736   -5.8774258    146.83156  0.043084377  0.045338894            2 
  285000    1.1391712   -5.8797834    147.89008  0.043242713  0.045311681            3 
  286000    1.1346097   -5.8859956    148.11587  0.043157305  0.045283787            2 
  287000    1.1229388   -5.8465685    148.28051  0.043054736  0.045254986            2 
  288000    1.1315142   -5.8779031    148.43771  0.042950725  0.045225402            2 
  289000    1.1334129   -5.9039301    149.03236  0.042973576  0.045195636            4 
  290000    1.1324175   -5.8596843    149.49923  0.042959548  0.045167721            3 
  291000    1.1094762   -5.8868968    150.45684  0.043086151  0.045140959            6 
  292000     1.121647   -5.8912168    150.62595  0.042986857  0.045114722            2 
  293000    1.1102978   -5.8774559    150.83155  0.042898622  0.045087726            5 
  294000    1.1325459   -5.8467733    152.07774  0.043105936  0.045061147            3 
  295000    1.1186271   -5.8754821    151.99806  0.042937304  0.045034925            3 
  296000     1.172789    -5.859885    152.44992  0.042919458  0.045007451            3 
  297000    1.1384089   -5.8458489    152.68695  0.042841455   0.04497936            2 
  298000    1.1377263   -5.8794121     152.6286  0.042681375  0.044948888            2 
  299000    1.1172014   -5.8449668    153.07541  0.042663158  0.044918465            1 
  300000    1.1372105   -5.8671951     153.9108  0.042753001  0.044886399            4 
  301000    1.1483979   -5.8984964    153.92579  0.042615113  0.044856219            4 
  302000    1.1537502   -5.8893811     154.7487  0.042701076  0.044826079            4 
  303000    1.1167708   -5.8967219    155.15053  0.042670663  0.044796713            3 
  304000    1.1472846   -5.8507822    156.03425  0.042772546  0.044768343            2 
  305000    1.1316425   -5.8598303    156.10619  0.042651965  0.044739979            3 
  306000    1.1334403   -5.8476944    157.12731  0.042790662  0.044713217            5 
  307000     1.118962   -5.9054674    156.82807  0.042570051  0.044684854            5 
  308000    1.1340103    -5.901874    157.79679  0.042693936  0.044657724            3 
  309000    1.1486194    -5.887456    158.08796  0.042634292  0.044629746            4 
  310000    1.1457262   -5.9035171    158.39015  0.042577996  0.044602395            2 
  311000    1.1304203   -5.8383183     159.7766  0.042812593  0.044576804            2 
  312000    1.1168681    -5.888669    159.43889  0.042585173  0.044550322            2 
  313000    1.1356481   -5.8468163    159.55073  0.042478895  0.044522904            3 
  314000    1.0944502   -5.8726087    160.54624  0.042607813  0.044495614            2 
  315000    1.1123103   -5.9242451    160.28566  0.042403614  0.044469934            5 
  316000    1.1285702    -5.899355    161.12268  0.042490159  0.044441874            5 
  317000    1.1066358   -5.8877958    161.70936  0.042510346  0.044413936            3 
  318000    1.1089719   -5.8962935    161.92621  0.042433492  0.044387332            4 
  319000    1.1380265   -5.8843161    162.46195  0.042440425  0.044359117            2 
  320000    1.1271709   -5.9493215    162.20939  0.042242028  0.044330918            6 
  321000    1.1009773    -5.895535    162.63621  0.042221238  0.044301689            2 
  322000    1.1095791   -5.9115741    163.18267  0.042231539  0.044273175            3 
  323000    1.1351712   -5.9064572    163.79878  0.042259748   0.04424458            3 
  324000    1.1310357   -5.8755573    164.99535  0.042437075  0.044215947            3 
  325000    1.1474764   -5.8986086    164.24208  0.042113354   0.04418682            3 
  326000    1.1189428   -5.8903981    165.43998  0.042290383  0.044155609            3 
  327000    1.1178684   -5.9216972    165.54427  0.042187633  0.044126098            2 
  328000    1.1145281   -5.9315816     165.7149  0.042102362  0.044097358            2 
  329000    1.1311616   -5.8909276    166.31171   0.04212556  0.044069886            2 
  330000    1.1129347   -5.8693797    167.87301  0.042392175  0.044043999            1 
  331000    1.1224398   -5.9724643    167.01605   0.04204835  0.044017258            3 
  332000    1.1186116   -5.8814246     168.2489  0.042231149  0.043989227            5 
  333000    1.1163477   -5.8975257    168.60684  0.042193903  0.043962028            4 
  334000    1.1015021   -5.9088307    168.75049  0.042103415  0.043934897            4 
  335000    1.1085851   -5.9399068    169.01686  0.042043996  0.043907465            3 
  336000    1.1150502   -5.9392892    169.09926  0.041939299  0.043879353            3 
  337000    1.1547881   -5.9290295    169.11005  0.041817519  0.043850288            9 
  338000    1.1110865   -5.9471279    169.90661   0.04189019  0.043821897            2 
  339000    1.0920526   -5.9383189    170.26803  0.041855463  0.043793325            3 
  340000    1.1082915    -5.901544    170.98626  0.041908397  0.043764428            4 
  341000    1.0737165   -5.9112713    171.64389  0.041946211  0.043736221            6 
  342000    1.1163403   -5.9139053    171.95191  0.041898613  0.043707441            5 
  343000    1.1017531   -5.9193104    172.99434  0.042029723   0.04368009            7 
  344000    1.1304304    -5.924946    173.22603  0.041963671  0.043651903            3 
  345000    1.1357827   -5.8897794    173.58393  0.041928486  0.043623938            2 
  346000    1.1246455   -5.9210393    173.84229   0.04186953  0.043594915            4 
  347000    1.1296321   -5.8897573     174.3795  0.041877881  0.043567867            3 
  348000    1.1287378   -5.9242747    174.83471   0.04186655  0.043538516            3 
  349000     1.110807   -5.9096178    175.16934  0.041826489  0.043511817            4 
  350000    1.1110493   -5.9325893    175.93951   0.04189036  0.043485546            3 
  351000    1.1409328   -5.9591741    175.35533   0.04163232  0.043458345            2 
  352000    1.1392037    -5.947239    176.14512  0.041701023  0.043431593            4 
  353000    1.1156933   -5.8839092    176.79336  0.041735921  0.043404394            2 
  354000    1.1092083   -5.9107531    177.33978  0.041746653  0.043377901            4 
  355000     1.122339   -5.9375402    177.40797  0.041645064  0.043350727            4 
  356000    1.0922986   -5.9362569     178.3011  0.041737149  0.043323495            3 
  357000    1.1310269   -5.9518883    178.25028  0.041608376  0.043296032            4 
  358000     1.100959   -5.9705997    178.37535  0.041521264  0.043269055            5 
  359000    1.0976383   -5.9596738    178.93865  0.041536362  0.043241825            2 
  360000    1.1058733   -5.9416315      179.577  0.041568749  0.043214107            4 
  361000    1.1121492   -5.9265093    181.26252  0.041842688  0.043187449            2 
  362000    1.1076678   -5.9311616    181.25806  0.041726072  0.043162894            4 
  363000    1.1125567   -5.9560277    181.64726  0.041700473  0.043138127            2 
  364000    1.1019462   -5.9643534    181.79555  0.041619861  0.043113522            5 
  365000    1.1067613   -5.9399127    182.42795  0.041650217  0.043090389           10 
  366000    1.1114675   -5.9407454    182.71882  0.041602646  0.043066221            5 
  367000    1.1182347   -5.9177265    183.84485  0.041744971  0.043042564            3 
  368000    1.1159996   -5.9312402    183.64858  0.041587087  0.043019656            3 
  369000    1.1348904   -5.9447796    183.83022  0.041515407  0.042996351            2 
  370000    1.0976417   -5.9676071    183.82226   0.04140141  0.042970459            2 
  371000     1.115807    -5.895243    184.22483  0.041380241   0.04294602            4 
  372000    1.1257217   -5.9551314    185.06872  0.041458047  0.042921393            2 
  373000    1.0915109   -5.9601364    185.52979  0.041449908  0.042897759            2 
  374000     1.099029   -5.9477787    186.04482  0.041453836  0.042874348            2 
  375000    1.0892055   -5.9120671    187.90248  0.041756106  0.042851562            4 
  376000    1.1096075   -5.9164593    187.61609  0.041581579  0.042828662            4 
  377000    1.1049902   -5.9136457     187.3366  0.041409505  0.042803813            2 
  378000    1.1136095   -5.9738451    187.15716  0.041260397  0.042778863            5 
  379000    1.1167811   -5.9608341     187.5714  0.041242612  0.042754016            3 
  380000    1.1062537   -5.9726507    188.19577  0.041271002  0.042728971            6 
  381000    1.0914334   -5.9657477    188.96382  0.041330669  0.042704129            2 
  382000    1.1205837   -5.9801977    189.09672  0.041251465  0.042681099            4 
  383000    1.0885775   -5.9701462    189.58788  0.041250627  0.042656837            4 
  384000    1.1030716   -6.0098966    189.46037  0.041115532  0.042632487            3 
  385000    1.1132826    -5.922093    191.25407  0.041396986  0.042608189            2 
  386000    1.0949692   -5.9566448    190.51003  0.041129109   0.04258365            2 
  387000    1.1165152   -5.9644925     191.4881  0.041233442  0.042559126            2 
  388000    1.0954111   -5.9895469     191.4469   0.04111832  0.042533801            3 
  389000    1.0906699   -5.9814653    191.39342  0.041001162  0.042508131            3 
  390000    1.0916795   -5.9580635    192.58108  0.041149803   0.04248145            4 
  391000    1.1121159   -5.9470898     192.7402  0.041078473  0.042455757            6 
  392000    1.1164246   -6.0166903    192.22499  0.040864156  0.042430539            5 
  393000     1.103504   -5.9685102    193.82557   0.04109957  0.042406227            2 
  394000    1.1175477   -6.0101162     193.8098  0.040991921  0.042382944            5 
  395000    1.0966121   -5.9465806    194.70917  0.041077884   0.04235957            6 
  396000    1.0746968   -5.9203609     195.3061  0.041099769  0.042335469            4 
  397000    1.1064553   -5.9696261    195.09685  0.040952319   0.04231163            2 
  398000    1.1088666   -5.9859686    195.74993  0.040986166  0.042287944            6 
  399000    1.0855394   -5.9615597    196.62158  0.041065494  0.042264727            2 
  400000    1.0829285   -5.9498937    196.37151  0.040910732  0.042240866           11 
  401000    1.0987736   -5.9322115    198.04219    0.0411559  0.042218124            8 
  402000    1.1182429   -5.9539971    197.95178   0.04103478  0.042195615            3 
  403000    1.0906008   -5.9782757    197.41737  0.040822451  0.042172565            4 
  404000    1.1006114   -5.9591144    198.76101  0.040998558  0.042149262            4 
  405000    1.0909688   -5.9733851    198.86207  0.040918121  0.042127288            2 
  406000    1.0988059   -5.9474855    200.06512   0.04106427  0.042106023            3 
  407000     1.079217   -5.9789319    199.77029  0.040903009   0.04208508            5 
  408000     1.074595   -5.9928376    200.28856   0.04090861  0.042062568            6 
  409000    1.0972695   -5.9740955    200.94383    0.0409421   0.04204121            5 
  410000    1.0778514   -5.9728463    202.15458   0.04108833  0.042020224            3 
  411000    1.1012157   -5.9604073    202.88717  0.041136897  0.041999861            4 
  412000    1.1060052   -5.9924169    201.95141  0.040847777  0.041979903            4 
  413000     1.087137   -5.9530648    203.69273  0.041100228  0.041959597            2 
  414000    1.1053093   -5.9739285    203.63257  0.040988843  0.041939277            3 
  415000    1.1002953   -6.0031831    203.67073  0.040897737  0.041919541            4 
  416000    1.0911412   -6.0118634    204.37976  0.040941458   0.04189955            2 
  417000     1.093588   -6.0455802    204.17342  0.040802042  0.041879278            3 
  418000    1.0827374   -5.9578793    205.18769  0.040906636  0.041858839            4 
  419000    1.0735493   -5.9675972    205.09569   0.04079071  0.041838371            3 
  420000    1.0497774   -5.9811795    205.68357  0.040810232  0.041817482            5 
  421000    1.1192214   -6.0066178    205.23268  0.040624047  0.041795841            5 
  422000    1.0961623   -5.9810606    206.17208  0.040713287    0.0417734            4 
  423000     1.090731   -5.9740945    206.58718  0.040698814  0.041751898            4 
  424000    1.1024275   -6.0021081    206.10355  0.040507774  0.041729464            3 
  425000    1.0983701    -5.972946    206.17221  0.040425924  0.041706234            4 
  426000    1.1007395    -6.028352    207.04967  0.040502674  0.041681916            3 
  427000    1.0706485   -5.9779811    208.11294  0.040615327  0.041658672            3 
  428000    1.0888175    -5.978588    208.31635  0.040560037  0.041635515            5 
  429000      1.09458    -5.991742    208.04951  0.040413658  0.041612008            4 
  430000    1.0760268   -5.9819608    208.21507  0.040351758  0.041588527            3 
  431000    1.1161456   -5.9981857    208.30338  0.040275208  0.041563823            3 
  432000    1.0919556   -5.9866452    208.87697  0.040292626  0.041538839            3 
  433000    1.0600616   -5.9988513    208.96963  0.040217403  0.041513082            4 
  434000    1.0834668   -5.9891149     209.2488  0.040178341  0.041487279            3 
  435000    1.0823217   -6.0029915    209.06369  0.040050514  0.041461478            3 
  436000    1.0869864   -5.9869576    210.08435  0.040153736  0.041435505            3 
  437000     1.093484   -5.9990384    210.30795  0.040104491  0.041408639            6 
  438000    1.1094351   -6.0342791    210.61479  0.040071307  0.041382333            2 
  439000    1.0607339   -5.9872973    211.15526  0.040082624  0.041355855            5 
  440000    1.0763475   -5.9771815    211.21636  0.040003098  0.041330431            3 
  441000     1.070607   -6.0088319    212.26185  0.040109949  0.041304414            2 
  442000    1.0811361   -6.0059795    212.25228  0.040017397  0.041278106            2 
  443000    1.0995625   -6.0354267    212.55144   0.03998334  0.041252705            4 
  444000    1.0819037   -5.9836606    213.48018  0.040067601   0.04122702            8 
  445000    1.0855675   -5.9939048    213.54394  0.039989502  0.041202701            2 
  446000    1.0769745    -5.975562    214.25964  0.040033564   0.04117827            6 
  447000    1.0818252   -6.0260595    214.03676  0.039902453   0.04115237            3 
  448000    1.0901283   -5.9693204    214.99262  0.039991186  0.041125868            2 
  449000    1.0725638   -5.9792094    215.04091  0.039911082  0.041099948            2 
  450000    1.0741195    -6.035258    214.71839  0.039762665   0.04107361            4 
  451000    1.0773909   -6.0126657    214.19512  0.039577812  0.041047478            6 
  452000    1.0726591   -6.0062707     215.6367  0.039756028  0.041020976            3 
  453000    1.0957409    -6.030321    215.70614  0.039681042  0.040994497            4 
  454000    1.0721309   -5.9691466    216.65601  0.039767989  0.040968819            2 
  455000    1.0809036   -6.0355049    216.02164  0.039564403  0.040942712            2 
  456000    1.0787169    -6.014446    217.36246  0.039722672  0.040916532            3 
  457000    1.0729043   -5.9890394    218.23026  0.039793993  0.040890728            4 
  458000    1.0700613   -6.0121216    217.77988   0.03962516  0.040864511            3 
  459000    1.0807874   -6.0509677    217.48259  0.039484856  0.040838479            3 
  460000    1.0851713   -6.0067871    218.29897  0.039546915  0.040812408            3 
  461000    1.0783065   -6.0038979    219.34239  0.039649744  0.040786288            4 
  462000    1.0759765   -6.0230289    218.83046  0.039471583  0.040760067            2 
  463000    1.0733047   -6.0192343    219.92408  0.039583168  0.040733312            2 
  464000    1.0392031   -6.0377573    219.56047  0.039432556   0.04070619            4 
  465000    1.0506339    -6.037993    220.03335    0.0394325  0.040679619            2 
  466000      1.06204   -5.9997146    220.97523  0.039516313  0.040652745            3 
  467000    1.0682619   -6.0505521    220.26403  0.039304787  0.040625207            2 
  468000    1.0816771   -6.0011442    220.44185  0.039252466  0.040597322            2 
  469000    1.0698193   -6.0148891    221.70781  0.039393712  0.040570679            7 
  470000    1.0586626    -6.028357    221.08868  0.039200121  0.040544218            3 
  471000    1.0637653   -6.0175741    221.87312  0.039255682  0.040516674            4 
  472000    1.0731288    -5.985555    223.34145  0.039431754  0.040489388            2 
  473000    1.0713722   -6.0496148    222.17639  0.039143128  0.040461737            4 
  474000    1.0556352   -6.0451242    222.18527  0.039062108  0.040434443            3 
  475000    1.0399645   -6.0207798    223.88783  0.039278566  0.040407605            9 
  476000    1.0654074    -6.035685    222.99584  0.039039887  0.040380357            4 
  477000    1.0831689   -6.0101533    223.52793     0.039051  0.040352075            3 
  478000    1.0536331    -6.032974    223.74375   0.03900693   0.04032415            2 
  479000    1.0589007   -6.0778396    222.94382  0.038786329  0.040295624            4 
  480000    1.0668799   -6.0602666     223.3545  0.038776823  0.040266381            7 
  481000    1.0820136   -6.0401978    223.70529  0.038756979  0.040237155            3 
  482000    1.0824068   -6.0475003    224.60546  0.038832203  0.040207188            2 
  483000    1.0450389   -6.0491435    225.02721   0.03882457  0.040177781            4 
  484000    1.0450674   -6.0078478    225.42299  0.038812498  0.040148755            4 
  485000    1.0661079   -6.0482273    224.94179  0.038649793  0.040119318            3 
  486000    1.0513795   -5.9865375    226.09672  0.038768299  0.040090017            6 
  487000    1.0543004   -6.0496865    225.48521  0.038584054  0.040060897            3 
  488000    1.0679602   -6.0289861    226.65148  0.038704147  0.040032208            5 
  489000    1.0639337   -6.0268917     227.1123  0.038703528  0.040004076            5 
  490000    1.0619995   -6.0555165    227.60265  0.038707934  0.039976488            7 
  491000    1.0503421   -6.0743899    228.23618  0.038736622  0.039948461            2 
  492000    1.0550417   -6.0758172    228.51436  0.038705006  0.039920653            7 
  493000    1.0571512   -6.0899857    228.74064  0.038664746   0.03989361            6 
  494000    1.0638931   -6.0523836    229.29431  0.038679876  0.039866917            3 
  495000     1.053878   -6.0370768    229.81601  0.038689564  0.039839093            3 
  496000    1.0665932   -6.0191312    230.38507  0.038707169  0.039812697            3 
  497000    1.0705289   -6.0623081    230.56952  0.038660215  0.039785959            5 
  498000    1.0858887   -6.0435228    230.41676  0.038557021  0.039759068            5 
  499000    1.0575277   -6.0330888    231.24943  0.038618809  0.039732374            3 
  500000    1.0486485   -6.0554925    231.04735  0.038507892  0.039706134            5 
  501000    1.0626451   -6.0586422    231.72974  0.038544534  0.039679817            2 
  502000    1.0493372   -6.1062969    231.73412  0.038468479   0.03965378            4 
  503000     1.050558   -6.0872612    231.74604  0.038393976  0.039626445            5 
  504000    1.0391744   -6.0632724    232.93394   0.03851421  0.039599715            7 
  505000     1.054159   -6.0623165    233.38809  0.038512886  0.039573922            3 
  506000    1.0428361   -6.0122942    233.40373  0.038439349  0.039548435            5 
  507000    1.0452038   -6.1087366    232.93169  0.038285945  0.039522665            3 
  508000    1.0463834   -6.0891198       233.53  0.038308728  0.039496541            3 
  509000    1.0620625    -6.082673    234.40626  0.038376925  0.039469642            6 
  510000    1.0466659   -6.0810798     234.4485  0.038308578  0.039442193            5 
  511000    1.0502073   -6.1099436    233.98005  0.038157217  0.039414315           10 
  512000     1.045146   -6.0443884    235.49379  0.038329068  0.039387434            4 
  513000    1.0557311     -6.02086    236.56677  0.038428649  0.039360894            4 
  514000    1.0542566   -6.0716372    235.49411  0.038179978  0.039334106            8 
  515000    1.0521593   -6.0326557    236.94542  0.038340682  0.039307381            4 
  516000     1.072514   -6.0679009    235.69198  0.038063951   0.03928039            4 
  517000    1.0298595   -6.0407253    237.33277  0.038254799  0.039253589            2 
  518000     1.049795   -6.0616478    237.50659  0.038208911  0.039227422            3 
  519000      1.05071   -6.0979029    237.81731  0.038185181  0.039200624            7 
  520000    1.0622742   -6.0691203    236.84846  0.037956485  0.039173021            3 
  521000    1.0562831   -6.0880029    237.36858  0.037966824  0.039145457           14 
  522000    1.0679539   -6.1157792    237.03161  0.037840295  0.039117612            6 
  523000    1.0327854   -6.0617326    238.28789  0.037968116  0.039090118            6 
  524000    1.0613704    -6.052503    237.93022  0.037838776   0.03906205            6 
  525000    1.0399675   -6.0708645    237.98529  0.037775443  0.039033293            3 
  526000    1.0444832   -6.0500581    238.76941  0.037827854  0.039004471            2 
  527000    1.0264328   -6.1075769    237.98118  0.037631432  0.038975175            2 
  528000    1.0355086   -6.0477736    239.12456  0.037740619  0.038946385            5 
  529000    1.0353853   -6.1233864    239.66719  0.037754755  0.038918448            6 
  530000    1.0457071   -6.0919409    239.45837  0.037650688  0.038890467            2 
  531000    1.0367816   -6.0497922    241.05438  0.037830254  0.038862741            3 
  532000    1.0442826   -6.0818294    240.60747  0.037689141  0.038834747            2 
  533000    1.0559024   -6.1071143    240.64191  0.037623814  0.038806446            6 
  534000    1.0386249   -6.0945683    240.50959  0.037532707   0.03877804            2 
  535000    1.0393469   -6.0872853    241.52564  0.037620816   0.03874891            5 
  536000    1.0282527   -6.1013317    241.26376  0.037509913  0.038719781            6 
  537000    1.0311075   -6.0866466    241.29108  0.037444302  0.038690212            2 
  538000    1.0666175   -6.1292851    241.13492  0.037350514  0.038660458            8 
  539000    1.0226108   -6.1248084    241.90045  0.037399575  0.038631011            8 
  540000    1.0319251   -6.0743663    242.78042  0.037466114  0.038602257            4 
  541000    1.0536057   -6.0969448    242.19281  0.037306348  0.038573417            3 
  542000    1.0478061   -6.0937429    242.73609  0.037321048  0.038544628            6 
  543000    1.0463648   -6.1152672    243.38066  0.037351236  0.038516157            4 
  544000    1.0358808    -6.084472    244.71076  0.037486329  0.038487995            3 
  545000    1.0562972   -6.0571235    245.27632  0.037504025  0.038460609            7 
  546000    1.0294145   -6.1079089    243.89801  0.037224971   0.03843213            2 
  547000    1.0346885   -6.1061379    243.81988  0.037145015  0.038402796            7 
  548000    1.0472759   -6.0975422    244.82678   0.03723035  0.038373277            6 
  549000    1.0220272   -6.0433783    245.56696  0.037274887  0.038344832            5 
  550000     1.011617   -6.1196197    246.10478  0.037288604  0.038316733            3 
  551000    1.0440623   -6.1109931    245.38665  0.037112318  0.038288606            6 
  552000    1.0295566   -6.1339006    245.69754  0.037092021  0.038260053            3 
  553000    1.0280504   -6.1020799    246.19777  0.037100327  0.038231441            3 
  554000    1.0315839   -6.1209124    246.57657  0.037090338  0.038203043            2 
  555000    1.0449246   -6.1150497     246.9722  0.037082913   0.03817434            2 
  556000    1.0610754   -6.0718536    247.70809  0.037126512  0.038146737            4 
  557000     1.027685   -6.1452049     247.4989   0.03702856  0.038119352            5 
  558000    1.0425703   -6.1317994    248.10287    0.0370524  0.038090818            3 
  559000    1.0359602   -6.1293485    247.77238  0.036936849  0.038062122            2 
  560000    1.0240819   -6.1427309      248.555  0.036987351  0.038033913            3 
  561000    1.0413891   -6.1261817    248.38403  0.036896024  0.038005872            3 
  562000    1.0192625   -6.1594359       248.07  0.036783808  0.037977503            2 
  563000     1.018565   -6.1188889    249.23878  0.036891472  0.037948943            4 
  564000    1.0394931   -6.1218427    249.22215  0.036823604  0.037920807            5 
  565000    1.0253725    -6.114035    249.98344  0.036870714  0.037893094            4 
  566000    1.0259372   -6.1112154    250.30957  0.036853588   0.03786512            8 
  567000    1.0457638   -6.0859013    251.05846  0.036898657  0.037837415            4 
  568000    1.0375039   -6.1426826    249.84174  0.036655185  0.037809129            6 
  569000    1.0161623   -6.1703528    250.14155  0.036634674  0.037780587           11 
  570000    1.0146557   -6.1874514    250.32353  0.036597007  0.037752144            4 
  571000    1.0366976   -6.1296864    251.75843  0.036742328  0.037724213            3 
  572000    1.0232538   -6.1093945    251.29059  0.036609934  0.037696162            6 
  573000    1.0179254   -6.1347386    250.46105    0.0364254  0.037667388            4 
  574000    1.0544888   -6.1215651    252.25478  0.036622355  0.037638587            3 
  575000    1.0138994   -6.1217166    252.00099  0.036521883  0.037609987            6 
  576000    1.0275737   -6.1312047    252.55237  0.036538248  0.037581034            5 
  577000    1.0347986   -6.1367013    251.80287  0.036366677  0.037552178            7 
  578000    1.0257376   -6.1670076    252.61522  0.036420879  0.037523589            4 
  579000    1.0259972   -6.1473014    252.71693  0.036372616  0.037495118            2 
  580000    1.0089093   -6.1432745    253.03261   0.03635526  0.037466694            4 
  581000    1.0276172   -6.1560238    253.01145  0.036289651  0.037437841           10 
  582000    1.0196165   -6.1515207     254.2601  0.036406085  0.037409293            5 
  583000    1.0277512   -6.1279879    254.75912  0.036414969  0.037381003            5 
  584000    1.0315201   -6.1266308     254.5104  0.036317124  0.037352669            3 
  585000    1.0161377   -6.1024125    255.39899  0.036381623  0.037324927            3 
  586000    1.0329227   -6.1429854    255.99761  0.036404665  0.037297441            5 
  587000    1.0275215   -6.1510308    256.58347   0.03642582  0.037269868            4 
  588000    1.0321353   -6.1468758    256.47331  0.036348259  0.037242493            5 
  589000    1.0079362   -6.1372649    256.58228  0.036301963  0.037215213            5 
  590000    1.0299022   -6.1226563    256.50504  0.036229525  0.037187963            4 
  591000    1.0105989   -6.1473587    256.88465   0.03622175  0.037160539            7 
  592000    1.0467414   -6.1621415    257.19832  0.036204719  0.037133455            5 
  593000    1.0117286   -6.1238272    257.85859  0.036236452  0.037106668            3 
  594000    1.0227082    -6.158843    258.08735  0.036207541  0.037079718            4 
  595000      1.02218   -6.1286469    259.08766  0.036286787  0.037053178            3 
  596000    1.0069381   -6.1593261    258.82452  0.036189111  0.037026172            3 
  597000    1.0122276   -6.1368714    258.78399  0.036122835  0.036999029            2 
  598000   0.99881663   -6.1688978    258.71454  0.036052751  0.036972574            3 
  599000    1.0028724   -6.1515682      259.155  0.036053839  0.036946373            3 
  600000    1.0373678   -6.0978465    260.70118  0.036208497  0.036920276            4 
  601000    1.0111628   -6.1216202    260.42962  0.036110596  0.036894399            4 
  602000    1.0111701   -6.1303155    260.59996  0.036074192  0.036868357            3 
  603000    1.0050438   -6.1721773    260.19984  0.035959071  0.036842093            4 
  604000    1.0202815   -6.2017268    260.61743   0.03595715  0.036815826            6 
  605000    1.0302252   -6.1757667    261.93649  0.036079407  0.036790057            9 
  606000    1.0138027   -6.1543252     261.1348  0.035909625  0.036763797            4 
  607000    1.0103926   -6.1608285     262.1898  0.035995305  0.036736955            3 
  608000    1.0305878   -6.1564455    261.88416  0.035894211  0.036710723            5 
  609000    1.0181737   -6.1771765    262.36663   0.03590129   0.03668468            7 
  610000     1.005741   -6.1758821     263.0032  0.035929399  0.036658923            4 
  611000     1.011508     -6.13271    263.82445  0.035982603  0.036633251            5 
  612000    1.0336604   -6.1646678    263.64857   0.03589986  0.036607809            3 
  613000    1.0202308   -6.1315169    264.34827  0.035936416  0.036582897            6 
  614000    1.0159222    -6.188983    264.65602  0.035919655  0.036557388            2 
  615000    0.9927232   -6.1364493    264.44011  0.035831993  0.036532103            5 
  616000    1.0103698   -6.1513265    264.99561  0.035848974  0.036506826            3 
  617000    1.0091773   -6.1204942    265.12744  0.035808677  0.036481923            2 
  618000    0.9991089   -6.1509052    265.55362  0.035808202  0.036457262            3 
  619000     1.020054    -6.154687    266.13577  0.035828725  0.036432287            2 
  620000    1.0088067    -6.148755    266.98522   0.03588511  0.036407319            4 
  621000    1.0071963     -6.16342    265.79843  0.035668066  0.036382223            3 
  622000    1.0232728   -6.1843988    265.82959  0.035614897  0.036357367            4 
  623000    1.0041897   -6.1735638    265.95754  0.035574845  0.036332534            3 
  624000   0.98282351    -6.166877    266.85757  0.035638031  0.036307898            2 
  625000    1.0005945   -6.1413643    267.75624  0.035700831  0.036282839            3 
  626000   0.99418486   -6.2115516    267.39724  0.035596012  0.036257228            4 
  627000    1.0206119   -6.1947474    267.01772  0.035488798  0.036230888            2 
  628000     1.021216    -6.200812    267.90374   0.03554986  0.036205126            7 
  629000   0.99333929   -6.1734112    268.75306  0.035605864  0.036179659            2 
  630000    1.0022068   -6.1938259    268.67812  0.035539433   0.03615463            4 
  631000   0.98941955   -6.1890276     268.6919  0.035484931  0.036129167            6 
  632000    1.0256985    -6.173453    269.08058  0.035480034  0.036103737            8 
  633000    1.0054161   -6.1585193    268.76035  0.035381826  0.036078454            3 
  634000   0.98799251   -6.2184018    268.88799  0.035342796  0.036052943            6 
  635000   0.99250402   -6.1993198    269.97838  0.035430234  0.036027606            5 
  636000   0.98477669   -6.1661397    270.44886  0.035436171  0.036002686            4 
  637000   0.97560737   -6.1891763     270.2662  0.035356646   0.03597759            3 
  638000    1.0129172   -6.1694011    270.96672  0.035392727   0.03595248            3 
  639000   0.99391279   -6.1407568    271.85652   0.03545338  0.035927832            3 
  640000    1.0158295   -6.1860899    271.25339  0.035319452  0.035903117            3 
  641000    0.9993739   -6.2109839    270.98399  0.035229328  0.035878888            5 
  642000   0.98497176   -6.1851396     271.2912   0.03521433  0.035854231            6 
  643000    1.0327561   -6.1671329    272.19896  0.035277211  0.035829273            4 
  644000   0.96083647   -6.1913184    272.15929  0.035217299  0.035804681            5 
  645000    1.0154891   -6.2016493    273.96004  0.035395354  0.035780746            4 
  646000   0.97804721   -6.1752527    273.25057  0.035249042  0.035756334            6 
  647000     1.004537   -6.2157873     272.7368  0.035128388  0.035731498            4 
  648000   0.98252869    -6.186151    274.20228  0.035262639  0.035707068            5 
  649000    1.0046763   -6.2283594      273.147  0.035072805  0.035683412            5 
  650000   0.99236474   -6.2201375    274.05692  0.035135503   0.03565905            5 
  651000    1.0096737   -6.1890986    275.12132  0.035217783  0.035635461            2 
  652000   0.99099905    -6.229216    274.09901  0.035033104  0.035611531            4 
  653000   0.99008399   -6.2054662    274.33031  0.035008972  0.035587584            5 
  654000    1.0094506   -6.2388068    273.54701  0.034855633  0.035563383            6 
  655000   0.97046109   -6.1817763    275.13539  0.035004503  0.035538958            3 
  656000    1.0083931   -6.1890145    276.00263   0.03506131  0.035515409           11 
  657000   0.99207096   -6.2070362    276.17266   0.03502951  0.035491594            2 
  658000    1.0152018   -6.1841189    275.66017  0.034911369  0.035467439            5 
  659000    0.9831304    -6.228712     275.7522  0.034870031  0.035442941            3 
  660000   0.98396401   -6.2220812    275.98217  0.034846233  0.035418343            2 
  661000   0.97583624   -6.2092049    276.73992  0.034889047  0.035393599            5 
  662000   0.98559701   -6.2387444    276.22977  0.034772126  0.035368835            5 
  663000   0.99417687   -6.2449694    276.71832  0.034781085  0.035344389            4 
  664000   0.99613811   -6.2423418    276.89392  0.034750743  0.035319742            3 
  665000   0.98366778   -6.2114278    277.90056  0.034824631  0.035295705            3 
  666000   0.97646277   -6.2448978    278.01367  0.034786495  0.035271926            3 
  667000   0.99796856   -6.2010727    278.68229  0.034817878  0.035248798            9 
  668000   0.98563456   -6.2053051     279.4345  0.034859593  0.035225602            7 
  669000   0.97184152   -6.2018066    280.18699  0.034901219  0.035202135            3 
  670000   0.99071311   -6.2139355    280.29528  0.034862597  0.035179558            6 
  671000   0.99643621    -6.241469    280.12967  0.034790073  0.035157427            4 
  672000   0.96783815   -6.2308299    280.77874  0.034818792  0.035134947            4 
  673000    1.0129194   -6.2224624    281.41088  0.034845329  0.035112723            2 
  674000   0.99297691   -6.2526114    281.87929  0.034851544  0.035090442            3 
  675000   0.98701476   -6.1868857    281.86936  0.034798686  0.035068587            3 
  676000   0.95522076   -6.2291327    282.36101  0.034807817  0.035046967            3 
  677000   0.99216675     -6.22448    281.69453  0.034674364  0.035024591            4 
  678000   0.98054455   -6.2328789    282.02077   0.03466332  0.035002155            5 
  679000    0.9755009   -6.2514421    282.26029  0.034641666  0.034980138            2 
  680000   0.99209383   -6.2377081    282.50052  0.034620162  0.034957606            5 
  681000   0.97510337   -6.2229481    282.51002  0.034570487  0.034934908            6 
  682000   0.99731262   -6.2353943    284.23068  0.034730044  0.034912195            4 
  683000   0.97445136   -6.2175909    283.62817  0.034605682  0.034890044            4 
  684000   0.98073141   -6.2281961    284.86236  0.034705453  0.034868629            4 
  685000   0.96879513   -6.2431376    284.76851  0.034643371  0.034846447            2 
  686000   0.98320912   -6.2696944    284.21849  0.034526056  0.034824276           10 
  687000   0.98998198   -6.2063855    284.72559  0.034537311   0.03480219            5 
  688000   0.98809377   -6.2607817    284.75802  0.034491039  0.034780221            3 
  689000   0.97595114    -6.257674    285.00537  0.034470896  0.034758608            3 
  690000    0.9814348   -6.2234456    285.55128  0.034486869  0.034737265            4 
  691000    1.0065013   -6.2392763    286.41592  0.034541235  0.034715511            5 
  692000   0.96716675   -6.2166102    287.10076  0.034573791  0.034693594           10 
  693000   0.96786021    -6.250558    285.99355  0.034390759  0.034672063            2 
  694000   0.99341617   -6.2746708     286.5469  0.034407649  0.034649985            5 
  695000   0.99683509   -6.2436968    286.27777  0.034325872  0.034627813            6 
  696000   0.98318648   -6.2625875     286.7841  0.034337176  0.034606137            4 
  697000   0.97063454   -6.2279916    287.76708  0.034405438  0.034584122            3 
  698000   0.96770247   -6.2629564    287.13322   0.03428047  0.034562431           14 
  699000    0.9802939   -6.1984532    287.99247  0.034333866    0.0345408            2 
  700000   0.98215732   -6.2545677    287.90146  0.034273984   0.03451894            4 
  701000   0.95716512   -6.2070957    289.52068  0.034417579    0.0344977            4 
  702000   0.98846121   -6.2624603    288.24233  0.034216801  0.034475804           10 
  703000   0.97598669   -6.2667625    289.31272  0.034295012  0.034453797            7 
  704000   0.97184915   -6.2858428    287.77028  0.034063717  0.034431705            3 
  705000   0.98710871   -6.2438691     289.4916  0.034218865  0.034409892            4 
  706000    1.0047491   -6.2191494     289.9476   0.03422422   0.03438859            4 
  707000   0.97592763   -6.2642193    290.34561  0.034222727  0.034367438            6 
  708000   0.99408018   -6.2651355    290.86276  0.034235259  0.034346242            3 
  709000   0.95620742   -6.2782273    289.89543  0.034073276  0.034324713            5 
  710000   0.96687547   -6.2703713    290.60448  0.034108507  0.034303149           10 
  711000   0.97152263   -6.2448361    291.86996  0.034208856  0.034281981            2 
  712000    0.9675555   -6.2619081    292.12343  0.034190476  0.034260457            4 
  713000   0.97365846   -6.3194202    290.61438   0.03396615   0.03423881            9 
  714000   0.95435668   -6.2653333    291.43494  0.034014348  0.034217139            4 
  715000   0.95110102   -6.2991588    291.22903  0.033942778  0.034195428            5 
  716000   0.98819955   -6.2779303    292.11824  0.033998864  0.034174341            6 
  717000   0.97799427   -6.2722741    292.75712    0.0340257  0.034153231            6 
  718000    0.9713966   -6.2696021    293.02559   0.03400947  0.034132105            4 
  719000   0.95823612   -6.2827371    292.34765  0.033883594  0.034110919            4 
  720000   0.98895672   -6.2993334    293.29993  0.033946751  0.034089389            6 
  721000   0.96753976   -6.2647538    294.19847  0.034003522  0.034068039            4 
  722000     0.974658   -6.2812437    293.71612  0.033900753  0.034047345            3 
  723000   0.95232223   -6.2669625    294.18116  0.033907464  0.034026529            3 
  724000   0.98204573   -6.2864146    294.27665  0.033871621   0.03400563            3 
  725000   0.95256931   -6.2786871    295.20063  0.033931107  0.033984719            4 
  726000   0.97033345   -6.2851338    295.82226  0.033955723  0.033963952            6 
  727000   0.97069405   -6.2663485    295.35845  0.033855852  0.033943529            5 
  728000   0.97669825   -6.2702801    295.27086   0.03379932  0.033922726            7 
  729000   0.95133031    -6.278244    295.82489  0.033816288  0.033901966            4 
  730000   0.97501183   -6.2918451    296.28577  0.033822576  0.033881265            5 
  731000    0.9820702   -6.3208055    296.10502  0.033755702  0.033860394            5 
  732000   0.97425997   -6.2767123    297.37532  0.033854203  0.033839803            2 
  733000   0.95749036   -6.2727893    297.54246  0.033827019  0.033819249            5 
  734000   0.95101899   -6.2752216    297.91179  0.033822864  0.033798524            5 
  735000   0.96098842   -6.2928121    297.20963  0.033697237  0.033777825            3 
  736000   0.95582573   -6.2681048    297.65467  0.033701843  0.033757252            4 
  737000   0.95191614   -6.2751112     298.2401  0.033722309  0.033737082            9 
  738000   0.95035641   -6.2929831    297.56916  0.033600853  0.033716427            4 
  739000   0.96269935   -6.2676951    298.18363  0.033624677  0.033695643            5 
  740000   0.96812907    -6.321062    298.14066  0.033574399  0.033674884           10 
  741000   0.94853824    -6.313175    298.48909  0.033568274  0.033653964            7 
  742000   0.95684313   -6.2770517    298.48274   0.03352232  0.033632674            4 
  743000   0.95258774   -6.2881243    298.41483  0.033469586  0.033611691            7 
  744000   0.96026961   -6.2830287    299.59092  0.033556331  0.033590824            6 
  745000   0.96862031   -6.2909153    300.04195  0.033561739  0.033569927            4 
  746000   0.96667453   -6.3230741    299.77916  0.033487395  0.033548578            3 
  747000   0.95103973   -6.3177362    299.39226  0.033399405  0.033527259            4 
  748000   0.95467965   -6.3020873    299.60148  0.033378062  0.033505991            4 
  749000   0.95106623    -6.305389    299.78428  0.033353836  0.033484564            4 
  750000   0.96891098   -6.2996105    299.47703  0.033275226  0.033463372            8 
  751000   0.95331805     -6.32913     300.1569  0.033306359  0.033442159            3 
  752000   0.94569767   -6.2619253    300.37702   0.03328646  0.033421251            3 
  753000   0.95811806   -6.2967425    300.27171    0.0332306  0.033400169            5 
  754000   0.93926682   -6.3025033     300.2961  0.033189224  0.033378443            6 
  755000   0.95039465    -6.315539    300.55781  0.033174151  0.033356889            3 
  756000   0.95431484   -6.3564717    300.22341  0.033093409  0.033335002            3 
  757000   0.94940451   -6.3447221    300.49656  0.033079762  0.033313261           10 
  758000   0.98126559   -6.3079178    301.96586  0.033197654  0.033291767            6 
  759000   0.95818666   -6.3160157    301.90667  0.033147417  0.033270689            5 
  760000   0.93279278   -6.3284746    302.24644  0.033141057  0.033249101            7 
  761000   0.95406112   -6.3058103    303.70403  0.033257121  0.033228162            5 
  762000   0.93733512   -6.3323621    302.42408    0.0330735  0.033207306            6 
  763000   0.93696299   -6.3012118    304.11785  0.033215143   0.03318693            4 
  764000   0.96955213   -6.3285422    304.18874    0.0331794  0.033166369            4 
  765000   0.93639318   -6.3353868    303.73124  0.033086191  0.033145559            6 
  766000   0.94286278   -6.2821538    305.56474  0.033242465  0.033125035            4 
  767000   0.95610126   -6.3158419    303.42647  0.032966804  0.033104436            4 
  768000    0.9296141   -6.3341525    302.99304  0.032876849  0.033083097            5 
  769000   0.94190386    -6.322561    304.28958  0.032974597  0.033061614            3 
  770000   0.95102044    -6.307688    303.55247  0.032851998  0.033040332            5 
  771000   0.94790077   -6.3254082    304.56132  0.032918431  0.033018666            6 
  772000   0.95054047   -6.3251628    304.23983  0.032841087  0.032997227            4 
  773000   0.92138437   -6.3323825    304.34192  0.032809607  0.032976168            4 
  774000   0.96425141   -6.3255898    305.58277  0.032900816  0.032954906           12 
  775000   0.95696809   -6.3294558    304.67429  0.032760677  0.032933718            5 
  776000   0.93713608   -6.2978346    305.30555  0.032786249  0.032912392            3 
  777000   0.95840529   -6.3174503     306.4251  0.032864125  0.032891643           13 
  778000   0.96514311   -6.3576705    305.13042  0.032683206  0.032870228            9 
  779000   0.92645828   -6.3385579    304.56564  0.032580835  0.032848654            5 
  780000   0.94517191   -6.3527464    305.80628  0.032671611  0.032827058            5 
  781000   0.96038673   -6.3685816    305.85842  0.032635341  0.032805512            4 
  782000   0.93650102   -6.3234743    306.78854  0.032692726  0.032784428            2 
  783000   0.93015157   -6.3062503    307.41402  0.032717542  0.032763057            3 
  784000   0.94884066   -6.3044117    307.08675  0.032641024  0.032741924            4 
  785000   0.93794953   -6.3480875    306.65131  0.032553218  0.032720479            6 
  786000   0.94859724   -6.3409562    308.17824  0.032673689  0.032699328           10 
  787000   0.91651637   -6.3435801    306.95716  0.032502876  0.032678349            4 
  788000   0.94611272   -6.3562555    307.27206   0.03249493  0.032657476            5 
  789000   0.94880547   -6.2870306     309.1531  0.032652419  0.032636653            4 
  790000    0.9560205   -6.3403394    308.73745  0.032567241  0.032616096            4 
  791000   0.93711326   -6.3637106    308.49069  0.032500072  0.032595356            7 
  792000   0.93184289   -6.3472895    309.14973   0.03252838  0.032574652           10 
  793000   0.94008748   -6.3592462    309.24985  0.032497882  0.032553995            4 
  794000   0.93672413   -6.3323327     310.4559  0.032583533  0.032533215            2 
  795000   0.93962704   -6.3200169    309.98557  0.032493247  0.032512691            4 
  796000   0.96092341   -6.3544897    310.25676  0.032480816  0.032492025            4 
  797000   0.93152208    -6.351851    309.60803  0.032372233   0.03247154            7 
  798000    0.9320259   -6.3571794    310.06481  0.032379366  0.032450919            4 
  799000   0.94125218   -6.3641576     310.4378  0.032377743  0.032430263            5 
  800000   0.91831147   -6.3387802     311.1308  0.032409458  0.032409666            3 
  801000   0.92608632   -6.3582862    311.10927  0.032366757  0.032388892            3 
  802000    0.9083532    -6.327227    311.23285  0.032339241  0.032368507            3 
  803000   0.91661556   -6.3551238    312.62284  0.032443218  0.032348366            3 
  804000   0.92251783   -6.3750656    311.82935  0.032320621  0.032327951            6 
  805000   0.94391131   -6.3420701    312.85075  0.032386206  0.032307768            2 
  806000   0.93618784   -6.3485908    312.37922  0.032297272  0.032287662            5 
  807000   0.94433599   -6.3460734     312.7295  0.032293422  0.032267379           15 
  808000   0.93729797   -6.3635173     312.2939  0.032208529  0.032247149            3 
  809000   0.91479598     -6.34433    313.19815  0.032261861  0.032226951            5 
  810000   0.90723682   -6.3516898    312.85714  0.032186949  0.032206852            3 
  811000    0.9271858   -6.4092266    312.59988  0.032120826  0.032186485            8 
  812000    0.9361023   -6.3593044    313.41504  0.032164926  0.032165454            4 
  813000   0.93263794   -6.3744304    313.12762  0.032095902  0.032144326            9 
  814000   0.93563466   -6.3791905    313.54227  0.032098922  0.032123524            6 
  815000   0.92966724   -6.3580415    314.00888  0.032107247  0.032102835            3 
  816000   0.90681182   -6.3506851    314.26301  0.032093853  0.032082122            2 
  817000   0.92210619   -6.3782164    314.04301  0.032032131   0.03206165           10 
  818000   0.92365939   -6.3599843    315.11433  0.032102112  0.032041329            4 
  819000   0.93122948    -6.373894     314.3256  0.031982661  0.032020825            3 
  820000   0.95692355   -6.3736153    313.72083  0.031882198  0.032000516            5 
  821000   0.93393583   -6.3808649    313.93904  0.031865513  0.031979934            5 
  822000   0.92232731   -6.3492548    315.07495  0.031941905  0.031959143            2 
  823000   0.92883784   -6.3947584    314.12082  0.031806482  0.031938492            5 
  824000   0.92062682   -6.3588389    315.53389   0.03191079  0.031917854            2 
  825000   0.92155199   -6.3548476    315.82499  0.031901514  0.031897421            2 
  826000   0.93542358   -6.3612411    317.15622  0.031997197  0.031877072            4 
  827000   0.93407118   -6.3426078    317.20509  0.031963431    0.0318572            9 
  828000   0.91716171   -6.3931395    315.97796  0.031801324  0.031836997            6 
  829000   0.93188154   -6.3784329    316.51856  0.031817306  0.031816877           10 
  830000    0.9242761   -6.3619208    317.59629  0.031887178  0.031796559            3 
  831000   0.91361199   -6.3750925    317.13495  0.031802542  0.031776252            3 
  832000   0.92660113   -6.3688162    316.56208  0.031706939  0.031755677            4 
  833000   0.90974778    -6.353546    318.09331  0.031822059  0.031735397            3 
  834000   0.92985374   -6.3969536    317.99805  0.031774385  0.031714835            7 
  835000   0.92537799    -6.366476    317.96585  0.031733118   0.03169455            8 
  836000   0.94016587   -6.3871226     317.2492  0.031623724  0.031674571            3 
  837000   0.91190236   -6.3881349    318.19621  0.031680228  0.031654169            8 
  838000   0.90916048   -6.4098532     317.8968  0.031612649  0.031633818            2 
  839000   0.91372057   -6.3644328    319.29111  0.031713459  0.031613611            7 
  840000   0.94472106   -6.3916894    319.56919  0.031703293  0.031593677            3 
  841000   0.93812999   -6.4054548    318.45705  0.031555395  0.031573626            7 
  842000   0.91978889   -6.4015946    318.88316  0.031560092  0.031553455            3 
  843000   0.91728224   -6.3903962    319.67817  0.031601242  0.031533235            5 
  844000   0.92498653   -6.3704496    320.87109  0.031681584  0.031513405            4 
  845000   0.90586117   -6.3986941    319.59055  0.031517806  0.031493586            6 
  846000   0.93232751   -6.3711928    321.03173   0.03162251  0.031474089            5 
  847000   0.93035271   -6.4181248    320.01613  0.031485254  0.031454409           13 
  848000   0.93262954   -6.3999305      321.184  0.031562893  0.031434471            7 
  849000   0.92081847   -6.4015292     320.8988  0.031497723  0.031414822            3 
  850000   0.90094935   -6.3721908    322.78214  0.031645308  0.031395442            5 
  851000   0.91164868   -6.4248525    321.64624   0.03149689  0.031376092            7 
  852000   0.91742151   -6.4003065    322.48876  0.031542328  0.031356807            4 
  853000   0.90266817   -6.3943212    322.39081   0.03149578  0.031337538            3 
  854000   0.91616365   -6.4169945    322.32595  0.031452572  0.031318563            7 
  855000   0.91563876   -6.4061622    323.12443  0.031493609  0.031299578            2 
  856000   0.91325209   -6.3993763    323.45988  0.031489474  0.031280671            4 
  857000   0.89555349   -6.4100245    323.38738  0.031445681  0.031261758            3 
  858000   0.91932093   -6.4138506    324.27353  0.031495098  0.031242662            5 
  859000    0.9277584   -6.3988737    324.57392  0.031487575  0.031223619            7 
  860000   0.90457913    -6.389674    324.97441  0.031489768  0.031204313            9 
  861000   0.90496042   -6.4066467    323.76345   0.03133599  0.031185063            6 
  862000   0.89744485   -6.4068024    324.57407  0.031378004   0.03116593           10 
  863000   0.89485238   -6.4166544    323.92387  0.031278859  0.031146679            7 
  864000    0.9019751   -6.4454876    323.78469  0.031229233  0.031127009            5 
  865000   0.90415243   -6.4017817    324.27392  0.031240262  0.031107323            6 
  866000   0.91510357   -6.4326778    324.19865  0.031196945   0.03108785            5 
  867000   0.91584478   -6.3916765    324.84022  0.031222628  0.031068774           11 
  868000   0.91363837   -6.4344759    325.42991  0.031243271  0.031049432            6 
  869000    0.8740352   -6.4418455    326.30856  0.031291576  0.031030072            6 
  870000   0.90472477   -6.4484294      324.449   0.03107749    0.0310107            4 
  871000   0.90383869   -6.4273812     325.5961   0.03115156  0.030991247            6 
  872000   0.93240291   -6.4199032    325.43922  0.031100842  0.030971822           11 
  873000   0.90348509   -6.4078657    326.75982  0.031191277   0.03095237            9 
  874000    0.8873142   -6.4421521    324.95146  0.030983167  0.030932929            8 
  875000   0.88738804   -6.4375077    326.21579  0.031068171  0.030913525            5 
  876000   0.91993766   -6.4502322    325.99336  0.031011545  0.030894354            3 
  877000   0.90866069   -6.3911099    326.69004  0.031042383  0.030874791            6 
  878000   0.90970218   -6.4441891    326.71121  0.031009037  0.030855437            8 
  879000   0.88684941   -6.4478003    326.94037  0.030995485  0.030836094            2 
  880000   0.92250634   -6.4079086    327.41412  0.031005125  0.030816394            4 
  881000   0.89018965   -6.4348878    327.40027  0.030968622   0.03079703            6 
  882000   0.89141826   -6.4234144     327.1121  0.030906283  0.030777519            9 
  883000   0.89307268   -6.4911439    327.01645  0.030862255  0.030757622            3 
  884000    0.9047372   -6.4295137    327.89312  0.030909985  0.030737662            7 
  885000   0.90047734   -6.4376046    328.15939  0.030900131  0.030717876           10 
  886000   0.88682543   -6.4530729    327.43945   0.03079754  0.030698272            9 
  887000   0.91903171    -6.416419    328.15949  0.030830466  0.030678746            4 
  888000   0.90041626   -6.4526605    327.56695  0.030740142  0.030659127            4 
  889000   0.89666321   -6.4415582    327.60386  0.030709023  0.030639249            3 
  890000    0.9055622    -6.447303    328.57851  0.030765778  0.030619519            5 
  891000   0.89618082   -6.4354797    328.18644  0.030694579  0.030599617            4 
  892000   0.89755111   -6.4566183    327.80691  0.030624711  0.030579849            8 
  893000   0.89721643   -6.4670395    328.15826  0.030623204  0.030560059            5 
  894000   0.88547613   -6.4515239    328.47539  0.030618511  0.030540061            7 
  895000   0.88924717   -6.4438405    329.81097  0.030708657  0.030520195            5 
  896000   0.90346346   -6.4309516    329.83423  0.030676547  0.030500545            4 
  897000   0.89605035   -6.4599871    328.69629  0.030536631   0.03048085            6 
  898000   0.90441555   -6.4607233    329.95659   0.03061958  0.030461115           10 
  899000   0.89891045   -6.4144736    330.40021  0.030626642  0.030441412            5 
  900000   0.88319128   -6.4378231    329.13493  0.030475456  0.030421838            5 
  901000   0.91291025   -6.4476083    329.85158  0.030507915   0.03040227            3 
  902000   0.88482503   -6.4416693    329.85999  0.030474869   0.03038256            4 
  903000    0.8993395   -6.4172569    330.68755  0.030517493  0.030362825            3 
  904000     0.906235   -6.4888557    329.30478  0.030356267  0.030343033            8 
  905000    0.8875806   -6.4467373    330.56211    0.0304385  0.030323238           11 
  906000   0.90103047   -6.4637293    330.33737  0.030384232  0.030303548            5 
  907000   0.88985893   -6.4657744    329.81712  0.030302933  0.030283837            4 
  908000   0.89050517   -6.4583286    330.92838  0.030371548  0.030263849            4 
  909000   0.89415071   -6.4596403    330.37883  0.030287755  0.030243977            2 
  910000    0.8751807   -6.4931543    329.48433  0.030172557  0.030223646           11 
  911000   0.87425925   -6.4455351    330.93151  0.030271818  0.030203274           10 
  912000   0.89199007    -6.480252    329.65587  0.030122064  0.030183022            7 
  913000    0.8916832   -6.4844501    331.20153   0.03023015  0.030162528            7 
  914000   0.89254102   -6.4825048    331.21043  0.030197887  0.030142222            7 
  915000   0.89186822   -6.4765172    331.21237  0.030165061  0.030121773            5 
  916000   0.88310618   -6.4654468    331.08938  0.030120941  0.030101292            5 
  917000   0.89735305   -6.4521234    332.16163  0.030185535  0.030081175            6 
  918000   0.89505655   -6.4779095    331.33625  0.030077728  0.030060864            6 
  919000   0.88349377   -6.4237072    333.90394  0.030277833   0.03004123            3 
  920000   0.87933094     -6.46112    331.94484  0.030067468  0.030021627            4 
  921000   0.85807724   -6.4636567    332.64354   0.03009804  0.030001638            9 
  922000   0.89352744   -6.4613363    332.90927  0.030089414  0.029981686            6 
  923000   0.89386492   -6.4682268    332.54562  0.030023982  0.029961626            3 
  924000    0.8747533   -6.4789105    332.73477  0.030008547  0.029941558            6 
  925000   0.89736096   -6.4462575    333.49157  0.030044286  0.029921665            3 
  926000   0.89071228   -6.4989195     332.7058  0.029941126  0.029901642           12 
  927000   0.87277982   -6.4885942    332.70267  0.029908546    0.0298815            5 
  928000   0.88105656   -6.4707206    334.07505  0.029999555  0.029861264           13 
  929000   0.87638489   -6.5011428    332.25082  0.029803626  0.029841191            5 
  930000    0.8656132   -6.5000827     332.7379  0.029815224  0.029820896            6 
  931000   0.88683181   -6.4897003    333.26071  0.029829995  0.029800486           10 
  932000   0.89033647   -6.5245814    333.99441  0.029863591  0.029780155            4 
  933000   0.87641206   -6.4862413    333.29366  0.029768994  0.029760199            6 
  934000    0.8738083   -6.4702463    333.64281  0.029768274  0.029740072            4 
  935000   0.88389286   -6.5002028    333.70591   0.02974206  0.029720145            8 
  936000   0.87867772   -6.5078574    334.32741  0.029765617  0.029700185           12 
  937000   0.86970125   -6.4994731    333.85488  0.029691825  0.029679896            4 
  938000   0.89292655   -6.4912373    335.26894  0.029785798  0.029659747           11 
  939000   0.90542055   -6.5553697    333.01436   0.02955399  0.029639421            9 
  940000   0.90915797   -6.4989353    335.34375  0.029729055  0.029619098           13 
  941000   0.87644296    -6.507225    334.82899  0.029651877    0.0295988            4 
  942000   0.86992879   -6.5272988    333.62206  0.029513629  0.029578344            7 
  943000   0.89175379   -6.5048336    334.29546   0.02954184  0.029557843            5 
  944000   0.85754805   -6.5087147    335.74234  0.029638271  0.029537303            4 
  945000   0.85365479   -6.4812658    335.78101  0.029610319  0.029517246            5 
  946000   0.89534304   -6.5020592    335.06694  0.029516115  0.029497284           13 
  947000   0.89200569   -6.4899835    336.23051  0.029587338  0.029477257           10 
  948000   0.88414002   -6.5109187    335.58706  0.029499566  0.029457239            4 
  949000   0.86409212   -6.5173327    336.68134  0.029564571  0.029437073            7 
  950000   0.88333291   -6.4990655     335.0574     0.029391  0.029416724            5 
  951000   0.88214001   -6.5331385    336.20758  0.029460882  0.029396568           10 
  952000   0.84842865   -6.4965781    337.09776  0.029507857  0.029376575            7 
  953000   0.88747325   -6.4961047    336.89191  0.029458894  0.029356516            8 
  954000    0.8791303   -6.5251998    337.01198  0.029438503  0.029336637            5 
  955000   0.87816375   -6.4321573    338.15144  0.029507106  0.029317091            6 
  956000   0.86079669   -6.5010543    337.41778  0.029412289  0.029297524            5 
  957000   0.87177236   -6.5085048    337.25871  0.029367703  0.029277667            7 
  958000   0.89837998   -6.5155733    337.18912  0.029330995  0.029257782            8 
  959000   0.87104977   -6.5155331    337.40077  0.029318802  0.029237962            4 
  960000   0.86532384   -6.4701708    338.38837   0.02937399  0.029218423            6 
  961000   0.85288594   -6.5050376    339.06319  0.029401942  0.029198788            8 
  962000   0.87722912   -6.5081597    338.77386  0.029346315   0.02917919            4 
  963000   0.86811185   -6.5163132    337.84453  0.029235421  0.029159586           10 
  964000   0.86392764   -6.5344948    338.14127  0.029230746  0.029139913            9 
  965000   0.89015004     -6.53069    338.48462  0.029230106  0.029120145            6 
  966000   0.87372557   -6.5424113    338.03519  0.029161075   0.02910053            9 
  967000    0.8769198   -6.5365733    338.45193  0.029166833  0.029080817            5 
  968000   0.88098346   -6.5257994       338.77  0.029164084  0.029061148            8 
  969000   0.87836551   -6.5188116    339.93365   0.02923406  0.029041611            8 
  970000   0.86872222   -6.5233651     339.6457  0.029179184  0.029022294            6 
  971000   0.87992161    -6.524824    340.33906  0.029208639  0.029002868            7 
  972000   0.85320871   -6.5079777    340.42136  0.029185644  0.028983587            5 
  973000   0.86225784   -6.5189232    340.59129  0.029170203  0.028964398            5 
  974000   0.86992571   -6.5169774    340.08771  0.029097169   0.02894483           12 
  975000    0.8759322   -6.5125397    340.50245  0.029102774   0.02892523           11 
  976000   0.84747763   -6.5383699    339.85532  0.029017702  0.028905778            7 
  977000   0.85657779   -6.5418209    340.87772  0.029075207  0.028886381            7 
  978000   0.87354328   -6.5123819    340.39123  0.029004025  0.028867085            4 
  979000   0.86111764   -6.5254632    340.84424  0.029012959  0.028847624            7 
  980000   0.88147784   -6.5025558    340.47376  0.028951851  0.028828386           13 
  981000   0.87033537   -6.5267403    340.43705  0.028919219  0.028809066            5 
  982000   0.86610163   -6.5570731    340.42691   0.02888891  0.028789654           18 
  983000   0.85058312   -6.5488032    341.88744  0.028983337  0.028769961            5 
  984000   0.87485029   -6.5346582    341.59224  0.028928882   0.02875075            6 
  985000   0.85526926   -6.5473533     341.7234  0.028910609  0.028731356            5 
  986000   0.86695817   -6.5517401    340.76163  0.028800003  0.028711908           15 
  987000   0.87315187   -6.5436526    341.57033  0.028839102  0.028692437            4 
  988000    0.8432939   -6.5234291    342.41665  0.028881296  0.028673016            6 
  989000   0.84434799   -6.5729612    342.13202  0.028828111  0.028653542            6 
  990000   0.86090377    -6.535181    341.91864  0.028781031   0.02863379            5 
  991000   0.86245471   -6.5552768    342.08608  0.028766068  0.028614419            7 
  992000    0.8746241   -6.5721912    341.65986  0.028701266  0.028594747           10 
  993000   0.84639815   -6.5653294    341.10199  0.028625545  0.028575071            5 
  994000   0.86525171   -6.5637667    342.25584  0.028693481  0.028555302            4 
  995000   0.85707497   -6.5551931    342.88608  0.028717427  0.028535659            5 
  996000   0.86117065   -6.5640738    342.29189   0.02863888  0.028516073            5 
  997000   0.84626713   -6.5677886     343.0257  0.028671489  0.028496417            4 
  998000   0.86601987   -6.5557121      343.356  0.028670341  0.028476805            5 
  999000   0.84830125   -6.5461582    343.14108  0.028623714  0.028457264            8 
 1000000    0.8509094   -6.5973021    342.03111  0.028502592  0.028437423            6 
 1001000   0.85979761   -6.5492319    343.30772  0.028580397  0.028417737            5 
 1002000    0.8416862   -6.5618782    344.03327  0.028612215  0.028398226            7 
 1003000   0.83513463    -6.566475    343.67319  0.028553771  0.028378825            8 
 1004000   0.86469918    -6.580407    343.07126   0.02847537   0.02835937            4 
 1005000   0.85692183   -6.5681339    343.24818  0.028461707  0.028339797            9 
 1006000   0.84706927   -6.5927197    343.41387   0.02844714  0.028320264            6 
 1007000   0.86390342   -6.5827584    343.85726  0.028455583  0.028300669           11 
 1008000   0.86416234   -6.5704037     343.8039  0.028422942  0.028281022            8 
 1009000   0.84025476   -6.5663138    344.11675   0.02842061  0.028261491            7 
 1010000    0.8498737   -6.5823495    344.89377  0.028456582  0.028242067            8 
 1011000   0.84221367   -6.5363486      344.546   0.02839977  0.028222583            9 
 1012000   0.86008207   -6.5892128    343.91443    0.0283197  0.028203156            8 
 1013000    0.8474024   -6.6006566     344.6684  0.028353768  0.028183588            5 
 1014000   0.84034098   -6.5380757    346.02742  0.028437493  0.028164018           15 
 1015000    0.8553053   -6.5818113    344.13047  0.028253733  0.028144627            6 
 1016000   0.83672714   -6.5883498    343.92568  0.028209128  0.028125272           14 
 1017000   0.84135966   -6.5829799    344.44577  0.028224006  0.028105815            6 
 1018000   0.85053541   -6.5772964    344.27193  0.028182051  0.028086337            6 
 1019000   0.87366795   -6.6086276    344.25548  0.028153049   0.02806671           11 
 1020000   0.82373245    -6.607078    344.79966  0.028169907  0.028047041            8 
 1021000   0.83210763   -6.5756161     344.3021  0.028101706  0.028027129            6 
 1022000   0.84246653    -6.595266    344.31856  0.028075551  0.028007294            4 
 1023000    0.8286027    -6.576437     344.1701  0.028036013   0.02798732            6 
 1024000   0.83140093   -6.5832088    345.21459  0.028093636  0.027967473            7 
 1025000   0.83028381   -6.5598576    345.35181  0.028077383  0.027947889            9 
 1026000   0.84513009   -6.5589357    345.97076  0.028100289  0.027928297            5 
 1027000   0.81454048   -6.5864485    345.37946  0.028024948  0.027908511            8 
 1028000   0.83959916   -6.5894955    345.67982  0.028022034  0.027888669            8 
 1029000   0.84361734   -6.5571751    345.89497  0.028012226  0.027868942            5 
 1030000   0.83563646   -6.6224577    344.57819  0.027878495    0.0278491            5 
 1031000   0.82713484   -6.5923077    346.11342  0.027975543  0.027829218            5 
 1032000      0.85597   -6.5966995     344.7901  0.027841577  0.027809451            8 
 1033000   0.83514967   -6.6039542    345.77239  0.027893869   0.02778946            4 
 1034000   0.84237389    -6.588244     345.8786  0.027875451  0.027769785            7 
 1035000    0.8628441   -6.5971485    345.04916  0.027781736   0.02774994            7 
 1036000   0.83376826    -6.623755    345.43397  0.027785873  0.027730022            5 
 1037000   0.84059278   -6.5781087    346.55836  0.027849435   0.02771024            4 
 1038000   0.84746901   -6.6260508    345.67298  0.027751524  0.027690391            9 
 1039000   0.84384997   -6.5885205    347.01031  0.027832075  0.027670734            7 
 1040000    0.8422616    -6.573736    346.96308  0.027801529  0.027651298            8 
 1041000   0.84515737   -6.5974629    346.65506  0.027750165   0.02763193            4 
 1042000   0.83407485   -6.5712312    347.53416  0.027793838  0.027612636            6 
 1043000    0.8562991   -6.5798884    347.87085  0.027794091  0.027593268           10 
 1044000   0.84163679   -6.5918105     347.9221   0.02777156  0.027573909            7 
 1045000   0.83506789   -6.5979548    348.56033   0.02779588  0.027554435           11 
 1046000   0.84190822   -6.6003767    347.76355  0.027705828  0.027535081            7 
 1047000   0.85566602   -6.6430869    347.35276   0.02764667   0.02751553            6 
 1048000   0.82958671   -6.6177119    346.11232  0.027521654  0.027495931            8 
 1049000   0.84034309   -6.6388102    348.18891  0.027660383  0.027476424            4 
 1050000   0.85202174   -6.6331417    348.00413  0.027619376  0.027456889           14 
 1051000   0.83389609   -6.6360757    348.22386  0.027610518  0.027437419            6 
 1052000   0.84355538   -6.6312247    348.80835  0.027630572  0.027418022            7 
 1053000   0.81285848   -6.6355743    348.49382  0.027579441    0.0273987            8 
 1054000   0.83195833   -6.6180143    349.68865  0.027647742  0.027379456            7 
 1055000   0.83034381   -6.6270407    349.82908  0.027632629  0.027360131           23 
 1056000   0.83895319   -6.6153242     349.3964  0.027572317  0.027340776            5 
 1057000   0.82017687   -6.6730641    348.16782  0.027449371  0.027321427            3 
 1058000   0.85079236   -6.6036844    349.71329  0.027545155  0.027302113           15 
 1059000    0.8360504   -6.6376491    347.99212  0.027383705  0.027282873            4 
 1060000   0.82270111   -6.6151113    349.46745  0.027473856  0.027263534            7 
 1061000   0.84964378   -6.6272798    349.69636  0.027465941  0.027244479           13 
 1062000   0.83039398   -6.6371193     349.6905  0.027439618  0.027225132            9 
 1063000   0.84482944   -6.6552095     349.7102  0.027415349  0.027205888            6 
 1064000   0.83219661   -6.6207162    350.34695  0.027439454  0.027186552            3 
 1065000   0.83917239    -6.654181    350.39421  0.027417387  0.027167286            4 
 1066000   0.81961376   -6.6029583    349.64967  0.027333464  0.027148021           16 
 1067000   0.81866032   -6.6457205     349.8321  0.027322095  0.027128678            8 
 1068000   0.82025935    -6.625968    349.42336  0.027264619  0.027109311            6 
 1069000   0.82691167    -6.595004    351.82047   0.02742598  0.027090271            8 
 1070000   0.81122509   -6.5990374    351.55234  0.027379466  0.027071471            4 
 1071000   0.83387484   -6.6552213    350.29471  0.027256046  0.027052553            6 
 1072000   0.82209526   -6.6288185    351.28805   0.02730784  0.027033663           10 
 1073000   0.82319671   -6.6531903    350.47808  0.027219485  0.027014692            4 
 1074000   0.82176528   -6.6465608    351.50543  0.027273854    0.0269959            7 
 1075000   0.81679871   -6.6489287    351.33781  0.027235489  0.026977159            9 
 1076000   0.81758593   -6.6517994    351.67739  0.027236477  0.026958234            5 
 1077000   0.81535327   -6.6519651    351.57688  0.027203411  0.026939369           18 
 1078000   0.83231062   -6.6725338    351.46477  0.027169509  0.026920442           10 
 1079000   0.81456925   -6.6429008    352.25377  0.027205265  0.026901437            6 
 1080000   0.82935724   -6.6518104    351.76663  0.027142487  0.026882577            5 
 1081000   0.81221074   -6.6444432    352.37234  0.027164072  0.026863645            6 
 1082000   0.82615278   -6.6449661    352.47708  0.027147033  0.026844738            9 
 1083000    0.8321569   -6.6516972    352.10472  0.027093315  0.026826166           12 
 1084000   0.82023086   -6.6365346    351.79357  0.027044401  0.026807245            8 
 1085000    0.8307551   -6.6573926    351.75803  0.027016746  0.026788242            7 
 1086000   0.81642783   -6.6733133    352.14366  0.027021459   0.02676926            7 
 1087000   0.81312752   -6.6670945    351.73254  0.026965082  0.026750297            6 
 1088000   0.81238917   -6.6580672     352.4103   0.02699221  0.026731152            4 
 1089000   0.82939722   -6.6569645    353.02381  0.027014372  0.026712222           23 
 1090000    0.8202932   -6.6560986    352.83644  0.026975263  0.026693159           29 
 1091000   0.82943389   -6.6474479    352.80244  0.026947941  0.026674083            8 
 1092000   0.81431016   -6.6428904    352.70924  0.026916151  0.026655116           14 
 1093000   0.83346614   -6.6785558    352.35379  0.026864424   0.02663603           13 
 1094000   0.81699705   -6.6509534    353.12809  0.026898849   0.02661711            9 
 1095000   0.80368739   -6.6860044    352.16053  0.026800649  0.026597958           10 
 1096000   0.83164753   -6.6502753    352.45504  0.026798589  0.026578969           14 
 1097000   0.82248302   -6.6587243     353.6168  0.026862413  0.026559931           14 
 1098000   0.82714284   -6.6461914    353.64878  0.026840375  0.026541019            4 
 1099000   0.81156939   -6.6767537    352.63471  0.026739059  0.026521996            9 
 1100000   0.80900636    -6.708911    353.06147  0.026747081  0.026502852            8 
 1101000   0.81249187   -6.6660473    353.80067  0.026778737  0.026483741            8 
 1102000   0.80072862   -6.6562935    353.81705  0.026755676  0.026464697            7 
 1103000   0.80218928   -6.6939392    353.29959  0.026692323  0.026445581            5 
 1104000   0.81073068   -6.6771506    352.73808  0.026625761  0.026426566            6 
 1105000   0.82126253   -6.6760679    353.47053  0.026656903  0.026407596           13 
 1106000   0.81730177   -6.6714642    354.35393  0.026699362  0.026388669            7 
 1107000   0.82615399   -6.6625216    353.51407   0.02661202  0.026369847            6 
 1108000   0.81301826   -6.6770195    353.58482  0.026593323  0.026350918            9 
 1109000   0.83077816   -6.6544612    354.03171  0.026602923  0.026331971           11 
 1110000    0.8126319   -6.6520743     353.8805  0.026567605  0.026312995           10 
 1111000   0.80285344   -6.6317884    354.07789  0.026558497  0.026294195            4 
 1112000   0.80420998     -6.66259    353.96582  0.026526215  0.026275346           15 
 1113000   0.81340474   -6.6938668    353.75119  0.026486312  0.026256417           13 
 1114000   0.79183276   -6.6430789    354.98463  0.026554805    0.0262375            4 
 1115000   0.80118762   -6.6628087    354.76712  0.026514732  0.026218624           10 
 1116000   0.82594336   -6.6618667    355.47494  0.026543827  0.026199846           12 
 1117000   0.82734169    -6.726811    353.58151  0.026378806   0.02618081           12 
 1118000   0.80321393   -6.6866563      354.936  0.026456172  0.026161692            8 
 1119000   0.79655126   -6.6956933    354.01672  0.026364069  0.026142606            7 
 1120000   0.80606231   -6.7218325    353.54869  0.026305706  0.026123683            6 
 1121000   0.80090325   -6.6958817    353.99228  0.026315216  0.026104704            7 
 1122000   0.81298503   -6.7193892    354.62308  0.026338612  0.026085702            6 
 1123000   0.79832203   -6.7289927    354.25633  0.026287944  0.026066844           10 
 1124000    0.8058112   -6.7312127    354.45799  0.026279507  0.026047771            8 
 1125000   0.79552352   -6.7588213    353.80452  0.026207742  0.026028712            9 
 1126000   0.79263633   -6.7292841    354.52146  0.026237527  0.026009709           10 
 1127000    0.8111728   -6.7286032    353.82956  0.026163085  0.025990726            6 
 1128000   0.80464258   -6.7248659    355.34029  0.026251499  0.025971919           11 
 1129000   0.80730583   -6.7081231     355.1798  0.026216401   0.02595303            8 
 1130000   0.79230982    -6.728305    355.33777  0.026204851  0.025934065            6 
 1131000   0.79325026   -6.7318102    354.77625  0.026140307  0.025915096            6 
 1132000   0.81075899   -6.7137281    355.57202  0.026175796  0.025896033            6 
 1133000   0.79182861   -6.7045536    355.83386  0.026171952  0.025877118            3 
 1134000   0.78263498   -6.7267542     354.7179  0.026066865  0.025858157           11 
 1135000    0.8005702   -6.7031943    355.49264  0.026100781  0.025839284            5 
 1136000   0.79545724   -6.7371643    354.65157  0.026016107  0.025820196           10 
 1137000   0.80969896    -6.710631    356.02992  0.026094248   0.02580119            6 
 1138000   0.80026994   -6.7221383    354.99316  0.025995398  0.025782176           15 
 1139000   0.80873326   -6.7118755    354.97072  0.025970933  0.025763074            9 
 1140000   0.77905452   -6.7011413    356.82293  0.026083548  0.025744143            8 
 1141000   0.79749076   -6.7175159    356.37297  0.026027824  0.025725557            5 
 1142000   0.78763754   -6.7245213    355.94245  0.025973617  0.025706707            6 
 1143000   0.79892974    -6.736396    356.50099  0.025991615    0.0256878            8 
 1144000   0.78921797   -6.7054529    355.60237  0.025903436  0.025668914            9 
 1145000   0.80233934   -6.7363374    356.68456  0.025959575  0.025649952           14 
 1146000   0.82565422   -6.7179414    356.60421   0.02593108   0.02563108            9 
 1147000   0.79157193   -6.7157221    356.52764  0.025902909   0.02561216           12 
 1148000   0.80928831    -6.724963      356.997  0.025914416  0.025593337           12 
 1149000   0.79461563   -6.6948441    357.75415  0.025946776  0.025574526            3 
 1150000   0.79794429   -6.7274352    356.02493  0.025798908  0.025555745           13 
 1151000   0.78510247   -6.7065053    356.92806  0.025841881  0.025536735           10 
 1152000   0.80587818   -6.7303923    356.30404  0.025774309   0.02551793           15 
 1153000   0.78548723   -6.6895956    357.43846  0.025833945  0.025499153            7 
 1154000   0.79587584   -6.7110495    357.05459  0.025783838  0.025480389            5 
 1155000   0.78654911   -6.7421123    356.70184  0.025736064  0.025461694            8 
 1156000   0.77734833   -6.7230558    357.55171  0.025775065   0.02544297            5 
 1157000   0.79747667   -6.7452537    357.67638  0.025761768  0.025424182            5 
 1158000   0.80393141   -6.7318408    357.49376  0.025726379  0.025405454           18 
 1159000   0.79217167   -6.7449777    357.51379  0.025705622  0.025386721            8 
 1160000   0.79848868   -6.7073236    358.13594  0.025728157  0.025368164           10 
 1161000   0.77967721    -6.742797    357.73947  0.025677539  0.025349659            9 
 1162000   0.79273986   -6.7290319    357.43773  0.025633801  0.025331046            8 
 1163000   0.80890728   -6.7385406    357.02136  0.025581926  0.025312489            6 
 1164000   0.78826187   -6.6921411    358.54533  0.025669053  0.025294067           14 
 1165000   0.79245904   -6.7451093    358.46606  0.025641349  0.025275618           19 
 1166000   0.78264486   -6.7461546    358.39828  0.025614514   0.02525712            5 
 1167000   0.75844998   -6.7283993    358.93356  0.025630789  0.025238741            9 
 1168000   0.80155485   -6.7365451    358.09515  0.025549026  0.025220272           14 
 1169000    0.7761753   -6.7680291    357.40785  0.025478176  0.025201761            6 
 1170000   0.78232814   -6.7643361    357.77454  0.025482517  0.025183212            8 
 1171000   0.78733959   -6.7459998    358.73041  0.025528779  0.025164846           10 
 1172000   0.78359773   -6.7420957    358.91368  0.025520029  0.025146438            7 
 1173000   0.79380534   -6.7363761    358.95406  0.025501141  0.025128063            7 
 1174000    0.7739297   -6.7126746    359.65493  0.025529169  0.025109637           11 
 1175000   0.78970494   -6.7476557    358.43397  0.025420849  0.025091282           18 
 1176000   0.79177823    -6.764244    358.91088  0.025433027  0.025072863           12 
 1177000   0.77484545    -6.749602    358.20391  0.025361364  0.025054482           11 
 1178000   0.77560016   -6.7705125    359.67175  0.025443672  0.025036104           11 
 1179000   0.78749354   -6.7661056    359.47599  0.025408255  0.025017758           10 
 1180000   0.78334198   -6.7972523    358.92917  0.025348105  0.024999368           11 
 1181000   0.79157339   -6.7952063    358.61727  0.025304634  0.024980944           12 
 1182000   0.76878238   -6.7744704    358.40229  0.025268069   0.02496232            9 
 1183000   0.77540441   -6.7720043    358.72531  0.025269464  0.024943819            8 
 1184000   0.77469386   -6.7807928    358.51205  0.025233111  0.024925406            6 
 1185000    0.7618957   -6.7695471    360.13785   0.02532615  0.024907054            7 
 1186000    0.7717034   -6.7528835    359.76529  0.025278618  0.024888662            5 
 1187000   0.79087205   -6.7422556    360.26976  0.025292738  0.024870263           11 
 1188000   0.76963193   -6.7612409    359.45239  0.025214113  0.024851971            3 
 1189000   0.77894702   -6.7836252     359.2506  0.025178764  0.024833483            7 
 1190000   0.77431407      -6.7468    359.32495  0.025162812   0.02481486           12 
 1191000   0.76336063    -6.766765    359.53622  0.025156466  0.024796399            7 
 1192000   0.78120209     -6.75121    359.71058  0.025147551  0.024778091           11 
 1193000   0.77354664   -6.7762798    358.56248  0.025046276  0.024759763            8 
 1194000   0.77211491   -6.7692889    359.87248  0.025116728  0.024741355           21 
 1195000    0.7632024   -6.7814452     359.5142  0.025070725     0.024723            8 
 1196000   0.77283199   -6.7863063    359.84293  0.025072668  0.024704608           11 
 1197000   0.76871578   -6.7404375    360.02702  0.025064538  0.024686327           13 
 1198000   0.77357843    -6.786797     360.4035  0.025069804  0.024668119           12 
 1199000   0.78712398   -6.7675495    361.46794  0.025122876  0.024649975            6 
 1200000   0.76913297   -6.7826433    359.93906  0.024995768  0.024631827           12 
 1201000   0.77334858   -6.7864146    361.15589  0.025059387  0.024613564           15 
 1202000    0.7560451   -6.7918165    360.76401  0.025011371  0.024595387            6 
 1203000   0.76138511   -6.7511171    361.18008  0.025019402  0.024577264           15 
 1204000   0.78400591   -6.8128883    359.89673  0.024909796  0.024559148            6 
 1205000   0.77820807   -6.7898422    361.01905   0.02496674  0.024540925           33 
 1206000   0.76860868    -6.781581    360.66662  0.024921685  0.024522706           12 
 1207000   0.77593697   -6.7786016    360.86267  0.024914572  0.024504494           14 
 1208000    0.7694938   -6.7760043    361.15826  0.024914339  0.024486305           11 
 1209000   0.77981986   -6.8221257    360.12373  0.024822424  0.024467972           24 
 1210000   0.78541425   -6.7769843    361.21416  0.024877008  0.024449661           17 
 1211000   0.75040674    -6.770075    361.59528  0.024882692  0.024431532           11 
 1212000   0.79275004   -6.7864934    361.24813  0.024838293  0.024413312            6 
 1213000   0.76840167    -6.807131    360.80707  0.024787515  0.024395001            8 
 1214000   0.76617388   -6.7679686    361.02739  0.024782221  0.024376709            8 
 1215000   0.75981886   -6.7831997    361.42978  0.024789422  0.024358586           13 
 1216000   0.77890487    -6.799066    360.55833  0.024709315  0.024340432           16 
 1217000   0.75220332   -6.8286373    360.19392  0.024664059  0.024322175           11 
 1218000    0.7571029   -6.8030175    360.60653   0.02467204  0.024303839            9 
 1219000   0.78519196   -6.8135387    361.30464  0.024699524  0.024285489           11 
 1220000    0.7657794   -6.7957401     360.7956  0.024644508  0.024267103           12 
 1221000   0.75687107   -6.7862111    359.91075  0.024563933  0.024248738           13 
 1222000   0.74792379   -6.8102237    360.21441   0.02456454  0.024230371           24 
 1223000   0.76683488   -6.7946809    361.00906  0.024598601  0.024212132           14 
 1224000     0.772392   -6.7852451    360.64375  0.024553632  0.024194025            6 
 1225000   0.75920273   -6.8041618    361.12893  0.024566594  0.024175891            8 
 1226000   0.77707114    -6.808924    361.34984  0.024561571   0.02415767            7 
 1227000   0.75230503   -6.8146352    361.09444  0.024524208  0.024139312            7 
 1228000    0.7537409   -6.8505136    359.54787  0.024399286  0.024120823            8 
 1229000     0.764115   -6.8008955       360.47  0.024441958  0.024102322           18 
 1230000   0.75790117   -6.8013862     361.3334  0.024480583  0.024083984            7 
 1231000     0.762846   -6.8030077    360.45986  0.024401561  0.024065574           16 
 1232000   0.77475715   -6.8400359    361.28526  0.024437586   0.02404721            9 
 1233000   0.77881749   -6.8173541    360.55079  0.024368126  0.024028861            6 
 1234000   0.77358058   -6.8070561    360.79873  0.024365122  0.024010643           12 
 1235000   0.76815367   -6.8157991    360.66186  0.024336158  0.023992468           16 
 1236000   0.75188983   -6.8160675    361.30909  0.024360106  0.023974284            6 
 1237000   0.76835104   -6.7857687    362.27389  0.024405409  0.023956138           13 
 1238000   0.75725016    -6.840689    361.13204  0.024308834  0.023937928           15 
 1239000   0.75433791   -6.8116402     362.1975  0.024360876  0.023919791            7 
 1240000   0.74616606   -6.8182109    361.25134  0.024277644  0.023901571           10 
 1241000   0.75637982   -6.8334444    360.94625  0.024237594  0.023883339            7 
 1242000   0.76837124   -6.8220389    361.26461   0.02423944  0.023865168            7 
 1243000    0.7660813   -6.8109649    361.85637  0.024259611  0.023846974            8 
 1244000   0.74100394   -6.8403573    361.46559  0.024213933  0.023828736           13 
 1245000   0.75448182   -6.8340242    361.30126  0.024183485  0.023810517           20 
 1246000   0.76723974   -6.8251347     361.8168  0.024198555  0.023792235           15 
 1247000   0.75808205   -6.8199027    362.27204  0.024209572  0.023774037           20 
 1248000   0.74853288   -6.8600892    361.80097  0.024158719  0.023755866           30 
 1249000   0.75037473   -6.8456611    362.21099  0.024166733  0.023737692           15 
 1250000    0.7668658   -6.8251653    361.35618  0.024090412   0.02371941           10 
 1251000   0.77520722   -6.8141141    362.17612  0.024125774  0.023701303           13 
 1252000    0.7704404   -6.8487133    362.02715  0.024096589  0.023683228            6 
 1253000   0.75118175   -6.8159681    361.77198  0.024060387  0.023665175           11 
 1254000   0.75154736   -6.8198276    362.39951  0.024082902  0.023647147           11 
 1255000   0.74550541   -6.8371234    362.08601  0.024042895  0.023629171            6 
 1256000   0.75589313   -6.8616198    362.20136  0.024031406  0.023611127            8 
 1257000   0.75682133   -6.8761392    361.83147  0.023987766  0.023593077           15 
 1258000   0.76138796   -6.8680296    361.53391  0.023948987  0.023574911           13 
 1259000    0.7526981    -6.882316    361.75014  0.023944277  0.023556801            8 
 1260000   0.75894955   -6.8828709     360.9356  0.023871402  0.023538655            8 
 1261000   0.75654461   -6.8428643    361.37656  0.023881613  0.023520513           14 
 1262000   0.74340054    -6.869413    361.62926  0.023879376  0.023502451           14 
 1263000   0.74945335   -6.7929529    363.23795  0.023966611  0.023484473           12 
 1264000   0.73982449   -6.8409579     362.6258  0.023907291  0.023466488           14 
 1265000   0.74957847   -6.8636946    361.83183  0.023836089  0.023448487           17 
 1266000   0.73501673   -6.8631565    362.00444  0.023828623   0.02343045            5 
 1267000   0.77133122   -6.8444579    362.41281  0.023836675  0.023412504           12 
 1268000   0.74884251   -6.8433371    362.74946  0.023840001  0.023394538           34 
 1269000   0.74293346   -6.8572319    361.77385  0.023757148  0.023376562           20 
 1270000   0.75013719   -6.8494348      362.958  0.023816142  0.023358697           13 
 1271000   0.75072193   -6.8680247    361.65594  0.023712034  0.023340713           10 
 1272000   0.74285674   -6.8683482    361.90079  0.023709434  0.023322717           17 
 1273000   0.74477801   -6.8589672    362.42515  0.023725134  0.023304785           16 
 1274000   0.74634995   -6.8493414    363.14862  0.023753834  0.023286904            9 
 1275000    0.7500042    -6.827043    363.63755   0.02376716  0.023269029           10 
 1276000   0.74885427   -6.8587261    362.89359  0.023699947  0.023251258           12 
 1277000   0.74417642     -6.85418    363.35145  0.023711266  0.023233409           26 
 1278000   0.75585751   -6.8567772    363.26058  0.023686788  0.023215525           10 
 1279000   0.74618807   -6.8550518    362.38975  0.023611529   0.02319769           20 
 1280000   0.73600475   -6.8755363    362.64533  0.023609722  0.023179757           19 
 1281000   0.75031502   -6.8747217    363.40992   0.02364103  0.023161928           32 
 1282000    0.7322972   -6.8469124    362.65341  0.023573415  0.023144151           18 
 1283000   0.71808777    -6.871218    363.20282  0.023590726   0.02312624           23 
 1284000   0.74431745    -6.886319    363.01122  0.023559918  0.023108362           28 
 1285000    0.7249463   -6.8822176    363.16805  0.023551754   0.02309042           12 
 1286000   0.74733425   -6.8967505    363.51704  0.023556055  0.023072545           15 
 1287000   0.72693127   -6.8836455    363.05981  0.023508146  0.023054685            8 
 1288000   0.73212633   -6.8492889    363.46148  0.023515882  0.023036874           15 
 1289000    0.7348234   -6.8517933    364.04483  0.023535353  0.023019109           10 
 1290000     0.730628    -6.878497    363.73352  0.023496998  0.023001274            9 
 1291000    0.7383676   -6.8913105    363.77222  0.023481295  0.022983451           14 
 1292000   0.72150684   -6.8657626    363.99743  0.023477646  0.022965624           10 
 1293000   0.72431793   -6.8891094     363.5077  0.023427926   0.02294782           20 
 1294000    0.7305499   -6.8593742    363.92993  0.023437013  0.022930116           12 
 1295000     0.736914   -6.8744499     364.0308  0.023425406  0.022912366            7 
 1296000   0.74372492   -6.8606016    363.90411  0.023399184  0.022894786           15 
 1297000    0.7458085    -6.857234    364.34916  0.023409738  0.022877254           10 
 1298000   0.72762648   -6.8750742    363.70746  0.023350505  0.022859752           10 
 1299000   0.75297022   -6.8705965    364.38417  0.023375941  0.022842238           11 
 1300000   0.73413692   -6.8802046    364.59668  0.023371582  0.022824769            9 
 1301000   0.74188631   -6.8664926    365.13624  0.023388178  0.022807276            8 
 1302000   0.73259534   -6.8817391    365.08978  0.023367241  0.022789827           26 
 1303000   0.71464932   -6.8856755     364.3318  0.023300832  0.022772465           15 
 1304000   0.73874646   -6.8983701    364.78595  0.023311986  0.022754981           19 
 1305000   0.74715292   -6.8863935    363.87481  0.023235939  0.022737564           15 
 1306000   0.72884403   -6.9022433    364.76954  0.023275239  0.022720204            9 
 1307000   0.74360801   -6.8978342    364.16238  0.023218718  0.022702812           17 
 1308000   0.73595729   -6.9042008    364.03142  0.023192623  0.022685416           28 
 1309000   0.74081262   -6.8917787    364.46159  0.023202291  0.022668008           11 
 1310000   0.74162911   -6.9070857    365.15994  0.023229004  0.022650639           11 
 1311000   0.72862272   -6.8894094    364.32801  0.023158404   0.02263333           11 
 1312000    0.7183941   -6.9390571    364.72062   0.02316569  0.022615953           22 
 1313000   0.71720566   -6.9065143    364.78885  0.023152377   0.02259849           23 
 1314000   0.74942507   -6.9242586    364.26731  0.023101681  0.022581151           60 
 1315000   0.71599738   -6.9311713    363.25528   0.02301998  0.022563751           18 
 1316000   0.73644524   -6.9045795    364.86833  0.023104631  0.022546281           18 
 1317000   0.73095518   -6.9107791    364.35306  0.023054484  0.022528884           44 
 1318000    0.7308555   -6.9116264    364.23839  0.023029742  0.022511577           62 
 1319000   0.73072601    -6.923333    364.17156  0.023008059  0.022494193           15 
 1320000   0.72299288   -6.9430349    364.36683  0.023002956  0.022476735           24 
 1321000   0.71319553    -6.938248    364.68923  0.023005881  0.022459324           24 
 1322000   0.69604924    -6.923693    364.78734  0.022994663  0.022441946           14 
 1323000   0.72420321   -6.9337466    363.73758   0.02291116  0.022424524           12 
 1324000   0.74183937   -6.9384905     364.6506  0.022951322  0.022407057           15 
 1325000   0.71689003   -6.9570846    364.76351  0.022941102  0.022389628           20 
 1326000   0.74725646   -6.9420233    364.57852  0.022912175  0.022372179           11 
 1327000   0.73097071   -6.9284162    364.62562  0.022897866  0.022354765           21 
 1328000   0.73468316   -6.9525933    365.23412  0.022918807  0.022337458           12 
 1329000   0.71905078   -6.9646768    365.18593  0.022898541  0.022320144            8 
 1330000   0.71816413   -6.9245474    365.24907   0.02288528  0.022302841           12 
 1331000   0.72864137   -6.9641585    364.81552  0.022840941  0.022285556           20 
 1332000   0.70459772   -6.9730395    365.02521  0.022836913  0.022268253           24 
 1333000    0.7268737   -6.9410723    364.68721   0.02279865  0.022250904           12 
 1334000   0.69852522   -6.9260281    364.95993  0.022798596  0.022233652            6 
 1335000   0.71047277   -6.9470956    365.04291  0.022786698  0.022216427           31 
 1336000   0.73241124   -6.9428241     365.4524  0.022795184  0.022199194           16 
 1337000   0.71522037   -6.9413287    365.65537  0.022790786  0.022182017           10 
 1338000   0.72782282   -6.9578878    364.92167  0.022728056   0.02216481            8 
 1339000   0.73182423   -6.9195656    364.94076   0.02271227    0.0221477           15 
 1340000   0.72740327   -6.9798257    364.81713  0.022687633  0.022130523           23 
 1341000   0.69930982   -6.9718311    364.98255  0.022680994  0.022113337           18 
 1342000   0.71530335   -6.9771517    364.40935  0.022628499   0.02209611           19 
 1343000   0.70696758   -6.9657404    363.63833  0.022563808  0.022078871           22 
 1344000   0.73026486   -6.9772409    365.41268  0.022657036  0.022061582           22 
 1345000   0.70907703   -6.9821702    364.46708  0.022581603   0.02204434           18 
 1346000   0.71289619   -6.9567523    366.04036  0.022662231  0.022027198           32 
 1347000    0.7095649   -6.9320123    365.58479  0.022617223  0.022010084           26 
 1348000   0.71407858   -6.9709786    365.15292  0.022573746  0.021993039           29 
 1349000    0.7133429   -6.9993371    364.69314   0.02252861  0.021975885           33 
 1350000   0.73245089   -6.9657368    365.40153   0.02255565  0.021958758           37 
 1351000   0.70627865   -6.9705997    365.18522  0.022525612    0.0219416           26 
 1352000   0.71600558   -6.9492205    365.77907  0.022545554  0.021924438           12 
 1353000   0.72612146   -6.9513833    365.68142  0.022522876  0.021907243           25 
 1354000   0.70893936   -6.9538618    365.49681   0.02249488  0.021890081           29 
 1355000   0.71027292   -6.9838222    365.44325  0.022474984  0.021872933           48 
 1356000   0.72059272   -6.9579556    365.13561  0.022439504  0.021855827           33 
 1357000   0.72054348   -6.9395473    366.11488  0.022483105  0.021838649           13 
 1358000   0.71774806   -6.9720347     364.5449  0.022370208  0.021821547           18 
 1359000   0.71669063   -7.0087679    364.41696  0.022345902  0.021804387           28 
 1360000   0.72160474   -6.9895041    365.46732  0.022393831  0.021787134           20 
 1361000   0.70064143   -6.9933925    364.58898  0.022323597  0.021769913           26 
 1362000   0.70152112   -7.0155534    364.70552  0.022314336  0.021752643           23 
 1363000   0.70610331   -6.9926223    364.75737  0.022301135  0.021735423           28 
 1364000   0.69884834   -6.9738198    365.56029   0.02233384  0.021718253           29 
 1365000   0.71368313   -6.9770634    365.71539  0.022326947  0.021701112           19 
 1366000   0.71186794   -7.0009182    365.27744  0.022283885  0.021683988           46 
 1367000   0.71199764    -6.999133    365.33971   0.02227138  0.021666862           42 
 1368000      0.70732   -6.9810865    365.19545  0.022246312  0.021649793           15 
 1369000   0.70479381   -7.0043979    365.07937  0.022222995  0.021632712           15 
 1370000   0.71057613   -6.9694673    366.03407  0.022264846  0.021615614           28 
 1371000   0.68415605   -6.9812316    365.02174  0.022187074  0.021598556           42 
 1372000   0.70299508   -6.9821543    365.50137  0.022200035  0.021581501           40 
 1373000   0.71227395    -6.968039    365.09821  0.022159396   0.02156448           26 
 1374000    0.7167917   -6.9534525    365.30381  0.022155738  0.021547497           48 
 1375000   0.70562977   -6.9798619    364.77022  0.022107286  0.021530467           46 
 1376000   0.71824027   -6.9570213    364.85736  0.022096497   0.02151338           28 
 1377000   0.69897718   -6.9747959    365.94278  0.022146138  0.021496401           64 
 1378000   0.70308757    -6.984734    365.45398  0.022100507  0.021479393           16 
 1379000   0.70353452    -6.961152     365.6999  0.022099341  0.021462344           35 
 1380000   0.71259717   -6.9568109    364.90742  0.022035472  0.021445235           30 
 1381000   0.70947788   -6.9484572    365.44794  0.022052133  0.021428187           41 
 1382000   0.69374721    -6.984955    364.97185  0.022007468  0.021411165           33 
 1383000   0.70041005    -6.976597    364.29749  0.021950922  0.021394075           73 
 1384000   0.70999548   -7.0117584    364.67709  0.021957917  0.021376954           32 
 1385000   0.71251602   -7.0159355    364.71987  0.021944637  0.021359867           56 
 1386000   0.70369557   -6.9936331    364.50672  0.021915988  0.021342737           55 
 1387000   0.69389612   -7.0044047    364.43633  0.021895958  0.021325612           57 
 1388000   0.70688677   -7.0380815    364.53876  0.021886333  0.021308568           59 
 1389000   0.71321349   -7.0243552    364.54921  0.021871203    0.0212915           46 
 1390000   0.71572798   -7.0425164    364.97472  0.021880978  0.021274428           40 
 1391000   0.69658837   -7.0269351     364.9376  0.021863024  0.021257301           45 
 1392000   0.69679784   -7.0235691    364.71064  0.021833731  0.021240216           48 
 1393000   0.68667721   -7.0552095    364.43813  0.021801754  0.021223137           21 
 1394000   0.70655727   -7.0097183    365.28751  0.021836891  0.021206033           36 
 1395000   0.69752479   -7.0101591    365.34347   0.02182458  0.021189014           35 
 1396000   0.69940848   -7.0223985     364.7168  0.021771538  0.021172022           25 
 1397000   0.69707888   -7.0329651    364.85505    0.0217642  0.021155003           29 
 1398000   0.70694125   -7.0348717    364.30867  0.021716063  0.021137964           49 
 1399000   0.69148138   -7.0175633    365.08483  0.021746773  0.021120948           27 
 1400000   0.69839071   -7.0412915    364.87357  0.021718665   0.02110398           52 
 1401000   0.70912477   -7.0225891    365.43321  0.021736451  0.021087055           49 
 1402000   0.69953486   -7.0215253    364.82943  0.021685059  0.021070132           37 
 1403000   0.69023024   -7.0146033    364.95145   0.02167685  0.021053183           36 
 1404000   0.70544003   -7.0222815    365.17598  0.021674738  0.021036276           85 
 1405000   0.70114936   -7.0481974    364.47913  0.021617979  0.021019337           45 
 1406000   0.70510147   -7.0487278    366.15114  0.021701704  0.021002408           48 
 1407000   0.68550317   -7.0042333    365.41254  0.021642534  0.020985528           55 
 1408000   0.69875672    -7.034525    365.27098  0.021618784  0.020968688           32 
 1409000   0.68799276   -7.0339015     365.3875  0.021610332  0.020951809           23 
 1410000   0.68919358   -6.9975215    364.71309  0.021555147  0.020934982           29 
 1411000   0.68327592   -7.0166806    365.89176  0.021609483  0.020918069           51 
 1412000   0.68824904   -7.0303431    365.33053  0.021561056  0.020901259           20 
 1413000   0.68666627   -7.0328614    364.28878  0.021484358  0.020884475           41 
 1414000   0.71675107   -7.0330661    365.04012  0.021513444  0.020867665           41 
 1415000   0.69191138    -7.002869    365.09516  0.021501482  0.020850924           47 
 1416000   0.68135501   -7.0029637    365.85174  0.021530823  0.020834259           45 
 1417000   0.67699766   -7.0265438    365.37635   0.02148767  0.020817584           43 
 1418000   0.68451783   -7.0166919     366.7025  0.021550453  0.020800975           59 
 1419000   0.67240494   -7.0192098    365.77128  0.021480578  0.020784384           33 
 1420000   0.71078271   -7.0317244    366.01849  0.021479958    0.0207678           41 
 1421000   0.68789589   -7.0544203    364.85479  0.021396598  0.020751192           56 
 1422000   0.68860465    -7.045554    364.76877   0.02137651  0.020734519           46 
 1423000   0.69439339    -7.053895    364.29537  0.021333765  0.020717849           58 
 1424000    0.6751902   -7.0450215    365.03393  0.021362004  0.020701211           71 
 1425000   0.69155748     -7.04841    364.70587  0.021327829  0.020684534           58 
 1426000   0.68835182    -7.066157     364.6684  0.021310682  0.020667865           53 
 1427000   0.69750011   -7.0473742    364.84362  0.021305981  0.020651202           90 
 1428000   0.69160337   -7.0512481     365.3033  0.021317887  0.020634558           60 
 1429000   0.67749345   -7.0485146    365.39318   0.02130821  0.020617951          100 
 1430000   0.66799314   -7.0690961    364.52349  0.021242627  0.020601314          132 
 1431000     0.684286   -7.0946574    364.49415  0.021226075  0.020584667          155 
 1432000    0.6623981   -7.0619893    365.12455  0.021247937  0.020568036           74 
 1433000   0.66792231   -7.0756926    365.74086   0.02126895  0.020551426           96 
 1434000   0.68005611   -7.0748591    365.67197  0.021250114  0.020534784           65 
 1435000   0.67114212   -7.0684822    365.25454  0.021211065  0.020518208           49 
 1436000   0.69041687   -7.0674054    364.89675  0.021175531  0.020501603           62 
 1437000   0.68944505   -7.0690539    365.75266   0.02121043  0.020485015           49 
 1438000   0.67478346   -7.0585764    365.33748   0.02117162  0.020468454           83 
 1439000   0.68698508   -7.0633431    365.06275  0.021140998  0.020451906          122 
 1440000   0.67522029   -7.0759979    366.18995  0.021191548  0.020435427           36 
 1441000    0.6839512   -7.0670431    365.80518   0.02115459  0.020418962           69 
 1442000   0.67879834   -7.0709852    365.96338  0.021149063  0.020402542          101 
 1443000   0.68791175   -7.0944863    366.00709  0.021136931  0.020386143           78 
 1444000   0.67877121   -7.0612389    364.93552  0.021060453   0.02036976           34 
 1445000   0.67006422   -7.0724542    365.54463  0.021081005  0.020353351           61 
 1446000   0.67871691   -7.0790565    366.11274  0.021099167  0.020337017           35 
 1447000   0.67487406   -7.0757365    365.57248  0.021053471  0.020320709          104 
 1448000    0.6672185   -7.0678571    365.27573  0.021021853  0.020304326           85 
 1449000    0.6991642   -7.0517291     365.5999  0.021025989  0.020287953          101 
 1450000   0.67720406   -7.0830772    365.69586  0.021017003  0.020271631          117 
 1451000   0.67015413   -7.0797231    366.13759  0.021027888  0.020255282           96 
 1452000    0.6715055   -7.1002477    365.68871  0.020987644   0.02023901           77 
 1453000   0.66830532   -7.0500228     366.0363  0.020993135  0.020222699           74 
 1454000    0.6660619   -7.0498488    365.56126   0.02095147  0.020206365           90 
 1455000   0.67695881   -7.0806076    365.42397  0.020929208  0.020190008          130 
 1456000   0.68483969   -7.0954016     365.4931   0.02091879  0.020173718          123 
 1457000   0.66250382   -7.0937568    365.50409  0.020905061  0.020157408          126 
 1458000   0.67411976   -7.1007416    365.90968  0.020913905  0.020141081          114 
 1459000   0.66843259   -7.1109728    364.74735  0.020833182  0.020124793          149 
 1460000   0.67810413   -7.1094896    366.03229  0.020892254  0.020108445          161 
 1461000   0.66305154   -7.1132194    364.78241  0.020806663  0.020092122           97 
 1462000   0.67788475   -7.1115664    365.11853   0.02081159  0.020075747          171 
 1463000   0.66910659   -7.1130333    365.00813  0.020791076  0.020059407          191 
 1464000   0.67456665   -7.0936145    364.65456  0.020756749  0.020043055          248 
 1465000   0.67412505   -7.1183504    364.55581  0.020736963    0.0200267          113 
 1466000   0.67331695   -7.0896855    365.64987  0.020785009    0.0200104          150 
 1467000   0.67529278   -7.1065699    365.05157  0.020736854  0.019994104          132 
 1468000   0.68896669   -7.0922536    365.63061  0.020755598  0.019977768          203 
 1469000   0.66346722   -7.0864643    365.86284  0.020754643   0.01996146          186 
 1470000   0.66393679   -7.0646385    365.28872  0.020707978  0.019945234          121 
 1471000   0.67401357   -7.1118174    365.66916  0.020715452  0.019928948          144 
 1472000   0.65845671   -7.1250161    364.71283  0.020647239  0.019912689          173 
 1473000    0.6540102   -7.1270311    366.02787  0.020707619  0.019896464          137 
 1474000   0.65430658   -7.1102005    365.59582  0.020669144  0.019880256           89 
 1475000   0.66210931   -7.1185338    364.73087  0.020606264  0.019864036           94 
 1476000   0.66637749   -7.0930432    366.06696  0.020667737  0.019847878           94 
 1477000   0.66446642     -7.11874    364.95045   0.02059075  0.019831703          159 
 1478000   0.65504412   -7.1177423    365.39439  0.020601849   0.01981547          130 
 1479000   0.67134673    -7.128563    365.00385  0.020565914  0.019799326          138 
 1480000   0.66321831    -7.118596    364.38537  0.020517194  0.019783166          100 
 1481000   0.66098758   -7.1092627    365.42302  0.020561728  0.019767005          120 
 1482000   0.65363414   -7.1074387     365.6649  0.020561454  0.019750885          135 
 1483000   0.66454932   -7.1202689     365.4137  0.020533474  0.019734755          127 
 1484000   0.66057617   -7.1391821    365.29556  0.020513003  0.019718657          106 
 1485000   0.66280917   -7.1152409    365.81445  0.020528308  0.019702556          127 
 1486000    0.6601062   -7.1174011    365.94558  0.020521847  0.019686472          137 
 1487000   0.66049159   -7.0998777    365.46414  0.020481066  0.019670424          150 
 1488000   0.66636629   -7.1063504    365.87377  0.020490243  0.019654368           88 
 1489000   0.64654076    -7.124126    366.55846  0.020514801   0.01963835          152 
 1490000   0.65021821   -7.1036516     365.5643  0.020445431  0.019622309          110 
 1491000   0.67047443   -7.1209976    365.47482  0.020426717  0.019606312           92 
 1492000   0.68081825   -7.0923803    365.45174  0.020411737  0.019590321          104 
 1493000    0.6481476    -7.136022     365.2509  0.020386855  0.019574328           85 
 1494000   0.65924445     -7.12953    365.05185  0.020362107  0.019558319           71 
 1495000   0.65219167   -7.1346902    365.76942  0.020388485  0.019542312          160 
 1496000   0.66573043   -7.1363763     364.9481  0.020329105  0.019526348           90 
 1497000   0.65908615   -7.1264755    365.43654  0.020342715  0.019510435           95 
 1498000   0.65518156   -7.1533798    365.74158  0.020346105  0.019494514           48 
 1499000   0.64478043   -7.1443283    365.54128  0.020321396  0.019478625           73 
 1500000   0.66690411   -7.1552069    364.83838  0.020268799  0.019462749           52 
 1501000    0.6603744   -7.1302467    365.44228  0.020288823  0.019446837           67 
 1502000   0.65462794   -7.1313834     365.1006  0.020256358  0.019430927           69 
 1503000   0.65185294   -7.1311346    366.01544  0.020293604  0.019415054           52 
 1504000   0.65941093   -7.1501031    365.85947  0.020271469   0.01939922           89 
 1505000   0.65776316   -7.1199747    364.95664  0.020208009  0.019383381           45 
 1506000   0.64295728   -7.1342173    364.92316  0.020192738  0.019367557           64 
 1507000   0.65730323   -7.1497356     365.3112  0.020200796  0.019351674           53 
 1508000   0.65124845   -7.1238185    365.14626  0.020178286  0.019335833          165 
 1509000   0.64984736    -7.142032    365.69352  0.020195136  0.019320051          108 
 1510000   0.64515388   -7.1498144    365.76167  0.020185522  0.019304274           87 
 1511000   0.66433825   -7.1464751    365.07725  0.020134417  0.019288489          202 
 1512000    0.6656605   -7.1442905    364.72725   0.02010181   0.01927265          160 
 1513000   0.65852419   -7.1699595    364.91565  0.020098901  0.019256805          127 
 1514000   0.64964646   -7.1798302    364.99818  0.020090168  0.019241026          126 
 1515000    0.6434409   -7.1704374    364.78873  0.020065387  0.019225206           88 
 1516000   0.64525618   -7.1764425    365.20024  0.020074771  0.019209402          123 
 1517000   0.65038001   -7.1730604    364.18038  0.020005514  0.019193554          189 
 1518000   0.63581319   -7.1649885    365.13785  0.020044897   0.01917777          176 
 1519000   0.64332674   -7.1588694    365.20447  0.020035356   0.01916207          175 
 1520000   0.65089129   -7.1535033    365.54496  0.020040842   0.01914635          171 
 1521000   0.65005268   -7.1878259    364.90676    0.0199927  0.019130637          250 
 1522000   0.65966395   -7.1687733    365.01464  0.019985471  0.019114958          189 
 1523000   0.64638801   -7.1743877    365.13674  0.019979029  0.019099301          234 
 1524000   0.64509921   -7.1696645    365.22828  0.019970925  0.019083648          208 
 1525000   0.65650997   -7.1789834    365.17824  0.019955095  0.019068002          190 
 1526000   0.64600598   -7.1715778    364.66678  0.019914088  0.019052308          186 
 1527000    0.6422616   -7.1712824    364.47951  0.019890827  0.019036593          196 
 1528000   0.63578739   -7.1515228    364.92177  0.019901929  0.019020983          162 
 1529000   0.65452817   -7.1602225    365.59245  0.019925466  0.019005364          210 
 1530000    0.6513443   -7.1639827    364.77519   0.01986793  0.018989674          181 
 1531000    0.6389971   -7.1901224     364.6782  0.019849673   0.01897402          194 
 1532000   0.64127782   -7.1737539    364.41718  0.019822519  0.018958386          250 
 1533000   0.65175013   -7.1715132    364.62826  0.019821062  0.018942727          249 
 1534000   0.64513435   -7.1716892    365.00233  0.019828462  0.018927114          166 
 1535000   0.65387122   -7.1825456    364.11845   0.01976756  0.018911485          172 
 1536000   0.65059379   -7.1968994    364.39872  0.019769896   0.01889588          140 
 1537000   0.64997165   -7.1816798    364.89025  0.019783683  0.018880253          193 
 1538000   0.63891436   -7.1634992    365.51183  0.019804499  0.018864676          178 
 1539000   0.62834356   -7.1851427    364.25165  0.019723395   0.01884908          231 
 1540000    0.6355243   -7.1953238    364.22487  0.019709138  0.018833504          275 
 1541000    0.6388544   -7.1742466    364.11796  0.019690567   0.01881798          199 
 1542000   0.65349247   -7.1882314    364.59454  0.019703553  0.018802407          242 
 1543000   0.64817577   -7.1817352    364.26363  0.019672912  0.018786854          268 
 1544000   0.64299302    -7.177049    364.35518  0.019665111  0.018771342          307 
 1545000   0.63514835   -7.1736846    364.94212  0.019684041  0.018755789          232 
 1546000   0.64612142   -7.1945406    363.52148  0.019594733  0.018740201          143 
 1547000   0.62292667    -7.183441    364.30272   0.01962415  0.018724605          214 
 1548000   0.63334913   -7.1860191    364.21368   0.01960668   0.01870907          237 
 1549000   0.62473033   -7.1777197    364.80866  0.019626031  0.018693573          184 
 1550000   0.63898824   -7.2082291    363.98629  0.019569155  0.018678116          189 
 1551000   0.62581747   -7.2089924    363.78333  0.019545633   0.01866258          290 
 1552000   0.63087401   -7.2132991    364.22866  0.019556951  0.018647095          392 
 1553000   0.63550001   -7.1898701    363.36276  0.019497894  0.018631591          234 
 1554000    0.6306815   -7.1827484    365.02597  0.019574537  0.018616108          260 
 1555000   0.63165743   -7.1904966    364.20852  0.019518141   0.01860067          268 
 1556000   0.64684195   -7.1886731    364.50831  0.019521653  0.018585264          278 
 1557000    0.6322831   -7.1748281    364.80192   0.01952483   0.01856987          284 
 1558000   0.62028074   -7.2005322      364.272  0.019483954  0.018554491          333 
 1559000    0.6407136    -7.197664    364.36278  0.019476308  0.018539109          285 
 1560000   0.63324659   -7.2024009    363.61755  0.019424014  0.018523702          303 
 1561000   0.62888448   -7.2271296    363.98558  0.019431218  0.018508279          279 
 1562000   0.63345589   -7.2252083    363.63751  0.019400209  0.018492862          260 
 1563000   0.63445132   -7.2290363    363.60505  0.019386066  0.018477427          349 
 1564000   0.63278917   -7.2085556    363.99725  0.019394568  0.018462043          350 
 1565000   0.63233518   -7.2321805    363.86381   0.01937507  0.018446634          361 
 1566000   0.62827818   -7.2010114    363.53791  0.019345355  0.018431272          447 
 1567000   0.62258042   -7.2328347    363.42867    0.0193272  0.018415903          371 
 1568000   0.63027685   -7.2078283    364.62924   0.01937868  0.018400557          309 
 1569000   0.62931443   -7.2156947    364.08859  0.019337614  0.018385191          373 
 1570000   0.61802306   -7.1954526    364.79003  0.019362528  0.018369912          368 
 1571000    0.6301367   -7.2223024     364.0647  0.019311728  0.018354632          310 
 1572000   0.64187842   -7.2603299    363.88377  0.019289852  0.018339328          446 
 1573000   0.62080333   -7.2446485    364.44166  0.019307145  0.018324001          337 
 1574000   0.63109322   -7.2639168    363.49446   0.01924473  0.018308725          344 
 1575000   0.62613264   -7.2368086    363.68007  0.019242331  0.018293464          297 
 1576000   0.62815366   -7.2326675    364.30604  0.019263221  0.018278219          302 
 1577000   0.61920657   -7.2316003     363.5335  0.019210183  0.018263013          339 
 1578000   0.62634829   -7.2270566    364.16123  0.019231159  0.018247775          408 
 1579000   0.61687513    -7.209567    363.58541   0.01918859  0.018232565          400 
 1580000   0.62154889   -7.2229951    364.44228  0.019221639  0.018217359          327 
 1581000   0.62927119   -7.2179005    363.76795  0.019173938  0.018202202          387 
 1582000   0.62571823   -7.2180237     364.4682  0.019198704  0.018187037          288 
 1583000   0.61829167   -7.2220556     363.1598  0.019117699  0.018171872          347 
 1584000   0.63003843   -7.2328446    363.19397  0.019107427   0.01815669          355 
 1585000   0.61239455   -7.2501344    363.36557  0.019104394  0.018141565          344 
 1586000    0.6225373    -7.235162    364.25122  0.019138883  0.018126396          397 
 1587000   0.62361813   -7.2470509    363.97261  0.019112193  0.018111276          228 
 1588000   0.61991376   -7.2447979    364.01404  0.019102332  0.018096173          380 
 1589000   0.63421528   -7.2258038    363.27899  0.019051762  0.018081055          181 
 1590000   0.62359895   -7.2379598    364.15633  0.019085762  0.018065963          258 
 1591000   0.62039323   -7.2465127    363.66233  0.019047891  0.018050905          373 
 1592000   0.61978364   -7.2120332    363.42111  0.019023299  0.018035848          326 
 1593000   0.61248918   -7.2387493    364.12353  0.019048102  0.018020802          282 
 1594000   0.61844576   -7.2281722    363.56088  0.019006738  0.018005774          330 
 1595000    0.6358923   -7.2457507    363.85914  0.019010404  0.017990732          254 
 1596000   0.62293266   -7.2661355    364.07444  0.019009735  0.017975681          367 
 1597000   0.61577212   -7.2421344    363.20372  0.018952396   0.01796067          285 
 1598000   0.61552659   -7.2529849    362.83261  0.018921183  0.017945646          276 
 1599000   0.60998927   -7.2537031    363.37578  0.018937658   0.01793066          416 
 1600000   0.60768508   -7.2353617    363.13896  0.018913488  0.017915684          245 
 1601000    0.6119167   -7.2730404    362.97738  0.018893264  0.017900647          417 
 1602000   0.61167204   -7.2482344    363.07001  0.018886288   0.01788561          305 
 1603000   0.60976707   -7.2420386    363.99063  0.018922366  0.017870613          275 
 1604000   0.61664845   -7.2450982     363.2921  0.018874278  0.017855614          403 
 1605000   0.61352088   -7.2382032    363.28216  0.018862002  0.017840636          442 
 1606000   0.61778452   -7.2670166    362.30384  0.018799494  0.017825639          506 
 1607000   0.60536481   -7.2554625    363.18676   0.01883358  0.017810696          301 
 1608000   0.61113417   -7.2629776    363.33213  0.018829401   0.01779573          331 
 1609000   0.60968903   -7.2684265    362.91704  0.018796201  0.017780772          362 
 1610000   0.61795232   -7.2619117    363.46247  0.018812757  0.017765857          391 
 1611000   0.61388476   -7.2639208    363.14417  0.018784615  0.017750992          423 
 1612000   0.61239159   -7.2564099    363.23388  0.018777599  0.017736068          410 
 1613000   0.60210752   -7.2739625    363.65623  0.018787778  0.017721213          265 
 1614000   0.61521319   -7.2604768    363.02496  0.018743544   0.01770632          331 
 1615000   0.60781489   -7.2743547    363.42391  0.018752524  0.017691488          336 
 1616000   0.60252221   -7.2819702    362.13869  0.018674643   0.01767665          434 
 1617000   0.60401046   -7.2789819    363.79433  0.018748419  0.017661864          397 
 1618000   0.60349935   -7.2786079    363.25291  0.018708947  0.017647068          389 
 1619000   0.60648012   -7.2895714    363.19958  0.018694646  0.017632266          426 
 1620000   0.60401673   -7.2799677    363.33935  0.018690296  0.017617475          395 
 1621000   0.61053744   -7.2725168    363.16011  0.018669551  0.017602704          437 
 1622000   0.61300568    -7.267733    363.95921  0.018699097  0.017587951          334 
 1623000   0.62339438   -7.2856528    363.29051   0.01865324  0.017573199          359 
 1624000   0.60813549   -7.2845877    363.15629  0.018634867   0.01755844          407 
 1625000   0.60679477   -7.2767807     362.9725  0.018613974  0.017543741          298 
 1626000   0.59986546   -7.2788602    362.82836  0.018595139  0.017529017          396 
 1627000   0.59398101   -7.2906098    362.93121  0.018588978  0.017514297          504 
 1628000   0.60181387   -7.2912364    363.34732   0.01859886  0.017499575          269 
 1629000   0.60776042   -7.2892326    363.78932  0.018610053  0.017484847          473 
 1630000   0.60522535   -7.2766316    362.87093  0.018551683  0.017470173          447 
 1631000   0.59940352   -7.3043041    363.00119  0.018546964  0.017455498          445 
 1632000   0.59516188   -7.3019986    363.25187    0.0185484  0.017440842          559 
 1633000    0.5986534    -7.285645    362.93094  0.018520664  0.017426219          406 
 1634000   0.61328593   -7.2830641    363.08686  0.018517282  0.017411613          433 
 1635000   0.60408331   -7.2871008    363.37663  0.018520725  0.017397023          446 
 1636000   0.60807442   -7.2916313    362.97255  0.018488822  0.017382442          553 
 1637000   0.59802576   -7.2670637    363.12917    0.0184855  0.017367889          524 
 1638000   0.59282811   -7.2955464    363.40028  0.018488008  0.017353328          376 
 1639000   0.59219194   -7.2992519    363.23196   0.01846817  0.017338773          633 
 1640000   0.59670328   -7.3100165    363.17892  0.018454214  0.017324207          604 
 1641000   0.59702519   -7.3061564    363.05887  0.018436871   0.01730968          554 
 1642000   0.62072043    -7.304757    363.22261  0.018433953  0.017295176          487 
 1643000   0.61308648   -7.3143563    363.17433  0.018420284  0.017280709          582 
 1644000   0.59745498   -7.3157849    362.22868  0.018361145  0.017266194          462 
 1645000   0.59432021   -7.3124748     362.2548  0.018351307  0.017251682          518 
 1646000   0.61674855    -7.323714    363.31429  0.018393797  0.017237225          497 
 1647000   0.60212504   -7.3048372    363.30839  0.018382331  0.017222777          488 
 1648000   0.58677605   -7.3172856    362.76581   0.01834374  0.017208345          454 
 1649000   0.58069821   -7.3315198    362.75505  0.018332072  0.017193866          513 
 1650000   0.59882862   -7.3223455    362.66701  0.018316516  0.017179399          486 
 1651000    0.6052812   -7.3072996     362.4588  0.018294912  0.017164997          482 
 1652000   0.59423233   -7.3162094    362.66906  0.018294444  0.017150599          541 
 1653000   0.59171996   -7.3228277    362.70112  0.018284993  0.017136186          473 
 1654000   0.57844047   -7.3094927    361.95582  0.018236388  0.017121799          542 
 1655000   0.59089947   -7.3157185    363.04635   0.01828028  0.017107426          521 
 1656000   0.59860434   -7.3265294    362.29168  0.018231264  0.017093082          642 
 1657000   0.59269621    -7.302254    363.09711  0.018260768  0.017078754          370 
 1658000   0.59633528   -7.3235559    362.78671  0.018234153  0.017064429          572 
 1659000   0.59986259    -7.307287    362.88145  0.018227921  0.017050158          532 
 1660000   0.58936955   -7.3088554    363.39692  0.018242817  0.017035891          575 
 1661000   0.60276689   -7.3045696    363.01675  0.018212761  0.017021642          613 
 1662000   0.60276412   -7.3150984    363.10032  0.018205993  0.017007381          601 
 1663000   0.58773558   -7.3278304    362.44887  0.018162401  0.016993156          645 
 1664000   0.59451585   -7.3073826     362.4134   0.01814971  0.016978932          657 
 1665000   0.59258617   -7.3471381    361.91635  0.018113931  0.016964707          680 
 1666000   0.59653574   -7.3195894    362.79198  0.018146858   0.01695047          785 
 1667000   0.57942272   -7.3047261    362.12478  0.018102619  0.016936252          691 
 1668000   0.57038585   -7.3380624    362.12277  0.018091665  0.016922061          701 
 1669000   0.60063229   -7.3301085    363.77091  0.018163117  0.016907859          768 
 1670000   0.59027257   -7.3197562    362.75184  0.018101389  0.016893662          694 
 1671000   0.57771646   -7.3369263    362.69334  0.018087639  0.016879455          691 
 1672000    0.5874076   -7.3489361     362.3275  0.018058587  0.016865246          583 
 1673000   0.57797567   -7.3291471    362.66014  0.018064362  0.016851085          581 
 1674000   0.60182657   -7.3370243     362.1675  0.018029047  0.016836897          753 
 1675000   0.58208673   -7.3357098    362.52285  0.018035963  0.016822736          782 
 1676000   0.59115957   -7.3412591    362.59103  0.018028591  0.016808599          628 
 1677000   0.58322008   -7.3452448    362.03234  0.017990078  0.016794454          809 
 1678000   0.58135163   -7.3463811    362.18564  0.017986971  0.016780334          778 
 1679000   0.58513692   -7.3372051    362.15931  0.017974951    0.0167662          751 
 1680000   0.58079124   -7.3442669    362.36878  0.017974642  0.016752076          759 
 1681000    0.5781038   -7.3264518    362.05974  0.017948629  0.016737986          762 
 1682000   0.57969308   -7.3285517    362.84782  0.017977003  0.016723889          857 
 1683000    0.5847458   -7.3473224    362.82074   0.01796498  0.016709862          811 
 1684000    0.5847112    -7.335516    362.31745  0.017929407   0.01669581          649 
 1685000   0.57001801   -7.3411635    361.04344  0.017855759  0.016681764          762 
 1686000   0.57650283   -7.3606893    362.55994  0.017920124  0.016667733          675 
 1687000   0.57831638   -7.3424487    361.83805  0.017873841  0.016653695          743 
 1688000   0.58616917   -7.3462823    361.74577  0.017858697  0.016639697          907 
 1689000   0.58467178   -7.3439134     362.2726  0.017874117  0.016625714          816 
 1690000   0.57939753   -7.3624069    362.18677  0.017859308   0.01661173          770 
 1691000    0.5706321   -7.3538921    361.50437  0.017815118  0.016597746          797 
 1692000   0.59062428   -7.3337665    361.90698  0.017824418  0.016583795          696 
 1693000   0.57469082   -7.3261697    363.29773  0.017882345  0.016569868          737 
 1694000   0.59106121   -7.3460577     362.0767  0.017811723  0.016555937          669 
 1695000   0.57922312    -7.357621    361.55519  0.017775575  0.016541996          831 
 1696000   0.57940189   -7.3561895    362.00804  0.017787345  0.016528078          742 
 1697000   0.56939529   -7.3716386    361.69366  0.017761425  0.016514184          797 
 1698000   0.57085619   -7.3818259    361.15543   0.01772455  0.016500283          767 
 1699000   0.57924419   -7.3671164    361.83454  0.017747427  0.016486387          905 
 1700000   0.58425848   -7.3600326    361.64735  0.017727811    0.0164725          712 
 1701000   0.57046779   -7.3688264    361.61139  0.017715628  0.016458614          727 
 1702000   0.58766691   -7.3797402    362.03888  0.017726149  0.016444714          816 
 1703000   0.58001937   -7.3731762    361.82144  0.017705101   0.01643086          710 
 1704000   0.59243659   -7.3858508    361.51138  0.017679547  0.016416995          819 
 1705000   0.57778675   -7.3829557    361.64143  0.017675534   0.01640316          842 
 1706000   0.57535531   -7.3624609    361.68649  0.017667374  0.016389335          860 
 1707000   0.55691616   -7.3482722    361.90962  0.017667917  0.016375548          783 
 1708000   0.57021334   -7.3614627    361.42432  0.017633896  0.016361747          852 
 1709000   0.56756902   -7.3726314    361.96133  0.017649763  0.016347944          808 
 1710000   0.57722899   -7.3815603    361.26483  0.017605499  0.016334151          814 
 1711000   0.57281974   -7.3874796    361.14065  0.017589161  0.016320363          851 
 1712000   0.57659501    -7.387323    361.65087  0.017603722  0.016306602          833 
 1713000   0.56113158   -7.3790037     361.6903  0.017595364  0.016292859          678 
 1714000   0.56364433   -7.3841917    361.43873  0.017572867  0.016279144          829 
 1715000   0.56646525   -7.3796022    361.25792  0.017553835   0.01626545          776 
 1716000   0.57368126   -7.3655144    361.85356  0.017572531  0.016251738          567 
 1717000    0.5598608   -7.3797475    360.53451  0.017498278  0.016238024          675 
 1718000   0.56583867   -7.3924687    361.32595  0.017526482  0.016224347          790 
 1719000    0.5752284   -7.3684698    361.63602  0.017531318  0.016210668          805 
 1720000   0.56617027   -7.3961538    361.19563  0.017499788  0.016197028          726 
 1721000   0.56514196   -7.3959182    360.93169  0.017476839  0.016183377          716 
 1722000   0.56443871   -7.3793776    361.51224  0.017494785  0.016169745          710 
 1723000   0.56479749   -7.3583743    360.60058  0.017440539  0.016156135          748 
 1724000   0.57006082   -7.3956029    360.95334  0.017447474  0.016142556          623 
 1725000   0.58352692   -7.3852392    361.67878  0.017472405  0.016128978          745 
 1726000   0.55719647   -7.3904517    362.16986  0.017485992  0.016115419          728 
 1727000   0.57092351   -7.3822606    361.18631  0.017428407  0.016101851          719 
 1728000   0.57366197   -7.3845769    361.29541  0.017423583  0.016088327          704 
 1729000   0.56592532   -7.3886237    362.27076  0.017460515  0.016074813          820 
 1730000    0.5558874   -7.3883531     361.7342  0.017424576  0.016061311          963 
 1731000   0.55986371   -7.3875086    361.40061   0.01739845  0.016047817          919 
 1732000   0.57091197   -7.3778489    361.70676  0.017403135   0.01603433          925 
 1733000   0.57168984   -7.3765743    361.42469  0.017379529  0.016020865          901 
 1734000   0.56878777   -7.3929708    361.23314  0.017360301  0.016007424          905 
 1735000   0.56158806   -7.3716488    361.36003   0.01735639  0.015993989          973 
 1736000   0.55876366   -7.3663538    361.01019  0.017329598   0.01598057          999 
 1737000   0.56758345   -7.4012469    361.13654  0.017325683  0.015967149          925 
 1738000   0.56173796   -7.3924817     360.8944  0.017304104  0.015953728          999 
 1739000   0.55873303   -7.4031566    360.81392  0.017290297  0.015940317          967 
 1740000   0.55123875   -7.3769705    361.02466  0.017290453  0.015926903         1026 
 1741000   0.56339676   -7.3938256    361.00629  0.017279643  0.015913512         1069 
 1742000   0.55759809   -7.3950021    360.81589  0.017260614  0.015900129         1116 
 1743000   0.55861354   -7.4003202    360.91586  0.017255491   0.01588677          971 
 1744000   0.55689643   -7.4002167     361.2191  0.017260087  0.015873394          993 
 1745000   0.55471305    -7.391122     361.4452  0.017260993  0.015860049         1012 
 1746000   0.55180994    -7.397532    361.33634  0.017245912  0.015846721         1079 
 1747000   0.56532946    -7.410187    361.00129  0.017220058  0.015833398         1057 
 1748000   0.56209304    -7.415501    360.78263  0.017199782  0.015820083         1028 
 1749000     0.549608   -7.4012286     360.9527  0.017198051  0.015806744         1032 
 1750000   0.55639129   -7.4017247    360.52789  0.017167995  0.015793445          896 
 1751000   0.55789386   -7.3917914    361.32698   0.01719622  0.015780155          882 
 1752000   0.54849576   -7.3926693    361.57729  0.017198311  0.015766871          913 
 1753000   0.54382267    -7.420995    360.89419  0.017156027   0.01575359          973 
 1754000    0.5517867   -7.4227453    360.94145  0.017148491  0.015740333         1061 
 1755000   0.55348097   -7.4189469    360.27207  0.017106936  0.015727074          955 
 1756000    0.5623533     -7.43896    360.61451  0.017113445  0.015713828          957 
 1757000   0.54952683   -7.4187406    360.39174  0.017093139  0.015700598          972 
 1758000   0.55254603   -7.4274401    361.14072  0.017118919  0.015687381          995 
 1759000   0.55608076   -7.4228103    360.06215  0.017058089  0.015674163         1134 
 1760000   0.54343865   -7.4337099    360.49246  0.017068772  0.015660982         1017 
 1761000   0.55376908   -7.4255259    360.98156  0.017082224  0.015647807         1031 
 1762000   0.54626048   -7.4270912    360.70079   0.01705925  0.015634621          882 
 1763000   0.55301356   -7.4158907    360.80193  0.017054355  0.015621478          935 
 1764000   0.55315529   -7.4168265    360.99599  0.017053854   0.01560834          946 
 1765000   0.55706992   -7.4015061    360.36854  0.017014567  0.015595219         1031 
 1766000   0.53755895   -7.4077501    361.41264  0.017054201  0.015582101          928 
 1767000   0.55799558   -7.4223504    360.38117  0.016995905  0.015568992         1035 
 1768000   0.54779269   -7.4276975    361.45187  0.017036759  0.015555894         1026 
 1769000   0.53905059    -7.403499    361.04511  0.017007966  0.015542837         1082 
 1770000   0.54093218    -7.440376     360.4768  0.016971601  0.015529782         1053 
 1771000   0.54407315   -7.4181903    360.98041  0.016985715  0.015516732         1092 
 1772000   0.54382448   -7.4126413    360.96809   0.01697555  0.015503682         1065 
 1773000   0.55098822   -7.4324161    360.65878  0.016951438   0.01549065         1029 
 1774000   0.54196945    -7.443654    360.07753  0.016914578  0.015477619         1113 
 1775000   0.53808593   -7.4597863    360.51156  0.016925425   0.01546458          987 
 1776000   0.54036697   -7.4363772    360.33274  0.016907505  0.015451552         1091 
 1777000   0.54631468   -7.4197412    359.95107  0.016880092  0.015438561         1120 
 1778000   0.54240726   -7.4217639    360.85787  0.016913099  0.015425583          961 
 1779000   0.54532771   -7.4235181    360.02396  0.016864529  0.015412611         1107 
 1780000   0.54598008    -7.447214    360.34595  0.016870129  0.015399657         1134 
 1781000   0.53843223   -7.4585407     359.8453  0.016837231  0.015386677         1046 
 1782000   0.54281338   -7.4373281      359.914  0.016830995  0.015373739         1064 
 1783000   0.54515413   -7.4371283    360.48617  0.016848297  0.015360792          998 
 1784000   0.53321519   -7.4538207     360.4388  0.016836641  0.015347875         1093 
 1785000   0.54219566   -7.4326179    360.54095  0.016831977  0.015334963          963 
 1786000   0.53861139   -7.4484153    360.08878  0.016801455  0.015322072         1109 
 1787000   0.53127704    -7.443379    360.62384  0.016817004  0.015309193         1112 
 1788000   0.53610546   -7.4281889    360.54966  0.016804142  0.015296347         1148 
 1789000   0.54126107   -7.4448712    359.45906  0.016743947  0.015283501         1111 
 1790000   0.53685801   -7.4273358    360.02995  0.016761171  0.015270684         1072 
 1791000   0.52885333   -7.4347934    360.49329  0.016773371  0.015257883         1064 
 1792000   0.55007326   -7.4353823    359.87783   0.01673539  0.015245101         1024 
 1793000   0.53911868   -7.4447028    360.64517   0.01676172   0.01523233         1049 
 1794000   0.54607453   -7.4404109    360.67476  0.016753751  0.015219569         1034 
 1795000   0.54223656   -7.4328067    360.37906   0.01673069  0.015206823         1086 
 1796000   0.54220645   -7.4521366    360.16874  0.016711616  0.015194063         1132 
 1797000   0.54362387   -7.4407296    360.16757  0.016702262  0.015181332         1007 
 1798000   0.52253722   -7.4529795    360.69058  0.016717213   0.01516862         1122 
 1799000   0.54469275   -7.4510791    359.95877  0.016674021  0.015155878         1147 
 1800000    0.5390084    -7.448281    360.11929  0.016672189  0.015143156         1198 
 1801000   0.52155313    -7.449666    359.88073  0.016651894  0.015130463         1166 
 1802000   0.53881616   -7.4356179    360.03705  0.016649882  0.015117757         1088 
 1803000   0.53025411    -7.447109    359.13976  0.016599176  0.015105066         1247 
 1804000   0.52812009   -7.4370464    360.09265  0.016633992  0.015092402         1193 
 1805000   0.53100741   -7.4711234    359.64165  0.016603954  0.015079731         1160 
 1806000   0.52773148   -7.4613702    360.36111  0.016627958  0.015067071         1090 
 1807000   0.53522179   -7.4497228    360.02743  0.016603368   0.01505443         1151 
 1808000   0.52576721   -7.4514279    359.85473  0.016586224  0.015041782         1179 
 1809000   0.52279781   -7.4671006    359.43063  0.016557519  0.015029144         1057 
 1810000   0.52902835   -7.4855222    359.49362  0.016551272  0.015016525         1214 
 1811000   0.53440445   -7.4628014    360.12866  0.016571354  0.015003926         1179 
 1812000   0.52799782   -7.4668906    359.78533  0.016546419   0.01499133         1201 
 1813000    0.5274855   -7.4630413     360.8026   0.01658405  0.014978761         1186 
 1814000   0.53819093   -7.4597594    360.15258  0.016545047  0.014966203         1169 
 1815000   0.53258403   -7.4718522    359.58736   0.01650998  0.014953646         1173 
 1816000    0.5387919   -7.4581893    359.73082  0.016507472  0.014941117         1183 
 1817000   0.52112264   -7.4637821    359.78971  0.016501087  0.014928603         1262 
 1818000   0.52467513   -7.4659154    359.45734  0.016476776   0.01491609         1227 
 1819000   0.52283629   -7.4640682    360.05759  0.016495217  0.014903596         1132 
 1820000   0.53656528   -7.4586136    359.86975  0.016477553  0.014891107         1292 
 1821000   0.52106756   -7.4646774    360.05517  0.016476989  0.014878645         1241 
 1822000   0.52010894   -7.4648161    359.89964  0.016460832  0.014866175         1093 
 1823000   0.52365706   -7.4822634    359.52697  0.016434767  0.014853731         1139 
 1824000   0.53323335   -7.4539888    360.30224  0.016461177  0.014841296         1221 
 1825000   0.53177542   -7.4583308    359.81765   0.01643003  0.014828876         1254 
 1826000   0.52559297   -7.4680122    359.18346  0.016392089  0.014816464         1243 
 1827000   0.52568867   -7.4741534    359.61665  0.016402876  0.014804056         1241 
 1828000   0.52752323   -7.4635727    359.96432  0.016409752  0.014791662         1247 
 1829000   0.53064883   -7.4684679    359.52735  0.016380871  0.014779293         1152 
 1830000   0.52750765   -7.4670722    359.56239  0.016373515  0.014766934         1169 
 1831000    0.5308972   -7.4731926    359.42557  0.016358346   0.01475457         1156 
 1832000   0.52243256   -7.4675225    359.44585  0.016350339  0.014742229         1207 
 1833000   0.51142063    -7.469262    359.18475  0.016329548  0.014729892         1286 
 1834000   0.52992464   -7.4754244    359.36304  0.016328746  0.014717576         1172 
 1835000   0.51750485   -7.4758328    359.22378  0.016313523  0.014705274         1282 
 1836000    0.5196805   -7.4588809    359.14517   0.01630107  0.014692973         1197 
 1837000   0.51829183   -7.4771068    359.30932  0.016299643   0.01468068         1260 
 1838000   0.50484276    -7.483433    359.62126  0.016304917  0.014668398         1239 
 1839000   0.50822774   -7.4758339    358.68837  0.016253778  0.014656126         1175 
 1840000   0.51539052   -7.4848247    359.24888   0.01627033  0.014643865         1188 
 1841000   0.51758576   -7.4736206    358.97892  0.016249272  0.014631611         1194 
 1842000   0.52338426   -7.4813921    359.26792  0.016253525  0.014619378         1277 
 1843000   0.51400957    -7.486515    359.59686   0.01625958  0.014607159         1258 
 1844000   0.52375762   -7.4679686    359.81784  0.016260748  0.014594951         1198 
 1845000   0.52564585   -7.4818668    359.27834  0.016227567  0.014582768         1153 
 1846000   0.51275015   -7.4933709    360.04772  0.016253508  0.014570579         1133 
 1847000   0.52509589   -7.4803342    359.79919  0.016233495  0.014558412         1147 
 1848000   0.53120387   -7.4897567    359.37726  0.016205684  0.014546259         1101 
 1849000   0.51581607   -7.4833053    359.32837  0.016194716   0.01453411         1162 
 1850000   0.51194295   -7.4831386     358.9949  0.016170941  0.014521982         1229 
 1851000   0.49656529   -7.4614414    359.35993  0.016178639  0.014509868         1198 
 1852000   0.51630901   -7.4878728    359.08501  0.016157533  0.014497755         1233 
 1853000   0.51797169   -7.4964835    359.24435  0.016155979  0.014485662         1280 
 1854000   0.51679705    -7.475951    358.95796  0.016134392  0.014473552         1183 
 1855000   0.51573546   -7.5002656    358.54129  0.016106976  0.014461473         1263 
 1856000      0.51591    -7.469014    358.71387  0.016106047  0.014449398         1150 
 1857000   0.51610145   -7.4978943    359.33335  0.016125173  0.014437335         1197 
 1858000   0.49874055   -7.4856324    358.81571  0.016093277  0.014425278         1217 
 1859000   0.51103643   -7.5031243    358.65491  0.016077412  0.014413241         1265 
 1860000   0.52484694   -7.4927083    358.40676  0.016057651  0.014401212         1258 
 1861000   0.50854995    -7.503383    359.21851  0.016085371  0.014389215         1216 
 1862000   0.51101161   -7.4839112    359.18265  0.016075128   0.01437722         1141 
 1863000   0.50923883   -7.4867975     358.9269  0.016055059  0.014365222         1235 
 1864000   0.51910832   -7.5147341    358.14109  0.016011315  0.014353236         1191 
 1865000   0.50937925   -7.4957967    358.93544  0.016038223  0.014341271         1310 
 1866000   0.50421543   -7.4750002    358.54576  0.016012226  0.014329304         1306 
 1867000   0.50992227   -7.5006843    358.76625  0.016013491  0.014317367         1321 
 1868000     0.494973   -7.4841121    358.52568  0.015994186  0.014305433         1298 
 1869000   0.49195992   -7.5071011    358.92388  0.016003383   0.01429351         1301 
 1870000   0.51694548   -7.5208298    358.49145  0.015975555  0.014281596         1267 
 1871000   0.50633712   -7.4946316    358.96053  0.015987909  0.014269694         1220 
 1872000   0.51062825   -7.4968697    358.60477  0.015963531  0.014257803         1226 
 1873000   0.50416681   -7.4919874    358.86827  0.015966732  0.014245921         1231 
 1874000   0.50477356   -7.4896416    359.29937  0.015977382  0.014234052         1153 
 1875000     0.490736   -7.4951934    358.58357  0.015937048  0.014222194         1277 
 1876000   0.50547527   -7.5168485    358.49425  0.015924585  0.014210351         1213 
 1877000   0.49846567   -7.5083408    358.90695  0.015934423    0.0141985         1209 
 1878000   0.50881319   -7.5059653    358.51331  0.015908472  0.014186675         1263 
 1879000   0.49656259   -7.5028311     359.4967  0.015943618  0.014174863         1258 
 1880000   0.51114499   -7.5243891    358.57407  0.015894241  0.014163048         1229 
 1881000   0.50158498   -7.5120678     358.8495  0.015897993  0.014151254         1249 
 1882000   0.49574403   -7.5107471    358.05514  0.015854372  0.014139481         1280 
 1883000   0.50078129   -7.5266707    359.05548  0.015890223  0.014127705         1350 
 1884000   0.51418333   -7.5248215    358.26282  0.015846728  0.014115943         1182 
 1885000   0.50779978   -7.5060262    358.69563  0.015857455  0.014104193         1283 
 1886000   0.48972536   -7.5120978     358.6251   0.01584593   0.01409247         1202 
 1887000   0.49411789   -7.5227719    358.31757  0.015823952  0.014080731         1248 
 1888000   0.50423197   -7.5143754    358.35022  0.015817012  0.014069001         1273 
 1889000     0.501959   -7.5276876    359.04124  0.015839123  0.014057293         1277 
 1890000   0.50250935   -7.5149341    357.90376  0.015780589  0.014045596         1260 
 1891000   0.51081061   -7.5142828    358.81565   0.01581243  0.014033914         1294 
 1892000   0.48292513   -7.5049315     358.9009  0.015807827  0.014022249         1350 
 1893000   0.49602014   -7.5188435    358.83537  0.015796591  0.014010602         1317 
 1894000   0.50799201   -7.5155984    358.30064  0.015764724  0.013998962         1281 
 1895000   0.49035749   -7.5241367    358.34332  0.015758281   0.01398734         1316 
 1896000   0.50394345   -7.5150184    358.34525  0.015750055  0.013975741         1400 
 1897000   0.50079214   -7.5223243    359.10866  0.015775288  0.013964138         1340 
 1898000   0.49088677   -7.5274612    357.71301    0.0157057  0.013952538         1187 
 1899000   0.49353103   -7.5241103    358.68384  0.015740031  0.013940959         1250 
 1900000   0.49740264    -7.532283    357.86788   0.01569596  0.013929386         1297 
 1901000   0.49810919    -7.537652    358.10176  0.015697955  0.013917823         1332 
 1902000   0.50160447   -7.5276922     358.6638  0.015714327  0.013906265         1257 
 1903000   0.48735368    -7.523815    357.97704  0.015675996  0.013894718         1300 
 1904000   0.48722673    -7.544112    357.85205  0.015662292  0.013883186         1387 
 1905000   0.50142684   -7.5098973    358.26164  0.015671988  0.013871656         1316 
 1906000   0.49395539   -7.5217768     358.5056  0.015674431  0.013860142         1375 
 1907000   0.48374754   -7.5312851    357.96866  0.015642749  0.013848623         1297 
 1908000   0.49768886   -7.5315931    357.97968  0.015635032   0.01383713         1222 
 1909000     0.493484   -7.5362134    357.96234  0.015626084  0.013825647         1239 
 1910000   0.49590909   -7.5330154    358.26289  0.015631016  0.013814178         1320 
 1911000   0.49216259   -7.5364321    357.98044   0.01561052  0.013802711         1314 
 1912000   0.49562472     -7.52826    358.65168  0.015631611  0.013791253         1330 
 1913000   0.49014627   -7.5483467    357.35649  0.015567019  0.013779803         1316 
 1914000   0.49047663    -7.532263    358.25926  0.015598191  0.013768365         1402 
 1915000    0.4808125    -7.520111    358.57637  0.015603846  0.013756941         1285 
 1916000   0.48196283   -7.5199337    358.20482  0.015579542   0.01374553         1315 
 1917000   0.48553714   -7.5448965    358.25124  0.015573432  0.013734153         1329 
 1918000   0.48628328   -7.5402107    357.97082  0.015553129  0.013722779         1355 
 1919000   0.49608873   -7.5445484    357.95156  0.015544188  0.013711421         1413 
 1920000   0.48985618   -7.5253921    357.77405  0.015528388   0.01370006         1507 
 1921000    0.4883769   -7.5320323    358.34386  0.015545023  0.013688706         1304 
 1922000   0.49820493   -7.5343326    358.57288  0.015546865  0.013677382         1385 
 1923000   0.50553459   -7.5334785    358.38581  0.015530673  0.013666064         1364 
 1924000   0.47899272   -7.5270087    358.42166  0.015524153  0.013654769         1352 
 1925000   0.48977171   -7.5418759    357.87031  0.015492221   0.01364348         1380 
 1926000   0.47535003   -7.5392565    357.97283  0.015488613  0.013632198         1396 
 1927000   0.49527053   -7.5478688    357.73053  0.015470097  0.013620931         1498 
 1928000   0.48804982   -7.5533067    358.15604  0.015480465  0.013609665         1436 
 1929000   0.48257127   -7.5373965    358.09855  0.015469957  0.013598403         1423 
 1930000   0.46981689   -7.5422754    358.60812  0.015483943  0.013587158         1350 
 1931000   0.48773259   -7.5527236    357.58377  0.015431718   0.01357594         1442 
 1932000   0.49181213   -7.5490971    357.86816  0.015435997  0.013564712         1471 
 1933000    0.4720633   -7.5443821    358.10899  0.015438394  0.013553496         1401 
 1934000   0.48633138   -7.5538306    357.87006  0.015420116  0.013542289         1474 
 1935000   0.48739317   -7.5431184    358.08429  0.015421373    0.0135311         1368 
 1936000   0.48732572   -7.5560421    358.00211   0.01540987  0.013519914         1370 
 1937000   0.49317059   -7.5625227      357.794  0.015392962  0.013508736         1457 
 1938000   0.47958382   -7.5481698    357.66018  0.015379265  0.013497578         1456 
 1939000   0.46565741   -7.5718675    357.56698  0.015367328  0.013486432         1535 
 1940000   0.49292644   -7.5603211    357.82026  0.015370286  0.013475297         1443 
 1941000   0.48032409    -7.546691    357.95587   0.01536819   0.01346418         1445 
 1942000     0.463685   -7.5469247    358.28791  0.015374524  0.013453077         1417 
 1943000   0.48537393   -7.5647155    358.39846  0.015371353   0.01344198         1453 
 1944000   0.48133917    -7.548295    357.70989  0.015333929  0.013430893         1462 
 1945000   0.48118938   -7.5469285    358.22654  0.015348181  0.013419816         1490 
 1946000    0.4693339   -7.5510963    357.00361  0.015287924  0.013408748         1443 
 1947000   0.47514797   -7.5640039    357.96234  0.015321107  0.013397691         1350 
 1948000   0.47308115   -7.5483522      357.657   0.01530018  0.013386638         1409 
 1949000   0.47650355   -7.5607233    357.84599   0.01530041  0.013375599         1388 
 1950000   0.47780311   -7.5510229    357.95577  0.015297255  0.013364562         1429 
 1951000   0.47181336   -7.5712985    357.33746  0.015263004  0.013353543         1473 
 1952000   0.47304409   -7.5679315    357.65185  0.015268607   0.01334253         1432 
 1953000    0.4786477   -7.5691943    357.73271  0.015264239  0.013331543         1436 
 1954000   0.46497402   -7.5576178    357.40152  0.015242303   0.01332055         1531 
 1955000   0.46795468   -7.5575791    357.91654   0.01525646  0.013309567         1502 
 1956000   0.47568294   -7.5508681    357.13524  0.015215373  0.013298603         1451 
 1957000   0.47702786   -7.5708442    357.64161  0.015229161  0.013287655         1406 
 1958000   0.47427458   -7.5593086    357.42372  0.015212109    0.0132767         1387 
 1959000   0.48307709   -7.5633072    357.55756  0.015210037  0.013265764         1439 
 1960000   0.47244035   -7.5514296    357.48318  0.015199115  0.013254837         1427 
 1961000   0.47379966   -7.5694108    357.47504  0.015191018  0.013243922         1414 
 1962000   0.46951751   -7.5669129    357.01577  0.015163769  0.013233017         1387 
 1963000   0.48018557   -7.5813074    357.45482  0.015174683  0.013222125         1406 
 1964000   0.46245526   -7.5523714    357.62545  0.015174196  0.013211247         1260 
 1965000   0.46828193   -7.5802169    357.16056  0.015146758  0.013200368         1384 
 1966000   0.47334942   -7.5681694    357.32509  0.015146028   0.01318951         1412 
 1967000   0.47222109   -7.5593561    357.75002   0.01515633   0.01317866         1435 
 1968000    0.4707144   -7.5562897    357.42833  0.015135007  0.013167819         1432 
 1969000   0.46722146   -7.5711851    357.55309  0.015132601  0.013156996         1463 
 1970000   0.47255742   -7.5685167    357.72352  0.015132129  0.013146172         1358 
 1971000   0.47113634   -7.5711224    356.91229  0.015090153  0.013135366         1398 
 1972000   0.46887957   -7.5671863    357.46431  0.015105828  0.013124577         1369 
 1973000   0.47034775   -7.5863428    357.11333  0.015083347  0.013113796         1373 
 1974000   0.47140209   -7.5631874    357.34541  0.015085504  0.013103016         1328 
 1975000   0.46708435   -7.5872467    357.40895  0.015080546  0.013092262         1443 
 1976000   0.45857838   -7.5761991    357.29659  0.015068176  0.013081515         1354 
 1977000   0.45536114   -7.5792654    357.13287  0.015053653  0.013070784         1367 
 1978000   0.46107158   -7.5884977    357.29949  0.015053062   0.01306006         1424 
 1979000   0.46901897    -7.586561    357.03057  0.015034132  0.013049353         1432 
 1980000   0.45256194   -7.5796118      356.906  0.015021296  0.013038644         1424 
 1981000   0.45840491   -7.5824572    357.05806   0.01502011  0.013027933         1469 
 1982000   0.45654796   -7.5876723    357.18409  0.015017831  0.013017239         1460 
 1983000   0.47052308   -7.5957376    357.19364  0.015010659  0.013006563         1455 
 1984000   0.45621586   -7.5887354    357.34674  0.015009524  0.012995896         1559 
 1985000   0.46815985   -7.5750389    356.76439  0.014977514  0.012985241         1483 
 1986000    0.4589924   -7.5934853    357.17923  0.014987379  0.012974589         1396 
 1987000    0.4660675   -7.5807301    357.20384  0.014980869  0.012963948         1433 
 1988000   0.46522185     -7.58987    357.17024  0.014971925  0.012953326         1484 
 1989000   0.44589744   -7.5919676    357.04264  0.014959052   0.01294271         1536 
 1990000   0.46826858   -7.5846105    356.97452  0.014948682  0.012932101         1536 
 1991000   0.45753562   -7.5809551    357.12002  0.014947263  0.012921516         1542 
 1992000   0.45662403   -7.5827808    357.30402  0.014947457  0.012910929         1463 
 1993000   0.46064925   -7.5886206    356.78201  0.014918131   0.01290036         1472 
 1994000   0.45518751   -7.5876137    357.16708  0.014926742  0.012889807         1500 
 1995000   0.46366209   -7.6086579    356.97357  0.014911177  0.012879249         1425 
 1996000    0.4597414   -7.5984442     356.9351    0.0149021  0.012868704         1445 
 1997000   0.44899072   -7.6002368    356.65313  0.014882871   0.01285817         1474 
 1998000   0.45639718   -7.5982014    356.84856  0.014883573  0.012847652         1522 
 1999000    0.4556308   -7.5907058    357.08798  0.014886109  0.012837146         1575 
 2000000   0.45930862   -7.5983233    356.83464   0.01486811  0.012826646         1514 
 2001000   0.45420667     -7.58856    356.60423  0.014851084  0.012816154         1493 
 2002000   0.45438191   -7.5883665    357.24451  0.014870317   0.01280568         1464 
 2003000   0.44522929   -7.5783145     357.1733  0.014859931  0.012795215         1404 
 2004000   0.45312412   -7.5948637    357.05275  0.014847503  0.012784778         1373 
 2005000    0.4502406   -7.5842547    356.67574  0.014824428  0.012774339         1433 
 2006000   0.44938292   -7.5912456    357.00992  0.014830921  0.012763918         1421 
 2007000   0.44340156   -7.6058926    356.91611  0.014819636  0.012753507         1452 
 2008000   0.45316625   -7.5857064    356.98287  0.014815026  0.012743087         1472 
 2009000   0.44748453    -7.591655    357.57825  0.014832348  0.012732688         1419 
 2010000   0.44897221   -7.5941599     356.6423  0.014786165  0.012722299         1401 
 2011000   0.45040815   -7.5803756    356.88293  0.014788784  0.012711929         1430 
 2012000   0.45592055   -7.6025863    357.14182  0.014792156  0.012701575         1504 
Loop time of 5199.15 on 48 procs for 2000000 steps with 4000 atoms

Performance: 66472.356 tau/day, 384.678 timesteps/s
99.4% CPU use with 48 MPI tasks x no OpenMP threads

MPI task timing breakdown:
Section |  min time  |  avg time  |  max time  |%varavg| %total
---------------------------------------------------------------
Pair    | 371.31     | 396.91     | 427.14     |  66.3 |  7.63
Neigh   | 36.078     | 37.823     | 39.383     |  13.8 |  0.73
Comm    | 328.46     | 356.89     | 382.97     |  71.2 |  6.86
Output  | 5.3179     | 5.3199     | 5.3687     |   0.3 |  0.10
Modify  | 4341.3     | 4355.8     | 4368.2     |   8.8 | 83.78
Other   |            | 46.45      |            |       |  0.89

Nlocal:        83.3333 ave          90 max          78 min
Histogram: 4 7 3 6 8 8 3 4 0 5
Nghost:        2410.56 ave        2434 max        2393 min
Histogram: 2 8 5 6 10 7 5 1 2 2
Neighs:        16754.1 ave       19594 max       14660 min
Histogram: 4 7 6 10 3 4 6 1 6 1
FullNghs:      33506.0 ave       36516 max       31184 min
Histogram: 4 6 4 8 7 8 4 2 3 2

Total # of neighbors = 1608287
Ave neighs/atom = 402.07175
Neighbor list builds = 106923
Dangerous builds = 0

#clear
#
#next RN
#
#jump SELF
Total wall time: 1:26:42
