
units lj                  # Use reduced LJ style units
atom_style atomic         # Uncharged point particles
atom_modify map hash      # Needed for indexing of clusters etc
                          # Used to be able to find where atoms are in relation to each other.

lattice fcc 1.0 spacing 1 1 1
Lattice spacing in x,y,z = 1.5874011 1.5874011 1.5874011
region box block 0 10 0 10 0 10 units lattice
create_box 2 box
Created orthogonal box = (0.0000000 0.0000000 0.0000000) to (15.874011 15.874011 15.874011)
  3 by 4 by 4 MPI processor grid
create_atoms 1 box
Created 4000 atoms
  using lattice units in orthogonal box = (0.0000000 0.0000000 0.0000000) to (15.874011 15.874011 15.874011)
  create_atoms CPU = 0.003 seconds
set type 1 type/fraction 2 0.98 78393
Setting atom values ...
  3920 settings made for type/fraction
mass 1 1.0
mass 2 1.0
pair_style lj/cut  3.5
pair_modify tail  yes
pair_coeff 1  1  1.0  1.0   # Intearaction between 1 and 1 set with epsilon = 1 and sigma = 1
pair_coeff 1  2  1.5  0.8
pair_coeff 2  2  0.5  0.88

write_data data.0
System init for write_data ...
Neighbor list info ...
  update every 1 steps, delay 10 steps, check yes
  max neighbors/atom: 2000, page size: 100000
  master list distance cutoff = 3.8
  ghost atom cutoff = 3.8
  binsize = 1.9, bins = 9 9 9
  1 neighbor lists, perpetual/occasional/extra = 1 0 0
  (1) pair lj/cut, perpetual
      attributes: half, newton on
      pair build: half/bin/atomonly/newton
      stencil: half/bin/3d
      bin: standard
WARNING: Not all mixed pair coeffs generated from mixing. Use write_data with 'pair ij' option to store all pair coeffs. (../write_data.cpp:312)


#############################
#   M E L T   S Y S T E M   #
#############################

velocity all create 2.4 2750902 mom yes dist gaussian # Assign velocities
                                                    # Temperature 2.4, random number seed, zero linear momentum
                                                                                # Gaussian distribution

timestep 0.002   # simulation timestep
thermo 1000       # output thermodynamic data every 1000 steps bf 100

# Define a fix  in this case with index 1 applied to all
# particles in the simulation. This fix is for simulations
# in the anisotropic NPT ensemble. Note that we use the MTK
# correction.
fix 1 all npt temp 2.4 2.4 0.1 iso 5.68 5.68 0.5 mtk yes tchain 5 pchain 5 # Use NPT ensemble
                                                                         # Set temperature and pressure and damping
                                                                         # Numbers of thermostats in chain and in barostat
run 10000          # run for 10000 steps
Per MPI rank memory allocation (min/avg/max) = 3.642 | 3.644 | 3.648 Mbytes
Step Temp E_pair E_mol TotEng Press Volume 
       0          2.4   -2.7962588            0   0.80284124   -1.8826162         4000 
    1000    2.3699945   -1.5479855            0    2.0061175     5.608038    4264.0848 
    2000    2.4056889   -1.5987838            0    2.0088474    5.7236916    4188.9666 
    3000     2.361991   -1.5212244            0    2.0208764    5.8383883    4237.2709 
    4000    2.3750122   -1.5464343            0    2.0151933     5.760066    4233.9254 
    5000    2.3973992    -1.587786            0    2.0074137    5.5721003    4235.6406 
    6000    2.3912835   -1.5935401            0    1.9924885    5.6554722     4206.426 
    7000    2.4424284   -1.5429491            0    2.1197776    5.7881239    4252.6959 
    8000    2.3940685   -1.6147168            0    1.9754881    5.5987402    4194.4534 
    9000    2.3936709   -1.5682391            0    2.0213696     5.730053    4227.9865 
   10000    2.3725876   -1.5993938            0    1.9585979    5.7376732    4186.8666 
Loop time of 2.34119 on 48 procs for 10000 steps with 4000 atoms

Performance: 738087.428 tau/day, 4271.339 timesteps/s
99.7% CPU use with 48 MPI tasks x no OpenMP threads

MPI task timing breakdown:
Section |  min time  |  avg time  |  max time  |%varavg| %total
---------------------------------------------------------------
Pair    | 1.0386     | 1.0897     | 1.1559     |   2.8 | 46.55
Neigh   | 0.20243    | 0.21055    | 0.22471    |   0.8 |  8.99
Comm    | 0.72138    | 0.79582    | 0.87097    |   3.8 | 33.99
Output  | 0.00023869 | 0.00024272 | 0.00030797 |   0.0 |  0.01
Modify  | 0.2082     | 0.2303     | 0.25728    |   3.4 |  9.84
Other   |            | 0.01456    |            |       |  0.62

Nlocal:        83.3333 ave          91 max          74 min
Histogram: 1 2 7 4 6 9 3 6 5 5
Nghost:        1596.69 ave        1624 max        1564 min
Histogram: 1 3 4 6 4 9 8 7 2 4
Neighs:        9123.77 ave       10180 max        8124 min
Histogram: 3 4 5 6 6 10 4 4 1 5

Total # of neighbors = 437941
Ave neighs/atom = 109.48525
Neighbor list builds = 913
Dangerous builds = 238

# Equilibrate just above the melting temperature to avoid step fn in T

fix 1 all npt temp 1.25 1.25 0.1 iso 5.68 5.68 0.5 mtk yes tchain 5 pchain 5
run 2000
Per MPI rank memory allocation (min/avg/max) = 3.643 | 3.645 | 3.649 Mbytes
Step Temp E_pair E_mol TotEng Press Volume 
   10000    2.3725876   -1.5993938            0    1.9585979    5.7376732    4186.8666 
   11000    1.2675786   -2.4474136            0  -0.54652109    5.5652589    3300.8758 
   12000    1.2666472   -2.4609996            0  -0.56150372    5.5080857     3292.899 
Loop time of 0.569709 on 48 procs for 2000 steps with 4000 atoms

Performance: 606625.952 tau/day, 3510.567 timesteps/s
99.6% CPU use with 48 MPI tasks x no OpenMP threads

MPI task timing breakdown:
Section |  min time  |  avg time  |  max time  |%varavg| %total
---------------------------------------------------------------
Pair    | 0.25397    | 0.27251    | 0.29508    |   1.7 | 47.83
Neigh   | 0.039415   | 0.040715   | 0.043909   |   0.4 |  7.15
Comm    | 0.18343    | 0.20768    | 0.22991    |   2.2 | 36.45
Output  | 4.9722e-05 | 5.1546e-05 | 6.697e-05  |   0.0 |  0.01
Modify  | 0.041065   | 0.044276   | 0.050538   |   1.0 |  7.77
Other   |            | 0.004472   |            |       |  0.78

Nlocal:        83.3333 ave          93 max          76 min
Histogram: 2 7 7 3 12 7 3 4 2 1
Nghost:        1875.62 ave        1898 max        1850 min
Histogram: 1 4 2 6 5 9 12 5 2 2
Neighs:        11599.4 ave       13335 max       10321 min
Histogram: 3 6 5 11 6 9 2 2 1 3

Total # of neighbors = 556770
Ave neighs/atom = 139.19250
Neighbor list builds = 146
Dangerous builds = 15

#############################
# L I N E A R  Q U E N C H  #
#############################

# Define solid atoms. This closely follows ten Wolde  Ruiz-Montero and Frenkel  Faraday Discuss  1996  104  93-110
# Compute components of the per-atom q6 vector
compute q6 all orientorder/atom degrees 1 6 components 6 nnn NULL cutoff 1.3 # compute the Q6 parameter.
                                                                             # Use all neighbours within 1.3 unit cell.

# get number of connections
compute coord_number all coord/atom orientorder q6 0.5

# An atom is solid if it has 8 or more connections (of a possible 14)
variable is_solid atom c_coord_number>=8
group solid dynamic all var is_solid    # Must be dynamic to update
dynamic group solid defined

# do clustering
compute cluster solid cluster/atom 1.3 # Create a cluster where all atoms within are solid and max 1.3 units from another member

# define chunks one chunk per cluster
compute clus_chunks solid chunk/atom c_cluster nchunk every compress yes  # Says which atoms are in which chunk

# count the size of each chunk
compute size_chunks solid property/chunk clus_chunks count


# Find the maximum entry in the vector of chunk sizes
variable max_n equal max(c_size_chunks)


# Thermo style which includes this variable
# thermo_style custom step temp pe vol v_max_n

thermo ${N}  # Print the thermo information every 100 steps
thermo 1000  

# Reset the npt fix at a lower temperature (below freezing)
fix 1  all npt temp  ${temp} ${temp}  0.1  iso  5.68  5.68  0.5  mtk yes tchain  5  pchain  5
fix 1  all npt temp  0.45 ${temp}  0.1  iso  5.68  5.68  0.5  mtk yes tchain  5  pchain  5
fix 1  all npt temp  0.45 0.45  0.1  iso  5.68  5.68  0.5  mtk yes tchain  5  pchain  5

dump dmp2 all dcd ${N} traj.dcd
dump dmp2 all dcd 1000 traj.dcd


compute msd all msd com yes
variable twopoint equal c_msd[4]/6/(step*dt+1.0e-6)
fix 9 all vector 10 c_msd[4]
variable fit equal slope(f_9)/6/(10*dt)
thermo_style custom step temp pe c_msd[4] v_twopoint v_fit v_max_n

fix 1 all npt temp 1.25 ${temp} 0.1 iso 5.68 5.68 0.5 mtk yes tchain 5 pchain 5
fix 1 all npt temp 1.25 0.45 0.1 iso 5.68 5.68 0.5 mtk yes tchain 5 pchain 5
run 5000000 # 5000000  # Run for this many steps
Neighbor list info ...
  update every 1 steps, delay 10 steps, check yes
  max neighbors/atom: 2000, page size: 100000
  master list distance cutoff = 3.8
  ghost atom cutoff = 3.8
  binsize = 1.9, bins = 8 8 8
  4 neighbor lists, perpetual/occasional/extra = 1 3 0
  (1) pair lj/cut, perpetual
      attributes: half, newton on
      pair build: half/bin/atomonly/newton
      stencil: half/bin/3d
      bin: standard
  (2) compute orientorder/atom, occasional
      attributes: full, newton on
      pair build: full/bin/atomonly
      stencil: full/bin/3d
      bin: standard
  (3) compute coord/atom, occasional
      attributes: full, newton on
      pair build: full/bin/atomonly
      stencil: full/bin/3d
      bin: standard
  (4) compute cluster/atom, occasional
      attributes: full, newton on
      pair build: full/bin/atomonly
      stencil: full/bin/3d
      bin: standard
Per MPI rank memory allocation (min/avg/max) = 9.814 | 9.818 | 9.822 Mbytes
Step Temp PotEng c_msd[4] v_twopoint v_fit v_max_n 
   12000    1.2666472   -2.4609996 1.8987882e-30 1.3186029e-32 8.3333333e+20       -1e+20 
   13000    1.2620571   -2.4202353     1.158966 0.0074292691  0.098242754            2 
   14000    1.2561432   -2.4233298    2.5300717   0.01505995   0.10655031            3 
   15000    1.2661389    -2.437975    3.8928308  0.021626837   0.11129636            2 
   16000    1.2692345   -2.4443295    5.2488155   0.02733758   0.11231063            2 
   17000     1.252159   -2.4455706    6.5377519  0.032047803   0.11216264            3 
   18000    1.2334436   -2.4564223    7.7463572  0.035862764   0.11093186            2 
   19000    1.2723533   -2.4476191     9.115079  0.039978416   0.11015283            1 
   20000    1.2352436   -2.4398894    10.461021  0.043587585   0.11016559            2 
   21000     1.257211   -2.4529761    11.726501  0.046533733   0.10984559            2 
   22000    1.2457012   -2.4430495    13.036245  0.049379714   0.10958998            3 
   23000    1.2381266   -2.4339278    14.246824  0.051618925   0.10913351            2 
   24000     1.238273    -2.409902    15.763529  0.054734473   0.10900019            2 
   25000    1.2723287   -2.4445477    17.197475  0.057324915   0.10939625            2 
   26000    1.2325341   -2.4380435    18.673578   0.05985121   0.11001231            1 
   27000    1.2048443   -2.4391904    19.959157  0.061602335    0.1103882            1 
   28000    1.2543189   -2.4606469    21.363901  0.063583038    0.1108371            1 
   29000     1.226531   -2.4552086    22.710515  0.065260101   0.11127558            1 
   30000    1.2316015   -2.4615948    23.966369  0.066573246   0.11152409            1 
   31000    1.2264216   -2.4464653    25.204983  0.067755329   0.11166637            1 
   32000    1.2556732   -2.4372454    26.306241  0.068505834   0.11151384            2 
   33000    1.2388774   -2.4592322    27.635271  0.069786037   0.11128168            1 
   34000    1.2546722   -2.4527792    29.018382  0.071123483   0.11108721            2 
   35000    1.2468953    -2.444293    30.305323  0.072155529   0.11090151            1 
   36000    1.2471884   -2.4500281    31.794347  0.073598025   0.11086389            2 
   37000    1.2653698   -2.4550725    32.890163  0.074076942   0.11076639            1 
   38000    1.2775086   -2.4173412    34.311476  0.075244464   0.11068332            1 
   39000    1.2547572   -2.4492085    35.725153  0.076335796   0.11062047            1 
   40000     1.234794   -2.4348758    36.822477  0.076713492   0.11059717            1 
   41000    1.2595753    -2.456492    38.088285  0.077415212    0.1104682            1 
   42000    1.2550542   -2.4614683     39.25652  0.077889919   0.11036582            3 
   43000    1.2284836   -2.4481838     40.53509  0.078556375   0.11022766            3 
   44000    1.2392358   -2.4443178    41.857944  0.079276409   0.11004123            3 
   45000    1.2475917   -2.4311531    43.193966  0.079988824   0.10983389            2 
   46000    1.2274199   -2.4527335    44.195871  0.080064982    0.1096668            2 
   47000    1.2299091   -2.4485725    45.803954  0.081212683   0.10954656            1 
   48000     1.262486   -2.4350512    47.260727  0.082049873   0.10945407            4 
   49000    1.2232904   -2.4283826    48.711777  0.082843158   0.10940821            1 
   50000    1.2405673   -2.4665127    49.471558  0.082452596   0.10932507            1 
   51000    1.2588511   -2.4245444    50.926241  0.083212811    0.1092659            1 
   52000    1.2536421   -2.4509116    52.217838  0.083682432   0.10922213            1 
   53000     1.251552   -2.4424362     53.56914  0.084228207   0.10915962            2 
   54000     1.266199    -2.435753    55.054733  0.084961008   0.10918012            1 
   55000    1.2469569   -2.4606016    56.359572  0.085393289   0.10918848            2 
   56000    1.2356063   -2.4506726    57.341528  0.085329655   0.10915989            2 
   57000    1.2398956    -2.432422    58.990164  0.086242928   0.10913981            1 
   58000    1.2490455   -2.4414642    60.185837  0.086473902    0.1090872            2 
   59000    1.2319126   -2.4512058    61.236928  0.086492836   0.10901722            1 
   60000    1.2598602   -2.4322848    62.589733  0.086930184   0.10896348            3 
   61000    1.2123519   -2.4577276    63.965692  0.087384824    0.1089077            2 
   62000    1.2549493   -2.4400337    65.051028  0.087434177   0.10886152            2 
   63000    1.2515692   -2.4400619    66.169255  0.087525469   0.10878206            1 
   64000    1.2401848   -2.4320168    67.176993  0.087470043   0.10868662            1 
   65000    1.2241503   -2.4348765    68.682909  0.088055011   0.10859126            2 
   66000    1.2571939   -2.4416165    70.175331  0.088605216   0.10851487            2 
   67000    1.2299426   -2.4465156    71.186949   0.08854098   0.10844624       -1e+20 
   68000    1.2392975   -2.4398618    72.998765   0.08945927   0.10839103            2 
   69000    1.2313159   -2.4352178    74.004225  0.089377083   0.10833891            1 
   70000      1.22871   -2.4806599    75.237448   0.08956839   0.10829964            3 
   71000    1.2310253   -2.4730254    76.883755  0.090239149   0.10828712            1 
   72000    1.2312116   -2.4459283    78.325563  0.090654586   0.10827859            2 
   73000    1.2564332   -2.4345018    79.431486  0.090675212    0.1082785            1 
   74000    1.2533964   -2.4914031    81.324519  0.091581665   0.10833521            1 
   75000    1.2581045   -2.4338606    82.532679  0.091702976   0.10839297            2 
   76000    1.2151792   -2.4743545    83.694323  0.091770091   0.10844306            4 
   77000    1.1888922   -2.4543353    85.525499  0.092560063   0.10849495            2 
   78000    1.2032501   -2.4440128    86.394796  0.092302132   0.10855166            1 
   79000    1.2217332    -2.413242    87.660683  0.092469074   0.10860132            2 
   80000    1.2529535   -2.4220394    88.872992  0.092576033   0.10861417            1 
   81000    1.2538748    -2.455785    90.438221  0.093043437   0.10863388            4 
   82000    1.2297223   -2.4911068    91.508667  0.092996612    0.1086549            1 
   83000    1.2590822   -2.4607897    93.476604  0.093852011   0.10868732            1 
   84000    1.2154401    -2.461869    94.543625  0.093793278    0.1087273            2 
   85000    1.2333133   -2.4508948    95.758163  0.093880551   0.10877153            2 
   86000    1.2369825   -2.4795468    96.774059  0.093773313   0.10878688            2 
   87000    1.2448974   -2.4499212    97.045255  0.092955224    0.1087542            1 
   88000    1.2301365   -2.4429328    98.652549  0.093420974   0.10869704            1 
   89000    1.2393843   -2.4669414    99.793221  0.093439345   0.10864148            2 
   90000    1.2696308   -2.4621877    100.86249   0.09339119   0.10858265            2 
   91000    1.2087253   -2.4421744     102.8338  0.094170144   0.10854483            1 
   92000    1.2261157   -2.4765175    103.83945  0.094057469   0.10851755            2 
   93000    1.2371604     -2.44971    105.27672  0.094333982   0.10847975            1 
   94000    1.2508269   -2.4365577    106.98232  0.094842482   0.10845991            1 
   95000    1.2543711   -2.4577537    107.62014  0.094403633    0.1084417            1 
   96000    1.2384683   -2.4857069    110.16184  0.095626597   0.10843957            1 
   97000    1.2194269   -2.4385938     111.1279  0.095470707    0.1084392            1 
   98000    1.2362682   -2.4752106    112.25052  0.095451121   0.10844222            1 
   99000    1.2522875   -2.4367915    113.18045  0.095269736   0.10842835            1 
  100000    1.2430871   -2.4558382    114.69417  0.095578476   0.10843098            1 
  101000    1.2623357   -2.4568134    115.88209  0.095612283   0.10841917            2 
  102000    1.2282472   -2.4830786    116.35097   0.09505798   0.10839658            2 
  103000    1.2040716   -2.4344109    118.42785  0.095815412   0.10837978            2 
  104000    1.2132512    -2.439004    119.08001  0.095416676   0.10834937            2 
  105000    1.2324412   -2.4526331    120.40574   0.09556011   0.10829058            1 
  106000    1.2602111   -2.4497089    120.85403  0.095011028   0.10821685            1 
  107000    1.2228746   -2.4695989    122.72464  0.095579936    0.1081362            2 
  108000    1.2308854   -2.4648711    123.81985  0.095540004   0.10806576            2 
  109000    1.2055575   -2.4435904    125.69654  0.096098272   0.10802039            1 
  110000    1.2700232   -2.4396582    126.60015  0.095909207   0.10797281            2 
  111000    1.2246058   -2.4583235    128.34783  0.096357231   0.10794255            1 
  112000     1.240425    -2.452981    129.00652  0.095986996   0.10791467            1 
  113000    1.2219836   -2.4875061    130.79714  0.096458071   0.10787521            1 
  114000    1.2672565   -2.4585702    131.80743   0.09635046   0.10782786            1 
  115000    1.2683675    -2.484364    131.71687  0.095447006   0.10777723            2 
  116000    1.2358115   -2.4408751    133.33984  0.095790114   0.10770541            2 
  117000    1.2081815   -2.4784003    135.15527  0.096264437   0.10763851            1 
  118000     1.225556   -2.4531589    135.63475  0.095787256    0.1075736            2 
  119000    1.2201034   -2.4590588    136.64185  0.095687566     0.107476            1 
  120000    1.2408861   -2.4263086    138.25187  0.096008241   0.10738573            1 
  121000    1.2521252   -2.4509454    138.47538  0.095368717   0.10729594            1 
  122000    1.2277689   -2.4626754    139.71603  0.095434445   0.10720303            1 
  123000      1.23132   -2.4784358    141.12629  0.095614019    0.1071099            1 
  124000    1.2213784   -2.4545331    143.28917  0.096296487    0.1070354            1 
  125000    1.2379036   -2.4310042     145.1651  0.096776731   0.10697727            1 
  126000    1.2254096   -2.4299601    145.58436  0.096285954   0.10692298            1 
  127000    1.2278523   -2.4427777    147.22791  0.096606242   0.10688084            1 
  128000    1.2292409   -2.4700551    149.45408  0.097300831   0.10683707            1 
  129000    1.2238058    -2.462072    150.88479  0.097470793   0.10681992            1 
  130000    1.2118505   -2.4670643    152.21583  0.097574247   0.10681994            3 
  131000    1.2289047   -2.4631286    154.13729  0.098051714   0.10683909            2 
  132000    1.2452847   -2.4553667    155.56652   0.09821119   0.10685853            2 
  133000    1.2380076   -2.4516035    156.66492  0.098160979   0.10688768            1 
  134000    1.2248343   -2.4395162    158.23832  0.098406913   0.10691381            2 
  135000    1.2222652   -2.4464118    160.44123  0.099037794    0.1069462            3 
  136000    1.2188884   -2.4529943    161.44226  0.098922953   0.10697669            2 
  137000    1.2103221   -2.4581323     161.8838  0.098469462   0.10701264            2 
  138000    1.2229463   -2.4698228    163.56771  0.098772774    0.1070326            6 
  139000    1.2289579   -2.4567295    164.74265  0.098766574    0.1070446            1 
  140000     1.239022   -2.4743771    165.29124  0.098387645   0.10705683            2 
  141000    1.1919307    -2.443424    166.80325  0.098583483   0.10706775            1 
  142000    1.2356704   -2.4648294    168.23873  0.098731649   0.10707531            1 
  143000    1.2576811   -2.4368641    169.29924  0.098659231   0.10707773            1 
  144000    1.2041385   -2.4774505    169.39683  0.098030575   0.10707496            3 
  145000    1.2178398   -2.4616775    171.79263  0.098731395    0.1070704            1 
  146000    1.2537386   -2.4457051    172.98685  0.098736785   0.10706798            1 
  147000    1.2268976   -2.4400676     174.7376  0.099057596   0.10708458            1 
  148000    1.2337006    -2.446168    175.44388  0.098785968    0.1070934            3 
  149000    1.2279267   -2.4824802    176.22738  0.098561175   0.10709769            1 
  150000    1.2340768   -2.4379684    178.18672  0.098992621   0.10709307            1 
  151000    1.2020852    -2.453003    179.74447  0.099196728   0.10709456            1 
  152000    1.2251026   -2.4603309    181.77945  0.099659784   0.10711503            1 
  153000    1.2394802   -2.4762256    183.10413  0.099729917   0.10714061            2 
  154000    1.2114773   -2.4996417    183.81909  0.099469202   0.10715867            3 
  155000    1.2335632   -2.4713725    184.87593  0.099395661   0.10716456            3 
  156000    1.2142636   -2.4679602     186.3276  0.099533972   0.10717413            3 
  157000    1.2423582   -2.4775636    189.12432   0.10038446   0.10719689            1 
  158000    1.2324464   -2.4645247    189.40832  0.099898904   0.10722434            1 
  159000    1.2303837   -2.4888728    190.39911   0.09978989   0.10724238            2 
  160000    1.2230717   -2.4441118    192.37413   0.10019486   0.10725905            2 
  161000    1.2279926    -2.435287    192.68609  0.099733998   0.10727166            1 
  162000    1.2007037   -2.4538074    194.21555  0.099905117   0.10728173            1 
  163000    1.2053076   -2.4618553    195.81206   0.10010841   0.10730384            1 
  164000    1.2247041   -2.4687275    198.08832   0.10065464   0.10733508            1 
  165000    1.2142767   -2.4781942    199.36759    0.1006907   0.10736213            1 
  166000    1.2293909   -2.4790003    199.82409    0.1003133   0.10738482            3 
  167000    1.2321993   -2.4266435    201.76556   0.10068142   0.10740216            1 
  168000    1.2029804   -2.4524195    202.07528   0.10023575    0.1074139            1 
  169000    1.2084939   -2.4772167    203.83677   0.10051123   0.10742893            1 
  170000    1.2318433   -2.4642791    205.41602   0.10069413    0.1074499            1 
  171000    1.2087598   -2.4874798    206.91666   0.10083658   0.10747501            1 
  172000     1.210775   -2.4469863    208.78463   0.10115534   0.10749846            1 
  173000       1.2315   -2.4951978    208.17935   0.10027907   0.10752197            2 
  174000    1.2353852   -2.4734971    210.57426   0.10084974    0.1075371            1 
  175000    1.2289792   -2.4728795    211.38726    0.1006606   0.10755006            2 
  176000    1.2142675   -2.4745046    211.39732   0.10009343   0.10754889            2 
  177000    1.2198891   -2.4648733    212.30391  0.099954762   0.10755034            1 
  178000    1.2006397   -2.4473925    215.63581    0.1009531   0.10754663            2 
  179000    1.2215902   -2.4788137    216.07531   0.10059372    0.1075468            4 
  180000    1.2293273   -2.4674922    215.89738  0.099952491   0.10754154            1 
  181000    1.2357311   -2.4555538    217.26232   0.10002869   0.10752999            1 
  182000    1.2277629   -2.4733911    217.68871  0.099674317   0.10751877            1 
  183000    1.2039639   -2.4406888    220.92157   0.10060181   0.10750263            1 
  184000    1.2264452   -2.4615973    221.05252   0.10011436   0.10748475            4 
  185000    1.2500863   -2.4670115    222.46802   0.10021082   0.10746782            2 
  186000    1.2245329   -2.4414592     223.6969   0.10022262    0.1074582            4 
  187000     1.206336   -2.4747218     225.2186   0.10036479   0.10744753            3 
  188000    1.2415193   -2.4685976    226.47179   0.10038643   0.10743613            1 
  189000    1.2043284   -2.4499953    228.16849   0.10060339   0.10742323            1 
  190000    1.2254652   -2.4509627     230.3055   0.10101119   0.10741648            2 
  191000    1.2216764   -2.4557803     229.6541   0.10019812    0.1074029            2 
  192000    1.2059606   -2.4742902    230.37814  0.099990511   0.10737994            1 
  193000    1.2154501   -2.4721583    232.85615   0.10054238   0.10735492            2 
  194000    1.1960884    -2.448847    233.10213   0.10012978   0.10733158            1 
  195000    1.1967164   -2.4729646    234.01847   0.10000789   0.10730969            2 
  196000    1.2292336   -2.4859127    236.73164   0.10065121   0.10728903            1 
  197000    1.2062937   -2.4689785    237.41942   0.10043122   0.10726577            2 
  198000    1.2259973    -2.446794     238.7234   0.10047281   0.10724545            1 
  199000    1.2133952   -2.4924093    239.14783   0.10014566   0.10721716            2 
  200000    1.2177028    -2.468235    239.19531  0.099664714   0.10718716            1 
  201000    1.2159861   -2.5061092    241.80475   0.10025072   0.10715643            2 
  202000    1.2485489   -2.4816255    241.48692  0.099623319   0.10711661            2 
  203000    1.2264954   -2.4735457    243.56153  0.099984207   0.10707098            2 
  204000    1.1927566   -2.4702395    244.64344  0.099936044   0.10702641            2 
  205000    1.2066506   -2.4541534    245.38838  0.099751372   0.10698012            3 
  206000    1.2349503   -2.4725267    248.00735    0.1003266   0.10693608            1 
  207000    1.1943906   -2.4895462    247.77316  0.099747648    0.1068938            1 
  208000    1.2005156   -2.4612577    249.12414  0.099809351   0.10684977            1 
  209000    1.2272039   -2.4704568    250.90298   0.10004106   0.10680552            2 
  210000     1.228956   -2.4932562    250.87696  0.099554349   0.10675825            1 
  211000    1.2184569   -2.4650669    252.38375  0.099677626   0.10670977            2 
  212000    1.2313484   -2.4612304    252.34611  0.099192654   0.10665354            2 
  213000    1.2062514   -2.4614066     252.9782  0.098974257   0.10659418            2 
  214000    1.2085081   -2.4738238    253.92325  0.098879771   0.10653206            2 
  215000    1.2126775   -2.4857533    255.05501   0.09885853   0.10647178            2 
  216000    1.1901452   -2.4365233    257.15624  0.099211511   0.10641247            1 
  217000    1.2401041   -2.4761711    257.85701   0.09902343   0.10635779            1 
  218000     1.246011   -2.4581035    260.68373  0.099649745   0.10630713            1 
  219000    1.2241421   -2.5091085    260.59331  0.099160314   0.10625432            2 
  220000    1.1915813   -2.4562856    261.38973  0.099011263   0.10620027            2 
  221000    1.2220046   -2.4530031    262.20697  0.098871407   0.10614593            2 
  222000    1.2084835   -2.4595984    262.63815  0.098587895   0.10608313            1 
  223000    1.2107231   -2.4797356    265.17338   0.09909319   0.10602066            2 
  224000    1.2243435   -2.4890115    266.41459  0.099112571   0.10595345            1 
  225000    1.2295803   -2.4756907    266.86452  0.098838712   0.10589673            3 
  226000    1.2173651    -2.497154    269.49951  0.099372976   0.10584807            2 
  227000     1.212886   -2.5113463     270.7179  0.099382488   0.10579572            1 
  228000    1.2186901   -2.4344075    272.14639  0.099468711   0.10574386            2 
  229000    1.2162924   -2.4754949    272.41878  0.099133473   0.10569611            2 
  230000    1.2082138   -2.4903187    273.24294  0.099001064   0.10565082            2 
  231000    1.2266545   -2.4679827    274.87099  0.099159807   0.10560638            1 
  232000    1.2142958   -2.4645707    276.40262  0.099282548    0.1055635            2 
  233000      1.19888   -2.4620852    277.61615   0.09929047   0.10552559            2 
  234000    1.2054486   -2.4451324    280.22331  0.099794627   0.10548662            2 
  235000    1.2035884     -2.48448    279.93036  0.099266085   0.10545106            1 
  236000    1.2188547     -2.45498    281.20582   0.09929584    0.1054068            1 
  237000    1.2227893     -2.50106    282.51268  0.099336385   0.10535799            1 
  238000    1.2173694    -2.459602    282.85043  0.099037264   0.10531453            1 
  239000    1.2004916   -2.4973039    283.44864  0.098831465   0.10526949            2 
  240000     1.185339   -2.4844191    285.97313  0.099296227   0.10522583            1 
  241000    1.2174182   -2.4783202    287.15903   0.09929427   0.10519637            1 
  242000    1.2058929   -2.4710961    288.84376  0.099464105   0.10516274            1 
  243000    1.2267125    -2.459486    290.36819  0.099577568   0.10513081            2 
  244000    1.2172346   -2.4710879    290.94141  0.099365236   0.10509514            2 
  245000    1.1933164   -2.4567878    292.45318  0.099473871   0.10506561            1 
  246000    1.2191633   -2.4810883    293.55199  0.099441732   0.10503433            1 
  247000    1.2268158    -2.476856    297.01999   0.10020917   0.10501004            2 
  248000    1.2162775    -2.486301    296.83074  0.099741512   0.10498383            3 
  249000    1.1836095   -2.5054484     298.0751  0.099757397   0.10495633            1 
  250000    1.2168983   -2.4735341    299.09796  0.099699321   0.10493218            1 
  251000    1.2079021   -2.4855178    298.96994  0.099259606   0.10490681            1 
  252000     1.198832    -2.489486    301.92522  0.099842995   0.10488415            1 
  253000    1.2318814   -2.4809234    304.02661   0.10014052     0.104861            1 
  254000    1.2018431   -2.5095324    306.19303   0.10045703   0.10483729            3 
  255000    1.1941869   -2.4721118    305.11483  0.099710728   0.10481704            1 
  256000    1.2127909   -2.4462206    306.98779  0.099930922   0.10479116            2 
  257000    1.1696872    -2.453775    306.94684  0.099528806   0.10477228            2 
  258000    1.2053153   -2.4439992    309.75977    0.1000516   0.10475155       -1e+20 
  259000    1.2089073   -2.5035294    309.07886  0.099446221   0.10473327            2 
  260000    1.1970457   -2.4876303    311.46636  0.099828961   0.10471317            1 
  261000     1.203581   -2.4909873    314.39698   0.10038218   0.10469432            1 
  262000    1.2065298   -2.4670927    314.31781  0.099973859   0.10468047            2 
  263000    1.1872877   -2.4543279     317.2077   0.10050941   0.10466501            2 
  264000    1.2009044   -2.4851319    317.12221   0.10010171   0.10465124            3 
  265000     1.211659   -2.4645579    319.10406   0.10034719   0.10463836            1 
  266000    1.2221472   -2.4683763    318.59624   0.09981085    0.1046231            1 
  267000    1.2074996   -2.4946416    320.21828  0.099943283   0.10460252            2 
  268000    1.1996941   -2.5063108     321.8065   0.10006421   0.10458168            2 
  269000    1.2099479   -2.4691148    321.61295  0.099632263   0.10455633            2 
  270000    1.1892164   -2.5079694    323.58009  0.099870398   0.10452979            2 
  271000    1.1816849    -2.488483    325.07744  0.099962313   0.10450145            2 
  272000    1.2100883   -2.5058784    324.56536  0.099437916   0.10447282            1 
  273000    1.1917765    -2.482471    327.10232  0.099848083   0.10444237            1 
  274000    1.1985584   -2.4881037    328.38796  0.099874684   0.10441212            2 
  275000     1.197038   -2.4709757    327.87773  0.099356887   0.10438288            2 
  276000    1.2020574   -2.4642837    330.34485  0.099741801   0.10435786            5 
  277000    1.1986456   -2.5023753    332.32192   0.09997651   0.10433338            1 
  278000    1.2322654    -2.509624    333.73401   0.10004017   0.10431103            1 
  279000     1.213584   -2.5011395    335.45624   0.10019601   0.10429558            1 
  280000    1.1917043   -2.4962001    335.58691  0.099877058   0.10427608            1 
  281000     1.178513   -2.4811634    336.73614  0.099862439   0.10426187            2 
  282000    1.2037052   -2.4665627    338.37049  0.099991279   0.10424357            1 
  283000    1.2067022   -2.4614811    340.08993   0.10014427   0.10422248            1 
  284000    1.2138082   -2.4905135    339.75505  0.099693384   0.10420164            2 
  285000    1.2273106   -2.4895265    340.90602  0.099680123   0.10417844            1 
  286000    1.2173844   -2.4588921    343.37531   0.10005108   0.10415542            2 
  287000    1.2066401   -2.4634424    343.09246  0.099620344   0.10412862            1 
  288000    1.2007547   -2.4835458    343.83348  0.099488854   0.10410067            3 
  289000    1.2102444   -2.4566655    344.50403  0.099337955   0.10407399            1 
  290000    1.1985704   -2.4957207    346.19681  0.099481843   0.10404861            1 
  291000    1.1848303   -2.4762915    346.07238  0.099104346   0.10402134            1 
  292000     1.208132   -2.4743065    348.35586  0.099416626   0.10399222            2 
  293000    1.1934676    -2.482382    348.31601  0.099065987   0.10396318            2 
  294000    1.2106727   -2.4564762    351.41934  0.099608656   0.10393595            4 
  295000    1.2109986   -2.4874881    349.43462  0.098710343   0.10391193            3 
  296000    1.1909658   -2.5139669    354.23506  0.099728338   0.10388471            1 
  297000    1.2201506   -2.4712318    355.65688  0.099791492    0.1038624            1 
  298000    1.1832538   -2.5204836    355.06364  0.099290728    0.1038414            1 
  299000    1.1983037   -2.4879606    357.18942   0.09955112   0.10381223            2 
  300000    1.2176369     -2.47322    359.86912  0.099963646   0.10378693            3 
  301000    1.2106787   -2.4684497    358.91573  0.099367588   0.10376085            1 
  302000    1.2348915   -2.5076485    359.89835  0.099309699   0.10373295            6 
  303000    1.1787805    -2.489387    360.13347  0.099046608    0.1037034            3 
  304000    1.1781711   -2.4648708    363.76007   0.09971493    0.1036765            2 
  305000    1.1755871   -2.5062263    364.41169  0.099566035   0.10365204            1 
  306000    1.2010766   -2.4868766    366.38733  0.099778683   0.10363173            1 
  307000    1.2197758   -2.4813001    367.88928  0.099861368   0.10361527            1 
  308000    1.1936209   -2.5131077    368.90017  0.099810653   0.10360009            1 
  309000    1.1979826   -2.4812268    369.08319  0.099536999   0.10358153            1 
  310000    1.2055553   -2.4897157    372.04021   0.10001081   0.10356279            1 
  311000    1.1950373   -2.4875423    373.51118   0.10008338   0.10354807            1 
  312000    1.2071629   -2.4649874    372.60677  0.099521038   0.10353626            1 
  313000    1.2044695   -2.4774167    375.96049   0.10009598   0.10352004            3 
  314000    1.1898456    -2.480434     376.7168  0.099977918   0.10349934            2 
  315000    1.1976378   -2.4724886    377.54678    0.0998801   0.10348614            2 
  316000    1.1867725   -2.4917604     377.9712   0.09967595   0.10346633            1 
  317000    1.1881235   -2.4916634    378.30771  0.099449976   0.10344602            1 
  318000     1.198391   -2.5028594    379.33416  0.099406227   0.10342351            3 
  319000    1.2135365   -2.4904887    381.79443  0.099737312   0.10340452            4 
  320000    1.2185819   -2.4978721     381.0894  0.099242031   0.10338448            1 
  321000    1.2020212   -2.5081467    384.99503  0.099946787   0.10336332            1 
  322000    1.2049322   -2.4992622    384.57766  0.099528381   0.10334287            1 
  323000    1.2015391   -2.4926754    385.13823  0.099364869    0.1033202            2 
  324000    1.1692985   -2.4880805    386.96332  0.099527602   0.10329923            1 
  325000    1.2027806    -2.495572    388.21611  0.099542592   0.10327469            1 
  326000    1.2050866   -2.4946062    387.58166  0.099075066   0.10325093            1 
  327000    1.1885512   -2.5107927    388.86258  0.099098516   0.10322941            3 
  328000    1.2237937   -2.4824307    392.28279  0.099665342    0.1032082            1 
  329000    1.1828835   -2.4868495    392.83019  0.099501061   0.10318821            2 
  330000    1.1794332    -2.474074    394.79861   0.09969662   0.10316978            1 
  331000    1.1844039   -2.4698225    395.46394  0.099562926    0.1031534            2 
  332000    1.2044569    -2.466557     396.2068  0.099449498   0.10313178            2 
  333000    1.1819955   -2.5032512    399.18764  0.099896806   0.10311195            3 
  334000    1.1865366   -2.5067256    398.26993  0.099368745   0.10309412            2 
  335000    1.1752877   -2.4968873    400.73619  0.099685619    0.1030781            1 
  336000     1.209191   -2.5115582    402.57699  0.099845484   0.10306015            2 
  337000    1.2120415   -2.5140396    401.94433  0.099392763   0.10304354            2 
  338000    1.1778876   -2.4898924    403.73957  0.099541314   0.10302641            4 
  339000    1.1977359   -2.5059886    404.54577  0.099445863   0.10301009            2 
  340000    1.1759077   -2.4912862    405.51878  0.099391858   0.10299153            1 
  341000    1.1697864   -2.4745609    407.43824  0.099569462   0.10297179            2 
  342000    1.2120153   -2.4676501    407.84309  0.099376971   0.10294973            1 
  343000    1.1985505   -2.4922247    408.94251  0.099354352   0.10292521            3 
  344000    1.2022803   -2.4716993    412.41797  0.099907453   0.10290507            2 
  345000     1.179804   -2.5147666    411.55684  0.099409865   0.10288549            1 
  346000    1.1995894   -2.4730781    412.60571   0.09937517   0.10286241            1 
  347000    1.1825972   -2.5009162    411.47125  0.098816341   0.10284011            2 
  348000    1.1823567   -2.4979717    415.93279  0.099600764   0.10281665            1 
  349000     1.186637   -2.4847142    418.41709   0.09990857   0.10279702            2 
  350000    1.2208584   -2.4927372    418.30872  0.099597313   0.10277877            3 
  351000    1.1898438   -2.5024018    420.48246  0.099829645   0.10276455            2 
  352000    1.1772597   -2.4845104    420.95105  0.099656972   0.10274821            2 
  353000    1.2109623   -2.4834496    421.54317  0.099514441   0.10273347            1 
  354000    1.1878716   -2.5350783    424.34611  0.099893151   0.10271966            2 
  355000    1.2089787   -2.5108691    424.28309  0.099596968   0.10270305            2 
  356000    1.2157646   -2.4804682    424.63787   0.09940025   0.10268833            2 
  357000    1.1867474   -2.4887324    425.33261   0.09928399   0.10267466            4 
  358000    1.2142817   -2.4754303    427.48536  0.099507765   0.10266089            1 
  359000    1.1801752   -2.5173981    427.90678  0.099328408   0.10264694            2 
  360000     1.191659   -2.4830601    430.33305  0.099614133   0.10263583            2 
  361000    1.1927888   -2.4862932     435.6191   0.10055842    0.1026261            1 
  362000    1.1817461   -2.4888123    433.07705  0.099695453   0.10261914            1 
  363000    1.1928835   -2.4639185    435.32516  0.099936905   0.10261063            2 
  364000    1.1640703   -2.4970861    436.37533  0.099902776   0.10260315            2 
  365000    1.1778929   -2.4981262    437.43715  0.099871495   0.10259473            2 
  366000    1.1941067   -2.5072488    440.08891   0.10020239   0.10258549            2 
  367000    1.1883135   -2.4989415    439.28275  0.099746309    0.1025776            1 
  368000    1.2278787   -2.4966786    440.22857  0.099689441   0.10256875            2 
  369000    1.1881219    -2.492446    442.64817   0.09996571   0.10255898            1 
  370000    1.1924252   -2.5017443    443.47922  0.099882708   0.10255188            1 
  371000     1.207068    -2.507727    443.09903  0.099528084   0.10253973            1 
  372000    1.1944582   -2.5131392    444.50931  0.099576459    0.1025281            1 
  373000    1.1731614   -2.4899233    444.59125  0.099327803   0.10251396            2 
  374000    1.1685619   -2.5021277    446.60227  0.099510309   0.10250032            2 
  375000    1.1954127   -2.5104112    447.91719  0.099537154   0.10248806            1 
  376000    1.1937201   -2.4980621    452.58843   0.10030772   0.10247718            1 
  377000    1.1708661   -2.4952186    452.39708  0.099999354   0.10246723            2 
  378000    1.1919733   -2.4929599    452.30624   0.09971478   0.10245727            1 
  379000    1.1896738   -2.4924116    452.52482   0.09949974    0.1024454            1 
  380000    1.2087165   -2.5080998    452.94817  0.099330739   0.10243161            1 
  381000    1.1727311   -2.5265825    455.20219  0.099563033   0.10241585            1 
  382000     1.187686   -2.5011878       455.29  0.099321553    0.1024047            2 
  383000     1.178861   -2.4889758    458.31848  0.099721166   0.10239289            1 
  384000     1.223412   -2.5049894     459.8811  0.099800587   0.10238261            3 
  385000    1.2049774   -2.5050285     461.3869  0.099867295   0.10237152            2 
  386000     1.179201   -2.5186061    461.47508  0.099627608   0.10236046            1 
  387000    1.2083032   -2.5057614    462.11407  0.099507767   0.10234921            1 
  388000    1.2033442   -2.5163225    464.96795  0.099864249   0.10233901            1 
  389000    1.1928755   -2.5258905    463.84429  0.099366814   0.10232905            1 
  390000    1.1979394    -2.528526    466.42192  0.099662802   0.10232022            2 
  391000    1.1918812   -2.4782348    469.60908   0.10008719   0.10231272            2 
  392000    1.1954731   -2.4912927    468.98065  0.099698268   0.10230575            2 
  393000    1.1873876   -2.4887383    470.05851  0.099673137   0.10229799            1 
  394000    1.1663289   -2.5063357    470.24946  0.099460545   0.10228759            1 
  395000    1.2219248   -2.4850694    474.17838   0.10003763   0.10227808            2 
  396000    1.1907036    -2.446139    476.61754    0.1002983   0.10227195            1 
  397000    1.1791111   -2.4963469    475.13573   0.09973462   0.10226506            2 
  398000    1.1715437   -2.4879971    476.51956  0.099773777   0.10226032            1 
  399000    1.1938245   -2.5016104    479.76561   0.10020167   0.10225625            1 
  400000    1.1873977   -2.5076923    480.90257   0.10018804   0.10225113            2 
  401000    1.1734194   -2.5193892    479.64272  0.099676375   0.10224513            3 
  402000    1.1897224   -2.5519527    483.52316   0.10023283   0.10224141            2 
  403000    1.1650835   -2.4943782     484.0709   0.10009737    0.1022356            2 
  404000    1.1750705   -2.4620544    487.47063   0.10055087   0.10223038            3 
  405000    1.1923447   -2.5206141    488.11427   0.10043503   0.10222779            3 
  406000     1.162384   -2.5154136    487.67152   0.10009678   0.10222354            2 
  407000    1.2058443   -2.5154658    489.26356   0.10017681   0.10222186            6 
  408000    1.1835658   -2.5154107    492.89167   0.10067232   0.10222355            1 
  409000    1.2110588   -2.5216349    491.07729    0.1000565    0.1022231            1 
  410000    1.2111066     -2.48006    493.25569   0.10025522    0.1022206            1 
  411000    1.1783964   -2.4822997    495.06575   0.10037829   0.10221796            1 
  412000    1.1839144    -2.513738    495.91999   0.10030744   0.10221554            1 
  413000    1.1619556   -2.4633277    497.26386   0.10033573   0.10221486            2 
  414000    1.1981543   -2.5063357    498.26861   0.10029561   0.10221258            1 
  415000    1.1939007    -2.480779    499.89529   0.10038058   0.10220942            1 
  416000    1.1791814   -2.5110177    500.44657   0.10024971   0.10220923            1 
  417000    1.1711214   -2.5262536    501.26464   0.10017279   0.10221004            3 
  418000    1.1981238   -2.4571767    501.75086   0.10003007   0.10221031            2 
  419000      1.18744   -2.5337686    501.48278  0.099738022   0.10220512            1 
  420000    1.1659898   -2.4846189    507.95598   0.10078492   0.10220284            1 
  421000    1.1686167   -2.4926369    507.49771   0.10045481   0.10219998            1 
  422000     1.196297   -2.5328648    507.45327   0.10020799   0.10219759            1 
  423000    1.2328473   -2.4791912    507.93152   0.10006531   0.10219496            2 
  424000    1.1750814    -2.524319    509.89101   0.10021443   0.10219231            4 
  425000    1.2111014   -2.5090221    511.85307   0.10036335   0.10218911            1 
  426000    1.1927052   -2.5279115    512.08932   0.10017397   0.10218649            2 
  427000    1.1670208   -2.4777259    514.62868   0.10043495   0.10218413            1 
  428000    1.1997018   -2.5153344    514.47838   0.10017102   0.10218036            2 
  429000    1.1772898   -2.4871339     516.2783   0.10028716   0.10217763            1 
  430000    1.1675163   -2.5085054    518.94766   0.10057125   0.10217684       -1e+20 
  431000    1.1931033    -2.505301    519.85748   0.10051382   0.10217655            1 
  432000    1.1802335   -2.5009942     523.3229   0.10094963   0.10217762            4 
  433000    1.1932853    -2.527228     521.1286   0.10029419   0.10217611            1 
  434000    1.1841426   -2.5009378    520.68806  0.099978506   0.10217385            2 
  435000    1.1881962   -2.5116949     524.7972   0.10053586   0.10217279            1 
  436000    1.1890948   -2.4996338    525.40407   0.10042127   0.10217243            2 
  437000    1.1840446    -2.482958    528.50871   0.10078351   0.10217132            1 
  438000    1.1620093   -2.5069427    527.45005   0.10035199   0.10216714            2 
  439000    1.1860698   -2.5287296    526.90329   0.10001961   0.10216466            1 
  440000    1.1950588   -2.5254678    530.80194   0.10053067   0.10216379            2 
  441000    1.1892922   -2.5517849    531.26649   0.10039049   0.10216458            3 
  442000     1.207762   -2.5332027    533.49048   0.10058267     0.102165            1 
  443000    1.1943244   -2.5042324    535.14805   0.10066743   0.10216582            1 
  444000    1.1734365   -2.5318023    534.29768    0.1002811    0.1021669            2 
  445000    1.1817777   -2.5168573    535.18549     0.100222   0.10216704            2 
  446000    1.2006211   -2.5336109    537.42894   0.10041647   0.10216845            2 
  447000    1.1587777   -2.5260442    540.61382   0.10078557   0.10216947            1 
  448000    1.1666999   -2.5040384    541.71492   0.10076542   0.10217087            1 
  449000    1.1891083   -2.5011202    544.11502   0.10098645   0.10217387            2 
  450000    1.1735382   -2.5249698    544.05596    0.1007511   0.10217686       -1e+20 
  451000    1.1874737   -2.5276007    543.07971   0.10034732   0.10217924            1 
  452000    1.1956323   -2.5084766    546.59503   0.10077342   0.10218232            1 
  453000    1.1975537   -2.5137981    546.93265   0.10061307   0.10218405            2 
  454000    1.1687516   -2.4727096    549.82981   0.10092324   0.10218662            3 
  455000    1.2012898   -2.5155853    550.02728    0.1007376   0.10218854            2 
  456000    1.1869625   -2.4967991    549.56779   0.10043271   0.10219077            2 
  457000    1.1759857   -2.5315278     552.1628   0.10068614   0.10219388            1 
  458000     1.192601   -2.5316156     554.9911   0.10098091   0.10219496            1 
  459000    1.1580284    -2.530762    554.38615   0.10065108   0.10219576            2 
  460000    1.2007368   -2.5162539    558.98179   0.10126482   0.10219765            1 
  461000    1.1681754    -2.517046    555.58965   0.10043197   0.10219931            2 
  462000    1.1921751   -2.5259449    556.99729   0.10046849   0.10219663            1 
  463000    1.1498273   -2.5316215    556.83997   0.10022318   0.10219368            3 
  464000    1.1686536   -2.5313463     560.0776   0.10058865   0.10219085            2 
  465000    1.1663657   -2.4910035    562.05353   0.10072644   0.10218893            1 
  466000    1.1905006   -2.4967369    562.15789   0.10052895   0.10218587            2 
  467000    1.1573726   -2.5238857     562.1646   0.10031488   0.10218337            2 
  468000    1.1851187   -2.5001344    562.29372   0.10012353   0.10218098            1 
  469000    1.1689326   -2.5146083    564.58303   0.10031681   0.10217734            2 
  470000    1.1931233   -2.5083834    565.34265   0.10023806   0.10217179            3 
  471000    1.1920687   -2.5347607    566.85076   0.10029207   0.10216604            1 
  472000     1.171949   -2.5156162    568.24153   0.10032513   0.10215994            1 
  473000    1.1915806   -2.4949598    566.75673  0.099851433   0.10215483            4 
  474000    1.1907904   -2.5127322    568.24565  0.099902541    0.1021456            2 
  475000    1.1751807   -2.5094637    567.83924  0.099620919   0.10213395            1 
  476000    1.1739203   -2.5400943    568.45604  0.099519615   0.10212211            3 
  477000    1.1738107   -2.5068377    568.11093  0.099250687    0.1021094            1 
  478000    1.1593131   -2.5447705    571.53316  0.099639672   0.10209767            1 
  479000    1.1704787   -2.4992456    574.92075   0.10002101   0.10208556            3 
  480000    1.1898012   -2.5099858    573.39618  0.099547948   0.10207422            1 
  481000     1.179216   -2.5451096    575.12366  0.099640274   0.10206424            1 
  482000    1.1735672   -2.4881626    581.73927   0.10057733   0.10205392            2 
  483000    1.1676582   -2.5176706    579.19408  0.099929965   0.10204449            2 
  484000    1.1830277   -2.5113942    579.93723  0.099851452    0.1020365            1 
  485000    1.1859056   -2.5083232    582.35778   0.10006147   0.10203047            1 
  486000    1.2053911   -2.5065029    583.15037   0.09999149   0.10202168            1 
  487000    1.1965508   -2.5187719    582.90419  0.099744043   0.10201261            1 
  488000    1.1588275   -2.5350127    580.63462  0.099152087   0.10200076            1 
  489000    1.1660047   -2.5222449    581.20441  0.099046424   0.10198783            2 
  490000    1.1773182   -2.5339423    586.94618  0.099820779   0.10197563            1 
  491000    1.1852422   -2.5199333    588.90584  0.099950075   0.10196418            1 
  492000     1.170397   -2.5343243     589.0364  0.099769038   0.10195397            1 
  493000    1.1939465   -2.5116261    589.82042  0.099699191   0.10194212            1 
  494000    1.1702967   -2.5014934    591.17925  0.099726594   0.10193348            1 
  495000    1.1772433   -2.5213791    591.55596  0.099588545   0.10192324            3 
  496000    1.1534419    -2.495911    593.73577  0.099753993   0.10191355            2 
  497000    1.1711155   -2.5190485     593.0969  0.099446161   0.10190251            1 
  498000    1.1555117   -2.5602923    596.03524  0.099738159    0.1018917            2 
  499000    1.1689575   -2.5117434    597.83312   0.09983853   0.10188282            1 
  500000    1.1911034   -2.4939771    601.17397   0.10019566   0.10187682            2 
  501000    1.1790564   -2.4900519    602.16572   0.10016063   0.10187092            1 
  502000    1.1655454   -2.5003022    604.91237   0.10041706   0.10186653            1 
  503000     1.171109   -2.5039446    602.98702  0.099898446   0.10185993            1 
  504000    1.1918091   -2.5022032    606.70532   0.10031503   0.10185487            2 
  505000    1.1796311   -2.5072953    605.35268  0.099893181   0.10184955            2 
  506000    1.1834273   -2.5072254    606.03171  0.099807595   0.10184529            1 
  507000    1.1734315   -2.4959627    610.61193   0.10036357   0.10184191            2 
  508000    1.1936544   -2.5288749    610.03738   0.10007175   0.10183746            1 
  509000    1.1844094   -2.5254501    608.42518  0.099611195   0.10183014            2 
  510000    1.1689257   -2.5123502    614.17585   0.10035553   0.10182279            1 
  511000    1.1838134   -2.5290463    614.02659    0.1001348   0.10181562            1 
  512000    1.1650175   -2.5244507    611.17676  0.099475385   0.10180962            1 
  513000     1.177987   -2.4834332    619.70695   0.10066715   0.10180472            1 
  514000    1.1546829   -2.5317009    615.11887  0.099727443   0.10180007            3 
  515000    1.1823624   -2.5348474    619.15174   0.10018636   0.10179312            2 
  516000    1.1925368   -2.5334541    617.70087  0.099757892    0.1017875            2 
  517000    1.1531017    -2.522058    619.59865  0.099870833   0.10178095            6 
  518000    1.1967501    -2.543252    621.01101  0.099905247   0.10177579            1 
  519000    1.1626106   -2.5240736    623.08511   0.10004578   0.10176885            3 
  520000    1.1693139   -2.5262923    623.53632  0.099925692   0.10176278            4 
  521000    1.1610842   -2.4814727    626.30838   0.10017728   0.10175699            2 
  522000    1.1860132   -2.5420764    629.15963   0.10044055   0.10175229            4 
  523000    1.1679122   -2.5369039    627.45398  0.099976734   0.10174886            1 
  524000    1.1920107   -2.5201821    629.75584   0.10015201   0.10174476            1 
  525000    1.1440807   -2.5477099    631.58242   0.10025118   0.10174252            1 
  526000     1.193158   -2.5198757    634.06286   0.10045356   0.10173924            3 
  527000    1.1613915   -2.5247403    634.54282   0.10033884   0.10173437            1 
  528000     1.144388   -2.5513606     632.8602  0.099883238   0.10173093            1 
  529000     1.163625   -2.5247695    636.63334   0.10028881   0.10172779            1 
  530000    1.1762501   -2.5117227    636.69734   0.10010964   0.10172455            1 
  531000    1.1665493   -2.5197377    638.96787   0.10027744   0.10172102            2 
  532000    1.1722908   -2.5027279    639.09157   0.10010833   0.10171543            1 
  533000     1.153604   -2.5140586     639.4278  0.099973077   0.10171164            2 
  534000    1.1501657   -2.5281631    641.08758   0.10004488   0.10170904            1 
  535000    1.1631201   -2.5222564    644.94322   0.10045845   0.10170553            2 
  536000    1.1758357   -2.5102413    645.45485   0.10035057   0.10170298            3 
  537000    1.1694482   -2.5249515    646.13718   0.10026958   0.10170043            1 
  538000    1.1477093   -2.5298654    648.14996   0.10039497   0.10169889            2 
  539000    1.1765415   -2.5523581    648.24285   0.10022308   0.10169565            1 
  540000    1.1522163   -2.5405349       649.37   0.10021142   0.10169488            3 
  541000    1.1727636   -2.5333407    650.50449   0.10020094   0.10169222            1 
  542000    1.1770255   -2.5233782     652.4665   0.10031773   0.10168864            2 
  543000    1.1636597   -2.5072932    651.48313  0.099982064   0.10168454            2 
  544000    1.1576465   -2.5209771    654.31201   0.10023162   0.10168042            1 
  545000    1.1858876    -2.489756    655.83591   0.10028072   0.10167764            1 
  546000    1.1462201   -2.5118228    654.00633  0.099817816   0.10167406            3 
  547000    1.1746717   -2.5078611      657.506   0.10016849   0.10167092            1 
  548000    1.1739235    -2.512266    657.09698  0.099923507    0.1016669            2 
  549000    1.1532083   -2.5470748    657.31753  0.099774974   0.10166044            1 
  550000    1.1688532   -2.5230662    657.78195  0.099663932    0.1016532            1 
  551000    1.1644894    -2.529053    660.66287  0.099918764     0.101646            2 
  552000    1.1632647   -2.5507327    661.51833  0.099866897   0.10163747            2 
  553000    1.1685806   -2.5366562    661.22405   0.09964196   0.10163082            2 
  554000    1.2020323   -2.5212364    663.77748  0.099846191   0.10162231            2 
  555000    1.1706079   -2.5183152    664.40284  0.099760186    0.1016131            1 
  556000    1.1513827   -2.5226029     666.2336  0.099855156   0.10160519            1 
  557000    1.1615612   -2.5087314    669.00547   0.10009058   0.10159804            2 
  558000    1.1656149   -2.5453242    670.88207   0.10019147   0.10159179            1 
  559000    1.1520675   -2.5076764    670.66985  0.099980598   0.10158526            3 
  560000    1.1652565   -2.5171002    670.87131   0.09983204   0.10157912            1 
  561000    1.1835919   -2.5367497    672.85721   0.09994908   0.10157368            2 
  562000    1.1741426   -2.5466247    671.37206  0.099551017   0.10156782            1 
  563000    1.1566074   -2.5224522    675.32907  0.099959898   0.10156078            1 
  564000    1.1747311    -2.532691    677.03908   0.10003532   0.10155356            1 
  565000    1.1637196   -2.5374662     677.2246  0.099885635   0.10154655            1 
  566000    1.1329611   -2.5388316    679.00059   0.09997064   0.10154142            1 
  567000      1.16737   -2.5379869    679.01622  0.099796622   0.10153371            2 
  568000    1.1395311   -2.5437556    683.12004   0.10022301   0.10152631            1 
  569000    1.1441243   -2.5491889    682.87703   0.10001128   0.10152164            1 
  570000    1.1757392   -2.5365299    684.66967   0.10009791   0.10151647            1 
  571000    1.1685263     -2.52321    685.74933   0.10008017   0.10151187            2 
  572000    1.1491398   -2.5216139    684.86404   0.09977623   0.10150899            2 
  573000    1.1680792   -2.5259435    689.42285    0.1002651   0.10150623            2 
  574000    1.1766773   -2.5363394     691.4231   0.10038082   0.10150469            1 
  575000    1.1694261   -2.5056869    692.25847   0.10032731   0.10150311            2 
  576000    1.1517775    -2.513315    694.70968   0.10050777   0.10150319            4 
  577000    1.1456379   -2.5070314    692.95751   0.10008052    0.1015017            2 
  578000    1.1232859   -2.5396694    693.72273   0.10001769   0.10149865            2 
  579000    1.1660194   -2.5214537    697.03573   0.10032178   0.10149493            2 
  580000    1.1859673   -2.5226854    698.48645   0.10035725   0.10149071            2 
  581000     1.155615   -2.5561358    701.18749   0.10057193   0.10148775            2 
  582000    1.1663971   -2.5514302    702.18994   0.10054266   0.10148603            3 
  583000    1.1562263    -2.538124    702.11938   0.10036012   0.10148425            1 
  584000    1.1377624   -2.5601163    701.15482   0.10005063   0.10148264            1 
  585000    1.1626107    -2.517172    702.30181   0.10004299    0.1014814            1 
  586000    1.1769734   -2.5319273    703.45163   0.10003578   0.10148056            2 
  587000    1.1532227   -2.5448165    706.05145   0.10023445   0.10147791            1 
  588000    1.1595195   -2.5597747    707.59053    0.1002821   0.10147508            1 
  589000    1.1512689   -2.5490226      707.482   0.10009649   0.10147402            4 
  590000    1.1567117   -2.5299394    709.55212   0.10021923   0.10147401            1 
  591000    1.1556482   -2.5006454    715.04512   0.10082418   0.10147406            1 
  592000    1.1602645   -2.5033463    715.21819   0.10067824    0.1014752            1 
  593000    1.1702149   -2.5339945    714.23375   0.10037012   0.10147536            1 
  594000    1.1426265   -2.5240863    717.91236   0.10071722   0.10147383            2 
  595000    1.1635012   -2.5308935    716.59704   0.10036373   0.10147417            2 
  596000    1.1575839   -2.5135813    719.56517   0.10061034   0.10147476            2 
  597000    1.1445002   -2.5078048    724.64917   0.10115148   0.10147712            1 
  598000    1.1719323   -2.5346646    721.38159   0.10052698    0.1014778            1 
  599000    1.1554672    -2.538205    724.00705   0.10072441   0.10147846            1 
  600000    1.1404174   -2.5103683    724.28868   0.10059565   0.10147862            2 
  601000    1.1513903   -2.5316345     724.2574   0.10042393    0.1014808            1 
  602000    1.1539348   -2.5235451    724.73161   0.10032276   0.10148096            2 
  603000    1.1421579   -2.5578119    729.69635    0.1008425   0.10148177            1 
  604000    1.1271737   -2.5060125     727.2116   0.10033273   0.10148177            3 
  605000    1.1664572   -2.5322232    733.10851   0.10097913    0.1014817            3 
  606000     1.179651   -2.5463056    728.02108   0.10011291   0.10148026            3 
  607000    1.1281307   -2.5272672    729.38274   0.10013492   0.10147999            1 
  608000     1.159552   -2.5301383    733.82215   0.10057869   0.10147902            1 
  609000    1.1632697   -2.5272277    732.42955   0.10022298   0.10147562            1 
  610000    1.1518976   -2.5403748    733.31493   0.10017964   0.10147269            1 
  611000    1.1645719   -2.5152745      740.433    0.1009865   0.10147125            3 
  612000    1.1737246   -2.5569602    734.78825   0.10005287   0.10146892            2 
  613000    1.1462845   -2.5274939    738.57958   0.10040505    0.1014669            1 
  614000    1.1388069   -2.5370575    737.12494    0.1000441   0.10146567            1 
  615000    1.1558322   -2.5143867    739.74725   0.10023675   0.10146354            2 
  616000    1.1870455   -2.5287436    745.30881   0.10082641   0.10146369            2 
  617000    1.1674966   -2.5672344    744.75198   0.10058779   0.10146283            3 
  618000    1.1296406   -2.5464386    743.16593   0.10021116   0.10146298            2 
  619000    1.1839741   -2.5461539    741.27531  0.099794738   0.10146178            1 
  620000    1.1681486    -2.521747    747.60669   0.10048477   0.10146003            3 
  621000    1.1260335    -2.560717    746.66804     0.100197   0.10145832            1 
  622000    1.1615748   -2.5461175    749.89172   0.10046781   0.10145709            3 
  623000    1.1775944   -2.5322072    749.47233   0.10025045   0.10145618            2 
  624000    1.1507277   -2.5499112    753.29386   0.10060014    0.1014551            1 
  625000    1.1418169   -2.5235657     754.6572   0.10062096   0.10145423            2 
  626000    1.1554405   -2.5056425    755.35709   0.10055339   0.10145453            1 
  627000    1.1293291   -2.5382208    755.55983   0.10041997   0.10145417            2 
  628000      1.14807   -2.5365296     757.8931   0.10056968   0.10145352            1 
  629000    1.1455008   -2.5633241    760.50995   0.10075649   0.10145266            2 
  630000     1.142782   -2.5435321    760.16735   0.10055124   0.10145406            1 
  631000    1.1364452   -2.5754958    757.93696   0.10009733   0.10145588            1 
  632000    1.1373624   -2.5687591    761.02664   0.10034634   0.10145461            3 
  633000    1.1414736   -2.5478394    761.92845   0.10030654   0.10145291            3 
  634000    1.1632998   -2.5400095    762.88901   0.10027458   0.10145055            2 
  635000    1.1359353    -2.558263    762.61213   0.10008033   0.10144746            1 
  636000    1.1309191   -2.5537542    765.95968   0.10036159   0.10144415            1 
  637000    1.1743764   -2.5442862    765.03198   0.10008268   0.10144133            2 
  638000    1.1557759   -2.5558662    768.38228   0.10036341   0.10143623            1 
  639000    1.1407827   -2.5283957    767.92382   0.10014656   0.10143115            1 
  640000    1.1435692   -2.5314838    767.14065  0.099888106   0.10142626            1 
  641000    1.1428068   -2.5275553     771.1332   0.10025133   0.10142064            2 
  642000    1.1354702   -2.5707622    768.74696  0.099785431   0.10141354            3 
  643000    1.1483287   -2.5316967    772.29619   0.10009023   0.10140858            2 
  644000    1.1560903   -2.5612957    773.03652   0.10003061    0.1014036            2 
  645000    1.1655471   -2.5282481    772.75837  0.099839582   0.10139719            1 
  646000     1.163515   -2.5317127    773.77895  0.099816687   0.10139129            1 
  647000     1.154468   -2.5624216     775.8865  0.099933862   0.10138589            3 
  648000    1.1376075   -2.5387375    777.63063   0.10000394   0.10138092            1 
  649000     1.147512   -2.5357522    778.76987  0.099996132   0.10137445            1 
  650000     1.148147   -2.5201876     781.7874   0.10022915   0.10137021            2 
  651000    1.1564857   -2.5325469     782.6909   0.10019085   0.10136413            4 
  652000     1.162843   -2.5160685     782.2996  0.099987168    0.1013593            2 
  653000    1.1525895   -2.5561391    781.65693  0.099752033    0.1013527            3 
  654000    1.1745774   -2.5486251    784.67544  0.099984128   0.10134564            2 
  655000    1.1505735   -2.5314689    784.46501  0.099804708    0.1013391            2 
  656000    1.1466734   -2.5257678    787.58801   0.10004929   0.10133259            4 
  657000    1.1668117   -2.5650552    785.39831  0.099619269   0.10132512            2 
  658000     1.156925   -2.5533568    783.37447  0.099211559   0.10131678            1 
  659000    1.1464637   -2.5476882    780.31043   0.09867355   0.10130616            2 
  660000    1.1545881   -2.5667433    789.03859  0.099626085   0.10129509            2 
  661000    1.1528977   -2.5589978    786.47164  0.099151745   0.10128412            3 
  662000    1.1568224   -2.5503354    789.60227  0.099396057   0.10127209            1 
  663000    1.1564038   -2.5714403    786.77814  0.098891169   0.10126032            1 
  664000    1.1380845   -2.5601325    787.51745  0.098835022   0.10124727            1 
  665000    1.1504602    -2.537107    790.23507  0.099026951   0.10123492            1 
  666000    1.1228667   -2.5574936    792.17183    0.0991206   0.10122195            3 
  667000    1.1575339   -2.5125502    794.64154  0.099280552   0.10120972            5 
  668000    1.1675941   -2.5504314    794.65258  0.099133306   0.10119746            1 
  669000    1.1440485   -2.5342518    795.76303  0.099123447   0.10118591            3 
  670000    1.1582743   -2.5652117    794.02721  0.098759603    0.1011738            1 
  671000    1.1534023   -2.5272201    796.44481  0.098912669   0.10116171            1 
  672000    1.1500075   -2.5474251    798.50842  0.099021381   0.10114916            2 
  673000    1.1390332   -2.5622781     801.2686  0.099216023    0.1011373            1 
  674000    1.1397338   -2.5386371    797.72791  0.098631047   0.10112459            3 
  675000    1.1516035   -2.5424861    801.44971  0.098944408   0.10111224            2 
  676000    1.1523554   -2.5274751    805.57872  0.099307041   0.10110046            2 
  677000    1.1317703   -2.5626777    798.89224  0.098337302   0.10108874            1 
  678000    1.1163173   -2.5386204    807.38677  0.099236329   0.10107545            1 
  679000    1.1373245   -2.5367788    805.79541  0.098894871   0.10106194            4 
  680000    1.1425935    -2.558812    804.04613  0.098535065   0.10104787            1 
  681000    1.1255838   -2.5554806    812.05366  0.099370247   0.10103477            2 
  682000    1.1406329   -2.5488392     808.3339  0.098770026   0.10102277            1 
  683000    1.1545089   -2.5569524    812.36376  0.099117101   0.10101055            2 
  684000    1.1384456   -2.5255218    809.33509  0.098603203    0.1009968            5 
  685000    1.1350576   -2.5367687    815.27485  0.099181855   0.10098341            1 
  686000    1.1323531    -2.550699    811.78246   0.09861303   0.10096976            1 
  687000    1.1427265   -2.5600189    813.92706  0.098729629   0.10095535            2 
  688000    1.1346468   -2.5670873    814.02042  0.098597434   0.10094069            1 
  689000    1.1352332   -2.5278523    813.58202  0.098401309   0.10092581            1 
  690000    1.1386882   -2.5480776    818.10633  0.098805113   0.10091095            3 
  691000    1.1421425   -2.5410979    816.06585  0.098416045   0.10089501            2 
  692000    1.1435052   -2.5594192    818.82522   0.09860612   0.10088121            2 
  693000    1.1435509   -2.5363477    819.01801  0.098487015    0.1008671            1 
  694000    1.1512356   -2.5424597    822.09047  0.098714033   0.10085112            1 
  695000    1.1133129   -2.5610407    819.53543  0.098265638   0.10083629            1 
  696000    1.1485427   -2.5493665    823.67381  0.098619948   0.10082173            1 
  697000     1.131643   -2.5248245    829.00685  0.099116075   0.10080625            2 
  698000    1.1263809   -2.5589811    823.54937  0.098322513   0.10079103            1 
  699000    1.1297449   -2.5614172    821.06575  0.097885759   0.10077571            4 
  700000    1.1319738   -2.5788587    827.76082  0.098542954   0.10076086            1 
  701000    1.1383653   -2.5569568    828.42501  0.098481337   0.10074483            2 
  702000    1.1173054   -2.5364984    831.18988  0.098669264   0.10073049            1 
  703000    1.1314499   -2.5717553     829.3143  0.098306579   0.10071617            2 
  704000    1.1623015   -2.5746503    829.02043  0.098132153   0.10070126            5 
  705000    1.1450995   -2.5597169    835.28614  0.098733586   0.10068686            4 
  706000     1.134043    -2.549355    832.24799  0.098235126   0.10067174            1 
  707000    1.1307095   -2.5342476    836.67465  0.098617946   0.10065642            1 
  708000    1.1346778   -2.5895217    830.48968  0.097750668   0.10064088            3 
  709000    1.1296992   -2.5622523    837.56773  0.098444726   0.10062504            3 
  710000    1.1339669   -2.5542349    840.42813    0.0986418   0.10060962            2 
  711000    1.1404652   -2.5575443    839.21791  0.098361217   0.10059407            3 
  712000    1.1625791   -2.5396758    838.16965   0.09810038   0.10057866            1 
  713000    1.1495709   -2.5456182    837.26902   0.09785753   0.10056178            1 
  714000    1.1394351   -2.5500572    840.70711  0.098121745   0.10054344            3 
  715000    1.1355103   -2.5573883    839.29253  0.097819643   0.10052458            2 
  716000    1.1661884   -2.5566948    839.54064    0.0977119   0.10050589            1 
  717000    1.1331486   -2.5381022    839.85966  0.097612699   0.10048717            2 
  718000    1.1417389   -2.5348383    841.10469  0.097621249   0.10046799            2 
  719000    1.1615811   -2.5749162    842.24789  0.097617976    0.1004476            2 
  720000    1.1370343   -2.5763454    842.42419    0.0975028   0.10042631            2 
  721000    1.1432403   -2.5535886    845.79797  0.097757509   0.10040667            2 
  722000    1.1412635   -2.5254029    843.55159  0.097362833   0.10038672            2 
  723000    1.1289122   -2.5526911    846.87111  0.097610778   0.10036627            3 
  724000    1.1537688   -2.5439803    848.18108  0.097626736   0.10034597            3 
  725000     1.130987   -2.5666709    848.06638  0.097478894   0.10032616            2 
  726000    1.1223685   -2.5463569    851.25782  0.097710953   0.10030612            2 
  727000    1.1457663   -2.5627348    852.28979  0.097694841   0.10028482            2 
  728000    1.1345745   -2.5599026    851.50136  0.097470394   0.10026476            2 
  729000     1.102444   -2.5360464    851.14868  0.097296374   0.10024423            1 
  730000    1.1432108   -2.5722124    851.21763  0.097170962   0.10022488            3 
  731000    1.1466291   -2.5418231    853.43355  0.097290646   0.10020518            2 
  732000    1.1163312   -2.5777083    854.93962  0.097329191   0.10018518            1 
  733000    1.1450624   -2.5594087    852.41918  0.096909865   0.10016179            1 
  734000    1.1246559   -2.5476762    856.91457  0.097288211   0.10014013            1 
  735000    1.1211733   -2.5621055    854.10249  0.096837017   0.10011838            2 
  736000    1.1404937   -2.5651925    854.51853  0.096752551   0.10009651            5 
  737000    1.1281088   -2.5690154    858.79888  0.097105256   0.10007613            3 
  738000    1.1581324   -2.5799491    863.11578  0.097461131   0.10005459            2 
  739000    1.1306085   -2.5904194      860.547   0.09703958   0.10003231            1 
  740000    1.1582741   -2.5644369    860.21958  0.096871575   0.10000855            1 
  741000    1.1418222   -2.5509689    864.48486  0.097220519  0.099985995            2 
  742000    1.1288084   -2.5412144    862.85676  0.096906644  0.099961616            1 
  743000    1.1370955   -2.5556955    862.41515  0.096726688  0.099937752            3 
  744000    1.1457733   -2.5603415    861.25636  0.096466886  0.099912803            2 
  745000    1.1390904   -2.5572102    864.17103  0.096663426  0.099888378            3 
  746000     1.121332   -2.5506743    861.94361  0.096285032  0.099863562            2 
  747000    1.1296165   -2.5792969     865.7743  0.096583478  0.099838491            1 
  748000    1.1517008   -2.5569031    867.73104  0.096672353  0.099813972            3 
  749000    1.1303323   -2.5689222    864.26411  0.096157555   0.09978841            3 
  750000    1.1516857    -2.539389    868.57546  0.096508384  0.099763796            2 
  751000    1.1757641   -2.5316573    870.31703  0.096573128  0.099739821            2 
  752000    1.1332958   -2.5418232    867.39221   0.09612059  0.099713053            2 
  753000     1.138482   -2.5830745    868.31076  0.096094595  0.099685904            1 
  754000     1.121875   -2.5861873    867.87716  0.095919226  0.099659469            2 
  755000    1.1231433   -2.5646129    872.71105  0.096325722   0.09963269            1 
  756000    1.1290037   -2.5636762    872.77908  0.096205807   0.09960598            1 
  757000    1.1384213   -2.5494512    874.61564  0.096280894   0.09958002            2 
  758000    1.1309378   -2.5511342    878.42102  0.096572231  0.099555116            1 
  759000    1.1256814   -2.5657328    873.90539  0.095949209  0.099529953            1 
  760000    1.1419917   -2.5690749    879.72617  0.096461203  0.099505022            2 
  761000    1.1289113   -2.5625295    882.38622  0.096625736  0.099480573            2 
  762000    1.1313388   -2.5842887    881.65002  0.096418419  0.099456168            3 
  763000    1.1467452   -2.5566103    879.44356  0.096051066  0.099432033            2 
  764000    1.0922968   -2.5802311    879.86989  0.095971847  0.099406467            2 
  765000    1.1307025   -2.5734753    877.77315   0.09561799  0.099380873            3 
  766000    1.1124449   -2.5832037    879.12745  0.095640497  0.099354472            3 
  767000    1.1232251   -2.5712865    883.69929  0.096012526  0.099329239            1 
  768000    1.1525983   -2.5692076    884.90172  0.096017981   0.09930328            1 
  769000    1.1449455   -2.5434412     890.1317  0.096459872  0.099277634            1 
  770000    1.1223348   -2.5829054    889.45956  0.096261857  0.099251827            2 
  771000    1.1256737   -2.5460526       893.13  0.096533722  0.099227493            1 
  772000    1.1078628   -2.5487236    890.10827  0.096082499  0.099203028            1 
  773000    1.1227824   -2.5696064    893.12209  0.096283106  0.099179703            1 
  774000    1.1239143   -2.5705079     892.0341  0.096041569  0.099156214            2 
  775000    1.1483278   -2.5621438    893.09266  0.096031469  0.099132042            1 
  776000    1.1289444   -2.5580726    894.94161  0.096106273  0.099107099            1 
  777000    1.1240385   -2.5584622    901.07227  0.096640098  0.099082349            2 
  778000    1.1171804   -2.5552332    895.51008  0.095920103  0.099059546            2 
  779000    1.1252274   -2.5713527      896.095  0.095859542  0.099035237            3 
  780000    1.1547322   -2.5534839    897.09639  0.095843631  0.099011031            1 
  781000    1.1418367   -2.5481471    900.80579  0.096116708  0.098987421            4 
  782000    1.1282178   -2.5837651    901.29496  0.096045925  0.098963608            1 
  783000    1.1247839   -2.5636996    901.74617  0.095971282  0.098939978            1 
  784000    1.1364358   -2.5678872    903.15555  0.095998677  0.098915416            2 
  785000    1.1197474   -2.5555732    906.57928  0.096239838  0.098891987            1 
  786000    1.1338219    -2.584828    902.50571  0.095685508  0.098869433            1 
  787000    1.1381347   -2.5421874    907.94162  0.096139519  0.098847146            2 
  788000    1.1153948   -2.5752526    910.55218  0.096293589  0.098825601            2 
  789000    1.1018734   -2.5969705    910.13953   0.09612796  0.098803495            1 
  790000    1.1315927   -2.5871215    912.17544  0.096221038  0.098781148            2 
  791000    1.1079859   -2.5580671    912.96201   0.09618226  0.098758474            1 
  792000    1.1218678   -2.5501954     916.5018   0.09643327  0.098737333            1 
  793000    1.1075575   -2.5594612    918.13437  0.096483225  0.098716905            2 
  794000    1.1038184   -2.5480177    919.03797  0.096456546  0.098695922            1 
  795000    1.1065108   -2.5816394     913.3072  0.095734508  0.098675065            4 
  796000    1.1101728   -2.5740651      918.867  0.096196294  0.098653888            3 
  797000      1.11928   -2.5692267    922.43834  0.096449011  0.098633382            3 
  798000    1.1153947   -2.5803155    923.61933  0.096451475  0.098612903            1 
  799000    1.1318078   -2.5930907    920.54859  0.096010491  0.098592381            4 
  800000    1.1121324   -2.5453474    923.73682  0.096222586  0.098572814            1 
  801000     1.153966   -2.5534697    930.50533   0.09680663  0.098553191            3 
  802000    1.1134737   -2.5746037    925.54439  0.096170448  0.098534409            1 
  803000    1.1447503   -2.5898769     925.7207  0.096068981  0.098515323            1 
  804000    1.1452174   -2.5677412     928.0036  0.096186111  0.098495886            2 
  805000    1.1027858   -2.5727776    927.46831  0.096011212    0.0984778            1 
  806000    1.1358166    -2.566354    931.98668  0.096359251  0.098458827            3 
  807000    1.1219264   -2.5823305     932.0876  0.096250268  0.098440328            3 
  808000    1.1299528   -2.6037611     933.9989  0.096328269  0.098421266            1 
  809000    1.1195946    -2.560607     932.0986  0.096013452  0.098403285            2 
  810000    1.1308588   -2.5865473    935.72498  0.096268002  0.098383657            3 
  811000    1.1219003   -2.5275118    936.68124  0.096247558  0.098365583            1 
  812000    1.0905199    -2.574534    936.33835  0.096093837  0.098347308            2 
  813000    1.1052172   -2.5790397    936.43863   0.09598592  0.098329119            2 
  814000    1.1269878   -2.5641578    944.55508  0.096698923  0.098311047            1 
  815000    1.1120959   -2.5294682    942.08595  0.096327807  0.098294316            1 
  816000    1.1139329    -2.546262    944.92412  0.096499603   0.09827648            1 
  817000    1.1195115   -2.5726693    940.63095  0.095943589  0.098257729            2 
  818000    1.1262985   -2.5676724    942.01564  0.095967363  0.098237772            1 
  819000    1.1439464   -2.5752012    944.21858  0.096074337  0.098218447            2 
  820000    1.1172503   -2.5947851    945.32006  0.096069112  0.098199362            1 
  821000    1.1256331   -2.5586535    945.54761  0.095975194  0.098179471            1 
  822000    1.1215485    -2.585576    943.40364  0.095641083  0.098160589            2 
  823000    1.1084632   -2.5744608    944.09227    0.0955946   0.09814058            3 
  824000     1.111644   -2.5770668    951.99913  0.096278229  0.098120251            3 
  825000    1.1219128   -2.5675803    950.51924  0.096012044  0.098101021            1 
  826000    1.1275152   -2.5564076    943.86288  0.095224262  0.098081908            1 
  827000    1.1170318   -2.5743885    948.71644   0.09559819  0.098062404            2 
  828000     1.103716   -2.5607328    952.77059   0.09589076  0.098043514            3 
  829000    1.1176839   -2.5832948    953.14651  0.095812878  0.098023366            1 
  830000    1.1219958   -2.5926781    952.53172  0.095635715  0.098004246            2 
  831000    1.0977852   -2.5636981    954.11403  0.095679305  0.097984296            1 
  832000    1.1193781   -2.5518753    953.33024  0.095485801   0.09796451            4 
  833000     1.121197   -2.5859517    957.11104  0.095749404  0.097945098            2 
  834000    1.1243966   -2.5712395    961.07764  0.096030939  0.097925495            3 
  835000    1.1320162    -2.588084     959.7295  0.095781388  0.097906765            1 
  836000    1.1050375   -2.5643998    959.77878  0.095671728  0.097887666            1 
  837000    1.1269701   -2.5583027    962.34362  0.095812786  0.097867943            2 
  838000    1.0902561   -2.5623496    964.18332  0.095881396   0.09784764            2 
  839000    1.1159709   -2.5756329     963.8091  0.095729947  0.097828734            2 
  840000    1.1156576   -2.5564323    959.07946  0.095146772  0.097808631            2 
  841000    1.0993685   -2.5788042    969.09088  0.096025652  0.097788619            3 
  842000    1.1189343   -2.5760483    963.50035  0.095358309  0.097769565            1 
  843000    1.1338987   -2.6110636    970.26976  0.095914369  0.097751153            1 
  844000    1.1191746   -2.5821106    966.88478  0.095466506  0.097731715            2 
  845000     1.162404   -2.5613964    969.54243  0.095615624  0.097712317            1 
  846000    1.1179439   -2.5677672    968.29728  0.095379952  0.097693049            1 
  847000    1.1033878   -2.5642136    969.61662  0.095397149  0.097672015            2 
  848000    1.0983645     -2.58075     969.0441   0.09522839  0.097652441            1 
  849000    1.1153693    -2.580851    975.38536  0.095738649  0.097633431            7 
  850000    1.1328661   -2.6025568    972.98482  0.095390668  0.097614086            3 
  851000    1.1228352   -2.5750192    975.92814  0.095566798  0.097595624            2 
  852000    1.1006092   -2.5476706    978.18148  0.095675027  0.097576412            1 
  853000    1.0981619   -2.5760002    977.76534   0.09552221  0.097557233            2 
  854000    1.1246224   -2.5617451    985.26913  0.096142577  0.097538357            2 
  855000    1.1039103    -2.596862    977.55491  0.095278256  0.097518818            2 
  856000    1.1160898   -2.5945717    978.07882  0.095217954  0.097500303            2 
  857000    1.1162193   -2.5754636    983.22171  0.095606934  0.097481826            1 
  858000    1.0908165   -2.5843395    981.68347  0.095346103  0.097463378            1 
  859000    1.1242647   -2.5981604    978.97715   0.09497256  0.097445288            4 
  860000    1.1087215   -2.5496012    984.44821  0.095392268  0.097427942            1 
  861000    1.1264603   -2.5665624    989.02793  0.095724732  0.097410083            3 
  862000     1.119815   -2.6192914    986.49687  0.095368994  0.097393411            6 
  863000    1.1055474   -2.5972869     991.4233  0.095734193  0.097375889            2 
  864000    1.1184732   -2.5873854    990.86031  0.095569089  0.097358656            1 
  865000    1.0955465   -2.5865344    991.64495  0.095534195  0.097341519            3 
  866000    1.1136782   -2.5796564    993.54961   0.09560716  0.097324792            1 
  867000    1.1130964   -2.5807152    991.74569    0.0953235   0.09730806            1 
  868000    1.1133748   -2.5899672    991.82109  0.095220919  0.097291991            3 
  869000    1.1129543   -2.5560281    998.16981  0.095720159  0.097275711            1 
  870000    1.1178809   -2.5483026    1001.4209  0.095921543  0.097259522            4 
  871000     1.111505   -2.5610018    999.67048  0.095643942  0.097243207            5 
  872000    1.1113434    -2.582174    995.35802  0.095122135  0.097226508            3 
  873000    1.1238594   -2.5747588    1002.1172  0.095658383  0.097209361       -1e+20 
  874000    1.0835333   -2.5659442    1002.0477   0.09554231  0.097192778            3 
  875000    1.1241453   -2.5630374    1003.8784  0.095607463  0.097175147            4 
  876000    1.1087759    -2.597093    1001.0192  0.095226335   0.09715821            1 
  877000    1.0911849   -2.5993778    1000.7553  0.095092675   0.09714064            1 
  878000    1.1087237   -2.5750981    1004.9075  0.095378465  0.097123166            2 
  879000     1.129375   -2.5490956     1007.956  0.095558968  0.097106504            5 
  880000    1.1062015   -2.5785462    1003.6687  0.095044385  0.097089877            1 
  881000    1.0958483   -2.5881674    1009.3134  0.095470434  0.097073721            2 
  882000    1.0994718   -2.5532788     1016.225  0.096015214  0.097056791            1 
  883000    1.1157146   -2.5765393    1011.9545   0.09550344  0.097040403            2 
  884000    1.1562751   -2.6044223    1010.7209  0.095279116  0.097023181            1 
  885000    1.1237885   -2.5674135    1013.8209  0.095463366  0.097006134            3 
  886000     1.116054   -2.5942736    1014.7672  0.095444624  0.096988537            1 
  887000    1.1046226   -2.5678498    1011.6348  0.095042727  0.096971012            2 
  888000    1.1124486   -2.5858804    1009.8481  0.094768029  0.096952796            1 
  889000    1.1104876    -2.566541    1018.4563  0.095468341  0.096935569            2 
  890000    1.0943801   -2.5834136    1015.9322   0.09512474  0.096918651            2 
  891000    1.0868872   -2.5946923     1016.916  0.095109988  0.096900511            3 
  892000     1.119602   -2.5970593    1019.2989  0.095225976  0.096882009            5 
  893000     1.107147   -2.5850767    1017.5474  0.094955902  0.096863032            3 
  894000    1.0939484   -2.5791407    1016.0814  0.094713036  0.096843962            2 
  895000    1.1097928   -2.5906082    1020.7458  0.095041506  0.096826759            1 
  896000    1.0873957   -2.6059233     1020.455  0.094908387  0.096808748            4 
  897000     1.100774   -2.5750932    1023.0759  0.095046066  0.096791668            1 
  898000     1.088755    -2.577427    1022.4428  0.094881479  0.096774684            3 
  899000    1.0815442   -2.6008881    1020.8546  0.094628716  0.096756501            4 
  900000    1.1142349   -2.5808146    1024.2912  0.094841774  0.096739545            3 
  901000    1.1010244   -2.5959091    1026.0593  0.094900047  0.096722449       -1e+20 
  902000    1.1060999   -2.6048728    1023.1547  0.094526483  0.096705192            2 
  903000    1.1169882   -2.6206415    1030.9151  0.095137972  0.096686668            2 
  904000    1.1255117    -2.557059    1029.1477   0.09486981  0.096669015            1 
  905000    1.0954746   -2.6055635    1028.1881  0.094676621  0.096651441            2 
  906000    1.1103598   -2.5948156    1029.4807  0.094691014  0.096634596            2 
  907000     1.115568   -2.6136822    1030.1128   0.09464469  0.096616943            1 
  908000     1.121421   -2.5747009    1033.6525  0.094865317  0.096599637            1 
  909000    1.0846948   -2.6074607     1033.211  0.094720478  0.096582094            1 
  910000    1.1106653   -2.5989482    1033.9712  0.094686004  0.096564668            1 
  911000    1.1100109   -2.5829731     1037.529  0.094907519  0.096546692            1 
  912000    1.1127684   -2.5811646    1036.5393  0.094713022  0.096528176            1 
  913000    1.1013149   -2.5876696     1037.578  0.094704092  0.096510367            2 
  914000    1.1361417   -2.5906172    1034.7787  0.094345248  0.096492758            4 
  915000    1.1142555   -2.5910854    1040.2917  0.094744239  0.096474301            2 
  916000    1.1168233   -2.5743582     1038.506  0.094478344   0.09645678            3 
  917000    1.0922793   -2.6038737    1038.7139  0.094394209  0.096438746            2 
  918000    1.0843696   -2.6038046     1042.837  0.094665672  0.096420693            3 
  919000    1.1200607   -2.5981418    1038.2276  0.094144685  0.096401774            1 
  920000    1.1125453   -2.5989074    1040.9344  0.094287534  0.096383065            2 
  921000    1.0807839    -2.590094    1044.1826  0.094479066  0.096363811            1 
  922000    1.1149734   -2.5653321    1044.8084  0.094433154   0.09634409            2 
  923000    1.0947332    -2.580062    1049.7184  0.094774145  0.096324876            3 
  924000    1.1065023   -2.5900591    1042.9432  0.094060536  0.096304543            1 
  925000    1.1008904   -2.6114115    1042.6384  0.093931389  0.096284092            1 
  926000    1.1132072   -2.5777562    1050.6208  0.094548312  0.096263986            5 
  927000    1.1213075   -2.5856903    1042.9666  0.093758233  0.096244639            1 
  928000    1.1017124   -2.5781277    1050.4517  0.094329357  0.096226171            5 
  929000     1.095355   -2.5911848    1053.3067  0.094483916  0.096207748            2 
  930000    1.1000766   -2.5751941     1053.745  0.094421591  0.096188984            1 
  931000    1.0884849   -2.5678306     1046.368  0.093659866  0.096169169            3 
  932000    1.0751202   -2.5761981    1057.7523  0.094577276  0.096149727            1 
  933000    1.1003998   -2.5703692    1051.3267  0.093901996  0.096130514            1 
  934000    1.0756907   -2.6071733    1057.4021  0.094343513  0.096111209            1 
  935000    1.1157465   -2.5954208    1055.6051  0.094082453  0.096092365            4 
  936000     1.109959   -2.6057305    1057.4613  0.094147194   0.09607346            1 
  937000     1.094562   -2.5726518    1065.0887   0.09472507  0.096055207            3 
  938000    1.1023027   -2.5909502    1061.0525    0.0942655  0.096037022            2 
  939000    1.0967681   -2.5915644    1062.9193  0.094330783  0.096018138            1 
  940000    1.0841902   -2.6004511    1063.0764  0.094244366   0.09599872            1 
  941000      1.11025   -2.6080711    1061.3583  0.093992054  0.095980648            2 
  942000    1.0998794   -2.6042382     1062.706  0.094011504  0.095962385            5 
  943000    1.0923059   -2.6138394    1061.7983  0.093831592   0.09594387            3 
  944000     1.121493   -2.6192254    1064.7079  0.093989041  0.095925316            2 
  945000    1.0787929   -2.5885931    1067.9359   0.09417424   0.09590716            2 
  946000    1.1297332   -2.5860424    1069.4077  0.094204347  0.095889447            3 
  947000     1.086369   -2.5923803    1074.5301  0.094555619  0.095871458            1 
  948000    1.1005062   -2.6008785    1068.6505  0.093939042  0.095853858            2 
  949000    1.0989632   -2.5572231    1071.4174  0.094083017  0.095836075            2 
  950000    1.1049535   -2.5955218    1076.2697  0.094409623  0.095819321            2 
  951000    1.0942365   -2.5997134     1076.213   0.09430538  0.095803019            2 
  952000    1.1095461   -2.6109332    1077.0503  0.094279613  0.095786938            2 
  953000    1.0992049   -2.5722027    1079.9464  0.094433931  0.095769597            1 
  954000    1.0722823   -2.6119878    1073.9822   0.09381396  0.095752164            2 
  955000     1.090006   -2.5906109    1079.7594  0.094219839  0.095734045            3 
  956000    1.1028661   -2.5963806    1076.5259  0.093839425  0.095716282            2 
  957000    1.0842218   -2.5908136    1080.2044  0.094061683  0.095699496            3 
  958000    1.0905882   -2.5912164    1080.1216  0.093956299  0.095681968            1 
  959000    1.1080625    -2.606919    1080.7574  0.093913576  0.095664601            1 
  960000    1.1139136   -2.5961088    1084.8315  0.094169402  0.095647339            1 
  961000    1.0960785   -2.6156315    1078.7355  0.093542795  0.095628793            1 
  962000    1.0882275   -2.5890284    1085.4438  0.094026665  0.095610787            2 
  963000    1.1080308   -2.5918583    1090.9126  0.094402263  0.095592266            2 
  964000    1.0900878   -2.5923463    1086.1232  0.093890321  0.095574811            3 
  965000    1.1001005    -2.582626    1087.3546  0.093899357  0.095557688            2 
  966000    1.0818264   -2.5786872    1090.3018  0.094056399  0.095540133            1 
  967000    1.0929135     -2.58946    1090.3557  0.093963779  0.095522841            2 
  968000    1.0985323   -2.5779976    1091.3879  0.093955567  0.095505871            1 
  969000    1.1055281   -2.5885676    1092.4147  0.093946912  0.095488482            2 
  970000    1.1150296   -2.6126151    1092.7223  0.093876489  0.095471163            2 
  971000    1.1041883   -2.5541714    1097.5788  0.094196601  0.095454126            3 
  972000     1.113266   -2.6103668    1094.2747  0.093816416  0.095436334            4 
  973000    1.0853231   -2.5720813    1095.2194  0.093800907  0.095419025            1 
  974000    1.0633935   -2.5885305    1095.4157  0.093721394  0.095401171            2 
  975000    1.0674174   -2.5862385    1098.9647  0.093928611   0.09538354            2 
  976000    1.0910518   -2.6080195    1098.3541  0.093780238  0.095366224            1 
  977000     1.082181   -2.5820467    1103.6235  0.094133697  0.095349685            1 
  978000     1.107919   -2.5849736     1103.097  0.093992591  0.095333645            6 
  979000    1.1088035   -2.5812682    1102.4778  0.093843871  0.095317479            2 
  980000    1.0788806   -2.5926941    1103.3406   0.09382148  0.095300461            2 
  981000    1.1105748   -2.5958912    1106.5613  0.093999433  0.095284016            3 
  982000    1.0961614    -2.584933    1103.0087  0.093602231  0.095266695            2 
  983000    1.0958738   -2.5705467    1108.8626  0.094003274  0.095249397            5 
  984000    1.0888401   -2.5901975    1103.1837  0.093426803  0.095231897            2 
  985000    1.0940165   -2.5954021    1104.8344  0.093471603  0.095214149            4 
  986000    1.0663779   -2.5997923    1109.4704   0.09376863  0.095196456            2 
  987000    1.0743359   -2.6108734    1103.7146  0.093187656  0.095178509            1 
  988000     1.073912   -2.6189131    1110.3185  0.093650349  0.095160841            1 
  989000    1.0848944   -2.5986513     1115.037  0.093953234  0.095143106            2 
  990000    1.0758616   -2.6007658    1111.7752  0.093583767  0.095124533            2 
  991000     1.093783   -2.5971966    1109.0795  0.093262655  0.095106405            1 
  992000    1.0813463   -2.6167221    1111.0566   0.09333473  0.095087694            1 
  993000    1.0941353   -2.5918123    1109.1626  0.093081786   0.09506921            1 
  994000    1.0788164   -2.6228715    1107.7495  0.092869674  0.095050622            2 
  995000    1.0851239   -2.5947028    1114.3131  0.093326054  0.095031806            1 
  996000    1.0899003   -2.5889828    1112.3256  0.093066068  0.095012491            2 
  997000    1.1052223   -2.5905568    1116.9023  0.093355255  0.094992718            1 
  998000    1.0978823   -2.5978303    1113.6937  0.092993799  0.094973707            2 
  999000      1.11685   -2.6142652    1119.6538  0.093397884  0.094955145            4 
 1000000    1.0871763   -2.6330679    1117.4503  0.093120855   0.09493709            1 
 1001000    1.0926113   -2.6155661     1119.285  0.093180572  0.094918675            2 
 1002000    1.0964096   -2.6096146    1119.8076  0.093131041  0.094900044            2 
 1003000     1.099592   -2.6139514    1123.3408  0.093331738  0.094882208            3 
 1004000    1.0850198   -2.6181196    1121.3104  0.093070255  0.094864647            1 
 1005000    1.1029327   -2.6032291    1125.3235  0.093310409  0.094847363            1 
 1006000    1.0757432    -2.610061     1125.914  0.093266568  0.094830304            2 
 1007000    1.0747801   -2.5974019    1129.5273  0.093472962  0.094813246            2 
 1008000    1.0718715   -2.6140023    1130.3583  0.093448933  0.094797676            3 
 1009000    1.0951695   -2.5859878    1128.6677  0.093216688  0.094781573            9 
 1010000    1.0831181   -2.6199283     1129.045  0.093155525  0.094765856            3 
 1011000    1.1151609   -2.6120614    1134.5979  0.093521094  0.094749955            1 
 1012000    1.0579908   -2.6211878    1128.8374  0.092954329  0.094733698            2 
 1013000    1.0780839   -2.6018369    1137.3855  0.093565769  0.094717026            1 
 1014000    1.0914262   -2.5926153     1135.502  0.093318704  0.094700069            1 
 1015000    1.0971484   -2.5804101    1139.6053  0.093563654   0.09468396            2 
 1016000    1.0882054   -2.6099359    1135.1754  0.093108216  0.094668083            2 
 1017000    1.1022893   -2.6107373    1138.0529  0.093252452  0.094651061            1 
 1018000     1.093587   -2.5917145    1138.1177  0.093166153  0.094635575            2 
 1019000     1.101642   -2.6192219    1138.0603  0.093070024  0.094619567            3 
 1020000    1.0730787   -2.6088917    1143.6796  0.093437874  0.094603768            3 
 1021000    1.1054023   -2.6161441    1139.6327  0.093016057  0.094587585            2 
 1022000    1.0842076    -2.591923    1145.6786  0.093418022  0.094571409            7 
 1023000    1.1046587   -2.6225598    1142.8709  0.093097985  0.094555004            4 
 1024000    1.0928936   -2.6144994    1147.9403  0.093419623  0.094539259            2 
 1025000    1.0703449   -2.5985598    1144.8891  0.093080417  0.094524105            1 
 1026000     1.088713   -2.6187619     1147.307  0.093186075  0.094508945            1 
 1027000    1.0872075   -2.6024633    1144.3052  0.092851769  0.094493473            5 
 1028000    1.0733489   -2.6070227    1153.3073   0.09349119  0.094477075            1 
 1029000    1.1148545   -2.6392874    1146.3291  0.092835202  0.094460391            4 
 1030000    1.0977426   -2.6206489    1153.0051  0.093285204  0.094444792            1 
 1031000    1.0832909   -2.6169666    1154.8109  0.093340684  0.094428721            1 
 1032000    1.0901683    -2.618429    1150.4066  0.092894591  0.094412871            2 
 1033000    1.0954224   -2.5830064    1156.3764  0.093286255  0.094396402            2 
 1034000    1.0735302   -2.6136048    1158.1748   0.09334097  0.094379805            1 
 1035000    1.0910078   -2.6144902    1158.7466  0.093296825  0.094365216            2 
 1036000    1.0803951   -2.5918224    1158.4774  0.093185116  0.094349423            1 
 1037000    1.1084247    -2.643774     1157.461  0.093013583  0.094334131            4 
 1038000     1.089754   -2.6059551    1159.8718  0.093117518  0.094318101            1 
 1039000    1.0883399   -2.6347506    1158.8011  0.092942021  0.094302004            3 
 1040000      1.08162   -2.6191344    1163.8528  0.093257434  0.094286288            1 
 1041000    1.0837741   -2.5885039    1161.2706  0.092961143  0.094271047            2 
 1042000    1.0775114    -2.606796    1167.0047  0.093330507  0.094255505            2 
 1043000    1.0648847   -2.5826895    1162.8491  0.092909005  0.094240121            3 
 1044000    1.0470276   -2.6196058    1166.7325  0.093129987   0.09422518            2 
 1045000    1.0783227   -2.6367056    1165.5255  0.092944617  0.094210033            1 
 1046000     1.117228   -2.6179344    1169.0372  0.093135535  0.094194916            1 
 1047000     1.084413   -2.6282486    1168.8776  0.093033872  0.094180574            4 
 1048000     1.073064   -2.6021288     1171.726  0.093171599  0.094165381            2 
 1049000    1.0754207   -2.6284793    1171.7541   0.09308501  0.094151012            4 
 1050000     1.092689   -2.5838479    1175.3677  0.093283147  0.094136366            1 
 1051000    1.0975278   -2.6104032    1174.1634  0.093098904  0.094122046            2 
 1052000    1.0695247   -2.5953382     1177.257  0.093255469  0.094108126            2 
 1053000    1.0625195   -2.6150706    1174.1582  0.092921672  0.094093189            2 
 1054000    1.1086608   -2.6041141    1178.9606    0.0932132  0.094078279            1 
 1055000    1.0750262    -2.633562     1175.296  0.092835386  0.094063861            2 
 1056000    1.0939675   -2.6072632    1174.7458  0.092704053  0.094048574            1 
 1057000    1.0949144   -2.6365644    1176.1164  0.092724405  0.094033377            3 
 1058000    1.0849669   -2.6252791     1179.957  0.092939272   0.09401774            2 
 1059000    1.0855363    -2.613183    1180.7562  0.092914404  0.094002425            2 
 1060000    1.0851815   -2.6185719    1180.9739  0.092843862  0.093986582            1 
 1061000    1.0463478   -2.6006274      1182.14  0.092847945  0.093971045            1 
 1062000    1.0872956   -2.6426932    1179.8668   0.09258214  0.093956092            2 
 1063000    1.0795714   -2.6449096    1180.5113   0.09254557  0.093940318            2 
 1064000    1.0915675   -2.5994957    1190.0845  0.093208373  0.093924849            2 
 1065000    1.0710742   -2.6089388    1184.7867  0.092706318  0.093909608            1 
 1066000    1.1052702   -2.6183839    1185.9288  0.092708628  0.093893741            4 
 1067000    1.1100982   -2.6141311    1186.3792  0.092656918  0.093877774            3 
 1068000    1.0816169   -2.6523625    1185.8294  0.092527261  0.093861944            2 
 1069000    1.0918768   -2.6276939    1185.0208  0.092377675  0.093845885            3 
 1070000    1.1010904   -2.6416168    1182.1565  0.092068265  0.093829941            6 
 1071000    1.0761919   -2.6260897    1189.8171  0.092578361     0.093814            1 
 1072000    1.0641808   -2.6296147    1189.9093  0.092499166  0.093799317            2 
 1073000    1.1037567   -2.6071545    1184.3092  0.091978034  0.093782946            2 
 1074000    1.0532996   -2.6365564    1195.3739  0.092750925  0.093767036            2 
 1075000    1.0691607   -2.5907549    1192.5164  0.092443131  0.093750715            2 
 1076000    1.0815542   -2.6213648    1187.3007  0.091953275  0.093734935            3 
 1077000    1.0688223   -2.5958091    1192.9931  0.092308352  0.093719134            2 
 1078000    1.0996548   -2.6188668    1202.0816  0.092925291  0.093704228            2 
 1079000     1.083963   -2.6434754     1192.648  0.092110598  0.093689054            2 
 1080000    1.0927038   -2.6210866    1196.0858  0.092290568  0.093672939            2 
 1081000    1.1102777   -2.5886415    1202.9534  0.092734616   0.09365823            4 
 1082000      1.08083   -2.6193317    1202.8566  0.092641452  0.093642432            3 
 1083000    1.0549591   -2.6322469    1201.1285  0.092422939  0.093627065            2 
 1084000    1.0856164   -2.6197777    1201.3904   0.09235781  0.093611383            2 
 1085000     1.071665   -2.6314943      1201.88  0.092310294  0.093595536            3 
 1086000    1.0902889   -2.6069922    1201.6603  0.092208434   0.09358026            3 
 1087000    1.0703714   -2.6222454    1206.0593  0.092460851  0.093564056            1 
 1088000    1.0816658   -2.6221204    1203.6082  0.092188125  0.093547781            1 
 1089000    1.0873274   -2.6173734    1209.9199   0.09258646  0.093531621            2 
 1090000    1.0686113   -2.6313216    1198.5292  0.091630671  0.093515234            1 
 1091000    1.0788758   -2.6508562    1203.8982  0.091956779  0.093497706            4 
 1092000    1.0672297    -2.619821    1206.6075  0.092079327  0.093480327            2 
 1093000    1.0884067   -2.5908557    1198.0434  0.091342129  0.093462861            2 
 1094000    1.0939775   -2.6396778    1207.1395   0.09195152  0.093445775            3 
 1095000    1.0791853   -2.6082566    1210.2733  0.092106037  0.093428378            1 
 1096000    1.0719704   -2.6252431    1214.4506   0.09233961  0.093411466            2 
 1097000    1.0627282   -2.6177539    1212.1503  0.092080697  0.093394584            1 
 1098000    1.0773123   -2.6397932    1212.7251  0.092040462  0.093378445            3 
 1099000    1.0622064   -2.6334222    1216.7463  0.092261621  0.093362314            3 
 1100000    1.0676025   -2.6332206     1213.557  0.091936133  0.093346129            4 
 1101000     1.075973   -2.6099164     1218.285  0.092210488  0.093329759            2 
 1102000    1.0772018   -2.6232864    1215.2223  0.091895212  0.093313861            2 
 1103000     1.058649   -2.6151197    1219.5735  0.092140637  0.093297764            2 
 1104000    1.0876262   -2.6221117    1218.2783  0.091959412  0.093281137            1 
 1105000     1.060241   -2.6239288     1218.256  0.091874509    0.0932654            3 
 1106000     1.094499   -2.6414951    1222.2631  0.092093361  0.093249569            3 
 1107000    1.1107871   -2.6434196     1222.218  0.092006776  0.093234227            2 
 1108000     1.077245    -2.641167    1224.1572  0.092069582   0.09321767            1 
 1109000    1.0718749   -2.5911771    1222.8234  0.091886336   0.09320157            4 
 1110000    1.0832257   -2.6202555    1224.5384  0.091932314    0.0931854            2 
 1111000    1.0566135   -2.6057994    1225.4984  0.091921574  0.093168579            7 
 1112000    1.0898783   -2.6313255    1228.6516   0.09207521  0.093152875            2 
 1113000     1.082707   -2.5952656    1232.1251  0.092252556  0.093136883            2 
 1114000    1.0596191   -2.6369601    1231.7357   0.09214061  0.093120808            5 
 1115000    1.0613792   -2.6477771    1225.0783  0.091560411  0.093104857            2 
 1116000    1.0823136   -2.6051817    1236.9609  0.092365661  0.093089425            3 
 1117000    1.0964422   -2.6305789    1232.1803  0.091926316  0.093074259            2 
 1118000     1.088165   -2.6201256    1237.5185  0.092241984  0.093058805            1 
 1119000    1.0703827   -2.6053859    1232.6266  0.091795249  0.093043219            2 
 1120000    1.0670097   -2.6410422    1233.4171  0.091772105  0.093026989            4 
 1121000    1.0657453   -2.6340588    1233.0529  0.091663165  0.093010544            3 
 1122000    1.0892314   -2.6234974    1241.1393  0.092182063   0.09299378            2 
 1123000    1.0641328   -2.6442885    1234.5387  0.091610177  0.092977467            1 
 1124000    1.0811362   -2.6218468    1236.0068  0.091637517  0.092961775            2 
 1125000     1.063435   -2.6446763    1235.7893  0.091539951  0.092945795            1 
 1126000    1.0465309   -2.6021853    1242.7895  0.091976725  0.092929709            2 
 1127000    1.0670826   -2.5983497    1237.5686  0.091509064  0.092912935            1 
 1128000    1.0609932   -2.6460906    1240.3484  0.091633307  0.092896668            1 
 1129000    1.0686678   -2.6267834    1239.1856  0.091466311  0.092880137            2 
 1130000      1.06908   -2.6300097    1242.7593  0.091648917   0.09286328            1 
 1131000    1.0797711   -2.6412633    1236.2146   0.09108566   0.09284646            3 
 1132000    1.0686989   -2.6394413    1242.9709  0.091502566  0.092829356            3 
 1133000    1.0640752    -2.641795    1241.1569  0.091288384   0.09281252            1 
 1134000    1.0923993   -2.6338074    1243.6303  0.091389643  0.092795392            4 
 1135000    1.0726359   -2.6315984    1243.0204  0.091264347  0.092778391            2 
 1136000    1.0466676   -2.6336181    1249.5734  0.091664718  0.092761486            1 
 1137000    1.0624342   -2.6073643    1245.2564  0.091267689  0.092743859            2 
 1138000    1.0292546   -2.6463539    1246.4822  0.091277259  0.092725817            2 
 1139000    1.0811061   -2.6405961    1250.6373  0.091501123  0.092708206            1 
 1140000    1.0697085   -2.6130069    1250.5399  0.091413738  0.092690859            1 
 1141000    1.0608937   -2.6430232    1251.9211  0.091434493  0.092674435            2 
 1142000    1.0638936   -2.6223501    1255.1367  0.091589076  0.092657601            2 
 1143000    1.0608274   -2.6107737      1259.97   0.09186133  0.092640998            2 
 1144000    1.0587073   -2.6348138    1250.6791  0.091104248  0.092623901            3 
 1145000    1.0683871    -2.631522    1255.3915  0.091367646  0.092606916            1 
 1146000    1.0729008   -2.6430792    1251.3694  0.090995445  0.092590885            1 
 1147000    1.0505331   -2.6460071    1256.1785  0.091265509  0.092573463            2 
 1148000    1.0630989   -2.6398174    1256.7588  0.091228134  0.092556069            3 
 1149000    1.0633414   -2.6126221    1262.7431  0.091582762  0.092539789            2 
 1150000      1.05892   -2.6357878    1257.4024  0.091116116  0.092523055            2 
 1151000    1.0471602   -2.6140545    1267.3291  0.091755657  0.092506931            1 
 1152000    1.0457925   -2.6809141    1264.8717  0.091498244  0.092490683            3 
 1153000    1.0719186   -2.6381041    1257.7982  0.090907645  0.092474202            4 
 1154000    1.0422457   -2.6224866     1265.483  0.091383812  0.092458018            1 
 1155000     1.075982   -2.6378554     1264.022  0.091199278  0.092442182            2 
 1156000     1.047406   -2.6316457    1266.5741  0.091304364  0.092426087            1 
 1157000    1.0789543   -2.6091895    1269.0148  0.091401237  0.092410126            2 
 1158000    1.0569974   -2.6437616    1267.8323  0.091237211  0.092394224            2 
 1159000    1.0572946    -2.643979    1262.6408  0.090785219  0.092377965            2 
 1160000    1.0570995   -2.6307426    1272.5689  0.091420179  0.092361572            1 
 1161000     1.070685   -2.6107721    1272.3409  0.091325074  0.092346095            1 
 1162000     1.076313   -2.6058806    1276.4721  0.091542752  0.092330619            2 
 1163000    1.0774512   -2.6360578    1269.2704   0.09094801  0.092315184            1 
 1164000    1.0762705   -2.6551854     1274.351  0.091233608  0.092298999            3 
 1165000    1.0416284    -2.623167    1278.4121  0.091445786  0.092282725            1 
 1166000    1.0732657   -2.6500814    1279.6181   0.09145355  0.092267041            1 
 1167000    1.0645528   -2.6112115    1274.8413  0.091034084   0.09225078            2 
 1168000    1.0761241   -2.6198638    1276.3784   0.09106581  0.092235266            1 
 1169000    1.0773893   -2.6469017    1275.1629   0.09090126  0.092218968            1 
 1170000    1.0469058   -2.6172172    1280.2704  0.091187351  0.092203247            1 
 1171000    1.0631924   -2.6108464    1282.3437  0.091257025  0.092187509            2 
 1172000    1.0584927   -2.6454321    1274.6992  0.090635607  0.092171696            1 
 1173000     1.055769   -2.6445348    1281.0838   0.09101192  0.092155627            1 
 1174000    1.0544475    -2.635121    1287.5978  0.091396775  0.092139751            1 
 1175000    1.0833885   -2.6289883    1284.6732  0.091111571  0.092124577            2 
 1176000    1.0328616    -2.628315    1284.9717  0.091055251  0.092108953            1 
 1177000      1.07477   -2.6386639    1285.4432  0.091011272  0.092093251            2 
 1178000    1.0571666    -2.656073    1282.0003  0.090690454   0.09207751            3 
 1179000    1.0871348   -2.6197181    1288.1227  0.091046273  0.092062443            2 
 1180000    1.0532668   -2.6427894    1290.7899  0.091157479  0.092047046            4 
 1181000    1.0626564   -2.6090487    1290.2203  0.091040098  0.092031981            1 
 1182000    1.0792978   -2.6270567    1288.0802  0.090812193  0.092016379            2 
 1183000    1.0617454    -2.640056     1290.932  0.090936321  0.092000832            3 
 1184000    1.0746691   -2.6540074    1295.1554  0.091156771  0.091985762            6 
 1185000     1.065994   -2.6414332    1296.3027  0.091160525  0.091971014            1 
 1186000    1.0360123   -2.6530649    1298.2779  0.091222453  0.091955502            1 
 1187000    1.0853829   -2.6194042    1294.4468  0.090876638  0.091940742            1 
 1188000    1.0713976   -2.6403221    1294.6059  0.090811303  0.091926055            2 
 1189000     1.048001   -2.6722853    1300.2056  0.091127389  0.091911396            1 
 1190000    1.0399914   -2.6370393    1298.5886  0.090937579  0.091896174            5 
 1191000    1.0410741   -2.6175267    1296.3287  0.090703102  0.091881807            1 
 1192000    1.0626885   -2.6170055    1307.0813  0.091378724  0.091867517            2 
 1193000    1.0620792   -2.6556626    1303.5578  0.091056008   0.09185374            2 
 1194000     1.068994    -2.640847    1304.5885   0.09105168  0.091839397            1 
 1195000     1.066181     -2.63603     1307.493  0.091178034  0.091825028            1 
 1196000    1.0589464   -2.6477549    1309.9813  0.091275173  0.091811067            2 
 1197000    1.0461757   -2.6590462    1306.8983  0.090984286  0.091797086            2 
 1198000    1.0674931   -2.6580387    1308.1924  0.090998358  0.091783869            1 
 1199000    1.0574211   -2.6524099    1313.6166  0.091299461    0.0917703            5 
 1200000    1.0904237   -2.6176402    1315.7933  0.091374534  0.091757158            1 
 1201000    1.0803107   -2.6417128    1313.0103  0.091105348  0.091743795            1 
 1202000    1.0435022    -2.669899    1314.6258  0.091141553  0.091730151            2 
 1203000    1.0530736   -2.6323231    1320.4706  0.091470671  0.091717206            2 
 1204000    1.0781665    -2.623677    1323.9365  0.091634588  0.091704902            2 
 1205000    1.0595783   -2.6336564    1321.7971   0.09141059  0.091692457            2 
 1206000    1.0591653   -2.6364848    1321.2724  0.091298537  0.091679666            2 
 1207000    1.0402137   -2.6665882    1318.2618  0.091015036  0.091666794            2 
 1208000    1.0567442   -2.6673358    1321.3445  0.091152351  0.091654243            6 
 1209000    1.0488466   -2.6583882    1320.4904  0.091018084  0.091641779            1 
 1210000    1.0837103   -2.6474425    1322.1303  0.091055803  0.091629194            2 
 1211000    1.0812637   -2.6421789    1323.8404  0.091098295  0.091616959            2 
 1212000    1.0771558   -2.6610586    1323.7734  0.091018525  0.091604196            1 
 1213000    1.0683919   -2.6296849    1327.7276  0.091215141  0.091591262            5 
 1214000    1.0273249   -2.6452646    1328.1013  0.091165656  0.091578563            1 
 1215000    1.0867464   -2.6600079    1321.7709  0.090656441  0.091565712            3 
 1216000    1.0506658   -2.6360013    1331.4842  0.091247547  0.091552987            3 
 1217000    1.0460245    -2.642091    1328.6787  0.090980462  0.091540541            4 
 1218000    1.0741717   -2.6642397    1333.9743   0.09126808  0.091527807            2 
 1219000    1.0513073   -2.6341473    1334.8763  0.091254877  0.091515199            3 
 1220000    1.0648129   -2.6298144    1330.2666  0.090865208  0.091502798            2 
 1221000    1.0453881   -2.6516313    1331.9264  0.090904071  0.091489533            1 
 1222000    1.0592053     -2.66047    1332.4162  0.090863082  0.091476953            2 
 1223000    1.0600216   -2.6582852    1333.9293  0.090891888  0.091463361            2 
 1224000    1.0537403   -2.6364016    1336.4507  0.090989289  0.091450626            2 
 1225000    1.0341197   -2.6410791    1341.2834   0.09124377  0.091437584            1 
 1226000    1.0390128   -2.6320877    1338.0819  0.090951735  0.091424527            1 
 1227000    1.0629726   -2.6071128    1338.9644  0.090937546  0.091411376            2 
 1228000    1.0799116   -2.6393016    1339.2541  0.090883151  0.091398813            1 
 1229000    1.0343313   -2.6614945    1341.5351  0.090963866  0.091386299            5 
 1230000    1.0303091   -2.6297475     1343.278  0.091007994  0.091373627            2 
 1231000     1.053632   -2.6343343    1346.7994   0.09117245   0.09136136            2 
 1232000    1.0514153   -2.6494228    1341.7058  0.090753909  0.091349176            2 
 1233000    1.0455586   -2.6751779    1344.3534  0.090859244  0.091337059            3 
 1234000     1.055683   -2.6534498    1347.6699  0.091009581  0.091325514            2 
 1235000    1.0367962   -2.6407411    1351.8531   0.09121816  0.091313407            2 
 1236000    1.0322833   -2.6515099    1349.9951   0.09101909  0.091300804            3 
 1237000    1.0524341   -2.6447245    1350.4559  0.090976551  0.091288775            2 
 1238000    1.0538041   -2.6237319    1352.5748  0.091045692  0.091276843            4 
 1239000    1.0633781   -2.6290854    1352.3089  0.090954325  0.091265395            1 
 1240000     1.061961   -2.6432356     1353.895  0.090987568  0.091253651            1 
 1241000    1.0492687   -2.6598955    1352.0232  0.090788555  0.091241903            2 
 1242000    1.0503732   -2.6701194    1350.6844  0.090625634   0.09122987            1 
 1243000    1.0565627   -2.6583116    1349.6208  0.090481418  0.091217645            1 
 1244000    1.0554546   -2.6550075    1349.9827  0.090432925   0.09120592            3 
 1245000    1.0500588   -2.6565195     1362.295  0.091184405  0.091193853            3 
 1246000    1.0580914    -2.649542    1356.6744  0.090735312  0.091182518            3 
 1247000    1.0878787   -2.6465203    1358.9887  0.090817209  0.091170464            5 
 1248000    1.0644716   -2.6633275    1359.3738   0.09077015   0.09115802            1 
 1249000     1.074316   -2.6485782    1359.4659  0.090703623  0.091145668            2 
 1250000    1.0370205    -2.628006    1364.0803  0.090938686  0.091132933            2 
 1251000    1.0465046   -2.6588621    1361.5139  0.090695037  0.091120533            1 
 1252000    1.0504286    -2.643569    1363.2531  0.090738358  0.091108149            2 
 1253000    1.0255285    -2.650455     1366.922  0.090909949  0.091095667            2 
 1254000    1.0531249   -2.6641187    1364.2395   0.09065919  0.091083188            2 
 1255000     1.043037   -2.6574747    1367.4755  0.090801827   0.09107105            2 
 1256000    1.0506103   -2.6456879    1361.4392  0.090329035  0.091058919            3 
 1257000    1.0535586   -2.6361691     1372.804  0.091010604  0.091046367            1 
 1258000    1.0534241   -2.6455773      1365.05  0.090424616   0.09103391            2 
 1259000    1.0477987   -2.6606562    1363.8163  0.090271133  0.091021263            2 
 1260000    1.0342617   -2.6583094     1366.625  0.090385248  0.091007698            2 
 1261000    1.0572492   -2.6498173    1372.4057  0.090695595  0.090994765            2 
 1262000    1.0489491   -2.6452942    1369.8639  0.090455881  0.090981429            2 
 1263000    1.0507564   -2.6318334    1372.3403  0.090547659  0.090968087            1 
 1264000    1.0650819   -2.6805703    1371.8933   0.09044655   0.09095399            2 
 1265000    1.0574953   -2.6338879    1371.9092  0.090376102  0.090941348            3 
 1266000    1.0368071    -2.667613    1376.0176  0.090575146  0.090928439            3 
 1267000     1.043949   -2.6508149    1379.9312  0.090761066  0.090915599            2 
 1268000     1.055173    -2.654998    1375.0223  0.090366871  0.090902318            3 
 1269000    1.0280353   -2.6721491    1379.7644  0.090607068  0.090889403            3 
 1270000    1.0463633    -2.653333    1372.5749  0.090063968  0.090876015            2 
 1271000     1.062142   -2.6552937    1376.0216  0.090219095  0.090862907            2 
 1272000    1.0495647   -2.6594787    1380.2518  0.090425304  0.090850277            2 
 1273000    1.0594338   -2.6823071    1381.9125  0.090462981  0.090837527            2 
 1274000    1.0539822   -2.6359936    1382.2677  0.090415206  0.090825238            1 
 1275000    1.0402328   -2.6501711    1380.9185  0.090256109  0.090812724            2 
 1276000    1.0370919   -2.6643204    1380.0967  0.090131704    0.0907997            2 
 1277000    1.0321371   -2.6312568     1384.857  0.090371772  0.090786663            1 
 1278000    1.0452423   -2.6689986    1388.1925  0.090518552  0.090774777            2 
 1279000    1.0449495   -2.6456048    1390.5513  0.090601467  0.090761982            2 
 1280000    1.0372643   -2.6514209    1386.3942  0.090260036  0.090749214            3 
 1281000    1.0275463   -2.6616538    1387.4996  0.090261491  0.090736029            2 
 1282000    1.0611378   -2.6876083    1381.2256  0.089783257  0.090723079            1 
 1283000    1.0479153    -2.661815    1389.0899  0.090224076  0.090709792            2 
 1284000     1.048429   -2.6371039     1388.912  0.090142266  0.090695909            5 
 1285000    1.0431664   -2.6759688     1382.283   0.08964222  0.090682561            2 
 1286000    1.0307992    -2.653114    1391.7991  0.090189161  0.090668525            2 
 1287000    1.0573809   -2.6704587    1389.3236  0.089958794  0.090655342            1 
 1288000    1.0324323   -2.6637503     1397.382  0.090410324  0.090641531            4 
 1289000    1.0583088   -2.6876203    1393.5018  0.090089332  0.090628256            1 
 1290000    1.0650608   -2.6784717    1394.8474  0.090106423  0.090614447            2 
 1291000    1.0425095   -2.6322099    1393.6546  0.089959631   0.09060104            4 
 1292000    1.0786845   -2.6396913    1389.4853  0.089621087  0.090587352            1 
 1293000    1.0458762   -2.6648431    1396.8656  0.090027428  0.090573179            3 
 1294000    1.0500919   -2.6726558    1392.1827   0.08965628  0.090558887            4 
 1295000    1.0495234   -2.6633345    1395.3342  0.089789844  0.090545357            2 
 1296000    1.0464927   -2.6661604    1403.1033  0.090220118  0.090531815            2 
 1297000    1.0536701    -2.658533    1393.9337  0.089561404  0.090517962            3 
 1298000    1.0344637   -2.6309056    1401.0882  0.089951733   0.09050391            2 
 1299000    1.0395866   -2.6773521    1401.6887  0.089921009  0.090489823            2 
 1300000    1.0348338   -2.6584702    1400.6102  0.089782702  0.090475532            3 
 1301000    1.0653048   -2.6571734    1400.1007  0.089681058  0.090461278            2 
 1302000    1.0454124   -2.6776004    1399.9969   0.08960554  0.090446991            1 
 1303000    1.0186685   -2.6526116    1401.9165  0.089659537  0.090432242            4 
 1304000     1.024239   -2.6543085    1404.9239  0.089782968  0.090418007            1 
 1305000    1.0378157   -2.6689116    1404.4021  0.089680849  0.090404061            1 
 1306000    1.0438999   -2.6769812    1409.0325  0.089907639  0.090390217            3 
 1307000    1.0491265   -2.6866244    1405.3699  0.089605324   0.09037621            2 
 1308000     1.055721   -2.6309465    1406.5665  0.089613056  0.090363016            2 
 1309000     1.046183   -2.6642926    1408.8556  0.089690323   0.09034951            1 
 1310000    1.0269542   -2.6727233    1405.4861  0.089407513  0.090335568            2 
 1311000     1.031153   -2.6321924    1411.1699  0.089700604  0.090321667            1 
 1312000     1.062987    -2.664583    1419.6286  0.090169498  0.090308294            2 
 1313000      1.05216   -2.6606672    1412.1228  0.089624446  0.090295259            2 
 1314000    1.0467064   -2.6397037    1414.8704  0.089730495  0.090281832            3 
 1315000    1.0528026   -2.6801692    1414.2627  0.089623748  0.090268052            2 
 1316000    1.0443223   -2.6382884    1422.0733  0.090050237  0.090254699            3 
 1317000    1.0333253   -2.6740298    1419.7865   0.08983716  0.090241762            2 
 1318000    1.0263135   -2.6495031    1422.8692  0.089963909  0.090228367            3 
 1319000    1.0216895    -2.658197    1421.8038   0.08982839  0.090214485            1 
 1320000    1.0533312   -2.6646925    1422.7828  0.089822146  0.090200694            1 
 1321000    1.0448131   -2.6696294    1422.4032  0.089730206  0.090186809            3 
 1322000    1.0421087   -2.6379431    1425.8912  0.089882196  0.090172987            1 
 1323000    1.0542149    -2.681763    1427.1137  0.089891261  0.090159796            4 
 1324000    1.0351512   -2.6795259    1419.6982  0.089356632  0.090146652            5 
 1325000    1.0279204   -2.6765884    1425.6657  0.089664507  0.090133401            1 
 1326000    1.0569659   -2.6512927    1428.3273  0.089764158  0.090119681            2 
 1327000    1.0293889   -2.6714796    1422.8335  0.089351511  0.090106321            1 
 1328000    1.0314293   -2.6642308    1424.7768  0.089406174   0.09009246            1 
 1329000    1.0437739   -2.6616484    1428.6376  0.089580988  0.090078544            2 
 1330000    1.0417206   -2.6624863    1423.9427  0.089219465  0.090064932            2 
 1331000    1.0462336   -2.6818027    1431.9061  0.089651024  0.090050818            2 
 1332000     1.043006   -2.6509178    1425.2406  0.089166706  0.090037315            4 
 1333000    1.0518935   -2.6413049    1427.7757  0.089258294  0.090023771            3 
 1334000    1.0170995   -2.6745288    1430.9662  0.089390692   0.09000939            2 
 1335000     1.039527   -2.6880125    1431.0233  0.089327299  0.089995118            2 
 1336000    1.0149075   -2.6377039    1432.6888  0.089364321  0.089981327            2 
 1337000    1.0170107   -2.6758676    1429.7564  0.089114709   0.08996732            1 
 1338000    1.0198727   -2.6727952    1424.6401  0.088729454  0.089952963            3 
 1339000     1.026096   -2.6635702    1430.8071  0.089046993  0.089938424            4 
 1340000    1.0347951   -2.6818032     1433.874  0.089171271  0.089924834            1 
 1341000    1.0543831    -2.672558    1434.1096  0.089119412  0.089910782            3 
 1342000    1.0165462   -2.6596544    1439.1117  0.089363619  0.089896308            3 
 1343000    1.0321895   -2.6582234    1438.4676  0.089257113  0.089882057            1 
 1344000    1.0399687   -2.6691685     1438.826  0.089212922  0.089868295            3 
 1345000    1.0639008   -2.6801563    1437.6216  0.089071969  0.089854323            1 
 1346000    1.0346769   -2.6458706    1440.5331   0.08918605  0.089840263            3 
 1347000    1.0270608   -2.6816618    1440.1853  0.089098324  0.089826477            1 
 1348000    1.0462546   -2.6388603    1439.4848  0.088988924  0.089812396            1 
 1349000    1.0179234   -2.6616066    1445.1124  0.089270598  0.089798509            3 
 1350000    1.0524652   -2.6492772    1444.9699  0.089195676  0.089784807            1 
 1351000    1.0378252   -2.6864747    1446.2569  0.089209038  0.089771159            1 
 1352000    1.0259045   -2.6985246    1442.1475  0.088889763  0.089757296            2 
 1353000    1.0288647    -2.674776    1440.7845  0.088740113  0.089743365            1 
 1354000      1.04391   -2.6560375    1444.9249  0.088929402  0.089729386            1 
 1355000     1.032331   -2.6845557    1447.5508  0.089025263  0.089714997            1 
 1356000    1.0216986    -2.676595    1447.8458  0.088977739  0.089700011            3 
 1357000    1.0464621   -2.6567643    1451.6765  0.089147414  0.089685266            2 
 1358000    1.0334045   -2.6650069     1451.886  0.089094623  0.089670525            2 
 1359000    1.0464854   -2.6570147    1449.5442   0.08888547  0.089655447            2 
 1360000    1.0700708   -2.6565164    1448.2922  0.088743398  0.089640672            1 
 1361000    1.0371453   -2.6724335    1447.0951  0.088604894  0.089625336            3 
 1362000     1.041354   -2.6610891    1460.4876  0.089359251  0.089610935            2 
 1363000    1.0563926   -2.7005869    1453.0454  0.088838676  0.089596521            1 
 1364000    1.0200193   -2.6560036    1456.4526  0.088981708  0.089581817            4 
 1365000    1.0441909   -2.6959973    1452.0273  0.088646354  0.089566739            1 
 1366000    1.0263651   -2.6425915    1456.9621  0.088882507  0.089552022            1 
 1367000     1.027215   -2.6632203     1465.459  0.089335466   0.08953717            3 
 1368000     1.020093   -2.6807899    1460.2892  0.088955241   0.08952317            2 
 1369000    1.0495972   -2.6683462    1461.8315  0.088984144  0.089508747            2 
 1370000    1.0195744   -2.6680048    1462.0496  0.088932457  0.089494793            3 
 1371000    1.0504714   -2.6677825    1461.1081  0.088810366  0.089480522            2 
 1372000    1.0221697   -2.6605667    1460.7774  0.088725546  0.089466828            2 
 1373000    1.0230955   -2.6835136    1458.3254  0.088512101  0.089452622            3 
 1374000    1.0242842   -2.6519534    1464.1798  0.088802753  0.089438177            1 
 1375000    1.0268712   -2.6776594    1471.3035  0.089169907  0.089424463            2 
 1376000    1.0135863   -2.6949888    1469.7106  0.089008637  0.089410385            2 
 1377000    1.0402098   -2.6850309    1460.1693  0.088366574  0.089396273            2 
 1378000    1.0471632    -2.643423    1472.0727  0.089022298  0.089382973            1 
 1379000    1.0303905   -2.6728586    1467.9189  0.088706727  0.089369685            1 
 1380000    1.0423931   -2.6696628    1471.0935  0.088834147  0.089355995            1 
 1381000    1.0338646    -2.698182    1474.2401  0.088959697  0.089342213            2 
 1382000    1.0326682   -2.6936808    1475.7748   0.08898787  0.089328518            2 
 1383000    1.0524179   -2.6618029    1472.0261  0.088697645  0.089314651            1 
 1384000    1.0169647   -2.7042757    1471.8869  0.088625177  0.089301042            3 
 1385000    1.0204373   -2.6684351    1481.2444  0.089124215  0.089286606            1 
 1386000    1.0216185   -2.6875627    1467.7429  0.088248127  0.089273122            3 
 1387000    1.0317007   -2.6755149    1474.2059  0.088572812  0.089258785            2 
 1388000    1.0245175    -2.664926    1478.1874  0.088748043  0.089244059            4 
 1389000    1.0274709   -2.6822714    1472.0304  0.088314757  0.089228985            2 
 1390000    1.0587784    -2.665465     1468.226  0.088023144  0.089214245            1 
 1391000    1.0189725    -2.667015    1473.2738   0.08826227  0.089198852            5 
 1392000    1.0383831   -2.6648073    1474.7373  0.088286477  0.089183867            3 
 1393000    1.0125433   -2.6663838    1472.4889   0.08808859  0.089168748            2 
 1394000    1.0250515   -2.6887089     1471.851  0.087987269  0.089153573            3 
 1395000     1.034988   -2.6976377    1477.8214  0.088280847  0.089138354            2 
 1396000    1.0163396   -2.6526887    1485.3716  0.088668314  0.089123899            2 
 1397000    1.0252883   -2.6795566    1475.8797  0.088038635  0.089108951            3 
 1398000    1.0234662   -2.7078394    1485.3646  0.088541045  0.089094534            2 
 1399000    1.0342876   -2.6830472    1484.5034   0.08842646  0.089079873            4 
 1400000    1.0227265    -2.677996    1487.4203  0.088536925  0.089065312            2 
 1401000    1.0211884   -2.6467604    1488.4249  0.088533483  0.089050411            2 
 1402000    1.0421108   -2.6853456    1486.5904  0.088361295  0.089035913            3 
 1403000    1.0472088   -2.6913533     1496.394  0.088880614  0.089021725            2 
 1404000    1.0400409   -2.6852029    1481.8097  0.087951667  0.089007025            3 
 1405000    1.0372792   -2.6880399    1485.4476  0.088104837  0.088992441            3 
 1406000    1.0147424   -2.6681316    1494.4917  0.088578221  0.088978251            4 
 1407000    1.0202872   -2.6609856    1496.7212  0.088647312  0.088964237            1 
 1408000    1.0271555   -2.6833616    1487.7625  0.088054126  0.088950357            1 
 1409000    1.0210182   -2.6816288    1488.6223  0.088042485  0.088935764            3 
 1410000    1.0233281   -2.6643321    1499.6218  0.088630133  0.088921506            3 
 1411000    1.0245564   -2.7123656    1490.2832  0.088015783    0.0889069            5 
 1412000    1.0367095   -2.6876367    1491.0552  0.087999009  0.088892251            2 
 1413000    1.0262077    -2.663955    1495.4001  0.088192976  0.088877413            2 
 1414000    1.0136108   -2.6693827    1498.1944  0.088295285  0.088863076            3 
 1415000    1.0486099   -2.6513253    1495.6997  0.088085965   0.08884845            3 
 1416000    1.0473013   -2.7027609    1497.1956  0.088111796  0.088834098            4 
 1417000    1.0381473    -2.668214    1490.9457  0.087682055  0.088819697            3 
 1418000    1.0288187   -2.6663743    1498.2562  0.088049844  0.088805461            3 
 1419000     1.022928   -2.7336927     1495.547  0.087828696  0.088790705            3 
 1420000    1.0342963   -2.7000552    1495.6462  0.087772663  0.088775956            2 
 1421000    1.0354874   -2.6832836    1501.2905  0.088041899  0.088761361            2 
 1422000    1.0525331   -2.6806239     1498.683  0.087827179  0.088746768            2 
 1423000    1.0084176   -2.6719355    1503.0105  0.088018885  0.088731937            2 
 1424000    1.0190559   -2.6587905    1503.5724  0.087989958  0.088717349            2 
 1425000    1.0312102     -2.64894    1506.5948   0.08810496  0.088702914            2 
 1426000    1.0254352   -2.6702084    1504.8919  0.087943658  0.088688527            2 
 1427000    1.0126459   -2.6844886    1504.3569  0.087850786   0.08867384            1 
 1428000    1.0318026   -2.6650268    1503.8256  0.087758263  0.088659243            2 
 1429000    1.0193642   -2.6979529    1500.1433  0.087482116  0.088644156            2 
 1430000    1.0248934   -2.6888176    1503.0537  0.087590544  0.088629017            4 
 1431000    1.0353838   -2.6434239    1508.8942  0.087869449  0.088613872            2 
 1432000    1.0324419   -2.7170418    1504.1682  0.087533064  0.088598587            2 
 1433000    1.0004543   -2.6709095    1511.2616  0.087884483  0.088582805            1 
 1434000    1.0257862    -2.682947    1506.4424  0.087543143  0.088567298            1 
 1435000    1.0350956    -2.687422     1508.674  0.087611733  0.088551636            4 
 1436000    1.0382998   -2.6717611    1505.7825  0.087382919  0.088535557            1 
 1437000    1.0252911   -2.6724942    1504.0961  0.087224315  0.088519689            3 
 1438000    1.0376798    -2.671346    1511.5691  0.087596724  0.088503672            3 
 1439000    1.0284787   -2.6867425    1505.4848  0.087183508  0.088488157            3 
 1440000    1.0414097   -2.6585939    1514.1186  0.087622605  0.088472806            2 
 1441000    1.0120203   -2.6863581    1511.5148  0.087411219  0.088457256            4 
 1442000   0.99107195     -2.67797    1510.9179  0.087316104  0.088441211            3 
 1443000     1.035267   -2.6890075    1507.9645  0.087085035   0.08842524            1 
 1444000    1.0361935    -2.685431    1513.4674  0.087342303  0.088408799            1 
 1445000    1.0350264   -2.6691703     1514.745  0.087355534  0.088392697            3 
 1446000   0.99890654   -2.6840674    1517.0849  0.087429976  0.088376895            5 
 1447000    1.0184549   -2.6763433    1512.2485   0.08709102  0.088361152            2 
 1448000    1.0322627   -2.6763194    1519.0882  0.087424504  0.088344956            1 
 1449000    1.0385574    -2.701026    1517.7894  0.087289477  0.088328897            2 
 1450000    1.0054033   -2.6828106    1521.9077   0.08746596  0.088313272            2 
 1451000    1.0256166   -2.7027748    1518.0477  0.087183996  0.088297429            2 
 1452000    1.0301969   -2.6899357    1519.4675  0.087205433  0.088281649            3 
 1453000    1.0251255   -2.6767327    1525.3612  0.087483436  0.088266033            2 
 1454000    1.0143393   -2.7086533    1518.3671  0.087022416  0.088250182            3 
 1455000    1.0284085   -2.6787116    1521.3267  0.087132115  0.088233903            3 
 1456000    1.0015382   -2.7163439    1520.5938  0.087030321  0.088218012            3 
 1457000    1.0074914   -2.6930134    1525.1407  0.087230652  0.088201984            2 
 1458000   0.98888642    -2.641531    1525.9913  0.087219436  0.088186496            3 
 1459000    1.0172502   -2.6533806    1527.1669  0.087226804  0.088171351            2 
 1460000    1.0132176   -2.6981212    1526.0474   0.08710316  0.088155681            1 
 1461000    1.0141818   -2.7047941    1531.4306  0.087350593  0.088140479            2 
 1462000    1.0073874   -2.6862916     1534.712  0.087477882  0.088125012            2 
 1463000    1.0308151   -2.6736931    1525.2479  0.086879008   0.08811015            4 
 1464000    1.0137648   -2.6799105    1530.5901  0.087123752   0.08809474            2 
 1465000    1.0292806   -2.7070273    1538.2984  0.087502754  0.088079462            3 
 1466000   0.99980485   -2.6787044    1535.8574   0.08730431  0.088064469            3 
 1467000    1.0106845   -2.6939957    1534.6381  0.087175536  0.088048914            3 
 1468000    1.0060489   -2.7061362    1531.6483  0.086946431  0.088032969            1 
 1469000    1.0071079   -2.6841872     1541.425  0.087441853  0.088017395            2 
 1470000    1.0213928   -2.7122634    1530.3509  0.086754588  0.088001942            3 
 1471000    1.0228453   -2.6957008    1538.6152  0.087163791  0.087986682            6 
 1472000    1.0205714   -2.6860433    1536.8772  0.087006184  0.087971482            2 
 1473000    1.0160769   -2.6799481    1543.9008  0.087344468  0.087956708            3 
 1474000    1.0184016   -2.6764764    1547.7026  0.087500148  0.087941724            2 
 1475000    1.0238793   -2.6623595    1542.1637  0.087127892  0.087926801            1 
 1476000    1.0292869   -2.6906592    1550.8558  0.087559609  0.087911734            2 
 1477000    1.0024959    -2.683136    1542.0135  0.087001439  0.087896577            4 
 1478000    1.0245061   -2.6846232    1546.2805  0.087183157  0.087881585            3 
 1479000    1.0187158   -2.6974274    1545.5766  0.087084548  0.087865953            3 
 1480000    1.0079132   -2.7007134    1545.5212  0.087022588  0.087850617            2 
 1481000   0.97948624   -2.6960474    1541.9623  0.086763578  0.087835392            3 
 1482000    1.0468121   -2.6854148    1549.6549   0.08713759   0.08782049            5 
 1483000    1.0238705   -2.6759846    1551.2026  0.087165802  0.087805523            4 
 1484000    1.0073757    -2.686417    1552.8134  0.087197517  0.087791029            1 
 1485000    1.0054007   -2.6620054    1552.7059  0.087132768  0.087776471            2 
 1486000    1.0100199   -2.6692721    1547.0655  0.086757821  0.087761676            2 
 1487000    1.0272265   -2.6890304    1550.9081  0.086914822  0.087746737            2 
 1488000    1.0048655   -2.6728159    1549.0865  0.086754397  0.087731573            3 
 1489000    1.0228436    -2.685577    1554.4803  0.086998005  0.087717004            2 
 1490000    1.0045628   -2.7027822     1552.445  0.086825785  0.087702559            5 
 1491000    1.0080352   -2.6997808      1559.76  0.087176392  0.087687863            1 
 1492000    1.0289809   -2.6829261     1553.426  0.086764186  0.087672834            3 
 1493000   0.99881438   -2.6924598    1556.5891  0.086882623   0.08765794            1 
 1494000    1.0276252     -2.70327    1556.1199  0.086798298  0.087643042            2 
 1495000    1.0427653   -2.7072501    1556.8991  0.086783675  0.087627993            1 
 1496000    1.0282251   -2.7147753    1559.3683   0.08686321  0.087612734            3 
 1497000    1.0151201   -2.7017604    1555.2057  0.086573465  0.087597415            2 
 1498000    1.0123971   -2.6921211    1558.1702  0.086680588  0.087582094            3 
 1499000   0.98821485   -2.7374168    1562.0073  0.086836076  0.087567025            2 
 1500000    1.0266085   -2.7223794    1564.2245  0.086901363  0.087551667            1 
 1501000    1.0114187   -2.7176481    1559.4287   0.08657721  0.087537105            2 
 1502000    1.0017547    -2.661819    1565.7088  0.086867996  0.087521924            2 
 1503000      1.03585   -2.7009876    1563.8517  0.086707234  0.087507395            2 
 1504000    1.0174921   -2.7051237    1563.1071  0.086608329  0.087492135            3 
 1505000    1.0140116   -2.7078364    1562.3155  0.086506951  0.087477384            1 
 1506000    1.0124431   -2.7046487    1564.3967  0.086564667  0.087462156            2 
 1507000    1.0306625   -2.7078074    1567.3192  0.086668836  0.087447002            3 
 1508000    1.0044113   -2.7060458     1568.907  0.086699107  0.087432024            3 
 1509000    1.0206501   -2.6879147    1572.3883  0.086833901  0.087416524            2 
 1510000    1.0272844   -2.7209857    1568.6319   0.08656909  0.087401725            2 
 1511000    1.0114706   -2.6900959    1567.7901  0.086465373  0.087386508            2 
 1512000    1.0093373   -2.7221899    1573.6644  0.086731946  0.087371535            2 
 1513000    1.0197737   -2.6911395    1569.4693   0.08644356  0.087356512            3 
 1514000    1.0034529   -2.7068696    1573.1588  0.086589542  0.087341488            4 
 1515000    1.0176803   -2.6927879    1566.4923  0.086165694  0.087326294            4 
 1516000    1.0258484   -2.7102707    1577.4847  0.086713099  0.087311381            2 
 1517000    1.0351165   -2.6844105    1575.8412  0.086565657  0.087296261            1 
 1518000    1.0172709   -2.6919249    1569.6438  0.086168413  0.087281191            3 
 1519000    1.0182087   -2.7012548    1578.1966    0.0865809   0.08726591            1 
 1520000    1.0024351   -2.7237056    1574.2776  0.086309076  0.087250763            3 
 1521000    1.0133101   -2.7008899    1575.7063  0.086330608  0.087235667            2 
 1522000    1.0196737   -2.7025421    1575.2286  0.086247732     0.087221            3 
 1523000    1.0213523   -2.7099378    1582.6872  0.086599209  0.087206159            2 
 1524000    1.0146521   -2.6908187    1583.3395  0.086578058   0.08719122            1 
 1525000   0.98945843   -2.7068931    1579.9114  0.086333955  0.087176313            2 
 1526000    1.0249708   -2.7080205     1582.562  0.086422127  0.087161812            2 
 1527000    1.0071731   -2.6820383    1586.5816  0.086584894  0.087147271            2 
 1528000   0.99627484   -2.6734572    1589.9975  0.086714525  0.087132425            2 
 1529000     1.027095   -2.7146132    1576.5782  0.085926432  0.087117414            2 
 1530000    1.0198922   -2.6905561     1589.687  0.086584257  0.087102131            2 
 1531000    1.0091164   -2.7266666    1583.0825  0.086168218  0.087087434            5 
 1532000   0.99424166     -2.72197    1583.5386  0.086136782  0.087072343            3 
 1533000   0.98790079   -2.7290527    1585.3201  0.086177435  0.087056916            2 
 1534000    1.0200304   -2.7050789    1585.7854  0.086146535  0.087041621            4 
 1535000    1.0047459   -2.6931985    1590.4844  0.086345518  0.087026347            2 
 1536000   0.99546692   -2.6806075    1593.3804  0.086446417  0.087011284            4 
 1537000    1.0040014   -2.6736129    1594.9681   0.08647626  0.086996184            3 
 1538000   0.98992068   -2.6907087    1590.4484  0.086175141  0.086981083            3 
 1539000    1.0133388   -2.7032244    1597.6279  0.086507902  0.086965818            1 
 1540000    1.0057872   -2.6897398    1586.8668  0.085869417  0.086951046            2 
 1541000    1.0124628   -2.7123366    1592.6136  0.086124462  0.086935639            1 
 1542000    1.0128791   -2.6988777    1590.9445   0.08597841  0.086920798            2 
 1543000   0.98551429   -2.7278878    1593.9856  0.086086928  0.086905355            5 
 1544000    1.0060073   -2.7239527    1595.3738  0.086106098  0.086890215            4 
 1545000    1.0138578   -2.7280589    1601.7785  0.086395821  0.086875577            2 
 1546000    1.0116083   -2.6954983    1598.9487  0.086187403  0.086860192            2 
 1547000    1.0255477   -2.7051218    1597.0196  0.086027775  0.086845709            2 
 1548000   0.99609769   -2.7056307    1601.0654  0.086189998  0.086831127            2 
 1549000    1.0014714   -2.7044107    1604.7071  0.086330271  0.086816175            2 
 1550000   0.99903349   -2.6764428    1601.8984  0.086123569  0.086801823            2 
 1551000    1.0152576   -2.7061449    1607.9879  0.086395223  0.086787306            5 
 1552000   0.99168773   -2.6829073    1600.8648  0.085957086  0.086772835            2 
 1553000    1.0047646   -2.7141334    1606.8951  0.086225324  0.086758259            2 
 1554000    1.0304522   -2.7398384    1600.4782  0.085825729  0.086743405            3 
 1555000    1.0129621   -2.7323051    1601.3754  0.085818618  0.086728323            2 
 1556000     1.004684   -2.7013348    1603.6694  0.085886321  0.086713328            3 
 1557000    1.0141671   -2.6872121    1612.1835  0.086286849  0.086698465            2 
 1558000    1.0067087   -2.6798566    1612.5946  0.086253455  0.086684029            2 
 1559000   0.99546569    -2.724805    1600.8101  0.085568214  0.086668906            2 
 1560000   0.99404418    -2.696777       1608.9  0.085945515  0.086654307            2 
 1561000    1.0036666   -2.7225379    1611.0798  0.086006822  0.086639677            2 
 1562000   0.98691386   -2.7093864     1606.601  0.085712814  0.086625157            3 
 1563000   0.98515577   -2.6902619    1611.9622  0.085943817  0.086610615            1 
 1564000   0.99508603   -2.7175456    1610.6965  0.085821423  0.086596092            3 
 1565000    1.0026425   -2.7202442    1607.5165  0.085597256  0.086581226            3 
 1566000   0.99267986   -2.7093961    1616.4607  0.086018558  0.086567117            3 
 1567000    0.9964618   -2.7198922    1620.1904  0.086162008  0.086552557            1 
 1568000     1.008802   -2.7217714    1606.8928   0.08540034  0.086537809            2 
 1569000   0.99467999   -2.6844829     1617.106  0.085888356  0.086523209            5 
 1570000   0.99392674    -2.713092    1622.1185  0.086099709  0.086508712            2 
 1571000   0.99007912   -2.7221302    1619.1512    0.0858875  0.086494611            3 
 1572000    0.9904134   -2.7025288    1621.1611  0.085939411  0.086480296            2 
 1573000    1.0241438   -2.7241032    1613.2028  0.085463172  0.086465869            2 
 1574000   0.99775293   -2.7235783    1624.2106  0.085991666  0.086451063            2 
 1575000     1.010478   -2.7058431    1620.6235  0.085747278   0.08643691            1 
 1576000    1.0084582   -2.7132747    1624.7099   0.08590894  0.086421969            3 
 1577000   0.99236151   -2.6896939    1619.9445  0.085602645  0.086407297            2 
 1578000    1.0294119   -2.7022376    1625.0439  0.085817696  0.086392828            1 
 1579000   0.99850837   -2.7039672    1626.2714  0.085828131  0.086378153            2 
 1580000    1.0161951   -2.7195524    1627.3034  0.085828239  0.086363408            3 
 1581000   0.98328228   -2.7170849    1627.6197   0.08579062  0.086348978            7 
 1582000   0.99677826   -2.6989884    1628.9804  0.085808068   0.08633442            2 
 1583000   0.99225884   -2.7214499    1628.8768  0.085748408  0.086320026            2 
 1584000   0.97800396   -2.6994207    1636.7018  0.086105943  0.086305708            2 
 1585000   0.99917225   -2.7014406    1637.9002  0.086114626  0.086291417            4 
 1586000   0.98995635   -2.7281533    1631.4151  0.085719585    0.0862774            1 
 1587000   0.99258619   -2.7045535    1633.9608  0.085799244  0.086263518            2 
 1588000   0.99678762   -2.7027026    1640.0042  0.086062351  0.086249913            1 
 1589000   0.99018401   -2.7436316    1631.5365  0.085564111  0.086236327            2 
 1590000   0.99805072   -2.7214801    1637.1276  0.085803333  0.086222509            4 
 1591000   0.96734556   -2.6917282    1645.8649  0.086207045  0.086209199            2 
 1592000    0.9827071   -2.6890365    1645.7613   0.08614747  0.086195778            2 
 1593000    1.0006468   -2.7052686    1637.1186  0.085641274  0.086181902            2 
 1594000   0.99164174   -2.7427612    1641.5357   0.08581847  0.086168504            2 
 1595000   0.99873321   -2.7097627    1643.9319   0.08588986  0.086154829            6 
 1596000   0.97942407   -2.6869542    1649.6179  0.086132933  0.086141743            1 
 1597000   0.96768032   -2.7064176    1641.8064  0.085671384  0.086128211            3 
 1598000    1.0065576   -2.7080948    1649.2878  0.086007915  0.086114785            3 
 1599000   0.99592464   -2.7152049    1645.7858  0.085771619  0.086101577            2 
 1600000    1.0016248   -2.7299921    1653.1602  0.086102094  0.086088509            1 
 1601000   0.97031648   -2.7124663    1653.3337  0.086057343  0.086075516            5 
 1602000   0.99173156   -2.7199398    1647.9566  0.085723917  0.086062107            4 
 1603000   0.99495433   -2.7208407     1653.867  0.085977699  0.086049255            3 
 1604000   0.99950458   -2.7201757    1646.5311  0.085542971  0.086036203            2 
 1605000    1.0070957   -2.7259739    1653.8603  0.085870213   0.08602282            2 
 1606000   0.98137673   -2.7002114    1654.3006  0.085839591  0.086009871            1 
 1607000   0.98147235   -2.7129349    1653.8597   0.08576331  0.085996531            3 
 1608000    1.0245156   -2.7435859    1650.5968  0.085540879  0.085983736            2 
 1609000   0.98226847   -2.7251039    1654.4369  0.085686603  0.085970591            2 
 1610000   0.98541169   -2.7391418    1656.3619  0.085733017  0.085957649            1 
 1611000   0.99258233   -2.7141663    1659.8264  0.085859009  0.085944547            1 
 1612000   0.99445812   -2.7102482    1662.7456  0.085956658  0.085931613            2 
 1613000    1.0108559   -2.7207543    1661.4071  0.085834217  0.085918582            2 
 1614000   0.99584672   -2.7056107    1659.9006  0.085703251  0.085905826            4 
 1615000   0.99014948   -2.7225924    1659.7451   0.08564216  0.085893132            5 
 1616000    1.0066481   -2.6975459    1663.0839  0.085761339  0.085880077            3 
 1617000   0.97657359   -2.6973928    1664.6127  0.085787089  0.085866903            2 
 1618000    1.0088196   -2.7131355    1657.7796  0.085382137  0.085853636            2 
 1619000    0.9875734   -2.7349243    1663.3514  0.085616191  0.085839858            2 
 1620000   0.98727649   -2.7176658    1660.1638  0.085399373  0.085825739            2 
 1621000   0.99489387   -2.7366991    1661.4821  0.085414463  0.085811671            5 
 1622000   0.99309019   -2.7185631    1657.8054  0.085172905  0.085797971            2 
 1623000    1.0098223   -2.6945251    1670.6508  0.085779975  0.085784295            1 
 1624000   0.98888169   -2.6990228    1667.3371  0.085557115  0.085770229            2 
 1625000   0.98282796   -2.7256183    1663.6957  0.085317728  0.085756367            2 
 1626000   0.98157946   -2.7132765    1668.5504  0.085514063  0.085742353            2 
 1627000   0.97105265    -2.738473    1667.5802  0.085411814  0.085728828            3 
 1628000   0.99127787   -2.7104452    1662.1967  0.085083779  0.085714779            1 
 1629000   0.98310639   -2.7118676    1672.6927   0.08556848  0.085701082            1 
 1630000    1.0021126   -2.7136024    1665.5714  0.085151913  0.085687682            1 
 1631000   0.99066589   -2.7128779    1666.9953  0.085172458  0.085674126            2 
 1632000    1.0014531   -2.7117139    1667.2567  0.085133616  0.085660402            3 
 1633000   0.96930294   -2.7355074    1670.6179  0.085253007  0.085646845            3 
 1634000    1.0113382    -2.733004    1672.8869   0.08531655  0.085632575            3 
 1635000   0.97927413   -2.7189667    1673.9644  0.085319284   0.08561834            3 
 1636000   0.98486894   -2.6917436    1674.1362  0.085275885  0.085604506            2 
 1637000   0.99382562    -2.717971    1677.6429  0.085402305   0.08559099            3 
 1638000   0.97445522   -2.7164126    1673.0202   0.08511499  0.085577099            2 
 1639000   0.97055607   -2.7159108    1672.5317  0.085038219  0.085563363            2 
 1640000   0.98140967   -2.7045615    1680.9627  0.085414771  0.085549975            2 
 1641000   0.99604901   -2.7313642    1680.6918  0.085348965  0.085536294            3 
 1642000   0.97447444   -2.7227259    1675.1629  0.085016387  0.085522259            2 
 1643000    1.0067791    -2.736405    1675.5685  0.084985214  0.085508129            2 
 1644000   0.98202066   -2.7436722    1673.4938  0.084828355  0.085494129            2 
 1645000   0.97392402    -2.715003    1683.8997  0.085303935  0.085479669            4 
 1646000   0.98692042    -2.707681    1685.7758  0.085347093  0.085465529            3 
 1647000   0.99102781   -2.7294423    1678.0426  0.084903997  0.085451828            6 
 1648000   0.96330676   -2.7520158    1684.8726  0.085197848    0.0854379            1 
 1649000    0.9832012   -2.7302479    1680.2499  0.084912567   0.08542366            4 
 1650000   0.99452668   -2.7345719    1679.3933  0.084817845  0.085410001            3 
 1651000   0.97324598   -2.7224844    1683.5533  0.084976442  0.085396294            4 
 1652000   0.98835933   -2.7285273    1679.3733   0.08471415  0.085382411            2 
 1653000   0.99276381   -2.7250728    1685.2157  0.084957433  0.085368308            3 
 1654000   0.99428376   -2.7503084    1687.5821  0.085025295  0.085354385            2 
 1655000   0.99408938    -2.745023    1683.8943  0.084788234  0.085340832            2 
 1656000    0.9660965    -2.723693    1696.3606  0.085364359  0.085326907            3 
 1657000   0.97262437   -2.7062054     1691.366  0.085061656  0.085313414            2 
 1658000   0.98837039   -2.7094794    1696.3466  0.085260686  0.085299889            1 
 1659000   0.99083346   -2.7093533    1687.7856  0.084779265  0.085286102            1 
 1660000    0.9768274   -2.7357787    1684.5419  0.084565358  0.085272241            2 
 1661000   0.97380546   -2.7160319      1694.03  0.084990466  0.085258436            2 
 1662000   0.97675575   -2.7282066    1686.2714  0.084550311  0.085244531            4 
 1663000   0.96973159   -2.7180822    1688.9922  0.084635809  0.085231034            7 
 1664000   0.98504274   -2.7327102    1695.5968  0.084915704  0.085217186            1 
 1665000   0.97921456   -2.7250797    1690.7479  0.084622017  0.085203357            2 
 1666000   0.98029346   -2.7379079    1693.2593  0.084696844  0.085189555            2 
 1667000   0.96716929   -2.7314044    1685.0274  0.084234521  0.085175448            2 
 1668000   0.97881906   -2.7276733    1692.3406  0.084549388  0.085160964            2 
 1669000    1.0205486   -2.7385821    1694.8561  0.084624329  0.085146825            4 
 1670000    1.0051962   -2.7310239    1693.2834   0.08449518  0.085132841            3 
 1671000    0.9705628    -2.721747    1695.6867  0.084564467  0.085118732            2 
 1672000   0.98461569   -2.7389936    1697.9635  0.084627369  0.085104688            2 
 1673000   0.96995489   -2.7168462    1701.7903  0.084767398  0.085091055            5 
 1674000   0.98644379   -2.7323953    1699.7582  0.084615604  0.085077389            5 
 1675000   0.97433031   -2.7312018    1707.5675  0.084953605  0.085064075            6 
 1676000   0.97893474   -2.7460352    1705.8967  0.084819842  0.085050555            2 
 1677000   0.95845333   -2.7164786     1709.203  0.084933562   0.08503699            5 
 1678000   0.98388258   -2.7277443    1707.9155  0.084819004  0.085023514            2 
 1679000   0.98565746    -2.757698    1709.0337  0.084823987  0.085009905            2 
 1680000   0.97810522   -2.7141881     1712.504  0.084945633  0.084996828            3 
 1681000   0.99743368    -2.699032    1708.3284    0.0846881  0.084983342            3 
 1682000   0.97212753   -2.7222884    1708.5108  0.084646789  0.084969913            4 
 1683000    1.0045899   -2.7380076    1706.3613  0.084490063   0.08495629            5 
 1684000   0.98184027   -2.7345647     1712.386  0.084738023   0.08494287            1 
 1685000   0.96931903   -2.7208919    1706.6295  0.084403043  0.084929231            1 
 1686000   0.98582689   -2.7615394    1708.1239  0.084426842  0.084915452            2 
 1687000   0.97170825   -2.7158407    1710.9731   0.08451754  0.084901874            5 
 1688000   0.99782527   -2.7242964    1708.7157  0.084356027   0.08488813            4 
 1689000   0.96790155   -2.7428944    1715.8297  0.084657078  0.084874235            3 
 1690000   0.97605622   -2.7631794    1710.7527  0.084356641  0.084860253            2 
 1691000   0.98340221   -2.7444676    1711.6907   0.08435298  0.084846805            1 
 1692000   0.97628821   -2.7435321    1710.5487  0.084246881   0.08483345            3 
 1693000   0.98083607   -2.7205339    1717.9399  0.084560934  0.084819597            2 
 1694000   0.95418168   -2.7287109    1713.0225  0.084269111  0.084805873            2 
 1695000   0.96898905   -2.7154479    1721.8326  0.084652536  0.084792423            4 
 1696000   0.98440987   -2.7431096    1719.3172  0.084479028  0.084778985            2 
 1697000    0.9705261   -2.7009931    1720.2675  0.084475912  0.084765187            7 
 1698000   0.97256466   -2.7237891    1713.8041  0.084108957  0.084751201            4 
 1699000   0.99131847   -2.7368494    1714.6737  0.084102104  0.084736967            5 
 1700000   0.96426698   -2.7087414    1718.5314  0.084241733  0.084722789            2 
 1701000   0.98158996   -2.7436034    1715.5741  0.084047328  0.084708585            2 
 1702000    1.0045329   -2.7300439    1723.1297  0.084367884  0.084694497            1 
 1703000   0.98670467   -2.7250838    1728.5762  0.084584862  0.084680255            2 
 1704000    0.9921305   -2.7226347     1712.909  0.083769022  0.084666376            2 
 1705000   0.96301109   -2.7396636    1727.2294  0.084419816  0.084652206            4 
 1706000   0.98440909   -2.7249638    1723.6357  0.084194788  0.084638037            3 
 1707000    0.9744565   -2.7322245     1725.149   0.08421934  0.084624222            3 
 1708000   0.98752589   -2.7257174    1723.4764  0.084088426  0.084609837            3 
 1709000   0.96049397   -2.7351511     1723.938  0.084061734  0.084595913            3 
 1710000   0.99049937   -2.7577837    1724.3124  0.084030817  0.084581925            1 
 1711000   0.96612721   -2.6979074    1727.1096  0.084117944  0.084567626            4 
 1712000   0.98980875   -2.7171405    1726.7638  0.084051975  0.084553413            1 
 1713000   0.97887409   -2.7489085    1721.3622  0.083740134  0.084539015            3 
 1714000   0.98586939   -2.7467095    1734.3743  0.084323915  0.084524774            3 
 1715000   0.97632101   -2.7550418    1730.8671  0.084104331   0.08451062            4 
 1716000   0.95841604   -2.7659371    1731.4349  0.084082891  0.084496432            2 
 1717000   0.98768547   -2.7459802    1737.6424  0.084335196  0.084482249            2 
 1718000   0.97209062   -2.7737844    1731.1654  0.083971933  0.084468951            2 
 1719000   0.98933708   -2.7267134    1732.3298   0.08397953  0.084454715            4 
 1720000    0.9679842   -2.7332724    1731.6681  0.083898646  0.084440641            4 
 1721000   0.95404578   -2.7482444    1720.6155  0.083314713   0.08442653            3 
 1722000   0.98197994   -2.6905356    1734.7641   0.08395103  0.084412162            1 
 1723000   0.97237789     -2.77668    1734.7079   0.08389959  0.084397949            2 
 1724000   0.97494721   -2.7587513    1730.5402   0.08364947  0.084383308            2 
 1725000   0.96708424   -2.7448426    1737.3689  0.083930865  0.084369063            3 
 1726000   0.97592681   -2.7127104    1736.3175  0.083831474  0.084354908            3 
 1727000   0.98841531   -2.7097385    1743.2951  0.084119624  0.084340767            3 
 1728000   0.99963264   -2.7372738    1732.1304  0.083532523  0.084326486            4 
 1729000    1.0029328   -2.7380272      1745.91   0.08414835  0.084312119            1 
 1730000   0.96751139   -2.7547205    1741.2186  0.083873728  0.084297746            2 
 1731000   0.97991864    -2.764827    1744.6483  0.083990384  0.084283304            3 
 1732000   0.97330256   -2.7489058    1746.1335   0.08401335  0.084269188            3 
 1733000   0.97531229   -2.7287454    1743.3539  0.083831212  0.084255415            2 
 1734000   0.97664255   -2.7338955     1750.284  0.084115916  0.084241859            2 
 1735000   0.97965881   -2.7637112    1740.9476  0.083618999  0.084228442            3 
 1736000   0.95823705   -2.7452258    1745.0498  0.083767751   0.08421494            2 
 1737000   0.98345361    -2.743654    1750.8699  0.083998749  0.084201524            2 
 1738000   0.96639028   -2.7328179    1749.8701  0.083902478  0.084187745            4 
 1739000   0.96729413   -2.7148867    1749.3355  0.083828615  0.084174046            2 
 1740000   0.98836476    -2.757536    1747.0156  0.083669331   0.08416042            2 
 1741000   0.97618801   -2.7305035    1748.7782  0.083705638   0.08414691            2 
 1742000   0.96904619   -2.7378043    1756.7344  0.084038193  0.084133567            3 
 1743000   0.97844368   -2.7365315    1754.4492  0.083880722  0.084120267            3 
 1744000   0.95093868   -2.7500682    1759.0802  0.084053908  0.084107034            1 
 1745000   0.97513984   -2.7448701    1758.1641  0.083961989  0.084093408            2 
 1746000    0.9887505   -2.7558635    1747.2579  0.083393369  0.084079601            2 
 1747000   0.96539115   -2.7377841    1751.7151  0.083558246  0.084065489            3 
 1748000   0.97852993   -2.7400766    1754.6396  0.083649869  0.084051582            4 
 1749000   0.96295866   -2.7790746    1751.3341  0.083444547  0.084037192            4 
 1750000   0.99054324    -2.740942    1758.6425  0.083744881   0.08402297            6 
 1751000    0.9557804   -2.7621588    1750.7757   0.08332266  0.084009016            2 
 1752000   0.97200503   -2.7479961    1747.7404  0.083130727  0.083994956            3 
 1753000   0.94748285   -2.7344439    1758.8372  0.083610819  0.083980427            3 
 1754000   0.97197071   -2.7595787    1757.5178  0.083500467  0.083966357            3 
 1755000   0.96322207   -2.7481081     1755.671  0.083365194  0.083951949            1 
 1756000   0.98497582   -2.7410871     1750.996  0.083095862  0.083937379            4 
 1757000   0.98089149   -2.7622611    1757.1657  0.083341195  0.083922745            3 
 1758000   0.97151323   -2.7482822    1756.9351  0.083282853   0.08390762            4 
 1759000   0.97290858   -2.7345256    1760.9012  0.083423402  0.083893066            3 
 1760000   0.98656214    -2.749414    1766.4772  0.083640017   0.08387857            2 
 1761000    0.9677996   -2.7210538     1758.655  0.083222365  0.083864189            2 
 1762000   0.98010161   -2.7089067    1762.2276  0.083344097  0.083849975            4 
 1763000   0.96521445   -2.7369099    1763.3778   0.08335119   0.08383555            2 
 1764000   0.96150138   -2.7734801    1760.3139  0.083159197  0.083821138            5 
 1765000   0.96923447   -2.7448692    1763.2476  0.083250594  0.083806325            1 
 1766000   0.98235955   -2.7463563    1760.9883  0.083096842  0.083791789            3 
 1767000   0.98374002   -2.7645715    1762.7951  0.083135027  0.083777151            2 
 1768000   0.96772843   -2.7588322    1763.6247  0.083127108  0.083762711            3 
 1769000   0.96344164   -2.7454406    1764.8206  0.083136451  0.083748613            5 
 1770000   0.98150333   -2.7318926    1761.9934  0.082956375  0.083734052            4 
 1771000   0.97000515   -2.7445694    1764.1535  0.083011177  0.083718907            4 
 1772000   0.95953592   -2.7473978    1764.0751  0.082960643  0.083703869            2 
 1773000   0.97952142   -2.7472683    1763.0293  0.082864699   0.08368904            2 
 1774000   0.97756779   -2.7684634    1766.6151   0.08298643  0.083673947            3 
 1775000   0.96857956   -2.7335967    1763.8869  0.082811592  0.083659083            1 
 1776000   0.97137713    -2.749078    1769.6832  0.083036939   0.08364413            3 
 1777000   0.97832488   -2.7536134    1771.2689  0.083064569  0.083629177            1 
 1778000    0.9584837    -2.749961    1761.6616  0.082567567  0.083613994            2 
 1779000   0.96761569   -2.7449855    1768.1023  0.082822855  0.083599076            5 
 1780000   0.97799087    -2.746035    1772.7602  0.082994393  0.083584405            2 
 1781000   0.97170535   -2.7365273    1771.7643  0.082901193  0.083569764            2 
 1782000   0.95364558   -2.7415305     1776.853  0.083092639  0.083554701            1 
 1783000    0.9705625   -2.7539635    1770.3965  0.082744277  0.083539683            4 
 1784000    0.9647358   -2.7447116     1768.386  0.082603981  0.083524647            2 
 1785000   0.97689136   -2.7270713    1778.4427  0.083027204  0.083509631            2 
 1786000   0.97284728   -2.7538945    1776.4222  0.082886442   0.08349479            3 
 1787000   0.98710754   -2.7832506    1776.4573  0.082841694  0.083479905            1 
 1788000   0.95616126   -2.7270887    1776.4554  0.082795276  0.083465319            3 
 1789000   0.96016265   -2.7612303    1781.0498  0.082963004  0.083450777            1 
 1790000   0.97480559   -2.7480715    1781.6126  0.082942861   0.08343569            2 
 1791000   0.95976091   -2.7238648    1787.4878  0.083169915  0.083420995            4 
 1792000   0.95998274   -2.7309838    1776.4213  0.082608879  0.083406145            2 
 1793000   0.96939588   -2.7511076    1781.0551  0.082778171  0.083391384            2 
 1794000   0.99968932   -2.7453035    1779.2048  0.082646078  0.083376543            4 
 1795000   0.95036785   -2.7437929    1788.0092  0.083008786  0.083361977            5 
 1796000   0.95073697   -2.7529204    1775.0744  0.082362396  0.083347071            2 
 1797000   0.97370124   -2.7716976    1774.7405  0.082301079  0.083331944            2 
 1798000   0.96244596   -2.7556064    1780.2239  0.082509449   0.08331701            3 
 1799000   0.96782716   -2.7446562    1779.2483  0.082418397   0.08330234            3 
 1800000   0.95889972   -2.7660267    1783.0252  0.082547461  0.083287227            1 
 1801000   0.96361208   -2.7323845    1791.4441  0.082891177  0.083272033            2 
 1802000   0.94781597   -2.7522594    1789.6831  0.082763738  0.083257231            2 
 1803000   0.96112729   -2.7446092    1784.2744  0.082467848  0.083242307            2 
 1804000   0.96190601   -2.7719939    1782.4302  0.082336945   0.08322725            5 
 1805000   0.96816934   -2.7855309    1785.5532  0.082435514  0.083212359            4 
 1806000   0.97270842    -2.785374    1787.9982  0.082502684  0.083196887            2 
 1807000   0.97876939    -2.717089    1794.9068  0.082775631  0.083182076            2 
 1808000   0.98181732   -2.7528182     1788.707  0.082444092  0.083167173            3 
 1809000   0.98069679   -2.7469276    1792.8205  0.082588009   0.08315243            2 
 1810000   0.95993122   -2.7556015    1792.1648  0.082512193  0.083137572            2 
 1811000   0.97479439   -2.7308617    1792.1776   0.08246722  0.083122841            1 
 1812000   0.96094705   -2.7370252    1797.2194  0.082653577  0.083108265            2 
 1813000   0.95887122   -2.7268093    1800.4853  0.082758104  0.083093491            2 
 1814000   0.96403443   -2.7323066    1798.1955  0.082607291  0.083078941            3 
 1815000   0.96693515   -2.7730437    1807.9455  0.083009437   0.08306439            2 
 1816000   0.96710838   -2.7697199    1795.0339  0.082371232  0.083049618            2 
 1817000   0.98912384   -2.7436683    1795.9449  0.082367681  0.083035093            2 
 1818000   0.96219246   -2.7686624    1798.4775  0.082438462  0.083020142            3 
 1819000   0.96648779   -2.7471398    1801.9189  0.082550802  0.083005275            4 
 1820000   0.96346697   -2.7438914    1804.3958  0.082618857  0.082990182            4 
 1821000   0.95623252   -2.7669835    1799.2638  0.082338632  0.082975101            3 
 1822000   0.96497874    -2.736577    1802.1288  0.082424477    0.0829604            5 
 1823000   0.95727494   -2.7486354    1806.6403  0.082585497  0.082945612            3 
 1824000   0.94002089   -2.7655179    1796.3809  0.082071496  0.082930792            2 
 1825000    0.9851896    -2.761749    1797.1751  0.082062791  0.082915777            3 
 1826000   0.94053301   -2.7735994    1811.6285  0.082677458  0.082900605            1 
 1827000   0.98030321   -2.7524631    1801.6364  0.082176447  0.082885962            6 
 1828000   0.94146919   -2.7465581    1799.4622  0.082032374  0.082870967            2 
 1829000   0.98914316   -2.7504135    1812.1792  0.082566938  0.082856168            4 
 1830000   0.97084766   -2.7785737    1805.1139  0.082200087  0.082841229            2 
 1831000   0.95976413   -2.7556684     1807.887  0.082281403  0.082826073            1 
 1832000   0.95662888   -2.7562569    1812.2273  0.082433921  0.082811014            5 
 1833000   0.93867606   -2.7842733    1805.6538  0.082090099  0.082796043            2 
 1834000    0.9879352   -2.7474224    1811.9156  0.082329862  0.082780802            3 
 1835000   0.95453073   -2.7557282    1816.8048  0.082507028  0.082765657            1 
 1836000    0.9537768    -2.773594    1800.5655  0.081725016  0.082750496            2 
 1837000   0.96962131   -2.7757319    1814.1597  0.082297209  0.082735288            2 
 1838000   0.94549404   -2.7603148    1812.8761  0.082194235  0.082720539            3 
 1839000   0.96751727   -2.7702894    1801.8572  0.081650225  0.082705097            4 
 1840000   0.93116905   -2.7855361    1813.5325  0.082134624  0.082689601            3 
 1841000   0.95456451   -2.7828062    1807.3983  0.081812343  0.082673988            7 
 1842000   0.95493061   -2.7750021    1814.1391  0.082072885  0.082658724            2 
 1843000    0.9622159   -2.7440997    1809.8258  0.081833323  0.082643787            2 
 1844000   0.95248923   -2.7621422     1814.294  0.081990872  0.082628039            2 
 1845000   0.95713422   -2.7625292    1812.2379  0.081853562  0.082613237            2 
 1846000   0.97444777   -2.7354298    1814.7954  0.081924675  0.082598337            2 
 1847000   0.95693711   -2.7497957    1811.1829  0.081717329  0.082583081            2 
 1848000   0.96513757   -2.7808801    1810.7839  0.081655116  0.082567684            8 
 1849000    0.9642898    -2.768037    1813.0621  0.081713635  0.082552497            6 
 1850000   0.95797332   -2.7746733     1811.791  0.081612205  0.082537009            3 
 1851000   0.94668674   -2.7706249    1817.3841  0.081819921  0.082521413            3 
 1852000   0.94948443   -2.7566898     1814.794  0.081659199  0.082506083            2 
 1853000   0.94394358   -2.7795493    1819.4868  0.081826176  0.082490527            4 
 1854000   0.94295816   -2.7867925    1810.1283  0.081361393  0.082474919            2 
 1855000   0.95475811   -2.7391387    1818.3189  0.081685485   0.08245942            3 
 1856000   0.95223184    -2.759031     1817.144  0.081588721  0.082444111            2 
 1857000   0.94771871   -2.7550184    1821.0741   0.08172115  0.082428891            1 
 1858000   0.96369016   -2.7644129    1818.3328  0.081554216  0.082413181            2 
 1859000   0.95179471   -2.7765032    1812.9629  0.081269628  0.082397342            7 
 1860000   0.95500326   -2.7653005    1825.7841  0.081800362  0.082381644            3 
 1861000   0.95896229   -2.7486142    1820.9801  0.081541289  0.082366068            2 
 1862000   0.93683566   -2.7673418    1824.5679  0.081658068  0.082350155            2 
 1863000   0.93733426   -2.7553167    1825.2489  0.081644699  0.082334789            3 
 1864000   0.93978564   -2.7928872    1816.4216  0.081206259  0.082319302            4 
 1865000   0.93693482   -2.7538393    1830.2861  0.081782222   0.08230366            1 
 1866000   0.95608553   -2.7772935    1824.5024  0.081480102  0.082288148            4 
 1867000   0.96698064   -2.7628909    1827.4109  0.081566279  0.082272707            1 
 1868000   0.95443034   -2.7630399    1825.7429    0.0814482  0.082256909            1 
 1869000   0.95858413   -2.7756274    1823.3471  0.081297804  0.082241382            3 
 1870000   0.96538461   -2.7603109    1830.2917    0.0815638  0.082225786            3 
 1871000   0.94691496   -2.7488597    1831.4659  0.081572507  0.082210591            2 
 1872000   0.94628706   -2.7570528    1828.7078  0.081406151  0.082195368            4 
 1873000   0.95216251   -2.7966465    1834.3688  0.081614556  0.082180184            2 
 1874000   0.96502095    -2.737636    1833.2081  0.081519391  0.082164912            2 
 1875000   0.94919068   -2.7769047    1825.0944  0.081115305  0.082149522            2 
 1876000   0.97195623   -2.7913621    1824.3783  0.081040257   0.08213381            2 
 1877000   0.95106755   -2.7775427     1825.381    0.0810416  0.082118287            3 
 1878000   0.95002052   -2.7913697    1828.6707  0.081144422  0.082102213            4 
 1879000   0.97893889   -2.7739472    1830.4792  0.081181442  0.082086539            1 
 1880000    0.9362936   -2.7624182    1832.0933  0.081209809  0.082070975            2 
 1881000   0.96239335   -2.7402624    1834.1767  0.081258937  0.082055474            2 
 1882000   0.95116822    -2.794795    1834.6125  0.081235058  0.082039968            2 
 1883000   0.97951074   -2.7787159    1832.0961  0.081080551  0.082024387            3 
 1884000   0.93035151   -2.7734237    1834.6188  0.081149098  0.082008537            3 
 1885000   0.93329712   -2.7559636     1842.778  0.081466753  0.081992927            2 
 1886000   0.95905122   -2.7568008    1831.1114  0.080908068  0.081977206            2 
 1887000   0.94346877   -2.7614651    1834.4769   0.08101382  0.081961701            2 
 1888000   0.92806181    -2.768222    1831.5885   0.08084342  0.081945709            3 
 1889000   0.96747675    -2.778595    1841.1163  0.081220942  0.081929996            3 
 1890000   0.96282002   -2.7776909     1842.835  0.081253746   0.08191409            3 
 1891000   0.95161869   -2.7906535    1834.8013  0.080856747  0.081898313            3 
 1892000   0.94112389   -2.7788049     1831.237  0.080657023  0.081882351            4 
 1893000   0.94739546   -2.7650397    1839.6479  0.080984677  0.081866422            3 
 1894000   0.97427655   -2.7843968    1840.4847  0.080978737  0.081851032            3 
 1895000     0.970671    -2.747302    1842.6592  0.081031625  0.081835568            3 
 1896000   0.95295909   -2.7769799    1835.8676  0.080690383  0.081819952            1 
 1897000   0.95751862   -2.7639252    1845.1753  0.081056726  0.081804445            2 
 1898000   0.95291257   -2.7907285    1839.9418  0.080784236  0.081788868            2 
 1899000   0.93808411   -2.7520955    1841.4251   0.08080679  0.081773382            3 
 1900000   0.93719265   -2.7771037    1841.2389  0.080756093  0.081758272            2 
 1901000   0.94970991   -2.7877629    1853.1785  0.081237002  0.081743031            4 
 1902000   0.93168783   -2.7718224    1848.3972  0.080984805  0.081727837            5 
 1903000   0.93896069   -2.8004896    1845.2263  0.080803392  0.081712696            2 
 1904000   0.94732178    -2.752587    1853.1834  0.081109218  0.081697599            2 
 1905000   0.93304006   -2.7683068    1853.6094  0.081085278  0.081682766            1 
 1906000   0.96524237   -2.7947995      1846.22  0.080719659  0.081667441            2 
 1907000   0.94227157   -2.8158793     1855.189  0.081069262  0.081652351            3 
 1908000   0.93847038   -2.7630531     1859.951  0.081234755   0.08163716            1 
 1909000   0.94995287   -2.7871951    1848.9791  0.080713249  0.081622027            3 
 1910000   0.95079877    -2.783016    1855.4504  0.080953333   0.08160662            4 
 1911000   0.94575678   -2.7582887    1861.5105  0.081175237   0.08159174            2 
 1912000   0.96957615   -2.7576937    1860.0726  0.081070112  0.081576714            1 
 1913000   0.93258856   -2.7820588    1853.6242  0.080746827  0.081561861            3 
 1914000   0.92953949   -2.7778138    1855.3321  0.080779001  0.081546844            4 
 1915000   0.95771852   -2.7639599    1858.5765  0.080878004  0.081532042            4 
 1916000   0.93470036   -2.7865364    1862.8392  0.081021191  0.081517429            2 
 1917000   0.92085033   -2.7629941    1862.9756  0.080984853  0.081502556            3 
 1918000   0.94826541   -2.7802783    1857.8278  0.080718971  0.081487838            4 
 1919000   0.94598208   -2.7592755    1860.7348  0.080803143  0.081472891            4 
 1920000   0.94362132   -2.7718411    1872.6426   0.08127789  0.081458094            3 
 1921000   0.93450249   -2.7738958    1863.0926    0.0808213  0.081443485            3 
 1922000   0.95335387   -2.7863919    1865.7437  0.080894192  0.081428791            2 
 1923000   0.96523755   -2.7887108    1869.9685  0.081035211  0.081414338            4 
 1924000   0.95353539   -2.7907172    1865.8735  0.080815726  0.081399308            2 
 1925000   0.93454279   -2.7941407    1865.4167  0.080753971  0.081384581            3 
 1926000   0.93271885   -2.7665712    1871.7735  0.080987082  0.081370436            2 
 1927000   0.92489943   -2.7800959    1871.4063  0.080929177  0.081356019            4 
 1928000   0.94299683   -2.7767929    1871.3322     0.080884  0.081341775            1 
 1929000   0.93285183   -2.7928963      1872.96  0.080912391  0.081327585            4 
 1930000   0.93614714   -2.7631345    1874.5688  0.080939931  0.081313437            4 
 1931000   0.95197353   -2.7733622    1868.1747  0.080622074  0.081299167            6 
 1932000   0.92799294   -2.8064587    1880.3245  0.081104402   0.08128495            4 
 1933000   0.93422969   -2.7818508    1874.6163  0.080816359   0.08127076            3 
 1934000   0.95721429   -2.7917574    1873.0652   0.08070774  0.081256379            3 
 1935000   0.96734225   -2.7726984    1882.0959   0.08105495  0.081242312            4 
 1936000   0.93938558   -2.7947288    1878.4436   0.08085587  0.081228169            4 
 1937000   0.95883435   -2.7835616    1874.3935  0.080639884  0.081214143            3 
 1938000   0.96734169   -2.7686994    1877.0117  0.080710858  0.081200013            2 
 1939000   0.94625455   -2.7945917    1875.0356  0.080584303  0.081185853            3 
 1940000   0.95700921   -2.7436045    1880.9186  0.080795471  0.081171875            6 
 1941000   0.94911726   -2.7669674    1886.5437  0.080995351  0.081157769            2 
 1942000   0.91859402   -2.7791037    1882.4667  0.080778694  0.081143814            5 
 1943000    0.9286571   -2.8181169    1877.2654  0.080514043  0.081129533            2 
 1944000    0.9526566   -2.8001881    1892.2232  0.081113819  0.081115411            2 
 1945000   0.93976927   -2.7730476     1887.482  0.080868982  0.081101256            4 
 1946000    0.9519063   -2.7664188    1888.0437  0.080851479  0.081087123            2 
 1947000   0.95546491   -2.7861382    1896.1433  0.081156622  0.081073077            6 
 1948000   0.93470048   -2.7839795    1890.8876  0.080890129  0.081059014            3 
 1949000   0.94410461   -2.7753605    1886.8365   0.08067541  0.081045233            1 
 1950000   0.94726087   -2.7675675    1889.4235  0.080744596   0.08103156            2 
 1951000   0.92390684   -2.7545056    1891.3389  0.080785022  0.081017513            3 
 1952000   0.94490827   -2.7950002    1885.0594  0.080475556  0.081003623            5 
 1953000   0.94496283   -2.7915428    1892.2978  0.080743209  0.080989595            2 
 1954000   0.95892318   -2.7890701    1898.0132  0.080945633  0.080975752            4 
 1955000   0.92528767   -2.7513452    1896.0883  0.080822178  0.080962053            3 
 1956000    0.9538694   -2.7844124    1889.4621  0.080498556  0.080947997            4 
 1957000   0.95767136   -2.7708037    1901.7277  0.080979716  0.080934149            3 
 1958000    0.9314313   -2.7725369    1893.0212  0.080567809  0.080920642            3 
 1959000   0.93730852   -2.7818977    1898.7137  0.080768834   0.08090681            3 
 1960000   0.94362505   -2.7835688    1897.4495  0.080673873  0.080893118            2 
 1961000   0.96234241   -2.7959078     1891.168    0.0803658  0.080879154            3 
 1962000   0.95668129   -2.7855755    1904.8824  0.080907339  0.080865379            3 
 1963000   0.94210053    -2.810289     1901.253   0.08071205  0.080851251            1 
 1964000   0.93120461   -2.7995194    1897.1671  0.080497586  0.080837257            2 
 1965000   0.92714285   -2.7832296    1898.9682  0.080533004  0.080823351            4 
 1966000   0.93834498   -2.7713113    1900.1942  0.080544006  0.080809447            2 
 1967000   0.93236588   -2.7829446    1906.6899  0.080778252  0.080795447            2 
 1968000   0.92660589   -2.7895406      1898.74  0.080400574  0.080781416            2 
 1969000   0.93191594   -2.7671384     1896.527  0.080266083  0.080767141            1 
 1970000   0.94677429   -2.7720874    1905.9219  0.080622756  0.080753074            3 
 1971000   0.95343246   -2.7788738    1902.6124  0.080441924  0.080739038            4 
 1972000   0.93582288    -2.752306    1910.6056  0.080738913  0.080725148            6 
 1973000   0.94417332   -2.7835018     1904.895  0.080456791  0.080710833            1 
 1974000   0.96005021   -2.7874904    1902.5118  0.080315425   0.08069663            1 
 1975000   0.94047641    -2.759257    1897.7763   0.08007495  0.080682409            2 
 1976000   0.94486286   -2.7911449    1901.0491   0.08017245  0.080668036            3 
 1977000   0.94567923   -2.7665419    1906.4217  0.080358357  0.080653544            2 
 1978000   0.91321483   -2.7976554    1901.7106  0.080119254  0.080639535            1 
 1979000   0.96262697   -2.7997831    1905.3556  0.080232256  0.080625302            1 
 1980000   0.93446993   -2.7801245    1907.1898  0.080268931  0.080610876            3 
 1981000   0.95045975   -2.7704668      1907.83  0.080255341  0.080596314            2 
 1982000   0.95908091   -2.7995582    1907.6697  0.080208109  0.080581858            2 
 1983000   0.92788878   -2.7915131    1913.5679  0.080415527    0.0805675            3 
 1984000   0.95080299   -2.7795664    1907.6787  0.080127635  0.080553338            2 
 1985000   0.95081743   -2.7858474     1918.017  0.080521285  0.080539188            2 
 1986000   0.92198811   -2.7986509    1904.3168  0.079905874  0.080524954            4 
 1987000   0.93384674   -2.7897832    1911.6143  0.080171712  0.080510581            5 
 1988000   0.91381975   -2.7954466    1914.3349  0.080245427  0.080496232            2 
 1989000   0.94560417   -2.7685664    1917.7244  0.080347093  0.080481652            3 
 1990000   0.93644256   -2.7838757     1913.135  0.080114532  0.080467331            3 
 1991000   0.93598877   -2.7795668    1912.6887  0.080055613  0.080452791            4 
 1992000    0.9230398   -2.8091413    1910.1392   0.07990877   0.08043829            2 
 1993000   0.93473856   -2.7942809    1911.9236  0.079943286  0.080423868            2 
 1994000   0.93073421   -2.8198704    1905.9212   0.07965234  0.080409305            2 
 1995000   0.92198308   -2.7709831    1921.6105  0.080267772  0.080394937            2 
 1996000   0.93232845   -2.8117214    1909.6853  0.079729682  0.080380471            2 
 1997000   0.94397616   -2.7970878    1922.4045  0.080220517  0.080366363            1 
 1998000   0.92262544   -2.8103865    1921.9819  0.080162744  0.080351895            2 
 1999000   0.93838087   -2.8031715    1914.7066  0.079819352  0.080337513            4 
 2000000   0.91449309   -2.7703527    1919.9035  0.079995978  0.080322909            3 
 2001000   0.92466633   -2.7987317     1915.152   0.07975812  0.080308576            2 
 2002000   0.92097876   -2.7743987    1917.0491  0.079797249  0.080294257            2 
 2003000   0.93663479   -2.7834381    1924.3035  0.080059224  0.080280013            2 
 2004000   0.93891175   -2.7624602    1925.0908  0.080052015  0.080265557            3 
 2005000   0.93885419   -2.7894465       1923.4  0.079941814  0.080251193            1 
 2006000   0.93336799   -2.7890312    1920.6186  0.079786418  0.080236941            5 
 2007000   0.93186578    -2.776727     1923.324  0.079858994  0.080222791            3 
 2008000   0.94677095   -2.8030565    1931.0852   0.08014132  0.080208451            3 
 2009000   0.93566482   -2.7962333    1931.8988  0.080135173  0.080194391            3 
 2010000   0.91635814   -2.7903912    1923.5971  0.079751122  0.080180274            1 
 2011000    0.9170538   -2.8183703    1928.2497  0.079904264  0.080166131            2 
 2012000   0.91523031   -2.7842722    1925.8214  0.079763974  0.080152161            3 
 2013000   0.92643338   -2.7789639    1936.4891  0.080165965  0.080138237            5 
 2014000   0.94755595   -2.7888592    1922.4722  0.079546186  0.080124551            3 
 2015000   0.90779167    -2.795115      1933.98  0.079982631  0.080110703            2 
 2016000   0.91604843   -2.7932538     1928.238  0.079705604  0.080096788            2 
 2017000   0.92774398   -2.7751765    1939.8703  0.080146682  0.080082844            3 
 2018000   0.92287926   -2.8065204     1928.444  0.079635117  0.080069426            3 
 2019000   0.93848082   -2.7882971    1943.0145  0.080197065  0.080055668            2 
 2020000   0.93787448   -2.7900758    1937.6232  0.079934951  0.080041919            3 
 2021000   0.91736822   -2.7896279     1939.296  0.079964374  0.080028068            3 
 2022000   0.94023571   -2.7811716    1951.3311  0.080420834  0.080014619            2 
 2023000   0.93518091   -2.8212952    1935.9202   0.07974626  0.080001001            3 
 2024000    0.9230702   -2.8092622    1933.3831  0.079602401  0.079987283            4 
 2025000   0.93426789   -2.7994383    1927.9761  0.079340579  0.079973775            3 
 2026000   0.91267665   -2.7984481    1934.3122  0.079562035  0.079960204            2 
 2027000   0.90865471   -2.8146884    1942.8546  0.079873975  0.079946335            4 
 2028000   0.92838638   -2.8209471     1939.049  0.079678212   0.07993261            4 
 2029000   0.90889165   -2.8339368    1934.6304  0.079457468  0.079918829            3 
 2030000   0.92470133    -2.807299    1941.6184  0.079705189  0.079904864            2 
 2031000   0.91600737   -2.7941951     1941.239  0.079650376  0.079891365            3 
 2032000   0.91574083   -2.7996278    1942.9415  0.079680999  0.079877947            4 
 2033000   0.93776277   -2.7878933    1946.6351  0.079793208  0.079864408            3 
 2034000   0.93442693   -2.7803878    1944.0851  0.079649503  0.079850843            2 
 2035000   0.92449076   -2.7837636    1948.2726  0.079781841  0.079837461            3 
 2036000   0.91024371   -2.8046601    1958.8381  0.080175103  0.079824424            3 
 2037000   0.92420447   -2.7923013    1949.9362  0.079771568  0.079811101            1 
 2038000   0.93924948   -2.8081734     1952.281  0.079828302  0.079797474            3 
 2039000   0.91322139   -2.8109093    1946.5743  0.079555922  0.079783882            4 
 2040000   0.91037953   -2.8243385    1946.1176  0.079498268  0.079770607            3 
 2041000   0.91904949   -2.7971842    1953.7652  0.079771567  0.079757304            2 
 2042000   0.93902035   -2.8067731    1961.5856  0.080051648  0.079743921            4 
 2043000   0.91911609   -2.8094027     1955.327   0.07975718  0.079730445            2 
 2044000   0.94389167   -2.8092323    1950.6847  0.079528893  0.079716914            4 
 2045000   0.91685307   -2.8118155    1952.5999  0.079568048  0.079703625            3 
 2046000    0.9136541   -2.8037214    1956.8621  0.079702758  0.079689959            2 
 2047000   0.93159745   -2.8074725    1960.2587  0.079802097  0.079676372            2 
 2048000   0.93034789   -2.7903003    1955.1524  0.079555354  0.079662904            3 
 2049000   0.92192475   -2.7916842    1962.1359  0.079800548  0.079649479            2 
 2050000   0.91556129   -2.7709269    1955.2836  0.079483073  0.079636023            2 
 2051000   0.90303919    -2.809684    1956.0371  0.079474933  0.079622518            2 
 2052000   0.92977992   -2.8080959    1953.3092  0.079325424  0.079608771            3 
 2053000   0.93762441   -2.7932714    1951.3998   0.07920928  0.079594871            4 
 2054000   0.94112396   -2.8112677    1958.9938  0.079478812  0.079580956            3 
 2055000   0.93517879   -2.8081769    1950.6967  0.079103677  0.079566924            2 
 2056000   0.92147599   -2.8049822    1960.1059  0.079446575  0.079553052            1 
 2057000   0.90549004   -2.8032262    1952.9449  0.079117844  0.079539291            2 
 2058000   0.92442979   -2.8027293    1966.7208  0.079637219  0.079525515            3 
 2059000   0.93618541   -2.8137767    1957.8796  0.079240714  0.079511719            3 
 2060000   0.93614133   -2.7966017    1954.7435  0.079075383  0.079497916            3 
 2061000     0.917786   -2.7780855    1970.7068  0.079682468  0.079484447            2 
 2062000   0.92311573    -2.820063    1969.2428   0.07958466   0.07947082            3 
 2063000   0.94824386   -2.7926854    1961.9895  0.079253091  0.079457101            3 
 2064000    0.9108266   -2.8208312    1967.7716  0.079448144  0.079443585            3 
 2065000   0.91980061   -2.8097883    1975.4419  0.079719204  0.079430002            2 
 2066000     0.927198   -2.8015653    1955.4508  0.078874267  0.079416389            2 
 2067000   0.91897899   -2.7977649    1959.2521  0.078989362  0.079402872            5 
 2068000   0.94288445   -2.8029097    1971.2423   0.07943433   0.07938931            3 
 2069000   0.94659448   -2.8137957    1972.6438  0.079452386  0.079375757            3 
 2070000   0.90919936    -2.802595    1974.1387  0.079474181  0.079362512            3 
 2071000   0.92106707   -2.8216168    1974.4504   0.07944835  0.079349067            2 
 2072000   0.92180891   -2.8106507    1972.7444  0.079341394  0.079335516            3 
 2073000   0.93851924   -2.7958476    1972.1189  0.079277975  0.079321866            3 
 2074000    0.9251397   -2.8118858    1966.4288  0.079011122  0.079308198            3 
 2075000   0.90282863   -2.8180137    1965.6767  0.078942841  0.079294602            3 
 2076000   0.92021087   -2.8166564    1967.7969  0.078989919  0.079280947            5 
 2077000   0.92159023    -2.777807    1977.4941  0.079340959  0.079267323            3 
 2078000   0.90238759   -2.8172923    1969.3863  0.078977635  0.079253406            4 
 2079000   0.91359213   -2.7984364    1968.2367  0.078893568  0.079239903            3 
 2080000   0.91535002   -2.7842134    1973.1984  0.079054421  0.079226133            4 
 2081000   0.91931839   -2.7803889    1967.8138  0.078800807  0.079212458            4 
 2082000   0.90759253   -2.8044204    1977.5046  0.079150841  0.079198752            4 
 2083000   0.93141202   -2.7991698    1968.9792  0.078771773  0.079185265            2 
 2084000   0.90645818   -2.8115291    1977.9207  0.079091518  0.079171425            3 
 2085000   0.91976165   -2.7912984    1979.0713  0.079099572  0.079157921            1 
 2086000   0.91270404    -2.804381    1975.4348   0.07891638  0.079144221            2 
 2087000    0.9010838   -2.8122014    1983.4296  0.079197797  0.079130634            4 
 2088000   0.90434822   -2.8144791    1984.0973  0.079186513  0.079117255            2 
 2089000   0.95760848   -2.8000339    1981.8018  0.079057036   0.07910383            2 
 2090000   0.91128434   -2.8353941    1978.6325  0.078892843  0.079090119            3 
 2091000   0.91097242   -2.8344808    1978.6819  0.078857083  0.079076246            5 
 2092000   0.91184422   -2.8148527    1979.5623  0.078854459  0.079062443            1 
 2093000   0.90531882   -2.8289613     1982.227  0.078922878  0.079048519            1 
 2094000   0.90982048   -2.8144984      1980.99  0.078835962  0.079034453            3 
 2095000   0.93521221   -2.8080951    1986.6345  0.079022854  0.079020775            3 
 2096000   0.92354281   -2.8120277    1979.0509  0.078683638  0.079006775            1 
 2097000   0.90417753   -2.7935104    1984.0392  0.078844348  0.078993106            5 
 2098000   0.90249438   -2.8336237    1985.6007  0.078868791  0.078979223            2 
 2099000   0.90082826   -2.8175657    1985.1983  0.078815242  0.078965518            3 
 2100000   0.91935993    -2.831245    1976.3059  0.078424839  0.078951814            2 
 2101000   0.91950781   -2.8033047    1987.0236  0.078812615  0.078937766            3 
 2102000   0.92194844   -2.8159355    1986.0416  0.078736187  0.078924198            4 
 2103000   0.93359207    -2.810799    1988.1133   0.07878084  0.078910398            8 
 2104000   0.91732096   -2.8063147    1986.6992  0.078687388  0.078896649           11 
 2105000   0.90683825   -2.8176152    1992.0863  0.078863275  0.078883165            7 
 2106000    0.9442955   -2.8039899    1987.2788  0.078635597  0.078869244            3 
 2107000   0.93022234   -2.8190075    1980.8988  0.078345942  0.078855487            4 
 2108000   0.92238127   -2.8244159    1979.8519  0.078267389  0.078841436            2 
 2109000   0.92744659    -2.818996    1986.6401  0.078498501  0.078827552            2 
 2110000   0.90517944   -2.8196868    1981.8148  0.078270727  0.078813429            4 
 2111000   0.90078711   -2.8197405    1986.1895  0.078406342  0.078799346            1 
 2112000   0.91253741   -2.7932161    1987.5783  0.078424019   0.07878551            5 
 2113000   0.90652369   -2.8138515    1989.4775  0.078461803  0.078771495            1 
 2114000   0.92050462     -2.79097     1984.456  0.078226742  0.078757467            4 
 2115000   0.90972917   -2.8148818    1989.9901  0.078407804  0.078743716            2 
 2116000   0.90954536   -2.8415548    2000.2249  0.078773822  0.078730008            3 
 2117000   0.91545891   -2.8222026    1996.2298  0.078579349  0.078716335            1 
 2118000   0.92205057   -2.8379455    1996.0037  0.078533351  0.078702391            4 
 2119000   0.91617587   -2.8066682    1995.0778  0.078459878  0.078688671            3 
 2120000   0.91898461   -2.8204428    1998.0419  0.078539384  0.078674957            2 
 2121000   0.89778564   -2.8293342    1983.7408  0.077940469  0.078661079            3 
 2122000   0.90086115   -2.8146644    2002.8039  0.078652368  0.078647281            2 
 2123000   0.92440091   -2.8335657     1996.558  0.078370154  0.078633356            3 
 2124000   0.90956711   -2.8077766    2003.2425  0.078595514  0.078619531            3 
 2125000   0.92839081    -2.824106    1996.9754   0.07831276  0.078606217            3 
 2126000   0.89360669   -2.8099656    2002.2032  0.078480842  0.078592436            3 
 2127000    0.9129205   -2.8255892    1998.8285  0.078311727  0.078578797            4 
 2128000   0.91489538   -2.8523301    1996.7271  0.078192634  0.078564785            1 
 2129000   0.89743398   -2.8225606    2008.9545  0.078634512  0.078550823            2 
 2130000   0.92390644   -2.8134645    2008.0466  0.078562072  0.078537172            3 
 2131000   0.89387751   -2.8226113    2004.1534  0.078372963    0.0785235            3 
 2132000   0.89936147   -2.8243615    2003.7665  0.078321078   0.07850955            1 
 2133000   0.92759215   -2.8344869    2000.6165  0.078161295  0.078495684            4 
 2134000    0.9063373   -2.8161854    1996.4655   0.07796257  0.078481792            6 
 2135000   0.93458026   -2.8285527    2001.3958  0.078118492  0.078467756            3 
 2136000   0.90878744   -2.8319971    1997.6955  0.077937557  0.078453895            3 
 2137000   0.91319473   -2.8480835    2001.3326  0.078042917  0.078440048            2 
 2138000   0.90311914   -2.8087104    2010.5784  0.078366789  0.078426202            3 
 2139000   0.90629309   -2.8261501    2005.9058  0.078148113  0.078412255            3 
 2140000   0.90179928   -2.8142152    2007.1484  0.078159986   0.07839814            8 
 2141000   0.92145648   -2.8162906     2007.035  0.078119063  0.078384012            2 
 2142000   0.89772715     -2.81438    2008.4622  0.078138118  0.078369998            3 
 2143000   0.92814378   -2.8472508    2009.0203  0.078123359  0.078356256            2 
 2144000   0.90802127   -2.8183307    2011.9481  0.078200718  0.078342358            4 
 2145000   0.92294341    -2.816809    2011.9925  0.078165985   0.07832872            2 
 2146000    0.9031087   -2.8416194    2010.1013  0.078056124  0.078314906            8 
 2147000   0.91178628   -2.8224403    2011.4619  0.078072579  0.078301047            4 
 2148000   0.91710369   -2.8447399    2006.7101   0.07785188  0.078287032            2 
 2149000   0.91918212   -2.8359725    2012.7429  0.078049594  0.078272962            3 
 2150000   0.93279471   -2.8230952    2014.2996  0.078073627  0.078258895            4 
 2151000   0.90832881   -2.8414022    2016.1871  0.078110457  0.078244935            4 
 2152000   0.92531004   -2.8043469    2018.2655  0.078154641  0.078230891            4 
 2153000   0.88525102   -2.8236593      2016.43  0.078047299  0.078217042            3 
 2154000   0.89563109   -2.8340676    2012.7708  0.077869499   0.07820334            4 
 2155000   0.91649486   -2.8332632    2013.5262  0.077862574   0.07818945            2 
 2156000   0.89103184    -2.830948     2022.105  0.078158048  0.078175659            2 
 2157000   0.92043535   -2.8283075    2010.8438   0.07768675   0.07816189            5 
 2158000   0.89821595    -2.834697    2018.3316  0.077939899  0.078148119            2 
 2159000   0.91314377   -2.8276729    2015.1579    0.0777813  0.078134327            2 
 2160000   0.89819802   -2.8146249    2026.6989  0.078190544  0.078120607            5 
 2161000    0.8944587   -2.8182895    2019.1634  0.077863776  0.078106617            3 
 2162000   0.91281572    -2.808601    2020.1205   0.07786465  0.078092799            2 
 2163000   0.90776575   -2.8175817    2029.0547   0.07817286  0.078079152            3 
 2164000   0.90038753     -2.80581    2021.9804  0.077864309  0.078065208            3 
 2165000   0.92408246   -2.8270378    2025.6052  0.077967867  0.078051228            3 
 2166000   0.90535901   -2.8153893    2023.1752   0.07783838  0.078037067            7 
 2167000   0.92378204   -2.7909501     2021.593  0.077741619  0.078023221            3 
 2168000   0.89253728   -2.8489993    2021.3587  0.077696753  0.078009258            4 
 2169000   0.90428952   -2.8587365    2017.0826  0.077496643  0.077995257            3 
 2170000   0.90209966   -2.8224012    2025.4604  0.077782658  0.077981239            3 
 2171000   0.90880784   -2.8137929    2019.4644  0.077516673  0.077967453            2 
 2172000    0.8812829   -2.8325197    2024.0514  0.077656977  0.077953513            1 
 2173000    0.9040635   -2.8349935    2029.5844  0.077833425  0.077939518            3 
 2174000   0.89029881   -2.8044749    2028.9262  0.077772394  0.077925438            4 
 2175000   0.91980156   -2.8215338    2030.1485  0.077783466  0.077911618            2 
 2176000   0.91018873    -2.815107    2023.2367  0.077483024  0.077897607            3 
 2177000    0.9196797   -2.8166759    2031.5223  0.077764597  0.077883583            3 
 2178000   0.90356319   -2.8292417    2030.8116  0.077701699  0.077869558            2 
 2179000   0.90195399     -2.83255    2026.2022  0.077489759  0.077855603            3 
 2180000   0.92223919   -2.8440738    2032.4672  0.077693701  0.077841619            1 
 2181000   0.89727145    -2.823487    2034.0496  0.077718539  0.077827681            4 
 2182000   0.91747834    -2.800617    2034.5006  0.077700147  0.077813617            2 
 2183000   0.89354448   -2.8329303    2028.4101  0.077432053  0.077799288            2 
 2184000   0.89788424   -2.8278109     2030.323  0.077469588  0.077785161            2 
 2185000   0.88678336   -2.8508213    2029.9156  0.077418598  0.077771145            2 
 2186000   0.88956322   -2.8265373    2025.5091  0.077215199  0.077757029            4 
 2187000   0.91430213   -2.8202069    2036.6156  0.077603094  0.077743045            6 
 2188000   0.90695365   -2.8089603    2031.6628  0.077378991  0.077728787            3 
 2189000   0.90480678   -2.8256065    2034.5905  0.077455098  0.077714728            4 
 2190000   0.88022814   -2.8519584    2036.4513  0.077490538  0.077700313            2 
 2191000    0.8935219   -2.8366815    2031.1944  0.077255225  0.077686047            2 
 2192000   0.89763624   -2.8225596    2039.0887    0.0775201  0.077672122            5 
 2193000   0.89339019   -2.8492199    2030.4018   0.07715465  0.077658113            3 
 2194000   0.89463137   -2.8160122    2040.6252  0.077507796   0.07764403            1 
 2195000   0.88601069   -2.8314562    2043.0969   0.07756632  0.077629986            2 
 2196000   0.89270592    -2.822154    2038.8584  0.077370157   0.07761603            3 
 2197000   0.87175724   -2.8407011    2041.2372   0.07742517   0.07760201            2 
 2198000   0.91674175   -2.8426232    2033.4766  0.077095714  0.077588041            3 
 2199000   0.90408843   -2.8351887    2033.1918  0.077049862  0.077573636            3 
 2200000   0.90345822   -2.8463953    2036.0267  0.077122222  0.077559232            1 
 2201000   0.88471969   -2.8440467    2045.7282  0.077454498  0.077545227            3 
 2202000    0.8976671   -2.8160936    2044.4235  0.077369947  0.077531126            3 
 2203000   0.91074007   -2.8119733    2054.8094  0.077727696   0.07751739            3 
 2204000    0.8834672   -2.8395983    2036.0527   0.07698324  0.077503181            4 
 2205000   0.89292723   -2.8355597    2049.4069   0.07745302   0.07748908            4 
 2206000   0.88585665   -2.8177073     2040.512  0.077081896  0.077474726            4 
 2207000   0.89786042   -2.8210266    2043.5666  0.077162308  0.077460852            3 
 2208000   0.89471097   -2.8276159    2045.0856   0.07718469  0.077446925            3 
 2209000   0.91177082   -2.8467124    2051.4265  0.077388959  0.077432733            3 
 2210000   0.87755764   -2.8456273    2038.8711  0.076880511  0.077418659            1 
 2211000   0.91542056   -2.8376848    2041.3404  0.076938807  0.077404532            3 
 2212000   0.88289877   -2.8275869    2048.0122  0.077155371  0.077390543            5 
 2213000   0.89885703   -2.8265292    2058.5596  0.077517684  0.077376777            5 
 2214000    0.8737822   -2.8420665    2039.7468   0.07677457   0.07736264            3 
 2215000   0.89221656   -2.8533646    2049.9253  0.077122847  0.077348738            3 
 2216000   0.89637326    -2.882818    2049.6055  0.077076019  0.077334858            2 
 2217000   0.93235757   -2.8429038    2056.7536   0.07730994  0.077320804            3 
 2218000   0.88359509    -2.847841    2052.7212  0.077123581   0.07730701            5 
 2219000   0.91411541   -2.8429235    2048.5517  0.076932241  0.077293123            1 
 2220000   0.89032284   -2.8330483    2045.9641  0.076800453  0.077279035            2 
 2221000   0.88569065   -2.8307956    2052.8688  0.077024944  0.077264969            8 
 2222000   0.89577517   -2.8421795    2056.5407  0.077127989  0.077251061            3 
 2223000   0.90137555   -2.8566709    2057.3823  0.077124841  0.077236989            4 
 2224000   0.91885143   -2.8506477    2052.3558   0.07690182  0.077222953            7 
 2225000   0.88756179   -2.8541579    2046.4038  0.076644339  0.077208954            4 
 2226000   0.88142789   -2.8586119    2057.0571  0.077008727  0.077194827            2 
 2227000   0.89614373    -2.869724    2051.5149  0.076766762  0.077180917            4 
 2228000   0.90556843    -2.841817    2051.4362   0.07672936  0.077166793            2 
 2229000   0.89088201   -2.8336983    2050.4101  0.076656576   0.07715292            2 
 2230000   0.89633495   -2.8299784    2056.5919   0.07685321  0.077138909            2 
 2231000   0.91948855   -2.8489008    2062.8293  0.077051745  0.077125153            3 
 2232000   0.89612315   -2.8341412    2055.7469  0.076752798  0.077111184            3 
 2233000   0.88306316   -2.8457273    2056.9365  0.076762818  0.077097347            3 
 2234000   0.88056756   -2.8722795    2061.2456  0.076889196  0.077083284            2 
 2235000   0.88323241   -2.8292976    2057.5791  0.076718088  0.077069255            2 
 2236000   0.90247214   -2.8481012    2051.3212  0.076450551  0.077055418            5 
 2237000   0.89320419   -2.8663845    2059.0693  0.076705012  0.077041288            5 
 2238000   0.87543029   -2.8683004    2059.8022  0.076698025   0.07702713            2 
 2239000   0.89133542   -2.8336001    2071.3881  0.077094986  0.077012969            4 
 2240000   0.89920391   -2.8733555    2059.5605  0.076620556   0.07699895            4 
 2241000   0.90395061   -2.8355176    2059.5627  0.076586447  0.076984986            3 
 2242000   0.91468038   -2.8527191    2067.0624  0.076831043   0.07697087            3 
 2243000   0.90158834   -2.8401818    2063.3256  0.076657957  0.076956806            2 
 2244000   0.87722368   -2.8255255    2070.9607  0.076907335   0.07694311            4 
 2245000   0.89009105   -2.8058715    2069.8658  0.076832437   0.07692936            3 
 2246000   0.88013777   -2.8508577    2062.4628  0.076523554  0.076915544            1 
 2247000    0.9130862   -2.8301143    2058.8976  0.076357278  0.076901864            2 
 2248000   0.88749619    -2.848361    2067.2735  0.076633802  0.076887679            2 
 2249000   0.89382215   -2.8352505    2071.6655  0.076762467  0.076873808            2 
 2250000   0.88514288   -2.8547579    2061.7087  0.076359582  0.076859976            3 
 2251000   0.86385833   -2.8398853    2074.6316   0.07680407  0.076846487            6 
 2252000   0.88517991   -2.8237828     2079.319  0.076943422  0.076833071            2 
 2253000   0.90552117   -2.8366666    2074.4371  0.076728698  0.076819226            5 
 2254000   0.88899663   -2.8362193    2073.2911   0.07665229  0.076805663            2 
 2255000   0.89797687   -2.8600529    2073.6025  0.076629803  0.076791693            3 
 2256000   0.88048882   -2.8610321    2074.7434  0.076637979  0.076777884            5 
 2257000   0.88985256   -2.8391563    2071.9619  0.076501324    0.0767642            2 
 2258000   0.89945142    -2.835261    2080.4642  0.076781228  0.076750531            2 
 2259000   0.87144273    -2.843016    2080.0835  0.076733197  0.076736895            2 
 2260000   0.88150912   -2.8426149    2081.9801  0.076769179  0.076723227            1 
 2261000   0.86504958   -2.8455266    2079.1063  0.076629305  0.076709531            3 
 2262000   0.88298263   -2.8477887    2080.3325  0.076640601   0.07669614            3 
 2263000   0.87576719   -2.8043446    2080.6473  0.076618326  0.076682671            2 
 2264000   0.89269532   -2.8268264    2084.0102  0.076708268   0.07666908            2 
 2265000   0.90441318   -2.8385024    2083.7051  0.076663175  0.076655815            2 
 2266000    0.8856309   -2.8511843    2081.5576  0.076550367  0.076642361            7 
 2267000   0.89317975   -2.8633126    2078.8979  0.076418831   0.07662877            2 
 2268000   0.89636486   -2.8605713    2080.1741  0.076432028  0.076615291            2 
 2269000   0.87583158    -2.820885    2093.0879  0.076872629  0.076602011            2 
 2270000   0.87568234   -2.8656998    2088.2126  0.076659787  0.076588829            2 
 2271000   0.89015504   -2.8466522    2091.8091  0.076758004   0.07657555            2 
 2272000   0.88172077   -2.8588185     2082.488  0.076382336   0.07656241            3 
 2273000   0.89140258   -2.8562355    2083.9344  0.076401761   0.07654935            4 
 2274000   0.88245502   -2.8683535    2085.9275  0.076441199  0.076535909            1 
 2275000   0.87340792   -2.8551395     2092.182  0.076636702  0.076522497            3 
 2276000   0.89357406   -2.8265354    2086.4281  0.076392357  0.076509396            4 
 2277000   0.89712659   -2.8877045    2089.6103  0.076475269  0.076496156            2 
 2278000   0.89638549   -2.8520657    2090.9679  0.076491362  0.076482945            3 
 2279000   0.87583429   -2.8824725    2091.5321  0.076478429  0.076469646            3 
 2280000   0.88780537   -2.8564363    2092.4966  0.076480139  0.076456275            2 
 2281000   0.88437589   -2.8596898    2093.1726  0.076471307  0.076443027            2 
 2282000   0.88619081   -2.8504036     2095.468  0.076521619   0.07642965            3 
 2283000   0.88202749   -2.8194228    2101.4391  0.076706054  0.076416237            3 
 2284000    0.8887082   -2.8461346    2085.9958  0.076109014  0.076402762            2 
 2285000    0.8756972   -2.8551636    2096.3372  0.076452853  0.076389472            4 
 2286000   0.88248768   -2.8673752    2089.0764  0.076154724  0.076375986            2 
 2287000   0.87403599   -2.8529512     2098.407  0.076461411  0.076362601            3 
 2288000    0.9003086   -2.8581106    2090.6065  0.076143886  0.076349052            2 
 2289000   0.88190933   -2.8318346    2104.3909  0.076612456  0.076335761            4 
 2290000   0.87322108   -2.8549454     2099.104  0.076386609  0.076322244            2 
 2291000   0.88826701   -2.8318433    2095.9227   0.07623755  0.076308741            2 
 2292000   0.88627923   -2.8342368    2098.0591  0.076281961  0.076295349            3 
 2293000   0.86826736   -2.8365764    2097.6333   0.07623322  0.076281665            2 
 2294000   0.88638158   -2.8741664    2093.5532  0.076051773  0.076268024            2 
 2295000    0.8869602    -2.840882    2094.3524  0.076047655   0.07625457            4 
 2296000   0.87471873   -2.8327392     2101.918  0.076289126  0.076241278            1 
 2297000   0.87858776   -2.8275445    2109.2624  0.076522363  0.076228185            3 
 2298000   0.87583662   -2.8628236    2103.0982  0.076265528  0.076214916            3 
 2299000   0.88980068   -2.8637849    2107.2369  0.076382373  0.076201546            3 
 2300000   0.87462623   -2.8617947     2100.828  0.076116956   0.07618819            4 
 2301000   0.88455287   -2.8300335    2105.0292  0.076236028  0.076174888            5 
 2302000   0.87596957   -2.8676105    2105.3593  0.076214861  0.076161601            1 
 2303000   0.87608563   -2.8446319    2102.8208  0.076089911  0.076148117            2 
 2304000   0.88923505   -2.8688938    2105.5899  0.076157042   0.07613473            4 
 2305000   0.87533407    -2.867349    2103.8836  0.076062313  0.076121219            3 
 2306000   0.89278525   -2.8666805    2105.8435  0.076100155  0.076107748            3 
 2307000   0.87916886   -2.8525179    2114.9639  0.076396615  0.076094365            3 
 2308000   0.88854969   -2.8383168    2111.7553  0.076247664  0.076080927            5 
 2309000   0.86404936   -2.8545689    2104.5649  0.075955134  0.076067694            3 
 2310000   0.87714032   -2.8384448    2109.3843  0.076096114  0.076054419            5 
 2311000   0.87821015   -2.8457686    2112.2303  0.076165813  0.076041178            3 
 2312000   0.88453015   -2.8380099    2111.6507  0.076111978  0.076028118            2 
 2313000    0.8825838   -2.8794912    2111.4187  0.076070711  0.076014571            2 
 2314000   0.90236996   -2.8833933    2100.3323  0.075638588  0.076001056            2 
 2315000   0.88988927   -2.8599418    2109.9211  0.075951084  0.075987783            3 
 2316000   0.89727323   -2.8524796    2125.2012  0.076468092  0.075974616            3 
 2317000   0.86348304   -2.8422299    2116.7481  0.076131062  0.075961606            2 
 2318000   0.86423999   -2.8732715    2107.5828  0.075768724  0.075948448            3 
 2319000   0.88853359   -2.8456579    2118.1427  0.076115521  0.075935411            2 
 2320000   0.86963652   -2.8546017     2119.159  0.076119218  0.075922374            4 
 2321000   0.90139145   -2.8492761    2122.6121    0.0762104  0.075909206            2 
 2322000   0.86602748   -2.8703673    2123.3775  0.076205051  0.075896031            3 
 2323000    0.8904235   -2.8666054    2113.9415  0.075833746   0.07588312            3 
 2324000   0.86340126    -2.857403     2118.276   0.07595654  0.075870087            6 
 2325000    0.8951592    -2.863764    2117.1817  0.075884648  0.075857051            2 
 2326000   0.86405336   -2.8518897    2119.1957  0.075924179  0.075843936            2 
 2327000   0.87593854   -2.8658343    2126.8059  0.076164086  0.075830822            1 
 2328000    0.8983458   -2.8687812    2116.5203  0.075763185  0.075817703            3 
 2329000   0.87424314    -2.850031    2117.0846  0.075750844  0.075804384            2 
 2330000   0.89411818   -2.8692128    2127.7209  0.076098744  0.075791168            3 
 2331000   0.87649611   -2.8657947    2125.1614  0.075974597  0.075777939            2 
 2332000    0.8818764   -2.8515849    2124.2177  0.075908294  0.075764734            5 
 2333000   0.87954582   -2.8634151    2119.8534  0.075719867  0.075751441            2 
 2334000   0.86935825   -2.8403037    2112.6839  0.075431445  0.075738002            2 
 2335000   0.87851059   -2.8742963    2117.2198  0.075561021  0.075724463            4 
 2336000    0.8812461    -2.859179    2114.5001  0.075431654  0.075711219            4 
 2337000    0.8762406   -2.8833585    2124.6178  0.075760156  0.075697729            2 
 2338000   0.87990305   -2.8518315     2124.657   0.07572915  0.075684565            4 
 2339000   0.89463826   -2.8244636    2132.9339  0.075991659  0.075671366            6 
 2340000   0.87855871   -2.8505363    2123.1453  0.075610586  0.075658179            2 
 2341000    0.8849899   -2.8482601    2127.2804  0.075725486   0.07564497            2 
 2342000   0.88951791   -2.8708217    2132.7991   0.07588952   0.07563183            4 
 2343000   0.87857655     -2.87851    2126.9434  0.075648863  0.075618535            3 
 2344000   0.88910327   -2.8645681    2134.0111  0.075867857  0.075605257            7 
 2345000   0.85910862   -2.8626976    2126.2514   0.07555975   0.07559188            2 
 2346000   0.87755707   -2.8364772    2129.1652  0.075631047   0.07557847            2 
 2347000   0.86857851   -2.8476486    2138.2782  0.075922392  0.075564961            4 
 2348000   0.85130807   -2.8452896    2132.4108  0.075681816  0.075551919            4 
 2349000   0.86388079   -2.8609792    2127.2673  0.075467124  0.075538372            2 
 2350000   0.87526905   -2.8518332    2128.6782  0.075485044  0.075525169            4 
 2351000   0.89685968   -2.8553641    2139.8166  0.075847747  0.075511775            3 
 2352000   0.86267291   -2.8470287    2140.3624  0.075834834  0.075498479            4 
 2353000   0.86253382   -2.8820705    2120.5825  0.075102086  0.075485103            2 
 2354000   0.89296216   -2.8829098    2126.4474  0.075277805  0.075471426            2 
 2355000   0.88762172   -2.8707867    2129.0114  0.075336568  0.075457842            4 
 2356000   0.87216471   -2.8858484    2128.5031  0.075286611  0.075444293            3 
 2357000   0.85354412   -2.8751269    2127.6787  0.075225523  0.075430609            3 
 2358000   0.87819365   -2.8658501    2127.1336  0.075174355  0.075416865            3 
 2359000    0.8660501   -2.8635539     2138.857  0.075556628  0.075403128            3 
 2360000   0.90583564   -2.8659064    2128.2704  0.075150791  0.075389563            2 
 2361000   0.86619518   -2.8982755    2126.9513    0.0750724  0.075375881            2 
 2362000   0.88540678   -2.8683355    2129.5236  0.075131371  0.075362464            2 
 2363000   0.86683791   -2.8553323    2136.0804  0.075330807  0.075348934            4 
 2364000   0.88522687   -2.8803625    2135.8081  0.075289344  0.075335351            2 
 2365000   0.84125128    -2.866923      2137.95  0.075332981  0.075321755            8 
 2366000   0.85099984   -2.8512972    2125.7354  0.074870928  0.075308242            3 
 2367000   0.86528849   -2.8748569    2131.4897  0.075041886  0.075294391            3 
 2368000   0.88170937   -2.8649412    2143.2839  0.075425249    0.0752809            2 
 2369000   0.87710637   -2.8692709    2143.5221   0.07540179  0.075267632            6 
 2370000    0.8813198   -2.8607663    2134.4238  0.075050062  0.075254014            1 
 2371000   0.87046756   -2.8587075    2140.0608  0.075216531  0.075240498            7 
 2372000   0.87552281   -2.8671762    2137.4106  0.075091717  0.075227028            3 
 2373000   0.89501053   -2.8542695    2142.2412  0.075229708  0.075213566            3 
 2374000   0.88768735   -2.8706748     2135.186  0.074950366  0.075200169            6 
 2375000   0.85291201   -2.8388735    2147.7985  0.075361349  0.075186903            3 
 2376000   0.87192836   -2.8544493    2140.8713  0.075086675  0.075173664            3 
 2377000   0.88329076   -2.8624837    2140.0716   0.07502705  0.075160387            6 
 2378000   0.87262769   -2.8767794    2152.4241  0.075428375  0.075147003            3 
 2379000   0.85736615   -2.8715175    2143.1755  0.075072703  0.075133646            4 
 2380000   0.86265895   -2.8473071    2143.6602  0.075058129  0.075120399            2 
 2381000   0.86359153    -2.869824    2141.7392  0.074959371  0.075106963            4 
 2382000   0.87443461   -2.8616545    2138.9006  0.074828596  0.075093542            4 
 2383000   0.86405163   -2.8646886    2142.1194  0.074909758  0.075079697            2 
 2384000   0.87123752   -2.8810289    2151.3816  0.075202098   0.07506604            4 
 2385000   0.86260998   -2.8639634    2146.4855  0.074999495  0.075052271            3 
 2386000   0.87154705   -2.8665277    2144.2717  0.074890741  0.075038361            2 
 2387000   0.85780868   -2.8721515    2145.4674  0.074901109  0.075024716            3 
 2388000   0.88782287   -2.8664348    2143.8917  0.074814756  0.075011037            3 
 2389000   0.86581292   -2.8594963    2143.5228  0.074770573   0.07499725            5 
 2390000   0.87608595   -2.8814028    2141.9701  0.074685151  0.074983656            2 
 2391000    0.8778256   -2.8724376    2153.7274   0.07506369  0.074969978            3 
 2392000   0.85051875   -2.8885903    2150.3302  0.074913956  0.074956471            3 
 2393000   0.87017312   -2.8935188    2154.0961  0.075013794  0.074942993            3 
 2394000   0.85937284   -2.8935328    2148.2424  0.074778697  0.074929428            2 
 2395000   0.85901886   -2.8758982    2154.0305   0.07494887  0.074915915            2 
 2396000   0.87927904   -2.9000941    2147.8208  0.074701614  0.074902226            3 
 2397000   0.87803161   -2.8597406    2152.0341  0.074816928   0.07488881            3 
 2398000   0.87853097   -2.8974718    2148.7046  0.074670024  0.074875083            3 
 2399000   0.85836659   -2.8640588    2155.1485  0.074862739  0.074861494            7 
 2400000   0.85427486   -2.9000377    2151.8334  0.074716439  0.074847812            4 
 2401000   0.88470781   -2.8598097    2154.2581  0.074769474  0.074834178            2 
 2402000    0.8665163    -2.882447     2155.381  0.074777303  0.074820491            5 
 2403000   0.87095261    -2.897402    2155.3008  0.074743403  0.074806781            3 
 2404000   0.87191006   -2.8724321    2147.9902  0.074458894  0.074793208            4 
 2405000   0.85857258   -2.8961327    2149.6106  0.074484083   0.07477964            3 
 2406000   0.85238711   -2.8609866    2154.5459  0.074624061  0.074766016            3 
 2407000   0.85320371   -2.8805473    2162.0579  0.074853132  0.074752291            5 
 2408000   0.85151616   -2.8626674    2158.6277  0.074703339  0.074738482            3 
 2409000   0.87024548   -2.8616894    2146.0356  0.074236738  0.074724545            3 
 2410000   0.87900189   -2.8748481    2160.6349  0.074710752  0.074710935            3 
 2411000   0.85685022   -2.8714748    2156.1044  0.074523171  0.074697155            2 
 2412000   0.86593725   -2.8807219    2159.7293  0.074617512  0.074683432            4 
 2413000   0.87275359   -2.8840652    2157.5487  0.074511281  0.074669441            3 
 2414000   0.87568708   -2.8822426    2169.3379  0.074887391  0.074655709            3 
 2415000   0.85858352    -2.875034    2154.1848    0.0743335  0.074641715            7 
 2416000   0.84813344   -2.9018353    2148.2695  0.074098701  0.074627678            2 
 2417000   0.87397678   -2.8732365    2152.5041  0.074214043  0.074613595            3 
 2418000   0.87559628   -2.8858309    2157.5456  0.074357098  0.074599753            2 
 2419000   0.86156039   -2.8772313    2159.8802  0.074406787   0.07458577            4 
 2420000    0.8598004   -2.8845097    2164.5501  0.074536848  0.074571975            4 
 2421000   0.88537878   -2.8775571    2164.6395  0.074509139  0.074557944            1 
 2422000   0.87191688   -2.8714849    2156.9104  0.074212442  0.074544175            4 
 2423000   0.86854609   -2.8973819    2160.5807  0.074308045   0.07453021            2 
 2424000   0.87975634   -2.8766286    2161.7807  0.074318644  0.074516343            3 
 2425000    0.8733028   -2.8750331    2161.3889  0.074274534  0.074502292            3 
 2426000   0.85669191   -2.8809254    2160.7604  0.074222327   0.07448805            2 
 2427000   0.84722332   -2.8842901    2169.6225  0.074496034  0.074474212            3 
 2428000    0.8648769   -2.8851244    2166.7737  0.074367576   0.07446047            4 
 2429000   0.89089587     -2.87942     2161.943   0.07417123  0.074446606            2 
 2430000   0.85095915   -2.8686072    2156.9179   0.07396838  0.074432643            2 
 2431000    0.8456691   -2.8902306    2161.0102  0.074078231  0.074418479            5 
 2432000   0.86288349   -2.8865971    2165.0938  0.074187699  0.074404696            2 
 2433000   0.85766692   -2.8812059    2157.1824  0.073886233  0.074390411            4 
 2434000   0.84935825   -2.8864113    2171.5395  0.074347423  0.074376343            5 
 2435000    0.8752204   -2.8978899    2159.8082  0.073915408  0.074362315            2 
 2436000   0.85838896   -2.8664334    2169.0733  0.074202014  0.074348101            4 
 2437000    0.8408655   -2.8979181    2167.7115  0.074125001   0.07433408            2 
 2438000   0.83892508   -2.8807464    2179.7681  0.074506703  0.074320252            2 
 2439000   0.86118988   -2.9136461    2164.4738  0.073953593  0.074306567            2 
 2440000   0.85156227   -2.8750331     2167.475  0.074025787  0.074292596            1 
 2441000   0.84931598   -2.8842097      2164.29  0.073886728  0.074278683            2 
 2442000   0.87392723   -2.8857914    2175.3519  0.074233959  0.074264838            3 
 2443000   0.88193652   -2.9127555    2173.1723  0.074129223  0.074250942            7 
 2444000   0.86431175   -2.8810865    2178.8298  0.074291797  0.074237187            3 
 2445000    0.8756959   -2.9060455    2162.8469  0.073716663  0.074223498            2 
 2446000   0.86898779    -2.905691     2176.497  0.074151574   0.07420961            2 
 2447000   0.86938097   -2.8913022    2168.9258   0.07386343  0.074196066            2 
 2448000   0.86145917    -2.903389    2174.7127  0.074030253  0.074182081           14 
 2449000   0.85383124   -2.8955655    2174.6032  0.073996298  0.074168339            4 
 2450000   0.85816341   -2.8903162    2180.2773  0.074159091  0.074154485            2 
 2451000   0.86234612   -2.8711413    2182.7576  0.074213164  0.074141003            2 
 2452000   0.84471403   -2.8967648     2171.539  0.073801625  0.074127364            5 
 2453000   0.86700358   -2.8865995    2180.0697  0.074061344  0.074113777            4 
 2454000   0.87370004   -2.8881106    2186.3004  0.074242746  0.074100546            3 
 2455000   0.86890753   -2.8853188    2182.9683  0.074099399   0.07408722            2 
 2456000   0.86442508   -2.8630637    2187.8336   0.07423431  0.074073881            3 
 2457000   0.84793585   -2.8946193    2179.2483  0.073912913   0.07406052            5 
 2458000   0.86767378   -2.8731051    2187.8774  0.074175395  0.074047373            3 
 2459000   0.88610035   -2.8836381    2187.7979  0.074142534  0.074034079            6 
 2460000   0.83846179   -2.9039572    2190.9143  0.074217964  0.074020871            3 
 2461000   0.85477417   -2.8839766    2188.4432   0.07410413  0.074007623            4 
 2462000   0.85833078    -2.884213    2193.6105  0.074248932  0.073994452            4 
 2463000   0.86199253   -2.8804548    2183.5114  0.073877094  0.073981188            5 
 2464000   0.86145013   -2.8924592    2191.6807  0.074123399  0.073967818            5 
 2465000   0.86810026   -2.8906369    2186.6162  0.073922117  0.073954618            2 
 2466000   0.86340629   -2.8945244    2188.7583  0.073964528   0.07394121            4 
 2467000   0.84221163   -2.8926798    2181.8626  0.073701614  0.073927643            5 
 2468000   0.84767775   -2.8756915    2186.6635  0.073833856  0.073914316            5 
 2469000   0.87878971   -2.9095101    2183.9138  0.073711144  0.073900888            6 
 2470000   0.83694429   -2.9067225    2186.5678  0.073770844  0.073887519            6 
 2471000   0.87078364   -2.8968255    2192.8073  0.073951412  0.073874203            4 
 2472000   0.85885652    -2.908762    2186.7981   0.07371892  0.073860968            5 
 2473000   0.85957087   -2.8827236    2191.5221  0.073848298  0.073847628            6 
 2474000   0.87606768   -2.8816782     2192.522  0.073852128  0.073834413            2 
 2475000   0.84138668   -2.9050858    2190.7179  0.073761545  0.073821109            3 
 2476000    0.8415391   -2.8995592    2196.1204  0.073913583  0.073807765            2 
 2477000   0.86187869   -2.9057066    2194.4568  0.073827775    0.0737946            4 
 2478000   0.86256454    -2.885556    2205.6278  0.074173653  0.073781571            3 
 2479000   0.84884131   -2.9131566    2198.6458  0.073909028  0.073768328            3 
 2480000   0.86519425   -2.8927485    2200.4913   0.07394124  0.073755325            6 
 2481000   0.84287701   -2.8772806    2201.9883  0.073961719  0.073742257            2 
 2482000   0.87291759   -2.8901609    2193.7079  0.073653904  0.073729028            4 
 2483000   0.86524158   -2.9028685    2196.3086  0.073711524  0.073715725            3 
 2484000   0.85077896   -2.9108819    2202.4614  0.073888266  0.073702596            5 
 2485000   0.85433409   -2.8996872    2194.9776  0.073607565  0.073689446            2 
 2486000   0.86159239   -2.8831955    2198.6997  0.073702725   0.07367628            4 
 2487000   0.84802218   -2.9099358    2196.0673  0.073584885  0.073662973            3 
 2488000   0.84560421   -2.8952498    2204.9724  0.073853577  0.073649439            3 
 2489000   0.84394338   -2.8815998    2202.8699  0.073753513  0.073636034            2 
 2490000   0.85670438   -2.9117127    2200.1294  0.073632175  0.073622766            4 
 2491000   0.85279415   -2.8969746    2199.6845  0.073587734  0.073609454            4 
 2492000   0.85199398   -2.8872334    2202.4848  0.073651846  0.073595933            1 
 2493000    0.8680391   -2.8933777    2200.8743  0.073568467  0.073582399            4 
 2494000   0.86115604   -2.9119161    2190.3627   0.07318774   0.07356877            2 
 2495000   0.84605738   -2.8891055    2199.7352  0.073471448   0.07355534           10 
 2496000    0.8674233   -2.8973403     2194.418   0.07326449   0.07354183            3 
 2497000   0.86301257   -2.9071135    2198.6767  0.073377277  0.073528315            3 
 2498000   0.85503191   -2.9127122    2190.3268   0.07306935  0.073514539           14 
 2499000   0.85401902   -2.8969147    2200.5793  0.073381997  0.073500734            3 
 2500000   0.86009568    -2.904874    2201.6684  0.073388947  0.073487105            2 
 2501000   0.83687881   -2.8985365    2205.1928  0.073477035  0.073473536            3 
 2502000   0.86807796   -2.8870222     2208.424  0.073555288  0.073459949            2 
 2503000   0.87023364   -2.9014097     2201.553  0.073297142  0.073446382            5 
 2504000   0.85206523   -2.9363851    2200.2537  0.073224631  0.073432728            2 
 2505000   0.84928041    -2.873967    2205.7831  0.073379345  0.073419212            2 
 2506000    0.8555239   -2.9036049    2202.8103  0.073251208  0.073405594            3 
 2507000   0.85067212   -2.9037703    2207.6205  0.073381881  0.073392067            3 
 2508000   0.86034772    -2.875918    2207.7804  0.073357934   0.07337849            3 
 2509000   0.83951663   -2.8639662    2207.2128  0.073309844  0.073364924            3 
 2510000   0.83370614   -2.9033821    2207.3373  0.073284771  0.073351481            2 
 2511000   0.84468955   -2.9054799     2208.634  0.073298619  0.073338021            2 
 2512000   0.83597712   -2.8946475    2212.3849  0.073393872  0.073324412            4 
 2513000   0.83550156   -2.8956026    2211.7921  0.073345011  0.073310819            2 
 2514000   0.84920838    -2.897113    2205.7425  0.073115305   0.07329722            3 
 2515000    0.8506676   -2.8934108    2205.0363  0.073062833  0.073283498            2 
 2516000   0.83069629   -2.8986314    2207.3155  0.073109283  0.073269808            5 
 2517000   0.86143831   -2.9035118    2208.8363  0.073130588  0.073256155            3 
 2518000   0.85745729   -2.8924023     2217.411  0.073385327  0.073242666            5 
 2519000   0.86165186   -2.9144245    2203.1542   0.07288455  0.073228914            5 
 2520000   0.83974747   -2.8946066    2211.1016   0.07311844  0.073215262           12 
 2521000   0.83651075    -2.890339    2212.7526   0.07314401  0.073201631            2 
 2522000   0.84306597   -2.9100799    2215.8317  0.073216749  0.073187823            2 
 2523000   0.86727398   -2.8971289    2213.4384  0.073108682  0.073174093            3 
 2524000   0.84491216   -2.8909042    2214.8253  0.073125505  0.073160632            2 
 2525000   0.83551114   -2.9134625    2218.7744  0.073226878  0.073147076            2 
 2526000   0.83683665   -2.8943648    2209.5222  0.072892656  0.073133492            3 
 2527000   0.85527238    -2.897902    2216.3476  0.073088892  0.073119913            4 
 2528000   0.86724011   -2.8940289    2209.0389  0.072819056  0.073106133            3 
 2529000   0.83673728   -2.9095062    2211.3067   0.07286499  0.073092338            3 
 2530000   0.83854844   -2.9035788    2210.7272  0.072817101  0.073078415            3 
 2531000   0.84159217   -2.9202405    2207.6138  0.072685823  0.073064464            3 
 2532000   0.83482244   -2.8989931    2209.8517  0.072730769  0.073050494            4 
 2533000   0.84902507   -2.9185907    2212.8692   0.07280133  0.073036766            5 
 2534000   0.83837756    -2.908102    2215.5635  0.072861205  0.073022871            5 
 2535000   0.84308967   -2.9353788    2218.8499  0.072940496  0.073009171            3 
 2536000   0.85145976   -2.8804553    2210.4096  0.072634385  0.072995366            4 
 2537000     0.855007     -2.92219    2217.9731  0.072854194  0.072981742            3 
 2538000    0.8599797   -2.9307404    2218.4511  0.072841184  0.072967968            2 
 2539000   0.84993837   -2.8788296    2229.3876  0.073171445  0.072954146            4 
 2540000   0.83559182   -2.9217658    2215.9052  0.072700303  0.072940405            5 
 2541000   0.85743424   -2.9160737    2218.1189   0.07274429  0.072926618            2 
 2542000   0.84891246    -2.908991    2214.6462  0.072601829  0.072912818            3 
 2543000   0.85266066   -2.9025552    2219.5457  0.072733834  0.072899063            6 
 2544000   0.83222467   -2.9080567     2219.985  0.072719635  0.072885302            2 
 2545000     0.821479   -2.8992906    2219.8386  0.072686266  0.072871128            5 
 2546000    0.8533343   -2.9029117    2213.4063  0.072447182   0.07285711            4 
 2547000   0.85660016    -2.890842    2223.7266  0.072756401  0.072843282            7 
 2548000   0.85487069   -2.8907333    2220.1097  0.072609554  0.072829333            2 
 2549000   0.84582241   -2.9101836    2220.4773  0.072593087  0.072815214            3 
 2550000   0.85862592   -2.8929943    2222.9956  0.072646915  0.072801298            3 
 2551000    0.8388951   -2.9160778     2226.158  0.072721743  0.072787315            2 
 2552000   0.85313785   -2.9143305    2218.1195  0.072430757  0.072773245            4 
 2553000   0.84894407   -2.9018073    2219.4955  0.072447302  0.072759209            3 
 2554000    0.8358588   -2.8976491    2219.1034  0.072406142  0.072745283            2 
 2555000   0.85064078    -2.916214    2228.6913  0.072690519  0.072731224            2 
 2556000   0.83625457   -2.9109252    2222.8039  0.072470133  0.072717425            3 
 2557000   0.84783215   -2.8875476    2230.6945  0.072698947  0.072703592            6 
 2558000   0.84303113    -2.892088    2224.2856  0.072461741  0.072689865            2 
 2559000   0.85362723   -2.9200675    2226.4355  0.072503435  0.072676148            3 
 2560000   0.82265407   -2.9082675    2230.5814  0.072610072  0.072662237            3 
 2561000    0.8488069   -2.9138277    2227.5636  0.072483523  0.072648375            5 
 2562000    0.8390659   -2.8716769    2229.5812  0.072520856  0.072634633            3 
 2563000    0.8484432   -2.8855306    2229.3043  0.072483557  0.072620932            1 
 2564000   0.85732895   -2.9211896     2225.799  0.072341363  0.072607171            3 
 2565000   0.82207825   -2.8914747    2231.3134  0.072492312   0.07259338            4 
 2566000   0.85049046   -2.9202129     2229.227  0.072396305  0.072579469            2 
 2567000   0.84467378   -2.8990417     2236.622  0.072608167   0.07256584            2 
 2568000   0.85453549   -2.9088408    2229.1168  0.072336344  0.072552218            6 
 2569000   0.83961858   -2.9328575    2224.8893  0.072171055  0.072538362            3 
 2570000   0.84210525    -2.917392    2222.8927  0.072078232   0.07252455            3 
 2571000   0.84383467   -2.9003796    2239.3157  0.072582514  0.072510694            2 
 2572000   0.84356526   -2.8991336    2234.4713  0.072397335  0.072497074            4 
 2573000   0.83960603   -2.9223229    2242.3956  0.072625845  0.072483461            4 
 2574000   0.81836214   -2.9255161    2238.1144  0.072459028   0.07246987            5 
 2575000   0.85784973   -2.9045667    2240.6822  0.072513987  0.072456305            6 
 2576000   0.84133416   -2.9083455    2238.2588  0.072407442  0.072442844            4 
 2577000   0.85059524   -2.8969627     2249.444  0.072741042  0.072429337            3 
 2578000   0.82027498   -2.9209958     2241.493  0.072455813  0.072415831            4 
 2579000   0.82910566   -2.9211251    2233.9876  0.072185201   0.07240236            3 
 2580000   0.85159839   -2.9147548    2237.1801  0.072260338  0.072388706            5 
 2581000   0.85290013   -2.9281206    2243.6332  0.072440696  0.072375068            7 
 2582000   0.83798578   -2.9200456    2241.0333  0.072328727  0.072361306            3 
 2583000   0.83872548   -2.9092556    2243.8946  0.072393039  0.072347836            3 
 2584000   0.83720286    -2.908883    2245.3096  0.072410656  0.072334275            5 
 2585000   0.83208941   -2.9340601    2244.2877    0.0723497  0.072320725            4 
 2586000   0.84739962   -2.9351196    2242.7674  0.072272732  0.072306995            2 
 2587000   0.84584017   -2.9107896    2235.4467  0.072008977  0.072293548            6 
 2588000   0.83701298   -2.9210796    2244.5744  0.072275063  0.072279893            4 
 2589000    0.8324222   -2.9092872    2234.7911   0.07193225  0.072266398            3 
 2590000   0.84108364   -2.9255988    2238.8795   0.07203602  0.072252757            3 
 2591000   0.84562237   -2.9039899    2241.2585  0.072084732  0.072239333            6 
 2592000   0.84415229   -2.9174036    2241.7797  0.072073678  0.072225969            2 
 2593000   0.82713017   -2.9301887    2241.7115  0.072043691  0.072212227            3 
 2594000   0.84615842   -2.9410383    2253.3532  0.072389913  0.072198599            4 
 2595000    0.8220736    -2.884233     2253.164   0.07235594  0.072184834            3 
 2596000   0.85185062   -2.9305068    2243.9079  0.072030943   0.07217128            5 
 2597000   0.83788613   -2.9012474    2247.7794  0.072127437  0.072157505            4 
 2598000   0.81457356   -2.8939556    2250.8548   0.07219832  0.072144061            4 
 2599000   0.85013875   -2.9162754    2251.8808  0.072203438  0.072130594            1 
 2600000   0.83098167   -2.8983326    2248.1714  0.072056777   0.07211721            2 
 2601000   0.85020365   -2.9120041    2259.0444  0.072377431  0.072103931            3 
 2602000   0.82948153   -2.9139206    2247.5778  0.071982379   0.07209057            3 
 2603000   0.85616086   -2.9250941    2243.9737  0.071839344  0.072077156            4 
 2604000   0.83140185   -2.9265941    2248.8981  0.071969345  0.072063831            5 
 2605000   0.84860466    -2.936068    2245.5236  0.071833768  0.072050452            5 
 2606000   0.83247792   -2.9251722    2251.2983  0.071990864  0.072036932            4 
 2607000   0.83897051   -2.9140098    2253.1942  0.072023854  0.072023518            2 
 2608000     0.837665   -2.9320748    2256.6799  0.072107613  0.072010219            3 
 2609000   0.84927422   -2.9261198     2259.793  0.072179411  0.071997067            2 
 2610000   0.83722887   -2.9204646    2262.9208  0.072251623  0.071983847            3 
 2611000    0.8434307    -2.940864    2252.9321  0.071905148    0.0719706            4 
 2612000   0.83701047   -2.9226236    2254.7978  0.071937143  0.071957363            3 
 2613000   0.82314778   -2.9169345     2251.385  0.071800773  0.071944028            3 
 2614000   0.85355024   -2.9143485    2258.7157  0.072007003  0.071930835            3 
 2615000   0.82124976   -2.9241483    2256.5984  0.071911994  0.071917694            2 
 2616000   0.85768526   -2.8989233    2249.6413  0.071662887  0.071904321            2 
 2617000   0.83768408    -2.923704    2256.4538  0.071852433  0.071890782            5 
 2618000   0.82653187   -2.9352947    2250.0602  0.071621472  0.071877398            3 
 2619000   0.82802489   -2.9328471    2254.3094  0.071729331  0.071864024            4 
 2620000   0.83742238   -2.8931433    2260.2645  0.071891365  0.071850614            2 
 2621000    0.8307772   -2.9094816     2262.592  0.071937937  0.071837264            5 
 2622000   0.82779715    -2.921546    2250.8347  0.071536828  0.071824006            4 
 2623000   0.82652941   -2.9408779    2262.5474  0.071881667  0.071810425            6 
 2624000   0.82453285   -2.9249107    2259.2567  0.071749769  0.071797079            2 
 2625000   0.82631216   -2.9436273    2259.6554  0.071735093  0.071783581            3 
 2626000   0.81845847   -2.9372226    2265.6935  0.071899389  0.071770176            4 
 2627000   0.85971715   -2.9177417    2267.2258  0.071920625  0.071756647            4 
 2628000   0.83172396   -2.9161926    2272.5862  0.072063236  0.071743397            1 
 2629000   0.82318663   -2.9389496    2267.2015  0.071865142  0.071730118            4 
 2630000    0.8503294   -2.8960123    2266.3841  0.071811918  0.071716751            7 
 2631000   0.83718454   -2.9045108    2269.2343  0.071874898  0.071703554            3 
 2632000   0.84344825   -2.9082896    2267.6939  0.071798819  0.071690126            3 
 2633000   0.83768745    -2.935601     2258.327  0.071475093  0.071676696            3 
 2634000   0.82404933   -2.8944736    2266.8108  0.071716361  0.071663241            3 
 2635000   0.82101631   -2.9004451    2264.7833  0.071625024  0.071649897            1 
 2636000   0.83438189   -2.9382773    2266.0784  0.071638796  0.071636462            4 
 2637000   0.82847923    -2.914022     2271.789  0.071792094  0.071623092            5 
 2638000    0.8158211   -2.9304505    2260.9087  0.071421175  0.071609749            2 
 2639000   0.83968117   -2.9370928    2265.3486  0.071534311  0.071596316           11 
 2640000   0.82395053   -2.9340513    2267.7619  0.071583393  0.071582768            2 
 2641000    0.8333439   -2.9117575     2263.217   0.07141288  0.071569541            2 
 2642000   0.84258428     -2.94326    2272.2227  0.071669907  0.071556206            3 
 2643000   0.81754694   -2.9292881    2264.7106  0.071405935  0.071542767            7 
 2644000   0.83461303   -2.9366421    2265.0909  0.071390912   0.07152938            5 
 2645000   0.81744951   -2.9268554    2271.1214  0.071553921  0.071515971            4 
 2646000   0.81742214   -2.9079573    2264.8865  0.071330515  0.071502419            5 
 2647000   0.81394422   -2.9316837    2267.5595   0.07138772  0.071489026            2 
 2648000   0.83878664   -2.9644305    2261.5733  0.071172372  0.071475493            5 
 2649000   0.82771245   -2.9463184    2264.0054  0.071222015  0.071461917            3 
 2650000   0.82953378   -2.9250386    2270.0716  0.071385898  0.071448425            2 
 2651000   0.82771704    -2.930804    2264.6379  0.071188166  0.071435097            3 
 2652000   0.82507536   -2.9224037    2277.9954  0.071581052  0.071421778            2 
 2653000   0.84544189   -2.9256104    2263.3426  0.071093813  0.071408426            3 
 2654000    0.8230277   -2.9196656    2276.2359  0.071471862  0.071395232            1 
 2655000   0.83084358   -2.9348385    2277.8893   0.07149684  0.071381909            9 
 2656000   0.83093135    -2.938414    2274.1971  0.071354076  0.071368613            3 
 2657000   0.82841259   -2.9200004    2280.3721   0.07152089  0.071355199            3 
 2658000   0.83991094   -2.9418875     2280.041  0.071483603  0.071341913            2 
 2659000    0.8184332   -2.9341305     2275.824  0.071324558  0.071328622            4 
 2660000    0.8291519   -2.9139673    2287.4452  0.071661818  0.071315397            3 
 2661000   0.80704739   -2.9621981    2277.1284  0.071311801  0.071302201            5 
 2662000   0.82359065   -2.9117924    2285.8196  0.071557088  0.071288912            3 
 2663000   0.82744647   -2.9174863    2281.7755  0.071403664  0.071275895            4 
 2664000   0.84060194   -2.9193484    2276.8518  0.071222841  0.071262644            3 
 2665000   0.80399802    -2.932096    2276.8405  0.071195764  0.071249361            6 
 2666000   0.84692993     -2.94506    2286.3053  0.071464908  0.071236163            5 
 2667000   0.82239052   -2.9340996    2272.9088  0.071019522  0.071222902            4 
 2668000   0.82598561   -2.9207495    2283.2607  0.071316238  0.071209746            5 
 2669000   0.81741649   -2.9443669    2285.0713   0.07134605  0.071196522            4 
 2670000   0.83044859   -2.9416028    2284.9633  0.071315959  0.071183169            2 
 2671000   0.83227101   -2.9309949    2285.6834  0.071311724  0.071169791            4 
 2672000   0.81655979   -2.9437483    2281.4709  0.071153658  0.071156431            4 
 2673000   0.82396055   -2.9391818    2281.6036  0.071131177  0.071143033            2 
 2674000   0.80972681   -2.9426334    2284.3212  0.071189267  0.071129586            2 
 2675000   0.79552591   -2.9397774    2283.6319  0.071141179  0.071116074            3 
 2676000   0.82742325   -2.9436155    2279.7961  0.070995145  0.071102717            4 
 2677000   0.81486701    -2.930279    2281.4883  0.071021301  0.071089235            2 
 2678000   0.82996373   -2.9474874    2289.3519   0.07123948  0.071075885            2 
 2679000   0.84050831   -2.9519979    2285.4146  0.071090413  0.071062512            7 
 2680000   0.81379229   -2.9211538    2278.1424   0.07083776  0.071049086            2 
 2681000   0.82813337   -2.9647067    2284.6141    0.0710125  0.071035566            3 
 2682000   0.82588499   -2.9370327    2283.2156  0.070942568  0.071022036            3 
 2683000   0.83185128   -2.9305495    2291.5497  0.071174982  0.071008662            3 
 2684000   0.79833014   -2.9430096    2286.9223   0.07100479  0.070995263            5 
 2685000   0.82689251   -2.9382301    2293.7264  0.071189522  0.070981873            3 
 2686000   0.82728178   -2.9413701    2289.7043  0.071038232  0.070968444            3 
 2687000   0.80301435   -2.9602504    2283.0173  0.070804406  0.070955025            4 
 2688000   0.80696916   -2.9569301     2288.472  0.070947174  0.070941518            3 
 2689000   0.83583873   -2.9356194    2291.5233  0.071015351  0.070928063            2 
 2690000   0.82217408   -2.9245249    2287.5621  0.070866237  0.070914564            4 
 2691000   0.82010211   -2.9356873    2287.6549  0.070842775   0.07090107            3 
 2692000   0.81507628   -2.9470251    2282.9942  0.070672182  0.070887567           10 
 2693000   0.82924265   -2.9302124    2284.4297  0.070690362  0.070873966            5 
 2694000   0.81806899   -2.9474735    2292.9486  0.070927637  0.070860478            2 
 2695000   0.83903042   -2.9399541    2292.0324  0.070872985  0.070846979            2 
 2696000   0.80303917   -2.9419882    2290.6629  0.070804367  0.070833652            3 
 2697000   0.80689683   -2.9494072     2292.608  0.070838216  0.070820081            4 
 2698000    0.8103774    -2.930336    2296.9564   0.07094627   0.07080664            2 
 2699000   0.80681052   -2.9159474    2294.3634  0.070839923  0.070793222            3 
 2700000   0.80975246   -2.9291191    2293.0614  0.070773499  0.070779799            2 
 2701000   0.80689999   -2.9563478    2293.3409   0.07075592   0.07076649            6 
 2702000   0.80978678   -2.9372582    2293.8032  0.070743991  0.070753045            2 
 2703000    0.8179391   -2.9678861    2287.6676  0.070528659  0.070739552            3 
 2704000   0.81240686   -2.9270128    2294.1576   0.07070259  0.070726054            3 
 2705000   0.81874389   -2.9211235    2294.1991  0.070677728  0.070712739            3 
 2706000   0.79791443   -2.9348049     2305.677  0.071005081  0.070699354            6 
 2707000   0.81695065   -2.9584751    2301.9637   0.07086454  0.070685719            5 
 2708000   0.79950494    -2.947323    2296.8792  0.070681904  0.070672093            2 
 2709000    0.8222209   -2.9408436     2290.243  0.070451673  0.070658554            3 
 2710000    0.8126236   -2.9159184    2305.7063  0.070901177  0.070645281            5 
 2711000   0.84787711   -2.9413197    2304.2543  0.070830392  0.070632014            8 
 2712000   0.81262631   -2.9309891    2299.5573  0.070659946  0.070618866            4 
 2713000   0.80250363   -2.9598906    2300.1579   0.07065235  0.070605417            3 
 2714000    0.8374901   -2.9642703    2304.5587  0.070761444  0.070592029            5 
 2715000   0.82982523   -2.9375006    2303.9485  0.070716652  0.070578592            3 
 2716000   0.82428955   -2.9612849    2296.0505  0.070448285  0.070565088            6 
 2717000   0.81928173   -2.9464094    2295.7165  0.070412111  0.070551284            5 
 2718000   0.82673998   -2.9091145    2297.2026   0.07043177  0.070537555            3 
 2719000   0.82627073   -2.9324804    2302.6173  0.070571818  0.070524035            3 
 2720000    0.8372476   -2.9522233    2297.7135  0.070395634  0.070510319            3 
 2721000   0.80459263   -2.9489083    2298.6626  0.070398829  0.070496779            2 
 2722000   0.82035949   -2.9238489     2307.608  0.070646827    0.0704832            2 
 2723000      0.80717   -2.9514312    2310.3677  0.070705341  0.070469819            6 
 2724000   0.81676835   -2.9431519    2303.9047  0.070481666  0.070456179            2 
 2725000   0.80267356   -2.9314333    2307.2447  0.070557943  0.070442585            3 
 2726000   0.83712708    -2.955644    2309.5924  0.070603826  0.070429143            2 
 2727000   0.81464528   -2.9476396    2298.7394  0.070246284  0.070415448            3 
 2728000   0.81642449   -2.9510851    2302.0261  0.070320935  0.070401765            5 
 2729000   0.81837021   -2.9492901    2303.2626  0.070332923  0.070388201            3 
 2730000   0.82161999   -2.9753295    2293.5838  0.070011716  0.070374512            4 
 2731000   0.81610096   -2.9663547    2290.5441  0.069893327  0.070360682            8 
 2732000   0.81745962   -2.9537004    2307.9775  0.070399508  0.070346877            4 
 2733000   0.79045883   -2.9333049    2285.5748  0.069690656  0.070333082            2 
 2734000   0.79351932   -2.9591698    2297.6327  0.070032697  0.070319357            5 
 2735000   0.82008995   -2.9452887    2298.9959  0.070048626  0.070305661            4 
 2736000   0.80942012   -2.9312008    2302.6554  0.070134485  0.070291936            3 
 2737000    0.8198905   -2.9664027    2305.7238  0.070202285  0.070278286            4 
 2738000   0.81885785   -2.9712104    2309.7492   0.07029916  0.070264595            2 
 2739000   0.83453939   -2.9502901    2303.6755  0.070088702  0.070251062            4 
 2740000   0.81179715   -2.9398684    2306.0221  0.070134491  0.070237474            4 
 2741000   0.80482803   -2.9534431    2306.6062  0.070126663  0.070224009            4 
 2742000   0.81564854   -2.9322104     2308.514  0.070159069  0.070210564            5 
 2743000   0.82562303   -2.9513134    2309.3324  0.070158356  0.070196973            3 
 2744000   0.80503427   -2.9534319    2303.8044  0.069964904  0.070183257            7 
 2745000   0.81822984   -2.9484002    2311.7549   0.07018078  0.070169712            4 
 2746000   0.81003358    -2.932345    2304.4555  0.069933706  0.070156211            6 
 2747000   0.80064326   -2.9330311    2312.7512  0.070159907  0.070142647            5 
 2748000    0.8000617   -2.9642229     2317.058   0.07026498  0.070129278            3 
 2749000   0.80577596   -2.9627648    2307.3838  0.069946157  0.070116068            6 
 2750000   0.79526145   -2.9611056    2318.7321   0.07026461  0.070102693            5 
 2751000   0.82080248   -2.9453588    2314.3556  0.070106494  0.070089225            2 
 2752000    0.8187136   -2.9562669    2300.8573  0.069672279  0.070075662            6 
 2753000   0.81788984   -2.9749189    2314.1869  0.070050457  0.070062066            3 
 2754000   0.80535638   -2.9385456    2313.1139  0.069992553  0.070048581            4 
 2755000   0.80847666   -2.9689861    2318.1029  0.070118055  0.070035076            4 
 2756000   0.80006981     -2.95268    2322.4941  0.070225391   0.07002145            5 
 2757000   0.81353944   -2.9684127    2309.3915  0.069803878  0.070007839            7 
 2758000   0.81723623   -2.9312237    2313.7543  0.069910392  0.069994197            2 
 2759000   0.81205937   -2.9628222    2313.9792  0.069891844  0.069980518            2 
 2760000   0.80835425   -2.9604533    2317.3948  0.069969648  0.069966898            5 
 2761000   0.80633153   -2.9458226    2320.4063  0.070035201  0.069953118            5 
 2762000   0.81999844   -2.9351229    2314.4118  0.069828984  0.069939618            5 
 2763000   0.82293963   -2.9352646     2318.484  0.069926529  0.069926071            4 
 2764000    0.8001645   -2.9640029    2316.2366  0.069833471   0.06991264            2 
 2765000   0.80679264   -2.9471733    2322.1434  0.069986238  0.069899239            3 
 2766000   0.81472314   -2.9578166    2314.2506  0.069723144  0.069885696            3 
 2767000    0.8179382    -2.950199    2321.8074  0.069925535  0.069872242            6 
 2768000   0.80264457   -2.9398434    2318.7763  0.069809018  0.069858852            6 
 2769000   0.79612249   -2.9579777    2326.3148  0.070010679   0.06984548            3 
 2770000     0.805992   -2.9504976    2318.4449  0.069748642  0.069832097            5 
 2771000   0.83389499     -2.95904    2320.8022  0.069794365  0.069818501            2 
 2772000   0.80102036   -2.9451488    2323.0617  0.069837112  0.069805046            5 
 2773000   0.81493401   -2.9417625    2325.4554  0.069883863  0.069791754            2 
 2774000   0.79977465   -2.9528925    2320.1709  0.069699919  0.069778336            7 
 2775000   0.82085588   -2.9230869    2326.7029  0.069870959  0.069764923            2 
 2776000   0.79118633   -2.9655793     2326.839  0.069849872  0.069751494            7 
 2777000    0.7959398   -2.9771342    2314.1355  0.069443508  0.069737901            2 
 2778000   0.79683024   -2.9619292    2317.7291  0.069526311  0.069724145            6 
 2779000   0.81740885    -2.938063    2320.3702  0.069580489  0.069710486            3 
 2780000   0.80712642   -2.9440861    2327.6215  0.069772826  0.069696898            5 
 2781000   0.80676892   -2.9144376    2329.8352  0.069814072  0.069683303            3 
 2782000    0.8134789   -2.9707356    2319.8156  0.069488845  0.069669597            4 
 2783000   0.81299935   -2.9642618    2323.6193  0.069577772   0.06965594            5 
 2784000   0.80977162   -2.9730222    2319.2541  0.069422117  0.069642209            2 
 2785000   0.78920029   -2.9609243    2331.5021  0.069763677  0.069628677            6 
 2786000   0.81227541   -2.9498255    2331.0834  0.069726112  0.069615071            3 
 2787000   0.80963042   -2.9534001    2312.5378  0.069146568  0.069601531            4 
 2788000   0.81952964   -2.9608648    2322.6141  0.069422946  0.069587702            3 
 2789000   0.80586455   -2.9548255     2323.606  0.069427693  0.069573895            4 
 2790000   0.80978311   -2.9550277    2321.2824  0.069333404  0.069560272            4 
 2791000   0.81142797    -2.953582    2337.3042   0.06978694  0.069546738            4 
 2792000   0.80174782   -2.9357286    2334.6393  0.069682404   0.06953317            6 
 2793000   0.80983934    -2.963407    2318.8776  0.069187182  0.069519576            4 
 2794000   0.80329068   -2.9413107    2329.3521  0.069474831  0.069505923            2 
 2795000   0.78560202   -2.9559826    2328.4069  0.069421791  0.069492249            5 
 2796000   0.79999054   -2.9584523    2328.9437  0.069412963  0.069478604            2 
 2797000   0.80371826   -2.9541635     2327.434  0.069343165   0.06946501            3 
 2798000   0.79500787   -2.9676022    2327.9083  0.069332508   0.06945132            3 
 2799000   0.79697074   -2.9543102    2328.2013  0.069316461  0.069437556            5 
 2800000   0.80938276   -2.9869255    2324.9116  0.069193797  0.069423902            6 
 2801000   0.80450835   -2.9546115    2328.7573  0.069283508  0.069410187            5 
 2802000   0.80833314   -2.9396587    2330.6703  0.069315677  0.069396655            4 
 2803000   0.79735674   -2.9613504    2335.2282  0.069426454  0.069383113            4 
 2804000   0.79005303   -2.9928597    2337.5372  0.069470315  0.069369459            7 
 2805000   0.81907882   -2.9755594    2324.4373  0.069056365   0.06935588            4 
 2806000   0.79383905   -2.9854468    2326.5575  0.069094723  0.069342319            3 
 2807000   0.78764392   -2.9426073    2340.7342   0.06949098  0.069328782            4 
 2808000   0.80445262   -2.9512714    2340.6922  0.069464988  0.069315449            3 
 2809000   0.80738404   -2.9570935    2335.0422  0.069272641  0.069302062            7 
 2810000   0.80019564    -2.954077    2334.0473  0.069218486  0.069288648            5 
 2811000   0.79829756   -2.9605455    2339.6406  0.069359677  0.069275221            4 
 2812000    0.7995744   -2.9460204    2338.8129  0.069310481  0.069261855            2 
 2813000   0.80160522    -2.983003    2335.0974  0.069175773  0.069248571            5 
 2814000   0.81266226   -2.9700018    2329.0655  0.068972564  0.069234994            3 
 2815000    0.8060657   -2.9710226    2339.2906  0.069250757  0.069221471            6 
 2816000   0.79553141   -2.9574159    2341.5528  0.069293112  0.069208119            5 
 2817000   0.81732215   -2.9829465    2343.7786  0.069334356  0.069194674            4 
 2818000   0.79435868   -2.9850096    2330.1994  0.068908191   0.06918103            3 
 2819000   0.79476048   -2.9453152    2351.0949  0.069501447  0.069167648            6 
 2820000   0.80077657   -2.9667834    2341.8833  0.069204588  0.069154163            2 
 2821000   0.81165988   -3.0027726    2334.1306  0.068951039  0.069140695            3 
 2822000   0.78995408   -2.9816953     2342.702  0.069179719  0.069127361            3 
 2823000   0.79074388   -2.9850257    2333.8886  0.068895046  0.069113735            4 
 2824000   0.79828549   -2.9637623     2341.562  0.069097084   0.06910035            3 
 2825000   0.80385963   -2.9864965    2339.5114  0.069012135  0.069087056            3 
 2826000   0.81978367   -2.9754393    2342.7522   0.06908328  0.069073646            7 
 2827000   0.81375008   -2.9710503    2348.3392  0.069223536  0.069060546            4 
 2828000   0.79573302   -2.9646602    2348.0179   0.06918959  0.069047355            2 
 2829000   0.77749083   -2.9704953    2346.4468  0.069118852   0.06903422            2 
 2830000   0.80207195   -2.9849889     2349.608  0.069187514  0.069021134            5 
 2831000     0.805324   -2.9707897    2347.9977  0.069115674  0.069008078            3 
 2832000   0.79691613   -2.9761257    2345.0304  0.069003955  0.068994994            5 
 2833000    0.7977111   -2.9538297     2343.872  0.068945524   0.06898188            3 
 2834000   0.80035662   -2.9383214    2360.5213  0.069410764  0.068968833           11 
 2835000   0.82163117    -2.970351    2353.1575  0.069169826  0.068955734            5 
 2836000   0.78703367   -2.9736368    2356.6024  0.069246662  0.068942589            6 
 2837000   0.80837206   -2.9637117    2361.7547  0.069373597   0.06892968            7 
 2838000    0.8171976   -2.9533784    2355.4502  0.069164029  0.068916669            4 
 2839000   0.80533644   -2.9793462    2356.5544   0.06917208  0.068903764            3 
 2840000   0.78781158   -2.9662548    2357.6067  0.069178601  0.068890813            2 
 2841000   0.80215059   -2.9737617    2349.8659  0.068927193  0.068877784            6 
 2842000   0.80261026   -2.9920508    2361.6526   0.06924855  0.068864725            2 
 2843000   0.80618486    -2.965246     2361.571  0.069221803  0.068851745            8 
 2844000   0.79414966   -2.9760264    2360.0387  0.069152565  0.068838791            3 
 2845000    0.8038918   -2.9753079     2359.532  0.069113416  0.068825675            3 
 2846000   0.80755888   -2.9891268    2356.0155  0.068986165  0.068812618            3 
 2847000   0.79802605   -2.9734177    2358.9584  0.069048074  0.068799551            5 
 2848000   0.80402285   -2.9820323    2351.8833   0.06881681  0.068786301            4 
 2849000   0.79233149   -2.9529499    2360.4474  0.069043155  0.068773321            3 
 2850000   0.80283272   -2.9557523     2363.353  0.069103889  0.068760203            2 
 2851000   0.80305068   -2.9745111    2358.6977  0.068943578  0.068747179            5 
 2852000   0.78468725   -2.9654813    2360.1295   0.06896124  0.068734125            3 
 2853000   0.78459709   -2.9561271    2363.2267  0.069027536  0.068721061            5 
 2854000   0.78889695   -2.9592939    2359.6541  0.068899035  0.068708065            5 
 2855000   0.81416398   -2.9723015    2359.3334  0.068865541  0.068695074            2 
 2856000   0.79741178    -2.965931    2361.3817  0.068901194  0.068682054            8 
 2857000   0.77734741   -2.9565893    2361.9947  0.068894956  0.068669306            3 
 2858000   0.79548711   -2.9995029    2368.0762  0.069048175  0.068656461            4 
 2859000   0.77782162    -2.970198    2366.4626   0.06897699  0.068643438            4 
 2860000   0.79598345   -2.9537024    2362.2935  0.068831396  0.068630686            4 
 2861000   0.79190965   -2.9717887    2363.2088  0.068833997  0.068617787            2 
 2862000   0.79196199   -2.9963599    2362.1063  0.068777846  0.068604855            3 
 2863000   0.79279807   -2.9505104    2361.2902  0.068730069  0.068591932            5 
 2864000   0.79570199   -2.9841128    2367.1516  0.068876617  0.068578993            4 
 2865000   0.80239595   -2.9875562    2365.3715  0.068800801  0.068566085            5 
 2866000   0.78500123   -2.9708931     2365.619  0.068783992  0.068553173            5 
 2867000   0.79062414   -2.9538354    2368.9509  0.068856844  0.068540236            5 
 2868000   0.79993263   -2.9745698    2364.8148  0.068712658  0.068527628            5 
 2869000   0.78229064   -2.9838108    2371.4007  0.068880003  0.068514695            3 
 2870000   0.79673844   -2.9891302    2363.3508  0.068622266  0.068501856            5 
 2871000   0.78523099   -2.9505698    2363.7223  0.068609145  0.068489044            2 
 2872000   0.81088291   -2.9664589    2378.3131   0.06900862  0.068476178            3 
 2873000   0.79897515   -2.9696686    2370.9916  0.068772237  0.068463289            6 
 2874000   0.80253327    -2.989679    2370.2091  0.068725616  0.068450418            4 
 2875000   0.78763966   -2.9963198    2375.5195  0.068855637  0.068437625            5 
 2876000   0.78860197   -2.9577459    2370.5478  0.068687638  0.068424658            6 
 2877000   0.79128434   -2.9709599    2371.7227  0.068697795  0.068411785            3 
 2878000   0.78770892   -2.9774469    2371.4829  0.068666981  0.068398847           10 
 2879000   0.79873743   -2.9716646    2370.2272  0.068606784  0.068385793            2 
 2880000   0.80481848   -2.9717677     2369.074  0.068549595  0.068372802            4 
 2881000   0.80881831   -2.9794217    2367.0791  0.068468098  0.068359861            7 
 2882000   0.79267631   -2.9916632    2373.2058  0.068621494  0.068346768            7 
 2883000   0.79729642   -2.9939938    2365.3357  0.068370208  0.068333753            4 
 2884000   0.79079127   -2.9854445    2368.8468  0.068447954  0.068320604            3 
 2885000   0.76584894   -2.9915013    2368.8707  0.068424919  0.068307476            2 
 2886000   0.79900413   -2.9774874    2374.3372  0.068559055   0.06829446            3 
 2887000   0.78706722   -2.9881373    2372.0963  0.068470623  0.068281427            2 
 2888000   0.79240748   -2.9913765    2367.4011  0.068311436  0.068268239            6 
 2889000   0.78274822   -2.9569727    2372.4188  0.068432525  0.068255079            7 
 2890000   0.76658397   -2.9846339    2374.8958   0.06848027   0.06824187            3 
 2891000   0.78980259   -2.9956161    2369.6129  0.068304302  0.068228733            5 
 2892000   0.79745962   -2.9906607    2364.7075  0.068139337  0.068215529            4 
 2893000   0.78298676    -2.970109    2362.4374  0.068050393  0.068202274            9 
 2894000   0.79136938   -3.0025072    2371.2084  0.068279442  0.068189208            4 
 2895000   0.78114084   -2.9867551    2373.4949  0.068321673  0.068176076            2 
 2896000   0.77825414   -3.0085998     2368.314     0.068149  0.068162886            9 
 2897000   0.79554437   -2.9871535    2368.7276  0.068137373  0.068149729            4 
 2898000   0.79546804   -2.9834226    2371.4218  0.068191332  0.068136627            2 
 2899000   0.78402326   -2.9804772    2378.4015  0.068368445   0.06812344            4 
 2900000   0.78181617   -2.9934782    2372.9271  0.068187561  0.068110169            3 
 2901000   0.78779565   -3.0006545    2372.7374  0.068158608  0.068096932            4 
 2902000   0.78499191   -2.9721019    2377.2743  0.068265399  0.068083743            3 
 2903000   0.79539205   -2.9830877    2388.5537  0.068565671  0.068070652            2 
 2904000    0.7966444   -3.0140655     2370.721  0.068030333  0.068057491            3 
 2905000   0.79915901   -2.9999809     2366.825  0.067895152  0.068044152            9 
 2906000   0.78346105   -2.9757371    2373.1155  0.068052176  0.068030931            5 
 2907000   0.77788114   -2.9605337    2384.6105  0.068358289  0.068017914            4 
 2908000   0.77045785   -2.9771203    2384.9639  0.068344909  0.068004847            5 
 2909000   0.78035459   -2.9765693    2385.3999  0.068333903  0.067991806            5 
 2910000   0.78309251   -2.9834304    2372.8363  0.067950638  0.067978788            2 
 2911000   0.78909136   -2.9817062    2381.6081  0.068178408  0.067965717            3 
 2912000    0.7998133    -3.004556    2379.4892  0.068094356  0.067952612            2 
 2913000   0.79024276   -2.9809112    2386.5118   0.06827188  0.067939552            2 
 2914000   0.79132426   -2.9597178    2379.2791  0.068041611  0.067926579            4 
 2915000    0.7839134    -2.965726    2382.3111  0.068104948  0.067913478            4 
 2916000   0.79147643   -2.9941902    2380.5497  0.068031257  0.067900438            5 
 2917000   0.79058019   -2.9870144    2382.5879   0.06806616  0.067887327            4 
 2918000   0.77712213   -2.9882339    2385.7548  0.068133277  0.067874294            4 
 2919000   0.79000002   -2.9562837    2385.6692  0.068107491   0.06786129            5 
 2920000   0.78412362   -2.9914577    2375.2213  0.067785997  0.067848134            4 
 2921000   0.80383592   -3.0044376    2370.6725  0.067633017  0.067834879            8 
 2922000   0.79807214   -2.9781014    2387.7641  0.068097311  0.067821847            2 
 2923000    0.7767969   -2.9702689      2383.76  0.067959859  0.067808728            1 
 2924000   0.79601754   -2.9996186    2386.4319  0.068012765  0.067795553            4 
 2925000   0.78195077   -2.9842427    2381.3561  0.067844903  0.067782378            3 
 2926000   0.77880238   -2.9940218    2389.7349  0.068060347  0.067769172            4 
 2927000   0.80052793   -2.9891897    2379.9098  0.067757368  0.067756079            8 
 2928000   0.78064095   -2.9762701     2385.477  0.067892675  0.067742937            3 
 2929000   0.78033611    -2.978076    2394.6053  0.068129204  0.067729579            3 
 2930000   0.78978812   -3.0108568    2385.1196  0.067836165  0.067716501            4 
 2931000   0.79674513   -2.9859917    2382.6703  0.067743385  0.067703227            2 
 2932000   0.79406363    -2.996402    2382.6793  0.067720535  0.067689857            5 
 2933000   0.77564947   -2.9775615    2386.5842  0.067808392  0.067676447            5 
 2934000   0.78573908   -3.0200335    2385.6691  0.067759292  0.067663197            6 
 2935000   0.78328885   -2.9780679    2387.4529   0.06778685  0.067649865            7 
 2936000   0.77204381   -3.0019906    2377.4214  0.067479036  0.067636437            4 
 2937000    0.7777511   -2.9995732    2384.0734  0.067644801  0.067623098            3 
 2938000   0.80181368   -3.0011766    2384.6957  0.067639428  0.067609663            4 
 2939000   0.79031218    -2.990607    2386.2974   0.06766183  0.067596425            5 
 2940000   0.77609022   -2.9997385    2377.1013  0.067378154  0.067583153            2 
 2941000   0.79916163   -2.9909176    2379.0382  0.067410126  0.067569904            4 
 2942000   0.77400695   -2.9869648    2384.7101  0.067547874  0.067556669            9 
 2943000    0.7846922   -3.0096113    2387.2182  0.067595939  0.067543431            4 
 2944000   0.78107812   -3.0152878    2382.6677  0.067444171  0.067530055            7 
 2945000   0.80216868   -2.9988321    2396.6936  0.067818156  0.067516759            3 
 2946000   0.79124991   -2.9949084    2391.3924  0.067645181  0.067503436            2 
 2947000   0.76577521   -2.9759119    2387.3198  0.067507065  0.067490065            4 
 2948000   0.75327885   -3.0080634    2380.6175  0.067294705  0.067476632            3 
 2949000   0.76784778   -2.9972868    2394.7138  0.067670221  0.067463303            7 
 2950000   0.76598861   -2.9946615    2391.9059  0.067567964  0.067450029            5 
 2951000   0.76478237   -3.0130672    2390.2905  0.067499448  0.067436617            3 
 2952000   0.77948461   -3.0040699    2386.0386  0.067356555  0.067423199            4 
 2953000   0.78984652   -2.9973844    2395.9149  0.067612453  0.067409942           10 
 2954000   0.77486278   -2.9514876    2401.6822  0.067752261  0.067396616            3 
 2955000   0.76532866   -3.0029299    2393.9045  0.067509999  0.067383343            3 
 2956000   0.78545467   -2.9994092    2387.9627  0.067319651  0.067370034            5 
 2957000   0.76134991    -2.989383    2393.1135  0.067442044   0.06735672            4 
 2958000   0.76830492   -3.0027211    2394.9711  0.067471577   0.06734332            3 
 2959000    0.7698664   -3.0173309    2390.4165  0.067320505  0.067330114            6 
 2960000   0.77902015   -3.0009032    2393.0564  0.067372082  0.067316897            4 
 2961000   0.76058035   -3.0134338     2391.727  0.067311916  0.067303433            4 
 2962000   0.78734487    -2.969557    2398.8989  0.067490965  0.067290057            7 
 2963000   0.77260756   -2.9999686    2396.8092  0.067409417  0.067276849            6 
 2964000   0.78113676   -2.9785326    2402.9461  0.067559214  0.067263757            4 
 2965000    0.7594384   -2.9980101    2401.3352  0.067491152  0.067250569            4 
 2966000   0.77600996   -3.0121911     2402.562  0.067502866  0.067237278            4 
 2967000   0.76816787   -2.9949662    2390.7633  0.067148728  0.067223935            5 
 2968000   0.77982712    -2.977904    2399.0041  0.067357482  0.067210693            3 
 2969000   0.76485688   -3.0386813    2390.6075   0.06709912  0.067197378            7 
 2970000    0.7702907   -3.0031304    2397.5476  0.067271257  0.067183973            7 
 2971000   0.78528802   -3.0025577    2393.9216  0.067146909    0.0671708            6 
 2972000   0.77163591   -3.0037281    2398.8459  0.067262392  0.067157391            2 
 2973000   0.76530384   -3.0203711    2395.9092  0.067157451   0.06714389            8 
 2974000   0.77611122   -2.9969122    2392.2339  0.067031885  0.067130486            3 
 2975000   0.76056872   -2.9961458    2393.5703  0.067046787  0.067117097            4 
 2976000   0.77859284   -3.0032855     2396.921  0.067118083  0.067103752            2 
 2977000    0.7762848   -2.9888755    2401.2068  0.067215509  0.067090387            3 
 2978000   0.78133062   -3.0061198    2392.8452  0.066958954  0.067077025            6 
 2979000   0.78076641   -2.9899813    2396.6433  0.067042724  0.067063667            2 
 2980000   0.77835605   -3.0069575    2396.9379  0.067028466  0.067050357            3 
 2981000   0.76561533    -3.015257    2402.1981  0.067153029   0.06703705            4 
 2982000   0.78486448   -3.0013883    2403.4756  0.067166209  0.067023873            2 
 2983000   0.76503841   -3.0249487    2400.3273  0.067055741  0.067010649            5 
 2984000   0.78685899   -3.0196769    2411.4472  0.067343812  0.066997425            2 
 2985000   0.77997636    -2.994769    2409.0484  0.067254282  0.066984216            5 
 2986000   0.75338672   -3.0014232    2409.0719  0.067232415  0.066970967            6 
 2987000   0.78120895   -2.9870031    2414.2422  0.067354151   0.06695776            4 
 2988000   0.76987142   -3.0141743    2402.9617  0.067017005  0.066944545            5 
 2989000   0.76490629   -3.0129234    2393.0787  0.066719044  0.066931099            4 
 2990000   0.78088546   -3.0091764    2406.5759  0.067072908  0.066917707            4 
 2991000   0.77167587   -2.9970045    2407.6555   0.06708056  0.066904546            4 
 2992000   0.79168462   -2.9910319    2403.4152   0.06694004  0.066891358            5 
 2993000   0.78416234   -2.9935447     2403.029  0.066906923  0.066878325            5 
 2994000    0.7939307   -3.0172817    2403.0972  0.066886473  0.066864977            3 
 2995000   0.77308835   -3.0129156    2405.4974  0.066930925  0.066851716            5 
 2996000     0.776344   -3.0009316    2409.2686   0.06701348  0.066838489            3 
 2997000   0.76532394   -3.0127948    2402.6904  0.066808207  0.066825285            3 
 2998000   0.76953912   -3.0106132    2404.7294    0.0668426  0.066812196            3 
 2999000   0.77827187   -2.9795121    2416.9441  0.067159723  0.066799017            9 
 3000000   0.77229731   -2.9998089    2413.6779  0.067046607  0.066785876            4 
 3001000   0.80438757   -2.9878018    2418.3272  0.067153372  0.066772847            4 
 3002000   0.78788574   -3.0254982    2399.7024  0.066613992  0.066759732            4 
 3003000   0.77735331   -3.0131554    2409.2229  0.066856003  0.066746631            7 
 3004000   0.76935626   -3.0121151    2415.1408  0.066997914   0.06673352            5 
 3005000   0.79301995    -3.016476    2403.1851  0.066644067  0.066720496            5 
 3006000   0.75768875    -2.996699    2414.9252  0.066947362  0.066707513            3 
 3007000   0.77513884   -3.0198158    2417.8665  0.067006611  0.066694361            4 
 3008000   0.77450822   -2.9787777    2422.0118  0.067099174  0.066681385            2 
 3009000   0.77164961   -3.0246672    2415.8487   0.06690619  0.066668331            6 
 3010000   0.77256272   -2.9980904    2418.6207  0.066960705  0.066655312            5 
 3011000    0.7587068   -2.9914977    2419.9529  0.066975339  0.066642501            4 
 3012000   0.77596495     -3.03848    2418.2227  0.066905232  0.066629681            3 
 3013000   0.78389987   -3.0080751    2419.9444  0.066930646   0.06661679            3 
 3014000   0.77173212   -3.0299304    2409.8162  0.066628407  0.066603715            3 
 3015000   0.76352408   -3.0170274    2420.5038  0.066901709  0.066590793            2 
 3016000   0.77544436   -3.0043826    2418.7116  0.066830007  0.066577746            4 
 3017000   0.77442074   -3.0236789     2419.747  0.066836455    0.0665646            4 
 3018000   0.77194557   -3.0192192    2409.0254  0.066518263  0.066551402            6 
 3019000   0.77955771   -3.0120138     2425.292  0.066945235  0.066538409            5 
 3020000   0.76923697   -2.9844633    2418.8943  0.066746531  0.066525358            7 
 3021000   0.77393163    -3.012442    2411.5183  0.066520971  0.066512314            4 
 3022000   0.75080965   -3.0093875    2424.6349  0.066860658  0.066499217            4 
 3023000   0.76695175   -3.0471394    2414.7747   0.06656673  0.066486011            3 
 3024000   0.78519789   -2.9985343     2406.414   0.06631432  0.066472861            6 
 3025000   0.76207611   -3.0166679    2420.7972  0.066688627  0.066459934            3 
 3026000   0.76162147   -3.0078787    2421.4653  0.066684987  0.066446876            5 
 3027000   0.76357264   -3.0015352     2418.658  0.066585673  0.066433947            3 
 3028000   0.77307572   -3.0049555    2431.9257  0.066928822  0.066420878            3 
 3029000   0.77738071   -3.0033243    2419.5695  0.066566785  0.066407987            5 
 3030000   0.75948464   -3.0079774    2423.2199  0.066645211  0.066395001            4 
 3031000   0.77210947   -3.0141197    2421.1265  0.066565668  0.066382077            3 
 3032000   0.78196324   -3.0175159    2421.5365  0.066554982  0.066369098            8 
 3033000   0.76252925   -3.0262742    2413.8158  0.066320908  0.066356082            5 
 3034000   0.77380776   -3.0194116     2423.968  0.066577896   0.06634309            5 
 3035000   0.75860942    -2.999032    2425.3002  0.066592536  0.066330249            8 
 3036000   0.76190153   -3.0048306    2427.6877  0.066636136  0.066317411            4 
 3037000   0.75243302   -3.0184646    2424.1758  0.066517829  0.066304574            4 
 3038000   0.77819606   -3.0191586    2426.8933  0.066570477  0.066291671            2 
 3039000   0.75767801   -3.0055199    2427.1248   0.06655492  0.066278765            3 
 3040000   0.77117802   -3.0350286    2430.3971  0.066622728   0.06626596            7 
 3041000   0.77325758   -3.0081743    2429.8812  0.066586681  0.066253011            2 
 3042000   0.77048654   -2.9807962     2427.596  0.066502191  0.066240033            3 
 3043000   0.74516352   -2.9929389    2427.1053  0.066466899  0.066227083            3 
 3044000    0.7588107    -3.002554    2430.7822  0.066545724  0.066214087            4 
 3045000   0.77871754   -3.0154111    2426.9627  0.066419341  0.066200968            3 
 3046000     0.766645   -3.0111379    2424.9848  0.066343422  0.066187858            4 
 3047000   0.77205809   -2.9910813    2433.1322  0.066544475  0.066174847            3 
 3048000   0.76850041   -3.0336357    2419.2011  0.066141762   0.06616185            2 
 3049000   0.76654022   -3.0113766    2429.2509  0.066394743  0.066148884            5 
 3050000   0.78373785   -3.0262228     2437.142   0.06658858  0.066135933            5 
 3051000   0.76211134   -3.0127736    2423.9753  0.066207126  0.066122913            3 
 3052000   0.77190562   -3.0315385    2432.7716  0.066425612   0.06610985           11 
 3053000   0.78556907   -3.0169789    2430.0102   0.06632848  0.066096921            4 
 3054000   0.75936398   -3.0141392    2430.2222  0.066312547  0.066084014            4 
 3055000   0.76817451   -3.0211576    2433.7832  0.066387975  0.066070969            6 
 3056000   0.76960896   -3.0454327    2430.3084  0.066271498   0.06605786            7 
 3057000   0.77048579   -3.0471825    2425.5445  0.066119958  0.066044687            8 
 3058000   0.76757332   -3.0283832    2429.1461  0.066196483    0.0660316            5 
 3059000    0.7593557   -3.0166808     2433.449  0.066292061  0.066018481            3 
 3060000   0.74829785   -3.0222549    2433.3229  0.066266962  0.066005365            8 
 3061000   0.77423714   -3.0134988    2429.8645  0.066151162  0.065992226            4 
 3062000    0.7472523   -2.9974193    2429.2149  0.066111881  0.065979082            7 
 3063000   0.74915896   -3.0199677    2440.2173  0.066389632  0.065965948            2 
 3064000   0.75588673   -2.9963077     2427.305  0.066016781  0.065952764            3 
 3065000   0.74170779   -3.0202456    2424.6769  0.065923789  0.065939551            4 
 3066000   0.75672123   -3.0171189    2434.4119  0.066166882   0.06592631            4 
 3067000   0.75515387    -3.019119    2434.1052  0.066136974  0.065913134            5 
 3068000   0.75519821   -3.0387777     2426.167  0.065899798  0.065899986            4 
 3069000    0.7365051    -3.013416    2428.8593  0.065951431  0.065886824            4 
 3070000   0.74860111   -3.0183964    2433.4511  0.066054591   0.06587358            4 
 3071000   0.76046084   -3.0351911    2431.3581  0.065976287  0.065860231            3 
 3072000   0.74651715   -3.0205119    2424.5766  0.065770851  0.065846919            2 
 3073000   0.75963673   -3.0152385    2431.2791  0.065931203  0.065833629            3 
 3074000   0.75127769   -3.0214665    2424.3921  0.065723056  0.065820265            4 
 3075000   0.75180939   -3.0244381      2436.73  0.066036042  0.065806969            2 
 3076000   0.77622768   -3.0509213    2419.8383  0.065556955  0.065793739            4 
 3077000   0.76704013   -3.0382573    2432.6338  0.065882186  0.065780389            3 
 3078000   0.76586073   -3.0181512      2430.79  0.065810863  0.065767197            7 
 3079000   0.76443437   -3.0311991    2435.2351  0.065909796  0.065753973            6 
 3080000   0.75888747   -3.0340629    2428.8242  0.065714939  0.065740752           13 
 3081000   0.75684905   -3.0443503    2435.5394  0.065875241  0.065727456            4 
 3082000   0.76847192   -3.0295431    2439.1266  0.065950861  0.065714122            2 
 3083000   0.77052386   -3.0141527    2431.1128  0.065712854  0.065701119            6 
 3084000   0.75913126   -3.0142608    2444.0699  0.066041663  0.065687858            6 
 3085000   0.75623025   -3.0082735    2435.8938  0.065799399  0.065674819            4 
 3086000   0.75747812   -3.0220915    2432.8237  0.065695175  0.065661619            4 
 3087000   0.77603648   -3.0270894    2434.4647  0.065718192  0.065648457            3 
 3088000   0.75881169   -3.0330587    2440.5024  0.065859845  0.065635238            3 
 3089000   0.76481775     -3.00822    2445.1435   0.06596373   0.06562215            4 
 3090000   0.75166298   -3.0348454    2444.7677  0.065932247  0.065609059            3 
 3091000   0.75589775   -3.0011565    2440.1412  0.065786187  0.065595983            4 
 3092000   0.75101568   -3.0349295    2437.1638  0.065684664  0.065582932            4 
 3093000   0.75519828    -3.002125    2443.8622  0.065843899  0.065569863            6 
 3094000     0.747083   -3.0135176    2434.4523  0.065569174  0.065556521            4 
 3095000   0.77072471   -3.0246407    2445.5823  0.065847666  0.065543294            5 
 3096000   0.75562393   -3.0311167    2447.4273  0.065876057  0.065530175            4 
 3097000    0.7459547   -3.0335404    2443.5638   0.06575083  0.065517089            6 
 3098000   0.76249733   -3.0221205     2447.962  0.065847912  0.065504076            4 
 3099000   0.74065257   -3.0155948    2442.4301  0.065677909  0.065491094            4 
 3100000   0.76131095   -3.0298156    2444.8187  0.065720933  0.065477936            6 
 3101000   0.74353881   -3.0534617     2440.768  0.065590885  0.065464884            3 
 3102000   0.75019992    -3.052373    2440.4751  0.065561872   0.06545167            2 
 3103000   0.74854788   -3.0391046    2439.3208  0.065509744  0.065438397            4 
 3104000   0.75579979   -3.0218409    2441.3483  0.065543071  0.065425219            3 
 3105000   0.76185367   -3.0452421    2444.9917  0.065619746  0.065412013            2 
 3106000   0.74314559   -3.0335137    2435.4735  0.065343246  0.065398886            3 
 3107000   0.76189464     -3.05628    2443.3352  0.065533076  0.065385704            5 
 3108000   0.74879361   -3.0352444    2442.7114  0.065495266   0.06537263            5 
 3109000   0.75173853   -3.0490619    2440.4925  0.065414723  0.065359436            5 
 3110000   0.76305588   -3.0256128     2441.628  0.065424115  0.065346276            6 
 3111000   0.75362588   -3.0395368    2434.2317  0.065204964  0.065333011            5 
 3112000   0.74189982   -3.0279958    2441.2743  0.065372599   0.06531975            3 
 3113000   0.76423741   -3.0383791    2445.5724  0.065466655  0.065306487            3 
 3114000   0.76412371   -3.0308572    2446.9628  0.065482842    0.0652932            9 
 3115000   0.76950493   -3.0135795    2449.2953  0.065524218  0.065279924            4 
 3116000   0.75712733   -3.0400062    2443.3583  0.065344412  0.065266496            9 
 3117000   0.74694863   -3.0332591    2437.7886  0.065174544   0.06525316            3 
 3118000   0.73210359    -3.046588    2445.9041  0.065370539  0.065239847            3 
 3119000   0.76530976   -3.0606509    2439.1852  0.065170065  0.065226374            2 
 3120000   0.74437416   -3.0334962    2449.4373  0.065423005  0.065212967            3 
 3121000   0.74997984   -3.0378705    2450.6589  0.065434661  0.065199578            7 
 3122000   0.74326632   -3.0512377    2445.1283  0.065266076  0.065186239            4 
 3123000   0.75819832   -3.0259371    2441.2549  0.065141822  0.065172849            7 
 3124000   0.74053458   -3.0409135    2438.5224   0.06504808  0.065159425            5 
 3125000   0.74303574    -3.046536    2445.0996  0.065202657  0.065146119            5 
 3126000   0.75334584     -3.03122    2442.5456  0.065113712  0.065132852            6 
 3127000   0.74561668   -3.0287767     2454.302  0.065406193  0.065119575            4 
 3128000   0.74883628   -3.0446632    2448.7783  0.065238126  0.065106305            3 
 3129000   0.74402406   -3.0195142    2447.3533  0.065179325  0.065092966            8 
 3130000   0.74846948   -3.0517404    2442.7802  0.065036747  0.065079769            9 
 3131000    0.7407594   -3.0350825    2455.8056  0.065362654  0.065066371            3 
 3132000   0.74935579   -3.0158561    2449.3296  0.065169475  0.065053302            4 
 3133000   0.73550141    -3.046774    2456.3542   0.06533552  0.065040095            4 
 3134000   0.76791371   -3.0436391    2450.8919  0.065169428   0.06502692            3 
 3135000    0.7649871   -3.0442742    2462.1346   0.06544749  0.065013736            4 
 3136000   0.74242595   -3.0507819    2462.0096  0.065423299  0.065000591            4 
 3137000   0.74605672   -3.0386867    2446.2633   0.06498415  0.064987448            5 
 3138000    0.7296351   -3.0254948    2447.1157  0.064986078  0.064974213            3 
 3139000   0.74687196   -3.0367455      2445.53  0.064923277   0.06496107           10 
 3140000   0.74553686   -3.0294237    2462.3791  0.065349764  0.064947941            3 
 3141000   0.72833999   -3.0258239    2459.5183  0.065253058  0.064934777            3 
 3142000   0.75644437   -3.0669452    2453.1188  0.065062561  0.064921616            7 
 3143000    0.7544945   -3.0418964     2453.248  0.065045285  0.064908579            5 
 3144000   0.74054244   -3.0332436    2451.9587  0.064990424  0.064895395            5 
 3145000   0.75406647   -3.0580411    2451.7411  0.064963993  0.064882087            6 
 3146000   0.71345553   -3.0510708    2456.1123  0.065059131  0.064868929            3 
 3147000   0.74978227   -3.0607538    2462.1342  0.065197919  0.064855883            6 
 3148000   0.75781714   -3.0258514     2464.427  0.065237902  0.064842898            2 
 3149000   0.74695303   -3.0336846    2453.4728  0.064927301  0.064829739            7 
 3150000   0.75827613   -3.0296784    2459.6963  0.065071331  0.064816733            6 
 3151000   0.76344079   -3.0325947    2461.4785  0.065097814  0.064803828            3 
 3152000   0.74558738   -3.0446512    2468.1797  0.065254327  0.064790877            3 
 3153000    0.7464614   -3.0636445    2455.7274   0.06490452  0.064777868            5 
 3154000   0.73963908   -3.0214981    2463.0886  0.065078435  0.064764938            7 
 3155000   0.76834586   -3.0294463    2456.8821  0.064893875  0.064751944            6 
 3156000   0.72718304   -3.0644448    2459.4199  0.064940323  0.064738964           12 
 3157000    0.7546574   -3.0436535    2454.6359  0.064793472  0.064725987            4 
 3158000   0.74686548   -3.0585359    2467.5037  0.065112509  0.064713089            4 
 3159000   0.75231108   -3.0185173    2459.8456   0.06488988  0.064700151            3 
 3160000   0.75542194   -3.0482424      2465.75  0.065025053  0.064687237            5 
 3161000   0.74221928   -3.0556895    2467.6622  0.065054892  0.064674489            5 
 3162000   0.76001834   -3.0443281    2458.2728  0.064786865  0.064661636            9 
 3163000   0.74398947   -3.0465694    2462.7448  0.064884202   0.06464868            4 
 3164000    0.7505151   -3.0505569    2467.0974  0.064978335  0.064635693            4 
 3165000    0.7464064   -3.0533761    2464.7949   0.06489718   0.06462272            4 
 3166000   0.73986825   -3.0408083    2460.4428   0.06476213  0.064609836            8 
 3167000   0.76109621   -3.0549242     2457.851  0.064673481  0.064596867            8 
 3168000   0.75819559   -3.0714043    2470.4997  0.064985788  0.064583916            3 
 3169000   0.74213925   -3.0401391    2463.1687  0.064772502  0.064570916            9 
 3170000   0.73681806   -3.0440726    2461.0799  0.064697157  0.064557842            8 
 3171000   0.73891729   -3.0425884    2473.7858  0.065010664  0.064544794            4 
 3172000   0.74817473   -3.0577181    2463.0198  0.064707331  0.064531919            2 
 3173000   0.73974008   -3.0433589    2460.6203  0.064623918  0.064518949            3 
 3174000   0.75068361    -3.029551    2467.6295  0.064787583  0.064506128            4 
 3175000   0.76179945   -3.0578376    2461.6616   0.06461054  0.064493316            3 
 3176000     0.740029   -3.0126243    2478.6018  0.065034682  0.064480612            3 
 3177000   0.73843082   -3.0497232     2475.253  0.064926372  0.064467801            5 
 3178000   0.74585119   -3.0318993    2470.3343  0.064776964  0.064454991            4 
 3179000   0.76647406   -3.0541843    2471.1845  0.064778873  0.064442201            6 
 3180000   0.73689617   -3.0433733    2463.2431  0.064550397  0.064429302            5 
 3181000   0.73730591   -3.0433065    2475.2393  0.064844371   0.06441643            3 
 3182000   0.72449135   -3.0126557    2474.2686  0.064798569  0.064403595            4 
 3183000   0.74482575   -3.0553715    2473.4445  0.064756636  0.064390713            5 
 3184000   0.72441223   -3.0631279    2469.2452  0.064626394  0.064377733            8 
 3185000    0.7307006   -3.0404475    2464.3772  0.064478735  0.064364721            8 
 3186000   0.74928379   -3.0455068    2464.9214   0.06447273   0.06435179            8 
 3187000   0.74333004   -3.0471084    2472.0366  0.064638546  0.064338876            7 
 3188000   0.73572836   -3.0582649    2472.0318  0.064618145  0.064325925            5 
 3189000   0.73216759   -3.0172877    2476.6024   0.06471732  0.064313034            3 
 3190000   0.73727483   -3.0704238     2465.332  0.064402614  0.064300036            3 
 3191000   0.73880967   -3.0681893    2472.7316  0.064575671  0.064287103            4 
 3192000   0.74957128   -3.0459105    2477.0547  0.064668303  0.064274166            5 
 3193000   0.76128798   -3.0512225    2470.9071  0.064487607   0.06426119            8 
 3194000   0.74859901   -3.0311704    2471.0059  0.064469994  0.064248178            5 
 3195000   0.72022684   -3.0401406    2475.5143  0.064567404  0.064235204            4 
 3196000   0.74467641    -3.058178    2464.9267  0.064271138  0.064222213            6 
 3197000   0.72665826   -3.0379653    2469.5254  0.064370906  0.064209155            3 
 3198000    0.7379818   -3.0485824    2473.7796  0.064461633  0.064196217            5 
 3199000    0.7397757   -3.0632292    2464.6498  0.064203653  0.064183165            4 
 3200000   0.73860719   -3.0447134    2464.6473  0.064183523  0.064169986            6 
 3201000    0.7244741   -3.0703007    2474.1443  0.064410714  0.064156807            4 
 3202000   0.71862442   -3.0493381    2470.1738  0.064287262  0.064143881            3 
 3203000    0.7341855   -3.0639674    2468.4223  0.064221624  0.064130699            3 
 3204000   0.72045609    -3.056785    2469.5474  0.064230841   0.06411766            3 
 3205000     0.728531   -3.0525159    2478.2123  0.064436098  0.064104593            4 
 3206000   0.72847046   -3.0361426    2479.7201   0.06445519  0.064091557            3 
 3207000   0.73705713   -3.0492671    2471.2234  0.064214308  0.064078588            5 
 3208000   0.73556408   -3.0574908    2471.3453  0.064197457  0.064065656            5 
 3209000    0.7435449   -3.0332054    2477.4205  0.064335215  0.064052495            5 
 3210000   0.73921566   -3.0416543    2482.0295  0.064434826  0.064039523            3 
 3211000   0.75499506    -3.049759    2471.5319  0.064142321  0.064026504            3 
 3212000   0.73218413   -3.0421844    2481.7435  0.064387286  0.064013383            7 
 3213000   0.73191209   -3.0794839    2471.6776  0.064106174  0.064000216            3 
 3214000   0.73810149   -3.0598794    2476.7996   0.06421903  0.063987098            9 
 3215000   0.74486902   -3.0442938    2464.6087  0.063883066  0.063973871            6 
 3216000   0.74130471   -3.0869317    2475.1207   0.06413559  0.063960717            7 
 3217000   0.75530053   -3.0598645    2473.9244  0.064084665  0.063947531            4 
 3218000   0.73369988   -3.0597038    2479.4128  0.064206879  0.063934441            6 
 3219000   0.72648118   -3.0862568    2472.7847  0.064015344  0.063921403            6 
 3220000   0.73293684   -3.0675586    2475.0715  0.064054645  0.063908259            6 
 3221000    0.7463472   -3.0696389     2475.277  0.064040076  0.063895246            3 
 3222000   0.74775466   -3.0547235    2479.3337  0.064125122  0.063882315            3 
 3223000   0.74259568   -3.0313068     2479.873   0.06411917  0.063869268            2 
 3224000   0.75322729   -3.0660542     2486.177  0.064262227  0.063856205            7 
 3225000   0.71788876   -3.0587042    2482.7389  0.064153461  0.063843202            4 
 3226000   0.73869478   -3.0665832    2487.2752  0.064250755  0.063830241            4 
 3227000   0.73561992   -3.0615535    2478.4675  0.064003396  0.063817364            3 
 3228000   0.72863604   -3.0481274    2478.6676  0.063988733   0.06380435            4 
 3229000   0.72348624   -3.0357789    2485.5695  0.064147039  0.063791525            3 
 3230000   0.72947655   -3.0403135    2480.7702  0.064003359  0.063778568            6 
 3231000   0.74839724   -3.0589179    2479.1576  0.063941959   0.06376576            4 
 3232000   0.72749773   -3.0708558    2485.0306  0.064073602  0.063752766            3 
 3233000   0.73635746   -3.0704281    2482.6272  0.063991834  0.063739679            8 
 3234000   0.71892672    -3.042953    2487.3804  0.064094528  0.063726733           10 
 3235000   0.74604593     -3.06215    2487.8816  0.064087624  0.063713629            6 
 3236000   0.72923834   -3.0415237    2482.3613  0.063925663  0.063700727            4 
 3237000   0.72145084   -3.0621652    2488.1743  0.064055562  0.063687719            3 
 3238000   0.73556362   -3.0688144    2483.1393    0.0639062  0.063674763            4 
 3239000    0.7258532   -3.0682095    2487.4607   0.06399765  0.063661802            3 
 3240000   0.74298925    -3.053008    2492.2739  0.064101694  0.063648844            3 
 3241000   0.75747759   -3.0855623    2484.7031  0.063887253  0.063635873            3 
 3242000    0.7375538   -3.0535995    2485.0029  0.063875255  0.063622948            5 
 3243000   0.71672785   -3.0594823    2484.1915  0.063834709  0.063610029            2 
 3244000   0.72962105   -3.0753165    2486.2661  0.063868324  0.063596999            6 
 3245000   0.73524413   -3.0540452    2484.1164  0.063793436   0.06358391            3 
 3246000   0.71699951   -3.0690618    2479.3145  0.063650507  0.063570882            8 
 3247000   0.72879264   -3.0426011    2488.5454  0.063867811  0.063557775            3 
 3248000   0.73535925   -3.0630421    2491.6255  0.063927174  0.063544836            2 
 3249000   0.72753159   -3.0671756    2493.7864  0.063962922  0.063531862           10 
 3250000   0.73147183   -3.0843179    2483.7484  0.063685857  0.063518842            6 
 3251000   0.73574741   -3.0631191    2494.6581  0.063945917  0.063505893            6 
 3252000   0.72407811   -3.0746486    2477.6611  0.063490701  0.063492866            6 
 3253000   0.72594347   -3.0726783      2490.73  0.063805974  0.063479757            6 
 3254000   0.73552808   -3.0426672    2485.6066  0.063655158  0.063466656            4 
 3255000   0.73446589    -3.085197    2491.7379  0.063792572  0.063453563            3 
 3256000   0.72740696   -3.0642516    2488.4077  0.063687748  0.063440543            6 
 3257000   0.72647716   -3.0781565    2487.4352  0.063643312  0.063427523            3 
 3258000    0.7296203   -3.0455644    2484.8269  0.063557061  0.063414508            3 
 3259000   0.73766442   -3.0631456    2480.2756  0.063421182  0.063401445           11 
 3260000   0.73110475   -3.0864962    2494.5066  0.063765506  0.063388448            3 
 3261000   0.73309871   -3.0509361    2488.6522  0.063596345  0.063375505            6 
 3262000   0.72021893   -3.0675824    2483.2764  0.063439514  0.063362516            8 
 3263000   0.72150628   -3.0626165    2483.7781  0.063432886  0.063349544            4 
 3264000   0.72249783   -3.0525302    2494.1428  0.063678073  0.063336644            3 
 3265000   0.71268775   -3.0503686    2484.7659  0.063419242  0.063323571            4 
 3266000   0.72644926   -3.0929229    2480.8842  0.063300782  0.063310407            4 
 3267000     0.715572   -3.0639625    2491.5924  0.063554545  0.063297307            3 
 3268000   0.73228273   -3.0885189    2487.1161  0.063420952  0.063284357            4 
 3269000   0.73587856   -3.0566511    2493.2865  0.063558849  0.063271299            6 
 3270000   0.73543533   -3.0765574    2484.3503  0.063311678  0.063258274            8 
 3271000   0.73066982   -3.0831434    2496.0932   0.06359149  0.063245183            5 
 3272000   0.72510509   -3.0573166    2492.9257  0.063491385  0.063232194            3 
 3273000    0.7318803   -3.0412969    2487.8146  0.063341854  0.063219219            3 
 3274000    0.7273569   -3.1008333    2489.8873  0.063375263  0.063206245            6 
 3275000   0.72479249   -3.0550702     2488.294   0.06331537  0.063193199            9 
 3276000   0.72884113    -3.078072    2487.0137  0.063263475  0.063180145            7 
 3277000   0.72926766   -3.0638641    2497.9939  0.063523392  0.063167179            4 
 3278000   0.72717408   -3.0818061    2494.7971  0.063422745  0.063154081           10 
 3279000    0.7239228   -3.0659929    2499.3647  0.063519484  0.063141153            3 
 3280000   0.71817505   -3.0716791    2497.0829  0.063442148  0.063128128            3 
 3281000   0.71997302   -3.0646945    2490.1629  0.063247051  0.063115089            5 
 3282000   0.73657141   -3.0600669    2494.7241  0.063343595  0.063102097            6 
 3283000   0.73459097   -3.0879478    2496.1163  0.063359638  0.063089142            5 
 3284000   0.72523068    -3.090258    2489.9132  0.063182938  0.063076057            3 
 3285000   0.72431769   -3.0893613    2485.5922   0.06305409  0.063062928            6 
 3286000   0.72039905     -3.05298    2495.9024  0.063296369   0.06304991            2 
 3287000   0.73650722    -3.042444    2494.1113  0.063231702  0.063036836            4 
 3288000   0.72831624   -3.0608607    2492.5896  0.063173905  0.063023908            4 
 3289000   0.71616155   -3.0770465    2497.8637  0.063288327  0.063010733            7 
 3290000   0.71764941   -3.0730233    2490.7014  0.063087674  0.062997671            5 
 3291000   0.73410401   -3.0739127    2491.1038  0.063078694  0.062984445            4 
 3292000    0.7376938   -3.0990271    2497.6191  0.063224461  0.062971302            4 
 3293000   0.72580966   -3.0936499    2491.2451  0.063043958   0.06295813            3 
 3294000   0.73402263   -3.0835033    2493.6599  0.063085912  0.062945051            3 
 3295000   0.72566969   -3.0580113    2489.7427  0.062967696  0.062932067            4 
 3296000   0.71756991   -3.0718921    2494.9454  0.063080131  0.062918867            2 
 3297000   0.71630525    -3.075672     2492.317  0.062994565    0.0629057            4 
 3298000   0.73131755   -3.0764832    2492.3529  0.062976373  0.062892555            6 
 3299000   0.72353677   -3.0549892    2496.0149  0.063049785  0.062879488            6 
 3300000   0.71178717   -3.0734625     2498.116  0.063083736  0.062866405            7 
 3301000   0.71655953   -3.0487723    2502.3415  0.063171299  0.062853382            7 
 3302000   0.71429066   -3.0722186    2502.8151   0.06316412  0.062840349           11 
 3303000   0.72757109   -3.0867625    2489.9922  0.062821481  0.062827259            7 
 3304000   0.73418195   -3.0820303    2508.5643   0.06327089  0.062814147            4 
 3305000   0.72794975   -3.0923431    2500.6132  0.063051267  0.062801121            4 
 3306000   0.72760137    -3.070483     2495.254  0.062897107  0.062787944            4 
 3307000   0.72157599   -3.0846655    2497.2771  0.062929068  0.062774756            4 
 3308000   0.74019018    -3.068807    2493.7122  0.062820239  0.062761593            5 
 3309000   0.72100669   -3.0974414    2498.4291  0.062920044  0.062748444            5 
 3310000   0.72657594    -3.079739    2499.3896  0.062925218   0.06273526            6 
 3311000   0.74363995    -3.093682    2495.3167  0.062803702  0.062722116            5 
 3312000   0.71449555   -3.0771749    2494.2289   0.06275737  0.062708897            4 
 3313000   0.72409725   -3.0859804    2486.9348  0.062554954  0.062695711            3 
 3314000   0.71046732   -3.0759172    2504.2575  0.062971674   0.06268246            5 
 3315000    0.7198354    -3.052262    2494.9772  0.062719387   0.06266928            4 
 3316000    0.7322621   -3.0935394    2495.9096  0.062723904  0.062656076            4 
 3317000   0.71305266   -3.1079154    2492.6001  0.062621849  0.062642859           12 
 3318000   0.72543509   -3.0840632    2502.9225  0.062862229  0.062629629            3 
 3319000   0.72688082   -3.0771253    2498.9295  0.062743034  0.062616428            4 
 3320000   0.73376558   -3.0727476    2502.4639   0.06281285  0.062603374            3 
 3321000   0.71868108   -3.0922495    2501.8083  0.062777484  0.062590198            6 
 3322000     0.726169     -3.08366    2503.4553  0.062799902  0.062577133            4 
 3323000   0.72401888   -3.0753563    2505.8346  0.062840671  0.062564045            8 
 3324000    0.7163289    -3.090725    2505.6282  0.062816592  0.062550941            7 
 3325000   0.72854082   -3.0954624    2506.1371  0.062810454  0.062537771            9 
 3326000   0.71737453   -3.0631637    2501.7035  0.062680485  0.062524709            6 
 3327000    0.7216104   -3.0675063    2501.1175  0.062646966  0.062511626            5 
 3328000    0.7204886   -3.0922004     2502.015  0.062650617  0.062498559            2 
 3329000    0.7113026   -3.0694334     2508.026  0.062782268  0.062485492            4 
 3330000   0.72047033   -3.1005635    2501.3879  0.062597296  0.062472375            4 
 3331000   0.72042768   -3.0872034     2503.268  0.062625538  0.062459223            7 
 3332000   0.72097541    -3.097107    2504.4893  0.062637287  0.062446204            8 
 3333000   0.70628763   -3.0845913    2508.7134  0.062724107  0.062433072            5 
 3334000   0.71499036   -3.0712115    2500.5639  0.062501598  0.062419904            6 
 3335000   0.71053509   -3.0830195    2507.3472  0.062652354  0.062406709            5 
 3336000   0.70515532   -3.0767908    2508.3466  0.062658538  0.062393638            8 
 3337000   0.72696251   -3.0884581    2499.8266  0.062426995   0.06238056            7 
 3338000   0.72549783   -3.0835009    2503.0387  0.062488484   0.06236743            4 
 3339000   0.72246894   -3.0784262    2504.6314   0.06250952  0.062354377            4 
 3340000   0.72477474   -3.0929239    2498.5854  0.062339954  0.062341343            4 
 3341000   0.71980506   -3.0767955    2503.3693  0.062440618  0.062328229            3 
 3342000   0.70618676   -3.0945911    2501.9393  0.062386278   0.06231508            5 
 3343000   0.70451773   -3.0859695    2513.5097   0.06265604  0.062302117            5 
 3344000   0.71648305    -3.088326    2500.9738  0.062324906  0.062288989            2 
 3345000   0.71676691     -3.09199    2510.2895  0.062538354   0.06227591            8 
 3346000   0.70374541    -3.092733     2504.058  0.062364465  0.062262894            4 
 3347000   0.70787539   -3.0770094    2513.0145   0.06256883  0.062249809            6 
 3348000   0.73016929   -3.0677879    2512.7345  0.062543172  0.062236863            4 
 3349000   0.70373977   -3.0868579    2507.1173  0.062384725  0.062223933            3 
 3350000   0.71348162   -3.0846003    2512.9264  0.062510607  0.062210867            4 
 3351000   0.71427729   -3.0814814    2514.7775  0.062537985  0.062197886            2 
 3352000   0.72591223   -3.0960169    2517.9695  0.062598684  0.062184913            6 
 3353000   0.70338283   -3.0866663    2513.8303  0.062477142  0.062171951            6 
 3354000   0.70680528   -3.0816253    2511.2288  0.062393877  0.062159078            6 
 3355000   0.72119951   -3.0960541    2516.7839  0.062513261  0.062146218            6 
 3356000   0.70228473   -3.0985593    2510.0179  0.062326626   0.06213325            2 
 3357000   0.70421631   -3.0905523    2511.9336  0.062355615  0.062120371            3 
 3358000   0.72900393    -3.094614    2524.6427   0.06265244  0.062107423           10 
 3359000   0.71451859   -3.0608446    2521.6808  0.062560305  0.062094737            6 
 3360000   0.72022322   -3.1163233    2513.8007  0.062346248  0.062081886            6 
 3361000   0.71297231   -3.0894421    2516.2347  0.062388046  0.062068998            6 
 3362000   0.71501913   -3.0853914    2509.0398  0.062191151  0.062056206            6 
 3363000   0.70004903   -3.0964625    2519.4076  0.062429566  0.062043509            4 
 3364000   0.70101402   -3.0956473    2516.8852  0.062348524  0.062030829            6 
 3365000   0.71570563   -3.1056208    2518.2421  0.062363598  0.062018012            3 
 3366000   0.70523917   -3.1038844    2515.1552  0.062268648  0.062005223            3 
 3367000   0.71304497   -3.0773807    2511.6232  0.062162736  0.061992363            5 
 3368000    0.6955439   -3.1078374    2512.8445  0.062174497  0.061979467            7 
 3369000   0.70319412   -3.0893188    2517.5112  0.062271475  0.061966524            9 
 3370000   0.70984452   -3.1087542    2509.1439  0.062046091  0.061953614            3 
 3371000   0.71743453   -3.0837002     2519.435  0.062282087  0.061940666            3 
 3372000   0.71354475   -3.0929687    2517.6704  0.062220008  0.061927838            6 
 3373000    0.7077389   -3.0836149    2519.6029  0.062249305  0.061915029            9 
 3374000   0.71934146   -3.0866394    2516.7934  0.062161465  0.061902139            4 
 3375000   0.71714955   -3.0875554      2518.62  0.062188148  0.061889253            4 
 3376000   0.72111886   -3.0783721    2521.2575  0.062234831  0.061876372           14 
 3377000    0.7231628    -3.093386     2525.141  0.062312234  0.061863527            9 
 3378000   0.71374128   -3.0785221    2519.6832  0.062159146  0.061850644            8 
 3379000   0.71205108   -3.1042844    2514.9702  0.062024519  0.061837708            4 
 3380000   0.70704238   -3.1133594    2522.3358  0.062187767  0.061824751           10 
 3381000   0.71338523   -3.1034326    2522.8084  0.062181022  0.061811827            5 
 3382000    0.7070953   -3.1113605     2525.987  0.062240958  0.061798814            4 
 3383000   0.71226486    -3.083921     2519.766  0.062069317  0.061785891            3 
 3384000   0.69615703   -3.1037585    2515.8778  0.061955226  0.061772989            4 
 3385000   0.73640071   -3.1002265    2510.1311  0.061795449  0.061760057            4 
 3386000   0.70059734   -3.0874646    2527.0795  0.062194318  0.061747108            5 
 3387000   0.71950753   -3.0843495    2518.7894  0.061971986  0.061734129            5 
 3388000   0.72924641    -3.102385    2524.0607  0.062083349  0.061721165            6 
 3389000   0.70647924   -3.1182201    2522.1729  0.062018613    0.0617082            7 
 3390000   0.71263422   -3.1030514    2514.4858  0.061811352  0.061695212            6 
 3391000   0.71796964   -3.1230784      2518.38  0.061888824  0.061682183            5 
 3392000   0.70646747   -3.0795275     2520.547  0.061923817   0.06166912            5 
 3393000   0.70625924    -3.088111    2518.8437  0.061863732   0.06165619            4 
 3394000   0.70711623    -3.109384    2528.8749  0.062091803  0.061643328            5 
 3395000   0.72218669   -3.1116884    2523.6364  0.061944929  0.061630358            7 
 3396000   0.72125585   -3.1097504    2520.0109  0.061837724  0.061617399            8 
 3397000   0.71877544   -3.1076189    2526.1276  0.061969571  0.061604501            5 
 3398000   0.71351435   -3.0907386    2520.7451  0.061819333  0.061591542            5 
 3399000    0.7210112   -3.1135895    2517.8755   0.06173079  0.061578597            3 
 3400000   0.69660903   -3.1125903    2519.7892  0.061759538  0.061565651            5 
 3401000   0.71039253   -3.1218746    2522.1845  0.061800071  0.061552638           10 
 3402000   0.71919834   -3.0943265    2524.7936  0.061845815  0.061539683            3 
 3403000   0.69714753   -3.0795111    2524.7059  0.061825495  0.061526773            4 
 3404000   0.71877405   -3.0940962    2521.2388  0.061722454  0.061513769            7 
 3405000   0.71414865   -3.1061061    2527.2843  0.061852282  0.061500927            4 
 3406000   0.71727438   -3.0968238    2524.1162  0.061756611  0.061487938            7 
 3407000    0.7089179   -3.0955355    2527.8534  0.061829894  0.061474916            3 
 3408000   0.69429468    -3.104283    2536.5036   0.06202327  0.061462097            5 
 3409000   0.70578537   -3.1128126    2521.9333  0.061648903  0.061449292            6 
 3410000   0.71299237   -3.0781089    2527.8135  0.061774524  0.061436321            4 
 3411000   0.69500547   -3.0906369    2531.2652  0.061840741  0.061423385            4 
 3412000   0.69885053   -3.0782323    2521.0819  0.061573905  0.061410468            5 
 3413000   0.71570113   -3.0922114    2525.3944  0.061661157  0.061397526            4 
 3414000    0.7035959   -3.1350267    2513.4891  0.061352498   0.06138457            7 
 3415000   0.69222819   -3.1054616    2522.8461  0.061562862  0.061371559            7 
 3416000   0.71158986   -3.1032107    2530.3524  0.061727956  0.061358694            5 
 3417000   0.69986059   -3.1162638    2524.3395  0.061563249  0.061345877            8 
 3418000   0.69286469   -3.1117279    2533.8647   0.06177747  0.061332943            4 
 3419000   0.71497369   -3.0988853    2526.7889  0.061586938  0.061320126            2 
 3420000   0.71189795   -3.1111994    2528.3399  0.061606723  0.061307201            9 
 3421000   0.71002109   -3.0945225    2532.7343  0.061695759  0.061294349            8 
 3422000   0.70408943   -3.1171084    2527.5286   0.06155096  0.061281506            4 
 3423000   0.70541912   -3.1077311    2534.7231  0.061708128   0.06126863            5 
 3424000    0.7022306   -3.0927526    2532.7781  0.061642769  0.061255736           11 
 3425000   0.70725537   -3.0936439    2529.7116   0.06155016  0.061242845            7 
 3426000   0.70938597   -3.1367753    2526.1152  0.061444716   0.06122986            3 
 3427000   0.69517743   -3.1014258    2529.0415  0.061497945  0.061216999            5 
 3428000   0.69286258   -3.1267355    2526.9381  0.061428873  0.061204169            3 
 3429000   0.71413448   -3.0937545    2531.9656   0.06153314   0.06119134           11 
 3430000   0.70407636   -3.0950349    2527.4489  0.061405464  0.061178581            3 
 3431000   0.69509205   -3.1109034    2528.0623  0.061402466    0.0611658            4 
 3432000   0.69614813   -3.1103851    2533.8261  0.061524527  0.061152898            5 
 3433000   0.71700319   -3.1180063    2533.6664  0.061502728  0.061140062            6 
 3434000   0.71505392   -3.1108201    2534.0823  0.061494911  0.061127372            2 
 3435000   0.69094929   -3.1128506    2534.2413  0.061480865  0.061114691            7 
 3436000   0.69020309   -3.1061977    2532.8766  0.061429875  0.061101989            6 
 3437000   0.70426311   -3.0823529    2541.1318  0.061612158  0.061089373            7 
 3438000   0.67610565    -3.126057    2534.3025  0.061428701  0.061076643            5 
 3439000   0.70568733   -3.1162678    2538.1012  0.061502887  0.061063937            8 
 3440000   0.70083962   -3.1163085    2527.5379  0.061229116  0.061051152            7 
 3441000   0.71398168   -3.0962991    2530.4396  0.061281594  0.061038355            5 
 3442000   0.70643147   -3.1027581    2532.7209  0.061319022  0.061025596            5 
 3443000   0.69629131   -3.1255134     2533.535  0.061320917  0.061012899            5 
 3444000   0.70329299   -3.1035407    2532.6898   0.06128266  0.061000057            3 
 3445000   0.70834875   -3.1215944    2526.3012  0.061110333  0.060987282            3 
 3446000   0.68230441    -3.107057    2527.1092  0.061112139  0.060974524            7 
 3447000   0.70284033   -3.1128678      2529.56  0.061153661  0.060961718            4 
 3448000   0.69282975   -3.0956041    2537.9791  0.061339402  0.060948954            2 
 3449000   0.68715049   -3.1145977    2539.6363  0.061361657  0.060936144            4 
 3450000   0.70849024   -3.1227041    2534.8892  0.061229207  0.060923401            2 
 3451000   0.69045365   -3.1242382    2538.8396  0.061306859  0.060910706            5 
 3452000   0.70122871   -3.0915325    2546.3479  0.061470354  0.060898085            6 
 3453000   0.69909596   -3.1258336    2548.9869   0.06151624  0.060885487            7 
 3454000   0.70861494   -3.1013583    2551.0001  0.061547001  0.060872834            7 
 3455000    0.7033544   -3.0994279    2540.1014  0.061266314  0.060860117            2 
 3456000   0.70132865   -3.1337191    2531.5587    0.0610426  0.060847305            6 
 3457000   0.69027869    -3.135557     2542.585  0.061290739  0.060834524            2 
 3458000   0.69767312   -3.1216045     2537.959  0.061161534  0.060821661            6 
 3459000   0.70315179   -3.1271062    2535.8712  0.061093554  0.060808864            4 
 3460000   0.68764469   -3.1114551    2547.1714  0.061348059  0.060796162            4 
 3461000   0.71090061    -3.114789    2534.5946   0.06102751  0.060783323            5 
 3462000   0.69487544   -3.1209937     2539.693  0.061132606  0.060770504            5 
 3463000   0.68972504   -3.1061994    2532.4001  0.060939457   0.06075756            9 
 3464000   0.69823189    -3.131816    2535.7567  0.061002615  0.060744741            9 
 3465000   0.68677169   -3.1068323    2535.0502  0.060968018  0.060731882           12 
 3466000   0.70170636    -3.106968    2535.0876  0.060951326  0.060719084            6 
 3467000   0.70032284   -3.1188657    2538.8818  0.061024944  0.060706252            4 
 3468000   0.70208205   -3.1070623    2540.7341  0.061051857  0.060693456            3 
 3469000   0.69692362   -3.1183807    2540.5156  0.061029009  0.060680625            4 
 3470000   0.71450428   -3.1222038    2541.8566  0.061043625  0.060667828            4 
 3471000   0.69796092   -3.1104663    2533.2506  0.060819422   0.06065492            4 
 3472000   0.70536878   -3.0982406    2543.3677  0.061044732  0.060642191           10 
 3473000   0.70013553   -3.1075017    2543.2511  0.061024356  0.060629405            4 
 3474000   0.69924773   -3.1251701    2537.6877  0.060873337  0.060616658            7 
 3475000   0.70027187   -3.1257997    2535.8997  0.060812942  0.060603944            4 
 3476000   0.69889569   -3.1143655    2545.2483  0.061019569  0.060591146            4 
 3477000   0.69382293   -3.0925175    2541.5603  0.060913631  0.060578457            1 
 3478000   0.70387307   -3.1170737    2539.8155  0.060854309  0.060565741            4 
 3479000   0.70664459   -3.1326703    2531.7246  0.060643016  0.060552913           13 
 3480000   0.70398559   -3.1258409    2543.5215  0.060908081  0.060540125            3 
 3481000     0.678409   -3.1250649    2540.2944  0.060813329   0.06052727            2 
 3482000   0.69519659    -3.139304    2545.3367  0.060916539  0.060514552            3 
 3483000   0.68473607   -3.1223531    2542.1283  0.060822286   0.06050188            8 
 3484000   0.68619182   -3.1202824    2551.4009  0.061026618   0.06048919            4 
 3485000   0.68040394    -3.113284    2539.4268  0.060722783  0.060476458            4 
 3486000   0.70868565   -3.0902341    2555.3267  0.061085455  0.060463882            3 
 3487000   0.69693328   -3.1170346     2561.984  0.061227033  0.060451332            7 
 3488000   0.70624433   -3.1187602    2547.8998  0.060872988  0.060438632            8 
 3489000   0.69467758   -3.1478611     2547.833  0.060853946  0.060425973            5 
 3490000   0.68458034   -3.1243888    2547.6043  0.060831047  0.060413212            4 
 3491000   0.69279928   -3.1276794    2543.6628  0.060719536  0.060400523            4 
 3492000   0.68878668    -3.138395    2539.7879  0.060609676  0.060387738            5 
 3493000    0.7000211   -3.1570152    2536.5118  0.060514166  0.060374944           15 
 3494000   0.67981026   -3.1214436    2546.2864  0.060729975  0.060362244            8 
 3495000   0.69073249   -3.1213507    2558.0777  0.060993745  0.060349554            4 
 3496000   0.68227982   -3.1346993    2543.6602  0.060632632  0.060336885            5 
 3497000   0.70437583   -3.1228672    2548.5136   0.06073095  0.060324219            3 
 3498000   0.70561695    -3.136766    2547.6316  0.060692577  0.060311456            4 
 3499000   0.68952227   -3.1029843    2544.1712  0.060592818  0.060298812            4 
 3500000   0.69359864   -3.1376169    2552.9376  0.060784229  0.060286141            4 
 3501000   0.67913463   -3.1137527    2557.2463  0.060869426  0.060273447            4 
 3502000   0.69755681   -3.1321446    2543.5722  0.060526657  0.060260764            4 
 3503000   0.69202177   -3.1387944    2550.2098  0.060667279  0.060248036            5 
 3504000    0.6912592   -3.1222038    2549.0886  0.060623301  0.060235441            5 
 3505000   0.69832567   -3.1321296    2542.6456   0.06045282  0.060222858           14 
 3506000   0.70327568   -3.1190134    2544.2968  0.060474823  0.060210245            4 
 3507000   0.67760422   -3.1179305    2546.1607  0.060501869  0.060197523            5 
 3508000   0.67587236   -3.1460199    2552.0876  0.060625419  0.060184768            4 
 3509000   0.70464628   -3.1085724    2552.3157  0.060613559  0.060171933            5 
 3510000   0.69110795   -3.1403896    2551.8701  0.060585711  0.060159211           10 
 3511000   0.68493106   -3.1408526    2543.1453  0.060361371  0.060146466            5 
 3512000   0.69166912   -3.1387537    2550.7543  0.060524732   0.06013366            7 
 3513000   0.68755761   -3.1193375    2542.6492  0.060315239  0.060120918            5 
 3514000   0.68370905   -3.1455024    2543.5502  0.060319442  0.060108181            7 
 3515000   0.69022343   -3.1037008    2551.5805  0.060492662  0.060095389            7 
 3516000   0.68859126   -3.1212808    2542.8687  0.060268977  0.060082668            5 
 3517000   0.67395388   -3.1340885    2553.4193  0.060501832  0.060069905            7 
 3518000   0.68440871    -3.119763    2547.0825   0.06033453   0.06005721            4 
 3519000    0.6953533   -3.1304295    2551.8764  0.060430908  0.060044444            8 
 3520000   0.68918504   -3.1316017    2554.1933  0.060468591  0.060031683           13 
 3521000   0.68742715   -3.1319215    2548.1819  0.060309143  0.060018893            3 
 3522000   0.70131914   -3.1438186    2550.8899  0.060356093  0.060006269            3 
 3523000   0.67700783   -3.1143131    2553.9824  0.060412112  0.059993467            7 
 3524000   0.69611788   -3.1413729    2551.8877  0.060345434  0.059980739            7 
 3525000    0.6930486   -3.1408658    2553.1625  0.060358452  0.059967945           10 
 3526000   0.68298895   -3.1378067    2545.2554  0.060154458   0.05995523            6 
 3527000   0.69577389   -3.1192809    2552.3827  0.060305799  0.059942479            5 
 3528000   0.67629006   -3.1249628    2554.6647  0.060342609  0.059929742            4 
 3529000   0.67933805   -3.1263867    2548.6884  0.060184387  0.059916905            5 
 3530000   0.68057324   -3.1371279    2560.9088  0.060455826  0.059904131            4 
 3531000   0.68791007   -3.1304229    2554.9964   0.06029917  0.059891379            6 
 3532000    0.7019915   -3.1129648    2554.3244  0.060266243  0.059878604            6 
 3533000   0.67983771   -3.1381725    2556.4881  0.060300218  0.059865871            6 
 3534000   0.68330471   -3.1535573    2555.3597  0.060256548  0.059853151            8 
 3535000   0.69281235   -3.1274194    2557.7571  0.060296019  0.059840431           12 
 3536000   0.68670738   -3.1192581    2561.6398   0.06037047   0.05982773            4 
 3537000   0.68297035   -3.1231398    2554.4392  0.060183752  0.059815069            7 
 3538000   0.68653019     -3.14131    2557.1651  0.060230948  0.059802378            9 
 3539000   0.68519762   -3.1268606    2557.9108  0.060231486  0.059789754            3 
 3540000   0.66974257   -3.1298692    2561.5888  0.060301054  0.059777048            5 
 3541000   0.68543564   -3.1391768    2548.9619  0.059986867  0.059764369            6 
 3542000   0.67771816   -3.1234877    2555.2402   0.06011764   0.05975163            5 
 3543000   0.69177348   -3.1425779    2557.3065  0.060149274  0.059739002            5 
 3544000   0.67430877   -3.1445918    2563.1285    0.0602692  0.059726407            6 
 3545000   0.69118557   -3.1520339    2560.8333  0.060198244  0.059713737            5 
 3546000   0.69372913   -3.1402844    2557.8453  0.060111049  0.059701063           13 
 3547000   0.67921984   -3.1313246    2556.3987  0.060060114  0.059688401            6 
 3548000     0.693849   -3.1471855    2554.7921  0.060005451   0.05967575            6 
 3549000   0.67767684   -3.1336164    2566.4678  0.060262698  0.059663139            6 
 3550000   0.67519022    -3.153777    2548.4317   0.05982234  0.059650387            4 
 3551000    0.6772305   -3.1469793    2557.0267  0.060007197  0.059637696            5 
 3552000   0.68190408   -3.1364911    2553.5557  0.059908871  0.059625004            3 
 3553000   0.67235774   -3.1369067    2555.8878  0.059946706  0.059612367           10 
 3554000   0.69194876    -3.116467     2557.345  0.059964008   0.05959971            3 
 3555000   0.67274532   -3.1277399    2561.3241  0.060040414  0.059587034            4 
 3556000   0.68531161   -3.1265486    2562.9518  0.060061675  0.059574356            4 
 3557000   0.70357923    -3.129045    2565.8322  0.060112272  0.059561791            5 
 3558000   0.69318003   -3.1357748     2564.644  0.060067547  0.059549114            5 
 3559000   0.67312647   -3.1469442    2554.5899  0.059815254  0.059536376           13 
 3560000   0.68104625   -3.1206801    2564.7421  0.060036097  0.059523667            3 
 3561000   0.68605065   -3.1454059    2554.5735  0.059781276  0.059510927            5 
 3562000   0.68201954   -3.1525908    2560.8118  0.059910438  0.059498163            8 
 3563000   0.67719795   -3.1347541    2550.9878  0.059663854  0.059485372            4 
 3564000   0.66988751   -3.1213336    2558.9676  0.059833699  0.059472694            5 
 3565000   0.70095412   -3.1256112    2554.8638  0.059720987  0.059460036            6 
 3566000   0.68764494    -3.142638    2563.7703  0.059912374  0.059447387            4 
 3567000   0.67337423   -3.1513376    2559.1778  0.059788286  0.059434634            5 
 3568000   0.67660539   -3.1225659    2561.9579   0.05983646  0.059421971            6 
 3569000   0.65849972    -3.123335    2557.6819  0.059719854  0.059409278            6 
 3570000   0.68976715   -3.1282611    2557.8637  0.059707368  0.059396558            5 
 3571000   0.66683907   -3.1527885    2555.0656  0.059625353  0.059383796            5 
 3572000   0.68265574   -3.1416034    2558.2744   0.05968352  0.059371013            4 
 3573000    0.6791316   -3.1322804    2562.3388  0.059761611  0.059358212            5 
 3574000   0.68680267   -3.1461993    2557.1395   0.05962366  0.059345497            7 
 3575000   0.68662633   -3.1665053    2559.7774  0.059668471  0.059332745            3 
 3576000    0.6763265   -3.1383217    2555.2735  0.059546828  0.059320014            4 
 3577000   0.68100276   -3.1291866    2568.8474  0.059846412  0.059307295            6 
 3578000   0.68122542   -3.1305772    2564.0323   0.05971754  0.059294627            4 
 3579000   0.67795009   -3.1568505    2570.1944  0.059844332  0.059282037            4 
 3580000   0.68205589   -3.1707749    2564.0731  0.059685128  0.059269251            6 
 3581000   0.69090586   -3.1482944    2564.0795  0.059668609  0.059256666            3 
 3582000   0.68662915   -3.1210337     2562.095  0.059605784  0.059243946            3 
 3583000   0.68287479   -3.1067137    2561.6903  0.059579736  0.059231324            3 
 3584000   0.68342255   -3.1447021    2563.0687  0.059595162  0.059218757            7 
 3585000   0.66432663   -3.1629859    2569.4294  0.059726392  0.059205981            4 
 3586000   0.67704932   -3.1579162    2561.2222  0.059519013  0.059193248            8 
 3587000   0.68900098   -3.1452078     2557.517  0.059416341   0.05918048            4 
 3588000   0.70139929   -3.1757581    2566.1698  0.059600747  0.059167704            4 
 3589000   0.67511343   -3.1435768    2573.0607  0.059744141  0.059155035            9 
 3590000   0.67463669   -3.1557857    2568.8039  0.059628689  0.059142463            5 
 3591000   0.66862376   -3.1719472    2568.6281  0.059608004  0.059129872           10 
 3592000   0.68498228    -3.151364    2563.4456  0.059471178  0.059117232            9 
 3593000   0.67029803   -3.1512162    2568.7761  0.059578257  0.059104571            6 
 3594000   0.67808981    -3.134213    2567.6635  0.059535881  0.059091933            5 
 3595000   0.66389672   -3.1399429    2572.0402  0.059620774  0.059079402           10 
 3596000   0.68039964   -3.1525268    2570.4495  0.059567331  0.059066796            7 
 3597000   0.67393454   -3.1560611    2566.0136  0.059448003   0.05905408            9 
 3598000   0.68246223   -3.1354744     2565.152  0.059411526  0.059041428            4 
 3599000   0.67863771   -3.1371072    2569.0836  0.059486052  0.059028812            4 
 3600000   0.68129138   -3.1547798    2561.8475  0.059302026  0.059016057            3 
 3601000   0.67346397   -3.1387019    2570.6566  0.059489416  0.059003378            5 
 3602000   0.66193421   -3.1628137    2570.4635  0.059468431  0.058990683            6 
 3603000   0.66088909   -3.1641602    2565.2332  0.059330956  0.058977982            3 
 3604000   0.67952426   -3.1761993    2574.4898  0.059528528  0.058965344           11 
 3605000   0.67469473   -3.1419981     2566.497  0.059327253  0.058952568            7 
 3606000   0.67395734   -3.1386586    2574.1282  0.059487155  0.058939902            6 
 3607000   0.69129881   -3.1450836    2569.7922  0.059370488  0.058927226            5 
 3608000   0.67815202   -3.1390741    2563.2077  0.059201952  0.058914579            4 
 3609000   0.67093843   -3.1336076    2563.4056  0.059190118   0.05890193           10 
 3610000    0.6727215   -3.1540642    2569.2079  0.059307663   0.05888921            7 
 3611000   0.67168709    -3.169046    2565.4269  0.059203981  0.058876529            4 
 3612000   0.66275066   -3.1671381    2563.6136  0.059145755  0.058863782           15 
 3613000   0.67456392   -3.1521038    2572.8815  0.059343148  0.058851106            6 
 3614000   0.68488162   -3.1483781    2573.2043  0.059334171  0.058838403            4 
 3615000   0.67276411    -3.150611    2573.8632  0.059332946   0.05882576            6 
 3616000     0.658389   -3.1552437    2566.5022  0.059146899  0.058813103            8 
 3617000   0.67870328   -3.1317839    2573.0766  0.059282015  0.058800461           16 
 3618000   0.68099682   -3.1503133    2569.3987  0.059180917  0.058787826            6 
 3619000    0.6700318   -3.1583729    2568.0798  0.059134195  0.058775271            4 
 3620000   0.67543426   -3.1413614    2581.2855  0.059421857  0.058762669            9 
 3621000   0.67399824   -3.1242391    2570.0609  0.059147125  0.058750148            6 
 3622000   0.67387858   -3.1450446    2576.7122  0.059283827  0.058737583            3 
 3623000   0.67266351   -3.1669755    2568.8761  0.059087224  0.058724903            9 
 3624000   0.66734113   -3.1624068    2570.8979  0.059117409  0.058712356           10 
 3625000   0.67078181   -3.1557341    2578.7595  0.059281828  0.058699791            6 
 3626000   0.66573548   -3.1497087    2574.0552  0.059157364  0.058687273            4 
 3627000   0.67844964    -3.139883    2577.0269  0.059209332   0.05867475            5 
 3628000   0.68210512   -3.1887398    2562.6198  0.058862087  0.058662173            5 
 3629000   0.66502192   -3.1476503    2570.7045  0.059031518  0.058649538            4 
 3630000   0.66608455   -3.1774959      2573.59  0.059081496  0.058636954            7 
 3631000   0.67320779   -3.1962941    2566.0157  0.058891391   0.05862429            5 
 3632000   0.66850695   -3.1705865    2571.4757  0.059000453  0.058611569            6 
 3633000   0.67084028   -3.1462715    2582.0273  0.059226244  0.058599012            7 
 3634000   0.66004229    -3.165982    2577.6429  0.059109405  0.058586448            3 
 3635000   0.67108292   -3.1641013    2575.2493   0.05903827  0.058573912            4 
 3636000   0.66596981   -3.1550474    2569.6852  0.058894509  0.058561287            9 
 3637000   0.65941378   -3.1502301    2571.5874  0.058921899  0.058548676            6 
 3638000    0.6758284   -3.1553845    2574.6157  0.058975071  0.058536208            3 
 3639000   0.67914745   -3.1528911    2581.2211  0.059110128  0.058523682            2 
 3640000    0.6745285   -3.1470415    2574.4098  0.058937953  0.058511231            8 
 3641000   0.65304463   -3.1291324    2579.1279  0.059029751  0.058498735            5 
 3642000   0.65850452   -3.1760511    2570.0486  0.058805798  0.058486265            8 
 3643000   0.65134863   -3.1678866    2584.5402   0.05912115  0.058473673            4 
 3644000   0.66022761   -3.1665371    2572.1973  0.058822661  0.058461148            3 
 3645000   0.66312221    -3.181691     2569.065  0.058734911  0.058448549            8 
 3646000   0.67134203   -3.1861267    2574.9541  0.058853403  0.058435959           14 
 3647000   0.67955873   -3.1587277    2575.5338  0.058850511  0.058423514            9 
 3648000   0.67655726   -3.1466029    2578.3541  0.058898804  0.058411062           10 
 3649000   0.66738571   -3.1511242    2589.3354  0.059133447  0.058398552            2 
 3650000   0.67851555    -3.166242    2575.8269  0.058808834   0.05838615           10 
 3651000   0.66508494   -3.1521855      2582.56  0.058946408   0.05837367           14 
 3652000   0.68179258   -3.1617757    2585.6264  0.059000237  0.058361204            5 
 3653000   0.66381082   -3.1528019    2585.3522   0.05897783  0.058348767            7 
 3654000   0.68931823   -3.1617712    2578.7421   0.05881094  0.058336285            8 
 3655000   0.66382605   -3.1778764    2577.9522  0.058776839  0.058323697            6 
 3656000   0.66943062   -3.1665319    2577.5963  0.058752651   0.05831117            5 
 3657000    0.6790774   -3.1674852    2578.3953  0.058754793   0.05829861            6 
 3658000   0.65322164   -3.1566388    2579.9957  0.058775189  0.058286141            6 
 3659000   0.66617166   -3.1351266    2589.7703  0.058981741  0.058273619            8 
 3660000    0.6888514   -3.1495459    2576.2795  0.058658458  0.058261168            3 
 3661000   0.66979899     -3.18171    2578.3893  0.058690461  0.058248564            6 
 3662000   0.66755353   -3.1640079    2574.8126  0.058593041  0.058235981            3 
 3663000   0.66070258   -3.1600306     2577.085  0.058628743  0.058223456            4 
 3664000   0.65472216   -3.1616931    2572.6076  0.058510909   0.05821081            5 
 3665000   0.67306776   -3.1512737    2573.3389  0.058511571  0.058198336            7 
 3666000    0.6733175   -3.1789594    2577.9138  0.058599604  0.058185702            7 
 3667000   0.66929341   -3.1642473    2576.0589  0.058541471  0.058173154            5 
 3668000   0.68431497   -3.1513667    2581.0875  0.058639756  0.058160586            5 
 3669000    0.6565922   -3.1930579     2578.763  0.058570977  0.058148006            9 
 3670000   0.64954142    -3.174558    2576.0567  0.058493566   0.05813528            5 
 3671000   0.65613407   -3.1759331    2576.0125  0.058476629  0.058122679            4 
 3672000   0.67249852   -3.1630573    2582.2631  0.058602559  0.058110097            9 
 3673000   0.66763836   -3.1655688    2583.5208  0.058615138  0.058097512            6 
 3674000   0.67266852   -3.1553339    2582.2995  0.058571481  0.058084967            4 
 3675000   0.66674172   -3.1787908     2581.342  0.058533833  0.058072477            5 
 3676000   0.65784991   -3.1509476    2579.7499  0.058481817  0.058059915            5 
 3677000   0.66966416    -3.167612    2581.7236  0.058510642  0.058047315            6 
 3678000   0.67175722   -3.1749321    2583.6722  0.058538884  0.058034753            4 
 3679000   0.64853014   -3.1673459    2579.0078  0.058417319  0.058022203            6 
 3680000   0.66076958   -3.1486812    2584.5699  0.058527398  0.058009637           11 
 3681000   0.66973864   -3.1717769    2583.8523  0.058495254  0.057997034            6 
 3682000   0.66995092    -3.176877    2586.4106  0.058537267   0.05798451            5 
 3683000   0.67490377    -3.164067    2588.8428  0.058576405  0.057972016           12 
 3684000   0.65900635   -3.1588821    2578.9468  0.058336653  0.057959451            9 
 3685000   0.66132128   -3.1747905    2581.4321  0.058377027  0.057946901            5 
 3686000   0.67768199   -3.1816824    2583.3033  0.058403492  0.057934405            4 
 3687000   0.66214477   -3.1766257    2584.7453  0.058420245  0.057921912            8 
 3688000   0.66356898   -3.1838181    2582.8517  0.058361616  0.057909388            6 
 3689000   0.67179584   -3.2101864    2576.5717  0.058203932  0.057896807            5 
 3690000   0.67211995   -3.1763371     2582.542   0.05832299  0.057884231            3 
 3691000   0.67288478    -3.187544    2575.4757  0.058147649   0.05787161            6 
 3692000   0.67126171   -3.1466255    2583.3846  0.058310414  0.057858996            8 
 3693000   0.66387219   -3.1667959    2588.7141  0.058414887  0.057846462            5 
 3694000   0.65799206   -3.1685587    2579.9844  0.058202139  0.057833965            8 
 3695000   0.65833444   -3.1515881    2581.4205  0.058218775  0.057821414            4 
 3696000    0.6739982   -3.1817532    2582.5758  0.058229073  0.057808812           13 
 3697000   0.66025854   -3.1680159    2591.5144  0.058414804  0.057796261            5 
 3698000   0.67150117   -3.1525442    2588.0041  0.058319904  0.057783718            7 
 3699000   0.66632798   -3.1873363    2581.1748  0.058150284  0.057771284            5 
 3700000   0.64670628   -3.1664099    2587.2224  0.058270775  0.057758696           11 
 3701000   0.64899484   -3.1836664    2583.0473  0.058161023  0.057746188            5 
 3702000   0.65276245   -3.1766512    2587.1555  0.058237787  0.057733686           10 
 3703000   0.65871865   -3.1778253    2594.2059  0.058380725  0.057721203            7 
 3704000   0.67821624   -3.1699715    2589.2225  0.058252846  0.057708735            4 
 3705000   0.66551066   -3.1690467    2586.8644  0.058184086  0.057696297            9 
 3706000   0.65869829   -3.1879722    2582.7081  0.058074925  0.057683809            5 
 3707000   0.66324085    -3.179318    2587.2067  0.058160388  0.057671347           10 
 3708000     0.661981   -3.1757274    2587.9663  0.058161774  0.057658809            4 
 3709000   0.65410949   -3.1813139    2588.6611  0.058161704  0.057646262            7 
 3710000   0.65965605   -3.1914694    2592.3744  0.058229435  0.057633776            6 
 3711000   0.66817216   -3.1831916    2591.8266  0.058201442  0.057621127            5 
 3712000   0.66508882   -3.1840687    2586.6581  0.058069732  0.057608607            9 
 3713000    0.6588178   -3.1647004    2589.8593  0.058125938  0.057596113            5 
 3714000   0.66307792    -3.169203    2593.0407  0.058181671  0.057583546           12 
 3715000   0.64922824   -3.1665545    2584.0093  0.057963421  0.057571036            7 
 3716000   0.65834477   -3.1811734    2582.3185  0.057909905  0.057558482            3 
 3717000   0.66273774   -3.2004481    2589.4226  0.058053597  0.057545848            4 
 3718000   0.65984154   -3.1553771    2581.9461  0.057870408  0.057533258            8 
 3719000   0.66551269   -3.1903413    2590.7278  0.058051622  0.057520725            6 
 3720000   0.66030257   -3.1951627    2589.0088  0.057997509  0.057508261            6 
 3721000   0.66011426   -3.1797665    2581.2371  0.057807873  0.057495738            8 
 3722000   0.66815649   -3.1975044    2589.3933  0.057974953  0.057483185           11 
 3723000   0.65124348   -3.1673622     2588.848  0.057947175  0.057470653            5 
 3724000   0.65404977   -3.1746218    2588.0001  0.057912642  0.057458215            5 
 3725000   0.66650834   -3.1885386    2581.5598  0.057753016  0.057445703            5 
 3726000   0.64840591   -3.1727885    2590.5403  0.057938367   0.05743314            9 
 3727000   0.66290877   -3.1879093     2592.516  0.057966997  0.057420579            6 
 3728000   0.64342216   -3.1820507    2589.8133  0.057891034  0.057407955            2 
 3729000   0.65990531   -3.1701611    2587.4509  0.057822716  0.057395384            9 
 3730000   0.64504221   -3.1581156    2589.6537  0.057856429  0.057382836           10 
 3731000   0.66159792   -3.1801264     2588.292  0.057810507  0.057370375            5 
 3732000    0.6451281   -3.1672657    2588.9436  0.057809566  0.057357912            6 
 3733000   0.65187558   -3.1989038    2588.6055  0.057786532  0.057345434            6 
 3734000   0.66154777   -3.1917761    2590.9156  0.057822611  0.057332813            4 
 3735000   0.65674873   -3.1556373    2592.3405  0.057838923   0.05732026            7 
 3736000    0.6482388   -3.1774577    2595.6059  0.057896278  0.057307856            8 
 3737000   0.65279629   -3.1782398    2595.8554  0.057886349  0.057295317            9 
 3738000   0.65030677   -3.2036056    2586.2042  0.057655703  0.057282883            7 
 3739000   0.65492379   -3.1863985    2595.5483   0.05784854  0.057270444            9 
 3740000   0.64094926   -3.1814697    2592.2986  0.057760665  0.057257957            3 
 3741000   0.64928574   -3.2039726    2594.0434   0.05778409  0.057245549            6 
 3742000   0.64865374   -3.1810877    2596.0223  0.057812718  0.057233112            5 
 3743000   0.65351732   -3.1926529    2598.8218  0.057859599   0.05722072           14 
 3744000     0.647705    -3.191461    2601.0492  0.057893723  0.057208397            4 
 3745000   0.66018235   -3.1707514    2597.7073  0.057803902  0.057196005            4 
 3746000    0.6528498   -3.1673706    2596.2237  0.057755465  0.057183663           10 
 3747000   0.65319011    -3.181542    2602.6344  0.057882626  0.057171321            6 
 3748000   0.64743565   -3.1756589    2597.8159  0.057760047  0.057158997           10 
 3749000   0.66947199    -3.179337    2608.3556  0.057978918  0.057146666           10 
 3750000   0.65176982   -3.1726207    2600.0037  0.057777861  0.057134357            7 
 3751000     0.640163    -3.165087    2597.4179   0.05770501  0.057122072            7 
 3752000   0.66489149   -3.1854785    2597.4102   0.05768946  0.057109742            9 
 3753000   0.65556734   -3.1899807    2600.4087  0.057740667  0.057097346            7 
 3754000   0.64668518   -3.1828943    2592.7855  0.057556062  0.057084981            5 
 3755000    0.6527731   -3.1842676    2595.6831  0.057605039  0.057072549            5 
 3756000   0.65606956   -3.1706652    2599.2341  0.057668489  0.057060249            7 
 3757000   0.65795737   -3.1719043    2597.3775  0.057611958  0.057047935            6 
 3758000   0.63834774   -3.1862388    2601.8146  0.057695019  0.057035567            5 
 3759000   0.64613539    -3.178245    2600.4272  0.057648914  0.057023277            7 
 3760000   0.66580312    -3.194217    2595.3774  0.057521663  0.057010951            5 
 3761000   0.64187594   -3.1859336    2596.8261  0.057538467  0.056998598           10 
 3762000   0.65399446   -3.1733627    2603.3163  0.057666939  0.056986242            8 
 3763000   0.65735508   -3.1911574    2600.8255  0.057596454  0.056973993            3 
 3764000   0.65602745   -3.1927034    2599.5761  0.057553491  0.056961591           10 
 3765000   0.65222001   -3.1871732    2605.5021   0.05766937  0.056949291           15 
 3766000   0.65382971   -3.1748457    2608.7039  0.057724905  0.056937034            6 
 3767000   0.64084997   -3.1913985    2609.2381  0.057721398  0.056924786            7 
 3768000   0.64819018   -3.1870839    2602.0588  0.057547302  0.056912564            4 
 3769000   0.65816734   -3.1914699    2610.3211  0.057714714  0.056900332           10 
 3770000   0.64289469   -3.1878796    2612.1548  0.057739937  0.056888205            6 
 3771000   0.64624815   -3.1860632    2605.7048  0.057582092   0.05687605            6 
 3772000   0.66112475   -3.1878706    2604.5963  0.057542336  0.056863763           10 
 3773000   0.64071946   -3.1827369    2600.7244  0.057441567  0.056851533            4 
 3774000   0.63128815   -3.2011682    2602.3994  0.057463332   0.05683939            3 
 3775000   0.66602691   -3.1963097    2601.8471  0.057435919  0.056827204            6 
 3776000   0.65186819    -3.188836     2612.531  0.057656493  0.056815059            9 
 3777000   0.63938097   -3.1788892    2607.4149   0.05752835  0.056802892            8 
 3778000   0.64509233   -3.1676842    2610.0689  0.057571663  0.056790694            4 
 3779000   0.65358228   -3.1833215    2602.8455  0.057397139  0.056778593           10 
 3780000   0.64243684    -3.191913    2611.1924   0.05756597  0.056766492            5 
 3781000   0.65024458   -3.1952756    2607.2358  0.057463542   0.05675426           13 
 3782000   0.66519033   -3.1807041    2608.2063  0.057469732  0.056742127            8 
 3783000   0.65827569   -3.1942093    2606.5419  0.057417877  0.056729987            6 
 3784000   0.64154698   -3.1878152     2604.983  0.057368372  0.056717747            5 
 3785000   0.63572465   -3.1831191    2611.9733  0.057507117  0.056705525            5 
 3786000    0.6568573   -3.1966902    2601.8861  0.057269901  0.056693315            7 
 3787000   0.65207783   -3.2008335    2605.3322   0.05733061  0.056681073            4 
 3788000   0.65089578   -3.2011921    2607.2129  0.057356848  0.056668912            4 
 3789000   0.64641547   -3.1871841    2620.2964  0.057629463  0.056656762            3 
 3790000    0.6447173   -3.1935257    2608.6344  0.057357835  0.056644632            6 
 3791000   0.65721336   -3.1827025    2610.9042  0.057392602  0.056632513            8 
 3792000   0.64229342   -3.1939951    2609.2462  0.057341029  0.056620381           26 
 3793000   0.64192904   -3.1873083    2603.6056  0.057201987  0.056608189           21 
 3794000   0.65269454   -3.1830129    2608.7783  0.057300525  0.056596031            8 
 3795000   0.65125016   -3.2052339      2610.06   0.05731357  0.056583797            6 
 3796000   0.65140079   -3.1919462    2608.1298  0.057256099  0.056571482            6 
 3797000   0.64177723   -3.2173067    2602.8222  0.057124532  0.056559261            7 
 3798000   0.64654719   -3.1868025    2611.7422  0.057305208   0.05654709            5 
 3799000   0.65944207   -3.1984204    2610.5336  0.057263614  0.056534982            9 
 3800000   0.64547954   -3.2185244    2605.5807  0.057139927  0.056522831            7 
 3801000       0.6413   -3.2084031    2601.3082  0.057031224  0.056510579            9 
 3802000   0.65061306    -3.205599    2608.3684  0.057170972  0.056498294            3 
 3803000   0.63858489   -3.1976081    2607.6928  0.057141135  0.056486071           10 
 3804000   0.64805878   -3.2240151    2605.1773  0.057071005   0.05647384            3 
 3805000   0.64140931     -3.20277    2604.0349  0.057030989  0.056461578            6 
 3806000    0.6424077   -3.2041521    2614.4031  0.057243019  0.056449343            8 
 3807000    0.6428656     -3.20462    2604.1477  0.057003496  0.056437219            5 
 3808000   0.65356126   -3.1833913    2609.1124  0.057097173  0.056425047            6 
 3809000   0.64337893   -3.2076413    2617.5612  0.057267025  0.056413036            8 
 3810000   0.64308556    -3.219517    2607.8233  0.057039005  0.056400894           10 
 3811000   0.63877433   -3.1824611    2617.9874  0.057246292   0.05638879           10 
 3812000   0.64216331   -3.2241628    2601.1421  0.056863021  0.056376574            9 
 3813000   0.64302784   -3.1856583    2611.6746  0.057078298  0.056364389           10 
 3814000     0.629434    -3.182205    2611.2144  0.057053276   0.05635227            5 
 3815000   0.64233924   -3.2137351    2605.5433  0.056914445  0.056340196           12 
 3816000    0.6495798   -3.1992625    2604.1372  0.056868825  0.056328021            7 
 3817000   0.64668387   -3.1962836    2609.6879  0.056975109  0.056315845            6 
 3818000   0.64642864   -3.2174543    2615.0684  0.057077623  0.056303809            6 
 3819000   0.64117635   -3.2071007    2611.8874  0.056993267  0.056291682           10 
 3820000   0.64018519   -3.2316234    2601.9438  0.056761427  0.056279474            5 
 3821000   0.63013316    -3.178535    2615.9274  0.057051545  0.056267309            7 
 3822000   0.64988711   -3.2074102    2607.7664  0.056858677  0.056255143           11 
 3823000   0.64506989   -3.2117828    2616.3852  0.057031678  0.056242968            7 
 3824000   0.64558918   -3.2212123    2617.7919  0.057047418  0.056230851            8 
 3825000   0.65137205   -3.1955015    2615.7744  0.056988549  0.056218724           12 
 3826000   0.63841667   -3.1956408    2615.2126  0.056961417  0.056206646            7 
 3827000   0.62595218   -3.1847625    2618.4785  0.057017648  0.056194491            5 
 3828000    0.6478924   -3.2039467    2618.3118  0.056999124  0.056182358            3 
 3829000   0.63257459   -3.2081649    2612.6936  0.056861966  0.056170254            9 
 3830000   0.62241004   -3.1970035    2616.5156  0.056930279  0.056158129            4 
 3831000   0.63138539   -3.2044922    2617.5117  0.056937087   0.05614606            7 
 3832000   0.64293522   -3.2094924    2613.2711  0.056830007  0.056133934            3 
 3833000    0.6354662    -3.205622    2609.7586  0.056738816  0.056121815            7 
 3834000   0.65503361   -3.1920576    2618.3374   0.05691048  0.056109554            5 
 3835000   0.62310966   -3.1955944    2613.2893  0.056785948    0.0560974            7 
 3836000   0.62026054    -3.201989    2621.5886  0.056951439  0.056085276            7 
 3837000   0.63575985   -3.1941979    2610.6507  0.056699042  0.056073172           14 
 3838000   0.63363558   -3.1943131    2615.9433  0.056799185  0.056061038            5 
 3839000   0.64451151   -3.2148916    2618.0968  0.056831136   0.05604898           13 
 3840000   0.63493965   -3.2164348    2620.3115    0.0568644  0.056036806            7 
 3841000   0.62983898   -3.1932925    2619.4136  0.056830113  0.056024696            5 
 3842000   0.63340046   -3.1974972    2609.2862  0.056595658  0.056012581            9 
 3843000    0.6322496   -3.1941322     2616.054  0.056727687   0.05600051            5 
 3844000    0.6368849   -3.2267128    2610.6718  0.056596249  0.055988333            7 
 3845000   0.62897754   -3.2188031    2611.7976  0.056605929  0.055976128            9 
 3846000   0.64413327   -3.2106157    2619.8085  0.056764787  0.055964012            5 
 3847000   0.64735169   -3.2204849    2607.8173  0.056490281  0.055951845            3 
 3848000    0.6315429    -3.198204     2617.043  0.056675395  0.055939732            3 
 3849000   0.63909698   -3.1948802    2617.4833  0.056670202  0.055927635            5 
 3850000   0.63628277   -3.2254392      2615.48  0.056612121  0.055915469            4 
 3851000   0.61646747   -3.2050317    2620.5744  0.056707661  0.055903357            7 
 3852000   0.64205267   -3.2190268    2616.8097  0.056611494  0.055891276           10 
 3853000   0.62860318   -3.2044201     2608.162  0.056409768  0.055879119            5 
 3854000   0.63247283   -3.2258403    2615.8158  0.056560625  0.055866903            9 
 3855000   0.62062953   -3.2179278    2616.1643  0.056553488  0.055854719           14 
 3856000   0.63672432   -3.2269462    2609.9961  0.056405517  0.055842522            9 
 3857000   0.63180565    -3.209522    2620.7543  0.056623333  0.055830318           12 
 3858000   0.63782019   -3.2286811    2621.0156    0.0566143  0.055818154            6 
 3859000   0.64271347   -3.2155328     2617.944  0.056533299  0.055805931            5 
 3860000   0.63690316   -3.1997126    2611.3666  0.056376653   0.05579381           12 
 3861000   0.63709946   -3.2106117    2622.7387    0.0566075  0.055781607           18 
 3862000   0.62285767   -3.2122068    2609.0632  0.056297755   0.05576945            7 
 3863000   0.62645018    -3.221902    2611.5381  0.056336572   0.05575719            9 
 3864000   0.64065783   -3.2044241    2609.2267  0.056272142  0.055744934            8 
 3865000     0.643559   -3.2113532    2611.6079  0.056308924  0.055732719            8 
 3866000    0.6386059   -3.2149704     2617.123  0.056413238  0.055720521            6 
 3867000   0.62478442   -3.2030026    2613.5568  0.056321801  0.055708358            3 
 3868000   0.63838325   -3.2303826    2612.2169  0.056278371  0.055696277            4 
 3869000   0.63381744   -3.2109758    2619.5743  0.056422294  0.055684111           11 
 3870000   0.63979204   -3.2084934    2610.7928  0.056218623   0.05567203           18 
 3871000   0.61503055   -3.2192675    2621.6393  0.056437597  0.055659858            7 
 3872000   0.62403363   -3.2081303    2618.9568  0.056365289  0.055647684           10 
 3873000   0.64799144   -3.2320425    2613.6799  0.056237195  0.055635501            6 
 3874000   0.62523965   -3.2086966    2618.5806  0.056328098  0.055623343            6 
 3875000   0.62870948   -3.2097756    2613.0287  0.056194166  0.055611201           13 
 3876000   0.63138348   -3.2308271    2615.1281  0.056224804  0.055598999            5 
 3877000   0.61732594   -3.2330115     2615.086  0.056209398   0.05558682           13 
 3878000   0.64351068   -3.2097368     2623.314  0.056371713  0.055574678            7 
 3879000   0.62910382   -3.2145076    2621.8295  0.056325288  0.055562572            8 
 3880000    0.6303537   -3.2132346    2624.7018   0.05637246  0.055550409            5 
 3881000   0.64049258    -3.226248    2621.4888  0.056288946  0.055538345            5 
 3882000   0.63789159   -3.2226246    2616.9296  0.056176576   0.05552626           12 
 3883000   0.63300045    -3.222954    2625.2483  0.056340637  0.055514188           10 
 3884000   0.62779842   -3.2233652    2622.3411  0.056263755  0.055502112            3 
 3885000   0.64315931     -3.23073    2620.4672  0.056209079  0.055489955            6 
 3886000   0.62039611   -3.2339011    2617.9796  0.056141267   0.05547783            5 
 3887000   0.64257102   -3.2235182    2622.6892  0.056227794  0.055465793            5 
 3888000   0.63514693   -3.2009778    2621.3893  0.056185471  0.055453777            6 
 3889000   0.62827785   -3.2399592     2620.937   0.05616133  0.055441813            6 
 3890000   0.62910452   -3.2217803    2618.1856  0.056087953  0.055429761            4 
 3891000   0.63416154   -3.2147997    2627.7153  0.056277633  0.055417709            7 
 3892000   0.62219585    -3.239539    2623.7834  0.056178987  0.055405658           24 
 3893000   0.63317535   -3.2249928    2626.6352  0.056225602  0.055393497            8 
 3894000   0.61755149   -3.2221658    2622.1896  0.056116024  0.055381387            4 
 3895000   0.62851786   -3.2263916    2629.8566  0.056265653   0.05536936            4 
 3896000   0.63963846   -3.2305493    2616.0789  0.055956514  0.055357216            8 
 3897000   0.62917587   -3.2311496    2620.7024  0.056041022  0.055345184            6 
 3898000   0.64210679   -3.2063444    2629.2304  0.056208962  0.055333232            4 
 3899000   0.63208233   -3.2114892    2630.2918  0.056217231  0.055321246            5 
 3900000   0.63197316   -3.2213282    2624.3128  0.056075059  0.055309213            4 
 3901000   0.62539253   -3.2112414    2630.5993  0.056194978  0.055297089            6 
 3902000   0.62676366   -3.2192405    2623.3522  0.056025804  0.055285081            3 
 3903000   0.62990826   -3.2327478     2620.483  0.055950188  0.055273016            8 
 3904000   0.62120195   -3.2194244    2627.6481    0.0560888  0.055260933           11 
 3905000   0.63284859   -3.2281268    2628.6822  0.056096505  0.055248858            7 
 3906000   0.61428566   -3.2138474    2622.3209  0.055946426  0.055236743           10 
 3907000   0.64183665   -3.2298281    2625.1551  0.055992559  0.055224625            8 
 3908000   0.61799328    -3.228822    2623.0661  0.055933686  0.055212521           13 
 3909000    0.6434197   -3.2299103    2623.5382  0.055929441  0.055200525            5 
 3910000   0.63122742   -3.2476141     2619.072  0.055819949  0.055188323            6 
 3911000   0.63698445   -3.2262946    2626.9737  0.055974042  0.055176145            7 
 3912000   0.64122654   -3.2325822    2625.4523  0.055927324  0.055164027            9 
 3913000   0.61985157   -3.2342746    2620.1971  0.055801115  0.055151947            6 
 3914000   0.61954366   -3.2159516    2623.3092  0.055853116  0.055139872            6 
 3915000   0.62152464   -3.2216575    2618.1968  0.055730031  0.055127751            7 
 3916000   0.62443513   -3.2132913     2620.128  0.055756895  0.055115588           10 
 3917000   0.62068592   -3.2295784    2620.0773  0.055741582  0.055103566           10 
 3918000    0.6366251   -3.2307984    2623.4791  0.055799709  0.055091487           10 
 3919000   0.63177073   -3.2317173    2630.5261  0.055935317  0.055079369            7 
 3920000   0.62269256   -3.2206618    2627.5262  0.055857274  0.055067297            5 
 3921000   0.61758747   -3.2180098    2623.3043    0.0557533  0.055055316            8 
 3922000   0.62557203   -3.2307386    2628.0955  0.055840887  0.055043332           13 
 3923000   0.62814359   -3.2249781    2633.8377   0.05594863  0.055031325            6 
 3924000   0.61942927   -3.2425042     2625.197  0.055750871  0.055019204            9 
 3925000   0.63775843   -3.2344965    2623.2842  0.055696056  0.055007154            5 
 3926000   0.62979515   -3.2473405    2622.2635  0.055660204  0.054995042           34 
 3927000   0.63085319   -3.2262948    2620.8986  0.055617066  0.054982963            4 
 3928000   0.62188246   -3.2383005    2630.5301  0.055807241  0.054970934            4 
 3929000   0.61935115   -3.2221007    2624.3405  0.055661756  0.054958921            5 
 3930000   0.62142269    -3.229708    2620.2598  0.055561065  0.054946913            8 
 3931000   0.62033267   -3.2294248    2629.3145  0.055738881  0.054934939            4 
 3932000   0.63134567   -3.2254699    2630.9311  0.055758967  0.054922918           16 
 3933000   0.62346262    -3.234639    2624.7943  0.055614761  0.054910806            7 
 3934000   0.61115303   -3.2340636    2623.4275  0.055571673  0.054898739            4 
 3935000   0.62339544   -3.2376165      2625.91  0.055610122  0.054886571            5 
 3936000     0.629728   -3.2466816    2630.5082  0.055693349  0.054874502           19 
 3937000   0.62598908   -3.2417946    2624.8308  0.055559029  0.054862438            8 
 3938000   0.62398602   -3.2315846     2627.374  0.055598738  0.054850369            6 
 3939000   0.62284958   -3.2343159    2623.8797  0.055510699  0.054838216           14 
 3940000   0.62559368    -3.252054    2621.3128  0.055442318  0.054826108            9 
 3941000   0.62663851   -3.2471775    2625.2177  0.055510819  0.054813957           10 
 3942000   0.62697415   -3.2287555    2634.2625  0.055687944  0.054801895            7 
 3943000   0.62628365   -3.2402323    2623.4732  0.055445794  0.054789783            7 
 3944000   0.63060612   -3.2193561    2625.3056  0.055470453  0.054777671            6 
 3945000   0.62177284   -3.2348059     2629.575  0.055546577   0.05476561           11 
 3946000   0.61693423   -3.2382388    2625.0649  0.055437255  0.054753517            7 
 3947000   0.61336828   -3.2569956    2631.6377  0.055561982  0.054741436            9 
 3948000    0.6145141   -3.2535191    2620.6623  0.055316243  0.054729306            6 
 3949000   0.61615006   -3.2394755    2622.2266  0.055335246  0.054717115           18 
 3950000   0.62554777   -3.2589728    2625.9285  0.055399336   0.05470495            4 
 3951000   0.62408724   -3.2496171     2625.724     0.055381  0.054692744           14 
 3952000   0.62086534   -3.2410126    2625.3912   0.05535997  0.054680574           13 
 3953000   0.60601231   -3.2310115    2624.7829  0.055333142  0.054668384            3 
 3954000   0.61536157   -3.2353409    2621.7452  0.055255125   0.05465623            7 
 3955000   0.62218791   -3.2426378    2628.2506  0.055378226  0.054644071            4 
 3956000   0.63027492   -3.2463503     2626.015  0.055317135  0.054631928            6 
 3957000   0.61416958   -3.2316479     2626.889  0.055321561   0.05461983            6 
 3958000   0.61107525   -3.2291297    2622.2202  0.055209284  0.054607746            9 
 3959000   0.63396455   -3.2469382     2626.266    0.0552805  0.054595587            8 
 3960000   0.60549738   -3.2312543    2623.2524  0.055203123  0.054583509            9 
 3961000   0.62410215   -3.2323614    2634.4699  0.055425186  0.054571502            7 
 3962000   0.62559209    -3.259834    2624.6119  0.055203852  0.054559383            7 
 3963000   0.61203634   -3.2443642    2634.3703  0.055395119  0.054547277            7 
 3964000   0.60433411   -3.2220309    2634.4111  0.055382002  0.054535235            8 
 3965000   0.62894541    -3.258779     2624.889  0.055167907  0.054523131           14 
 3966000   0.62615318   -3.2280012    2624.5043  0.055145914  0.054510949            5 
 3967000   0.62141187   -3.2555687    2627.6252  0.055197572  0.054498801            4 
 3968000   0.61195289   -3.2440013    2630.4179  0.055242311  0.054486645           10 
 3969000   0.60113031   -3.2323375    2629.3429  0.055205821   0.05447455            6 
 3970000   0.60873498   -3.2356508     2631.588  0.055239043  0.054462533            5 
 3971000   0.61500032   -3.2301141    2627.2438  0.055133968  0.054450412            5 
 3972000   0.61387358   -3.2478221    2628.9898  0.055156717  0.054438334           14 
 3973000   0.61147554   -3.2488942    2618.2316  0.054917183  0.054426259            7 
 3974000   0.61226864   -3.2341538     2637.373  0.055304753  0.054414284            5 
 3975000   0.60991782    -3.250796    2626.6925  0.055066929  0.054402243           12 
 3976000   0.61064067   -3.2525591    2632.3269   0.05517117  0.054390221            8 
 3977000   0.61977503   -3.2427914    2634.8456  0.055210076  0.054378198            4 
 3978000   0.61398413   -3.2396059    2629.2946  0.055079911   0.05436618            7 
 3979000   0.62705166   -3.2516215    2625.9236  0.054995468  0.054354154           10 
 3980000   0.61596485   -3.2733138     2634.017  0.055151111  0.054342107            7 
 3981000   0.62669798    -3.248482    2632.0051  0.055095142  0.054330007            5 
 3982000   0.61741557   -3.2391081    2628.4471  0.055006844  0.054317953            7 
 3983000   0.61032442   -3.2151039    2634.3229   0.05511597  0.054305992            7 
 3984000   0.62289182    -3.251414    2630.5458   0.05502313  0.054293974           14 
 3985000   0.62022564   -3.2436104     2635.034  0.055103179  0.054281976            4 
 3986000   0.61167377   -3.2561674    2633.3984   0.05505516  0.054270002            5 
 3987000   0.60126465   -3.2625608    2637.5528  0.055128182  0.054257975            5 
 3988000   0.62021983   -3.2422717    2637.2408  0.055107841  0.054245968            6 
 3989000   0.61248736   -3.2311116    2632.9528  0.055004446  0.054233976           17 
 3990000   0.61815851   -3.2405653    2634.8534  0.055030355  0.054221968            4 
 3991000   0.62085601   -3.2395751    2633.0089  0.054978052  0.054210032            9 
 3992000    0.6119443   -3.2460323    2630.3454  0.054908679  0.054198029            9 
 3993000   0.61363014   -3.2322694    2627.9785  0.054845533  0.054186027            4 
 3994000   0.62190846   -3.2555745    2632.6302  0.054928856  0.054174002            7 
 3995000   0.62046159   -3.2313447     2642.935  0.055130058   0.05416203            9 
 3996000   0.61993038   -3.2682994    2634.0161  0.054930266  0.054150138            7 
 3997000   0.60265896   -3.2540204     2633.183  0.054899155  0.054138194           18 
 3998000    0.6083815   -3.2692032    2637.7817  0.054981277  0.054126334            3 
 3999000   0.62979669   -3.2851445    2637.2365  0.054956166  0.054114323           14 
 4000000    0.6190283   -3.2497659    2637.8145  0.054954468  0.054102381            5 
 4001000   0.60672964   -3.2410907    2629.1007  0.054759241   0.05409048            4 
 4002000   0.60462493   -3.2559162    2639.7144  0.054966568  0.054078474            6 
 4003000   0.61112638   -3.2550086    2630.6908  0.054764984  0.054066484            7 
 4004000   0.61352158   -3.2477043    2633.7932  0.054815877  0.054054473            6 
 4005000   0.60833816   -3.2609605    2638.1352  0.054892535  0.054042418           13 
 4006000      0.61076   -3.2656587    2632.9342  0.054770639  0.054030462            3 
 4007000   0.61220773   -3.2575331    2637.1004  0.054843615   0.05401848            7 
 4008000   0.61296013   -3.2531973    2638.3482  0.054855876  0.054006551            9 
 4009000   0.62083048   -3.2514312    2637.2231  0.054818805  0.053994609            5 
 4010000   0.60718728   -3.2364927     2638.004  0.054821363  0.053982709            4 
 4011000   0.62332733   -3.2477872    2634.7951  0.054741026  0.053970769            5 
 4012000   0.60982099   -3.2585075    2634.2008  0.054715038  0.053958791            8 
 4013000   0.59969869   -3.2494053    2641.7501  0.054858172  0.053946868            6 
 4014000   0.61640174    -3.258608     2640.263  0.054813632  0.053934997            4 
 4015000   0.60598357   -3.2495812    2637.0052  0.054732362  0.053923084            3 
 4016000   0.61029458   -3.2624064    2634.5786   0.05466838  0.053911206            8 
 4017000   0.59618858   -3.2674942    2637.1306  0.054707713  0.053899277            4 
 4018000   0.61225464   -3.2567872    2641.9838  0.054794753  0.053887352           21 
 4019000   0.61048302   -3.2309362    2646.1995   0.05486853   0.05387553            9 
 4020000   0.60716582   -3.2413936    2641.8203  0.054764103  0.053863758           11 
 4021000   0.59597668   -3.2589516    2640.6228  0.054725665  0.053851973            5 
 4022000   0.60778424   -3.2650924    2640.4675  0.054708841  0.053840069            8 
 4023000   0.61671608   -3.2472615    2631.3613  0.054506613  0.053828152            6 
 4024000   0.61702674    -3.251862    2645.2669  0.054781041  0.053816291            8 
 4025000   0.59933039   -3.2632118    2638.6298  0.054630017  0.053804444           16 
 4026000   0.60376045    -3.262227    2640.6157  0.054657554  0.053792574            4 
 4027000     0.612927   -3.2505327    2633.3387  0.054493392  0.053780697           13 
 4028000   0.61374174   -3.2269446    2636.6358  0.054548077  0.053768804           12 
 4029000   0.61064061   -3.2681043    2636.6623  0.054535086  0.053756935            8 
 4030000    0.6064391   -3.2596659    2643.0544   0.05465373  0.053744981            4 
 4031000   0.61692113     -3.25874    2640.9951  0.054597601  0.053733126            6 
 4032000   0.61214409   -3.2521719    2640.0558  0.054564645  0.053721259            4 
 4033000     0.603775   -3.2496448    2635.5875  0.054458789  0.053709337            6 
 4034000   0.60777231   -3.2814352    2632.3867  0.054379167  0.053697455            5 
 4035000    0.6102058   -3.2606774    2643.5095  0.054595405  0.053685454            4 
 4036000   0.62566832   -3.2818498    2635.1024  0.054408292  0.053673576           13 
 4037000   0.59345612     -3.26812    2640.5572  0.054507414   0.05366167            7 
 4038000   0.59119025   -3.2510349    2642.2858   0.05452959  0.053649818            6 
 4039000   0.59580699   -3.2353186    2640.6044  0.054481397  0.053637947           13 
 4040000    0.6088003   -3.2623524    2636.5568  0.054384422  0.053626069            5 
 4041000   0.61102824   -3.2597116    2651.0704  0.054670264  0.053614201            9 
 4042000    0.6048877   -3.2641752    2644.2494  0.054516111  0.053602238            4 
 4043000   0.59859415   -3.2665339    2640.0239  0.054415531  0.053590344           12 
 4044000   0.59296097    -3.270649    2640.2344  0.054406412  0.053578485           16 
 4045000   0.59509702   -3.2532945    2638.0538  0.054348039  0.053566567            6 
 4046000   0.61430217   -3.2554265    2644.3442  0.054464167   0.05355469            5 
 4047000   0.61580862   -3.2592536    2643.0548  0.054424158  0.053542896            6 
 4048000   0.59982473   -3.2536316    2649.2031  0.054537283  0.053531108           14 
 4049000   0.59829392   -3.2736771    2644.7201  0.054431549  0.053519282            9 
 4050000   0.60594811   -3.2685472     2644.227  0.054407962  0.053507408            8 
 4051000    0.5877493   -3.2808105    2645.2571  0.054415723  0.053495618           12 
 4052000   0.60855043   -3.2567332    2640.8179  0.054310997  0.053483742           11 
 4053000    0.6053075   -3.2529095    2637.3601  0.054226501  0.053471849           14 
 4054000   0.59820893   -3.2496947    2643.4891  0.054339112  0.053460079            6 
 4055000   0.59066296   -3.2848652    2645.7994   0.05437319  0.053448171            7 
 4056000   0.60220749   -3.2668961    2643.8628  0.054319995  0.053436269            4 
 4057000   0.60569722   -3.2681064    2640.6136  0.054239864  0.053424398            7 
 4058000   0.59991803   -3.2900378    2648.3327  0.054385015  0.053412567            8 
 4059000   0.60643682   -3.2653388    2643.8607  0.054279804  0.053400813            9 
 4060000   0.60479804   -3.2630605    2643.6177  0.054261447  0.053389051           17 
 4061000    0.6084016   -3.2641585    2651.3998  0.054407778  0.053377345            7 
 4062000   0.60341456   -3.2688658    2640.1445  0.054163476  0.053365561           15 
 4063000   0.60979971   -3.2483324    2649.6519  0.054345145  0.053353795            8 
 4064000   0.60402813   -3.2605668    2645.9765  0.054256408  0.053342079           11 
 4065000   0.60725333   -3.2709447    2646.8623  0.054261221  0.053330307            5 
 4066000   0.60950466   -3.2675603    2646.8284   0.05424718  0.053318606            9 
 4067000    0.5883717   -3.2718186    2652.7634  0.054355449  0.053306849            5 
 4068000   0.61101665   -3.2691806    2643.9474  0.054161493  0.053295111            5 
 4069000   0.60045651    -3.289504    2641.0414  0.054088667  0.053283292           21 
 4070000   0.59852432    -3.289238    2644.5451  0.054147114  0.053271442           15 
 4071000   0.60070048    -3.275386    2654.4737  0.054337054  0.053259682            8 
 4072000   0.59727074   -3.2792926    2650.4912  0.054242206  0.053247932            7 
 4073000   0.60122763   -3.2807977    2647.4132  0.054165913  0.053236217           15 
 4074000   0.58827781   -3.2745773    2651.8676  0.054243732  0.053224453            9 
 4075000   0.59651284   -3.2731742     2649.565  0.054183334  0.053212703            3 
 4076000   0.60139747    -3.277345     2653.062  0.054241535  0.053201052            8 
 4077000   0.59745785   -3.2791623    2640.3023  0.053967426  0.053189328            6 
 4078000   0.59183017   -3.2373107     2652.241  0.054198157  0.053177658           11 
 4079000   0.60531171   -3.2672832    2637.1551  0.053876666   0.05316592            6 
 4080000     0.602884   -3.2606706    2654.2674  0.054212979  0.053154232           12 
 4081000   0.59884423   -3.2739207    2653.3098   0.05418014  0.053142538            6 
 4082000   0.58701395    -3.260524    2651.2012  0.054123819  0.053130839            8 
 4083000   0.59445902   -3.2682424    2650.2147  0.054090429  0.053119131            8 
 4084000   0.60224135   -3.2686751    2648.1567  0.054035192  0.053107376            7 
 4085000   0.58611514   -3.2750186    2654.3253  0.054147804   0.05309567            4 
 4086000   0.59672692   -3.2652416    2652.4259  0.054095813  0.053083918           11 
 4087000   0.59802056   -3.2785047     2650.387  0.054041004   0.05307221           14 
 4088000   0.60189937   -3.2818933    2653.3257  0.054087689  0.053060505            9 
 4089000    0.5955858   -3.2622073    2641.8484  0.053840555  0.053048795           18 
 4090000   0.60751888   -3.2714342    2649.3961  0.053981176  0.053037115            9 
 4091000    0.5883967   -3.2804823    2648.3419  0.053946507  0.053025391            7 
 4092000   0.59745035   -3.2653278    2651.7954  0.054003654  0.053013663           23 
 4093000   0.59260559   -3.2959058    2653.7994  0.054031261  0.053001923            9 
 4094000   0.58427022   -3.2593944    2648.9316  0.053918979  0.052990181            9 
 4095000   0.59137407   -3.2647048    2657.8077   0.05408644  0.052978498           19 
 4096000   0.59610233   -3.2776827    2649.7327  0.053908949  0.052966828            5 
 4097000   0.60428812   -3.2687109     2650.737  0.053916218  0.052955103            5 
 4098000   0.58018775   -3.2656183     2654.002  0.053969458   0.05294339           10 
 4099000   0.59971094   -3.2881646    2646.5947  0.053805699  0.052931658           12 
 4100000   0.59574263   -3.2733054    2653.0629  0.053924043   0.05291995            5 
 4101000   0.59713384   -3.2845082    2641.8036  0.053682102  0.052908201           13 
 4102000   0.59817407   -3.2796797    2656.3436  0.053964399  0.052896417            9 
 4103000   0.59118239   -3.2823445    2654.7573  0.053919029  0.052884712            9 
 4104000    0.5908592   -3.3027276    2650.8189   0.05382592  0.052873012            8 
 4105000   0.58263835   -3.2696704    2648.1938  0.053759517  0.052861336           10 
 4106000   0.59503666   -3.2453841    2644.6706  0.053674918  0.052849655            8 
 4107000   0.59659431   -3.2468242    2654.2494  0.053856209  0.052837982            7 
 4108000   0.58630524   -3.2760011    2644.2255  0.053639758  0.052826253            6 
 4109000   0.57886219    -3.282246    2649.5879  0.053735456  0.052814559            8 
 4110000   0.59351799   -3.2839529    2651.5201  0.053761559  0.052802815            8 
 4111000    0.5993772    -3.289839    2653.5414  0.053789455  0.052790995           10 
 4112000   0.59546562   -3.2869522    2654.5421  0.053796654  0.052779259           11 
 4113000   0.58805545   -3.2603644    2655.3259  0.053799455  0.052767567           11 
 4114000   0.59330733   -3.2753427    2653.4466   0.05374831  0.052755886            3 
 4115000   0.59993591    -3.289408     2654.519  0.053756966  0.052744185            8 
 4116000   0.60699342    -3.270316    2648.5313  0.053622679  0.052732469           10 
 4117000   0.58154908   -3.2762082    2654.1995  0.053724384  0.052720718           12 
 4118000   0.58868413   -3.2798476    2650.6469  0.053639447  0.052709017            4 
 4119000   0.58455688   -3.2725675    2656.2283  0.053739345   0.05269731            9 
 4120000   0.58911615   -3.2826939    2647.1556  0.053542791  0.052685566            5 
 4121000   0.59288231    -3.270488    2652.7118  0.053642153  0.052673824            7 
 4122000   0.59286263   -3.2650955    2647.4376  0.053522514  0.052662104           11 
 4123000   0.59023789   -3.2970458     2646.028  0.053481042  0.052650332            6 
 4124000   0.59139663   -3.2919736     2647.717  0.053502203  0.052638456            9 
 4125000   0.60010608   -3.2855429    2649.8619  0.053532563  0.052626701           10 
 4126000   0.59431215   -3.2659289    2650.1967  0.053526351  0.052614876            8 
 4127000   0.60374391   -3.2883621     2648.448  0.053478071  0.052603128            7 
 4128000   0.59275649   -3.2874905     2654.955  0.053596475  0.052591343            7 
 4129000   0.57954629   -3.2780658    2652.0933  0.053525738  0.052579541            6 
 4130000   0.58417694   -3.2842978    2651.5769  0.053502358  0.052567822           10 
 4131000   0.59281936   -3.3114963    2650.2278  0.053462193  0.052556064           11 
 4132000   0.57689057   -3.2919369    2652.8094  0.053501318  0.052544272            7 
 4133000   0.57641924   -3.2866706    2645.4878   0.05334075  0.052532471            9 
 4134000   0.59017852   -3.2683155     2655.355   0.05352675  0.052520759            6 
 4135000   0.60409614    -3.295525    2648.5917  0.053377504  0.052509013            9 
 4136000   0.59264049   -3.2957208    2657.5877  0.053545851  0.052497328           15 
 4137000   0.59747616   -3.2947743    2653.7682  0.053455971  0.052485656            9 
 4138000   0.58801124   -3.2882044    2657.7525  0.053523291   0.05247396            7 
 4139000   0.58327849    -3.286733     2647.438   0.05330269  0.052462308            6 
 4140000   0.60037761   -3.2993443    2650.6064  0.053353592  0.052450675           13 
 4141000   0.57977347   -3.2942472    2660.1491  0.053532744  0.052438937           10 
 4142000    0.5961166   -3.2945069    2653.6812   0.05338969  0.052427221           18 
 4143000   0.58492017   -3.2810067    2655.6164   0.05341573  0.052415579            6 
 4144000   0.58420244   -3.2834024    2650.7906  0.053305796   0.05240393           14 
 4145000   0.58853015   -3.2873543    2655.3745  0.053385093  0.052392259            5 
 4146000   0.58698684   -3.2937892    2650.9346  0.053282976  0.052380625            7 
 4147000   0.59102542   -3.2895671    2658.4948  0.053422047  0.052369016            5 
 4148000    0.5981655   -3.2968704    2658.4697  0.053408665  0.052357478            8 
 4149000   0.59891823   -3.2904828    2661.0114  0.053446842  0.052345849           12 
 4150000   0.57880847   -3.2885368    2659.5387  0.053404392  0.052334241           10 
 4151000   0.60044866   -3.2814991    2658.0678  0.053361997  0.052322672            9 
 4152000   0.58601088   -3.2992774    2656.3433  0.053314534  0.052311104           10 
 4153000   0.57819559   -3.2931616    2667.6896  0.053529369   0.05229953           17 
 4154000   0.58699542    -3.271644    2664.9826  0.053462176  0.052288035            9 
 4155000   0.58451897   -3.2840862    2661.1991  0.053373428  0.052276524           36 
 4156000   0.59541811   -3.2747317    2657.3683  0.053283773  0.052264952            5 
 4157000   0.60388826   -3.2932364    2660.2961  0.053329647  0.052253495            3 
 4158000   0.58711814   -3.2780389    2663.7124  0.053385289  0.052241916            6 
 4159000   0.59327014   -3.2908195    2658.3241  0.053264489   0.05223032           12 
 4160000   0.58386663   -3.2857662    2657.5611    0.0532364  0.052218735           14 
 4161000   0.58378686   -3.2720509    2662.2989  0.053318491   0.05220715           10 
 4162000   0.58575106   -3.2758556    2652.1314  0.053102103  0.052195583            3 
 4163000   0.58451513   -3.2767488    2654.6634  0.053140032  0.052183954            6 
 4164000   0.56782424   -3.2961386    2660.8164  0.053250409  0.052172385            4 
 4165000   0.58171204   -3.2932204    2657.4465  0.053170198  0.052160776            5 
 4166000   0.59696275   -3.2834978    2660.4228   0.05321697  0.052149115            6 
 4167000   0.57885357    -3.268543     2657.162  0.053138988  0.052137522            8 
 4168000   0.58206793   -3.2909608    2653.0448  0.053043922  0.052125936           16 
 4169000   0.57468953   -3.2919182    2660.3177  0.053176576  0.052114284            9 
 4170000   0.58509086   -3.2946355    2657.7956  0.053113422  0.052102585            9 
 4171000    0.5905422   -3.2765659    2654.8763  0.053042363  0.052090933            9 
 4172000   0.58270384   -3.2923351    2656.6573  0.053065222  0.052079261            4 
 4173000   0.59738754   -3.2858855    2655.8434  0.053036254  0.052067667            5 
 4174000   0.58187818   -3.3164255    2649.0193  0.052887305   0.05205604            6 
 4175000   0.58764958   -3.3047038    2655.7842  0.053009665  0.052044312            6 
 4176000   0.58779182   -3.2845117    2652.7346  0.052936115  0.052032718            5 
 4177000   0.58773059   -3.3110697    2647.0614  0.052810258  0.052021042           12 
 4178000   0.58136821   -3.2933426    2669.2455  0.053240097   0.05200933            5 
 4179000   0.57609246   -3.2968261     2655.455   0.05295236   0.05199775            7 
 4180000   0.57956702   -3.2949786    2659.6073  0.053022475  0.051986202           17 
 4181000   0.58002642   -3.3086711    2656.3695  0.052945257  0.051974617            9 
 4182000   0.58438646   -3.3010365    2659.8536  0.053002025  0.051963018            6 
 4183000   0.59106708   -3.2921145    2659.2729  0.052977785   0.05195138           10 
 4184000   0.57687811   -3.2946304    2659.9907   0.05297942   0.05193981           12 
 4185000   0.58264461   -3.3001549    2652.3378  0.052814373  0.051928128           13 
 4186000   0.57714155   -3.3015499    2655.2398  0.052859527  0.051916512           11 
 4187000   0.59070339   -3.2932233    2661.7939  0.052977348  0.051904896            7 
 4188000   0.57489186   -3.2973769    2657.2168  0.052873623  0.051893223            4 
 4189000   0.58495901   -3.2875207      2655.96     0.052836  0.051881609           12 
 4190000   0.58325457   -3.2993252     2652.385  0.052752287  0.051869945           14 
 4191000   0.58281476   -3.2927138    2654.6229  0.052784197  0.051858238            9 
 4192000   0.59380321    -3.322583    2656.8741  0.052816359   0.05184653            7 
 4193000   0.58385575   -3.3015367     2665.869   0.05298253  0.051834899            7 
 4194000   0.57366123    -3.318668    2666.3737  0.052979926  0.051823315           10 
 4195000   0.58137811   -3.2978983    2656.1727  0.052764655  0.051811673           17 
 4196000   0.58124455   -3.3038979    2654.3586   0.05271605  0.051800048            7 
 4197000    0.5844066   -3.2977741    2654.8783  0.052713809   0.05178841           27 
 4198000   0.57557825   -3.3109569    2660.3927  0.052810717  0.051776793           35 
 4199000   0.57400761   -3.2909206    2659.7488  0.052785361  0.051765159            8 
 4200000   0.58313552   -3.3033617    2659.8649  0.052775098  0.051753591           10 
 4201000   0.57065226   -3.2984175    2657.9751  0.052725048  0.051742076           20 
 4202000   0.57517217   -3.3061531    2649.1175  0.052536838  0.051730466            9 
 4203000   0.56970505   -3.2811121    2663.8264  0.052815974  0.051718886            7 
 4204000   0.58859242   -3.2881157    2662.1811  0.052770795  0.051707388            8 
 4205000   0.58043988    -3.304959     2662.617  0.052766884    0.0516958            8 
 4206000    0.5759062   -3.3185806    2657.0618  0.052644274  0.051684251            6 
 4207000   0.58772586   -3.2873076    2660.1822   0.05269357  0.051672655           13 
 4208000   0.58795117   -3.3228873    2656.1244  0.052600689  0.051661058            4 
 4209000   0.57198329   -3.3057042    2661.5102  0.052694824  0.051649475            7 
 4210000   0.57993666   -3.3075091    2662.4796  0.052701496  0.051637947           10 
 4211000   0.57634292   -3.3121845    2662.2809  0.052685048  0.051626386            8 
 4212000   0.57688667   -3.2898963    2667.4159  0.052774136  0.051614905           11 
 4213000   0.57924346   -3.2883648    2657.0891  0.052557344  0.051603416           12 
 4214000   0.56613407   -3.3208799    2660.2369   0.05260712  0.051591863           10 
 4215000   0.58353812   -3.3037049    2661.6374  0.052622329  0.051580227            7 
 4216000   0.57669439   -3.3146637    2658.5135  0.052548101  0.051568644           10 
 4217000   0.57773106   -3.3014985    2658.3646  0.052532696  0.051556988            6 
 4218000   0.57869908   -3.3212435    2666.6004  0.052682955   0.05154541           14 
 4219000   0.58221083   -3.3165223    2664.4606  0.052628202  0.051533855           11 
 4220000   0.57274826    -3.309851    2662.5855  0.052578703  0.051522329            9 
 4221000   0.58849411   -3.2863095    2656.4696  0.052445503   0.05151082           10 
 4222000   0.56629761   -3.3262073    2663.8398  0.052578554  0.051499358            5 
 4223000   0.57508616   -3.2902374    2666.3116  0.052614878   0.05148784            8 
 4224000   0.58858119   -3.2941852    2660.0438  0.052478769  0.051476382           11 
 4225000   0.58231931   -3.3324843    2661.2481  0.052490101  0.051464897            7 
 4226000   0.57251281   -3.3223519    2670.3397  0.052656958  0.051453453            9 
 4227000    0.5732151   -3.3080122    2663.4659  0.052508987  0.051441977           10 
 4228000   0.56958389   -3.2996863    2660.1639  0.052431487  0.051430503           15 
 4229000   0.57508754   -3.3096789    2664.3545  0.052501666  0.051419014           20 
 4230000   0.57917017    -3.310653    2669.8387  0.052597295  0.051407587            9 
 4231000   0.57761368   -3.3017079    2667.2197  0.052533279   0.05139611           17 
 4232000     0.569998   -3.3078728    2658.8117  0.052355303   0.05138467            7 
 4233000   0.57292946   -3.3115133    2658.5949  0.052338667  0.051373175           12 
 4234000   0.57503407   -3.3000015    2664.3622  0.052439816  0.051361723           10 
 4235000   0.57481322   -3.3062065    2663.7884  0.052416142   0.05135029            8 
 4236000    0.5797098   -3.3347315    2664.5587  0.052418924  0.051338762            6 
 4237000   0.56652757   -3.3240045    2665.3923  0.052422947  0.051327312           10 
 4238000   0.58089519   -3.3180614    2669.7096  0.052495469  0.051315877           13 
 4239000   0.58444172   -3.3127916    2667.6053  0.052441719   0.05130447           20 
 4240000   0.57701401   -3.3057846    2664.0519   0.05235951  0.051293017           17 
 4241000   0.57170217   -3.3088461    2661.4782  0.052296593  0.051281602            9 
 4242000   0.57030069   -3.3232782    2660.8375  0.052271678  0.051270205            7 
 4243000   0.58218183   -3.3051995     2667.193  0.052384181  0.051258811           11 
 4244000   0.57368406   -3.2993064    2665.4735  0.052338076  0.051247413            7 
 4245000   0.56643463   -3.3061459    2674.3257  0.052499522  0.051236095           10 
 4246000   0.59215555   -3.3232871    2663.8681  0.052281915  0.051224708            7 
 4247000   0.56367773   -3.3222093    2664.0214  0.052272612  0.051213293            8 
 4248000   0.56793381   -3.3135601    2674.3588  0.052463097  0.051201839            5 
 4249000   0.58058596   -3.3176375    2661.1163  0.052191032   0.05119039           13 
 4250000   0.58648245   -3.3190391    2665.3472   0.05226171  0.051178929            5 
 4251000   0.57650495   -3.3302068    2666.8787  0.052279439  0.051167486            8 
 4252000   0.56748411   -3.3222838    2659.0236  0.052113194  0.051156017           16 
 4253000    0.5679556   -3.3059491    2664.9379  0.052216825  0.051144656            5 
 4254000   0.56386188   -3.3248244    2665.0954  0.052207635  0.051133213           20 
 4255000   0.57891433   -3.3335913    2661.1308   0.05211772  0.051121708           11 
 4256000   0.56723446   -3.3331307    2668.8027  0.052255693  0.051110203           15 
 4257000   0.56752744   -3.3167962    2667.1077  0.052210236  0.051098703           10 
 4258000   0.56343917   -3.3225222    2673.5732   0.05232451  0.051087215            7 
 4259000   0.56893949   -3.3337248    2661.5425  0.052076827  0.051075766           17 
 4260000   0.56553471   -3.3087931    2661.4056  0.052061926  0.051064283           11 
 4261000   0.57146708   -3.3175976    2670.6476  0.052230454  0.051052808            7 
 4262000    0.5549735   -3.3309424    2669.4703  0.052195179  0.051041363           12 
 4263000   0.57514204   -3.3386395    2662.6761  0.052050124  0.051029911           25 
 4264000   0.57595838   -3.3392205    2667.2251  0.052126819   0.05101841           12 
 4265000   0.56420036    -3.326935    2668.7459  0.052144312  0.051006902           18 
 4266000   0.57894755    -3.300943     2668.055  0.052118594  0.050995505           17 
 4267000   0.57116242   -3.3069702    2666.2773  0.052071661  0.050984104            5 
 4268000   0.55833599   -3.3193462    2667.4884  0.052083107  0.050972625            9 
 4269000   0.57097586   -3.3169449    2662.9495  0.051982306  0.050961169           10 
 4270000   0.55736041   -3.3218493     2675.189  0.052208996  0.050949693           15 
 4271000   0.57816888   -3.3398256     2665.644  0.052010536   0.05093824           18 
 4272000    0.5782766   -3.3155821    2660.8136  0.051904135  0.050926806            5 
 4273000   0.57337359   -3.3250426    2666.6674   0.05200615  0.050915392           14 
 4274000   0.56854435   -3.3277483    2666.5067   0.05199085  0.050903917           16 
 4275000   0.57362969   -3.3274575    2660.5431  0.051862438  0.050892433           10 
 4276000   0.57061648   -3.3268886    2658.6044  0.051812528  0.050880956           10 
 4277000   0.56240051   -3.3259223    2668.3219   0.05198975  0.050869465           12 
 4278000   0.56970124   -3.3174866    2670.1769  0.052013731  0.050858041           18 
 4279000   0.57257173   -3.3395429    2664.2756  0.051886648  0.050846576            4 
 4280000   0.56426942    -3.310244    2674.0141  0.052064138  0.050835152           10 
 4281000   0.56519407   -3.3277851    2672.0422  0.052013591  0.050823703            4 
 4282000   0.55688236   -3.3077487    2671.8988  0.051998653  0.050812292            7 
 4283000   0.56222085   -3.3228714    2667.2603  0.051896262  0.050800913            9 
 4284000   0.55753979   -3.3294371    2661.2206  0.051766663  0.050789435            6 
 4285000   0.55774414   -3.3255296    2668.8366  0.051902695  0.050778017           19 
 4286000   0.55375389   -3.3061454    2672.1838  0.051955667  0.050766571           26 
 4287000   0.55751878   -3.3336043    2673.9157  0.051977212  0.050755211            6 
 4288000   0.56206868    -3.329875    2669.5838  0.051880904  0.050743752            9 
 4289000   0.56540372   -3.3159399    2664.6934   0.05177379  0.050732304            7 
 4290000   0.56884498   -3.3259037    2667.9515   0.05182501  0.050720864           12 
 4291000   0.56050869    -3.325384    2666.6509  0.051787673  0.050709399            6 
 4292000   0.55877339   -3.3497533     2672.831  0.051895599  0.050697917           13 
 4293000    0.5613678   -3.3314094    2664.9217   0.05172998  0.050686473           11 
 4294000   0.55807913   -3.3279292    2670.2545  0.051821426  0.050675001            9 
 4295000   0.56115641   -3.3357335    2672.2635  0.051848341  0.050663608            7 
 4296000   0.56768418   -3.3309587       2666.7  0.051728351  0.050652223            5 
 4297000   0.58455938   -3.3185816    2665.8173  0.051699195  0.050640863            9 
 4298000   0.55600771    -3.318225     2672.189  0.051810707  0.050629446            9 
 4299000   0.55694353    -3.325165    2664.0314  0.051640524     0.050618           11 
 4300000   0.57556119   -3.3188086    2669.9651   0.05174351  0.050606621            9 
 4301000   0.56781917   -3.3231684    2675.1484  0.051831908  0.050595269            6 
 4302000   0.56813939   -3.3306272    2668.5401   0.05169185  0.050583886            4 
 4303000   0.56670859   -3.3287274    2667.8955  0.051667354   0.05057252           11 
 4304000   0.56922757   -3.2998282     2674.813  0.051789285  0.050561161           10 
 4305000   0.56635816   -3.3314625    2666.3982  0.051614368  0.050549812            7 
 4306000   0.56513152   -3.3410751    2670.1603  0.051675188   0.05053845           12 
 4307000   0.56439388    -3.318625     2678.644  0.051827335  0.050527176           10 
 4308000   0.57192307   -3.3434545    2675.3777  0.051752122  0.050515831           11 
 4309000   0.56069918   -3.3141722    2678.5125  0.051800738  0.050504518            6 
 4310000   0.56497185    -3.324009    2672.6261  0.051674906  0.050493164            6 
 4311000    0.5508597   -3.3227238    2672.0827  0.051652415  0.050481809           11 
 4312000   0.56367553   -3.3436198    2666.4919  0.051532389  0.050470398           12 
 4313000   0.56626675   -3.3176664    2672.6415   0.05163926  0.050459046            8 
 4314000   0.56982213   -3.3496173    2671.5511  0.051606226  0.050447679           13 
 4315000   0.55366967   -3.3441684    2677.3646  0.051706539  0.050436219            9 
 4316000   0.56151886   -3.3297818    2677.5175  0.051697511  0.050424802            8 
 4317000   0.55325447   -3.3342691    2664.9705  0.051443335  0.050413397            7 
 4318000   0.55742339   -3.3159816    2666.3991  0.051458991  0.050401995           19 
 4319000   0.54834792   -3.3051948    2673.9192  0.051592174  0.050390628            7 
 4320000   0.56350549   -3.3281361    2672.9472  0.051561481  0.050379268            6 
 4321000   0.56500795   -3.3475584    2669.3798  0.051480749  0.050367797            8 
 4322000   0.56093384   -3.3208811    2661.5362  0.051317603  0.050356302           15 
 4323000   0.55871522   -3.3267587    2664.6586  0.051365923   0.05034487            9 
 4324000   0.54759724   -3.3258418    2668.1407  0.051421151  0.050333402           15 
 4325000   0.55486302   -3.3244609    2668.7131  0.051420291   0.05032196           13 
 4326000   0.56653466   -3.3379486    2671.5761  0.051463556   0.05031051           10 
 4327000   0.56261754   -3.3437532    2663.3768  0.051293753  0.050299054           17 
 4328000   0.57096729   -3.3461335    2667.4959  0.051361213  0.050287504            6 
 4329000   0.54975715   -3.3379437    2666.2235  0.051324854  0.050276041           10 
 4330000   0.55367341   -3.3510081    2663.0867  0.051252632  0.050264519           13 
 4331000   0.56482281    -3.336609    2672.5108  0.051422127  0.050253069           10 
 4332000   0.55296345   -3.3462718    2676.1313  0.051479904  0.050241615           11 
 4333000   0.55719318   -3.3313987    2667.0668  0.051293692  0.050230183           16 
 4334000   0.54586312   -3.3543005    2668.9754  0.051318555    0.0502187           10 
 4335000   0.55271846   -3.3219666    2671.1027  0.051347611  0.050207221            5 
 4336000   0.55702057   -3.3302101    2668.4302  0.051284406  0.050195753            9 
 4337000   0.54766858   -3.3368331     2666.595  0.051237318  0.050184306           14 
 4338000   0.55200873   -3.3309646    2668.8678  0.051269168  0.050172858           14 
 4339000   0.55821583   -3.3324569     2661.962  0.051124722  0.050161461            9 
 4340000   0.56144909   -3.3296085    2669.5751  0.051259122  0.050150046           11 
 4341000   0.56438714   -3.3334498    2674.6063  0.051343897  0.050138639           11 
 4342000   0.56453797   -3.3347375    2667.1788  0.051189522  0.050127203           14 
 4343000   0.55571439   -3.3199484    2670.9451  0.051250001  0.050115767            7 
 4344000   0.57272079   -3.3385913    2675.5368  0.051326289  0.050104337            5 
 4345000   0.55420658   -3.3342182    2669.6941  0.051202419  0.050092939           10 
 4346000   0.55292488   -3.3395638    2663.2072  0.051066252  0.050081547           10 
 4347000   0.55922222    -3.348853    2665.6354  0.051101054  0.050070095           18 
 4348000    0.5541395   -3.3498667    2673.9815  0.051249262   0.05005868            7 
 4349000   0.55912759   -3.3541537    2670.1066   0.05116323  0.050047218           10 
 4350000   0.55264408   -3.3410352     2673.898  0.051224099  0.050035767           13 
 4351000   0.54689844   -3.3368943    2669.0649  0.051119759  0.050024362           10 
 4352000   0.54110677   -3.3139743    2673.5123  0.051193174  0.050012934           16 
 4353000   0.55796907   -3.3374273    2676.0176  0.051229374  0.050001511            8 
 4354000   0.55300015   -3.3509605    2670.4198   0.05111047  0.049990182            9 
 4355000   0.55319901   -3.3347441    2675.2245  0.051190671  0.049978813           12 
 4356000   0.55026944   -3.3511195    2677.1541  0.051215834  0.049967415            7 
 4357000   0.55366946   -3.3525098    2672.0766  0.051106966  0.049956048           10 
 4358000   0.54908588   -3.3409515    2673.6347  0.051125032  0.049944649            9 
 4359000   0.54932963   -3.3417594    2662.2152  0.050894991   0.04993324            9 
 4360000   0.55587603   -3.3516852    2674.8244   0.05112432  0.049921824           12 
 4361000   0.54212631   -3.3437523    2676.2147  0.051139163  0.049910431            8 
 4362000   0.55124256   -3.3365446    2663.5744  0.050885954  0.049899007            9 
 4363000   0.56112897    -3.357413    2673.1417  0.051057026  0.049887632           13 
 4364000   0.55744387   -3.3316275    2674.5895  0.051072974  0.049876235            8 
 4365000   0.56574101   -3.3416268    2663.4694  0.050848976  0.049864933            6 
 4366000   0.54916114    -3.339196    2667.4572  0.050913445  0.049853551            9 
 4367000   0.54189301   -3.3457525    2669.3438  0.050937786  0.049842218           25 
 4368000   0.54423557   -3.3458578    2670.4612  0.050947444  0.049830876            7 
 4369000   0.54763557   -3.3457109    2664.1151  0.050814738  0.049819503           10 
 4370000   0.55517914   -3.3517139    2665.6587  0.050832546  0.049808105           16 
 4371000   0.55091816   -3.3394522    2664.2102  0.050793301  0.049796733            5 
 4372000   0.54652751   -3.3474712    2671.9546  0.050929296  0.049785353           11 
 4373000   0.55509295   -3.3588648    2674.6922  0.050969819  0.049774003            6 
 4374000   0.55260517   -3.3466919    2670.4611  0.050877554  0.049762615           11 
 4375000   0.55513205   -3.3421851    2668.7799  0.050833904  0.049751216           17 
 4376000   0.55531857   -3.3367814    2666.8259  0.050785076  0.049739862           12 
 4377000   0.54432904   -3.3337304    2673.6824  0.050904014  0.049728532            8 
 4378000   0.55065532   -3.3162828    2671.8259  0.050857048  0.049717255           14 
 4379000   0.54965135   -3.3400533    2674.0947  0.050888611   0.04970591           13 
 4380000   0.54806693   -3.3613743    2674.5589  0.050885825  0.049694532            6 
 4381000   0.54737727   -3.3415911    2667.0031  0.050730487   0.04968319            9 
 4382000   0.55391715   -3.3634577    2667.7926  0.050733923   0.04967176           17 
 4383000   0.56357837   -3.3701891    2665.6607  0.050681814  0.049660354           14 
 4384000   0.55373703   -3.3576611    2663.7659  0.050634237  0.049648946            3 
 4385000    0.5445985   -3.3538768    2671.5872  0.050771326  0.049637582            7 
 4386000   0.54432174   -3.3374373    2671.9767   0.05076715  0.049626201            6 
 4387000   0.53931046   -3.3524717    2675.3159  0.050819008  0.049614859           15 
 4388000    0.5446348   -3.3573773    2669.2039  0.050691354  0.049603514            9 
 4389000   0.55335875   -3.3355238    2664.2288  0.050585343  0.049592172           14 
 4390000   0.54379607   -3.3403462    2671.0482  0.050703268  0.049580746            8 
 4391000    0.5495764    -3.350721    2673.8312  0.050744539  0.049569355           11 
 4392000   0.55519779   -3.3560803    2672.3817  0.050705481  0.049557963           13 
 4393000   0.55722557   -3.3777035    2668.5452  0.050621163  0.049546601           21 
 4394000   0.54894401   -3.3655277     2673.604  0.050705584  0.049535208            9 
 4395000   0.56053305   -3.3758173    2668.4628  0.050596565  0.049523878           13 
 4396000   0.54928749   -3.3556505    2679.1972  0.050788544  0.049512528           18 
 4397000   0.54312697     -3.35121    2673.5055   0.05066912  0.049501225            5 
 4398000   0.55147241   -3.3733165    2666.3872  0.050522722   0.04948978           10 
 4399000   0.54205304   -3.3565379     2673.493  0.050645848  0.049478406           19 
 4400000   0.55845503   -3.3678267    2672.5754  0.050616959  0.049467055            6 
 4401000   0.55895936    -3.356754    2674.8673  0.050648855  0.049455691           17 
 4402000    0.5412448   -3.3529942    2675.1335  0.050642389   0.04944432           14 
 4403000   0.54943634   -3.3526371    2669.4492  0.050523303  0.049432899            8 
 4404000   0.55030777   -3.3504217    2668.7186  0.050498005  0.049421517           11 
 4405000   0.54219988   -3.3310799    2677.4929  0.050652533  0.049410109            8 
 4406000   0.54959613   -3.3344153    2675.3604  0.050600704  0.049398813           11 
 4407000    0.5534264   -3.3504518    2669.5676  0.050479684  0.049387547           13 
 4408000   0.54135733   -3.3642417    2673.4964  0.050542506  0.049376187            8 
 4409000   0.54563815   -3.3544828    2681.1459  0.050675625  0.049364857            7 
 4410000   0.55245549   -3.3694444    2669.8078  0.050449882  0.049353466            5 
 4411000   0.54734005   -3.3613969    2668.0401  0.050405049   0.04934207            7 
 4412000   0.54682242   -3.3612523    2674.4114  0.050513965    0.0493307            8 
 4413000   0.54676669    -3.342341    2666.7545  0.050357928  0.049319315           10 
 4414000   0.54413952   -3.3584277    2667.0444  0.050351994  0.049307936           13 
 4415000   0.53143806   -3.3326663     2669.368  0.050384446  0.049296539            8 
 4416000   0.53726152   -3.3521944     2677.398  0.050524569  0.049285198           11 
 4417000   0.55201958   -3.3363897     2675.138  0.050470493  0.049273867            7 
 4418000   0.54578234   -3.3461746    2668.5069  0.050333991  0.049262522           13 
 4419000   0.53436402   -3.3585103    2671.3244  0.050375734  0.049251149           12 
 4420000   0.53711025   -3.3560621    2666.9094  0.050281098  0.049239796           14 
 4421000   0.55130736   -3.3583856    2672.1212  0.050367964  0.049228437            7 
 4422000   0.53492293   -3.3520222    2672.1698  0.050357489  0.049217111            9 
 4423000   0.54557184   -3.3493061     2675.784  0.050414198  0.049205737           26 
 4424000   0.55756504   -3.3585522    2671.3259  0.050318828  0.049194405           14 
 4425000   0.54649059   -3.3655065    2680.5828  0.050481785  0.049183041           12 
 4426000   0.54508327   -3.3721292    2668.6255  0.050245245  0.049171705            3 
 4427000   0.54678073     -3.37839     2670.403  0.050267356   0.04916033            9 
 4428000   0.54373611   -3.3724305    2675.8593   0.05035869  0.049148952            8 
 4429000   0.54246918   -3.3656313    2671.8951  0.050272731  0.049137517            7 
 4430000    0.5411157   -3.3565045    2671.6893  0.050257511  0.049126139           16 
 4431000   0.54417424   -3.3721156    2674.5729  0.050300401  0.049114757            7 
 4432000   0.55345565   -3.3663432    2675.0192  0.050297443  0.049103403            4 
 4433000    0.5432324   -3.3811263    2674.2388  0.050271426  0.049091984            5 
 4434000   0.53893563   -3.3621993    2675.3093  0.050280207  0.049080593           16 
 4435000   0.53925756   -3.3640111    2667.6517  0.050124985  0.049069245           16 
 4436000   0.53679325   -3.3668005    2670.4876   0.05016696  0.049057889            9 
 4437000   0.54766469   -3.3672139    2673.4432  0.050211163  0.049046605            9 
 4438000   0.56475096   -3.3575896    2667.8004  0.050093894  0.049035209           11 
 4439000   0.54465891   -3.3680467    2668.5303  0.050096312  0.049023884           12 
 4440000   0.53317357   -3.3706805    2665.9449  0.050036503  0.049012519            6 
 4441000   0.53287919   -3.3880224    2674.9355  0.050193941  0.049001195            8 
 4442000   0.53726061   -3.3788156     2673.341  0.050152728   0.04898984           14 
 4443000   0.54631784   -3.3546428    2672.0758   0.05011771  0.048978499            5 
 4444000   0.54131524   -3.3761156    2668.9697  0.050048186  0.048967226           13 
 4445000   0.54249318   -3.3629133    2674.3607  0.050137996  0.048955873            4 
 4446000   0.53422512   -3.3558576    2671.6596  0.050076092   0.04894463            7 
 4447000   0.53720042   -3.3631141    2678.4479  0.050192038  0.048933372           13 
 4448000   0.53176967   -3.3597908    2674.9099  0.050114468  0.048922042           10 
 4449000   0.53135793   -3.3754908    2666.6341  0.049948192  0.048910738           34 
 4450000   0.53499491   -3.3835213    2668.6746  0.049975181  0.048899404           17 
 4451000   0.53503466   -3.3784388    2678.8765  0.050154956  0.048888105           19 
 4452000   0.54164031   -3.3735157    2667.8224  0.049936778  0.048876777           25 
 4453000   0.53927652   -3.3633388    2671.1975  0.049988726  0.048865431           13 
 4454000   0.53679268   -3.3830553    2669.5745  0.049947136  0.048854084           22 
 4455000    0.5336601   -3.3886565    2665.7325  0.049864057  0.048842741            6 
 4456000   0.54739466   -3.3642623     2675.002   0.05002622  0.048831409           12 
 4457000   0.54159641   -3.3752307    2677.2796   0.05005758  0.048820122           16 
 4458000   0.53091007   -3.3631407    2674.5373   0.04999509  0.048808769            4 
 4459000   0.55195263   -3.3797235    2666.3692  0.049831224  0.048797434           16 
 4460000   0.53281972   -3.3854845    2676.9753  0.050018224  0.048786068           11 
 4461000   0.53677924   -3.3637754    2675.2521  0.049974821  0.048774769           12 
 4462000   0.53007188   -3.3734517    2674.1278  0.049942623  0.048763475            8 
 4463000    0.5477991   -3.3781685    2675.1846  0.049951166  0.048752197           26 
 4464000   0.53520229   -3.3793442    2677.4103  0.049981524  0.048740955           29 
 4465000   0.54317833   -3.3760603    2679.8376  0.050015633  0.048729688           14 
 4466000   0.55335685   -3.3978909    2678.4782  0.049979067   0.04871839           17 
 4467000   0.54189404   -3.3804371    2680.8178  0.050011526  0.048707083           10 
 4468000   0.54819551    -3.376203    2678.8438  0.049963514  0.048695799           28 
 4469000   0.55153611   -3.3787789    2675.0612  0.049881801   0.04868457           17 
 4470000   0.54063458   -3.3860133    2673.6181  0.049843738  0.048673327            8 
 4471000    0.5371013   -3.3828805     2675.512  0.049867889  0.048662115           17 
 4472000   0.53388711   -3.3924988    2675.1062  0.049849176  0.048650924           12 
 4473000   0.53957254   -3.3874061    2677.6382  0.049885205  0.048639738           14 
 4474000   0.52737517   -3.3858814    2678.7526  0.049894811  0.048628541           21 
 4475000   0.53811596   -3.3641663    2680.7623  0.049921085  0.048617389           12 
 4476000   0.52950334     -3.37859    2679.1585  0.049880073  0.048606184           19 
 4477000    0.5318973   -3.3611389    2672.7715  0.049750047  0.048595009           12 
 4478000   0.52705455   -3.3863649    2684.3723  0.049954822  0.048583829            5 
 4479000   0.53261082   -3.3857401    2674.7452  0.049764554  0.048572633           16 
 4480000   0.52937686   -3.3747794    2675.1668  0.049761287  0.048561413           11 
 4481000   0.54103247   -3.3915824     2674.308   0.04973421  0.048550168           18 
 4482000   0.51917508   -3.3694905    2678.1588  0.049794712  0.048538936            6 
 4483000   0.54333176   -3.3743325     2680.383   0.04982495  0.048527726            5 
 4484000   0.54500976    -3.395153     2672.709   0.04967122  0.048516484           12 
 4485000   0.53144586   -3.3721703    2670.5151  0.049619382  0.048505305           19 
 4486000   0.53938225   -3.3760336    2674.5665   0.04968358  0.048494042            8 
 4487000   0.54248468   -3.3580438    2680.5639  0.049783892  0.048482844           10 
 4488000   0.52919318   -3.3693692    2677.3622   0.04971335  0.048471657           11 
 4489000   0.52712344   -3.3855473    2676.0846  0.049678559  0.048460406           14 
 4490000   0.53518365   -3.3761928    2677.1798  0.049687821  0.048449144           14 
 4491000   0.53139687   -3.3618423    2677.2122  0.049677359  0.048437881            7 
 4492000    0.5399385   -3.3896639    2669.1435  0.049516612  0.048426635            7 
 4493000   0.53831163   -3.3834555    2670.0493  0.049522393  0.048415423           11 
 4494000   0.52614111   -3.3853091    2667.2109  0.049458739  0.048404159           34 
 4495000   0.53212068   -3.3862901    2673.3481  0.049561515   0.04839289           13 
 4496000   0.52558786   -3.3959732    2673.6961   0.04955694  0.048381608           24 
 4497000   0.53358798    -3.372672    2678.2448  0.049630212  0.048370299           13 
 4498000   0.53022122   -3.3596082    2671.1427  0.049487599  0.048359061           20 
 4499000   0.52943704   -3.3849976    2673.9344  0.049528311  0.048347849           22 
 4500000   0.53784051   -3.3780675    2673.0211  0.049500391  0.048336581           18 
 4501000   0.52415434   -3.3905068    2675.0395  0.049526763  0.048325331           10 
 4502000    0.5455804   -3.3833273    2672.5825  0.049470281  0.048314075           13 
 4503000   0.52453419   -3.3888212    2677.2694  0.049546031  0.048302848           27 
 4504000   0.53926057   -3.3832421    2669.1248  0.049384339  0.048291599           12 
 4505000   0.54594777   -3.3632266    2674.1106  0.049465605  0.048280416            7 
 4506000    0.5320049   -3.3835306     2674.887  0.049468985   0.04826919           13 
 4507000   0.52700794   -3.3637945    2675.5708  0.049470653  0.048258052            6 
 4508000   0.53282806    -3.373724    2681.6308  0.049571702   0.04824689           10 
 4509000   0.53601954    -3.388222    2675.6125  0.049449481  0.048235726           19 
 4510000   0.52664723   -3.3952016    2675.4396  0.049435322  0.048224498           21 
 4511000   0.53088516   -3.3955142    2675.2358  0.049420598  0.048213286           22 
 4512000   0.51656847      -3.3706     2674.329  0.049392896  0.048202143           14 
 4513000   0.52998239   -3.4037976    2677.6032  0.049442411  0.048190959           17 
 4514000    0.5209805   -3.3877218    2674.9483  0.049382446  0.048179763           12 
 4515000   0.52841853   -3.3966332    2674.0476  0.049354883  0.048168588           20 
 4516000   0.53555658   -3.4032399    2674.5601  0.049353411  0.048157375           10 
 4517000   0.53448951   -3.3870051    2678.5542  0.049416173  0.048146174            9 
 4518000   0.51877398   -3.3851729    2675.9182  0.049356614  0.048135063           12 
 4519000   0.53386751   -3.3913983    2684.1616  0.049497706  0.048123878            5 
 4520000   0.52393767   -3.3775398    2682.8202  0.049462025  0.048112755            6 
 4521000    0.5372854   -3.3986571    2677.0826  0.049345325  0.048101609           12 
 4522000   0.52946125   -3.3824618    2678.5686  0.049361797  0.048090468            7 
 4523000    0.5359051   -3.3954314     2679.449  0.049367105  0.048079376           12 
 4524000   0.52688663   -3.3956383    2671.9394  0.049217864  0.048068235           31 
 4525000   0.52585226   -3.3936539    2674.4051  0.049252395   0.04805713           14 
 4526000   0.53722623   -3.3995728    2676.3311  0.049276976  0.048046001           13 
 4527000   0.52170629   -3.3914736    2679.5857  0.049326001  0.048034862           16 
 4528000   0.52738709   -3.3982302    2676.0226  0.049249532  0.048023739           21 
 4529000   0.53175362   -3.3821431    2672.7425  0.049178305  0.048012633            6 
 4530000   0.51779996   -3.3979158    2679.6219  0.049294002  0.048001516           13 
 4531000   0.52914564   -3.3990712    2679.8541  0.049287392  0.047990412            7 
 4532000   0.52519382   -3.4051851    2679.2464  0.049265342  0.047979295           18 
 4533000   0.53124259   -3.3970067    2678.6686  0.049243853  0.047968132            5 
 4534000   0.51761157   -3.4014437     2676.377  0.049190873  0.047956987           12 
 4535000    0.5272508   -3.3802748    2681.4701  0.049273615  0.047945907           16 
 4536000   0.53570439   -3.3953226    2678.6555  0.049211043  0.047934842           17 
 4537000   0.52701295   -3.3951362    2683.9218  0.049296925  0.047923807           10 
 4538000    0.5317953   -3.4014187    2681.4208  0.049240135  0.047912795           11 
 4539000   0.53509187    -3.375694     2683.687  0.049270892  0.047901753           16 
 4540000   0.51982036   -3.3865008    2684.7686  0.049279894  0.047890726           18 
 4541000    0.5295033   -3.3977677    2678.6624  0.049156985  0.047879675           11 
 4542000   0.52088678   -3.3979986    2679.5118  0.049161746  0.047868613           22 
 4543000   0.51525798   -3.3848359    2679.4795  0.049150331  0.047857545            8 
 4544000   0.51835061   -3.4031197    2680.5227  0.049158648  0.047846478            7 
 4545000   0.52752825   -3.4060537    2682.5879  0.049185696  0.047835337           15 
 4546000   0.52340246   -3.4018882    2683.4164  0.049190065  0.047824221           13 
 4547000   0.53284441    -3.391432    2687.3452   0.04925125  0.047813109           15 
 4548000   0.52281245   -3.3830122    2678.7478  0.049082889  0.047802086           34 
 4549000   0.52597786   -3.4034868    2685.0387  0.049187343  0.047791008           10 
 4550000   0.53942544   -3.4058839    2677.7376  0.049042812  0.047779931            8 
 4551000   0.52095078   -3.3986743    2687.2024  0.049205347  0.047768854            5 
 4552000   0.52624567   -3.4013581    2681.9477  0.049098339   0.04775778           13 
 4553000   0.53084832   -3.4066424    2677.1152  0.048999107  0.047746749            7 
 4554000   0.52383512     -3.40123    2677.6746  0.048998584  0.047735671           22 
 4555000   0.53130754    -3.397493     2682.672  0.049079253  0.047724622           11 
 4556000   0.53229807   -3.4136101    2676.2581  0.048951164  0.047713541           11 
 4557000   0.52888596   -3.3987955    2678.5196  0.048981778   0.04770242           14 
 4558000   0.51414333   -3.4039629    2676.2788  0.048930064  0.047691286           20 
 4559000   0.52665536   -3.3909249    2674.1369   0.04888018  0.047680209           10 
 4560000   0.51953915   -3.3879857    2682.9139  0.049029859  0.047669083            8 
 4561000   0.52961462   -3.3880747    2683.6241  0.049032085  0.047658058            5 
 4562000   0.51902795   -3.3835236    2675.3261  0.048869759  0.047646995           36 
 4563000   0.51561624   -3.3899938    2670.5871  0.048772501  0.047635921           12 
 4564000   0.52446645   -3.3999558    2670.4118  0.048758615  0.047624815           10 
 4565000   0.53028065   -3.4005801    2676.9482  0.048867254  0.047613716            8 
 4566000   0.52172915   -3.4079602    2681.9032  0.048946986  0.047602587           16 
 4567000   0.51153689   -3.4038149    2676.7399  0.048842054  0.047591479           16 
 4568000   0.52067784   -3.3942667    2688.5456  0.049046731   0.04758036           11 
 4569000    0.5202443   -3.4090027    2678.0845  0.048845198  0.047569258            6 
 4570000   0.50935003   -3.3955135     2677.133   0.04881716  0.047558188           18 
 4571000   0.52771933    -3.418605    2672.7197  0.048726021  0.047547088           14 
 4572000   0.50137459   -3.3929593    2679.5864  0.048840523  0.047535979           18 
 4573000   0.51814564   -3.3932612    2685.9052  0.048944989   0.04752493           19 
 4574000   0.51289126   -3.3908147    2672.4886  0.048689851  0.047513883           10 
 4575000   0.52460723   -3.4179112    2674.1852  0.048710113  0.047502728           14 
 4576000   0.51679818   -3.4082174    2676.1436  0.048735132  0.047491579           17 
 4577000   0.52285312   -3.4022525    2678.8072  0.048772981  0.047480422           15 
 4578000   0.51333965   -3.4060662    2675.6529   0.04870491   0.04746931           16 
 4579000   0.51118673   -3.4367206    2674.0969  0.048665955  0.047458138           26 
 4580000   0.51792124   -3.3994042    2673.0457  0.048636202  0.047446972           12 
 4581000   0.51385199   -3.4047241    2680.6475  0.048763871    0.0474358            8 
 4582000   0.52144837   -3.4133929    2673.6937  0.048626759  0.047424671           20 
 4583000   0.52600133   -3.3829699    2679.3276  0.048718591  0.047413571            7 
 4584000    0.5393678   -3.4137882     2674.037  0.048611784  0.047402479            9 
 4585000   0.52387368   -3.4059638    2673.1858  0.048585711  0.047391377            6 
 4586000   0.52039542   -3.4040341     2680.669  0.048711096  0.047380228           13 
 4587000   0.51970043   -3.3910889    2671.8183  0.048539683  0.047369128            9 
 4588000   0.52662078   -3.3980306    2679.4592  0.048667888  0.047358014            8 
 4589000   0.52844741   -3.4014072    2674.9025  0.048574535  0.047346895           13 
 4590000   0.51753897   -3.4092573    2671.8278   0.04850813  0.047335775           22 
 4591000   0.52319345   -3.4104163    2675.3034  0.048560652  0.047324639           32 
 4592000   0.51836158   -3.4105828    2681.9532  0.048670753  0.047313502           17 
 4593000   0.52930748   -3.4156533    2678.1145   0.04859051  0.047302384           10 
 4594000   0.51679361   -3.4045514    2680.9772  0.048631861  0.047291272           14 
 4595000   0.51587866   -3.4008937    2683.8154  0.048672749  0.047280183            5 
 4596000   0.51992054   -3.4159841    2676.1853  0.048523812  0.047269118           28 
 4597000   0.50145591   -3.4150839    2675.5593   0.04850191  0.047257994           13 
 4598000   0.51817907   -3.4104521     2679.941  0.048570774  0.047246924            8 
 4599000   0.51385974   -3.3980325    2676.8415   0.04850405  0.047235881            8 
 4600000   0.51684251   -3.4208144    2684.8201  0.048638045  0.047224786           12 
 4601000   0.52063982   -3.4201375    2681.6445  0.048569957  0.047213674           11 
 4602000   0.51349744    -3.392035    2679.4851  0.048520301   0.04720258           14 
 4603000    0.5124598   -3.4198927    2680.5175   0.04852845  0.047191471           24 
 4604000   0.51641084   -3.4150333     2678.118  0.048474479  0.047180354            8 
 4605000   0.50656987    -3.414305    2677.6243  0.048455018  0.047169242           17 
 4606000   0.51092069   -3.4131364    2674.7764  0.048392972  0.047158129            7 
 4607000   0.51950356   -3.4041275    2673.9347  0.048367244  0.047147027           13 
 4608000   0.51324812    -3.420403    2684.1604  0.048541674  0.047135957           39 
 4609000   0.51073472   -3.4021717    2679.6056  0.048448789   0.04712488           17 
 4610000   0.51313538   -3.4041596    2676.3307   0.04837908  0.047113764           14 
 4611000   0.51410738   -3.3868259    2677.8406  0.048395876  0.047102686            9 
 4612000     0.497302   -3.4080596    2677.0692  0.048371445  0.047091682           50 
 4613000   0.52812243   -3.4214462    2669.2802  0.048220251    0.0470806           24 
 4614000   0.51110122   -3.4208085    2672.6499   0.04827066  0.047069534           13 
 4615000   0.50691402   -3.4039665    2676.2951  0.048326022   0.04705847           29 
 4616000   0.50683283   -3.4333038    2674.7318  0.048287331  0.047047402            7 
 4617000   0.50465171   -3.4194045    2665.8755  0.048117022  0.047036299            4 
 4618000   0.50722571   -3.4080891    2676.0168  0.048289606   0.04702523           18 
 4619000   0.52165263   -3.4174631      2674.95  0.048259906  0.047014172           15 
 4620000   0.51348067   -3.4349361     2676.743    0.0482818  0.047003048           18 
 4621000   0.50079962    -3.429457     2676.654  0.048269747  0.046991906           15 
 4622000   0.51583117   -3.4248755    2675.9664  0.048246906  0.046980781           10 
 4623000   0.52393953   -3.4200938    2675.1486  0.048221729  0.046969671           13 
 4624000   0.51170329   -3.4190672    2672.0042  0.048154631  0.046958604           18 
 4625000   0.51200536   -3.4232568    2673.8759  0.048177945  0.046947488           11 
 4626000   0.51057996    -3.415926    2676.4066  0.048213117  0.046936426           24 
 4627000   0.51847461   -3.4161741     2670.962   0.04810464  0.046925343           11 
 4628000     0.516736   -3.4062495    2683.0229  0.048311417  0.046914294           11 
 4629000   0.52353401   -3.4435254    2677.0813  0.048194017  0.046903223           26 
 4630000   0.50681634   -3.4240067     2685.814  0.048340784  0.046892135            7 
 4631000   0.51039883   -3.4199378    2674.2939  0.048123045  0.046881081           15 
 4632000   0.50518409   -3.4112176    2680.2385  0.048219605  0.046870033            9 
 4633000   0.51233425   -3.4257174    2681.5973  0.048233638  0.046859036           10 
 4634000   0.51519413   -3.4187208    2677.7729  0.048154455  0.046848029            8 
 4635000   0.50761546     -3.42755    2680.1355  0.048186543  0.046837008           19 
 4636000   0.51223319    -3.428344    2675.8478  0.048099077  0.046825962           16 
 4637000   0.51195858   -3.4432072    2678.4354  0.048135206  0.046814914           18 
 4638000   0.51389619   -3.4337717    2673.6465  0.048038782  0.046803827           10 
 4639000   0.50903581   -3.4158608    2678.1253  0.048108883  0.046792808           11 
 4640000   0.51360254   -3.4243087    2682.0827  0.048169588  0.046781736           11 
 4641000   0.51019148   -3.4058738    2673.8576   0.04801152    0.0467707           10 
 4642000   0.50930931   -3.3937951    2680.9238   0.04812803  0.046759692            8 
 4643000   0.50962349    -3.410912    2675.5991  0.048022096  0.046748695           17 
 4644000   0.51290336   -3.4227638    2674.4502  0.047991139  0.046737619           59 
 4645000   0.50996154    -3.437678    2676.9132  0.048024995   0.04672658           18 
 4646000   0.50236223   -3.4143228    2674.1775  0.047965589  0.046715535            7 
 4647000    0.5154092   -3.4127102    2680.5458  0.048069469  0.046704531           10 
 4648000   0.50679019   -3.4197207    2682.0466  0.048086033  0.046693522           17 
 4649000   0.50951089   -3.4332045    2677.9905  0.048002985  0.046682468           13 
 4650000   0.51611321   -3.4238451    2678.9037  0.048009027  0.046671391           16 
 4651000   0.51392177   -3.4172263    2673.5708  0.047903154  0.046660333           17 
 4652000   0.50370545   -3.4321344    2673.3547  0.047888986  0.046649278           13 
 4653000   0.50849489   -3.4295782    2673.7558  0.047885877  0.046638204           29 
 4654000   0.52049621   -3.4378873    2672.1646  0.047847095  0.046627076           12 
 4655000   0.51006671   -3.4428814    2671.2744   0.04782088  0.046615958           18 
 4656000   0.52069605   -3.4326306    2674.3052  0.047864856  0.046604847           21 
 4657000     0.515011   -3.4338747     2679.748  0.047951972  0.046593799           10 
 4658000   0.50112229   -3.4460753    2678.2285  0.047914493  0.046582721           10 
 4659000   0.51648915   -3.4191837    2679.0268  0.047918488   0.04657164            8 
 4660000     0.508567   -3.4165822    2671.2259  0.047768704  0.046560555           18 
 4661000   0.51203148   -3.4284395     2662.432   0.04760123  0.046549446           15 
 4662000   0.49721531   -3.4182444    2677.1185   0.04785354  0.046538336           18 
 4663000   0.50989549   -3.4401205    2668.5563  0.047690262  0.046527214           20 
 4664000   0.50512475   -3.4149964     2670.797  0.047720072  0.046516117           12 
 4665000   0.51051413   -3.4358774    2672.4734   0.04773979  0.046504994           14 
 4666000   0.50117356   -3.4175744    2675.9875  0.047792318  0.046493901           16 
 4667000   0.50870776   -3.4438862    2680.3948  0.047860774  0.046482821           20 
 4668000   0.50479782   -3.4381806    2672.1776  0.047703827  0.046471666           10 
 4669000   0.51203966   -3.4409541    2671.6053  0.047683395  0.046460515           11 
 4670000   0.49580883   -3.4423218    2677.0784  0.047770849   0.04644942           11 
 4671000   0.50681737   -3.4168462      2671.79  0.047666274  0.046438381            9 
 4672000   0.50935463   -3.4430878     2673.497  0.047686519  0.046427307            7 
 4673000   0.49565095   -3.4352292     2670.774  0.047627755  0.046416215            9 
 4674000   0.52474785   -3.4276063    2677.3361  0.047734562   0.04640514            9 
 4675000   0.50292955   -3.4295588    2669.4958  0.047584596  0.046394021           15 
 4676000   0.50185454   -3.4483539    2677.2931  0.047713378  0.046382951            7 
 4677000   0.49540038   -3.4336453     2677.453  0.047706027   0.04637187           19 
 4678000    0.5066164   -3.4244774    2680.9334  0.047757827  0.046360801           14 
 4679000   0.49595139    -3.423466    2673.7274  0.047619281  0.046349783           23 
 4680000   0.50525239   -3.4523444    2680.5106   0.04772989  0.046338725           17 
 4681000   0.51212041   -3.4525855    2672.3364  0.047574172  0.046327658           12 
 4682000   0.50316485   -3.4244818    2673.3428  0.047581923  0.046316594           14 
 4683000   0.49144791   -3.4311578    2671.4474  0.047538035  0.046305538            8 
 4684000   0.50799795   -3.4380419    2671.3188  0.047525597  0.046294514           14 
 4685000   0.50568061   -3.4373668    2677.5959  0.047627106  0.046283534           14 
 4686000   0.49122719   -3.4254193    2672.7831  0.047531354  0.046272559           15 
 4687000   0.49234072   -3.4319621    2674.3498  0.047549068  0.046261552           36 
 4688000   0.51368036   -3.4324848    2673.8366  0.047529803  0.046250546            8 
 4689000   0.49486641   -3.4316412    2672.0269  0.047487505  0.046239532           10 
 4690000    0.5127584    -3.443089    2674.7814  0.047526322  0.046228511            8 
 4691000   0.49812403   -3.4171605    2679.4371  0.047598896  0.046217496           15 
 4692000   0.50412107   -3.4268706    2671.0537  0.047439856  0.046206528           23 
 4693000   0.49448936   -3.4237822    2681.3148  0.047611953  0.046195555           12 
 4694000    0.4989919   -3.4430316    2673.3028  0.047459572  0.046184552            9 
 4695000   0.48895841   -3.4427309    2678.8469  0.047547868  0.046173546           10 
 4696000   0.48329874   -3.4539824    2671.2838  0.047403531  0.046162514           19 
 4697000    0.5032719    -3.436499    2681.8453   0.04758082  0.046151516           46 
 4698000   0.51456038   -3.4522919    2679.6899  0.047532459  0.046140566           14 
 4699000   0.49785862   -3.4421314    2673.6133  0.047414579  0.046129616            6 
 4700000   0.49522937   -3.4361869    2678.8686   0.04749767  0.046118642           12 
 4701000   0.50745981   -3.4356562    2679.1334   0.04749226  0.046107671           28 
 4702000    0.5050029   -3.4398602    2680.1162  0.047499579  0.046096738           27 
 4703000   0.48495232    -3.437381    2665.8237  0.047236226  0.046085749           20 
 4704000   0.50760377   -3.4547215    2672.4415  0.047343422  0.046074727           11 
 4705000   0.51304973   -3.4360976    2672.9791  0.047342882  0.046063764            6 
 4706000   0.50089043   -3.4467275    2679.5856  0.047449808  0.046052765           12 
 4707000   0.50467447   -3.4422654    2683.3961   0.04750719  0.046041824           17 
 4708000   0.49434466   -3.4472883    2673.3608  0.047319471   0.04603085            9 
 4709000   0.50572673   -3.4438031    2671.5261  0.047276954  0.046019841           24 
 4710000   0.49629044   -3.4487654    2682.5009  0.047461091  0.046008806           11 
 4711000   0.50065105   -3.4532024    2678.7322  0.047384352  0.045997817            9 
 4712000   0.49919559   -3.4418031    2667.4679  0.047175083   0.04598679           19 
 4713000   0.50667289   -3.4414333    2673.3356  0.047268823  0.045975779           10 
 4714000   0.49701726   -3.4528597    2673.8451  0.047267803  0.045964738           18 
 4715000   0.50599045   -3.4429067    2671.9677  0.047224597  0.045953686           15 
 4716000   0.50176783   -3.4516194    2671.1131  0.047199483  0.045942693           27 
 4717000   0.50134436    -3.449634    2674.4719  0.047248815   0.04593169           11 
 4718000   0.49730293   -3.4334984    2681.6762  0.047366048  0.045920747            5 
 4719000   0.50112718   -3.4468714    2672.3872  0.047191975  0.045909762           11 
 4720000   0.49149531   -3.4543161    2673.8397  0.047207621  0.045898729           12 
 4721000    0.4967442   -3.4424655    2674.1153  0.047202488  0.045887714           27 
 4722000   0.49739428   -3.4465884    2672.1352  0.047157547  0.045876738           22 
 4723000   0.49254836   -3.4385606    2674.5173  0.047189591   0.04586577           24 
 4724000   0.48981048   -3.4496001    2684.7716  0.047360492  0.045854836           24 
 4725000   0.49416875   -3.4488902    2675.7559  0.047191462  0.045843877           21 
 4726000   0.48942707   -3.4408485    2674.9809  0.047167812  0.045832941            8 
 4727000   0.51003561   -3.4473165    2671.8075  0.047101888  0.045822029            8 
 4728000   0.49334769   -3.4429021    2672.2504  0.047099733  0.045811068           10 
 4729000   0.49233358   -3.4547143    2671.8573  0.047082846  0.045800047           25 
 4730000   0.49299951   -3.4561907    2668.6166  0.047015797  0.045789048            7 
 4731000   0.50575409   -3.4460121    2672.6577   0.04707704  0.045778106           16 
 4732000   0.49175481   -3.4326439    2679.9377  0.047195296  0.045767088           30 
 4733000   0.47953143   -3.4614174    2673.7714  0.047076755  0.045756062           17 
 4734000    0.4903227   -3.4507931    2677.5788  0.047133833  0.045745052           24 
 4735000   0.49746747   -3.4417358    2665.9468  0.046919163  0.045734075           17 
 4736000   0.49452686   -3.4672825    2665.5715  0.046902652  0.045723055           16 
 4737000   0.49297935   -3.4537884    2670.7432   0.04698373   0.04571199           30 
 4738000   0.49244786   -3.4498476    2675.0694  0.047049905  0.045700961           30 
 4739000   0.47898188   -3.4523094    2671.3201  0.046974047   0.04568994           28 
 4740000   0.48980482   -3.4519572    2672.6019  0.046986672  0.045678924           13 
 4741000   0.48425208   -3.4427803    2675.2763  0.047023769  0.045667929           10 
 4742000   0.49359357   -3.4498348    2673.0238  0.046974269  0.045656922           12 
 4743000   0.50835535   -3.4374446    2672.6241  0.046957342  0.045645972           12 
 4744000   0.48822641   -3.4569087    2673.2293  0.046958076  0.045635015           50 
 4745000   0.50449107   -3.4566462    2682.7608  0.047115574  0.045624102            9 
 4746000   0.48656684   -3.4459752    2676.6092  0.046997633  0.045613197           14 
 4747000   0.50341719   -3.4575789    2675.1016  0.046961267  0.045602268           19 
 4748000   0.49998256   -3.4420183    2678.2232  0.047006164  0.045591351           11 
 4749000   0.50523126   -3.4345962    2676.6862  0.046969295  0.045580427            9 
 4750000    0.4861475   -3.4579969    2674.3513  0.046918443  0.045569499            9 
 4751000   0.49490227     -3.44194    2679.8455  0.047004938  0.045558562           25 
 4752000   0.48493202   -3.4464309    2673.8775  0.046890388  0.045547629            8 
 4753000   0.50007864   -3.4364872    2667.0845  0.046761422   0.04553671           19 
 4754000   0.50124769   -3.4562961    2672.3568  0.046844005  0.045525752           17 
 4755000   0.49753118    -3.446825    2676.5659   0.04690792  0.045514855           10 
 4756000   0.49099471   -3.4581576    2676.2155  0.046891917  0.045503949            8 
 4757000   0.48780767   -3.4525148    2672.9038  0.046824045   0.04549299           11 
 4758000   0.48336559    -3.461889     2680.665  0.046950136   0.04548205           17 
 4759000   0.49045372   -3.4512095    2668.8597  0.046733553  0.045471104           11 
 4760000   0.49508071   -3.4595977    2676.6757  0.046860569  0.045460191           36 
 4761000   0.49364654     -3.45904    2672.5958  0.046779315  0.045449219           19 
 4762000   0.48979112   -3.4555222    2673.8716  0.046791818  0.045438249           23 
 4763000   0.49245808   -3.4470267    2676.0764  0.046820568  0.045427327           12 
 4764000   0.48767681   -3.4531341    2669.6382  0.046698121  0.045416402           10 
 4765000   0.49667382   -3.4468776    2674.6433  0.046775853  0.045405505           41 
 4766000   0.48650779   -3.4639036    2677.8697  0.046822452  0.045394588           51 
 4767000   0.47947237   -3.4754414    2671.6606  0.046704087   0.04538363           22 
 4768000    0.4810546   -3.4723705    2670.1662  0.046668174  0.045372646           18 
 4769000   0.49025281   -3.4567153    2676.4227  0.046767714  0.045361676           32 
 4770000   0.49022449    -3.471271    2668.8517  0.046625641  0.045350738           22 
 4771000   0.48778105   -3.4660373    2674.8089  0.046719921  0.045339754           38 
 4772000   0.48975185   -3.4531695    2671.1348   0.04664597   0.04532879           37 
 4773000   0.48968835   -3.4699748    2676.1913  0.046724479  0.045317876           16 
 4774000   0.50411326   -3.4580468    2679.3531  0.046769884  0.045306939           12 
 4775000   0.48393442   -3.4716001    2673.2235  0.046653116  0.045295995           13 
 4776000   0.49764957   -3.4707754    2671.5707  0.046614509  0.045285066           24 
 4777000   0.49753271   -3.4605635    2673.2518  0.046634077  0.045274133           10 
 4778000   0.47728559   -3.4757141     2671.162  0.046587868  0.045263147            9 
 4779000   0.48496776   -3.4672656    2671.7586  0.046588522  0.045252198           33 
 4780000   0.48695852   -3.4700816    2672.9162  0.046598958  0.045241272           25 
 4781000   0.48778926   -3.4619207    2677.3075  0.046665751   0.04523036           32 
 4782000   0.48912839   -3.4712254    2674.5661   0.04660822  0.045219449           33 
 4783000   0.48391736   -3.4513225    2676.8557  0.046638367  0.045208568           14 
 4784000   0.48190533   -3.4425246    2668.5913  0.046484658  0.045197719           13 
 4785000   0.49832973   -3.4525047    2674.1472  0.046571703  0.045186848           11 
 4786000   0.48684758   -3.4532676    2679.3141  0.046651938  0.045175939           15 
 4787000   0.48055203   -3.4457035    2679.9562   0.04665337  0.045165068            9 
 4788000   0.48672024   -3.4702586    2677.0734  0.046593453  0.045154193           26 
 4789000   0.49558725   -3.4736703    2681.1193  0.046654126  0.045143319           15 
 4790000   0.48280093   -3.4600589    2674.6419  0.046531697  0.045132436           10 
 4791000   0.48070528     -3.45612    2673.6248  0.046504292  0.045121578           17 
 4792000   0.47700643   -3.4725818    2666.6538  0.046373362  0.045110694           25 
 4793000   0.48975669   -3.4728497    2673.3534  0.046480169  0.045099798           15 
 4794000   0.47942904   -3.4651127    2674.3749  0.046488229  0.045088961           34 
 4795000   0.48106155   -3.4804257    2674.0365  0.046472654  0.045078092           10 
 4796000   0.48828218   -3.4866237      2680.24  0.046570753  0.045067204           13 
 4797000   0.48424191   -3.4730376    2676.0543  0.046488332  0.045056365           11 
 4798000   0.47897591   -3.4570149    2680.8163   0.04656135  0.045045493           26 
 4799000   0.48667564   -3.4873972    2670.3636  0.046370139  0.045034637           10 
 4800000   0.48610531   -3.4861629    2671.9074  0.046387281  0.045023768           13 
 4801000   0.48025096   -3.4581486    2671.6082  0.046372426  0.045012917           13 
 4802000   0.48544089   -3.4639686    2675.9866  0.046438752  0.045002058           63 
 4803000    0.4751555    -3.480677     2672.901  0.046375546  0.044991193           15 
 4804000   0.48539369   -3.4787495    2676.1806  0.046422784  0.044980295           18 
 4805000   0.48182617   -3.4511061    2671.1334  0.046325588  0.044969435           17 
 4806000   0.48748686    -3.453676    2674.4796  0.046373971   0.04495862           13 
 4807000   0.48094128     -3.45502    2673.7695  0.046352013  0.044947814           13 
 4808000   0.48890082   -3.4679786    2674.6995  0.046358491  0.044937009           10 
 4809000   0.48321835   -3.4711675    2671.2451  0.046288991  0.044926165           18 
 4810000   0.48561366     -3.46822    2676.5706  0.046371632  0.044915309           30 
 4811000   0.49388787   -3.4792165    2670.8203  0.046262389  0.044904486           16 
 4812000    0.4880195   -3.4880578    2677.1274  0.046362001  0.044893646           14 
 4813000   0.48132331   -3.4895648    2678.8853  0.046382806   0.04488281           39 
 4814000   0.48308162   -3.4756979    2677.8481  0.046355215  0.044871981           22 
 4815000   0.48837333   -3.4699691    2676.0327  0.046314169  0.044861175           12 
 4816000   0.47686577   -3.4702942    2678.8237  0.046352846  0.044850352           15 
 4817000   0.47803289   -3.4715385    2679.6471  0.046357469  0.044839541           14 
 4818000   0.47496553   -3.4630729    2679.6134  0.046347264  0.044828714           25 
 4819000   0.47891264   -3.4606836    2676.6179  0.046285845  0.044817945           13 
 4820000   0.49192995   -3.4760284    2672.3925   0.04620319  0.044807142           16 
 4821000   0.48446589   -3.4785339    2678.7856  0.046304113  0.044796342           36 
 4822000   0.48401789   -3.5024524    2676.5813  0.046256417  0.044785545          109 
 4823000   0.47911616   -3.4954426    2672.4232  0.046174982  0.044774717           47 
 4824000   0.48799987   -3.4695123    2674.3034  0.046197889  0.044763916           22 
 4825000   0.49377721   -3.4866194    2674.4626  0.046191065  0.044753095           19 
 4826000   0.49729023   -3.4858535    2679.4536  0.046267675    0.0447423           17 
 4827000   0.48584626   -3.4691116    2673.9721  0.046163458  0.044731518           25 
 4828000   0.48115586   -3.4807503    2675.0344  0.046172232  0.044720736           47 
 4829000   0.47171105   -3.4611546    2678.3318  0.046219573  0.044709974           43 
 4830000   0.48144473   -3.4721436    2682.0895  0.046274836  0.044699214           20 
 4831000   0.47952299   -3.4964548    2675.9965  0.046160154  0.044688431            9 
 4832000   0.49233418   -3.4878299    2674.0691  0.046117362  0.044677603           26 
 4833000   0.46622139   -3.4608332    2680.8642  0.046224985  0.044666799           17 
 4834000   0.48295876   -3.4783471    2676.9409  0.046147788   0.04465602           14 
 4835000   0.48954807   -3.4878568     2678.459   0.04616441  0.044645233           15 
 4836000   0.48124385   -3.4888793    2671.8421  0.046040841  0.044634461           39 
 4837000   0.46398972   -3.4738727    2673.7586  0.046064341  0.044623704            7 
 4838000   0.48471588   -3.4845665    2675.6897  0.046088082  0.044612971           11 
 4839000   0.47057648   -3.4900205    2679.0288  0.046136061  0.044602217           14 
 4840000   0.46794843   -3.4835966    2678.5045  0.046117502  0.044591474           17 
 4841000   0.48118966   -3.4804733    2678.8407  0.046113763  0.044580743           26 
 4842000   0.47431845   -3.4843894    2674.9699   0.04603762   0.04456997           18 
 4843000   0.47846956   -3.4725108    2682.7834  0.046162562  0.044559223            9 
 4844000   0.46601326   -3.4829309    2673.8302  0.045999006  0.044548483           12 
 4845000   0.47814948    -3.492056    2676.0015  0.046026857  0.044537695           16 
 4846000    0.4724755   -3.4846138    2669.1206  0.045899034  0.044526925           19 
 4847000   0.47929341   -3.4965672    2676.5403  0.046017129  0.044516169           11 
 4848000    0.4625205    -3.493895     2675.336  0.045986937  0.044505396           13 
 4849000   0.47636633   -3.4729939    2677.4145  0.046013173  0.044494697           17 
 4850000   0.47361148     -3.50371    2676.5119  0.045988177  0.044483975           39 
 4851000   0.48664924   -3.4671056    2679.7357  0.046034077  0.044473277           11 
 4852000   0.47858916    -3.476055     2674.674  0.045937654  0.044462561            9 
 4853000      0.47801   -3.4915869    2675.8869  0.045949016  0.044451795           18 
 4854000   0.48591523   -3.4919018    2679.7461  0.046005804  0.044441046           27 
 4855000   0.47203329   -3.4812433    2679.6414  0.045994532  0.044430355           18 
 4856000   0.48581329   -3.4875714    2674.0243  0.045888665  0.044419647           25 
 4857000   0.47407095   -3.4831605    2676.3145  0.045918511  0.044408948           23 
 4858000   0.47978658   -3.4746377    2674.8426   0.04588381  0.044398241           14 
 4859000   0.46308704   -3.4953895    2670.1593  0.045794046  0.044387491           18 
 4860000   0.47491334   -3.4826566    2677.2784  0.045906695  0.044376765           11 
 4861000   0.46519337   -3.4888056    2670.0383  0.045773131   0.04436604           16 
 4862000   0.46820165   -3.5048603    2678.4168  0.045907322  0.044355315           15 
 4863000   0.48890494   -3.4881181    2676.4709  0.045864537  0.044344575           30 
 4864000   0.47977097   -3.4695785    2676.6673  0.045858472  0.044333849           14 
 4865000   0.47686687   -3.4782672    2670.6681  0.045746285  0.044323136           15 
 4866000   0.48443859   -3.4732719     2672.978  0.045776443  0.044312435           17 
 4867000   0.48605962   -3.4673254    2679.1044  0.045871933  0.044301741           30 
 4868000   0.47994975   -3.4893417    2678.9648   0.04586012  0.044291022           18 
 4869000   0.47251178   -3.5044702    2679.2617  0.045855784  0.044280315           22 
 4870000   0.48508804   -3.4880397    2676.4996  0.045799104  0.044269603           31 
 4871000   0.46362332   -3.4813275    2669.3581  0.045667524  0.044258892           28 
 4872000   0.46303597   -3.4985547    2670.4051  0.045676058  0.044248206           21 
 4873000   0.47223548   -3.4976001    2684.3209   0.04590466  0.044237536           18 
 4874000   0.46357692   -3.4925555     2679.659  0.045815534  0.044226845           14 
 4875000   0.46997044    -3.473688    2675.5155  0.045735308  0.044216163           14 
 4876000   0.46506722   -3.4829535     2679.863  0.045800229    0.0442055           23 
 4877000   0.47244885   -3.5066546     2678.671  0.045770469  0.044194812           15 
 4878000   0.47365154   -3.4820974    2677.0525  0.045733438  0.044184113           10 
 4879000    0.4649598   -3.4797584    2675.3285  0.045694617  0.044173457           32 
 4880000    0.4801071   -3.4793194    2683.0344  0.045816845  0.044162855           10 
 4881000   0.46792932   -3.4948859    2677.0329  0.045704995  0.044152183           15 
 4882000   0.46338316   -3.4939084    2677.8939  0.045710329  0.044141496           23 
 4883000   0.47391543   -3.4844049    2679.7677  0.045732945  0.044130832           14 
 4884000   0.47089631   -3.5042008     2678.023  0.045693813  0.044120153           14 
 4885000   0.46765814   -3.4977412     2670.061  0.045548636  0.044109473           24 
 4886000   0.47305533   -3.4618485    2674.6571  0.045617701  0.044098825           24 
 4887000   0.47418908   -3.4992524     2678.242  0.045669497  0.044088189           21 
 4888000   0.46962078   -3.4955965    2677.9476  0.045655135  0.044077524           13 
 4889000   0.47573702   -3.4863408    2681.1008  0.045699544  0.044066935           14 
 4890000   0.47073429   -3.4734092    2678.7752  0.045650566   0.04405636            8 
 4891000   0.47175758   -3.4889669    2682.5855  0.045706152   0.04404576           20 
 4892000   0.46158041   -3.4834213    2676.0435  0.045585368   0.04403518           25 
 4893000   0.46945364   -3.4934805    2675.4118  0.045565295  0.044024562           42 
 4894000   0.46493754   -3.4802656    2671.8838  0.045495909  0.044013944           14 
 4895000    0.4712889   -3.4916983    2680.4135  0.045631827  0.044003338           35 
 4896000   0.48573472   -3.4811447    2675.2796  0.045535123  0.043992756           14 
 4897000   0.47884978   -3.4858797    2677.5805   0.04556498  0.043982168           17 
 4898000   0.47320736   -3.4853867    2673.5126  0.045486467  0.043971583           20 
 4899000   0.47957393   -3.5020188     2678.107  0.045555334  0.043960952           20 
 4900000   0.46455158   -3.4958071    2677.7877  0.045540607  0.043950311           39 
 4901000   0.47595649   -3.5012055    2673.5402  0.045459093  0.043939692           15 
 4902000   0.46674157   -3.4879371    2680.0872  0.045561117  0.043929062           39 
 4903000   0.46806476   -3.5039245     2682.606  0.045594635  0.043918466           23 
 4904000   0.46590305   -3.5029019     2679.739   0.04553662  0.043907866           37 
 4905000   0.46971352   -3.4967028    2681.0158  0.045549028  0.043897261           23 
 4906000   0.47884585   -3.5011238    2679.6587  0.045516691  0.043886653           19 
 4907000   0.47179759   -3.4907034    2672.6522  0.045388428  0.043876052           17 
 4908000   0.47666751   -3.5072423    2676.1147  0.045437971  0.043865473           11 
 4909000   0.47837421   -3.5007574    2678.4282  0.045467988  0.043854885           12 
 4910000   0.47986958   -3.5033849    2676.5524  0.045426891  0.043844301           26 
 4911000   0.47467906   -3.5023946    2668.7415  0.045285099  0.043833692           19 
 4912000   0.46506517   -3.5094009    2677.4958  0.045424399  0.043823048           30 
 4913000   0.45380777   -3.5112581    2675.1876  0.045376002  0.043812416           19 
 4914000   0.46572329   -3.5210702     2679.434   0.04543878  0.043801792           21 
 4915000    0.4573485   -3.5251965     2672.239  0.045307544  0.043791145           19 
 4916000   0.46158741   -3.5114452    2674.0458  0.045328956  0.043780503           41 
 4917000   0.45687078    -3.497531    2678.2822  0.045391537  0.043769888           11 
 4918000   0.45768768   -3.5130799    2674.5742  0.045319476  0.043759253           15 
 4919000   0.46053935   -3.4961143    2678.6046  0.045378542  0.043748662           27 
 4920000   0.45974405   -3.4881906    2684.5192  0.045469499  0.043738089           29 
 4921000     0.462716   -3.5013606    2674.7621   0.04529503  0.043727532           81 
 4922000    0.4706376    -3.477587    2675.2068  0.045293356  0.043716982           36 
 4923000   0.45834439   -3.4871202    2676.0601    0.0452986  0.043706446           35 
 4924000   0.46425316   -3.5076147    2677.7486  0.045317977  0.043695874           12 
 4925000   0.47301473   -3.4987745    2674.6266  0.045255949  0.043685318           17 
 4926000     0.461855   -3.5079357    2674.2002  0.045239549   0.04367477           10 
 4927000   0.45653478   -3.4861715    2678.1879  0.045297813   0.04366423           14 
 4928000   0.46056604   -3.5060062    2676.2646  0.045256098  0.043653697           27 
 4929000    0.4620677   -3.5147473    2672.7078  0.045186782  0.043643146           14 
 4930000   0.46347434   -3.4946115    2678.6303  0.045277726  0.043632576           13 
 4931000   0.45876397   -3.5035627    2676.6047  0.045234313   0.04362198           25 
 4932000   0.45947342   -3.5018842    2685.5542  0.045376355  0.043611404           15 
 4933000   0.45651192    -3.517828    2673.6321  0.045165757  0.043600875           22 
 4934000   0.47650183   -3.5052475    2669.5347  0.045087398  0.043590279           50 
 4935000   0.45721423   -3.5078473    2670.8453  0.045100393  0.043579704           53 
 4936000   0.46297885   -3.5063368    2674.1225  0.045146585  0.043569147           34 
 4937000    0.4615091   -3.5073128    2668.2483  0.045038288  0.043558584           26 
 4938000    0.4601215   -3.5171295    2673.3205  0.045114765  0.043548035           19 
 4939000    0.4605021   -3.4986038    2673.9656  0.045116515  0.043537485           38 
 4940000    0.4541076   -3.4848238    2673.0777  0.045092404   0.04352695           13 
 4941000   0.45787299   -3.5093378    2675.8196  0.045129522  0.043516431           17 
 4942000   0.46057469   -3.5076464    2679.7865  0.045187281  0.043505874           19 
 4943000   0.46374514   -3.5031743    2675.6722  0.045108776  0.043495321           21 
 4944000   0.45429545   -3.5154312    2673.2502  0.045058829   0.04348478           19 
 4945000   0.46666838   -3.5026266    2671.7636  0.045024665  0.043474265           21 
 4946000   0.46402776   -3.5051065    2679.4847  0.045145652  0.043463772           29 
 4947000   0.46303113   -3.5216619     2679.764  0.045141231  0.043453271           28 
 4948000   0.45477424   -3.5049885    2674.9431  0.045050915  0.043442712           60 
 4949000    0.4656076    -3.495036    2676.9802  0.045076112  0.043432192           42 
 4950000   0.46401092   -3.5045085    2678.1976  0.045087502  0.043421697           12 
 4951000   0.45375301   -3.5126445    2681.3494  0.045131445  0.043411187           17 
 4952000   0.46067007   -3.4915937    2681.6658  0.045127656   0.04340071           23 
 4953000   0.45547623   -3.4936335    2675.1458  0.045008847  0.043390226           18 
 4954000   0.45644045   -3.5005873    2677.8065  0.045044518  0.043379693           44 
 4955000   0.45669694    -3.518451    2680.6544  0.045083324  0.043369217           20 
 4956000   0.45083232   -3.5251104    2680.3613  0.045069299   0.04335875           31 
 4957000   0.45829653   -3.5112065     2679.461  0.045045071  0.043348254           49 
 4958000   0.46400872   -3.5214962    2678.6299  0.045022016  0.043337755           21 
 4959000   0.45153884   -3.5129312     2677.459  0.044993261  0.043327273           36 
 4960000   0.45084873    -3.521324    2681.2319  0.045047579  0.043316803           16 
 4961000   0.45779597   -3.5209154    2677.6548  0.044978411  0.043306338           37 
 4962000   0.46059328    -3.517802    2677.2286   0.04496219  0.043295843           39 
 4963000    0.4473645   -3.5071052    2673.3111  0.044887351  0.043285356           34 
 4964000   0.45644693   -3.5123632    2674.3059  0.044895009  0.043274889           24 
 4965000   0.47098521   -3.5233699    2674.6365  0.044891516  0.043264393           62 
 4966000   0.45023179   -3.5220614    2682.8357  0.045020065  0.043253925           33 
 4967000   0.45741093   -3.5175225    2679.7528  0.044959278  0.043243465           15 
 4968000   0.45077311   -3.5123275    2679.6602  0.044948675  0.043233027           45 
 4969000   0.44933394   -3.5101098    2681.2901  0.044966963  0.043222565           20 
 4970000   0.46417724   -3.5222716    2673.4778  0.044826924  0.043212091           15 
 4971000   0.45105371    -3.503749    2676.0246  0.044860601  0.043201639           17 
 4972000   0.46654356   -3.5134174    2671.2696  0.044771882  0.043191186           21 
 4973000   0.46798896   -3.4945328    2676.6187  0.044852515  0.043180721           31 
 4974000   0.44187421   -3.5181961    2671.1047  0.044751118  0.043170284           42 
 4975000     0.444088   -3.5009024    2678.1558  0.044860231  0.043159838           18 
 4976000   0.44906846   -3.5204128    2675.6197  0.044808744  0.043149423           22 
 4977000    0.4512691   -3.5069457    2675.6226   0.04479979  0.043138982           53 
 4978000   0.45802805   -3.5073971    2680.2695   0.04486858  0.043128517           23 
 4979000   0.45824372   -3.5312638    2680.5115   0.04486362  0.043118065           25 
 4980000   0.44609434   -3.5372698    2674.6517  0.044756554  0.043107589           31 
 4981000   0.45049304   -3.5233342    2678.9962  0.044820254  0.043097159           31 
 4982000    0.4578735   -3.5217052    2676.8579   0.04477549  0.043086714           71 
 4983000   0.45608562   -3.5154763    2679.1975  0.044805631  0.043076308           48 
 4984000   0.44774294   -3.5142443    2677.4728  0.044767803  0.043065933           61 
 4985000   0.45443686    -3.517166    2677.0951  0.044752509  0.043055543           69 
 4986000    0.4502968   -3.5226706    2680.9316  0.044807656  0.043045123           21 
 4987000   0.45100637    -3.523733    2674.6127   0.04469308  0.043034723           26 
 4988000   0.44823941   -3.5109997    2678.7976  0.044754036  0.043024331           34 
 4989000   0.46776073   -3.5317105     2676.601  0.044708376  0.043013918           35 
 4990000   0.44167265   -3.5277887    2681.4252  0.044779979  0.043003532           25 
 4991000   0.45701739   -3.5259434    2679.0258  0.044730945  0.042993126           41 
 4992000   0.45981897   -3.5170679    2679.6522  0.044732442  0.042982692           15 
 4993000   0.46076164   -3.5418876    2677.8189  0.044692885  0.042972277           31 
 4994000   0.44234253   -3.5373277    2675.8199  0.044650579  0.042961856           15 
 4995000   0.45736163   -3.5378283    2681.0995  0.044729721  0.042951434           48 
 4996000   0.44852738   -3.5239696    2678.1063  0.044670842  0.042941001           62 
 4997000   0.46171725   -3.5253848    2678.0609  0.044661145  0.042930574           64 
 4998000   0.45623276   -3.5476038    2679.5465  0.044676978  0.042920169           22 
 4999000   0.44396635    -3.529047    2680.9293  0.044691094  0.042909739           48 
 5000000   0.45106283   -3.5172441    2681.6844   0.04469474  0.042899354           36 
 5001000   0.45708784    -3.522771    2677.7543  0.044620314  0.042888977           21 
 5002000   0.45144943   -3.5057295    2676.0645  0.044583242  0.042878593           23 
 5003000   0.45731973   -3.5244106    2675.6997  0.044568254  0.042868198           32 
 5004000   0.44890065   -3.5425261    2668.8526   0.04444532  0.042857766           59 
 5005000   0.44706088   -3.5082631    2671.2649  0.044476606  0.042847312           25 
 5006000   0.44788418   -3.5162262    2671.7125  0.044475172  0.042836867           25 
 5007000   0.43910966   -3.5266565    2671.3648  0.044460502  0.042826435           43 
 5008000   0.45280546   -3.5177094    2677.7279  0.044557506  0.042816019           14 
 5009000   0.45062275   -3.5229626    2677.7783  0.044549449  0.042805591           48 
 5010000   0.44632282   -3.5326323    2679.6316  0.044571383  0.042795164           22 
 5011000   0.45462167   -3.5384414    2680.2641  0.044573007  0.042784735           19 
 5012000   0.44463738   -3.5361259    2680.5883  0.044569505  0.042774324           18 
Loop time of 12075.4 on 48 procs for 5000000 steps with 4000 atoms

Performance: 71550.638 tau/day, 414.066 timesteps/s
99.4% CPU use with 48 MPI tasks x no OpenMP threads

MPI task timing breakdown:
Section |  min time  |  avg time  |  max time  |%varavg| %total
---------------------------------------------------------------
Pair    | 794.26     | 844.11     | 902.59     |  87.9 |  6.99
Neigh   | 80.836     | 84.223     | 87.721     |  18.2 |  0.70
Comm    | 778.27     | 838.05     | 895.73     |  94.1 |  6.94
Output  | 14.058     | 14.063     | 14.143     |   0.3 |  0.12
Modify  | 10162      | 10185      | 10204      |   9.9 | 84.35
Other   |            | 109.9      |            |       |  0.91

Nlocal:        83.3333 ave          90 max          76 min
Histogram: 1 3 7 0 7 12 5 10 1 2
Nghost:        2176.98 ave        2192 max        2160 min
Histogram: 1 2 4 6 13 5 4 5 4 4
Neighs:        14369.1 ave       16123 max       12639 min
Histogram: 3 1 5 8 5 13 4 5 3 1
FullNghs:      28739.1 ave       31293 max       26179 min
Histogram: 1 6 3 5 8 9 5 8 1 2

Total # of neighbors = 1379478
Ave neighs/atom = 344.86950
Neighbor list builds = 271527
Dangerous builds = 0

#clear
#
#next RN
#
#jump SELF
Total wall time: 3:21:18
