
units lj                  # Use reduced LJ style units
atom_style atomic         # Uncharged point particles
atom_modify map hash      # Needed for indexing of clusters etc
                          # Used to be able to find where atoms are in relation to each other.

lattice fcc 1.0 spacing 1 1 1
Lattice spacing in x,y,z = 1.5874011 1.5874011 1.5874011
region box block 0 10 0 10 0 10 units lattice
create_box 2 box
Created orthogonal box = (0.0000000 0.0000000 0.0000000) to (15.874011 15.874011 15.874011)
  3 by 4 by 4 MPI processor grid
create_atoms 1 box
Created 4000 atoms
  using lattice units in orthogonal box = (0.0000000 0.0000000 0.0000000) to (15.874011 15.874011 15.874011)
  create_atoms CPU = 0.027 seconds
set type 1 type/fraction 2 0.99 78393
Setting atom values ...
  3965 settings made for type/fraction
mass 1 1.0
mass 2 1.0
pair_style lj/cut  3.5
pair_modify tail  yes
pair_coeff 1  1  1.0  1.0   # Intearaction between 1 and 1 set with epsilon = 1 and sigma = 1
pair_coeff 1  2  1.5  0.8
pair_coeff 2  2  0.5  0.88

write_data data.0
System init for write_data ...
Neighbor list info ...
  update every 1 steps, delay 10 steps, check yes
  max neighbors/atom: 2000, page size: 100000
  master list distance cutoff = 3.8
  ghost atom cutoff = 3.8
  binsize = 1.9, bins = 9 9 9
  1 neighbor lists, perpetual/occasional/extra = 1 0 0
  (1) pair lj/cut, perpetual
      attributes: half, newton on
      pair build: half/bin/atomonly/newton
      stencil: half/bin/3d
      bin: standard
WARNING: Not all mixed pair coeffs generated from mixing. Use write_data with 'pair ij' option to store all pair coeffs. (../write_data.cpp:312)


#############################
#   M E L T   S Y S T E M   #
#############################

velocity all create 2.4 8172548 mom yes dist gaussian # Assign velocities
                                                    # Temperature 2.4, random number seed, zero linear momentum
                                                                                # Gaussian distribution

timestep 0.002   # simulation timestep
thermo 1000       # output thermodynamic data every 1000 steps bf 100

# Define a fix  in this case with index 1 applied to all
# particles in the simulation. This fix is for simulations
# in the anisotropic NPT ensemble. Note that we use the MTK
# correction.
fix 1 all npt temp 2.4 2.4 0.1 iso 5.68 5.68 0.5 mtk yes tchain 5 pchain 5 # Use NPT ensemble
                                                                         # Set temperature and pressure and damping
                                                                         # Numbers of thermostats in chain and in barostat
run 10000          # run for 10000 steps
Per MPI rank memory allocation (min/avg/max) = 3.642 | 3.644 | 3.648 Mbytes
Step Temp E_pair E_mol TotEng Press Volume 
       0          2.4   -2.7429598            0   0.85614022   -1.7792645         4000 
    1000    2.3874213   -1.4943228            0    2.0859139    5.6910634    4245.4237 
    2000     2.455877   -1.5391455            0     2.143749    5.3989707    4264.6673 
    3000    2.3664208   -1.4835126            0    2.0652312    5.5587865    4286.0898 
    4000    2.4098043   -1.4849589            0    2.1288439    5.6162963    4270.3692 
    5000    2.4290152   -1.5264046            0    2.1162074    5.4717383    4263.4544 
    6000     2.436846   -1.5318322            0    2.1225229    5.6603972    4211.9161 
    7000    2.4409035   -1.4878071            0    2.1726327    5.7384713    4236.6356 
    8000    2.3354935   -1.4969116            0    2.0054527    5.6544561    4239.0347 
    9000     2.369799   -1.5179981            0    2.0358117    5.7080884    4222.8337 
   10000    2.4522328    -1.482414            0    2.1950157    5.8580357    4228.7638 
Loop time of 2.36129 on 48 procs for 10000 steps with 4000 atoms

Performance: 731804.436 tau/day, 4234.979 timesteps/s
99.6% CPU use with 48 MPI tasks x no OpenMP threads

MPI task timing breakdown:
Section |  min time  |  avg time  |  max time  |%varavg| %total
---------------------------------------------------------------
Pair    | 1.0214     | 1.0848     | 1.171      |   2.9 | 45.94
Neigh   | 0.20154    | 0.20961    | 0.23298    |   1.1 |  8.88
Comm    | 0.7088     | 0.81684    | 0.88304    |   3.8 | 34.59
Output  | 0.00024393 | 0.00024667 | 0.00030252 |   0.0 |  0.01
Modify  | 0.20685    | 0.2351     | 0.27428    |   3.6 |  9.96
Other   |            | 0.01466    |            |       |  0.62

Nlocal:        83.3333 ave          97 max          72 min
Histogram: 2 0 6 12 14 3 4 3 2 2
Nghost:        1578.50 ave        1600 max        1551 min
Histogram: 1 3 2 5 6 12 6 4 4 5
Neighs:        9017.23 ave       10800 max        7460 min
Histogram: 1 2 6 10 12 5 5 5 1 1

Total # of neighbors = 432827
Ave neighs/atom = 108.20675
Neighbor list builds = 909
Dangerous builds = 204

# Equilibrate just above the melting temperature to avoid step fn in T

fix 1 all npt temp 1.25 1.25 0.1 iso 5.68 5.68 0.5 mtk yes tchain 5 pchain 5
run 2000
Per MPI rank memory allocation (min/avg/max) = 3.643 | 3.645 | 3.649 Mbytes
Step Temp E_pair E_mol TotEng Press Volume 
   10000    2.4522328    -1.482414            0    2.1950157    5.8580357    4228.7638 
   11000    1.2408182   -2.3295899            0  -0.46882788    5.5391356    3325.8243 
   12000    1.2167004   -2.3381551            0  -0.51356069    5.6347786    3301.7416 
Loop time of 0.56479 on 48 procs for 2000 steps with 4000 atoms

Performance: 611909.107 tau/day, 3541.141 timesteps/s
99.7% CPU use with 48 MPI tasks x no OpenMP threads

MPI task timing breakdown:
Section |  min time  |  avg time  |  max time  |%varavg| %total
---------------------------------------------------------------
Pair    | 0.25341    | 0.27198    | 0.29425    |   1.8 | 48.16
Neigh   | 0.037665   | 0.039484   | 0.044531   |   0.6 |  6.99
Comm    | 0.18242    | 0.20485    | 0.22881    |   2.4 | 36.27
Output  | 4.9817e-05 | 5.1081e-05 | 6.4306e-05 |   0.0 |  0.01
Modify  | 0.03875    | 0.043812   | 0.048316   |   1.3 |  7.76
Other   |            | 0.004609   |            |       |  0.82

Nlocal:        83.3333 ave          91 max          73 min
Histogram: 1 0 3 4 2 13 11 10 3 1
Nghost:        1866.92 ave        1897 max        1841 min
Histogram: 2 2 8 10 7 4 8 2 3 2
Neighs:        11581.3 ave       13321 max        9983 min
Histogram: 1 2 6 8 10 9 7 4 0 1

Total # of neighbors = 555904
Ave neighs/atom = 138.97600
Neighbor list builds = 142
Dangerous builds = 14

#############################
# L I N E A R  Q U E N C H  #
#############################

# Define solid atoms. This closely follows ten Wolde  Ruiz-Montero and Frenkel  Faraday Discuss  1996  104  93-110
# Compute components of the per-atom q6 vector
compute q6 all orientorder/atom degrees 1 6 components 6 nnn NULL cutoff 1.3 # compute the Q6 parameter.
                                                                             # Use all neighbours within 1.3 unit cell.

# get number of connections
compute coord_number all coord/atom orientorder q6 0.5

# An atom is solid if it has 8 or more connections (of a possible 14)
variable is_solid atom c_coord_number>=8
group solid dynamic all var is_solid    # Must be dynamic to update
dynamic group solid defined

# do clustering
compute cluster solid cluster/atom 1.3 # Create a cluster where all atoms within are solid and max 1.3 units from another member

# define chunks one chunk per cluster
compute clus_chunks solid chunk/atom c_cluster nchunk every compress yes  # Says which atoms are in which chunk

# count the size of each chunk
compute size_chunks solid property/chunk clus_chunks count


# Find the maximum entry in the vector of chunk sizes
variable max_n equal max(c_size_chunks)


# Thermo style which includes this variable
# thermo_style custom step temp pe vol v_max_n

thermo ${N}  # Print the thermo information every 100 steps
thermo 1000  

# Reset the npt fix at a lower temperature (below freezing)
fix 1  all npt temp  ${temp} ${temp}  0.1  iso  5.68  5.68  0.5  mtk yes tchain  5  pchain  5
fix 1  all npt temp  0.45 ${temp}  0.1  iso  5.68  5.68  0.5  mtk yes tchain  5  pchain  5
fix 1  all npt temp  0.45 0.45  0.1  iso  5.68  5.68  0.5  mtk yes tchain  5  pchain  5

dump dmp2 all dcd ${N} traj.dcd
dump dmp2 all dcd 1000 traj.dcd


compute msd all msd com yes
variable twopoint equal c_msd[4]/6/(step*dt+1.0e-6)
fix 9 all vector 10 c_msd[4]
variable fit equal slope(f_9)/6/(10*dt)
thermo_style custom step temp pe c_msd[4] v_twopoint v_fit v_max_n

fix 1 all npt temp 1.25 ${temp} 0.1 iso 5.68 5.68 0.5 mtk yes tchain 5 pchain 5
fix 1 all npt temp 1.25 0.45 0.1 iso 5.68 5.68 0.5 mtk yes tchain 5 pchain 5
run 2000000 # 5000000  # Run for this many steps
Neighbor list info ...
  update every 1 steps, delay 10 steps, check yes
  max neighbors/atom: 2000, page size: 100000
  master list distance cutoff = 3.8
  ghost atom cutoff = 3.8
  binsize = 1.9, bins = 8 8 8
  4 neighbor lists, perpetual/occasional/extra = 1 3 0
  (1) pair lj/cut, perpetual
      attributes: half, newton on
      pair build: half/bin/atomonly/newton
      stencil: half/bin/3d
      bin: standard
  (2) compute orientorder/atom, occasional
      attributes: full, newton on
      pair build: full/bin/atomonly
      stencil: full/bin/3d
      bin: standard
  (3) compute coord/atom, occasional
      attributes: full, newton on
      pair build: full/bin/atomonly
      stencil: full/bin/3d
      bin: standard
  (4) compute cluster/atom, occasional
      attributes: full, newton on
      pair build: full/bin/atomonly
      stencil: full/bin/3d
      bin: standard
Per MPI rank memory allocation (min/avg/max) = 9.810 | 9.817 | 9.822 Mbytes
Step Temp PotEng c_msd[4] v_twopoint v_fit v_max_n 
   12000    1.2167004   -2.3381551 4.2273084e-30 2.9356307e-32 8.3333333e+20            1 
   13000    1.2697461   -2.3135783     1.170448 0.0075028717  0.099442658            2 
   14000    1.2436607   -2.3164354    2.4601921     0.014644   0.10443084            1 
   15000    1.2321349   -2.3029688    3.7653405  0.020918558   0.10709127            1 
   16000    1.2386065   -2.3548513    5.0471288  0.026287129   0.10648089            2 
   17000    1.2699215   -2.3384189    6.3120157  0.030941252   0.10587713            1 
   18000    1.2550116   -2.3379062    7.7245129  0.035761633     0.106579            1 
   19000    1.2594925    -2.326332    9.1113665  0.039962133   0.10833715            1 
   20000    1.2576047   -2.3365061    10.497331   0.04373888   0.10965301            2 
   21000    1.2468369   -2.3381289    11.707054  0.046456562   0.11020458            1 
   22000    1.2225991   -2.3147382    13.100688  0.049623818   0.11043577            2 
   23000    1.2334827   -2.3244624    14.314101  0.051862684   0.11015456            1 
   24000    1.2520402   -2.3368422    15.597693  0.054158656   0.11008855            1 
   25000    1.2317605   -2.3198069    17.046858   0.05682286   0.11002455            1 
   26000    1.2696417   -2.3323174    18.247122  0.058484363   0.11011837            2 
   27000    1.2374119   -2.3277511    19.357033  0.059743929   0.10991135            1 
   28000    1.2411316   -2.3056858    20.570249  0.061220977   0.10937191            1 
   29000    1.2498267   -2.3370531    22.027514  0.063297453    0.1090068            2 
   30000    1.2472308   -2.3387302    23.233215  0.064536706   0.10871779            1 
   31000    1.2432951    -2.310538    24.480742  0.065808446    0.1084465            1 
   32000    1.2307881   -2.3166889    25.543839  0.066520413   0.10818695            1 
   33000    1.2565258   -2.3294212    26.845028  0.067790474   0.10783195            3 
   34000    1.2559814   -2.3236598    28.195071  0.069105565   0.10755022            1 
   35000     1.236598    -2.347767    29.456046  0.070133442   0.10731544            1 
   36000    1.2499107    -2.338921    31.121537  0.072040595   0.10733926            1 
   37000    1.2520702   -2.3546205    32.625657  0.073481209     0.107555            1 
   38000    1.2491215   -2.3040148    33.869662  0.074275574   0.10785589            2 
   39000    1.2569091   -2.3283499    35.163751  0.075136219    0.1080205            2 
   40000    1.2025604   -2.3164278    36.092059  0.075191788   0.10805506            2 
   41000    1.2205157   -2.3651414     37.32834  0.075870609   0.10792098            3 
   42000    1.2419697   -2.3237959    38.443852  0.076277484   0.10777994            1 
   43000     1.235477    -2.309381    39.689198  0.076917049   0.10758978            2 
   44000     1.230887   -2.3371743    40.821953  0.077314305   0.10738566            1 
   45000    1.2377083   -2.3350632    41.876512  0.077549096   0.10720003            1 
   46000    1.2491686   -2.3212735      43.3048  0.078450723   0.10703072            1 
   47000    1.2300113   -2.3300107    44.617379  0.079108828   0.10688117            1 
   48000    1.2271959   -2.3322883    45.902424  0.079691707   0.10674762            1 
   49000    1.2313402    -2.370046    46.985771  0.079907773   0.10658978            1 
   50000    1.2125892   -2.3124566    48.204764  0.080341272   0.10644038            1 
   51000    1.2443367   -2.3347006    49.599102  0.081044283   0.10630402            1 
   52000    1.2431628   -2.3586047    50.009715  0.080143773   0.10609206            2 
   53000      1.24476   -2.3278785    51.910312  0.081619987   0.10590306            1 
   54000    1.2213808   -2.2894781    53.352998  0.082334872   0.10576969            2 
   55000    1.2336898   -2.3262276    54.327567  0.082314495   0.10564673            3 
   56000    1.2574936   -2.3306949    55.497495  0.082585557   0.10552103            1 
   57000    1.2333623   -2.3100952    56.706227   0.08290384   0.10539111            2 
   58000    1.2361091   -2.2980664    57.655669  0.082838605   0.10520831            1 
   59000    1.2408216   -2.3265546    58.677325  0.082877576   0.10497119            2 
   60000    1.2477066   -2.3349598    59.540709  0.082695428   0.10472842            3 
   61000     1.240339   -2.3346625    60.972351  0.083295561   0.10453055            2 
   62000    1.2364743   -2.3447791    62.672153  0.084236764   0.10440995            2 
   63000    1.2344217   -2.3081557    63.971387  0.084618236   0.10435351            3 
   64000     1.238891   -2.3390614    65.572758  0.085381195   0.10434027            1 
   65000    1.2400081   -2.3102947    66.771211  0.085604116   0.10431754            2 
   66000    1.2271046   -2.3585697     67.82291  0.085634987   0.10430312            1 
   67000    1.2095367   -2.3787288    69.542115  0.086495167   0.10427412            1 
   68000    1.2124558   -2.3384714    70.554859  0.086464288   0.10426096            1 
   69000    1.2402975   -2.3613671    72.163125  0.087153532   0.10428922            1 
   70000    1.2186752   -2.3194577      73.2662  0.087221666   0.10433869            1 
   71000    1.2014839   -2.3480989     74.31162  0.087220211   0.10434957            1 
   72000     1.237924   -2.3265757    75.643436  0.087550272   0.10433131            2 
   73000    1.2214897   -2.3097276    76.907173  0.087793575   0.10431649            2 
   74000    1.2016505   -2.3415923    77.619727  0.087409602   0.10427775            1 
   75000    1.2210896   -2.3185318    78.457108  0.087174564    0.1042214            3 
   76000    1.2367195   -2.3585912     80.29302  0.088040592   0.10416812            2 
   77000    1.2284888   -2.3197063    81.300737   0.08798781    0.1040976            1 
   78000    1.2008251    -2.315917     82.33968  0.087969743   0.10403475            1 
   79000    1.2268388    -2.347164    84.401004  0.089030595   0.10401726            1 
   80000    1.2344103   -2.3558531    85.746255  0.089319015   0.10401683            2 
   81000    1.2134877   -2.3609324    86.879113  0.089381803   0.10403971            1 
   82000    1.2206014   -2.3225641    88.853187  0.090297953   0.10407572            3 
   83000    1.2173344   -2.3476294    90.277691  0.090640251   0.10412713            1 
   84000     1.229483   -2.3081163    91.724073  0.090996104   0.10419041            1 
   85000    1.2295429    -2.363612    92.530485  0.090716161   0.10424833            1 
   86000    1.2323795   -2.3392842    93.928107  0.091015607   0.10432161            3 
   87000    1.2325367   -2.3500842    95.482626  0.091458453   0.10441231            2 
   88000    1.2347366   -2.3720969    97.119972   0.09196967    0.1045052            1 
   89000    1.2213195   -2.3593459    98.113682  0.091866743   0.10459329            2 
   90000    1.1985212   -2.3517989    100.02524  0.092615959   0.10469814            3 
   91000    1.2424375   -2.3577948    101.13022  0.092610087   0.10481137            2 
   92000    1.2201638   -2.3556626    102.18533  0.092559179   0.10492712            1 
   93000    1.2002204   -2.3753332    103.28134  0.092546003    0.1050193            2 
   94000    1.2461844    -2.333283    105.42835   0.09346485   0.10512437            1 
   95000    1.2010496   -2.3581392    106.78442  0.093670545   0.10525036            1 
   96000    1.2271702   -2.3490261    108.12111   0.09385513   0.10537817            1 
   97000    1.2551171   -2.3663472    109.35798  0.093950151   0.10551612            2 
   98000    1.2339737   -2.3642553    111.42046  0.094745292   0.10564423            2 
   99000    1.2298649   -2.3474213    112.69438  0.094860587   0.10579168            1 
  100000    1.2101585    -2.346483    113.59858   0.09466548   0.10592924            2 
  101000    1.2336231   -2.3429265    115.23102  0.095075096     0.106056            1 
  102000    1.2154296   -2.3566142    116.52238   0.09519802   0.10615581            1 
  103000    1.2222101   -2.3452156     117.6938  0.095221524   0.10626021            2 
  104000    1.2354699   -2.3587068    119.16158  0.095482037   0.10636243            2 
  105000     1.215456   -2.3282388    120.47619  0.095616022   0.10646629            1 
  106000    1.2146314   -2.3593505    121.75071  0.095715969   0.10656512            2 
  107000    1.2008503   -2.3593044    122.86072  0.095685921   0.10664196            1 
  108000    1.2210071    -2.360278    124.56575  0.096115549    0.1067204            3 
  109000    1.2166585   -2.3651115    124.37067  0.095084608   0.10676868            2 
  110000    1.1997644   -2.3617096    125.03488  0.094723394   0.10679574            2 
  111000    1.2153347   -2.3651304    127.66286  0.095842989   0.10682559            1 
  112000    1.2018238   -2.3530543    129.10582  0.096060878    0.1068669            1 
  113000    1.1985184   -2.3668903    130.30731  0.096096833   0.10692012            1 
  114000    1.2192546   -2.3623214    131.31765  0.095992432   0.10696942            1 
  115000     1.203562   -2.3635392     132.6718  0.096138982   0.10700752            2 
  116000     1.208542   -2.3577199    133.77176  0.096100405   0.10704065            5 
  117000    1.2121812   -2.3756279    135.21995  0.096310509   0.10706557            2 
  118000    1.1858212    -2.355736    135.92395  0.095991492   0.10708309            1 
  119000    1.2566396   -2.3831133    137.54466  0.096319791   0.10712024            2 
  120000    1.1759966    -2.373253    138.79161  0.096383064   0.10715235            1 
  121000    1.2298033   -2.3734209    140.79409  0.096965623    0.1071936            1 
  122000    1.1953764   -2.3557983    142.21018  0.097138102   0.10722014            2 
  123000    1.2020063   -2.3308991    142.84159  0.096776146   0.10725683            3 
  124000    1.2036864   -2.3830531    144.80427  0.097314698   0.10729212            2 
  125000    1.2091315   -2.3666995     145.3147  0.096876464   0.10731725            2 
  126000    1.1939338   -2.3938034    146.59522  0.096954513    0.1073382            1 
  127000    1.2005239   -2.3560119    147.80034  0.096981848   0.10734778            1 
  128000    1.2101941    -2.364112    149.28107  0.097188193   0.10735871            1 
  129000    1.2185119   -2.3635648    149.90002  0.096834639   0.10737195            1 
  130000    1.1975085   -2.3546042    151.25596  0.096958951   0.10737496            1 
  131000     1.180277   -2.3837658    152.52181  0.097024051   0.10737901            1 
  132000      1.20793   -2.3901878    153.00164  0.096591945   0.10736869            4 
  133000    1.1920065   -2.3568418    154.88961   0.09704863   0.10735093            1 
  134000    1.2325891   -2.3474114     155.6478  0.096795893   0.10732706            1 
  135000    1.2090545   -2.3761825    157.61588  0.097293754   0.10730785            1 
  136000    1.2218802   -2.3635467    158.66983  0.097224158   0.10728121            2 
  137000    1.2152217   -2.3646544     159.8598  0.097238319   0.10725944            2 
  138000    1.1965316   -2.3684572    160.96991  0.097204054   0.10723637            1 
  139000    1.1828922   -2.3747562    162.55826  0.097456988   0.10721513            1 
  140000    1.2018046   -2.3598587    162.95206  0.096995271   0.10719751            1 
  141000    1.2241627   -2.3672181    164.67363  0.097324842   0.10717388            1 
  142000    1.1802744   -2.3753581      164.776  0.096699532   0.10715032            1 
  143000    1.1872123   -2.3655246    167.11412  0.097385853   0.10711496            2 
  144000    1.1697239   -2.3462208    168.64983  0.097598279   0.10708523            1 
  145000    1.1989437   -2.3953699    169.92269  0.097656716   0.10705328            1 
  146000    1.2151371   -2.3645069    171.73375  0.098021546   0.10703488            1 
  147000    1.2015621   -2.3764809    172.10629  0.097565924   0.10702285            3 
  148000    1.1959461   -2.3728498    174.68214  0.098357061   0.10701534            2 
  149000     1.177559   -2.3614316    176.50268  0.098715147   0.10701101            1 
  150000     1.188083   -2.3713717    176.93398  0.098296654   0.10701844            2 
  151000    1.2125789   -2.3938635    177.51724   0.09796757   0.10701405            1 
  152000    1.1936327   -2.3576653    179.63083  0.098481816   0.10701212            2 
  153000    1.1811771   -2.3326133    181.30481  0.098749895   0.10700469            1 
  154000    1.1822948   -2.3643687    181.89571  0.098428415   0.10700191            1 
  155000    1.1807038   -2.3655813    183.48046  0.098645411   0.10701439            2 
  156000     1.188565   -2.3692358    185.02414  0.098837681   0.10703836            3 
  157000    1.1829712   -2.3699208    187.21417  0.099370577   0.10705655            1 
  158000    1.1960202   -2.3655137    187.80585  0.099053718   0.10706897            1 
  159000    1.1909204    -2.379584    188.80496   0.09895438   0.10707786            2 
  160000    1.1806716   -2.3467472     190.3516  0.099141456   0.10708856            1 
  161000    1.2110843   -2.3912688     191.4544  0.099096478   0.10709692            1 
  162000    1.1733317   -2.3682564    191.45481  0.098484986   0.10709642            1 
  163000    1.1819329   -2.4041969    192.98514  0.098663157   0.10708912            1 
  164000    1.1979268   -2.4102658    194.59779  0.098880989    0.1070816            2 
  165000    1.1593544   -2.3906155    195.73111  0.098854095   0.10706641            1 
  166000    1.1910786    -2.392451    196.60423  0.098696903   0.10705251            2 
  167000    1.1768811   -2.3760542    199.04421  0.099323455   0.10704786            1 
  168000    1.1695203     -2.34246    200.17261  0.099291967   0.10703587            1 
  169000    1.1988233     -2.38495    201.18153  0.099201936   0.10702763            1 
  170000    1.1888495   -2.3487168    202.33941  0.099185983   0.10701506            1 
  171000    1.1848827   -2.3561034    204.13569  0.099481328   0.10700316            3 
  172000    1.1882605   -2.3757669    202.62372  0.098170405   0.10698209            3 
  173000    1.1620009   -2.3827923     205.1376  0.098813873   0.10696054            1 
  174000    1.2065151   -2.3698047    205.66817  0.098500081   0.10693203            2 
  175000    1.1678315   -2.3463916    208.98765  0.099517928    0.1069133            3 
  176000    1.2003753   -2.3923015      209.292  0.099096588   0.10689889            1 
  177000    1.1795628   -2.3743109    209.85879  0.098803571   0.10687764            2 
  178000    1.1899808   -2.4036422    210.52229  0.098559126   0.10684363            1 
  179000    1.2022659    -2.380359    212.69636  0.099020653   0.10681328            2 
  180000    1.1889946   -2.4004612    212.72534  0.098483953   0.10678866            1 
  181000    1.1954272   -2.4007348     215.3529  0.099149586   0.10675933            2 
  182000    1.1845443   -2.3743522    216.49042  0.099125648   0.10673805            1 
  183000    1.1811964   -2.4161673    218.38595  0.099447152   0.10672011            1 
  184000     1.198482   -2.3854225     219.7399  0.099519881   0.10670883            1 
  185000    1.1889213   -2.3739032    220.37337  0.099267284    0.1066993            3 
  186000    1.1852589   -2.3633106    222.91716  0.099873279    0.1066825            1 
  187000    1.1736909   -2.3926169    222.13662  0.098991364   0.10666247            1 
  188000    1.1819965   -2.3826533    224.18823  0.099374216   0.10664018            2 
  189000    1.1644103   -2.3916133    225.08142  0.099242246   0.10660798            1 
  190000    1.2150583   -2.3731547    225.36815  0.098845678   0.10658037            1 
  191000    1.1908557   -2.3936786    227.09943  0.099083523   0.10654763            1 
  192000    1.1621835   -2.3894914    227.25808  0.098636319   0.10651585            4 
  193000    1.1683853   -2.4135176    229.74419  0.099198702   0.10648016            1 
  194000    1.1597096   -2.4004156    229.85776  0.098736149    0.1064486            1 
  195000     1.189835   -2.4037778    231.17383  0.098792236   0.10642332            2 
  196000    1.1768443   -2.3776738    231.68991  0.098507613   0.10638707            1 
  197000      1.17257   -2.3993397    234.03625  0.099000104   0.10635263            1 
  198000    1.1703576   -2.4110916    234.68578  0.098773475   0.10631702            1 
  199000    1.1553148   -2.3971731    236.12969  0.098881778   0.10628258            3 
  200000    1.2021861   -2.4020615    237.70429  0.099043453   0.10624236            1 
  201000    1.1663055   -2.3980163     238.8513  0.099026243   0.10620495            2 
  202000    1.1635563   -2.3710436    240.66853  0.099285697   0.10617336            2 
  203000    1.1848158   -2.4031098    241.31931  0.099063755   0.10614608            2 
  204000    1.1689976   -2.4105617    242.19828  0.098937207   0.10611705            2 
  205000    1.1611427   -2.3795987     243.3127  0.098907603   0.10608704            2 
  206000    1.1780001   -2.3963164    245.69961  0.099393047   0.10605889            1 
  207000    1.1828693   -2.3741176    246.79485  0.099353803   0.10603077            1 
  208000    1.1625733   -2.3872192    248.60086  0.099599705   0.10601058            1 
  209000    1.1635169   -2.3987026    248.95106  0.099262784   0.10599128            2 
  210000    1.1564585   -2.3861347    251.45518  0.099783801    0.1059726            2 
  211000    1.1663164   -2.4145944    250.76099  0.099036727   0.10595145            1 
  212000    1.1753856   -2.4090928    253.23178  0.099540793   0.10592612            1 
  213000    1.1863252   -2.3763456    253.55631  0.099200435    0.1059039            1 
  214000    1.1842161   -2.4196475    253.84559   0.09884953   0.10587889            1 
  215000    1.1542502    -2.387045    254.58561  0.098676595   0.10584218            1 
  216000    1.1608768    -2.412554    255.32178  0.098503773    0.1058077            1 
  217000    1.1773325   -2.4163918    256.73648   0.09859312   0.10576798            2 
  218000    1.1640757   -2.4027902    257.50668  0.098435275   0.10571991            1 
  219000    1.1773595    -2.389222    260.24122  0.099026337   0.10568049            2 
  220000    1.1667327   -2.3957179    261.35791   0.09899921    0.1056399            1 
  221000     1.167444   -2.3866689    263.71125  0.099438632   0.10559929            2 
  222000    1.1839901   -2.4051504    263.92556  0.099071157   0.10556483            3 
  223000      1.15549   -2.3803347    266.27355  0.099504315    0.1055378            1 
  224000    1.1951185   -2.3991334    266.98414  0.099324455   0.10551213            1 
  225000    1.1665706    -2.389136    268.50334  0.099445683   0.10548803            4 
  226000    1.1615768   -2.4073739    268.98604  0.099183642    0.1054596            2 
  227000    1.1694401   -2.3797045    271.34221  0.099611678   0.10543368            1 
  228000    1.1407035   -2.4160198    273.07638   0.09980862   0.10541275            1 
  229000    1.1678044   -2.4243814    273.07868  0.099373609   0.10539397            2 
  230000    1.1489783   -2.4215651     273.4254  0.099067172   0.10537358            1 
  231000    1.1687835   -2.4241085    275.27747  0.099306445   0.10535127            4 
  232000    1.1675397   -2.4292984     276.9484  0.099478592   0.10532301            1 
  233000    1.1655989   -2.3827568     277.7686  0.099344994   0.10529429            4 
  234000    1.1627551   -2.4209647    277.82671  0.098941134   0.10526653            1 
  235000    1.1595865   -2.3939043    279.29388  0.099040384   0.10523916            2 
  236000    1.1466261   -2.4314882    281.40252  0.099365298   0.10521739            2 
  237000    1.1455706   -2.4088443    283.06398  0.099530231   0.10519361            2 
  238000    1.1878414   -2.4204682    284.64753  0.099666503   0.10516917            3 
  239000    1.1877487   -2.4378143    285.46437    0.0995343   0.10514469            2 
  240000    1.1560976   -2.3891399    286.42585  0.099453421   0.10511661            1 
  241000    1.1555457   -2.4028594     287.2323  0.099319605   0.10509534            2 
  242000    1.1596331   -2.3925388    288.29359  0.099274652   0.10507157            2 
  243000    1.1626635   -2.4095386    290.37984  0.099581565   0.10505058            4 
  244000    1.1676086   -2.3807209    291.51656  0.099561666   0.10503149            2 
  245000    1.1602154   -2.4218097    292.72831  0.099567453   0.10501267            1 
  246000    1.1563313   -2.4319148    293.45099  0.099407517   0.10499212            1 
  247000    1.1466262   -2.4327004    295.30443  0.099630374   0.10496908            2 
  248000     1.150994   -2.3823432    297.78843   0.10006332   0.10494785            1 
  249000    1.1785947   -2.3820538    296.77461  0.099322158   0.10492674            2 
  250000    1.1716809   -2.4151661    298.69152   0.09956384   0.10490167            1 
  251000    1.1794575   -2.4120636    298.38391  0.099065044   0.10488068            2 
  252000    1.1438869   -2.4027824    301.23202  0.099613762   0.10485937            2 
  253000      1.17696   -2.4236166    303.70605   0.10003493   0.10483985            2 
  254000    1.1582651   -2.4347116    303.42769  0.099549768   0.10481897            1 
  255000    1.1251916    -2.383554     306.0645   0.10002108   0.10480305            2 
  256000    1.1702946   -2.4250183    304.42081  0.099095314   0.10478271            1 
  257000     1.177997   -2.4176688    306.76968  0.099471361   0.10476549            2 
  258000    1.1529098   -2.4117269    308.31327  0.099584391   0.10474723            4 
  259000    1.1686278   -2.4168474    308.47758  0.099252759   0.10472421            2 
  260000    1.1536671   -2.4441502    308.95195  0.099023061   0.10469562            3 
  261000     1.157561    -2.397377    309.65657  0.098868635    0.1046629            3 
  262000    1.1497854   -2.4112215    313.13027  0.099596143   0.10463251            2 
  263000    1.1229679   -2.4161595    311.96589  0.098848507   0.10460398            1 
  264000    1.1601669   -2.4373844    313.36961  0.098917176   0.10457266            1 
  265000    1.1795509    -2.444216    313.78064  0.098673156   0.10453444            1 
  266000    1.1392008   -2.4045533    315.86767  0.098956036   0.10449693            1 
  267000    1.1737328   -2.4327494    315.85915  0.098582757   0.10446284            2 
  268000     1.145551   -2.4571528    318.37852  0.098998296   0.10443273            1 
  269000    1.1386323   -2.4164712    319.78974  0.099067454   0.10440038            4 
  270000    1.1560376    -2.435607    322.27445  0.099467422   0.10436679            2 
  271000    1.1511247   -2.4019261     322.5985  0.099200031   0.10433619            1 
  272000      1.13999   -2.4296182    323.50534  0.099113156   0.10430906            2 
  273000    1.1737201   -2.4218813    324.86311  0.099164564   0.10427787            1 
  274000     1.154032   -2.4337354    324.14774  0.098585079   0.10424675            2 
  275000    1.1434972   -2.4283641    327.96694  0.099383921    0.1042237            3 
  276000    1.1300444   -2.4060786    330.33407  0.099738548   0.10420261            1 
  277000    1.1500792   -2.4343086    330.76008  0.099506644   0.10417627            1 
  278000    1.1415866   -2.4058524    330.89306  0.099188567   0.10414964            2 
  279000    1.1306263   -2.4384876    332.79876  0.099402257   0.10412752            1 
  280000     1.148593   -2.4175955    331.82848  0.098758477   0.10410711            1 
  281000     1.123064   -2.4425076    334.48541  0.099194962     0.104074            1 
  282000     1.171548   -2.4014773    336.25033  0.099364753   0.10404507            3 
  283000    1.1229766    -2.414583    335.44955  0.098777841   0.10401182            2 
  284000    1.1302301   -2.4370041    337.16679  0.098933917   0.10397967            2 
  285000    1.1489993   -2.4600799    339.01917  0.099128411   0.10394877            2 
  286000    1.1441977   -2.4545651    337.95012  0.098470315   0.10391471            1 
  287000    1.1179119   -2.4259896    340.78772  0.098951138   0.10388037            1 
  288000    1.1402438   -2.4416505    340.52736  0.098532223   0.10384641            1 
  289000    1.1465015   -2.4364122    342.72015  0.098823573   0.10381234            2 
  290000    1.1400844    -2.426034    344.73059  0.099060514   0.10378164            3 
  291000    1.1131494   -2.4281284    346.42664  0.099205795   0.10375529            1 
  292000    1.1538333   -2.4402497    347.00796  0.099031951   0.10372746            1 
  293000    1.1372291   -2.4410611    346.91082   0.09866633   0.10369853            2 
  294000    1.1353124   -2.4301861    348.67185  0.098829891   0.10366625            2 
  295000    1.1348785   -2.4218993    350.38254  0.098978119   0.10363746            2 
  296000    1.1360397   -2.4492782    350.42057   0.09865444   0.10360572            1 
  297000    1.1181038   -2.4099554    352.09087  0.098790928   0.10357262            2 
  298000    1.1495376   -2.4493746    351.40216  0.098266822   0.10353469            2 
  299000     1.125238   -2.4313313    351.74734  0.098034375   0.10349102            2 
  300000    1.1332871   -2.4640513    351.73529  0.097704247   0.10344773            1 
  301000    1.1448739   -2.4254864    354.69207  0.098198247   0.10340491            3 
  302000    1.1389843   -2.4332452    355.09782  0.097985049   0.10336404            1 
  303000    1.1342505   -2.4735569    355.52096  0.097778043   0.10332164            2 
  304000    1.1473122   -2.4277611    357.35855  0.097960127   0.10327753            2 
  305000    1.1344191   -2.4136639    359.25598  0.098157372   0.10323761            2 
  306000    1.1374357   -2.4441838    360.35937  0.098137084   0.10319406            2 
  307000    1.1206797   -2.4207059    360.13782  0.097757279   0.10315067            4 
  308000    1.1143259   -2.4190869    362.25777  0.098013467   0.10310791            1 
  309000    1.1391714   -2.4559776    363.18583  0.097946556   0.10306909            1 
  310000    1.1006324   -2.4351163    364.38237  0.097952249   0.10302926            3 
  311000    1.1001599   -2.4468503    366.54404  0.098216515   0.10299427            1 
  312000    1.1007149   -2.4659081    367.96831  0.098282133    0.1029595            1 
  313000    1.1199077   -2.4468092    370.38965  0.098612793   0.10292363            1 
  314000    1.1088413    -2.448524     368.9349   0.09791266   0.10288813            1 
  315000    1.1348812   -2.4142869    369.59786   0.09777721   0.10284537            4 
  316000     1.109276   -2.4501996    369.26563  0.097380175   0.10280312            2 
  317000    1.1249715   -2.4276246    371.05644  0.097543754   0.10275833            1 
  318000    1.1363528   -2.4560673    371.64813  0.097392067   0.10271739            1 
  319000    1.1317658   -2.4596469    375.51042  0.098095721   0.10267293            1 
  320000    1.1464619   -2.4634458    373.44577  0.097251503   0.10263082            3 
  321000    1.1214084    -2.461523    374.64073  0.097258755   0.10258454            1 
  322000    1.1223587   -2.4623979     375.3636  0.097143789   0.10253228            1 
  323000    1.1225143    -2.460158    377.69084  0.097443456   0.10248139            1 
  324000    1.1357322   -2.4427027    378.61857   0.09738132   0.10243323            1 
  325000    1.1185614   -2.4498362    379.79894  0.097384343   0.10238355            2 
  326000    1.1053697   -2.4169158    379.07704  0.096901082   0.10233655            1 
  327000     1.110884   -2.4472272     379.9128  0.096817737    0.1022837            1 
  328000    1.1482172    -2.439553    382.24451  0.097114966   0.10223059            1 
  329000    1.1182527   -2.4304548    383.06413  0.097027389   0.10217722            3 
  330000     1.135196   -2.4332183    382.45584  0.096579758   0.10212252            1 
  331000    1.0951195   -2.4963626    384.27441  0.096745824   0.10206913            2 
  332000    1.1183232   -2.4371767    387.11235  0.097166755   0.10201348            4 
  333000    1.1364711   -2.4641419    385.65842  0.096511116   0.10195774            2 
  334000    1.1169726   -2.4722656    387.19642  0.096605893   0.10190337            2 
  335000    1.1182285   -2.4461896     388.8859  0.096737785   0.10184934            3 
  336000    1.1112763   -2.4930719    389.76959  0.096669046   0.10179447            3 
  337000    1.1139117    -2.445981    389.82534  0.096395978   0.10174235            2 
  338000    1.1176384   -2.4536692    392.29657  0.096720061   0.10168895            4 
  339000    1.1030251   -2.4680746    393.08941  0.096629649   0.10163715            2 
  340000    1.1266055   -2.4588153    394.41364  0.096670009   0.10158238            2 
  341000    1.1272737   -2.4333233    394.93357   0.09651358   0.10152799            1 
  342000    1.1156896   -2.4484657    397.68437  0.096901649   0.10147488            3 
  343000    1.1036884   -2.4427277    396.71955  0.096384729   0.10142375            3 
  344000     1.097344   -2.4623185    398.45302  0.096524471   0.10137274            2 
  345000    1.1081665   -2.4455327    399.31142  0.096452033   0.10132443            1 
  346000    1.1081342   -2.4751965    398.87993  0.096069348   0.10127609            2 
  347000    1.0988693   -2.4628941    401.09581  0.096324643   0.10123122            1 
  348000    1.1216323   -2.4620212    402.65557  0.096421352   0.10118323            2 
  349000    1.1145988   -2.4499825    403.55043  0.096358747   0.10113618            1 
  350000    1.1097666   -2.4671836    403.24653  0.096011078   0.10108903            2 
  351000    1.1110461   -2.4471309    404.85903  0.096120377   0.10103977            2 
  352000    1.1104081   -2.4413598    406.82685  0.096313175   0.10098814            5 
  353000    1.1248564   -2.5002611    405.88298  0.095817512   0.10093444            4 
  354000     1.087986   -2.4725262      408.331  0.096123116   0.10088212            2 
  355000    1.1236679   -2.4492901      408.577  0.095910093   0.10083373            1 
  356000    1.1102333   -2.4624473    409.73823  0.095912507   0.10078658            1 
  357000    1.0959277   -2.4571485    409.15786  0.095508371   0.10073875            1 
  358000    1.1082902   -2.4663171    413.53792  0.096261154   0.10068796            2 
  359000    1.0990165   -2.4523097    413.12751   0.09589775   0.10063888            1 
  360000    1.0984648   -2.4567408     415.9681  0.096288911   0.10059284            2 
  361000    1.1073803   -2.4685267    414.93219  0.095783055   0.10054344            2 
  362000    1.1155276   -2.4663937     416.2638  0.095824999   0.10049186            2 
  363000    1.1115809   -2.4455686    417.50829  0.095846715   0.10044173            2 
  364000    1.1362669   -2.4347765    418.14375   0.09572888   0.10039196            1 
  365000    1.0932995   -2.4791743    417.59006  0.095340196   0.10034055            2 
  366000    1.1226773   -2.4742965    420.24505   0.09568421   0.10029319            1 
  367000    1.0969696   -2.4698816    419.91265  0.095348013   0.10024218            1 
  368000    1.1116362   -2.4535101    420.89807  0.095312063   0.10018957            1 
  369000    1.1165496    -2.434112    420.83428  0.095039358   0.10013414            3 
  370000    1.1112332   -2.4420899    423.51393  0.095386019   0.10008052            4 
  371000    1.0983501   -2.4691811    421.81301  0.094746858   0.10002372            1 
  372000    1.0942936   -2.4539409    426.06547  0.095444775  0.099968192            2 
  373000    1.0879848   -2.4715473    425.86175  0.095143375  0.099912137            1 
  374000    1.1148446     -2.45314    426.63864  0.095062085  0.099856795            2 
  375000     1.117087   -2.4436949    427.72535  0.095050077  0.099806695            2 
  376000    1.1044848   -2.4768761    430.53589  0.095420189  0.099756074            3 
  377000    1.0921114   -2.4651546    431.01771  0.095273588  0.099706021            2 
  378000    1.1297197   -2.4615902    430.69393   0.09495016  0.099655911            2 
  379000    1.0653014   -2.4618331    432.56233  0.095110451  0.099604742            1 
  380000    1.1190857   -2.4660186    433.04938   0.09496697  0.099553896            2 
  381000    1.1191489   -2.4460774    434.27579  0.094985956  0.099502219            1 
  382000    1.1031563   -2.5200007       435.42  0.094986911  0.099451717            3 
  383000    1.1073682   -2.4544132    435.61138  0.094780544   0.09939701            1 
  384000     1.074887   -2.4882456    435.73215  0.094559928  0.099343846            2 
  385000    1.0857286   -2.4547233    439.97693  0.095233102  0.099289774            2 
  386000    1.0906741   -2.4579085    438.78974  0.094730082  0.099238224            2 
  387000     1.093002   -2.4629909    440.83079  0.094924804  0.099187329            1 
  388000    1.0852697   -2.4718431    441.73421  0.094874186  0.099136612            1 
  389000    1.0985836   -2.4878279    441.75698  0.094635171   0.09908323            1 
  390000    1.0890151   -2.4800404    440.88248  0.094205658  0.099030583            3 
  391000    1.0918447   -2.4530583    445.34051  0.094914856   0.09897565            3 
  392000    1.1194442   -2.4776092    444.31665  0.094455071  0.098922265            2 
  393000    1.0764158   -2.4789804    443.61014  0.094064914  0.098868769            1 
  394000    1.1110385   -2.4629057    447.37906  0.094623321  0.098815722            1 
  395000    1.0882196   -2.4587981      448.609  0.094643248  0.098765389            1 
  396000    1.0982676   -2.4407045     449.0071  0.094488026  0.098713476            1 
  397000    1.1183747   -2.4869522    450.09627  0.094478646  0.098663443            2 
  398000    1.0805862   -2.4739932    451.77162  0.094592048  0.098614409            2 
  399000    1.0867554   -2.4900677    449.97835  0.093980441  0.098560804            3 
  400000    1.0852151   -2.5049753    450.84322   0.09392567  0.098506777            4 
  401000     1.128682    -2.480586    452.94804  0.094128852  0.098453783            1 
  402000    1.1175533   -2.4801773    452.22722  0.093745278  0.098399803            2 
  403000    1.1065681   -2.4696966    453.94973  0.093868845  0.098344221            1 
  404000    1.1014964   -2.4800487    453.47766   0.09353912  0.098288975            2 
  405000    1.0794826   -2.4926768    456.20851  0.093870063  0.098232848            1 
  406000    1.0874472   -2.4578887    457.68039  0.093940966  0.098178265            1 
  407000     1.095516   -2.4972283    458.50178  0.093878334  0.098123105            2 
  408000     1.105522   -2.4644973    458.74179  0.093697261  0.098069221            1 
  409000    1.0882088   -2.4839678    462.12991  0.094158499  0.098015853            3 
  410000    1.0595395   -2.4816993    462.60609  0.094025627  0.097960266            1 
  411000    1.1079841   -2.4724768    461.20721  0.093513221  0.097903978            1 
  412000    1.0835888   -2.4759987    462.46974  0.093541614  0.097848375            2 
  413000    1.0796171   -2.4951161    462.75871  0.093373428   0.09779317            1 
  414000    1.0886942   -2.4772697    465.00949  0.093600945  0.097739656            2 
  415000    1.0948807   -2.4869635    466.38339  0.093651282  0.097686756            2 
  416000    1.0910299   -2.4646017     467.3044  0.093610658  0.097634428            1 
  417000    1.0693277   -2.4641794    466.84939  0.093295242  0.097581145            1 
  418000     1.093764   -2.4840612     472.2647  0.094151654  0.097530249            2 
  419000    1.1052161   -2.4716213    472.44271  0.093962352  0.097481482            7 
  420000    1.0743463   -2.4650015    473.98847  0.094045331  0.097432827            4 
  421000    1.0995135    -2.501208    472.49917  0.093527151  0.097384993            2 
  422000     1.079345   -2.4961505    473.46272  0.093495797   0.09733576            3 
  423000    1.0912684   -2.4865312    475.67343  0.093710289  0.097287217            3 
  424000    1.0835596   -2.4930488    476.45419  0.093642726  0.097237179            4 
  425000    1.0884169   -2.5091509    475.51582  0.093238396  0.097188112            1 
  426000    1.0896621   -2.4951834    476.69164  0.093249538  0.097139633            2 
  427000    1.0623533    -2.486218     479.6739  0.093613173  0.097091939            1 
  428000    1.1031715   -2.5073053    479.82474   0.09342382  0.097044487            2 
  429000    1.1166968    -2.494904    480.29268  0.093296947  0.096998442            2 
  430000    1.0701061   -2.4795591    482.94255  0.093593518   0.09695411            2 
  431000    1.0858079   -2.4811782    485.05157  0.093784139   0.09690958            1 
  432000    1.0798722   -2.4714517    483.28313  0.093225911   0.09686573            2 
  433000    1.0371149   -2.5089205    488.60725  0.094035267  0.096821507            1 
  434000    1.0752246   -2.5020732    485.55567  0.093232655  0.096776631            2 
  435000    1.0821576   -2.4728567    487.88034  0.093463668  0.096733347            3 
  436000    1.0752148   -2.4818017    489.70488  0.093598027  0.096688646            3 
  437000    1.0933305   -2.4688677    491.00571  0.093631905  0.096645099            2 
  438000    1.0803924   -2.4848864    491.95173  0.093598121  0.096601848            2 
  439000    1.0655391   -2.4944412    492.52308  0.093493372  0.096557691            2 
  440000    1.0804501   -2.4823095    492.17046  0.093214103  0.096514003            1 
  441000    1.0731374   -2.4588869    494.32378  0.093409632  0.096471217            3 
  442000     1.079546   -2.5320136    492.64008   0.09288086  0.096427819            2 
  443000    1.0921572   -2.5217116    495.96853  0.093297315  0.096384111            1 
  444000    1.0743132   -2.4881968    495.53919  0.093006605   0.09633993            2 
  445000    1.0693525   -2.5229203    496.29934  0.092939951  0.096298367            2 
  446000    1.1003052   -2.5197407    498.20629  0.093087872  0.096254678            1 
  447000    1.1011136   -2.4615457    500.86226  0.093374768  0.096212619            4 
  448000    1.0485633   -2.5161965    500.02273   0.09301018  0.096170752            3 
  449000    1.0791708   -2.5125077    499.24874   0.09265938  0.096127381            2 
  450000    1.0717764   -2.4996185    504.59617  0.093443735  0.096085184            2 
  451000    1.0614977   -2.4890569    504.88901  0.093290653   0.09604476            1 
  452000    1.0840104   -2.5198698    504.53264  0.093018555  0.096002368            1 
  453000    1.0606705   -2.5040415    506.06039  0.093094259  0.095961615            4 
  454000    1.0730044    -2.478623    506.85704  0.093035432  0.095919719            1 
  455000     1.084677   -2.5055767    506.92569  0.092843533  0.095878581            1 
  456000    1.0746192   -2.5308325    509.75718  0.093157379  0.095836213            2 
  457000    1.0846427   -2.5203781    509.28143  0.092866782  0.095797108            2 
  458000    1.0660723   -2.4940028    511.00302  0.092977259  0.095756991            3 
  459000    1.0687449   -2.5228712    512.28136  0.093006783  0.095717532            1 
  460000    1.0698257   -2.5016874    512.14838  0.092780504  0.095677536            1 
  461000    1.0521966   -2.4850309    512.19366   0.09258743  0.095637033            3 
  462000     1.087424    -2.526503    514.80096  0.092857316  0.095596622            3 
  463000     1.058529   -2.4615111    517.52193  0.093146495  0.095556374            1 
  464000    1.0465401   -2.5111287    515.36123  0.092557691  0.095517731            2 
  465000    1.0716191    -2.501122    517.77461  0.092791149  0.095478862            3 
  466000    1.0429338   -2.4872019    519.92365  0.092976332  0.095440596            2 
  467000    1.0745643   -2.4918565    519.21016  0.092649921  0.095402526            2 
  468000    1.0597813   -2.5076631    519.11137   0.09243436  0.095360938            1 
  469000    1.0802545   -2.5054735    518.67571  0.092159863  0.095319886            2 
  470000    1.0744684   -2.4961297    521.76367   0.09251129  0.095279549            2 
  471000    1.0599894   -2.4723727    524.55059   0.09280796  0.095241427            4 
  472000    1.0748995   -2.5066381    521.25482  0.092029452  0.095201779            4 
  473000    1.0717853    -2.507331    523.86123  0.092294085  0.095161379            1 
  474000    1.0700711   -2.5276465    527.02763  0.092656054  0.095123206            3 
  475000    1.0636907   -2.5105413     526.6993  0.092403385  0.095083395            3 
  476000    1.0607653   -2.5377132     526.6711  0.092204324  0.095044229            2 
  477000    1.0689519   -2.5383547    526.32864  0.091951195   0.09500452            1 
  478000    1.0562476   -2.5083263    529.57727  0.092325186  0.094963851            3 
  479000    1.0668191   -2.4778372    529.84404  0.092178852  0.094925042            1 
  480000    1.0631282   -2.4970358    530.02818  0.092018781  0.094883967            2 
  481000    1.0484654   -2.5268372    527.53954  0.091396317  0.094840489            2 
  482000    1.0654999   -2.5016019    530.87914  0.091784084  0.094798232            1 
  483000    1.0710232   -2.5242338    531.94132  0.091777315  0.094755715            2 
  484000    1.0621212   -2.4985282    532.06574  0.091609115  0.094712955            3 
  485000    1.0530246   -2.4988123    535.75605  0.092054304  0.094670889            2 
  486000    1.0312904   -2.5303477    537.25992  0.092122757   0.09462778            2 
  487000    1.0705162   -2.5186665    537.23428  0.091929206  0.094587753            3 
  488000    1.0614926     -2.50317    538.43696  0.091946202  0.094547002            4 
  489000    1.0504994   -2.5247288    536.15664  0.091369571  0.094504984            1 
  490000    1.0731467   -2.5321727    536.77314  0.091287949    0.0944633            2 
  491000     1.038589   -2.5417873    540.13659  0.091672876   0.09442048            3 
  492000    1.0591918   -2.5207557    542.47065  0.091881885  0.094379834            2 
  493000    1.0687453     -2.51585    541.94854  0.091607257  0.094338072            2 
  494000    1.0523517   -2.5205735    543.95438  0.091760186  0.094296251            1 
  495000    1.0588738    -2.501157    541.39683  0.091144248  0.094252296            2 
  496000     1.058281   -2.5159054    543.82444  0.091368354  0.094208199            1 
  497000    1.0491964   -2.4887443     546.7406  0.091673473  0.094164622            2 
  498000    1.0644489    -2.517875    545.99642  0.091364862  0.094122524            5 
  499000    1.0476216     -2.53234    548.27142  0.091561694  0.094080107            2 
  500000    1.0516922   -2.5276725     547.3516  0.091225266   0.09403689            4 
  501000    1.0599372   -2.5229923      549.028  0.091322022  0.093993431            1 
  502000    1.0522802   -2.5052718    550.54425  0.091391808  0.093950979            2 
  503000    1.0709326   -2.5151241    549.29589  0.091003295  0.093907187            2 
  504000    1.0666147   -2.5040347    547.63621  0.090548316  0.093861094            1 
  505000    1.0789306   -2.5249161    550.19976   0.09079204  0.093816385            1 
  506000    1.0675389   -2.5077469    553.07909  0.091086806  0.093773744            2 
  507000    1.0452474   -2.4981607      553.639  0.090999178  0.093729353            1 
  508000    1.0260223   -2.5437534     554.7128  0.090996194  0.093686481            1 
  509000    1.0330107   -2.5330186    553.63296  0.090640628  0.093642085            1 
  510000    1.0454106    -2.502878    555.75438  0.090809539  0.093597851            2 
  511000    1.0515042   -2.5238208    558.06387  0.091008459  0.093558373            3 
  512000    1.0556478   -2.5323124    560.53594  0.091233064  0.093518285            3 
  513000    1.0379259   -2.5171477    559.34114  0.090861133  0.093477718            1 
  514000    1.0512923   -2.5623794    563.07672      0.09129  0.093438487            3 
  515000     1.035573   -2.5462229    561.96502   0.09093285  0.093399233            3 
  516000    1.0607971   -2.5198499    564.45463  0.091158694  0.093360494            3 
  517000    1.0384752   -2.5314426    564.79209  0.091036765  0.093320878            7 
  518000    1.0471324   -2.5587209    563.23864  0.090611106  0.093281696            3 
  519000    1.0457082   -2.5374509      567.427  0.091109024   0.09324279            3 
  520000    1.0196567   -2.5239117    566.55167  0.090793536  0.093203995            1 
  521000     1.038533   -2.5325767    567.36647  0.090749596  0.093165344            1 
  522000    1.0281745   -2.5213311    567.78197  0.090642076  0.093125003            3 
  523000    1.0461974   -2.5332611    565.79127  0.090151572  0.093083846            1 
  524000    1.0734819   -2.5349336    569.92337  0.090636668  0.093042795            3 
  525000     1.046062   -2.5465949    568.17045  0.090185786  0.093000806            1 
  526000    1.0363034   -2.5524546    570.06258  0.090314097  0.092958174            2 
  527000    1.0390856   -2.5448308    569.84545  0.090108388   0.09291577            5 
  528000     1.019957   -2.5299418    572.76217  0.090398069  0.092874694            1 
  529000    1.0458429   -2.5452777    574.49234  0.090499738  0.092835426            2 
  530000    1.0396958    -2.545252    573.50263  0.090173369  0.092796198            1 
  531000    1.0283785    -2.499924    577.15245  0.090576342  0.092756608            1 
  532000    1.0560414   -2.5228485    575.70225  0.090178924  0.092716049            1 
  533000    1.0611058   -2.5460865     579.8549   0.09065899  0.092676873            2 
  534000    1.0468985   -2.5207218    579.08521  0.090369103  0.092636516            2 
  535000    1.0290148   -2.5249843    579.75726  0.090304869   0.09259693            1 
  536000    1.0643897   -2.5213338    580.93265  0.090319131  0.092558393            2 
  537000    1.0457198   -2.5657598    581.32015  0.090211072  0.092517954            3 
  538000    1.0470249   -2.5403584    581.08876  0.090007553  0.092478845            1 
  539000    1.0614522   -2.5577916    580.75953  0.089789661  0.092437372            3 
  540000    1.0273152   -2.5130014    586.03606  0.090437663  0.092397327            2 
  541000    1.0281933   -2.5426653    584.09007  0.089970743  0.092359003            3 
  542000    1.0325155   -2.5446906    585.78428  0.090065233  0.092321671            2 
  543000    1.0277126   -2.5539205     586.3067  0.089979542  0.092283718            3 
  544000    1.0395574   -2.5508258    589.74974  0.090341565  0.092246864            5 
  545000    1.0142038   -2.5214544    589.16744  0.090086764   0.09220982            4 
  546000    1.0424712   -2.5611457     590.8088  0.090172284  0.092170701            4 
  547000    1.0240643   -2.5446809     591.5644  0.090122548  0.092133301            4 
  548000    1.0279921   -2.5420644     592.3852  0.090082907  0.092096433            1 
  549000      1.02811   -2.5120998    596.92691  0.090608213  0.092059529            1 
  550000     1.039043   -2.5405127     593.8748   0.08998103  0.092023171            2 
  551000    1.0453907   -2.5560924    592.77327   0.08965113  0.091985436            2 
  552000    1.0480188   -2.5527147    593.64736  0.089620676  0.091946995            1 
  553000    1.0277418   -2.5328693    595.89885  0.089797898  0.091908598            1 
  554000    1.0342381   -2.5799727    596.75498  0.089764588  0.091871432            1 
  555000    1.0459708   -2.5502383    597.00734  0.089640741  0.091834307            2 
  556000    1.0136255   -2.5666776     598.1137  0.089645339  0.091795502            2 
  557000    1.0068938   -2.5428469    600.64952  0.089863783  0.091757384            2 
  558000    1.0226301   -2.5310391    599.99712  0.089605304  0.091720643            4 
  559000    1.0349977   -2.5511151    599.06811  0.089306516  0.091681276            1 
  560000    1.0254785    -2.567451    601.32893  0.089483471  0.091641609            2 
  561000     1.045022   -2.5568229    601.38737  0.089332646  0.091602555            2 
  562000    1.0325268   -2.5373217    605.70402  0.089813763   0.09156443            3 
  563000    1.0271338   -2.5257839      606.904  0.089831852  0.091526067            1 
  564000    1.0410314   -2.5642835    608.52597   0.08991223   0.09148902            3 
  565000    1.0196106   -2.5512894    604.70117  0.089188964  0.091451564            4 
  566000    1.0569337   -2.5644443    607.91283  0.089504244  0.091412251            4 
  567000    1.0193068   -2.5766807    608.89593  0.089490877  0.091372983            8 
  568000    1.0471751   -2.5328985    608.95693  0.089342273   0.09133427            3 
  569000    1.0196919   -2.5614112    608.06513  0.089054647  0.091294684            1 
  570000    1.0331115   -2.5573837    611.60138  0.089415407   0.09125649            1 
  571000    1.0131979   -2.5301812    610.75067  0.089134657   0.09121776            1 
  572000     1.031845    -2.556923    611.56102  0.089096886  0.091179262            2 
  573000      1.03175   -2.5513788    610.72332  0.088819564   0.09114058            2 
  574000     1.037887   -2.5905018    611.31587  0.088750852  0.091101427            2 
  575000    1.0068865   -2.5535971    615.11793  0.089147525  0.091062496            2 
  576000    1.0347431   -2.5561045    611.46639  0.088464465  0.091023814            2 
  577000    1.0471152   -2.5935086    613.65276  0.088626915  0.090984097            2 
  578000    1.0181701   -2.5492799    616.75737  0.088921189  0.090943945            3 
  579000    1.0177057   -2.5507421    618.33803  0.088995111  0.090903463            2 
  580000    1.0234653   -2.5603129    617.76609  0.088759495  0.090864368            2 
  581000    1.0369457   -2.5300096    619.33173  0.088831287  0.090825027            1 
  582000     1.036677   -2.5636911     617.2776  0.088384536  0.090784035            4 
  583000    1.0300889   -2.5455192    618.64823  0.088428849  0.090744409            2 
  584000    1.0143661   -2.5496965     622.6226  0.088844549  0.090704849            2 
  585000    1.0222831   -2.5423784    621.67555  0.088557771  0.090666629            2 
  586000    1.0275146   -2.5648634    624.10151  0.088751637  0.090627999            2 
  587000    1.0060853   -2.5364054    621.84023   0.08827942  0.090589314            1 
  588000    1.0008453   -2.5580087    624.59053  0.088519066  0.090548885            1 
  589000    1.0060238   -2.5611956    625.67333  0.088521977  0.090509636            2 
  590000    1.0171248    -2.561883    629.92665   0.08897269  0.090471475            2 
  591000   0.98602416   -2.5588309    624.81515  0.088101403  0.090432677            1 
  592000    1.0122504   -2.5508149    628.36038   0.08845163  0.090394923            2 
  593000    1.0136646   -2.5579723    630.95474  0.088667052  0.090356762            4 
  594000     1.027297   -2.5519163    630.63314  0.088472662  0.090320098            2 
  595000   0.99370925    -2.561295    632.81233  0.088629178  0.090282777            2 
  596000    1.0122382   -2.5402975    632.16623  0.088390133  0.090245238            5 
  597000    1.0014231    -2.560988    632.50378  0.088289193  0.090207111            3 
  598000    1.0334726   -2.5678522    631.44299  0.087993728  0.090169313            1 
  599000    1.0246474   -2.5638453    634.02516   0.08820606  0.090130499            3 
  600000    1.0003084   -2.5688838    636.99928  0.088472122  0.090092715            1 
  601000    1.0237671   -2.5598465    636.38101  0.088239187  0.090054053            3 
  602000    1.0348096   -2.5639276    636.72971  0.088140879  0.090016913            2 
  603000    1.0209727   -2.5500877    637.99297  0.088169289  0.089979054            2 
  604000    1.0272325   -2.5476268    639.63343  0.088249645  0.089940106            2 
  605000    1.0127714   -2.5515294      637.711   0.08783898  0.089900743            2 
  606000    1.0083139   -2.5801855    637.85565  0.087713923  0.089860157            1 
  607000    1.0273266   -2.5729212    640.20941   0.08789256  0.089818906            3 
  608000   0.99405179   -2.5283281    641.91978  0.087982426  0.089779458            3 
  609000    1.0293053   -2.5665373    642.43147  0.087907974  0.089740125            2 
  610000     1.010177   -2.5623065    643.59441  0.087922734  0.089701037            2 
  611000     1.001772    -2.545153    645.74154  0.088071677  0.089661698            1 
  612000    1.0086925   -2.5634685    644.80267  0.087799927  0.089624183            3 
  613000    1.0177964   -2.5932705    642.94416  0.087404045   0.08958724            3 
  614000   0.99516747   -2.5895176    647.58162  0.087891099  0.089548457            2 
  615000    1.0069879   -2.5556429    648.83512  0.087918038  0.089510488            4 
  616000    1.0250775   -2.5714195    648.49909  0.087729856  0.089473898            2 
  617000    1.0114732   -2.5660848     649.5425  0.087728593  0.089438837            2 
  618000   0.99978222   -2.5764865    652.24703  0.087951325  0.089403141            6 
  619000   0.99288428   -2.5585365    652.69335  0.087869326  0.089368879            1 
  620000    0.9997765   -2.5730048    652.38836  0.087686607  0.089333994            1 
  621000    1.0139042   -2.5643447    656.21693  0.088059169  0.089297633            1 
  622000    1.0303774   -2.5573342    655.01333  0.087756341  0.089262434            1 
  623000   0.98491022   -2.5711111    654.22501  0.087510034  0.089226607            1 
  624000   0.99929514   -2.5701028    657.18008  0.087764434   0.08918962            3 
  625000   0.99676062   -2.5754584    655.76928  0.087435905  0.089153787            1 
  626000    1.0108164   -2.5804745    658.53342  0.087664193  0.089117238            2 
  627000    1.0175869   -2.6098219    659.20061  0.087613053   0.08908131            4 
  628000    1.0032874   -2.5712845    660.07789  0.087589954  0.089045861            3 
  629000     1.009154   -2.5740624    659.82057  0.087416609  0.089010941            2 
  630000   0.97790684   -2.5805232    661.61021  0.087514578  0.088975431            4 
  631000   0.99253865   -2.5875841    661.25896  0.087329498  0.088939444            4 
  632000   0.99723704   -2.5787289    663.40932  0.087474857  0.088903847            2 
  633000    1.0092026      -2.5693    662.27341  0.087187127  0.088868807            2 
  634000    1.0191508    -2.582833    665.64655  0.087492974  0.088833663            6 
  635000    1.0137915   -2.5837503    664.38711  0.087189909   0.08879868            2 
  636000    0.9941576   -2.5943848    664.47777  0.087064697  0.088762517            2 
  637000   0.99898315   -2.5801348    665.55297  0.087068677  0.088726298            2 
  638000     1.009911   -2.5820548    667.25013  0.087153883  0.088689985            2 
  639000    1.0041462   -2.5899673    666.57104  0.086928931  0.088654122            4 
  640000    1.0015563   -2.5951754    668.27643   0.08701516  0.088618741            3 
  641000    1.0105473   -2.5862325    670.46605  0.087164073  0.088583658            1 
  642000   0.98946092   -2.5884982    670.24605  0.086999747  0.088547713            2 
  643000   0.97198589   -2.5827613    670.76831  0.086932129   0.08851081            3 
  644000    1.0079683   -2.5978572    673.44171  0.087143079  0.088474765            2 
  645000    1.0171544   -2.5626162    671.81131  0.086797327  0.088439731            4 
  646000   0.99491841   -2.5917293    671.93772  0.086679272  0.088404583            4 
  647000   0.99505084   -2.5928496    675.93806  0.087060544  0.088368945            5 
  648000   0.99773359   -2.5952795    675.33804  0.086849028  0.088334887            2 
  649000    1.0001022   -2.5943487    674.37893  0.086592056  0.088299466            2 
  650000    1.0068282    -2.580575     678.9052  0.087039128  0.088264927            4 
  651000   0.98573095   -2.5901861    678.25998  0.086822834  0.088229839            1 
  652000    1.0036169   -2.6077252    680.14481  0.086930574  0.088194738            5 
  653000    1.0050086    -2.593254    677.45687  0.086454424    0.0881597            3 
  654000   0.98809326   -2.5881358     680.9252   0.08676417  0.088124026            4 
  655000   0.99410057   -2.5904676    678.22424  0.086288072  0.088089384            1 
  656000    0.9839627   -2.5868125    680.39636  0.086432464  0.088054448            2 
  657000    1.0067145   -2.5960524    680.37787  0.086298563  0.088020165            2 
  658000   0.98486089   -2.5914305    684.55752  0.086696747  0.087984956            1 
  659000   0.99992088   -2.6016338    685.41183  0.086673221  0.087950389            3 
  660000   0.98362076   -2.5978797    685.15911  0.086509988  0.087915507            3 
  661000   0.99185312   -2.5906833    684.74547  0.086326962  0.087881485            2 
  662000   0.98810117   -2.5788693    686.97636  0.086477386  0.087847204            2 
  663000    0.9913413   -2.5791849    689.89048  0.086713233  0.087813049            2 
  664000   0.99624038   -2.6070628     690.1681  0.086617482  0.087778453            3 
  665000   0.99591248   -2.5815456    688.04511  0.086221192  0.087743403            7 
  666000   0.99821143   -2.6140298    691.10851  0.086475039  0.087707801            2 
  667000   0.99223068   -2.6002673    692.82546  0.086559902  0.087673833            6 
  668000   0.99712639   -2.5869233    691.06202  0.086210332  0.087639317            5 
  669000   0.99179693   -2.5926977    692.50561  0.086261287  0.087604237            2 
  670000     1.008002   -2.5950119    694.41375  0.086369869  0.087568624            3 
  671000   0.99614284   -2.6176932    695.12234  0.086329152  0.087532287            3 
  672000   0.99718661   -2.6191099    695.96298  0.086304933  0.087497025            3 
  673000   0.97117446   -2.6041143    695.05879  0.086064734  0.087463086            2 
  674000   0.99008405    -2.611991    697.29089  0.086213018   0.08742824            2 
  675000   0.98148884   -2.6256984    695.55826   0.08587139  0.087393679            4 
  676000    1.0005145   -2.5873015    697.40071  0.085971488  0.087361824            5 
  677000   0.98492393   -2.6403503    700.87026  0.086271573  0.087328739            1 
  678000    1.0039459    -2.587086    699.01479  0.085916273   0.08729528            6 
  679000    1.0024046   -2.5978618    697.28193  0.085577065  0.087260376            2 
  680000   0.98405625   -2.6117466      699.497  0.085722672  0.087225944            2 
  681000   0.97472488   -2.5800228    702.83845  0.086005683  0.087191864            2 
  682000    0.9784625   -2.6104108    702.35245  0.085820191  0.087156823            2 
  683000    0.9817906   -2.6221452    708.39984  0.086432387  0.087122801            2 
  684000   0.98051576   -2.6022277    705.82113  0.085991853  0.087089228            1 
  685000   0.99280278   -2.6374919    703.17609  0.085544537  0.087056079            1 
  686000   0.96763329   -2.6321664    706.77732  0.085857303  0.087023735           11 
  687000   0.98581055   -2.6061751    710.11214  0.086136844  0.086990071            4 
  688000   0.96193368   -2.6230428     708.1472  0.085773643  0.086958275            1 
  689000   0.98827991   -2.5718124     710.2464  0.085903048  0.086925701            2 
  690000   0.98402213   -2.6288001    706.00558  0.085266375  0.086893238            2 
  691000   0.96896682   -2.6138158    710.63831  0.085701677  0.086858948            1 
  692000   0.96850666   -2.6078467    709.14502  0.085398003  0.086824551            3 
  693000   0.99626185   -2.5978499    713.74783  0.085828262  0.086791663            1 
  694000   0.99205657   -2.6159164    712.78592  0.085589088   0.08675741            2 
  695000   0.97676832   -2.6318224    715.69893  0.085815219  0.086725494            3 
  696000   0.97400162   -2.5865285    717.17673  0.085868862  0.086693807            2 
  697000   0.98840857   -2.6160122    716.35081  0.085646917  0.086662136            1 
  698000    0.9738017   -2.6061837    719.48033  0.085897843  0.086631739            2 
  699000   0.97278296   -2.5934642    717.57849  0.085548222  0.086600939            1 
  700000   0.95369629   -2.5998128    717.60034  0.085428612  0.086568469            1 
  701000   0.99149166   -2.6245587    718.58032  0.085423242  0.086535657            2 
  702000    0.9739916   -2.6245868    720.47359  0.085526305  0.086503714            3 
  703000   0.97216551   -2.6012152    721.34395  0.085507818  0.086471241            3 
  704000   0.98875018   -2.6082313    720.83694  0.085326342  0.086438171            3 
  705000   0.96660003   -2.6010108    724.63322  0.085654045  0.086406077            2 
  706000   0.95545347   -2.6062123    724.23431  0.085485636  0.086373607            2 
  707000   0.97066304   -2.6412278    723.87094  0.085321893  0.086340915            1 
  708000   0.96964701     -2.59895    726.09416   0.08546306  0.086308235            2 
  709000   0.95382124   -2.6181417    725.48062  0.085270406  0.086276058            2 
  710000   0.97572365   -2.6038093    727.77141  0.085419179  0.086242874            2 
  711000    1.0028297   -2.6314968     729.5023   0.08550191  0.086210883            3 
  712000   0.95606391   -2.6422688    724.97253  0.084851654  0.086177307            3 
  713000   0.97310688   -2.6104575    730.44428  0.085372169  0.086143764            2 
  714000   0.95713963   -2.6157762    726.90075  0.084839023  0.086110376            5 
  715000   0.99606312    -2.629261    728.58243  0.084916367  0.086076629            1 
  716000   0.99497549   -2.6195085    729.25132  0.084875619  0.086042346            4 
  717000    0.9894622   -2.6094347    731.04196   0.08496536  0.086008994            4 
  718000   0.99816336   -2.6413027    731.28049  0.084874708  0.085974731            2 
  719000   0.97375949   -2.5994809    730.90219  0.084712818  0.085939845            2 
  720000   0.97666236   -2.6249092     732.6115  0.084792998  0.085905142            3 
  721000   0.98872649   -2.6114853    728.10238  0.084154227  0.085868675            1 
  722000   0.98176667    -2.633754    731.17266  0.084392043  0.085833021            2 
  723000   0.97654914   -2.6149558    733.08357   0.08449557  0.085797653            7 
  724000   0.96655345   -2.6048392    732.73865  0.084339163  0.085762393            3 
  725000   0.95452142   -2.6116505    734.10011  0.084379323  0.085726877            2 
  726000   0.97246779   -2.5988209    734.81438  0.084345085  0.085691367            2 
  727000   0.96928027   -2.6284374    734.88123   0.08423673  0.085655585            4 
  728000   0.94218958    -2.631921    737.64398  0.084437268  0.085618592            2 
  729000   0.97250549   -2.6337111     734.8818  0.084005693  0.085582519            2 
  730000    0.9793508   -2.6357189    737.93978  0.084239701  0.085546485            3 
  731000   0.96864564   -2.6257999    737.33374  0.084055374  0.085510179            4 
  732000   0.98182933   -2.6213178    738.96439  0.084126183  0.085473177            3 
  733000   0.96237308   -2.6432878    740.01006  0.084130293  0.085436625            2 
  734000   0.95918492   -2.6243019    740.18702  0.084035765    0.0853995            3 
  735000   0.96595564   -2.6302064    738.16539  0.083692221  0.085364143            2 
  736000   0.96625135   -2.6354862    740.37906   0.08382915  0.085327416            4 
  737000   0.96713495   -2.6470442    741.61167  0.083854779  0.085291854            3 
  738000   0.96121448   -2.6322116    740.73052  0.083641657   0.08525464            2 
  739000   0.95981096   -2.6322597    744.83297  0.083991088  0.085218151            4 
  740000    0.9630156   -2.6327862    745.11305  0.083909127  0.085181929            1 
  741000   0.95190231   -2.6358311    748.51458  0.084178428  0.085147122            5 
  742000   0.95401676   -2.6245094    748.78893  0.084095792  0.085111952            2 
  743000    0.9473515   -2.6227144    748.53855  0.083954525  0.085076215            1 
  744000   0.94601505   -2.6467568     747.6558   0.08374281  0.085041357            5 
  745000   0.94570675   -2.6280714    747.39649  0.083601397   0.08500576            3 
  746000   0.94922396   -2.6419269    746.70383  0.083411956  0.084970085            1 
  747000   0.94407622   -2.6277774    753.66472  0.084076832  0.084935685            3 
  748000   0.93642991   -2.6248162    749.18206  0.083465024  0.084900133            1 
  749000    0.9607322   -2.6333273    751.66012  0.083629297  0.084864572            4 
  750000   0.97044805   -2.6284911     754.1444  0.083793822  0.084828516            2 
  751000   0.97804291   -2.6336161    751.52368  0.083391442  0.084793905            1 
  752000   0.96964131     -2.63112    751.49137   0.08327697  0.084757883            1 
  753000   0.97191188   -2.6489744     754.7753  0.083529803   0.08472148            2 
  754000   0.96985687   -2.6555318    751.79854  0.083090024  0.084685148            1 
  755000   0.94946692   -2.6378532    751.54992   0.08295253  0.084648582            4 
  756000   0.95469785   -2.6321242    754.96286   0.08321901  0.084612376            1 
  757000   0.97819476   -2.6353181    756.24521  0.083250243  0.084575376            2 
  758000    0.9482706   -2.6461585    758.71206  0.083411616  0.084539044            2 
  759000   0.95484086   -2.6266498    759.61272  0.083400606  0.084502866            4 
  760000   0.92689154   -2.6453488    757.92556  0.083105873  0.084466431            4 
  761000   0.93251601   -2.6494053    757.74476  0.082976868  0.084430484            3 
  762000   0.93877002   -2.6297053    761.66321  0.083296501   0.08439496            2 
  763000   0.94625795   -2.6401636    760.42095  0.083051655   0.08435908            2 
  764000   0.94007113   -2.6558313    759.40511  0.082832146  0.084322732            8 
  765000    0.9516246   -2.6619278    761.78005  0.082982576  0.084285551            2 
  766000   0.94925495   -2.6435256    760.04384  0.082685361  0.084248272            2 
  767000   0.92816067   -2.6468901    761.76525  0.082764586  0.084210692            3 
  768000   0.93343842   -2.6541414    762.74085  0.082762679  0.084173307            3 
  769000   0.96584162   -2.6274861    766.27321  0.083037843  0.084135886            2 
  770000   0.95623394   -2.6614109    767.72442  0.083087059  0.084099538            2 
  771000   0.95840087   -2.6422673    766.21182  0.082815804  0.084061553            2 
  772000   0.96981286   -2.6463726    766.71141  0.082762458  0.084024282            2 
  773000   0.94882674   -2.6173654     769.9053  0.082999709  0.083987693            2 
  774000   0.93031943   -2.6746577     766.6703  0.082544175  0.083951958            3 
  775000   0.94962061   -2.6426993    771.53204  0.082960435  0.083915925            2 
  776000   0.95273087   -2.6674594    769.12587  0.082595132  0.083881015            6 
  777000   0.96124649   -2.6417409    769.68032  0.082548297  0.083845464            2 
  778000   0.92735537   -2.6384829    772.66307  0.082761682  0.083809622            2 
  779000   0.94487612   -2.6720698    771.67491  0.082549734  0.083773168            2 
  780000   0.96677618   -2.6442905      772.322  0.082513034  0.083736098            5 
  781000   0.94070058   -2.6788014    772.12065    0.0823859  0.083700452            2 
  782000   0.96320237   -2.6290902    774.15081  0.082496889     0.083665            3 
  783000   0.94833922   -2.6588285    775.92631  0.082580493  0.083630296            3 
  784000   0.93591764   -2.6487023    774.46897  0.082320256  0.083594617            3 
  785000   0.94133058   -2.6710008     774.2635  0.082193577  0.083559134            7 
  786000   0.94682752   -2.6675832    775.98027  0.082271021  0.083523662            3 
  787000   0.93645432   -2.6453496    778.68599  0.082452985  0.083488065            2 
  788000   0.92899122    -2.657247    780.67461  0.082558652  0.083452648            1 
  789000   0.92068075   -2.6253442    778.90454  0.082267062  0.083417343            2 
  790000   0.92621166   -2.6774755    781.01672  0.082385729  0.083382018            1 
  791000   0.95090422   -2.6451898    778.41858  0.082007857  0.083346937            5 
  792000     0.909527   -2.6774997     781.5533  0.082234144  0.083311205            1 
  793000   0.93456415   -2.6358892    782.71064  0.082252064  0.083275679            3 
  794000   0.94040441   -2.6852463    782.89149  0.082167453  0.083239045            6 
  795000   0.95111144   -2.6647293    784.66399  0.082249894  0.083203203            2 
  796000   0.94104758   -2.6538305    785.28288  0.082211357   0.08316649            3 
  797000   0.92362339   -2.6884988    780.68977  0.081627956   0.08312977            4 
  798000   0.91162551   -2.6703438    785.26753   0.08200371  0.083092881            3 
  799000    0.9279369   -2.6582546    787.37473  0.082120852  0.083056436            3 
  800000   0.94285634   -2.6607988    783.27172  0.081590804  0.083020984            2 
  801000   0.93775849   -2.6722334    788.64197  0.082047645  0.082983898            2 
  802000    0.9498544   -2.6409563    787.88512    0.0818667  0.082947888            4 
  803000   0.94106276   -2.6379504    789.39612  0.081921557  0.082911743            4 
  804000   0.91938657   -2.6715497    788.37956    0.0817143  0.082877018            4 
  805000   0.93375051   -2.6447418    788.94988   0.08167183  0.082842018            2 
  806000    0.9351313    -2.643261     788.6376  0.081538214   0.08280672            4 
  807000     0.923455   -2.6599459     790.9239  0.081673265  0.082770957            2 
  808000   0.93823301   -2.6653818     791.2773  0.081608633  0.082735071            2 
  809000   0.94634581     -2.69737    792.38861   0.08162223  0.082699334            3 
  810000   0.93433777   -2.6404436    792.94219  0.081578415   0.08266392            3 
  811000    0.8932467   -2.6817009    789.36692  0.081110452  0.082628086            3 
  812000   0.92605292   -2.6504748    796.39525  0.081731861  0.082591557            3 
  813000   0.91080445   -2.6528296    793.59408  0.081344207  0.082555735            4 
  814000   0.92301261   -2.6648117    794.07779  0.081293795  0.082519263            2 
  815000   0.91823355   -2.6829941    793.65844   0.08115117  0.082483194            2 
  816000   0.91020351   -2.6508612    794.28392  0.081115596  0.082446836            3 
  817000   0.93140423   -2.6541598     794.3016  0.081018115  0.082410274            7 
  818000   0.91272471   -2.6895079    797.16895  0.081211181  0.082374765            5 
  819000   0.94927985   -2.6775514    795.35314  0.080927263  0.082338603            6 
  820000   0.92454729   -2.6900676    798.14901  0.081112705  0.082303427            2 
  821000   0.94720671   -2.6643932     800.5064  0.081253187  0.082268551            1 
  822000   0.93769523   -2.6503316    803.39567   0.08144725  0.082234761            3 
  823000   0.92394789   -2.6633226    807.94932  0.081809368  0.082200596            1 
  824000   0.94760761   -2.6921606    804.88876  0.081400562  0.082166261            4 
  825000   0.92886172   -2.6837239    803.28935  0.081140338  0.082131171            3 
  826000   0.91012408    -2.650843    806.20516  0.081336275  0.082097414            1 
  827000   0.93499336   -2.6745545    805.24967  0.081141643  0.082063261            2 
  828000   0.91491576   -2.6734254    804.86016  0.081004445  0.082029337            2 
  829000   0.93348581   -2.6649595    803.83978   0.08080416  0.081995229            6 
  830000   0.93420971   -2.6821299    809.14391  0.081239349  0.081960908            5 
  831000   0.93871794   -2.6591285    811.37063  0.081364885  0.081927593            3 
  832000   0.93149518   -2.6803096    811.81943  0.081312042  0.081894365            2 
  833000   0.92820343    -2.669152    809.37235  0.080969623   0.08186092            3 
  834000   0.93345204   -2.6769769    808.95072  0.080830408  0.081827026            1 
  835000   0.90751995   -2.6615081    812.85397   0.08112315  0.081793137            2 
  836000   0.92936211   -2.6702364    811.50636  0.080891782  0.081759625            2 
  837000   0.90499799   -2.6867022    812.62027   0.08090604  0.081726909            1 
  838000   0.93476317   -2.6824988    812.04035  0.080751825    0.0816929            4 
  839000   0.93554611   -2.7073112    815.64194  0.081013304  0.081658704            5 
  840000   0.92141635   -2.6746662    811.30324  0.080486432  0.081624119            5 
  841000   0.89136201   -2.6959902    811.30103   0.08039051  0.081589197            2 
  842000   0.91031915   -2.6788493    812.18525  0.080382546  0.081554609            2 
  843000   0.92518163   -2.6664624     815.1777  0.080583008  0.081520179            4 
  844000   0.91686712    -2.708499    814.90594  0.080460697  0.081485802            2 
  845000   0.89423538   -2.6845215    815.54573  0.080428573  0.081451249            2 
  846000   0.92198498   -2.6778115     817.9758  0.080572872  0.081417137            2 
  847000   0.91559548    -2.686797    819.37473  0.080615381   0.08138378            2 
  848000   0.90584634   -2.6835574    818.28262  0.080412994  0.081350684            2 
  849000   0.91239511   -2.6949677    825.27952  0.081005057  0.081317112            4 
  850000   0.92659411   -2.6929496    822.52586   0.08063979  0.081284008            2 
  851000   0.92296077   -2.6777165    820.73219  0.080369388  0.081250241            3 
  852000    0.9343135   -2.6722017     819.0883   0.08011427  0.081216985            3 
  853000   0.90793981   -2.6896642    825.97054  0.080692706  0.081183702            1 
  854000   0.92067966   -2.6931223    823.35752  0.080343239  0.081150697            2 
  855000   0.90906573   -2.6911184    825.11954  0.080421008  0.081117031            7 
  856000    0.8882526   -2.6906553    823.28202  0.080148172  0.081082989            4 
  857000   0.94288136   -2.6893234    828.68025  0.080579566  0.081048828            2 
  858000   0.89620593   -2.6794066    827.78019  0.080398232  0.081014844            4 
  859000   0.93539918   -2.6859435    828.94467  0.080417604  0.080981514            1 
  860000   0.91128154   -2.6945421    826.17766  0.080055975  0.080948604            2 
  861000   0.91451686   -2.6910456    830.05843  0.080338602  0.080915882            2 
  862000   0.91596329     -2.68845    832.61965  0.080493006  0.080882518            2 
  863000   0.91923069   -2.6922181     827.2982  0.079885883  0.080849531            2 
  864000   0.90281075   -2.6739605    836.47409  0.080678443   0.08081661            4 
  865000   0.92788751   -2.6838394    831.36361  0.080092833  0.080783831            2 
  866000   0.91463211   -2.6894704    833.16597  0.080173785  0.080751602            4 
  867000   0.90421564   -2.6602707    832.09003  0.079977896  0.080718225            4 
  868000   0.90414194   -2.7200499     827.4211  0.079437509  0.080684751            3 
  869000   0.89334117   -2.6875136    835.88409  0.080157661  0.080651328            1 
  870000   0.90745123   -2.6934205    833.33769  0.079821618  0.080618655            5 
  871000   0.88301509    -2.696612    836.11387  0.079995587  0.080585418            4 
  872000   0.90317184   -2.6927806    835.85418  0.079879031  0.080552415            2 
  873000   0.90839271   -2.7008922    834.21684  0.079631237  0.080519113            2 
  874000   0.90414191   -2.6995768    834.49958  0.079567085  0.080485612            4 
  875000   0.89335881   -2.6751633    839.64347  0.079966044  0.080452389            3 
  876000   0.88003904   -2.7057364    836.82102  0.079606261  0.080419121            2 
  877000   0.92214579    -2.679517    836.05167  0.079442386  0.080386352            3 
  878000   0.88715833   -2.6799044    841.15184  0.079835976  0.080353769            3 
  879000   0.86242438   -2.6866521    841.04287  0.079734819  0.080320977            1 
  880000   0.87775369   -2.7170669    839.71882  0.079518827  0.080288442            3 
  881000   0.90120771   -2.6653058    842.68884    0.0797095  0.080255233            3 
  882000   0.90069078   -2.6923344    841.67492  0.079523329  0.080222544            1 
  883000   0.90471585   -2.7027026    843.30303  0.079586923  0.080189376            2 
  884000   0.90517808   -2.6739557    843.66186  0.079530718  0.080156471            6 
  885000   0.90112995   -2.7072492    841.90505  0.079275429  0.080123338            4 
  886000   0.91657742   -2.7222465    843.70451  0.079355202  0.080090691            3 
  887000   0.91549656   -2.7085376    845.09929  0.079396776  0.080058048            2 
  888000   0.88940181   -2.7243144    846.05294   0.07939686  0.080025607            2 
  889000   0.89788988   -2.6951615     847.3499  0.079429124  0.079993135            4 
  890000   0.90532257   -2.7097408    849.65577  0.079555784   0.07996077            5 
  891000   0.91355772   -2.6897267    849.63002  0.079464087  0.079928562            2 
  892000   0.90465367   -2.7140161     851.0047  0.079503428  0.079895497            2 
  893000   0.89078477   -2.7203656    845.23906  0.078876358  0.079862797            2 
  894000   0.89634339   -2.7211054    850.53147  0.079281457  0.079830095            2 
  895000   0.89676753    -2.737378    850.05053  0.079148094  0.079797693            3 
  896000   0.91589107   -2.7003683    855.02345   0.07952227  0.079765441            2 
  897000   0.88204585   -2.6903302     849.2588  0.078898068  0.079732619            3 
  898000   0.89145453    -2.723766    850.98102  0.078970028  0.079700081            3 
  899000   0.89004499   -2.7094592    855.68622  0.079318337  0.079667403            4 
  900000   0.88202114   -2.7287532    853.05846  0.078986894  0.079634649            4 
  901000   0.90994717   -2.6995071    854.55739  0.079037864  0.079602493            1 
  902000   0.89126351   -2.7120065    855.35683  0.079024097  0.079569312            7 
  903000   0.89480767   -2.7026755    854.77422  0.078882818  0.079535955            3 
  904000   0.89518089   -2.7123196    859.22807  0.079206128  0.079503127            2 
  905000   0.91191738   -2.7244049    856.50265  0.078867647  0.079470115            2 
  906000   0.89205993   -2.6977029    859.41345   0.07904833  0.079437677            2 
  907000   0.88716346   -2.7159245    857.87539  0.078819863  0.079404886            7 
  908000   0.88142434   -2.6974499    858.27502  0.078769733  0.079371356            1 
  909000   0.90031471   -2.7209493    855.58971  0.078436901  0.079337864            3 
  910000   0.88609873   -2.7174041    859.96457  0.078751335  0.079304004            3 
  911000   0.90894624   -2.7033934    860.20344   0.07868674   0.07927024            3 
  912000   0.89367182   -2.7014589    858.89875  0.078481246  0.079237145            3 
  913000   0.88952985   -2.7186685    861.54503  0.078636823  0.079203969            2 
  914000   0.87592738   -2.7116844    864.45184  0.078815813  0.079170797            3 
  915000   0.88497169   -2.7059535    864.27581  0.078713644  0.079138141            3 
  916000    0.9106923   -2.7170853    861.41521  0.078367468   0.07910499            2 
  917000   0.90325425   -2.7219148    863.95976  0.078513246  0.079072129            3 
  918000   0.90678929   -2.7135291    861.79916  0.078231587  0.079039203            1 
  919000   0.87757252   -2.7319877    865.57993  0.078489294  0.079006148            3 
  920000   0.89632122   -2.7165536    865.16023  0.078365962  0.078974308            4 
  921000    0.8986057   -2.7090422    864.83084  0.078251071  0.078941041            3 
  922000   0.87754456   -2.7240047    867.33063  0.078392139  0.078908261            4 
  923000   0.89701271   -2.7015793    866.57827  0.078239281  0.078874627            5 
  924000   0.86913035   -2.7137802    865.51299  0.078058531  0.078840821            3 
  925000   0.90453212   -2.7424853    867.79618  0.078179836  0.078807281            3 
  926000   0.88761494   -2.7093097    867.95281  0.078109505  0.078773649            2 
  927000   0.87752304   -2.7219132    870.90723  0.078290834  0.078740671            3 
  928000   0.91845013   -2.7438315    867.63807  0.077912901  0.078707222            2 
  929000   0.87535381   -2.7348356    869.86481  0.078028778  0.078673529            4 
  930000   0.89360643   -2.7457522    865.41187  0.077545866  0.078640686            2 
  931000   0.87235035   -2.7159255     869.9971  0.077872995  0.078607333            4 
  932000   0.88288163   -2.7166068    868.64458  0.077668506  0.078573348            6 
  933000   0.87071801   -2.7404224    870.25534   0.07772913  0.078539648            6 
  934000   0.86934977   -2.7545692    867.67291  0.077415499  0.078505411            2 
  935000   0.89569705   -2.7504781    870.07712   0.07754698  0.078472031            2 
  936000   0.86871644   -2.7222345    870.00473  0.077457686  0.078438476            2 
  937000   0.88615274   -2.7143071    874.27192  0.077754528  0.078404813            6 
  938000   0.86756333   -2.7207774    871.97013  0.077467141  0.078370467            3 
  939000   0.91114115   -2.7382714    874.08525  0.077572351  0.078336866            5 
  940000   0.88960155   -2.7196504    875.20978   0.07758952  0.078302985            2 
  941000   0.86626886   -2.7119541    880.01841  0.077932909  0.078269126            4 
  942000   0.87729606   -2.7307391    878.71644     0.077735  0.078235012            2 
  943000   0.87381191   -2.7289346     877.1631  0.077515297  0.078200636            1 
  944000   0.87833557   -2.7241581    874.79711  0.077224321  0.078166362            7 
  945000   0.86702293   -2.7397858    878.76324  0.077492349  0.078131667            2 
  946000   0.87793042   -2.7320196    879.57157  0.077481639  0.078097888            3 
  947000   0.86781415   -2.7523475    878.79637  0.077331606  0.078064137            2 
  948000   0.88036885   -2.7429824    879.10138  0.077276844  0.078029881            2 
  949000   0.88131374   -2.7477587    884.32967  0.077654519  0.077995973            4 
  950000   0.85680182   -2.7296612    879.59311   0.07715729  0.077961959            1 
  951000   0.87794036   -2.7558103    880.92998  0.077193303  0.077928202            4 
  952000   0.88643468   -2.7341327    876.03572  0.076683799  0.077893782            3 
  953000   0.87212372   -2.7299277    880.47574  0.076991582  0.077859085            3 
  954000   0.85380895   -2.7526168     881.1383  0.076968755  0.077824585            2 
  955000   0.87186375    -2.730292    883.44403  0.077089357  0.077790995            4 
  956000   0.86710051    -2.761097    883.90081  0.077048537  0.077755805            2 
  957000   0.87676803   -2.7481898    884.92997  0.077057642  0.077721337            2 
  958000   0.86894427   -2.7495969    881.59991  0.076687535  0.077686116            4 
  959000   0.86434018   -2.7447773    885.70918  0.076964649  0.077652526            5 
  960000   0.86398661   -2.7447098    882.93319  0.076643506  0.077618443            2 
  961000   0.87918444   -2.7338577    885.15271  0.076756218  0.077584266            4 
  962000   0.85078003   -2.7267263    886.43943  0.076787893  0.077550261            2 
  963000   0.88599663   -2.7386439    890.53856  0.077062873  0.077515988            3 
  964000   0.89340032   -2.7533463    889.30192   0.07687603  0.077482583            3 
  965000   0.87475419   -2.7378434    888.67066  0.076741853  0.077449075            5 
  966000   0.88145151   -2.7444408    890.99248  0.076862705  0.077416101            5 
  967000   0.88527757   -2.7419754    898.16384  0.077401227  0.077383343            4 
  968000   0.86562975   -2.7475093    893.19205  0.076893255   0.07735091            4 
  969000   0.86220139   -2.7462123    892.60895  0.076763755  0.077318487            2 
  970000   0.87505632   -2.7393377    894.66296  0.076861079  0.077285856            1 
  971000   0.86316153   -2.7455102    894.16922  0.076739549  0.077253082            3 
  972000   0.87996144   -2.7480366     899.7432  0.077138477  0.077220727            4 
  973000   0.85934008   -2.7638371    892.69017  0.076455136  0.077188161            3 
  974000    0.8573496   -2.7707804    894.42241  0.076524847  0.077155083            5 
  975000   0.86889441   -2.7500082    897.02395  0.076668714  0.077121848            2 
  976000   0.86592406   -2.7660576    898.37272  0.076705321  0.077088849            3 
  977000   0.86080966   -2.7623358    896.03888  0.076427744  0.077055889            2 
  978000    0.8578707   -2.7344716    900.38402  0.076719838  0.077024036            2 
  979000   0.87561223   -2.7617068    895.15947  0.076196754   0.07699221            3 
  980000   0.84397835   -2.7602122     899.3698  0.076477024  0.076959976            4 
  981000   0.84498442   -2.7451715     902.4585  0.076661443  0.076927389            6 
  982000   0.83225753    -2.748569    897.43071  0.076156713   0.07689454            3 
  983000   0.87599475   -2.7420083    904.71042  0.076696374  0.076861805            4 
  984000   0.84980969   -2.7622122    902.08455   0.07639605  0.076828929            3 
  985000   0.87202244   -2.7645505    899.21558  0.076075768  0.076795577            3 
  986000   0.85343248   -2.7685055    904.63502  0.076456645  0.076763565            2 
  987000   0.85651893   -2.7599156    903.45734  0.076279748   0.07673141            2 
  988000   0.88069095   -2.7627838    903.39877  0.076197602  0.076698964            3 
  989000   0.86631577   -2.7726734    907.54878  0.076470238  0.076667647            2 
  990000   0.86015471   -2.7543086    908.74083  0.076493336  0.076636443            2 
  991000   0.86836918   -2.7611267    906.64196  0.076239654  0.076605217            2 
  992000   0.85535006   -2.7663645    909.06141  0.076366046  0.076574252            1 
  993000   0.86150104   -2.7564317    909.21109  0.076301703  0.076543915            6 
  994000    0.8441022   -2.7618347    912.27645  0.076481929  0.076512704            8 
  995000   0.86711334   -2.7537957     910.4558  0.076252579  0.076481419            3 
  996000   0.85084938    -2.758841    909.19647  0.076070655  0.076450192            4 
  997000   0.86075039   -2.7547924    910.26623  0.076083771  0.076418382            3 
  998000   0.85366951   -2.7709384    913.72988   0.07629675  0.076386663            5 
  999000   0.84076514   -2.7864414    908.40154  0.075775904  0.076355307            3 
 1000000    0.8679649   -2.7488184    911.27975  0.075939979  0.076323492            4 
 1001000   0.85387889   -2.7314598    913.85066  0.076078144  0.076292414            2 
 1002000   0.85751923   -2.7715911    911.64191  0.075818522  0.076260245            3 
 1003000   0.85379056   -2.7553186    914.68602  0.075995848  0.076228016            2 
 1004000   0.84571553   -2.7753565    909.95356  0.075527354  0.076196264            5 
 1005000   0.82827442   -2.7712572    913.01841  0.075706335   0.07616364            1 
 1006000   0.86208471   -2.7575843    916.44861  0.075915226  0.076131438            5 
 1007000   0.85247788   -2.7567943    913.44073  0.075590924  0.076099011            5 
 1008000   0.85191591   -2.7682258    914.20456  0.075579081  0.076066434            3 
 1009000   0.84288528   -2.7765335    917.08312  0.075741916  0.076033754            2 
 1010000   0.84446784   -2.7475701    913.11979  0.075339917  0.076001374            4 
 1011000   0.85447699   -2.7570822    920.59875  0.075881862  0.075968598            4 
 1012000   0.82464843   -2.7647032    917.96079  0.075589657  0.075936014            1 
 1013000   0.83905247   -2.7494837    916.60978  0.075403897  0.075903405            2 
 1014000   0.85120669   -2.7887487    918.16401  0.075457265  0.075870749           10 
 1015000   0.83887258   -2.7935618    916.60729  0.075255114  0.075838372            4 
 1016000   0.85371684   -2.8011242    915.81235  0.075115842  0.075805906            3 
 1017000   0.83414621   -2.7776657    921.40741  0.075500443  0.075772988            3 
 1018000   0.85177309    -2.762015    921.23832  0.075412436  0.075740222            4 
 1019000   0.84095241   -2.7682899    921.52176   0.07536161  0.075707773            2 
 1020000   0.81394845    -2.783296    919.86128  0.075152066  0.075675693            2 
 1021000    0.8339703   -2.7737754    923.11456  0.075343989  0.075643121            2 
 1022000   0.84274026   -2.7544719    927.63541  0.075638895   0.07561079            1 
 1023000   0.85098592   -2.7849736    922.36391  0.075135541  0.075577929            2 
 1024000   0.83456085   -2.7436763    928.14633  0.075532742  0.075544933            3 
 1025000   0.84387751   -2.7768189    919.57439  0.074762145  0.075512134            4 
 1026000    0.8377308   -2.7746348    921.72863  0.074864249  0.075478777            4 
 1027000   0.84842885   -2.8013829    921.02673  0.074734399  0.075445722            5 
 1028000   0.85693478   -2.7536409    926.60971  0.075114276  0.075412509            4 
 1029000    0.8277899   -2.7986316    919.10918   0.07443385  0.075378708            4 
 1030000   0.84506972   -2.7843706    918.65425  0.074324777   0.07534471            3 
 1031000     0.847036   -2.7586635    924.26653  0.074706315  0.075310534            3 
 1032000   0.83596271   -2.7803866    924.99521  0.074692766  0.075277047            2 
 1033000   0.83678387   -2.7709772    924.02354  0.074542073   0.07524335            4 
 1034000   0.83404287   -2.7579845    926.97148  0.074707566   0.07520937            1 
 1035000   0.85440803   -2.7863588     923.6861  0.074370861  0.075175629            6 
 1036000   0.84200024   -2.7998203    930.77411  0.074869217  0.075141918            7 
 1037000   0.84208515   -2.7964568    925.46723  0.074370558  0.075107802            4 
 1038000   0.84292624   -2.7853819    925.69206  0.074316961  0.075074231            5 
 1039000   0.83387448    -2.777056    924.76641  0.074171191  0.075040254            2 
 1040000   0.84143539   -2.7626447    928.55872  0.074403744  0.075006103            4 
 1041000   0.83580056   -2.7910396    926.58417  0.074174205  0.074972089            3 
 1042000   0.83800335   -2.7668424    929.91228  0.074369184  0.074938308            2 
 1043000   0.82748783   -2.7878483    925.29282  0.073928797  0.074904454            4 
 1044000   0.82504898   -2.8005349    932.19239  0.074408716   0.07487085            4 
 1045000   0.84572512   -2.7849769    932.60575  0.074370474  0.074836843            4 
 1046000   0.83366968   -2.7906245    928.48192  0.073970835   0.07480304            5 
 1047000   0.83178464   -2.7797689    931.45549  0.074136858  0.074769038            2 
 1048000   0.83690662   -2.7812683    932.87182  0.074178739  0.074735635            3 
 1049000    0.8391883   -2.7701217    933.34064  0.074145269  0.074701373            1 
 1050000    0.8110801   -2.7836939    934.56767  0.074172037  0.074667442            8 
 1051000   0.83005088   -2.7861629    932.45177  0.073933695  0.074633473            2 
 1052000   0.84187409   -2.7925659     932.5346  0.073869978  0.074599508            3 
 1053000   0.84966325   -2.8041632     933.8877  0.073906909  0.074565164            4 
 1054000   0.85002961   -2.8016685    932.84133  0.073754058  0.074530702            8 
 1055000   0.82816074   -2.7882287    933.94174   0.07377107  0.074495841            2 
 1056000   0.84110146   -2.7825633    932.74794  0.073607003   0.07446077            2 
 1057000   0.80901639   -2.7818693    932.76319  0.073538567  0.074426384            4 
 1058000   0.83812319   -2.7865934    933.46272  0.073524159  0.074392119            6 
 1059000   0.81546101   -2.7825371    937.20376  0.073749115  0.074357963            7 
 1060000   0.82748447     -2.79259    935.35005  0.073533809  0.074323873            3 
 1061000   0.83286609   -2.8142614    937.61739  0.073642585  0.074289729            5 
 1062000     0.826535    -2.803684    937.76438  0.073584776  0.074255659            3 
 1063000     0.830428   -2.7980132    937.88536  0.073525036  0.074221499            2 
 1064000   0.83100517   -2.7716346    944.05793  0.073939374  0.074187547            4 
 1065000   0.81983931   -2.7903463    940.68047   0.07360567  0.074153917            2 
 1066000    0.8264535   -2.7942009    940.56226  0.073527381   0.07412023            5 
 1067000   0.83861999   -2.7929313    941.96224   0.07356781  0.074086807            1 
 1068000   0.83985557   -2.7984552    939.09378  0.073275107  0.074053349            3 
 1069000   0.81960913   -2.7772905    941.91027   0.07342612  0.074019977            3 
 1070000   0.81010437   -2.8024186    941.71942  0.073342634  0.073986848            2 
 1071000   0.79582602   -2.8144112     941.6105  0.073265678  0.073953377            8 
 1072000   0.83579032   -2.7716165    943.97748  0.073381334  0.073920198            2 
 1073000   0.83214272   -2.8237051    944.31752  0.073339354  0.073887093            3 
 1074000   0.81630364   -2.7933185      945.545   0.07336631   0.07385378            3 
 1075000   0.83631219   -2.8034501    945.50142  0.073294684  0.073820723            4 
 1076000   0.82123685   -2.7863887     945.4186  0.073220152  0.073787393            2 
 1077000   0.82681756   -2.7960298    948.75862  0.073410602  0.073754337            4 
 1078000   0.81312235   -2.7915784    946.17583  0.073142844  0.073721158            2 
 1079000   0.80708538   -2.8084713    946.26536  0.073081971  0.073688121            2 
 1080000    0.8271849    -2.793007    947.30732  0.073094701  0.073655637            2 
 1081000    0.8137059   -2.8045796    950.26749   0.07325528   0.07362286            7 
 1082000   0.81224243    -2.812911    946.90148  0.072928333  0.073589922            4 
 1083000   0.82981586   -2.7925138    949.80914  0.073084729  0.073556936            2 
 1084000   0.82176413   -2.8142449    951.58174  0.073153578   0.07352394            4 
 1085000   0.82160068    -2.773429    948.24053  0.072829534  0.073491004            8 
 1086000   0.82295503   -2.8094653    950.10063  0.072905205  0.073457876            2 
 1087000   0.82120863   -2.7672696    953.57696  0.073104643  0.073425159            4 
 1088000   0.82524644   -2.8305695    950.23497  0.072781477  0.073391235            5 
 1089000   0.81675667   -2.7973451    955.40998  0.073110651   0.07335809            2 
 1090000   0.82212727   -2.8057494    952.69309  0.072835863   0.07332508            1 
 1091000   0.81737804   -2.8310389    949.59202  0.072532235  0.073291626           10 
 1092000   0.81457038   -2.8106724    957.55382  0.073073399  0.073258075            4 
 1093000   0.82645643    -2.788838    951.39786  0.072537196  0.073224979            4 
 1094000   0.81876585   -2.8036949    954.75569  0.072726668  0.073191429            4 
 1095000   0.82347019   -2.7902517    950.60253   0.07234418  0.073157888            1 
 1096000   0.81755338   -2.8292352    954.74669   0.07259327  0.073124682            1 
 1097000   0.81148642   -2.8082578    953.99817  0.072470235  0.073091056            2 
 1098000   0.80819874   -2.7951134    954.40521  0.072435125  0.073057418            1 
 1099000   0.82096948   -2.8149086    957.90701  0.072634745  0.073023853            4 
 1100000   0.82422188   -2.7910026    953.51562  0.072236031  0.072989815            4 
 1101000   0.80653496   -2.8110069     957.9837  0.072508606   0.07295583            4 
 1102000    0.8193406   -2.8155868     957.5998  0.072413778  0.072921814            4 
 1103000   0.83023834   -2.8260897    956.34583  0.072253387  0.072887903            5 
 1104000   0.81347424   -2.8163528    957.49181  0.072274442  0.072854468            1 
 1105000   0.82188885   -2.8181893    960.55287  0.072439885   0.07282119            6 
 1106000   0.80100398   -2.8127422    957.68204   0.07215808  0.072787951            4 
 1107000    0.8042824   -2.8163585    956.43937   0.07199935  0.072753976            4 
 1108000   0.81759344    -2.836574    959.28681  0.072148527  0.072720019            3 
 1109000   0.80967801   -2.8150807    959.34109  0.072087548   0.07268628            3 
 1110000   0.82805336   -2.8114067    957.46055  0.071881423  0.072652701            2 
 1111000   0.79528662   -2.8379047    956.24415  0.071725484  0.072618973            4 
 1112000   0.81222101    -2.845154    961.04045  0.072020417  0.072585003            4 
 1113000   0.80970976   -2.8073979    962.41261  0.072058446  0.072551325            4 
 1114000   0.80767923   -2.8108192    961.23389  0.071905587  0.072517505            5 
 1115000   0.81041064   -2.8282502    963.58957  0.072017158  0.072483895            6 
 1116000   0.79355059    -2.837113    959.27037  0.071630105  0.072450247            3 
 1117000   0.80687229   -2.8228085    964.34741  0.071944749  0.072415838            6 
 1118000   0.79905603   -2.8094438    962.05922   0.07170984  0.072381829            2 
 1119000   0.79501187   -2.8148036     962.2032  0.071656479  0.072348034            4 
 1120000   0.80217869   -2.8299886    966.36826  0.071902401  0.072314207            3 
 1121000   0.81934049    -2.838517    963.79941  0.071647295  0.072280315            6 
 1122000   0.80712239   -2.7937096    962.36603  0.071476978  0.072246662            5 
 1123000   0.80339257   -2.8212593    966.96817  0.071754836  0.072212842            6 
 1124000   0.80139751   -2.8290937    967.02057  0.071694882  0.072179318            3 
 1125000   0.80022585   -2.8163309    965.39975  0.071511092  0.072145974            3 
 1126000   0.79992233   -2.8319611    963.08918  0.071276582  0.072112472            3 
 1127000   0.81045217   -2.8332219    969.38724  0.071679033  0.072078974            5 
 1128000   0.80558533   -2.8566482    969.86486  0.071650773  0.072045721            3 
 1129000   0.82828833   -2.8095684    974.90111  0.071959042  0.072013289            2 
 1130000   0.80807175    -2.829711    971.50684  0.071645047  0.071980364            5 
 1131000   0.80127627   -2.8164699    974.77175  0.071822263  0.071947686            2 
 1132000   0.80011012   -2.8232822    972.39604  0.071583925  0.071914906            6 
 1133000   0.78820303   -2.8232406    973.31217  0.071588127   0.07188207            2 
 1134000   0.78413815   -2.8213985    972.27856  0.071449042  0.071849347            4 
 1135000   0.79146306   -2.8149412    970.55641  0.071259649  0.071816288            2 
 1136000   0.80283696   -2.8211503    973.53272  0.071415252   0.07178305            6 
 1137000   0.78940087   -2.8349346    975.17809  0.071473035  0.071750566            3 
 1138000   0.82425004   -2.8274639    977.35466  0.071569615  0.071717887            4 
 1139000   0.80381824   -2.8217653    976.79665  0.071465953  0.071685679            4 
 1140000   0.78183516   -2.8487941    975.95733   0.07134191  0.071653058            4 
 1141000   0.79721193   -2.8192523      978.934  0.071496786  0.071621027            4 
 1142000   0.80333671   -2.8170937     979.1778   0.07145197  0.071588897            4 
 1143000   0.79476493   -2.8420011    979.77119  0.071432721  0.071556792            3 
 1144000   0.80582272    -2.836382     976.6575  0.071143466  0.071524962            2 
 1145000   0.78087591   -2.8090316    976.84043  0.071094645  0.071492839            5 
 1146000    0.7944092   -2.8353033    977.10655   0.07105196  0.071460338            5 
 1147000   0.79636656    -2.834306    979.79178  0.071185105  0.071427674            2 
 1148000   0.79684448   -2.8281717    978.27772  0.071013191  0.071394995            3 
 1149000   0.79384509   -2.8224779    979.01463  0.071004833  0.071362674            6 
 1150000   0.79008462   -2.8415033    974.61059  0.070623956  0.071329727            8 
 1151000   0.78791941   -2.8424234    977.47151   0.07076973   0.07129642            4 
 1152000   0.79788687   -2.8444117    978.52765  0.070784697  0.071263143            5 
 1153000   0.79211391   -2.8464976    977.77103   0.07066862  0.071229939            7 
 1154000   0.79845263   -2.8292719    980.13298  0.070777945  0.071196666            2 
 1155000   0.78860777   -2.8437771    981.59261  0.070821978   0.07116331            7 
 1156000   0.79700408    -2.839067    978.23887  0.070518949  0.071130108            5 
 1157000   0.81876751   -2.8341643    983.22651  0.070817237   0.07109715            8 
 1158000   0.79734895   -2.8595002    979.76234  0.070506789  0.071063771            4 
 1159000   0.80570934   -2.8374275    981.04668    0.0705383  0.071030097            4 
 1160000   0.78632553   -2.8443694    983.79224   0.07067473  0.070996377            4 
 1161000   0.78671177   -2.8204026    985.05293  0.070704345  0.070963176            4 
 1162000   0.78002154   -2.8337085    982.82701  0.070483865  0.070930446            4 
 1163000   0.78007752   -2.8268618    983.98948  0.070506555  0.070897207            3 
 1164000   0.79786311   -2.8424344    981.68883  0.070281273  0.070864003            7 
 1165000   0.78117176   -2.8426581    984.86319  0.070448011   0.07083123            5 
 1166000   0.79960726   -2.8586209    983.14344  0.070264683  0.070798321            3 
 1167000   0.79259376   -2.8079688    986.46456  0.070441628  0.070765247            3 
 1168000   0.78544648   -2.8801034    984.11853  0.070213936  0.070732488            3 
 1169000   0.78992221    -2.825929    987.17121  0.070371486  0.070699842            3 
 1170000   0.78774578   -2.8331728    988.89597  0.070434186  0.070667362            2 
 1171000   0.77784902    -2.842507    985.42313  0.070126895  0.070634604            4 
 1172000   0.78582677   -2.8343293    990.23049   0.07040888  0.070602024            5 
 1173000   0.79465227   -2.8285167     987.8099   0.07017689  0.070569367            6 
 1174000    0.7784684   -2.8547632    987.77172  0.070114404   0.07053637            3 
 1175000   0.77537428   -2.8632773    986.74576  0.069981969  0.070503208            2 
 1176000   0.79317322   -2.8478178    984.65079  0.069774007   0.07046981            3 
 1177000   0.76980641   -2.8618088    989.02361  0.070024328  0.070436263            8 
 1178000    0.7784761   -2.8435597    989.79741  0.070019625   0.07040302            6 
 1179000   0.76911623    -2.855066    992.57697  0.070156698  0.070370256            3 
 1180000   0.78305175   -2.8624195    989.33424  0.069868237  0.070337431            5 
 1181000   0.79930319   -2.8368501    995.06657   0.07021356  0.070305073            5 
 1182000   0.78878628   -2.8557453    992.11537  0.069946092  0.070272666            4 
 1183000   0.78528427   -2.8378018    996.38566  0.070187775  0.070240525            2 
 1184000   0.78916788   -2.8665142    990.52469  0.069715983  0.070208003            5 
 1185000   0.77985547   -2.8606405    994.14057  0.069911433  0.070175184            4 
 1186000   0.75872391   -2.8529695    996.05185  0.069986779  0.070142786            5 
 1187000   0.77920131   -2.8645514    997.68249  0.070042298  0.070110443            2 
 1188000   0.77624715    -2.873276    996.02605  0.069867147  0.070078518            4 
 1189000   0.77568652   -2.8431361    993.66355  0.069642805  0.070045722            4 
 1190000   0.79438662   -2.8401748    995.91388  0.069741868  0.070013244            2 
 1191000   0.78362912   -2.8705004    995.79704  0.069675136  0.069980644            6 
 1192000    0.7799921   -2.8555655    997.22788  0.069716714  0.069948193            3 
 1193000   0.79463885   -2.8525584    1000.3715  0.069877863  0.069915415            1 
 1194000   0.79301008   -2.8739888    997.48719  0.069618034  0.069883079            7 
 1195000   0.78503243   -2.8824095    998.84461  0.069654436  0.069850927            4 
 1196000   0.76255566   -2.8759508     993.5778  0.069229222  0.069818193            7 
 1197000   0.77701254   -2.8738255    1000.2894   0.06963864  0.069785207            4 
 1198000   0.75034889   -2.8570511    997.06351  0.069356115  0.069752712            4 
 1199000   0.78537361   -2.8618357    998.50873  0.069398716  0.069720335            2 
 1200000   0.77442591   -2.8808513    1002.0861  0.069589312  0.069687926            7 
 1201000   0.77021462   -2.8595356    997.41021  0.069206926  0.069655149            4 
 1202000   0.76140809   -2.8714509     1002.427  0.069497157  0.069622702            5 
 1203000   0.77603502   -2.8573598    1003.8994  0.069541384  0.069590475            5 
 1204000    0.7719285   -2.8652046    1004.7853  0.069544943  0.069558341            8 
 1205000   0.78467855   -2.8561019    999.86508  0.069146963   0.06952649            3 
 1206000   0.79028816   -2.8650676    1003.8968  0.069368213  0.069494488            7 
 1207000   0.77654605   -2.8482779    1003.4923  0.069282816   0.06946194            2 
 1208000   0.75009263   -2.8845462    998.42183  0.068875678  0.069429634            3 
 1209000   0.77605031   -2.8432071    1003.2272  0.069149931  0.069397409            1 
 1210000   0.76033403    -2.854955    1003.2739  0.069096001   0.06936516            3 
 1211000   0.77216226   -2.8827033    1004.4676  0.069121087   0.06933225            2 
 1212000   0.78624603   -2.8710776    1007.3206  0.069260218  0.069300559            3 
 1213000   0.75889609   -2.8471913    1010.7443  0.069438331  0.069268893            3 
 1214000   0.76702485   -2.8494508    1004.8043   0.06897339   0.06923657            3 
 1215000   0.74544991    -2.885621     1004.639   0.06890528  0.069204305            4 
 1216000    0.7572524   -2.8842008    1005.0732  0.068878374  0.069172061            4 
 1217000   0.77699695   -2.8880212    1003.9967  0.068748065  0.069139497            3 
 1218000    0.7815385    -2.875487    1009.4142  0.069062277  0.069106982            2 
 1219000   0.76968291   -2.8747201    1008.9391  0.068973139  0.069074816           11 
 1220000   0.77273587   -2.8732518    1004.9207  0.068642126  0.069042474            4 
 1221000   0.76651997   -2.8688283    1006.1675  0.068671004  0.069010201           14 
 1222000   0.76405452   -2.8720548    1006.5639  0.068641836  0.068977924            3 
 1223000    0.7897265   -2.8618648    1008.7393  0.068733941  0.068945501            3 
 1224000   0.74340439   -2.8757349    1009.0893  0.068701614  0.068912962            3 
 1225000   0.77550079   -2.8759144    1011.0916  0.068781739  0.068880381            4 
 1226000   0.77433051    -2.881426    1008.6154   0.06855733  0.068847866            4 
 1227000   0.75802726   -2.8798609     1011.593  0.068703681  0.068815363            4 
 1228000   0.77859675   -2.8637359    1009.3205  0.068493521  0.068782903            2 
 1229000   0.77612738   -2.8783705    1010.0069  0.068484332  0.068750536           13 
 1230000   0.79053824   -2.8674821    1009.8353  0.068417024  0.068717725            2 
 1231000   0.75743734   -2.8814334    1012.4766  0.068540251  0.068684979            4 
 1232000   0.76080754   -2.8808811    1012.7552  0.068503466   0.06865258            4 
 1233000   0.77698833   -2.8853694    1011.3806  0.068354999  0.068619772            4 
 1234000   0.75091651   -2.8906596    1011.5484  0.068310942   0.06858692            4 
 1235000   0.77092615    -2.896056    1013.6885  0.068400036  0.068554037            2 
 1236000   0.75253262   -2.9227987    1013.5437   0.06833493  0.068521307            2 
 1237000   0.75909092   -2.8673631    1014.7066  0.068358028  0.068488743            3 
 1238000   0.75159136   -2.8860342    1015.7715  0.068374494  0.068456685            2 
 1239000   0.76289353   -2.9005819    1014.9855  0.068266441  0.068424115            6 
 1240000   0.76404847   -2.8741122    1013.7093  0.068125627  0.068391492            4 
 1241000   0.76693778   -2.8856089    1018.9663  0.068423738   0.06835938            5 
 1242000   0.74420441   -2.8936263    1017.5859  0.068276028  0.068327226            3 
 1243000   0.75193608   -2.9035486    1013.0847   0.06791933  0.068294988            4 
 1244000   0.75510922   -2.8992144    1012.9478  0.067855557   0.06826289            4 
 1245000   0.76271306   -2.9066775    1018.5167  0.068173808  0.068230307            4 
 1246000   0.75116193   -2.8956684    1018.1538  0.068094821   0.06819802            6 
 1247000   0.74934199   -2.9019212    1014.4661  0.067793781  0.068165768            7 
 1248000   0.77224338   -2.9048843    1015.2645  0.067792769  0.068133783            6 
 1249000   0.75208749   -2.8996276    1015.3581  0.067744736   0.06810174            7 
 1250000   0.76386504   -2.8936932    1018.2051   0.06788034  0.068069527            7 
 1251000   0.75791328   -2.8988615    1019.0423   0.06788185  0.068037649            3 
 1252000   0.76170751   -2.8913819     1018.609   0.06779879  0.068006081            3 
 1253000   0.74538974   -2.8945468     1020.371  0.067861866  0.067974286            2 
 1254000   0.76144763   -2.9025536    1016.8454  0.067573457  0.067942221            8 
 1255000   0.76327243   -2.9040112    1021.2251  0.067810431  0.067910615            6 
 1256000   0.75593943   -2.8814292    1026.3479  0.068096334  0.067879104            5 
 1257000    0.7555304   -2.9050216    1022.6447  0.067796651  0.067847761            5 
 1258000   0.73687354   -2.9073563    1022.0541  0.067703635  0.067816261            6 
 1259000   0.75508556   -2.8999875    1023.2658  0.067730064  0.067784409            5 
 1260000   0.74855087   -2.8994564    1022.9106   0.06765282  0.067752847            7 
 1261000    0.7407425   -2.8982227    1021.9998  0.067538978  0.067720974            9 
 1262000   0.73245086   -2.8997757    1026.6368  0.067791656  0.067689567            4 
 1263000   0.75373143   -2.8882419    1026.4608  0.067726363  0.067658497            3 
 1264000   0.75803244   -2.9067191    1027.1013  0.067715014  0.067627411            3 
 1265000   0.75499507   -2.8923077    1027.0601  0.067658771  0.067596143            2 
 1266000   0.73893801   -2.9262965    1026.8471  0.067591302  0.067564682            5 
 1267000   0.78760262   -2.9070845     1026.481  0.067513881  0.067533314            5 
 1268000   0.72878593   -2.9085679    1027.8186   0.06754854  0.067502124            4 
 1269000   0.75472368   -2.9130265    1027.1567  0.067451845   0.06747131            6 
 1270000    0.7353705   -2.8953006     1031.934  0.067712202  0.067440336            3 
 1271000   0.75234684   -2.9056407    1027.6277  0.067376589  0.067408906            9 
 1272000   0.75462656   -2.8949113    1029.1582  0.067423888  0.067377378            3 
 1273000   0.73897892   -2.9042087    1028.7876   0.06734666  0.067345676            2 
 1274000   0.75435069   -2.8991501    1026.6674  0.067155113  0.067313927            4 
 1275000   0.75313011   -2.9064887    1023.2699  0.066880383   0.06728212            3 
 1276000   0.74583934   -2.9309207    1029.8044   0.06725473  0.067250094            5 
 1277000   0.75398158    -2.926066    1027.5221  0.067053124  0.067217863           11 
 1278000   0.75134498   -2.9049877    1032.0825  0.067298023  0.067186158            4 
 1279000   0.76102052   -2.8934364    1032.3954  0.067265796  0.067154264            5 
 1280000   0.74958121   -2.9167863    1026.0951  0.066803063  0.067122466            9 
 1281000   0.76123003   -2.8974553    1032.2533  0.067151531  0.067090706            6 
 1282000   0.74313596   -2.9273765    1029.8054  0.066940031  0.067058918            6 
 1283000   0.73148948   -2.9144814    1026.2961  0.066659916  0.067026939           10 
 1284000   0.72800187   -2.8948001    1031.5956  0.066951944  0.066994845            6 
 1285000   0.76248474   -2.9316418     1030.321  0.066817187  0.066962982            5 
 1286000   0.73000256   -2.9084556     1030.494   0.06677644  0.066930875            6 
 1287000   0.72854968   -2.9412113    1032.9272    0.0668821  0.066899147            4 
 1288000    0.7426593   -2.8933582    1033.6744  0.066878518  0.066867347            5 
 1289000   0.74317108   -2.9088735     1034.095  0.066853824  0.066835387            6 
 1290000   0.73775698   -2.9064431    1031.2274  0.066616754  0.066803518            4 
 1291000   0.74602324   -2.9063801    1032.5744  0.066652107  0.066771573            4 
 1292000   0.73812108   -2.9206941     1033.354  0.066650799  0.066739536            3 
 1293000     0.729086   -2.9429331    1032.1157  0.066519447  0.066707618            3 
 1294000   0.74619858   -2.9313509     1033.244    0.0665407  0.066675624            4 
 1295000   0.73896244   -2.9331694    1035.8755  0.066658655  0.066644257           10 
 1296000   0.73456793    -2.924894    1033.9978  0.066486487  0.066612583            2 
 1297000   0.74126265   -2.9368084    1030.9424  0.066238913  0.066580641            6 
 1298000   0.73684054   -2.8957848    1035.8462  0.066502707  0.066548629            7 
 1299000   0.72208662   -2.9282655    1037.4112  0.066551914  0.066516586            5 
 1300000   0.73238422   -2.9471386    1035.2386   0.06636145  0.066484346            9 
 1301000   0.73233573   -2.9260905    1035.4566  0.066324406  0.066452103            6 
 1302000   0.73924741   -2.9212268      1035.84     0.066298  0.066420258            5 
 1303000   0.74173079   -2.9355032    1032.7094  0.066046907  0.066388203            2 
 1304000   0.72984659   -2.9218738    1035.4267  0.066169909  0.066355735            4 
 1305000   0.72400982    -2.933481    1037.9342  0.066279323   0.06632348            4 
 1306000   0.74512802   -2.9339128    1035.6186  0.066080818  0.066291123            5 
 1307000   0.71136094   -2.9157643    1036.5885  0.066092099  0.066259013            3 
 1308000       0.7212   -2.9205191    1037.3251    0.0660885  0.066226606           11 
 1309000   0.72412926   -2.9157308    1036.8213  0.066005937  0.066194552            4 
 1310000   0.74448919   -2.9218207    1038.1958  0.066042989  0.066162425            2 
 1311000    0.7315962   -2.9414449    1037.4991   0.06594833  0.066130334            3 
 1312000   0.73845516   -2.9386486    1036.9571  0.065863634  0.066097998            4 
 1313000    0.7310895   -2.9260103    1035.7235  0.065735177  0.066065677            8 
 1314000   0.71807795   -2.9380991    1037.7892  0.065816157  0.066033369            8 
 1315000    0.7182182   -2.9390923    1039.0121  0.065843604  0.066001363            6 
 1316000   0.71715269   -2.9432626     1037.559  0.065701555  0.065968989            4 
 1317000   0.73048871   -2.9331754    1035.7076  0.065534524  0.065936626            8 
 1318000   0.72589575   -2.9200058    1040.6604  0.065797953  0.065904126            9 
 1319000   0.72652121   -2.9293157    1041.8479  0.065823093  0.065872383            4 
 1320000   0.75090026   -2.9457032    1040.8323  0.065709112  0.065840159            6 
 1321000   0.72962614   -2.9544443    1040.7304   0.06565294  0.065807679            5 
 1322000    0.7298934   -2.9353488    1037.6527  0.065409274  0.065775351            4 
 1323000   0.71682049   -2.9294481    1040.9887  0.065569962  0.065743359            3 
 1324000   0.71906715   -2.9393509     1039.164  0.065405592  0.065711297            6 
 1325000    0.7256893   -2.9414862    1041.7185  0.065516886  0.065679451            4 
 1326000   0.71787292   -2.9257253     1046.585  0.065773317  0.065647665            7 
 1327000   0.72450998   -2.9345481    1041.5086  0.065404964  0.065615745            3 
 1328000    0.7265855   -2.9462437    1045.1098  0.065581686  0.065583957            4 
 1329000   0.71237945   -2.9438417    1046.0456  0.065591023  0.065552428            4 
 1330000   0.71413716   -2.9390778    1044.9889  0.065475496  0.065520758            6 
 1331000   0.72327835    -2.914733    1044.6184  0.065403104  0.065489036            2 
 1332000   0.72266032   -2.9420118    1045.4838  0.065408149  0.065457228            4 
 1333000   0.71313853   -2.9334729    1044.9782  0.065327469  0.065425369            3 
 1334000   0.72809338   -2.9172581    1045.3592  0.065302301  0.065393403            2 
 1335000   0.71985157   -2.9563661    1044.3913  0.065192967   0.06536143            6 
 1336000    0.7030421   -2.9583673    1045.0138  0.065182998  0.065329033            2 
 1337000   0.71960756   -2.9407759     1044.001  0.065071115  0.065296732           15 
 1338000   0.72165374    -2.931607     1040.674   0.06481527  0.065264511            3 
 1339000   0.73011631   -2.9434318    1046.5184  0.065130595  0.065232229            5 
 1340000   0.72287109    -2.951615     1041.995  0.064800684  0.065199876            7 
 1341000   0.70977463    -2.940938    1044.7041  0.064920712  0.065167311            4 
 1342000   0.71334927    -2.936595    1045.3838   0.06491454  0.065135229            4 
 1343000   0.70508274   -2.9495576    1047.4824  0.064996424  0.065103318            9 
 1344000   0.71501656   -2.9551494    1046.2105  0.064869204  0.065070953            6 
 1345000   0.72025488   -2.9496797      1047.28  0.064887236  0.065039033            6 
 1346000   0.70291713   -2.9319444    1047.8745  0.064875835  0.065007042            6 
 1347000   0.73606824   -2.9261215    1052.2893    0.0651008  0.064975509            4 
 1348000   0.72557035   -2.9509983    1051.7182  0.065017198  0.064943665            5 
 1349000   0.70570683   -2.9491073    1050.2441  0.064877939  0.064912008            4 
 1350000   0.73038166   -2.9358365    1051.5361  0.064909634  0.064880567            8 
 1351000   0.70736971    -2.967105    1051.3545  0.064850387  0.064849027            4 
 1352000   0.69430633   -2.9551339    1053.2109  0.064916846  0.064817333           12 
 1353000   0.71106431   -2.9260277    1052.5952  0.064830945  0.064785941            5 
 1354000   0.70968428   -2.9368916    1051.4037   0.06470973  0.064754314            3 
 1355000   0.71266662   -2.9721444    1053.2261  0.064774056  0.064722944            2 
 1356000   0.69787488   -2.9500401    1053.5356  0.064745308  0.064691215            7 
 1357000   0.70533651   -2.9497372    1051.3314   0.06456223  0.064659652            4 
 1358000   0.70828966   -2.9606331    1052.8041   0.06460506  0.064627988            8 
 1359000    0.7223275   -2.9613721    1052.8108  0.064557937  0.064595929            5 
 1360000   0.70313969   -2.9584279     1054.426  0.064609437  0.064563967            4 
 1361000   0.69841472   -2.9780435    1051.7754  0.064399672  0.064531988            6 
 1362000   0.71565324   -2.9591521    1050.9263  0.064300434  0.064500132            4 
 1363000   0.70695119   -2.9590283    1051.3582  0.064279664  0.064468408            4 
 1364000   0.70258495   -2.9513484    1058.3512  0.064659774  0.064436667            3 
 1365000   0.71017279   -2.9826608    1052.0141  0.064225524  0.064404994            3 
 1366000   0.69444285   -2.9360355    1056.9278  0.064478271  0.064373171            4 
 1367000   0.72242852    -2.961493    1055.8475  0.064365248   0.06434183            4 
 1368000   0.70522163   -2.9680962    1053.1159  0.064151798   0.06431053            6 
 1369000   0.70433768   -2.9597357    1055.8919  0.064273918  0.064279139            8 
 1370000   0.70629919   -2.9562045    1056.7938  0.064281862  0.064247652            3 
 1371000   0.70965181   -2.9693783    1056.4515  0.064214168  0.064216111            3 
 1372000   0.69849941   -2.9556768     1057.444  0.064227647  0.064184833           13 
 1373000   0.70098848   -2.9497323    1058.3608  0.064236514  0.064153603            8 
 1374000   0.68743317   -2.9788079    1063.0298  0.064472938  0.064122285            5 
 1375000   0.72433667   -2.9807199    1056.9291  0.064056307  0.064091109            2 
 1376000   0.70719794   -2.9652824     1059.667  0.064175569  0.064059686            6 
 1377000   0.69140175   -2.9820652    1056.0069  0.063907465  0.064028315            6 
 1378000   0.69009562   -2.9704026    1057.3204  0.063940521   0.06399691            8 
 1379000   0.69910354   -2.9775926    1060.1372  0.064064371   0.06396543            3 
 1380000   0.68552915   -2.9534252    1057.8759  0.063881395  0.063934185            6 
 1381000   0.70846429   -2.9691409    1060.0493  0.063966285  0.063902922           13 
 1382000   0.69608857   -2.9905267    1059.9898  0.063916416  0.063871553            4 
 1383000   0.71193073   -2.9694652    1058.7312  0.063794357  0.063840036            8 
 1384000   0.71966046   -2.9799231    1058.0615  0.063707941  0.063808731            4 
 1385000   0.68838831   -2.9865373    1061.2246   0.06385226  0.063777174            7 
 1386000   0.69676106   -2.9637203    1060.4484  0.063759521  0.063745898            3 
 1387000   0.71726745   -2.9700819    1062.9349  0.063862947  0.063714369            4 
 1388000    0.7154793   -2.9656577     1064.165  0.063890789  0.063683131           11 
 1389000   0.70023328   -2.9661626     1060.051  0.063597973  0.063651944            8 
 1390000   0.69768033   -2.9581643     1064.227  0.063802581  0.063620806            5 
 1391000   0.69489786   -2.9737045    1060.7672  0.063549438  0.063589796            6 
 1392000   0.68808708   -2.9992648    1061.5017  0.063547756  0.063558585            7 
 1393000   0.70978504   -2.9708137    1063.3322  0.063611643  0.063527645           12 
 1394000   0.69583005   -2.9648268    1064.7058  0.063648121  0.063496646            4 
 1395000   0.68214945   -2.9695668    1066.0775  0.063684438  0.063465948            5 
 1396000   0.71115328   -2.9720808    1063.9031  0.063509022  0.063435189            4 
 1397000   0.69350278   -2.9576274    1063.0237  0.063411103  0.063404247            4 
 1398000   0.69273688   -2.9836351      1068.98  0.063720791  0.063372919            4 
 1399000   0.70383837   -2.9943883      1063.93  0.063374435  0.063341613            6 
 1400000   0.71605028   -2.9815124    1068.5672  0.063605191  0.063310437            4 
 1401000   0.68793876   -2.9789892    1063.0812  0.063233478  0.063279364            6 
 1402000    0.6902862   -2.9743241    1065.4676  0.063330221  0.063248463            5 
 1403000   0.69994792   -2.9878724    1062.4496  0.063105819  0.063217142            3 
 1404000   0.67912883   -2.9841728    1066.4234  0.063296738  0.063185891            8 
 1405000   0.70305834   -2.9934762    1064.8896  0.063160715  0.063154521            4 
 1406000   0.68342805   -2.9906763    1067.2547   0.06325597  0.063123205            6 
 1407000    0.6973272   -2.9646372    1066.8044  0.063184338   0.06309202            4 
 1408000   0.68727231   -2.9924681    1064.0421  0.062975977  0.063060719            7 
 1409000    0.6816801   -2.9771502    1066.8468  0.063097161  0.063029461            4 
 1410000    0.6997188   -2.9847826    1065.2468  0.062957852  0.062998443            3 
 1411000   0.69167707   -2.9904688    1065.4756   0.06292674  0.062966944           11 
 1412000   0.68488281   -2.9635372    1067.6289  0.063009259  0.062935315            5 
 1413000   0.68013026   -2.9716687    1071.1026  0.063169534  0.062903967            4 
 1414000   0.68783351   -2.9930249    1068.9884   0.06300026   0.06287268           10 
 1415000   0.67686241   -3.0146238    1067.8407  0.062888147  0.062841499            8 
 1416000   0.69555845   -2.9799451     1068.904   0.06290631  0.062810175            8 
 1417000   0.68790272   -2.9840429      1069.38   0.06288991  0.062778954            4 
 1418000   0.69261585   -2.9785843    1066.4206  0.062671636  0.062747744            3 
 1419000   0.67364414   -3.0066311    1073.3843  0.063036431  0.062716604            4 
 1420000   0.67315095   -2.9959038    1068.5599  0.062708914  0.062685357           17 
 1421000   0.69089045   -3.0081007    1069.4536  0.062717192  0.062654029            9 
 1422000   0.68530344   -2.9859722    1070.8354  0.062754066  0.062623063            3 
 1423000   0.70297655   -3.0080156    1071.1193  0.062726595  0.062592093            6 
 1424000   0.67980052   -2.9817453    1071.3342  0.062695117  0.062561263            4 
 1425000   0.67769769   -2.9979679    1073.2288  0.062761916  0.062530443            8 
 1426000   0.69115503   -2.9824436    1069.8973  0.062523215  0.062499676            5 
 1427000   0.67802464   -2.9899605    1070.0837   0.06249029  0.062468844            7 
 1428000   0.69305276   -3.0082856    1073.5883  0.062651046  0.062438201            3 
 1429000   0.66682991   -2.9898177    1076.8039   0.06279472  0.062407712            7 
 1430000    0.6793096   -2.9929477    1072.9883  0.062528456  0.062376683            4 
 1431000   0.67504359    -3.015094    1074.8821  0.062595047  0.062345798            8 
 1432000   0.68520732   -2.9911771     1075.674  0.062597415  0.062314855            7 
 1433000   0.67417504   -2.9792545    1074.4026  0.062479797  0.062284245            9 
 1434000   0.66732619   -2.9965878    1075.0914  0.062476254  0.062253549            4 
 1435000   0.68628981   -3.0169865    1076.6084  0.062520815  0.062222899            6 
 1436000   0.68919076   -2.9933866    1074.5448  0.062357523  0.062192236            5 
 1437000   0.68904586   -2.9966559    1080.4867  0.062658703  0.062161569            8 
 1438000   0.68609721   -3.0130197     1075.182  0.062307719  0.062130759            4 
 1439000   0.68681264   -3.0122212    1077.3621  0.062390671  0.062099901            2 
 1440000   0.68479218   -3.0094389    1078.0221  0.062385537  0.062069247            6 
 1441000   0.67429652    -3.001426    1077.4548   0.06230944  0.062038472            8 
 1442000   0.67833207    -3.004709    1075.5176  0.062154275   0.06200779           11 
 1443000   0.67578002   -2.9912396    1074.4402  0.062048982  0.061976855            2 
 1444000   0.66807699   -3.0213823    1076.3013  0.062113419  0.061946099            6 
 1445000   0.69261197   -3.0003227     1076.484  0.062080969    0.0619154            9 
 1446000   0.67422295   -2.9914355    1073.6279  0.061873439  0.061884789            4 
 1447000    0.6900752   -3.0161701    1077.2932  0.062041766  0.061853756            6 
 1448000   0.67563554   -2.9711198    1081.4557  0.062238473  0.061823119            3 
 1449000   0.68415304   -3.0033113    1077.3976  0.061962137  0.061792702            5 
 1450000   0.68709727   -2.9969424    1077.2285  0.061909682  0.061761885            2 
 1451000   0.68458874   -3.0038325     1075.846  0.061787616  0.061731073            4 
 1452000   0.68499675   -3.0025316    1079.4498  0.061951892  0.061700174            3 
 1453000   0.67707308   -2.9836356    1077.4076   0.06179213  0.061669466            5 
 1454000   0.66266085   -3.0077991    1079.8119  0.061887429  0.061638665            4 
 1455000   0.67385468    -3.010281     1076.825  0.061673827  0.061607804            5 
 1456000   0.66071356   -3.0070563     1080.736  0.061855312  0.061576881            3 
 1457000   0.67579068   -3.0099169    1077.9045  0.061650911  0.061545754           11 
 1458000   0.66865123   -3.0138437    1080.6023  0.061762818  0.061514693            8 
 1459000    0.6758386    -3.030799     1077.871  0.061564486  0.061483617            7 
 1460000   0.66262399    -3.022665    1077.8668  0.061522079  0.061452723            4 
 1461000   0.67008009   -3.0085185    1077.4117   0.06145401  0.061421621            6 
 1462000   0.67321928   -3.0380265     1079.834  0.061550044  0.061390722            8 
 1463000   0.67499159   -3.0107584    1079.7381  0.061502512  0.061359532            7 
 1464000   0.67109647   -3.0302658    1081.1056  0.061538343  0.061328681            9 
 1465000   0.66358677   -2.9965138    1078.3554    0.0613399  0.061297678            8 
 1466000   0.66623458   -3.0125608    1078.1116  0.061284197  0.061266766            7 
 1467000   0.66242556   -3.0087618    1077.4049  0.061202277  0.061235452           10 
 1468000   0.66490599   -3.0042025    1083.9077  0.061529727  0.061204604            6 
 1469000   0.67878237   -3.0361087    1079.5084  0.061238279  0.061173658            6 
 1470000   0.66507686    -3.011338    1080.8531  0.061272854  0.061142683            5 
 1471000   0.67996793   -3.0235002    1075.9181  0.060951625  0.061111759            5 
 1472000   0.66556754   -3.0211724    1080.5616  0.061173096  0.061080544            2 
 1473000   0.66477907   -3.0085421    1078.7139  0.061027039  0.061049445            4 
 1474000     0.669826   -3.0208154    1082.1837  0.061181802  0.061018579            6 
 1475000   0.65945506   -2.9967583     1079.587  0.060993614  0.060987747            7 
 1476000   0.66479669   -3.0539611    1081.3295  0.061050674  0.060956387            3 
 1477000   0.66445457   -3.0260971     1083.621  0.061138625  0.060925155            5 
 1478000   0.66313749   -3.0161591    1080.3284  0.060911618  0.060893849           14 
 1479000   0.66700483   -3.0061027    1077.8981  0.060733498  0.060862262           11 
 1480000   0.67479081   -3.0114299    1081.7043  0.060906771  0.060830901            9 
 1481000   0.65887308   -3.0283055    1080.6653  0.060807187  0.060799624            9 
 1482000    0.6663148   -3.0150289    1083.0122  0.060898123  0.060768452            4 
 1483000   0.64987858   -3.0241814    1081.9918  0.060799721  0.060737115            4 
 1484000   0.65359748   -3.0242072    1078.4875  0.060561969  0.060705929            4 
 1485000   0.65723648   -3.0064621    1083.4946  0.060802166  0.060674727           10 
 1486000   0.65210114   -3.0330612    1079.6404  0.060545111  0.060643453           14 
 1487000   0.66130393   -3.0331015    1082.5057  0.060664967  0.060612291            5 
 1488000   0.66729049   -3.0374101    1079.3277  0.060446217  0.060580779            7 
 1489000   0.66127521    -3.052413     1081.744  0.060540857  0.060549006            5 
 1490000   0.67872026   -3.0266983     1082.641  0.060550392  0.060517334            5 
 1491000   0.66634097   -3.0169062    1085.3336  0.060660271  0.060486177           11 
 1492000    0.6656137   -3.0418756    1083.2116  0.060501094  0.060454794            3 
 1493000   0.68126483   -3.0553755     1083.327  0.060467012  0.060423287            5 
 1494000   0.66324066   -3.0151963    1079.9069  0.060235772  0.060391646            7 
 1495000   0.66528354   -3.0252068    1084.4854  0.060450694  0.060360179            6 
 1496000   0.64873246   -3.0532402    1086.4585  0.060520194  0.060328693            5 
 1497000   0.66610698   -3.0489905    1081.7163   0.06021578  0.060296838            3 
 1498000   0.64894264   -3.0324796    1084.5913  0.060335518  0.060265234            4 
 1499000   0.63706844   -3.0406515    1083.8632  0.060254792  0.060233713            4 
 1500000   0.65099442   -3.0533557    1082.1403  0.060118903  0.060202088            4 
 1501000   0.64795189   -3.0517269    1078.5684  0.059880544  0.060170442           13 
 1502000   0.65682835   -3.0178883     1084.168  0.060151352  0.060138932           13 
 1503000   0.64547139   -3.0455357    1086.0876  0.060217766  0.060107447            4 
 1504000   0.65040937   -3.0296014    1085.2657  0.060132187  0.060075926            4 
 1505000   0.66967796   -3.0494695    1085.2075  0.060089008  0.060044463            8 
 1506000    0.6556136   -3.0533879    1082.6453  0.059907329  0.060013147           21 
 1507000   0.66723968   -3.0567498    1087.4346  0.060132415  0.059981529            6 
 1508000   0.65489452   -3.0573349    1083.8169   0.05989262  0.059949697            5 
 1509000   0.66405117   -3.0355778    1086.7235  0.060013444  0.059918253            9 
 1510000    0.6435417   -3.0232921    1085.9539  0.059931228  0.059886848            6 
 1511000    0.6563158   -3.0318558    1084.9282  0.059834997   0.05985536            5 
 1512000   0.64055886   -3.0509183    1085.8294  0.059845097  0.059823759            6 
 1513000   0.64967031   -3.0564208     1084.326  0.059722734   0.05979242            7 
 1514000   0.64638266   -3.0367126    1084.3641  0.059685384  0.059760891            7 
 1515000   0.64899828   -3.0460557    1088.1879  0.059856318  0.059729309            7 
 1516000   0.63365476   -3.0416267    1083.9507  0.059583922  0.059697745            6 
 1517000   0.64946334   -3.0701863    1085.9176  0.059652692  0.059666213            5 
 1518000   0.64645471   -3.0444599    1087.8573   0.05971988  0.059634644           11 
 1519000   0.65797766   -3.0578671    1087.1307  0.059640699  0.059603315            5 
 1520000   0.63992076   -3.0533921    1088.2272   0.05966158  0.059571712            4 
 1521000   0.63407155    -3.045502    1092.5655  0.059860043  0.059540387            3 
 1522000    0.6466164    -3.050081    1087.3738  0.059536453  0.059509167            5 
 1523000   0.61739156   -3.0626936    1088.8332  0.059577215  0.059477897            4 
 1524000   0.63015893   -3.0603846     1089.837  0.059593012  0.059446311            6 
 1525000     0.639244   -3.0480353    1088.9569  0.059505842  0.059415026            5 
 1526000   0.65537864   -3.0395013    1086.2372  0.059318324  0.059383536            8 
 1527000   0.64932087   -3.0799233    1090.6375  0.059519619  0.059352273            7 
 1528000   0.63122878   -3.0543563    1090.1391  0.059453487  0.059320743            3 
 1529000   0.64087433   -3.0678243    1089.0369  0.059354527  0.059289214           12 
 1530000   0.63810536   -3.0618962     1091.245  0.059436003  0.059257815           10 
 1531000   0.64202991   -3.0696693    1089.6697  0.059311433  0.059226364            5 
 1532000   0.64766408   -3.0743193    1089.0558  0.059239328  0.059194731            5 
 1533000   0.64645973   -3.0772304    1089.2655  0.059212082  0.059163088            3 
 1534000   0.63970488   -3.0360717    1091.5484  0.059297501  0.059131421            8 
 1535000   0.64176258   -3.0645476    1087.9912  0.059065754  0.059099862            8 
 1536000   0.64080919   -3.0717135    1086.3744  0.058939586   0.05906832            6 
 1537000     0.633158   -3.0834341    1088.2657   0.05900378  0.059036809            4 
 1538000   0.65062601   -3.0667215    1087.0056  0.058897137   0.05900522            5 
 1539000   0.62933938   -3.0736962     1089.263  0.058981103  0.058973748            5 
 1540000   0.62701694    -3.054488    1090.1566  0.058991156  0.058942147            9 
 1541000   0.63334281   -3.0798601    1087.1458  0.058790059  0.058910557            6 
 1542000   0.62676976   -3.0759116    1086.5916  0.058721986  0.058878776            7 
 1543000   0.62276048   -3.0588849    1090.2175  0.058879753  0.058847111           17 
 1544000   0.64875416   -3.0688902    1088.6252  0.058755676  0.058815557           12 
 1545000   0.65070499   -3.0798191    1089.8834  0.058785515  0.058784047            7 
 1546000   0.63123053   -3.0442325    1089.5972  0.058732063  0.058752625            6 
 1547000   0.62810186   -3.0531649    1092.9315  0.058873709  0.058721238            8 
 1548000   0.64196865   -3.0470129     1087.423  0.058539135  0.058689729           17 
 1549000   0.63083973   -3.0678109    1091.7829  0.058735897  0.058658274            8 
 1550000   0.63752683   -3.0833302     1087.113  0.058446938  0.058626749           14 
 1551000   0.62306313   -3.0873701    1089.8148  0.058554415  0.058594922            5 
 1552000   0.64010764   -3.0619527    1089.1427  0.058480598  0.058563164           10 
 1553000   0.63138096    -3.044399    1092.2034  0.058607179  0.058531502            2 
 1554000   0.63983076   -3.0720513    1089.1187  0.058404047  0.058500038            6 
 1555000    0.6293521   -3.0639433    1092.7629  0.058561787  0.058468507            6 
 1556000   0.64415739   -3.0680541    1095.1373   0.05865131  0.058437066           16 
 1557000    0.6438674   -3.0865839    1090.9312  0.058388524  0.058405339            8 
 1558000   0.63904357   -3.0777431    1095.1064  0.058574371  0.058373725           12 
 1559000   0.62784373   -3.0689697    1092.2962  0.058386582  0.058342199            9 
 1560000   0.62698445   -3.0587193    1093.2956  0.058402543  0.058310631            9 
 1561000   0.61923502   -3.0807833    1090.7261  0.058227955  0.058279081            6 
 1562000   0.63454151   -3.0868019    1090.4958  0.058178396  0.058247529            4 
 1563000   0.62609436   -3.0525283    1093.9186  0.058323662  0.058216036            5 
 1564000   0.63517827   -3.0634661    1093.2703   0.05825183  0.058184197            4 
 1565000    0.6213168   -3.0739334     1091.408   0.05811544  0.058152523            6 
 1566000   0.61682113     -3.08899    1092.0248  0.058111156  0.058120697            6 
 1567000   0.63401118   -3.0661824     1096.062   0.05828877  0.058088984            4 
 1568000   0.63747091   -3.0753844    1088.2192  0.057834781  0.058057432            6 
 1569000   0.62695925    -3.082397     1091.286  0.057960804  0.058025495           17 
 1570000    0.6280186   -3.0775343    1089.7545  0.057842595  0.057993692            3 
 1571000    0.6333144   -3.0760848    1093.2372  0.057990513   0.05796181            4 
 1572000   0.62974531   -3.0878653    1089.7434  0.057768414  0.057930026           11 
 1573000   0.61972325   -3.1085852    1092.8283   0.05789512  0.057898098            7 
 1574000   0.63729944   -3.0900023    1093.8715  0.057913572  0.057866419            7 
 1575000   0.62337225   -3.0849298    1087.9856  0.057565375  0.057834689            6 
 1576000   0.62236236   -3.1023139    1093.6575   0.05782876  0.057802754            7 
 1577000   0.62340002   -3.0789258    1090.7536  0.057638641  0.057770888            5 
 1578000   0.62792946   -3.0847461    1091.4417  0.057638452  0.057739208            7 
 1579000    0.6286574   -3.0819075    1093.6165  0.057716722   0.05770763            8 
 1580000   0.61544545   -3.0862912    1093.2496  0.057660845  0.057675889            6 
 1581000    0.6236364   -3.0843437    1092.5399  0.057586965  0.057644441            7 
 1582000   0.63508902   -3.1068743    1093.1763  0.057584087  0.057612613           13 
 1583000   0.63115049   -3.1033474    1093.6864  0.057574562   0.05758079           11 
 1584000   0.62841431   -3.0839244    1092.4126    0.0574712  0.057549203            8 
 1585000   0.60803555    -3.074473    1095.0152  0.057571778  0.057517772           36 
 1586000   0.62530739   -3.0987726    1093.5406  0.057457998  0.057486247            5 
 1587000   0.62188555   -3.1070104    1097.2391  0.057615998  0.057454704            7 
 1588000   0.62961423   -3.1106506    1092.2173  0.057316191  0.057423313            8 
 1589000   0.60457384   -3.0833609     1092.814  0.057311414  0.057391783           17 
 1590000   0.61611051   -3.0865901    1093.5003  0.057311337  0.057360449           13 
 1591000   0.62476809   -3.0988153    1095.7988  0.057395706  0.057329055            7 
 1592000   0.62692784   -3.1009374    1094.8348   0.05730919  0.057297741            6 
 1593000   0.62221633   -3.0804876    1099.6666  0.057525979  0.057266488            6 
 1594000   0.61375527   -3.0982464    1093.5473  0.057169978  0.057235124            9 
 1595000   0.60469298   -3.1012668    1094.1336  0.057164766  0.057203787            9 
 1596000   0.61118534   -3.1093904     1100.289  0.057450343  0.057172686           23 
 1597000   0.61847503   -3.1243077    1096.4864  0.057215947  0.057141317           10 
 1598000   0.61361038   -3.0797816    1095.5115  0.057129301  0.057110005            6 
 1599000   0.62612876   -3.0786647     1097.902  0.057218156  0.057078984            7 
 1600000   0.58965142   -3.1056459    1098.6249  0.057220046  0.057047736            7 
 1601000    0.6184528   -3.1032842    1094.6269  0.056976207  0.057016308            6 
 1602000   0.60886968   -3.1169976    1098.3954  0.057136675  0.056984988            6 
 1603000    0.6144509   -3.1026031    1099.1008  0.057137699  0.056953545            6 
 1604000   0.62220574   -3.0831802    1096.4145  0.056962514  0.056922415            7 
 1605000   0.61546763   -3.0833989    1097.7592  0.056996845  0.056891119            6 
 1606000   0.61596046   -3.1069743     1096.667  0.056904681  0.056859847            5 
 1607000   0.61309427   -3.1004565    1100.5563  0.057070953  0.056828506           15 
 1608000   0.59765473   -3.0946442     1096.826  0.056842143   0.05679716            9 
 1609000   0.60059709    -3.111673    1098.5099  0.056894027  0.056765862            6 
 1610000   0.60550945   -3.1057391    1096.7545  0.056767832  0.056734643           11 
 1611000   0.60744866   -3.0982124    1100.4333  0.056922891  0.056703318            4 
 1612000   0.61144665   -3.1001338    1101.1914  0.056926767  0.056672274            7 
 1613000   0.61037116   -3.1047228    1101.4415  0.056904396  0.056641315            5 
 1614000   0.61353459   -3.1268234    1097.8404   0.05668321  0.056610283            5 
 1615000   0.60049986   -3.1168844    1097.7876  0.056645388  0.056579192            9 
 1616000   0.60127169   -3.1126318    1100.4729  0.056748806  0.056548218            6 
 1617000   0.60894544   -3.1066406    1104.8475  0.056939161  0.056517356            6 
 1618000   0.61407864   -3.1125339    1100.9913   0.05670536  0.056486583            4 
 1619000   0.62162653   -3.1121717    1098.4328  0.056538644  0.056455738           11 
 1620000   0.60931991   -3.1278371    1100.4935  0.056609747   0.05642469            5 
 1621000   0.60991031   -3.1252282    1099.9237   0.05654553  0.056393528            6 
 1622000   0.60188858    -3.102723    1103.1031  0.056674017  0.056362623            6 
 1623000   0.61009572   -3.1163579    1103.4301  0.056655887  0.056331652           20 
 1624000   0.60473361   -3.1118809    1100.5734  0.056474413  0.056300726            8 
 1625000   0.60868912    -3.116158    1101.6553  0.056495144  0.056270032            9 
 1626000   0.61773139   -3.1166828    1099.3899  0.056344294  0.056239084            6 
 1627000   0.59854995   -3.1186501    1102.9094   0.05648993  0.056208287            7 
 1628000   0.61147824   -3.1263872    1104.3235  0.056527617  0.056177585           11 
 1629000   0.58625905   -3.1113585    1103.1562  0.056433201  0.056146949            6 
 1630000   0.61316081   -3.1197376    1103.5733  0.056419903  0.056116152            6 
 1631000   0.59826033   -3.1262141    1105.1911  0.056467972  0.056085527            6 
 1632000   0.59317742   -3.1153648    1102.8985  0.056316305  0.056054864           10 
 1633000   0.61317328   -3.1121984    1102.8931  0.056281544    0.0560241            4 
 1634000   0.60317972   -3.1225881    1101.6588   0.05618415  0.055993518           13 
 1635000   0.58814583    -3.111474    1107.1255  0.056428413  0.055962713            6 
 1636000   0.58781883   -3.1254187     1102.614  0.056164118  0.055932142           19 
 1637000   0.60554342   -3.1269862    1104.8089  0.056241544  0.055901451            4 
 1638000   0.60801838   -3.1071732    1103.0115  0.056115766   0.05587081            6 
 1639000   0.59470592   -3.1170958     1105.215  0.056193563  0.055840255            7 
 1640000   0.60242397   -3.1067542    1106.3318  0.056216048  0.055809689            7 
 1641000   0.59995216   -3.1368857     1102.525  0.055988475  0.055779149            5 
 1642000   0.61447251   -3.1335873    1105.5238  0.056106568  0.055748706           11 
 1643000   0.60324898   -3.1257959    1103.0516  0.055947026  0.055718179           10 
 1644000   0.60731071    -3.134137    1105.5898  0.056041656  0.055687569            9 
 1645000   0.59724255    -3.139653    1104.9645  0.055975911  0.055656996           16 
 1646000   0.59360886   -3.1288926     1104.622  0.055924566  0.055626572            6 
 1647000   0.59963836   -3.1427062    1106.2841  0.055974705  0.055596089           16 
 1648000   0.61234127   -3.1264344    1104.0704  0.055828805  0.055565802            9 
 1649000   0.60258861   -3.1252465    1105.6727   0.05587592  0.055535529            8 
 1650000   0.59580046   -3.1332719    1105.9351  0.055855306  0.055505234            9 
 1651000   0.58081782   -3.1266047    1107.5415   0.05590256  0.055474864            5 
 1652000   0.59331474   -3.1282878    1104.8289  0.055731888  0.055444392            8 
 1653000   0.59995331    -3.130068    1104.6425  0.055688775  0.055413879           28 
 1654000   0.59224471   -3.1260762    1104.9496  0.055670578  0.055383364            6 
 1655000    0.5931819   -3.1260249    1108.7004  0.055825799  0.055352893            6 
 1656000   0.59027945   -3.1406634    1105.1524  0.055613548  0.055322328           17 
 1657000   0.59395425   -3.1334498    1106.8912  0.055667433  0.055291758           11 
 1658000   0.58710446    -3.146573    1103.5136  0.055464093  0.055261243            7 
 1659000   0.59063437   -3.1309925    1102.4848  0.055378983  0.055230854            8 
 1660000   0.58509778   -3.1487026    1104.1242  0.055427921  0.055200397           13 
 1661000   0.58729895   -3.1332203    1109.5706  0.055667799  0.055169986            9 
 1662000   0.58912328    -3.110577     1108.549  0.055583085   0.05513955            5 
 1663000   0.60767187   -3.1328996    1103.1064  0.055276931  0.055109077            8 
 1664000   0.58645576   -3.1502333    1107.6968  0.055473598  0.055078465            7 
 1665000   0.59183869   -3.1309243    1109.1464  0.055512832  0.055047824           10 
 1666000   0.60086333   -3.1335659    1104.8082  0.055262514  0.055017388            8 
 1667000   0.59502203   -3.1474326    1105.1468  0.055246289  0.054987082            9 
 1668000   0.59529717   -3.1284499    1105.8491  0.055248255   0.05495685            8 
 1669000   0.58065634   -3.1320287    1105.0784  0.055176673    0.0549265            7 
 1670000   0.58425364    -3.140785    1107.6349  0.055271204  0.054896153            6 
 1671000   0.58844551    -3.159738    1103.9589  0.055054805  0.054865645            9 
 1672000    0.5855865   -3.1431852    1109.4103  0.055293574  0.054835333           10 
 1673000   0.57916014   -3.1582901    1110.3586  0.055307762  0.054805006            6 
 1674000   0.58340657   -3.1447701     1107.583   0.05513655  0.054774883            4 
 1675000   0.58979931     -3.12256    1104.8191  0.054966126  0.054744648            6 
 1676000   0.57686266   -3.1513621    1108.5328  0.055117981  0.054714566           11 
 1677000   0.59036489   -3.1700709    1109.6217  0.055139222  0.054684575           12 
 1678000   0.59492512   -3.1376203    1106.7471  0.054963604  0.054654413            4 
 1679000   0.58793246   -3.1588179    1109.2909  0.055057123  0.054624317            8 
 1680000   0.56842835   -3.1600765    1109.3168  0.055025635  0.054594223           14 
 1681000   0.59182823   -3.1426875      1112.35  0.055143267  0.054564281           12 
 1682000   0.59334746   -3.1621783    1109.7888   0.05498359  0.054534315            9 
 1683000   0.57924272   -3.1311012    1110.3872  0.054980552   0.05450445            9 
 1684000   0.59217597   -3.1551598     1110.936  0.054975061  0.054474507            5 
 1685000    0.5824945   -3.1546211     1110.662  0.054928884  0.054444496            4 
 1686000   0.58463462   -3.1316921    1108.1291  0.054771112  0.054414563            5 
 1687000   0.58393806   -3.1594711    1111.0606  0.054883451  0.054384623            9 
 1688000   0.57520182    -3.159895    1111.1238  0.054854058   0.05435481           12 
 1689000   0.58507725   -3.1618266     1110.307  0.054781283  0.054324964           11 
 1690000   0.56725389   -3.1544234    1111.5391  0.054809623  0.054295209           12 
 1691000   0.58277061   -3.1511337    1110.8966  0.054745543  0.054265421            7 
 1692000   0.57233963   -3.1479303    1111.0322   0.05471987  0.054235797           13 
 1693000   0.56842841    -3.168001    1110.2797  0.054650507  0.054206183           13 
 1694000   0.57765216   -3.1648666    1114.2996  0.054815998  0.054176525           14 
 1695000   0.57423631   -3.1578484    1113.6277  0.054750623  0.054146929            7 
 1696000   0.57056915   -3.1533284    1114.2267  0.054747776  0.054117189            8 
 1697000   0.58256633   -3.1631869    1111.0393  0.054558989  0.054087629           11 
 1698000   0.57032547   -3.1670003     1113.846  0.054664606  0.054058136            8 
 1699000   0.57363831   -3.1682499    1114.1269  0.054646208  0.054028546           13 
 1700000   0.58112709   -3.1580211    1114.1828  0.054616804  0.053998913            8 
 1701000   0.58865461   -3.1669842     1112.032  0.054479328  0.053969409            9 
 1702000   0.58422024   -3.1608061    1114.2031   0.05455362  0.053939839           31 
 1703000   0.57258234    -3.165816    1113.6063  0.054492382   0.05391045            6 
 1704000   0.57749557   -3.1601849    1115.6631  0.054560988  0.053881002           11 
 1705000   0.57294238   -3.1534606    1117.5565   0.05462153  0.053851654            9 
 1706000    0.5750151     -3.16347    1116.5096  0.054538376  0.053822454           19 
 1707000   0.57104209   -3.1837566    1112.5765  0.054314414  0.053793103            4 
 1708000   0.57347791   -3.1660555    1114.6253  0.054382578  0.053763809           10 
 1709000   0.57411259     -3.15714    1111.4066  0.054193808   0.05373458           10 
 1710000   0.57477983   -3.1856147    1114.0911  0.054292939  0.053705403           12 
 1711000   0.56465705   -3.1714172    1113.9328  0.054253497  0.053676138            8 
 1712000   0.56647424   -3.1804362    1116.0194  0.054323375  0.053646913            3 
 1713000   0.57106951   -3.1537193    1115.5727  0.054269933   0.05361775            7 
 1714000   0.56929057    -3.178836    1113.3152  0.054128508  0.053588548            7 
 1715000   0.57641915   -3.1677372    1113.8471  0.054122794  0.053559244            7 
 1716000   0.57168902   -3.1730532    1112.4437  0.054023103  0.053529831           11 
 1717000   0.56297599   -3.2043021    1114.0414  0.054069181  0.053500267           14 
 1718000    0.5756014   -3.1938745    1110.4143  0.053861775  0.053470652            7 
 1719000   0.56310815   -3.1702881    1115.8986  0.054096306  0.053441098           16 
 1720000   0.55703398   -3.1935181    1117.1549  0.054125724  0.053411877           10 
 1721000   0.56807226   -3.1561476    1121.3108  0.054295506  0.053382759            5 
 1722000   0.56839722   -3.1587549    1116.0166  0.054007774  0.053353793            6 
 1723000   0.55858242   -3.1689369    1119.0054  0.054120979   0.05332467            7 
 1724000   0.58228654   -3.1784657     1115.433  0.053916906  0.053295467           10 
 1725000   0.58254936   -3.1983714    1115.1992  0.053874358  0.053266258           17 
 1726000   0.56038305    -3.178469    1118.9168  0.054022634  0.053237276           22 
 1727000   0.57058827   -3.1702883    1117.2048  0.053908746  0.053208194           11 
 1728000   0.57004243    -3.175608    1117.7542  0.053904041  0.053179139           10 
 1729000   0.56561139   -3.2004372    1119.2577   0.05394533  0.053150009           13 
 1730000   0.55726953   -3.1754215    1118.9804  0.053900788  0.053121106            9 
 1731000   0.57635736    -3.169989    1120.6463   0.05394985  0.053092194           14 
 1732000   0.56339639   -3.1855497    1117.1064  0.053748382  0.053063195            4 
 1733000   0.57494186   -3.1738123    1116.9758  0.053711087  0.053034227            6 
 1734000    0.5569527   -3.1882341    1116.0272  0.053634524   0.05300518            3 
 1735000   0.56143239   -3.1912782    1116.5956  0.053630914  0.052976197           17 
 1736000   0.56484587   -3.2067657    1117.9846  0.053666696   0.05294707            7 
 1737000   0.56343587   -3.2109828    1118.8063  0.053675219  0.052917777           10 
 1738000    0.5651017   -3.2096332    1118.5098  0.053630121  0.052888525           18 
 1739000   0.54274028   -3.1953368    1118.9033  0.053618138  0.052859469            3 
 1740000   0.56093781   -3.1829731    1118.9149  0.053587879  0.052830308            6 
 1741000   0.56241909   -3.1798272    1121.7412  0.053692381  0.052801302            5 
 1742000   0.57296089   -3.1836609    1120.9387  0.053623168  0.052772567           13 
 1743000   0.54453309   -3.1870884    1119.6973  0.053533053   0.05274383            7 
 1744000   0.55946068   -3.2011689    1119.7389  0.053504344  0.052715009            6 
 1745000   0.56214758    -3.175488    1117.1048  0.053347891  0.052686076            8 
 1746000   0.54731004   -3.1944096    1118.2555  0.053372256   0.05265706            5 
 1747000   0.56062818   -3.1864959    1121.1293  0.053478786  0.052628311            6 
 1748000   0.56307587   -3.2043749    1117.4789  0.053274165   0.05259957            7 
 1749000    0.5513206   -3.1827394    1119.6468  0.053346996  0.052570646            6 
 1750000   0.56696956   -3.2023411    1116.7464  0.053178402  0.052541976           10 
 1751000   0.55033469   -3.2011868    1120.8439  0.053343037  0.052513336           20 
 1752000   0.54051589   -3.2162179    1120.9243  0.053316417  0.052484693            7 
 1753000   0.55483353    -3.194097    1119.4756  0.053217133  0.052455928            7 
 1754000   0.55963301   -3.2105516    1119.4165  0.053183986  0.052427116            9 
 1755000   0.55159153   -3.2016752    1117.8835  0.053080888  0.052398329            9 
 1756000    0.5599972   -3.1896135    1124.7156  0.053374885  0.052369615           19 
 1757000   0.54038321   -3.2104924    1120.7577  0.053156785  0.052341028            8 
 1758000   0.54797821   -3.1925642     1121.852  0.053178423  0.052312376           10 
 1759000    0.5391771   -3.1932789    1123.5525  0.053228752  0.052283706           12 
 1760000   0.55450981   -3.1982853    1119.6107  0.053011869   0.05225511            9 
 1761000   0.55411751   -3.2130776    1122.5707   0.05312184  0.052226509           10 
 1762000   0.56118635   -3.2135211    1118.8344  0.052914983  0.052197857           11 
 1763000   0.55323494   -3.1956211    1120.9122  0.052983181  0.052169251           11 
 1764000   0.54264402   -3.2184263    1119.8097  0.052901065  0.052140737           22 
 1765000   0.53823944   -3.2029216     1122.876  0.053015862  0.052112076           14 
 1766000   0.54695853   -3.2038444    1122.1332  0.052950792  0.052083543            6 
 1767000   0.55014603   -3.2319101    1120.2377  0.052831431  0.052055009           10 
 1768000   0.55250962   -3.2081205    1122.6102  0.052913374   0.05202655            7 
 1769000    0.5609405   -3.2165423    1126.3386    0.0530591  0.051998182            8 
 1770000   0.55554189   -3.2212735    1120.6311  0.052760409  0.051969821           26 
 1771000   0.54866397   -3.2118762    1122.1104  0.052800225  0.051941252           14 
 1772000   0.54815546   -3.2021093    1122.2899  0.052778871  0.051912659            8 
 1773000   0.54596111   -3.1768694    1121.7791  0.052725093  0.051884166            7 
 1774000   0.55338366   -3.2073119    1123.0162  0.052753485  0.051855799           18 
 1775000   0.54464257   -3.2123881    1123.7579  0.052758587  0.051827466           17 
 1776000   0.54689305   -3.2072799    1120.9397  0.052596646  0.051799131            9 
 1777000   0.54958247   -3.2242893    1126.3598  0.052821225  0.051770753            7 
 1778000   0.55608981   -3.2256268    1123.3917  0.052652404  0.051742303           12 
 1779000   0.55138843   -3.2156301     1120.747  0.052498921  0.051713913            5 
 1780000    0.5403358   -3.2320861     1121.405  0.052500233  0.051685476           12 
 1781000    0.5344267   -3.2109938    1122.6372  0.052528409  0.051657016           16 
 1782000   0.54432581   -3.2241011    1119.5691  0.052355455  0.051628557           12 
 1783000   0.54325239   -3.2274633    1126.4059  0.052645629  0.051600144           11 
 1784000   0.52952508   -3.2232761    1123.6803  0.052488803  0.051571878           20 
 1785000   0.53738723   -3.2218102    1122.5633  0.052407249  0.051543463            8 
 1786000   0.54033365   -3.2235381    1125.3681  0.052508776  0.051514984            5 
 1787000   0.54746422   -3.2443817    1119.6046  0.052210623  0.051486514           12 
 1788000   0.53591974   -3.2229641    1126.2609  0.052491653  0.051458108            7 
 1789000   0.54297723   -3.2039459    1125.8984  0.052445424  0.051429874           15 
 1790000   0.53657345   -3.2123945     1124.182  0.052336221  0.051401705           31 
 1791000   0.55758382   -3.2258578    1125.6907  0.052377195  0.051373722            7 
 1792000   0.54251418   -3.2278338    1125.0201  0.052316783  0.051345585           16 
 1793000   0.53125657   -3.2187455    1128.0403  0.052427977  0.051317385           15 
 1794000   0.54369277   -3.2287054    1123.7284  0.052198458  0.051289293           12 
 1795000   0.54651022   -3.2324613    1125.4037  0.052247154   0.05126127           22 
 1796000     0.536629   -3.2149238    1127.5155  0.052316051  0.051233197            7 
 1797000   0.53499229   -3.2402096    1125.6901  0.052202287  0.051205197           23 
 1798000    0.5317382   -3.2272842    1128.0937  0.052284654  0.051177263           26 
 1799000   0.54432942   -3.2183047    1126.6904  0.052190588  0.051149311            6 
 1800000   0.53943094   -3.2212697    1125.3241  0.052098339  0.051121401           11 
 1801000   0.52144579   -3.2398154    1124.7302  0.052041929  0.051093507            9 
 1802000   0.53402072    -3.240981    1128.8395  0.052203082  0.051065557           13 
 1803000   0.53517573    -3.251748    1126.6867  0.052074629  0.051037694           16 
 1804000   0.52343454   -3.2161389    1127.9731  0.052105188   0.05100968            9 
 1805000   0.53976994   -3.2412131    1124.6233  0.051921666   0.05098192            9 
 1806000    0.5236439   -3.2281492    1127.4537  0.052023517  0.050954073           10 
 1807000   0.53125731   -3.2588864    1124.0018  0.051835537  0.050926074            9 
 1808000    0.5321758   -3.2527878      1123.62  0.051789268  0.050897971           14 
 1809000    0.5460532   -3.2451711    1124.7691  0.051813576  0.050869942            8 
 1810000   0.52886872    -3.246803    1126.5865  0.051868624  0.050841952           12 
 1811000   0.53280143   -3.2353142    1126.1459   0.05181971  0.050813899           11 
 1812000   0.52912514   -3.2371488    1123.8222  0.051684243  0.050785929            8 
 1813000   0.52762301   -3.2291015    1126.1869   0.05176443  0.050757821            9 
 1814000   0.52335859   -3.2599486     1126.379  0.051744719  0.050729869            8 
 1815000   0.52988128   -3.2407562    1125.1076  0.051657834  0.050701687            5 
 1816000   0.53638116   -3.2407402    1121.8058  0.051477873  0.050673524           18 
 1817000   0.52023635   -3.2454495    1125.6311  0.051624981  0.050645448           12 
 1818000   0.52536122     -3.26538    1126.8657  0.051653178  0.050617412           11 
 1819000   0.53580158   -3.2559605    1126.5548  0.051610539  0.050589446           17 
 1820000   0.53176874   -3.2314984     1125.964  0.051555127  0.050561326           10 
 1821000   0.51774748   -3.2419629    1124.9047  0.051478338  0.050533479            9 
 1822000   0.52931646   -3.2381077    1125.9868   0.05149958  0.050505421           23 
 1823000   0.53512197   -3.2306015    1124.7253  0.051413665  0.050477341           20 
 1824000   0.51397949   -3.2433287     1128.478  0.051556925  0.050449465           12 
 1825000   0.52228082   -3.2550152    1126.2523  0.051427044  0.050421625           17 
 1826000   0.51840682   -3.2429246    1124.5017  0.051318988  0.050393654           22 
 1827000   0.52842382   -3.2370065    1125.5421  0.051338354  0.050365702           10 
 1828000   0.51240093   -3.2562381    1127.4573  0.051397579  0.050337876            9 
 1829000   0.52458266   -3.2631852    1127.7175  0.051381333  0.050310106           15 
 1830000   0.52745235   -3.2486507    1126.6734  0.051305712  0.050282433            6 
 1831000    0.5176517   -3.2410566     1127.346    0.0513083  0.050254551           19 
 1832000   0.52271957   -3.2482967    1127.2019  0.051273741  0.050226729            7 
 1833000   0.52364627   -3.2631772    1126.8783  0.051231056  0.050198909           23 
 1834000   0.51572233   -3.2612954    1125.2271  0.051128093  0.050170971           15 
 1835000   0.51289983   -3.2494189    1126.4757  0.051156934  0.050143046            9 
 1836000   0.50926611   -3.2525146    1126.5561  0.051132722    0.0501152            8 
 1837000   0.51840226   -3.2412905    1128.2788  0.051183035  0.050087486           13 
 1838000   0.53281888   -3.2709135    1125.0804  0.051010174  0.050059721           10 
 1839000   0.52312927   -3.2502893    1127.4918  0.051091706  0.050031915            6 
 1840000    0.5201445    -3.257349    1131.4172   0.05124172  0.050004327           12 
 1841000   0.51961351   -3.2529526    1126.5655  0.050994275  0.049976713           16 
 1842000   0.51161862   -3.2719876    1128.5124   0.05105467  0.049949005           20 
 1843000   0.50909246   -3.2919941    1126.0746  0.050916739  0.049921292            9 
 1844000   0.51618665    -3.262861    1126.0223  0.050886764  0.049893476           27 
 1845000   0.52056641   -3.2642391    1126.0967  0.050862541  0.049865699            9 
 1846000   0.50837442   -3.2477132    1126.7689  0.050865335  0.049837966           13 
 1847000   0.52345711   -3.2638345    1127.6695  0.050878428    0.0498103            4 
 1848000   0.51394488   -3.2589132     1128.755  0.050899847  0.049782688           14 
 1849000   0.51049424   -3.2652273    1128.9032  0.050878996  0.049755033           20 
 1850000   0.51663519    -3.256462    1125.4196  0.050694575  0.049727321           10 
 1851000   0.51350326   -3.2959864    1125.8609  0.050687055  0.049699538           10 
 1852000   0.51940773   -3.2673986    1125.0649  0.050623868  0.049671818           18 
 1853000    0.5224048   -3.2665055    1127.0176  0.050684367  0.049644128           15 
 1854000   0.50817451   -3.2526887    1127.0139  0.050656865  0.049616471           17 
 1855000   0.51009811   -3.2918219    1125.1507  0.050545855  0.049588833           13 
 1856000   0.51262991   -3.2564029    1127.6789  0.050632135  0.049561128           10 
 1857000   0.51395625   -3.2720904    1129.1957  0.050672935  0.049533564           22 
 1858000   0.51119457   -3.2760088      1128.16  0.050599212  0.049505942           17 
 1859000   0.49826094   -3.2685775    1130.2952  0.050667707  0.049478201           12 
 1860000   0.51159345   -3.2704164    1127.2017  0.050501869  0.049450616           20 
 1861000    0.5039766   -3.2763238    1131.7247  0.050677265  0.049422974            9 
 1862000      0.51812   -3.2804147    1128.7326  0.050516139  0.049395374           15 
 1863000   0.50712928   -3.2803964    1128.7423  0.050489457  0.049367739           28 
 1864000   0.50955421   -3.2909146    1125.4087  0.050313335  0.049339908           17 
 1865000   0.51384182   -3.2795405    1125.9995  0.050312759   0.04931222           11 
 1866000     0.501562   -3.2732204    1128.6711  0.050405103  0.049284471           24 
 1867000   0.52013226   -3.2807538    1127.4811  0.050324993  0.049256898           22 
 1868000   0.49579774   -3.2729853    1126.6992   0.05026317  0.049229202           18 
 1869000   0.50265001   -3.2841293    1127.5427  0.050273885  0.049201522           15 
 1870000   0.50111077   -3.2891828    1129.9335  0.050353542  0.049173981           15 
 1871000   0.51178196   -3.2747198    1127.6276  0.050223927  0.049146328           11 
 1872000   0.50696292   -3.2804319    1128.1636  0.050220959  0.049118784            8 
 1873000   0.50070041    -3.283692    1128.7013   0.05021807  0.049091249           13 
 1874000   0.51500115   -3.2794431    1126.0421   0.05007302  0.049063812           22 
 1875000   0.50926287   -3.2709904    1128.5205  0.050156465   0.04903634           10 
 1876000   0.50654457   -3.2750542    1129.1259  0.050156623  0.049009028            9 
 1877000   0.49629421   -3.2637034    1129.3181  0.050138434   0.04898171           13 
 1878000   0.50945929   -3.2761769    1129.9289  0.050138841  0.048954387           18 
 1879000   0.50496973   -3.2888223     1129.075  0.050074287  0.048926942           11 
 1880000   0.50614793   -3.2723807    1129.4303  0.050063402  0.048899486           10 
 1881000     0.497077    -3.291292    1129.1871  0.050026012  0.048872065           13 
 1882000   0.49879957   -3.2886446    1129.8126  0.050027123  0.048844545           17 
 1883000   0.51327943    -3.284217    1128.1888  0.049928695  0.048817086            8 
 1884000   0.49916269   -3.2853476    1128.8315  0.049930621  0.048789654           11 
 1885000   0.49214654   -3.2912676    1125.4496  0.049754626  0.048762158           50 
 1886000   0.49891593   -3.2979441    1125.8258  0.049744865  0.048734654           28 
 1887000   0.50384115   -3.2931679    1127.4111  0.049788515    0.0487072           16 
 1888000   0.50808842   -3.2771782     1129.758  0.049865729  0.048679789            9 
 1889000   0.49974497   -3.2860882    1128.4445  0.049781386  0.048652489           31 
 1890000   0.50275342   -3.3085044    1128.3557  0.049751132  0.048625136           11 
 1891000   0.50297172   -3.3008052    1128.8957   0.04974862  0.048597823           13 
 1892000   0.50727008   -3.2968068    1127.2086  0.049648019  0.048570516           20 
 1893000   0.50101633   -3.2734413    1127.0508  0.049614845  0.048543375           10 
 1894000   0.50514869   -3.3091487    1128.6264  0.049657973  0.048516001           13 
 1895000   0.50307227    -3.305408    1128.8536  0.049641758  0.048488634           14 
 1896000   0.49794732   -3.2792075    1128.0945  0.049582211  0.048461388           19 
 1897000   0.48579891   -3.2815127    1130.9738   0.04968256  0.048434157           11 
 1898000   0.49521673    -3.293167    1131.3328  0.049672146  0.048406955            8 
 1899000   0.50060921   -3.2945569    1133.7849  0.049753592  0.048379848           14 
 1900000   0.49945106   -3.2959562    1128.6955   0.04950419  0.048352643           14 
 1901000   0.49888718   -3.3082954    1128.3683  0.049463803   0.04832553           15 
 1902000   0.48571436   -3.2863845    1132.0954  0.049601094   0.04829836           16 
 1903000   0.49508193   -3.2894853    1127.5562  0.049376257  0.048271211           17 
 1904000   0.48671895     -3.29178    1130.7815  0.049491489   0.04824418           36 
 1905000     0.507814    -3.290518    1131.1178  0.049480219  0.048217039           19 
 1906000   0.48373722   -3.3047535     1132.605   0.04951928  0.048190057           13 
 1907000   0.49323656   -3.3062058    1128.5757  0.049317241  0.048162979           19 
 1908000   0.49368072   -3.2935724    1132.2188  0.049450505  0.048135831           22 
 1909000   0.47977468   -3.3015125    1134.0385   0.04950404  0.048108795           20 
 1910000   0.49458375   -3.3070692    1129.2762   0.04927034  0.048081672           10 
 1911000   0.49571041   -3.3186275    1129.0463  0.049234534  0.048054593           10 
 1912000    0.4779526   -3.3054512    1131.3711  0.049310108  0.048027612           14 
 1913000   0.48033384    -3.308893     1132.718  0.049343006  0.048000624           16 
 1914000   0.48575354   -3.3006342    1130.3811   0.04921548  0.047973576           26 
 1915000   0.48792627   -3.3114649    1130.3661  0.049189123  0.047946598           17 
 1916000   0.48689941   -3.3241868     1132.395  0.049251697  0.047919551           15 
 1917000   0.49935446   -3.3179709     1130.204  0.049130761  0.047892481           12 
 1918000   0.48316034   -3.3087285     1130.604  0.049122525  0.047865478           15 
 1919000   0.48435005    -3.311179    1130.5952  0.049096541  0.047838498           43 
 1920000   0.50050082   -3.3091568    1131.8602  0.049125878  0.047811559           13 
 1921000   0.49351403   -3.3082986    1131.2718  0.049074778  0.047784734            6 
 1922000   0.47498655   -3.3073656    1131.4774  0.049058162  0.047757938           15 
 1923000   0.48648601   -3.3229625    1132.6183  0.049082088  0.047731094            9 
 1924000   0.47934821   -3.3096137    1131.5904  0.049012059  0.047704185           21 
 1925000   0.48802716   -3.3054523    1131.6422  0.048988839  0.047677318           17 
 1926000   0.49298709    -3.312917     1131.547  0.048959284  0.047650522           19 
 1927000   0.48899679   -3.3041091    1131.1279  0.048915756  0.047623646           32 
 1928000   0.48796575   -3.3048003    1132.3207   0.04894194  0.047596806           12 
 1929000    0.4909238   -3.3221352    1131.3072  0.048872783  0.047569892           18 
 1930000    0.4844919   -3.3253739    1131.8837  0.048872352  0.047543073           13 
 1931000   0.48037341   -3.2972824    1131.6221  0.048835755  0.047516299           10 
 1932000   0.48642098   -3.3182824    1132.8906  0.048865192   0.04748959           19 
 1933000   0.47497007   -3.3054964    1130.7283  0.048746693  0.047462859           11 
 1934000   0.48461275   -3.3311563    1130.6617  0.048718618  0.047435978           19 
 1935000   0.48549411   -3.3138673    1132.7842  0.048784848  0.047409089           29 
 1936000   0.47332467   -3.3261798    1131.8678  0.048720206  0.047382318           20 
 1937000   0.48254118   -3.3153074    1132.5249  0.048723321  0.047355547            9 
 1938000   0.47929851   -3.3251749    1133.5196  0.048740952  0.047328893           10 
 1939000   0.47336128   -3.3292555    1132.5957  0.048676107  0.047302314           15 
 1940000   0.48127927   -3.3104428    1133.7095  0.048698864  0.047275708           15 
 1941000   0.47792768   -3.3273381    1131.7706  0.048590531  0.047249085           13 
 1942000   0.48661381   -3.3043034    1132.6651   0.04860389  0.047222436           11 
 1943000   0.47436838     -3.32749     1131.014  0.048508065  0.047195828           12 
 1944000   0.47416493   -3.3369675    1130.5502   0.04846323  0.047169064           25 
 1945000   0.47730619   -3.3077251    1133.0402  0.048544997  0.047142371           19 
 1946000   0.48238226   -3.3299025    1130.3429  0.048404546  0.047115799           30 
 1947000   0.46046881   -3.3250105    1131.4753   0.04842815  0.047089185           13 
 1948000   0.48175254   -3.3355995    1132.5115  0.048447618  0.047062565           32 
 1949000   0.47343106   -3.3358468    1132.4091  0.048418381  0.047035937           20 
 1950000   0.48042404   -3.3274193    1131.0911  0.048337227   0.04700942            9 
 1951000    0.4864792   -3.3198269     1130.943  0.048306125  0.046982911           14 
 1952000   0.47245999   -3.3294252     1132.434   0.04834503  0.046956397           20 
 1953000   0.47633803   -3.3269416    1133.1257  0.048349789  0.046929828           16 
 1954000   0.46769674   -3.3309534    1132.9153  0.048316075  0.046903326           11 
 1955000   0.47176168   -3.3315789    1132.5348   0.04827514  0.046876772           12 
 1956000   0.46549298   -3.3304228    1130.5847  0.048167377  0.046850271           15 
 1957000   0.47332038   -3.3187075    1133.8413   0.04828144  0.046823768           16 
 1958000   0.47233333   -3.3430359    1136.5113  0.048370417  0.046797269           26 
 1959000   0.47151294   -3.3383429    1133.0087   0.04819673  0.046770817           12 
 1960000   0.47716013   -3.3455411    1131.9316  0.048126345   0.04674427           21 
 1961000   0.46859608       -3.325    1134.8541  0.048225995   0.04671791           26 
 1962000   0.46574147   -3.3462417    1132.4564  0.048099575  0.046691421           18 
 1963000   0.46875811   -3.3306561    1134.2207  0.048149969  0.046664967           20 
 1964000   0.46295941   -3.3402494    1132.7607  0.048063506  0.046638609           12 
 1965000   0.46914601   -3.3379157    1131.4314  0.047982671  0.046612128           21 
 1966000   0.46516353   -3.3343065    1131.2958  0.047952519   0.04658565           27 
 1967000   0.47316959   -3.3510754    1133.0231  0.048001318  0.046559225           20 
 1968000   0.46639297   -3.3587638    1134.2504  0.048028894  0.046532743           17 
 1969000   0.47374441   -3.3381608    1132.6132  0.047935211  0.046506287           20 
 1970000   0.46961329   -3.3385912    1130.5062   0.04782175  0.046479898           26 
 1971000   0.46296739   -3.3521153    1133.6041  0.047928465  0.046453515           18 
 1972000    0.4611614   -3.3398987    1133.8303  0.047913721  0.046427162           42 
 1973000   0.45898766   -3.3696123     1132.682  0.047840934  0.046400708           37 
 1974000   0.46053006   -3.3521316    1129.8924  0.047698934  0.046374098           30 
 1975000   0.46176622   -3.3765337    1131.4283  0.047739591  0.046347625           18 
 1976000    0.4580202   -3.3563031    1130.1441  0.047661273  0.046321099           31 
 1977000   0.46137939   -3.3559449     1132.244   0.04772568  0.046294591           37 
 1978000   0.46766178   -3.3537365     1131.763  0.047681287  0.046268042           19 
 1979000   0.47049946   -3.3441426    1132.2498  0.047677692  0.046241605           28 
 1980000   0.47097476   -3.3546105    1131.7931   0.04763439  0.046215114           59 
 1981000   0.45551289   -3.3398746    1133.1908  0.047669141  0.046188657           19 
 1982000   0.45063649   -3.3669107     1134.378  0.047695005  0.046162259           43 
 1983000   0.46994506   -3.3664505     1131.477  0.047549042  0.046135713           52 
 1984000   0.45618964   -3.3609546    1133.3922  0.047605517  0.046109183           38 
 1985000   0.46420189   -3.3484068    1131.5304  0.047503376  0.046082803           16 
 1986000   0.45606723   -3.3664437    1131.7698  0.047489501  0.046056482           17 
 1987000   0.44534934   -3.3616491    1130.9312   0.04743043  0.046030137           13 
 1988000   0.45142492   -3.3604979    1131.7651  0.047441528  0.046003833           15 
 1989000   0.45679271   -3.3568036    1132.9494  0.047467295  0.045977603           22 
 1990000   0.46026694    -3.355263    1134.1259  0.047492709   0.04595133           23 
 1991000    0.4554584   -3.3499204    1132.6644  0.047407686  0.045924972           14 
 1992000   0.44593353    -3.350479    1132.2586   0.04736691  0.045898579           21 
 1993000   0.45924406   -3.3776019    1131.1968  0.047298747  0.045872178           29 
 1994000   0.44090199   -3.3575277    1132.7903   0.04734162  0.045845743           10 
 1995000   0.45769523   -3.3518076    1132.9749  0.047325601  0.045819358           23 
 1996000   0.45937971   -3.3626498    1129.4688   0.04715551  0.045793006           17 
 1997000   0.45522279   -3.3813574    1128.0554  0.047072916  0.045766553           20 
 1998000   0.45560786   -3.3705122     1131.261  0.047183056  0.045739962           20 
 1999000   0.45044128   -3.3817752     1130.837  0.047141781  0.045713454            8 
 2000000   0.44397369   -3.3675145    1130.2585  0.047094105  0.045687028           22 
 2001000   0.46011703   -3.3674136    1128.7953  0.047009633  0.045660642           26 
 2002000   0.44428021   -3.3670824    1131.4621  0.047097157  0.045634254           29 
 2003000   0.44880133   -3.3794603    1129.6866  0.046999775  0.045607906           21 
 2004000   0.45698301   -3.3783365    1129.4868  0.046968015  0.045581525           28 
 2005000   0.45459651   -3.3705984    1130.3156  0.046979036  0.045555219           24 
 2006000   0.44703371   -3.3795043    1132.8963  0.047062822  0.045528971           27 
 2007000   0.43978765   -3.3634341      1131.52  0.046982229  0.045502714           44 
 2008000   0.44249058   -3.3696803    1130.4443  0.046914187  0.045476501           58 
 2009000   0.45518199   -3.3743239    1129.2111  0.046839686  0.045450175           27 
 2010000   0.44613653   -3.3684196    1131.4618  0.046909694  0.045423818           54 
 2011000   0.45518324   -3.3855147    1132.1737  0.046915867   0.04539757           47 
 2012000   0.44724308   -3.3724636    1132.3744  0.046900863  0.045371306           24 
Loop time of 4783.91 on 48 procs for 2000000 steps with 4000 atoms

Performance: 72242.117 tau/day, 418.068 timesteps/s
99.4% CPU use with 48 MPI tasks x no OpenMP threads

MPI task timing breakdown:
Section |  min time  |  avg time  |  max time  |%varavg| %total
---------------------------------------------------------------
Pair    | 320.67     | 337.33     | 353.66     |  47.0 |  7.05
Neigh   | 32.166     | 33.544     | 35.073     |  13.0 |  0.70
Comm    | 314.15     | 330.92     | 350.08     |  53.5 |  6.92
Output  | 4.1226     | 4.1244     | 4.1602     |   0.3 |  0.09
Modify  | 4029.9     | 4036.2     | 4042.1     |   3.8 | 84.37
Other   |            | 41.84      |            |       |  0.87

Nlocal:        83.3333 ave          89 max          77 min
Histogram: 2 5 2 1 5 15 9 4 3 2
Nghost:        2163.17 ave        2182 max        2150 min
Histogram: 7 6 5 2 10 5 8 2 2 1
Neighs:        14264.2 ave       15607 max       12917 min
Histogram: 5 2 2 6 11 4 6 8 2 2
FullNghs:      28528.9 ave       30746 max       26293 min
Histogram: 2 4 3 3 10 8 9 6 2 1

Total # of neighbors = 1369389
Ave neighs/atom = 342.34725
Neighbor list builds = 108716
Dangerous builds = 0

#clear
#
#next RN
#
#jump SELF
Total wall time: 1:19:47
