
units lj                  # Use reduced LJ style units
atom_style atomic         # Uncharged point particles
atom_modify map hash      # Needed for indexing of clusters etc
                          # Used to be able to find where atoms are in relation to each other.

lattice fcc 1.0 spacing 1 1 1
Lattice spacing in x,y,z = 1.5874011 1.5874011 1.5874011
region box block 0 10 0 10 0 10 units lattice
create_box 2 box
Created orthogonal box = (0.0000000 0.0000000 0.0000000) to (15.874011 15.874011 15.874011)
  3 by 4 by 4 MPI processor grid
create_atoms 1 box
Created 4000 atoms
  using lattice units in orthogonal box = (0.0000000 0.0000000 0.0000000) to (15.874011 15.874011 15.874011)
  create_atoms CPU = 0.015 seconds
set type 1 type/fraction 2 0.31 78393
Setting atom values ...
  1268 settings made for type/fraction
mass 1 1.0
mass 2 1.0
pair_style lj/cut  3.5
pair_modify tail  yes
pair_coeff 1  1  1.0  1.0   # Intearaction between 1 and 1 set with epsilon = 1 and sigma = 1
pair_coeff 1  2  1.5  0.8
pair_coeff 2  2  0.5  0.88

write_data data.0
System init for write_data ...
Neighbor list info ...
  update every 1 steps, delay 10 steps, check yes
  max neighbors/atom: 2000, page size: 100000
  master list distance cutoff = 3.8
  ghost atom cutoff = 3.8
  binsize = 1.9, bins = 9 9 9
  1 neighbor lists, perpetual/occasional/extra = 1 0 0
  (1) pair lj/cut, perpetual
      attributes: half, newton on
      pair build: half/bin/atomonly/newton
      stencil: half/bin/3d
      bin: standard
WARNING: Not all mixed pair coeffs generated from mixing. Use write_data with 'pair ij' option to store all pair coeffs. (../write_data.cpp:312)


#############################
#   M E L T   S Y S T E M   #
#############################

velocity all create 2.4 5300450 mom yes dist gaussian # Assign velocities
                                                    # Temperature 2.4, random number seed, zero linear momentum
                                                                                # Gaussian distribution

timestep 0.002   # simulation timestep
thermo 1000       # output thermodynamic data every 1000 steps bf 100

# Define a fix  in this case with index 1 applied to all
# particles in the simulation. This fix is for simulations
# in the anisotropic NPT ensemble. Note that we use the MTK
# correction.
fix 1 all npt temp 2.4 2.4 0.1 iso 5.68 5.68 0.5 mtk yes tchain 5 pchain 5 # Use NPT ensemble
                                                                         # Set temperature and pressure and damping
                                                                         # Numbers of thermostats in chain and in barostat
run 10000          # run for 10000 steps
Per MPI rank memory allocation (min/avg/max) = 3.642 | 3.644 | 3.648 Mbytes
Step Temp E_pair E_mol TotEng Press Volume 
       0          2.4   -6.3727134            0   -2.7736134   -4.0086663         4000 
    1000    2.4125195   -5.0001835            0    -1.382309    5.4342135    4143.3285 
    2000    2.4217933   -5.0426586            0   -1.4108769    5.7314346    4097.6735 
    3000    2.4132868   -5.0128018            0   -1.3937767    5.6576132     4121.324 
    4000    2.4097309   -5.0081137            0    -1.394421    5.5016176    4141.7777 
    5000    2.4174722   -4.9777595            0   -1.3524578    5.6353273    4130.3876 
    6000     2.393767   -4.9919202            0   -1.4021674    5.7919973    4111.7233 
    7000    2.3576902   -4.9416466            0   -1.4059955     5.724953    4139.8991 
    8000    2.4158857   -4.9229418            0   -1.3000192    5.8415096    4136.1254 
    9000    2.4306751     -4.98862            0   -1.3435188    6.0688617    4100.9184 
   10000    2.4540283    -5.065336            0   -1.3852139     5.208574    4140.3977 
Loop time of 2.52534 on 48 procs for 10000 steps with 4000 atoms

Performance: 684264.658 tau/day, 3959.865 timesteps/s
99.6% CPU use with 48 MPI tasks x no OpenMP threads

MPI task timing breakdown:
Section |  min time  |  avg time  |  max time  |%varavg| %total
---------------------------------------------------------------
Pair    | 1.046      | 1.1155     | 1.3355     |   4.4 | 44.17
Neigh   | 0.20194    | 0.21087    | 0.24479    |   1.4 |  8.35
Comm    | 0.68249    | 0.89223    | 0.98841    |   6.5 | 35.33
Output  | 0.00025627 | 0.00026254 | 0.00033798 |   0.0 |  0.01
Modify  | 0.21736    | 0.29123    | 0.38569    |   8.1 | 11.53
Other   |            | 0.01527    |            |       |  0.60

Nlocal:        83.3333 ave          94 max          71 min
Histogram: 1 1 3 7 9 8 10 5 2 2
Nghost:        1594.38 ave        1621 max        1561 min
Histogram: 2 1 2 5 5 11 10 5 4 3
Neighs:        9214.46 ave       10609 max        7508 min
Histogram: 1 2 2 5 6 13 10 4 2 3

Total # of neighbors = 442294
Ave neighs/atom = 110.57350
Neighbor list builds = 902
Dangerous builds = 173

# Equilibrate just above the melting temperature to avoid step fn in T

fix 1 all npt temp 1.25 1.25 0.1 iso 5.68 5.68 0.5 mtk yes tchain 5 pchain 5
run 2000
Per MPI rank memory allocation (min/avg/max) = 3.643 | 3.645 | 3.649 Mbytes
Step Temp E_pair E_mol TotEng Press Volume 
   10000    2.4540283    -5.065336            0   -1.3852139     5.208574    4140.3977 
   11000    1.2635558   -6.8145718            0    -4.919712    5.9104556    3321.9799 
   12000    1.2363724   -6.9073441            0   -5.0532491    5.9310674    3295.2498 
Loop time of 0.574542 on 48 procs for 2000 steps with 4000 atoms

Performance: 601522.536 tau/day, 3481.033 timesteps/s
99.6% CPU use with 48 MPI tasks x no OpenMP threads

MPI task timing breakdown:
Section |  min time  |  avg time  |  max time  |%varavg| %total
---------------------------------------------------------------
Pair    | 0.24349    | 0.27238    | 0.2965     |   2.6 | 47.41
Neigh   | 0.035773   | 0.039469   | 0.041692   |   0.8 |  6.87
Comm    | 0.18733    | 0.21273    | 0.24467    |   3.1 | 37.03
Output  | 6.8316e-05 | 6.9535e-05 | 8.4863e-05 |   0.0 |  0.01
Modify  | 0.040196   | 0.04509    | 0.048734   |   1.3 |  7.85
Other   |            | 0.004806   |            |       |  0.84

Nlocal:        83.3333 ave          92 max          73 min
Histogram: 1 3 6 2 2 12 11 7 3 1
Nghost:        1873.33 ave        1904 max        1840 min
Histogram: 3 4 2 9 4 5 10 5 1 5
Neighs:        11601.4 ave       13350 max       10045 min
Histogram: 6 3 3 7 6 6 6 8 2 1

Total # of neighbors = 556868
Ave neighs/atom = 139.21700
Neighbor list builds = 142
Dangerous builds = 9

#############################
# L I N E A R  Q U E N C H  #
#############################

# Define solid atoms. This closely follows ten Wolde  Ruiz-Montero and Frenkel  Faraday Discuss  1996  104  93-110
# Compute components of the per-atom q6 vector
compute q6 all orientorder/atom degrees 1 6 components 6 nnn NULL cutoff 1.3 # compute the Q6 parameter.
                                                                             # Use all neighbours within 1.3 unit cell.

# get number of connections
compute coord_number all coord/atom orientorder q6 0.5

# An atom is solid if it has 8 or more connections (of a possible 14)
variable is_solid atom c_coord_number>=8
group solid dynamic all var is_solid    # Must be dynamic to update
dynamic group solid defined

# do clustering
compute cluster solid cluster/atom 1.3 # Create a cluster where all atoms within are solid and max 1.3 units from another member

# define chunks one chunk per cluster
compute clus_chunks solid chunk/atom c_cluster nchunk every compress yes  # Says which atoms are in which chunk

# count the size of each chunk
compute size_chunks solid property/chunk clus_chunks count


# Find the maximum entry in the vector of chunk sizes
variable max_n equal max(c_size_chunks)


# Thermo style which includes this variable
# thermo_style custom step temp pe vol v_max_n

thermo ${N}  # Print the thermo information every 100 steps
thermo 1000  

# Reset the npt fix at a lower temperature (below freezing)
fix 1  all npt temp  ${temp} ${temp}  0.1  iso  5.68  5.68  0.5  mtk yes tchain  5  pchain  5
fix 1  all npt temp  0.45 ${temp}  0.1  iso  5.68  5.68  0.5  mtk yes tchain  5  pchain  5
fix 1  all npt temp  0.45 0.45  0.1  iso  5.68  5.68  0.5  mtk yes tchain  5  pchain  5

dump dmp2 all dcd ${N} traj.dcd
dump dmp2 all dcd 1000 traj.dcd


compute msd all msd com yes
variable twopoint equal c_msd[4]/6/(step*dt+1.0e-6)
fix 9 all vector 10 c_msd[4]
variable fit equal slope(f_9)/6/(10*dt)
thermo_style custom step temp pe c_msd[4] v_twopoint v_fit v_max_n

fix 1 all npt temp 1.25 ${temp} 0.1 iso 5.68 5.68 0.5 mtk yes tchain 5 pchain 5
fix 1 all npt temp 1.25 0.45 0.1 iso 5.68 5.68 0.5 mtk yes tchain 5 pchain 5
run 500000 # 5000000  # Run for this many steps
Neighbor list info ...
  update every 1 steps, delay 10 steps, check yes
  max neighbors/atom: 2000, page size: 100000
  master list distance cutoff = 3.8
  ghost atom cutoff = 3.8
  binsize = 1.9, bins = 8 8 8
  4 neighbor lists, perpetual/occasional/extra = 1 3 0
  (1) pair lj/cut, perpetual
      attributes: half, newton on
      pair build: half/bin/atomonly/newton
      stencil: half/bin/3d
      bin: standard
  (2) compute orientorder/atom, occasional
      attributes: full, newton on
      pair build: full/bin/atomonly
      stencil: full/bin/3d
      bin: standard
  (3) compute coord/atom, occasional
      attributes: full, newton on
      pair build: full/bin/atomonly
      stencil: full/bin/3d
      bin: standard
  (4) compute cluster/atom, occasional
      attributes: full, newton on
      pair build: full/bin/atomonly
      stencil: full/bin/3d
      bin: standard
Per MPI rank memory allocation (min/avg/max) = 9.808 | 9.818 | 9.824 Mbytes
Step Temp PotEng c_msd[4] v_twopoint v_fit v_max_n 
   12000    1.2363724   -6.9073441 2.1689731e-30 1.5062312e-32 8.3333333e+20            1 
   13000    1.2552105   -6.8929307   0.48396114 0.0031023148  0.039608118            1 
   14000    1.2480208   -6.9537973   0.97981548 0.0058322348  0.040006456            2 
   15000    1.2676449   -6.9124214    1.4849555 0.0082497523  0.040645993            4 
   16000    1.2750326   -6.9028467    1.9463971  0.010137484   0.04071766            1 
   17000    1.2233259   -6.9251795    2.3676276  0.011606017   0.03962984            2 
   18000    1.2373415   -6.9205488    2.8617041   0.01324863   0.03931053            1 
   19000    1.2332459   -6.8969494    3.3098211  0.014516759  0.039117523            1 
   20000    1.2242087   -6.9510751    3.7261451  0.015525604  0.038786411            2 
   21000    1.2464519   -6.9107487    4.1509134  0.016471878  0.038387851            1 
   22000    1.2157179   -6.9154331    4.6225389  0.017509617  0.038118257            2 
   23000    1.2514751   -6.9711852    5.1014685  0.018483581  0.038093168            1 
   24000    1.2302119   -6.9216485    5.4276958  0.018846166  0.037917612            1 
   25000    1.2585062   -6.9568683    5.8158786  0.019386262  0.037481858            1 
   26000     1.217981   -6.9344221    6.3180435  0.020250139  0.037242884            1 
   27000    1.2309359   -6.9945986    6.6771955  0.020608628   0.03701706            1 
   28000    1.2242923   -6.9474126    7.1615793  0.021314224  0.036852375            1 
   29000    1.2113048   -6.9825928    7.5134373  0.021590337  0.036707538            1 
   30000    1.2286871   -7.0008059    8.0698954  0.022416376  0.036614496            1 
   31000    1.2336991   -6.9407017    8.5195993  0.022902148  0.036605279            1 
   32000    1.2158368   -6.9490288     8.956017   0.02332296  0.036593888            1 
   33000    1.2028796   -6.9847966    9.3562674  0.023626938  0.036570607            1 
   34000    1.2127818   -6.9474843    9.7033409  0.023782698  0.036508508            2 
   35000    1.2043988    -6.994265    10.173051   0.02422155  0.036464295            1 
   36000    1.2126944    -7.002791    10.638628  0.024626454  0.036436071            1 
   37000     1.211346   -6.9541388    11.024725  0.024830462  0.036386514            1 
   38000    1.2285253   -7.0235417    11.444193  0.025096913  0.036338732            2 
   39000    1.2305309   -7.0018287    11.981906  0.025602362  0.036325831            1 
   40000    1.2178263   -6.9980428    12.366727  0.025764015  0.036322377            2 
   41000    1.1891654   -7.0140866    12.780158  0.025975931  0.036311072            1 
   42000    1.1862016   -6.9942618    13.240627  0.026271084   0.03628763            8 
   43000    1.1948321   -7.0319653    13.625772  0.026406534  0.036276948            1 
   44000    1.1732017   -7.0112267     14.03512  0.026581666  0.036243634            2 
   45000    1.1869217   -6.9913568    14.386984  0.026642564  0.036170226            1 
   46000    1.1931775   -7.0114023    14.738447  0.026700084  0.036105485            2 
   47000    1.1796786   -7.0389836    15.015842  0.026623833  0.036004703            1 
   48000    1.1971063   -7.0257158    15.496356  0.026903396  0.035881045            2 
   49000    1.1988165   -7.0212968    15.900517  0.027041696    0.0357847            1 
   50000    1.2059407   -7.0336298     16.35941  0.027265684  0.035704867            2 
   51000    1.1995616   -7.0215928    16.790159  0.027434901   0.03564396            1 
   52000    1.1460151   -7.0312986    17.258094  0.027657202  0.035600841            4 
   53000    1.2035845   -7.0541835    17.506964  0.027526673  0.035544913            2 
   54000    1.1770154   -7.0316594    17.896861  0.027618613  0.035467871            1 
   55000    1.1760351    -7.086145     18.33865  0.027785833  0.035395897            1 
   56000    1.1702789   -7.0710647    18.697599  0.027823808  0.035332917            1 
   57000    1.1862678   -7.0790299    19.026475  0.027816484  0.035266973            1 
   58000    1.1548517   -7.0571821    19.438372  0.027928696   0.03516295            2 
   59000    1.2042135   -7.0964951    19.729708  0.027866819  0.035059559            1 
   60000    1.1581938   -7.0323148    20.088851  0.027901181  0.034951465            1 
   61000    1.1673295    -7.063155      20.3944  0.027861202  0.034844726            1 
   62000    1.1905686   -7.0740556    20.673854  0.027787438  0.034732509            1 
   63000    1.1760446   -7.0974758    21.080611  0.027884406  0.034624675            2 
   64000    1.1598955    -7.081999    21.405525  0.027871777  0.034516226            2 
   65000    1.1529301   -7.0573786    21.763082  0.027901387  0.034400315            1 
   66000    1.1359185   -7.0918522    22.102072  0.027906657  0.034292283            1 
   67000    1.1822122   -7.0734999    22.539664  0.028034407  0.034188505            1 
   68000    1.1841463    -7.060413    22.893213  0.028055408   0.03408548            1 
   69000    1.1756882   -7.0992697    23.209382  0.028030654  0.033985844            2 
   70000    1.1351319   -7.0867776     23.64611  0.028150131  0.033900771            1 
   71000    1.1852715   -7.0697352    24.207955  0.028413093  0.033823127            3 
   72000    1.1468148   -7.0954017    24.526488  0.028387139  0.033761023            1 
   73000    1.1400528   -7.1357703    24.741736  0.028243991   0.03368636            3 
   74000    1.1449919   -7.1091415    24.935122  0.028080093  0.033599498            3 
   75000    1.1513251   -7.0809378    25.457759  0.028286399  0.033516445            2 
   76000    1.1536658   -7.1349486    25.710914  0.028191791  0.033436299            3 
   77000     1.136691   -7.1082455     26.01424  0.028153939  0.033348721            1 
   78000    1.1354472   -7.1138905    26.276478   0.02807316  0.033251234            2 
   79000    1.1583437   -7.1297159    26.619065  0.028079182   0.03315831            2 
   80000    1.1568812   -7.1285559    26.897364  0.028018088  0.033063957            1 
   81000    1.1345224   -7.0932738    27.389487  0.028178485  0.032969922            1 
   82000     1.120317   -7.1563277    27.597339  0.028046076  0.032881179            1 
   83000    1.1512359   -7.1140328    28.041368  0.028153984  0.032797429            2 
   84000    1.1348394   -7.1519397    28.597575   0.02837061  0.032730809            3 
   85000    1.1304806   -7.1397032     28.90697  0.028340167  0.032670999            3 
   86000    1.1619453    -7.159271    29.205947  0.028300336  0.032606197            1 
   87000    1.1250554   -7.1705764    29.413024  0.028173394  0.032534685            2 
   88000     1.130025   -7.1777758    29.644489  0.028072433  0.032453747            3 
   89000     1.127611   -7.1529246    29.939302  0.028033055   0.03236737            3 
   90000    1.1033371   -7.1488391    30.257115  0.028015847  0.032283215            2 
   91000    1.1358741   -7.1475732    30.472919  0.027905603  0.032191439            3 
   92000    1.1281706   -7.1937868    30.670952  0.027781659  0.032097084            2 
   93000    1.1193802    -7.168432    30.946821  0.027730126  0.031995892            1 
   94000    1.1261185    -7.193101    31.185454  0.027646679  0.031898424            1 
   95000    1.1388105   -7.1923464    31.721129  0.027825552  0.031803555            1 
   96000     1.121667    -7.153412    31.816548  0.027618531  0.031709143            1 
   97000    1.1195917   -7.2222811    32.178771  0.027644992  0.031613035            1 
   98000    1.1155458   -7.1861549    32.384666  0.027537981  0.031521504            2 
   99000    1.1157546   -7.2026885    32.692358   0.02751882  0.031424344            2 
  100000    1.1105802   -7.2208921    32.846217  0.027371847  0.031319397            2 
  101000    1.1152514   -7.2178882    33.326889  0.027497433  0.031221946            1 
  102000    1.1226053   -7.2083481    33.506406  0.027374515  0.031131426            2 
  103000    1.0746323   -7.2559763    33.801356  0.027347375  0.031041947            1 
  104000    1.0941185   -7.2045287    34.234784  0.027431718  0.030955211            1 
  105000    1.1135615   -7.2063592     34.48205  0.027366706  0.030866831            1 
  106000    1.1152327   -7.1922646    34.664603  0.027252046  0.030777796            2 
  107000    1.1023318    -7.221067    34.846263  0.027138834   0.03068579            2 
  108000    1.0955459   -7.2159846    35.094925  0.027079418  0.030592484            4 
  109000    1.1107126   -7.2617163    35.405708  0.027068584  0.030501659            2 
  110000    1.0847598   -7.2597373    35.668596  0.027021663  0.030408563            4 
  111000    1.0781848   -7.2715525    35.811821  0.026885751  0.030312129            2 
  112000    1.0917057   -7.2427815     36.20318  0.026936889  0.030211635            3 
  113000    1.0933065   -7.2523903    36.372978   0.02682373  0.030113508            2 
  114000    1.0934038   -7.2889723    36.393122   0.02660316  0.030015282            3 
  115000    1.0607373   -7.3182818    36.720286  0.026608903  0.029914393            2 
  116000    1.0911482   -7.2797818    37.201875  0.026725485  0.029815181            3 
  117000    1.0777652   -7.2381792    37.340722  0.026595955  0.029718696            2 
  118000    1.0796785   -7.3023213    37.528275  0.026503019   0.02962303            1 
  119000    1.0741662   -7.2909917    37.726038  0.026418794  0.029527235            3 
  120000    1.0687757   -7.2779697    38.004469  0.026391992  0.029434951            1 
  121000    1.0758278   -7.2837205    38.532381  0.026537453  0.029343048            1 
  122000    1.0613514    -7.289774    38.636442  0.026391012  0.029251294            2 
  123000    1.0850121   -7.2341438    39.001859  0.026424023  0.029161555            4 
  124000    1.0845062    -7.293092    39.249337  0.026377242  0.029075146            1 
  125000    1.0646629   -7.2550349    39.726023  0.026484015  0.028995386            3 
  126000    1.0631701   -7.2775764    39.744591  0.026286105  0.028917495            2 
  127000      1.05686   -7.3001534    40.040429  0.026273248  0.028837133            1 
  128000    1.0704705   -7.2830278    40.392832  0.026297416  0.028759394            2 
  129000    1.0657324   -7.3018962    40.456682  0.026134807  0.028679567            2 
  130000    1.0471277   -7.3560199    40.633933  0.026047393   0.02859365            5 
  131000    1.0592177   -7.2757853    41.101203  0.026145803  0.028514833            1 
  132000    1.0619644    -7.331834    41.321593  0.026086864   0.02843764            1 
  133000    1.0656782   -7.3448182    41.482401  0.025991479  0.028359713            2 
  134000    1.0464499   -7.3094719    41.585387  0.025861559  0.028279017            1 
  135000    1.0695065   -7.3686769    41.664931  0.025719093  0.028196876            3 
  136000    1.0270898   -7.3830755    42.170655  0.025839862   0.02811863            3 
  137000    1.0657961   -7.3791596    42.482857  0.025841154  0.028044291            2 
  138000    1.0674035    -7.347214    42.747996  0.025814007  0.027967738            1 
  139000    1.0548701   -7.3272384    43.038916  0.025802707  0.027892416            1 
  140000    1.0447928   -7.3421041    43.219994  0.025726187  0.027820801            2 
  141000    1.0568878   -7.3925141    43.430012  0.025667856  0.027746747            2 
  142000    1.0393407    -7.340058    43.839773  0.025727566  0.027673057            1 
  143000    1.0491616   -7.3577744     43.79138  0.025519452   0.02760014            2 
  144000    1.0401529   -7.3908907    44.119497  0.025532116  0.027528082            2 
  145000    1.0209215   -7.3927175     44.32872  0.025476276  0.027454267            1 
  146000    1.0342903   -7.3908398    44.448554  0.025370179  0.027379653            2 
  147000    1.0296782   -7.3808518    44.768036  0.025378705  0.027303656            2 
  148000   0.99713476   -7.3406354    44.765674  0.025205897  0.027224978            1 
  149000    1.0336294   -7.4030824    44.869808  0.025094971  0.027146357            2 
  150000    1.0367464   -7.3695986    45.053376  0.025029653  0.027067294            1 
  151000    1.0209375   -7.3754287    45.397329  0.025053713  0.026988702            1 
  152000     1.055093     -7.39649    45.579079   0.02498853  0.026913821            2 
  153000    1.0221856   -7.3553036    45.934763  0.025018934    0.0268402            1 
  154000    1.0574474   -7.3343383    46.214056  0.025007606  0.026767734            5 
  155000     1.017069   -7.4173007    46.236749  0.024858467  0.026696211            3 
  156000    1.0003365   -7.4152335    46.539824  0.024861017  0.026623117            2 
  157000    1.0106673   -7.4117423     46.67635  0.024775133   0.02654987            3 
  158000    1.0269741   -7.4190896    46.687377  0.024624144  0.026474348            1 
  159000   0.99305976   -7.4524288    46.914953   0.02458855  0.026398476            1 
  160000    1.0229204   -7.4243591    47.109574  0.024536236  0.026320674            2 
  161000   0.98372188    -7.436017    47.246175  0.024454542  0.026245547            1 
  162000     1.024599   -7.4052052    47.641318  0.024506851  0.026170737            1 
  163000   0.99991861   -7.4347793     47.77657  0.024425649  0.026097904            2 
  164000      1.00201   -7.4209798    48.092716  0.024437355   0.02602507            2 
  165000    1.0266566    -7.413526    48.297625   0.02439274  0.025953327            3 
  166000    1.0049768   -7.4213823    48.494418  0.024344587  0.025882333            6 
  167000    1.0101524   -7.4857315    48.824614   0.02436358  0.025813459            4 
  168000    1.0062937    -7.459623    48.785872  0.024199341  0.025742911            2 
  169000    1.0157383   -7.4380442    48.857923  0.024091678  0.025671645            2 
  170000    1.0195196   -7.4605367    49.104096  0.024070635  0.025597562            1 
  171000    1.0010253   -7.4778034    49.182965  0.023968307  0.025523821            3 
  172000    1.0053006   -7.4884426    49.557704  0.024010515  0.025453228            1 
  173000    1.0154072   -7.4693491    49.814875  0.023995605  0.025383104            1 
  174000   0.99453296   -7.4470381    50.020766  0.023956305  0.025314836            1 
  175000    1.0000554   -7.4697244    50.109219  0.023861533   0.02524746            1 
  176000   0.99453094   -7.4825019    50.249536  0.023792394  0.025179293            3 
  177000   0.99848674   -7.4686324    50.530506  0.023790257  0.025112834            1 
  178000   0.99510385   -7.5190455    50.693159  0.023732752  0.025045938            2 
  179000   0.95750819   -7.5039742    50.802134    0.0236509  0.024979044            5 
  180000   0.98394114   -7.5127136    51.057027  0.023637512  0.024911799            2 
  181000   0.99483763   -7.5017681    51.107339  0.023530082   0.02484491            4 
  182000   0.98588801   -7.5311088    51.523691  0.023591434  0.024778532            2 
  183000   0.96661891   -7.4953965    51.569133  0.023483212     0.024713            1 
  184000   0.97977546   -7.5147522    51.779591  0.023450902  0.024647895            1 
  185000   0.97363436   -7.5147775    52.093509  0.023465544  0.024584471            1 
  186000   0.97688874   -7.5317231    52.210972  0.023392012  0.024521349            1 
  187000    1.0020377   -7.4965996    52.481248  0.023387365  0.024458257            4 
  188000   0.96387024   -7.5851753     52.37576  0.023216205  0.024394104            2 
  189000     0.951973    -7.543774    52.675038  0.023225325   0.02432995            1 
  190000   0.99418372   -7.5159421    52.902919  0.023203034  0.024266287            3 
  191000    0.9664744   -7.5431907     52.99763  0.023122875  0.024203065            1 
  192000   0.93463772   -7.5592742    53.124636  0.023057568  0.024139711            2 
  193000    0.9470518   -7.5529148    53.418158  0.023064835  0.024075395            1 
  194000   0.94389741   -7.5477233    53.684643  0.023060413  0.024012672            3 
  195000   0.93563613   -7.5311823    54.083433  0.023112578  0.023952851            2 
  196000   0.97480019   -7.5561836    54.085507  0.022995539  0.023893008            3 
  197000   0.94567012   -7.5945183    53.993456  0.022839872  0.023832117            2 
  198000   0.94341862   -7.5899035    54.171603  0.022799496  0.023770361            1 
  199000   0.95240032   -7.5388188    54.318169  0.022746302  0.023707985            3 
  200000   0.94451341   -7.5693034    54.577149  0.022740479  0.023644918            2 
  201000   0.94206727   -7.6113502    54.540417  0.022612113  0.023582275            2 
  202000   0.96500936   -7.5572836    54.698635  0.022565444  0.023519107            2 
  203000   0.93441169   -7.5574882     55.04721  0.022597377  0.023457186            2 
  204000   0.94096325   -7.5713547    54.985786  0.022461514  0.023396329            1 
  205000   0.94063237   -7.5733032    55.059191  0.022381785  0.023334982            3 
  206000   0.95799625   -7.6029127    55.195282  0.022328188  0.023272572            3 
  207000   0.94624111    -7.590629    55.385637  0.022296955  0.023209841            1 
  208000   0.91395176    -7.640964     55.47707   0.02222639  0.023147049            1 
  209000   0.92200785   -7.5974955    55.812294  0.022253706   0.02308441            3 
  210000   0.92041664   -7.5898295    55.892459  0.022179547  0.023022596            3 
  211000   0.93064081   -7.5949053    56.072002   0.02214534  0.022961227            2 
  212000   0.94818781   -7.5940979    56.046903  0.022031015  0.022899335            1 
  213000   0.93474011   -7.6102444    56.176217  0.021978176   0.02283756            1 
  214000   0.92471188   -7.6002683    56.361553  0.021947645  0.022776921            1 
  215000   0.92131952   -7.6362042     56.57578  0.021928597  0.022716296            1 
  216000   0.92326434     -7.61076    56.836253  0.021927567  0.022656636            2 
  217000   0.93727675   -7.6570967    56.976465  0.021880363  0.022597335            2 
  218000   0.94991104   -7.6234424    57.179066  0.021857441  0.022538276            1 
  219000   0.91897497   -7.6309087    57.125357  0.021737198  0.022479553            2 
  220000   0.91632235   -7.6741392    57.426581  0.021752493  0.022420754            1 
  221000   0.92963775   -7.6549877     57.52746  0.021692104  0.022362675            3 
  222000   0.90730657   -7.6526377    57.772531  0.021686385  0.022305791            1 
  223000   0.91453393   -7.6569408    57.826349  0.021609249  0.022249065            2 
  224000   0.93097576   -7.6632183     57.98907  0.021573315  0.022191217            1 
  225000   0.91329258   -7.6853144    58.234557  0.021568355  0.022134147            1 
  226000   0.89038768   -7.6693597      58.1858  0.021454941   0.02207746            2 
  227000   0.92975869   -7.6823526    58.278729  0.021394541  0.022020497            2 
  228000   0.90860834   -7.6846564    58.499268  0.021381312  0.021962969            1 
  229000   0.88434473   -7.6717194    58.708463  0.021364069  0.021906847            2 
  230000   0.92152953   -7.6873211    58.868238  0.021329072  0.021850583            2 
  231000   0.91671362   -7.6806721     58.82042  0.021219488  0.021793677            1 
  232000    0.8857676   -7.6826222    58.812905  0.021125325  0.021737086            1 
  233000   0.88968498   -7.6686665    59.219049  0.021179917  0.021681171            3 
  234000   0.88430109   -7.7114182    59.167561  0.021071069   0.02162567            1 
  235000   0.88916359    -7.682863    59.502465  0.021100165  0.021570981            3 
  236000   0.88005958   -7.7200584    59.505233  0.021011735  0.021516172            4 
  237000   0.88831777    -7.696734    59.553864  0.020940177  0.021460439            6 
  238000   0.87927666   -7.6784213    59.854142  0.020957332   0.02140576            1 
  239000    0.8899076   -7.7105813    59.732306  0.020827164  0.021350274            4 
  240000   0.86765859   -7.6994903    59.859863  0.020784674  0.021294548            4 
  241000   0.91393374   -7.7332114    59.892125  0.020709587  0.021238343            3 
  242000    0.8703393   -7.7292745    60.075833   0.02068727  0.021182203            3 
  243000   0.89563441   -7.7339867    60.033964  0.020587779  0.021125729            1 
  244000   0.87807607   -7.7638017    60.205818  0.020562096  0.021069012            2 
  245000   0.86156366   -7.7618482    60.452053  0.020561923  0.021012427            1 
  246000   0.88471451   -7.7492106    60.503749   0.02049585  0.020955496            3 
  247000   0.86427224   -7.7477248    60.499828  0.020411548  0.020899163            2 
  248000   0.87319287   -7.7389378    60.707336   0.02039897  0.020842354            2 
  249000   0.87287421   -7.7765721    60.548938  0.020264036  0.020785049            3 
  250000    0.8636535   -7.7802363    60.787664  0.020262555  0.020727125            2 
  251000   0.87072511   -7.7981446    61.009606  0.020255513  0.020670936            3 
  252000   0.87040961   -7.7783442    60.938992  0.020151783  0.020615625            1 
  253000   0.86829657   -7.8262027    61.186047  0.020153507  0.020560348            3 
  254000   0.84429026   -7.7756698    61.297927  0.020110868  0.020505168            6 
  255000   0.85679291   -7.7879458    61.389196  0.020061829  0.020450597            2 
  256000   0.84698415   -7.8153693    61.339945   0.01996743  0.020395614            3 
  257000   0.85660592   -7.7725976    61.434269  0.019920321  0.020340237            6 
  258000   0.83832968   -7.8050162    61.543091  0.019878259  0.020285032            1 
  259000    0.8666188   -7.7638145    61.634624   0.01983096  0.020229336            1 
  260000   0.84142557   -7.7756759    61.701298  0.019776057  0.020173672            3 
  261000   0.84423603   -7.8024402    61.667987  0.019689651  0.020117609            1 
  262000   0.85800249   -7.8456542    61.696043  0.019623423  0.020061374            2 
  263000   0.85871386   -7.8169639    61.998531  0.019644655  0.020005012            3 
  264000   0.87211133   -7.8362183    62.063074  0.019590617  0.019949238            6 
  265000   0.84728015   -7.8369797    61.889111  0.019461985  0.019892716            1 
  266000   0.85029712    -7.820052    62.033059  0.019433916  0.019836043            3 
  267000   0.83163833   -7.8609961    61.969468  0.019341282  0.019779092            2 
  268000   0.83319645   -7.8317789    62.073864  0.019301575  0.019721907            2 
  269000   0.84074081   -7.8490438    62.049915  0.019222402  0.019664603            2 
  270000    0.8539642   -7.8674664    62.176939  0.019190413  0.019607319            2 
  271000   0.83638751   -7.8622184     62.35148  0.019173272  0.019550856            2 
  272000   0.83293744   -7.8735711    62.414518  0.019122095  0.019493881            2 
  273000   0.81255673    -7.868318    62.555937  0.019095219   0.01943804            3 
  274000   0.84874215   -7.8586505    62.439901  0.018990238  0.019381984            3 
  275000   0.82405519   -7.8660702    62.584781  0.018965085  0.019325344            2 
  276000   0.81821117   -7.8740964    62.668234  0.018921568  0.019269068            1 
  277000   0.81852069   -7.9007308    62.678962  0.018856487  0.019213328            3 
  278000   0.82793497   -7.8795776    62.928539  0.018863471   0.01915791            2 
  279000   0.83351621   -7.8880442    62.923246  0.018794279   0.01910267            4 
  280000   0.83231865   -7.8971169    63.031584    0.0187594  0.019047057            3 
  281000   0.80213103   -7.9232705    62.944755   0.01866689  0.018991063            2 
  282000   0.80695217   -7.9330389    62.948968  0.018601941  0.018934883            1 
  283000   0.82200786   -7.9142274    63.210789  0.018613307  0.018879003            1 
  284000   0.82433281    -7.905104    63.264629  0.018563565  0.018823945            2 
  285000   0.81964958   -7.9055648    63.254054  0.018495337  0.018769119            2 
  286000   0.80741774   -7.9019555    63.522405  0.018508859  0.018714402            1 
  287000   0.82215414   -7.9304771    63.345372  0.018392965   0.01865998            2 
  288000   0.79737792   -7.9257524     63.49669  0.018372885  0.018605242            2 
  289000   0.81662849   -7.9238866    63.522751  0.018316826  0.018550879            1 
  290000   0.81064956   -7.9368127    63.726835  0.018312309  0.018496963            3 
  291000   0.80672947   -7.9542756    63.644934  0.018225926  0.018442953            3 
  292000   0.79369087   -7.9491945    63.814585  0.018211925  0.018389137            4 
  293000   0.80869842   -7.9249842    63.788496  0.018142348  0.018334965            1 
  294000   0.78613028   -7.9711776    63.757574  0.018071875  0.018280831            2 
  295000   0.81273133   -7.9077885    63.783273  0.018017874   0.01822659            2 
  296000   0.78053212   -7.9596815    63.819073  0.017967081  0.018172549            3 
  297000   0.81094705   -7.9456661    63.906638  0.017931155  0.018118454            1 
  298000   0.79846894    -7.993897    63.933883  0.017878603  0.018064223            3 
  299000   0.79701927   -7.9737984    64.026917  0.017844737  0.018010768            1 
  300000   0.80622059   -7.9640882    64.122329  0.017811758  0.017957071            3 
  301000   0.79808613   -7.9680175     64.12616  0.017753643  0.017903444            2 
  302000   0.79289015   -7.9778668    64.247925  0.017728456  0.017849798            2 
  303000   0.79673575    -7.973386    64.038177   0.01761226  0.017795919            3 
  304000   0.79581677     -7.94997    64.155638  0.017586524   0.01774238            1 
  305000   0.76948646   -8.0017031    64.088561  0.017510536  0.017688701            2 
  306000   0.77726175   -7.9816715    64.010306     0.017432  0.017634584            3 
  307000   0.78199349   -8.0006405     64.22561  0.017433662  0.017580498            2 
  308000   0.79426089   -7.9660824    64.135929  0.017352795  0.017526297            4 
  309000   0.76029726   -8.0120391    64.058838  0.017275846  0.017471798            1 
  310000    0.7669663   -7.9852098     64.25047  0.017271632  0.017417334            3 
  311000   0.77433608   -8.0439809     64.03123   0.01715735  0.017362679            3 
  312000    0.7780313   -8.0033378    64.180332  0.017142183  0.017308205            1 
  313000   0.75955705   -8.0394917    64.142287  0.017077286  0.017253454            4 
  314000   0.76690728   -8.0196493    64.063597  0.017002016  0.017198402            2 
  315000   0.77044387   -8.0092432    64.168474  0.016975787  0.017143422            2 
  316000    0.7745997   -8.0078465    64.138404  0.016914136    0.0170889            2 
  317000   0.78527008   -8.0390833    64.268007  0.016894849  0.017034533            1 
  318000   0.74324249   -8.0444065    64.290809  0.016847696  0.016980508            1 
  319000   0.77069234   -8.0567118    64.182644  0.016766626  0.016926596            4 
  320000   0.75887843   -8.0835172    64.299654  0.016744701  0.016872692            2 
  321000   0.76448373    -8.063274    64.333196  0.016701245  0.016818829            3 
  322000   0.74401305   -8.0939835    64.351203  0.016654038  0.016764738            2 
  323000   0.75658426   -8.0617193    64.382334  0.016610509  0.016710676            3 
  324000    0.7448051   -8.0830458     64.27579  0.016531839  0.016656726            2 
  325000   0.75641052   -8.0351651    64.392055  0.016510783  0.016602792            5 
  326000   0.73968035   -8.0625632    64.430408  0.016469941  0.016549116            4 
  327000   0.75904405   -8.0556478     64.33493  0.016395242  0.016495578            1 
  328000   0.74274921   -8.0899175    64.244747  0.016322344  0.016442148            2 
  329000   0.75428187   -8.0737376    64.433191  0.016320464  0.016388901            2 
  330000   0.76535501   -8.0491322    64.488346  0.016284936   0.01633614            2 
  331000    0.7312301   -8.0710369    64.675389  0.016282827  0.016283614            2 
  332000   0.72730025   -8.0906061    64.777711  0.016259466  0.016231693            3 
  333000   0.73780117   -8.1203662    64.772924   0.01620944   0.01617985            4 
  334000    0.7305459   -8.0864632    64.978225  0.016212132  0.016128459            4 
  335000   0.73759061   -8.1035307    64.815476  0.016123253  0.016077237            1 
  336000   0.73676645   -8.0929201    64.883228   0.01609207  0.016026134            2 
  337000    0.7344051    -8.103958    64.781348  0.016019127   0.01597508            2 
  338000    0.7442043   -8.1275335    64.833401  0.015984566   0.01592411            2 
  339000   0.71935566   -8.1084195    64.824921   0.01593533  0.015873204            1 
  340000   0.72969487   -8.1195416    64.945753  0.015918077  0.015822626            1 
  341000   0.71525246   -8.1324203    64.958767  0.015874577  0.015772146            2 
  342000   0.72404132   -8.1548978    64.949062  0.015825795  0.015721765            4 
  343000   0.72784639   -8.1650683    64.826079  0.015749776  0.015671157            2 
  344000   0.71728895   -8.1591697    64.954591  0.015735124  0.015620779            3 
  345000   0.70734339   -8.1476661    65.096859  0.015723879  0.015570845            4 
  346000   0.72046655    -8.144249    64.913827  0.015634351  0.015521114            5 
  347000   0.71132289   -8.1474383     64.95214  0.015598497  0.015471284            2 
  348000   0.70709182   -8.1433133    65.039715  0.015574644  0.015421397            6 
  349000   0.72280033   -8.1878733    64.970403  0.015513468  0.015371501            3 
  350000   0.71704404   -8.2019601    64.847402  0.015439858  0.015321765            4 
  351000   0.69755354   -8.2041598    65.011221  0.015434763  0.015272341            3 
  352000   0.69296265   -8.2107662    64.906946  0.015366228  0.015222928            3 
  353000   0.71568159   -8.1788952    65.180165  0.015387197  0.015173705            3 
  354000   0.70873802   -8.1587256    65.232455  0.015356039  0.015124631            2 
  355000   0.69355187   -8.2023933    65.051679  0.015270347  0.015075679            4 
  356000   0.69035165   -8.2031397    65.221918  0.015267303  0.015026781            7 
  357000   0.69624483   -8.2161491    65.058809  0.015186463  0.014978278            3 
  358000   0.69003822    -8.215045    65.122292   0.01515882  0.014929753            7 
  359000   0.71516524   -8.2036185    65.147113  0.015122357  0.014881167            1 
  360000   0.69589199    -8.205748     65.14291  0.015079377  0.014832792            3 
  361000   0.68291061   -8.2118768    65.132547  0.015035214  0.014784961            3 
  362000   0.69484637   -8.2114861     65.25368  0.015021565  0.014737195            1 
  363000   0.69592587   -8.1977974    65.275898  0.014985284  0.014689664            2 
  364000   0.68780308   -8.2018356    65.230787  0.014933788  0.014642147            4 
  365000   0.69524099    -8.187252    65.087944  0.014860261  0.014594837            4 
  366000   0.66921464    -8.224684    65.209523  0.014847341  0.014547531            4 
  367000    0.6589494   -8.2349274    65.326127  0.014833362  0.014500304            2 
  368000    0.6806632   -8.2421845    65.206129  0.014765881  0.014453233            3 
  369000    0.6843131   -8.2729315    65.109207  0.014703976  0.014406083            2 
  370000   0.67807985    -8.258156    65.191248  0.014682713  0.014359041            2 
  371000   0.66859952   -8.2570157    65.285319  0.014664267  0.014312249            1 
  372000   0.68791404    -8.279183    65.230815  0.014612638  0.014265554            3 
  373000    0.6743236   -8.2600025    65.227164  0.014572646  0.014218953            2 
  374000   0.68540298   -8.2727768    65.172613  0.014521527  0.014172412            2 
  375000   0.67340872   -8.2740225    65.203314  0.014489625  0.014126128            2 
  376000   0.67297706   -8.2642822    65.188715  0.014447854   0.01407977            2 
  377000   0.66927005   -8.2795243    65.224953   0.01441754  0.014033405            2 
  378000     0.660638   -8.3162209    65.185263  0.014370649  0.013987157            2 
  379000   0.67063208   -8.3068716    65.080279  0.014309648  0.013941164            2 
  380000   0.66470907   -8.2949747    65.244653  0.014308038   0.01389508            1 
  381000   0.65462769   -8.3054545    65.150906  0.014249979  0.013849135            1 
  382000    0.6621333   -8.2880706      65.0645  0.014193826  0.013803328            4 
  383000   0.67318958   -8.3043106    65.141931  0.014173614   0.01375765            1 
  384000       0.6593   -8.3024369    65.077547  0.014122731  0.013712196            2 
  385000   0.65370458    -8.311182    65.149407  0.014101603  0.013666919            2 
  386000   0.65652634   -8.3148065    65.185613  0.014072887  0.013621619            1 
  387000   0.65553223   -8.3164739    65.204646  0.014040622  0.013576437            1 
  388000   0.63806637   -8.3314244    65.056379   0.01397259  0.013531288            1 
  389000   0.65328912   -8.3387903    65.087628  0.013943365  0.013486274       -1e+20 
  390000   0.65631582   -8.3213504    65.039506   0.01389733  0.013441363            1 
  391000   0.64524833   -8.3132885    64.994796  0.013852258  0.013396445            2 
  392000   0.64763133   -8.3291695     65.07584   0.01383415  0.013351776            5 
  393000   0.64075291   -8.3614285    64.985158   0.01377972  0.013307214            2 
  394000   0.63938974   -8.3634671    64.921073  0.013731191  0.013262695            3 
  395000   0.63868976   -8.3693034    65.028292  0.013719049  0.013218363            2 
  396000   0.62256795   -8.3374042    65.093063  0.013698035  0.013174108            3 
  397000   0.63257054   -8.3636789     64.98966  0.013641826  0.013130131            3 
  398000   0.63371305   -8.3469302    64.940818  0.013597324  0.013086129            1 
  399000    0.6392032   -8.3615235    65.050046  0.013586058  0.013042489            3 
  400000   0.62752742   -8.3492099    65.034226  0.013548797  0.012998901            1 
  401000   0.62208121   -8.3591608    65.023935  0.013512871  0.012955475            2 
  402000   0.62694602   -8.3748912    65.115516  0.013498241  0.012912307            2 
  403000   0.61984956   -8.3788623    64.967775  0.013434197  0.012869258            2 
  404000   0.62360242   -8.3901105    65.062278  0.013420437  0.012826243            2 
  405000   0.62446146   -8.3980481    65.032638  0.013381201  0.012783408            3 
  406000    0.6308249   -8.4102197    64.893959  0.013319778  0.012740652            1 
  407000   0.61883655   -8.3832663    64.910496  0.013290437  0.012697953            2 
  408000   0.61267156   -8.3906987    64.937196  0.013263316  0.012655502            1 
  409000   0.62238433   -8.4074725    64.827726  0.013208583  0.012613086            2 
  410000   0.62470556   -8.4124655    64.824133  0.013175637  0.012570948            3 
  411000   0.61712382   -8.4113464    64.922659  0.013163556  0.012528944            2 
  412000   0.60416462   -8.4126868    65.034365    0.0131542  0.012487167            2 
  413000   0.62207911   -8.4147628    64.996612  0.013114732  0.012445519            2 
  414000   0.60684336   -8.3784034    64.921656  0.013067966  0.012404005            1 
  415000   0.59681124    -8.415747    64.973937  0.013046975  0.012362617            2 
  416000   0.60729052   -8.4173833    65.005186  0.013021872  0.012321523            5 
  417000   0.59952375   -8.4350628     64.97545  0.012984702  0.012280435            4 
  418000   0.60146809   -8.4458244    65.040654  0.012966638  0.012239562            4 
  419000   0.58817884   -8.4347268    64.803944  0.012888613  0.012198659            2 
  420000   0.60917519   -8.4316838    64.980086  0.012892874  0.012157897            1 
  421000   0.60451058   -8.4214986    64.842999  0.012835115  0.012117325            4 
  422000   0.59684473   -8.4311507    64.863605  0.012808769  0.012076769            2 
  423000   0.58741161   -8.4214367    64.949792  0.012795467  0.012036428            2 
  424000   0.58069599   -8.4374706    64.841912  0.012744086  0.011996219            3 
  425000   0.58997158   -8.4515094    64.765074  0.012699034   0.01195607            2 
  426000   0.58161783   -8.4509396    64.866387  0.012689043  0.011916124            4 
  427000   0.59667526   -8.4521762    64.814279  0.012649157  0.011876344            2 
  428000   0.58180573   -8.4644819    64.683559  0.012594151   0.01183657            3 
  429000   0.57736669   -8.4309114     64.73112  0.012574033  0.011797022            1 
  430000   0.58329762   -8.4747483    64.763608  0.012551087  0.011757588            1 
  431000   0.58358941   -8.4772069    64.670289  0.012503923    0.0117183            3 
  432000   0.57279815   -8.4570989    64.731985   0.01248688  0.011679093            3 
  433000   0.57544524   -8.4602912    64.902235  0.012490807  0.011640037            4 
  434000   0.56815432   -8.4795587    64.591487  0.012402359  0.011601118            6 
  435000   0.56767557    -8.470956    64.777964  0.012409572  0.011562246            1 
  436000   0.58046357   -8.4673638    64.750311  0.012375824  0.011523671            3 
  437000   0.57800655   -8.4985096    64.556365   0.01231052  0.011485063            3 
  438000   0.58691667   -8.4768506    64.637519  0.012297854  0.011446528            3 
  439000   0.55242688   -8.4776151    64.801026  0.012300878   0.01140825            2 
  440000   0.56205403   -8.5043858    64.606378  0.012236056  0.011370131            4 
  441000   0.56147049   -8.5015097    64.686852  0.012223517  0.011332084            2 
  442000   0.57292845   -8.5039177    64.715756  0.012201311   0.01129426            4 
  443000   0.55982264   -8.5159249    64.712903  0.012173232  0.011256597            2 
  444000   0.56010862   -8.5036728    64.524286  0.012110414  0.011219057            2 
  445000   0.55538446    -8.513171    64.676339  0.012111674  0.011181549            2 
  446000   0.56804847   -8.4919054    64.616612  0.012073358  0.011144357            1 
  447000    0.5488088   -8.5300119    64.632779  0.012049362  0.011107262            1 
  448000   0.55641942    -8.531807    64.706083  0.012036102  0.011070245            2 
  449000    0.5473198   -8.5088203    64.622883  0.011993854  0.011033302            1 
  450000   0.54707298   -8.5154484    64.494633  0.011943451  0.010996595            2 
  451000   0.54549057   -8.5168693    64.500092  0.011917977  0.010960045            1 
  452000   0.54535282   -8.5227992    64.561378  0.011902909  0.010923604            5 
  453000   0.54395385   -8.5339242    64.634223  0.011890034  0.010887367            2 
  454000   0.54865164   -8.5340692     64.53172  0.011845029  0.010851177            3 
  455000   0.54063113   -8.5155499    64.542242  0.011820923  0.010815228            5 
  456000   0.54471232   -8.5337896    64.655669  0.011815729  0.010779398            1 
  457000   0.53775248   -8.5455586    64.552408  0.011771045   0.01074367            2 
  458000   0.54064749   -8.5394291    64.464174  0.011729289  0.010708104            4 
  459000   0.52752309   -8.5496945    64.561316  0.011721372  0.010672673            4 
  460000   0.52559223   -8.5626878    64.524774  0.011689271  0.010637336            3 
  461000   0.52660032   -8.5489749    64.571132  0.011672294  0.010602129            2 
  462000   0.52340636   -8.5691907     64.53697  0.011640868  0.010567144            3 
  463000   0.52474068   -8.5633211    64.580446   0.01162355  0.010532265            2 
  464000   0.52077976   -8.5821865    64.537197  0.011590732  0.010497514            4 
  465000    0.5285177   -8.5569265    64.565781  0.011570928  0.010462955            3 
  466000   0.52078825   -8.5581593    64.557024  0.011544532  0.010428492            3 
  467000   0.53024604   -8.5621148    64.532509  0.011515437  0.010394192            4 
  468000   0.51575636   -8.5745844    64.463498  0.011478543    0.0103599            2 
  469000   0.49542091   -8.5892373    64.373587  0.011438093  0.010325751            2 
  470000   0.51636807   -8.5962415    64.445564  0.011426518  0.010291804            2 
  471000   0.51177023    -8.583274    64.438136  0.011400944   0.01025793            3 
  472000    0.5166428   -8.5860082    64.421182  0.011373796  0.010224211            2 
  473000   0.51461021   -8.6019415    64.416123  0.011348859   0.01019056            2 
  474000   0.50749446   -8.5908423    64.439611  0.011329046  0.010157008            2 
  475000    0.5045587   -8.5953102    64.318098  0.011283877   0.01012363            2 
  476000   0.51151775   -8.5793514    64.436272   0.01128086  0.010090414            2 
  477000    0.5073755   -8.5820498    64.349184  0.011241996  0.010057359            2 
  478000   0.49656514   -8.5842644    64.336689  0.011216299  0.010024388            1 
  479000   0.51128835   -8.5903197    64.340647  0.011193571 0.0099916238            2 
  480000   0.49792076   -8.6067678    64.290829  0.011161602 0.0099589456            2 
  481000   0.50096333   -8.6154558    64.415442  0.011159986 0.0099263228            3 
  482000   0.50154706   -8.6140033     64.33789  0.011123425 0.0098938798            2 
  483000   0.49402846   -8.6079788    64.335139   0.01109992 0.0098615681            3 
  484000    0.4980767   -8.6251517     64.31259  0.011073104 0.0098293668            3 
  485000   0.49283103   -8.6326177    64.289627  0.011046328 0.0097972918            2 
  486000   0.50558872   -8.6124266    64.286009  0.011022978 0.0097653409            2 
  487000   0.49072431   -8.6325728    64.359806  0.011012972 0.0097335279            1 
  488000   0.48010772   -8.6267178    64.255184  0.010972538 0.0097017927            3 
  489000   0.48784262    -8.637243    64.342817  0.010965034 0.0096702171            2 
  490000   0.48721229   -8.6345539    64.409159  0.010953939  0.009638751            2 
  491000   0.48036893   -8.6364947    64.259048  0.010906152  0.009607386            2 
  492000   0.47810965   -8.6415005    64.194277  0.010873014 0.0095760849            3 
  493000   0.46975899     -8.64659    64.331428  0.010874143 0.0095449968            4 
  494000   0.48458097   -8.6462258    64.234367  0.010835757 0.0095139471            4 
  495000   0.47646079   -8.6484354    64.271371  0.010820096 0.0094830923            2 
  496000    0.4658222   -8.6628024    64.239819   0.01079298 0.0094523944            2 
  497000   0.47337673   -8.6418939    64.188059  0.010762585 0.0094217981            3 
  498000   0.46743598   -8.6550897     64.25713  0.010752532 0.0093913016            4 
  499000   0.47332122   -8.6582714    64.234719  0.010727241 0.0093609254            2 
  500000   0.47594911   -8.6401814    64.145902  0.010690984 0.0093306932            2 
  501000   0.46762789   -8.6682655    64.312167    0.0106973 0.0093006248            4 
  502000   0.46883766   -8.6450039    64.196052  0.010656715 0.0092706227            4 
  503000   0.46678777   -8.6656911    64.316939  0.010655557 0.0092407513            2 
  504000   0.46364432   -8.6747514    64.151976  0.010607139 0.0092110042            4 
  505000   0.46306075   -8.6777207    64.110564  0.010579301 0.0091813541            2 
  506000   0.45886934   -8.6732084    64.179386  0.010569728 0.0091518234            4 
  507000   0.46021463   -8.6844599    64.087658  0.010533803 0.0091224472            3 
  508000   0.45725785   -8.6743479    64.137145  0.010521185 0.0090931458            3 
  509000   0.46493878   -8.6804552    64.083987  0.010491812   0.00906401            2 
  510000   0.44669926   -8.6854982    64.126673  0.010478215 0.0090350038            3 
  511000   0.44822948   -8.6806781    64.126812  0.010457732 0.0090060729            2 
  512000   0.45091719   -8.6921515    64.172928  0.010444812 0.0089772778            2 
Loop time of 1205.7 on 48 procs for 500000 steps with 4000 atoms

Performance: 71659.518 tau/day, 414.696 timesteps/s
99.4% CPU use with 48 MPI tasks x no OpenMP threads

MPI task timing breakdown:
Section |  min time  |  avg time  |  max time  |%varavg| %total
---------------------------------------------------------------
Pair    | 72.25      | 79.515     | 85.161     |  29.8 |  6.59
Neigh   | 7.8417     | 8.2042     | 8.5003     |   5.7 |  0.68
Comm    | 72.01      | 79.357     | 88.277     |  36.2 |  6.58
Output  | 0.84859    | 0.84912    | 0.85783    |   0.1 |  0.07
Modify  | 1023.3     | 1027       | 1030.2     |   5.9 | 85.18
Other   |            | 10.8       |            |       |  0.90

Nlocal:        83.3333 ave          89 max          74 min
Histogram: 1 0 3 2 9 4 9 8 7 5
Nghost:        2066.35 ave        2089 max        2051 min
Histogram: 5 6 8 8 6 4 1 6 2 2
Neighs:        13478.0 ave       14809 max       12387 min
Histogram: 9 1 5 6 7 4 5 4 3 4
FullNghs:      26956.6 ave       29185 max       24048 min
Histogram: 1 3 2 6 6 4 12 7 5 2

Total # of neighbors = 1293918
Ave neighs/atom = 323.47950
Neighbor list builds = 26769
Dangerous builds = 0

#clear
#
#next RN
#
#jump SELF
Total wall time: 0:20:09
