
units lj                  # Use reduced LJ style units
atom_style atomic         # Uncharged point particles
atom_modify map hash      # Needed for indexing of clusters etc
                          # Used to be able to find where atoms are in relation to each other.

lattice fcc 1.0 spacing 1 1 1
Lattice spacing in x,y,z = 1.5874011 1.5874011 1.5874011
region box block 0 10 0 10 0 10 units lattice
create_box 2 box
Created orthogonal box = (0.0000000 0.0000000 0.0000000) to (15.874011 15.874011 15.874011)
  3 by 4 by 4 MPI processor grid
create_atoms 1 box
Created 4000 atoms
  using lattice units in orthogonal box = (0.0000000 0.0000000 0.0000000) to (15.874011 15.874011 15.874011)
  create_atoms CPU = 0.002 seconds
set type 1 type/fraction 2 0.58 78393
Setting atom values ...
  2338 settings made for type/fraction
mass 1 1.0
mass 2 1.0
pair_style lj/cut  3.5
pair_modify tail  yes
pair_coeff 1  1  1.0  1.0   # Intearaction between 1 and 1 set with epsilon = 1 and sigma = 1
pair_coeff 1  2  1.5  0.8
pair_coeff 2  2  0.5  0.88

write_data data.0
System init for write_data ...
Neighbor list info ...
  update every 1 steps, delay 10 steps, check yes
  max neighbors/atom: 2000, page size: 100000
  master list distance cutoff = 3.8
  ghost atom cutoff = 3.8
  binsize = 1.9, bins = 9 9 9
  1 neighbor lists, perpetual/occasional/extra = 1 0 0
  (1) pair lj/cut, perpetual
      attributes: half, newton on
      pair build: half/bin/atomonly/newton
      stencil: half/bin/3d
      bin: standard
WARNING: Not all mixed pair coeffs generated from mixing. Use write_data with 'pair ij' option to store all pair coeffs. (../write_data.cpp:312)


#############################
#   M E L T   S Y S T E M   #
#############################

velocity all create 2.4 5833274 mom yes dist gaussian # Assign velocities
                                                    # Temperature 2.4, random number seed, zero linear momentum
                                                                                # Gaussian distribution

timestep 0.002   # simulation timestep
thermo 1000       # output thermodynamic data every 1000 steps bf 100

# Define a fix  in this case with index 1 applied to all
# particles in the simulation. This fix is for simulations
# in the anisotropic NPT ensemble. Note that we use the MTK
# correction.
fix 1 all npt temp 2.4 2.4 0.1 iso 5.68 5.68 0.5 mtk yes tchain 5 pchain 5 # Use NPT ensemble
                                                                         # Set temperature and pressure and damping
                                                                         # Numbers of thermostats in chain and in barostat
run 10000          # run for 10000 steps
Per MPI rank memory allocation (min/avg/max) = 3.642 | 3.644 | 3.648 Mbytes
Step Temp E_pair E_mol TotEng Press Volume 
       0          2.4   -4.8268882            0   -1.2277882   -4.1002737         4000 
    1000    2.4341589   -4.5106108            0  -0.86028533      5.98173    3635.8061 
    2000      2.39197    -4.551821            0  -0.96476295    5.4770248    3643.4349 
    3000     2.401981    -4.510709            0  -0.90863824    5.7933452     3637.284 
    4000    2.3973302   -4.6228833            0    -1.027787     5.707915    3591.8105 
    5000    2.3959811     -4.62636            0   -1.0332869    5.6542433    3590.9067 
    6000    2.3974459   -4.5254374            0  -0.93016759    5.5851095    3649.7448 
    7000    2.4052482   -4.5222375            0  -0.91526713    5.9353651    3620.4505 
    8000    2.3384823    -4.573433            0   -1.0665865    5.8006356    3605.6124 
    9000    2.4068009   -4.5801575            0  -0.97085874    5.7656496     3613.356 
   10000     2.357458   -4.5629898            0   -1.0276867    5.4073749    3638.7299 
Loop time of 2.71214 on 48 procs for 10000 steps with 4000 atoms

Performance: 637135.184 tau/day, 3687.125 timesteps/s
99.6% CPU use with 48 MPI tasks x no OpenMP threads

MPI task timing breakdown:
Section |  min time  |  avg time  |  max time  |%varavg| %total
---------------------------------------------------------------
Pair    | 1.1947     | 1.2785     | 1.4467     |   3.3 | 47.14
Neigh   | 0.21992    | 0.22502    | 0.24487    |   0.9 |  8.30
Comm    | 0.77082    | 0.92531    | 0.99632    |   4.8 | 34.12
Output  | 0.00024761 | 0.00025245 | 0.00033211 |   0.0 |  0.01
Modify  | 0.20895    | 0.26712    | 0.32846    |   7.2 |  9.85
Other   |            | 0.01591    |            |       |  0.59

Nlocal:        83.3333 ave          90 max          71 min
Histogram: 1 0 2 3 8 5 5 14 6 4
Nghost:        1752.71 ave        1782 max        1725 min
Histogram: 3 5 5 4 8 5 8 5 2 3
Neighs:        10496.1 ave       11525 max        9227 min
Histogram: 5 3 3 6 1 6 5 7 7 5

Total # of neighbors = 503813
Ave neighs/atom = 125.95325
Neighbor list builds = 907
Dangerous builds = 218

# Equilibrate just above the melting temperature to avoid step fn in T

fix 1 all npt temp 1.25 1.25 0.1 iso 5.68 5.68 0.5 mtk yes tchain 5 pchain 5
run 2000
Per MPI rank memory allocation (min/avg/max) = 3.644 | 3.646 | 3.650 Mbytes
Step Temp E_pair E_mol TotEng Press Volume 
   10000     2.357458   -4.5629898            0   -1.0276867    5.4073749    3638.7299 
   11000     1.239734   -6.6142619            0   -4.7551257    5.8948501     2786.157 
   12000    1.2283235   -6.6935945            0   -4.8515699    5.4517137    2780.7088 
Loop time of 0.65518 on 48 procs for 2000 steps with 4000 atoms

Performance: 527488.958 tau/day, 3052.598 timesteps/s
99.6% CPU use with 48 MPI tasks x no OpenMP threads

MPI task timing breakdown:
Section |  min time  |  avg time  |  max time  |%varavg| %total
---------------------------------------------------------------
Pair    | 0.30604    | 0.32498    | 0.34224    |   1.7 | 49.60
Neigh   | 0.042547   | 0.04419    | 0.046242   |   0.4 |  6.74
Comm    | 0.21327    | 0.23508    | 0.25388    |   2.3 | 35.88
Output  | 5.7431e-05 | 5.8678e-05 | 7.5376e-05 |   0.0 |  0.01
Modify  | 0.042342   | 0.045941   | 0.049322   |   1.0 |  7.01
Other   |            | 0.004933   |            |       |  0.75

Nlocal:        83.3333 ave          90 max          78 min
Histogram: 5 4 8 3 4 13 3 3 1 4
Nghost:        2101.56 ave        2132 max        2084 min
Histogram: 3 6 16 6 5 4 3 4 0 1
Neighs:        13726.3 ave       15015 max       12197 min
Histogram: 2 3 3 6 8 9 7 2 3 5

Total # of neighbors = 658864
Ave neighs/atom = 164.71600
Neighbor list builds = 144
Dangerous builds = 13

#############################
# L I N E A R  Q U E N C H  #
#############################

# Define solid atoms. This closely follows ten Wolde  Ruiz-Montero and Frenkel  Faraday Discuss  1996  104  93-110
# Compute components of the per-atom q6 vector
compute q6 all orientorder/atom degrees 1 6 components 6 nnn NULL cutoff 1.3 # compute the Q6 parameter.
                                                                             # Use all neighbours within 1.3 unit cell.

# get number of connections
compute coord_number all coord/atom orientorder q6 0.5

# An atom is solid if it has 8 or more connections (of a possible 14)
variable is_solid atom c_coord_number>=8
group solid dynamic all var is_solid    # Must be dynamic to update
dynamic group solid defined

# do clustering
compute cluster solid cluster/atom 1.3 # Create a cluster where all atoms within are solid and max 1.3 units from another member

# define chunks one chunk per cluster
compute clus_chunks solid chunk/atom c_cluster nchunk every compress yes  # Says which atoms are in which chunk

# count the size of each chunk
compute size_chunks solid property/chunk clus_chunks count


# Find the maximum entry in the vector of chunk sizes
variable max_n equal max(c_size_chunks)


# Thermo style which includes this variable
# thermo_style custom step temp pe vol v_max_n

thermo ${N}  # Print the thermo information every 100 steps
thermo 1000  

# Reset the npt fix at a lower temperature (below freezing)
fix 1  all npt temp  ${temp} ${temp}  0.1  iso  5.68  5.68  0.5  mtk yes tchain  5  pchain  5
fix 1  all npt temp  0.45 ${temp}  0.1  iso  5.68  5.68  0.5  mtk yes tchain  5  pchain  5
fix 1  all npt temp  0.45 0.45  0.1  iso  5.68  5.68  0.5  mtk yes tchain  5  pchain  5

dump dmp2 all dcd ${N} traj.dcd
dump dmp2 all dcd 1000 traj.dcd


compute msd all msd com yes
variable twopoint equal c_msd[4]/6/(step*dt+1.0e-6)
fix 9 all vector 10 c_msd[4]
variable fit equal slope(f_9)/6/(10*dt)
thermo_style custom step temp pe c_msd[4] v_twopoint v_fit v_max_n

fix 1 all npt temp 1.25 ${temp} 0.1 iso 5.68 5.68 0.5 mtk yes tchain 5 pchain 5
fix 1 all npt temp 1.25 0.45 0.1 iso 5.68 5.68 0.5 mtk yes tchain 5 pchain 5
run 5000000 # 5000000  # Run for this many steps
Neighbor list info ...
  update every 1 steps, delay 10 steps, check yes
  max neighbors/atom: 2000, page size: 100000
  master list distance cutoff = 3.8
  ghost atom cutoff = 3.8
  binsize = 1.9, bins = 8 8 8
  4 neighbor lists, perpetual/occasional/extra = 1 3 0
  (1) pair lj/cut, perpetual
      attributes: half, newton on
      pair build: half/bin/atomonly/newton
      stencil: half/bin/3d
      bin: standard
  (2) compute orientorder/atom, occasional
      attributes: full, newton on
      pair build: full/bin/atomonly
      stencil: full/bin/3d
      bin: standard
  (3) compute coord/atom, occasional
      attributes: full, newton on
      pair build: full/bin/atomonly
      stencil: full/bin/3d
      bin: standard
  (4) compute cluster/atom, occasional
      attributes: full, newton on
      pair build: full/bin/atomonly
      stencil: full/bin/3d
      bin: standard
Per MPI rank memory allocation (min/avg/max) = 9.844 | 9.850 | 9.853 Mbytes
Step Temp PotEng c_msd[4] v_twopoint v_fit v_max_n 
   12000    1.2283235   -6.6935945            0            0 8.3333333e+20            3 
   13000    1.2224716    -6.782851   0.49639699 0.0031820318  0.040339604            7 
   14000    1.2605061   -6.7719283   0.92817241 0.0055248356  0.038308019            3 
   15000    1.2796573   -6.7280995    1.3683114 0.0076017297  0.037358154            3 
   16000    1.2547292   -6.7722469    1.8495641  0.009633146  0.037469734            1 
   17000    1.2859207   -6.7592341    2.2584866  0.011071013  0.037397927            2 
   18000    1.2429766   -6.8223615    2.6750317  0.012384406  0.037068074            1 
   19000    1.2430592   -6.7998138    3.1261153  0.013711032  0.036797725            2 
   20000    1.2485985   -6.7621031    3.5135762  0.014639901  0.036434007            3 
   21000    1.2474825    -6.773488    3.9868925  0.015821002  0.036450226            2 
   22000    1.2737415   -6.7949446    4.4066829   0.01669198  0.036266169            5 
   23000    1.2477025       -6.792    4.8257273  0.017484519  0.036216591            2 
   24000    1.2444416   -6.7781906    5.2880431   0.01836126  0.036194948            2 
   25000    1.2664223   -6.7621898    5.7140624  0.019046874  0.036199508            2 
   26000    1.2263839   -6.7022048    6.1754913  0.019793241  0.036162615            2 
   27000    1.2752954   -6.7785153    6.5772066   0.02030002  0.036171082            1 
   28000     1.274923    -6.793519    6.9717388  0.020749222   0.03611709            2 
   29000    1.2266785   -6.7601451     7.336213  0.021081072  0.036019334            4 
   30000     1.269829   -6.7334971    7.7777994  0.021604998  0.035905758            4 
   31000    1.2066511   -6.8161694    8.1210113  0.021830675  0.035758287            2 
   32000    1.2472199   -6.7574206    8.5601841  0.022292146  0.035600932            4 
   33000    1.2269608   -6.7243439      8.96693  0.022643762  0.035476447            1 
   34000    1.2336753   -6.8162169    9.3397377  0.022891514   0.03536333            2 
   35000    1.2400483   -6.8201155      9.69933  0.023093643  0.035197256            2 
   36000    1.2398529   -6.7958697    10.015489  0.023184003  0.035024027            1 
   37000    1.2520337   -6.8035927    10.535699   0.02372905  0.034865514            4 
   38000    1.2465676   -6.7485198    10.959215  0.024033365   0.03477492            2 
   39000    1.2446729   -6.7617651    11.432404  0.024428213  0.034745308            1 
   40000    1.2238216   -6.7223781    11.930018  0.024854205  0.034753903            4 
   41000    1.2480958   -6.8021486    12.223782  0.024845086  0.034758741            4 
   42000    1.2616368   -6.7535752    12.719203  0.025236513  0.034749216            1 
   43000    1.2319747   -6.7805694    13.093915  0.025375804  0.034751813            2 
   44000    1.2779749   -6.7422936    13.503544  0.025574894   0.03474318            2 
   45000    1.2148838   -6.7845807    13.948453  0.025830469  0.034735096            2 
   46000    1.2537407    -6.763599    14.376785    0.0260449  0.034740136            1 
   47000    1.2495239   -6.8206994    14.794114  0.026230698   0.03473819            2 
   48000    1.2544105   -6.7736603    15.312905  0.026584903  0.034754638            2 
   49000    1.2529378   -6.7981494    15.591814   0.02651669  0.034769951            4 
   50000    1.2660619   -6.7506665    15.937906  0.026563177  0.034750977            1 
   51000    1.2317972   -6.7760281    16.366152  0.026742078  0.034704419            2 
   52000    1.2480958    -6.770424    16.747838  0.026839483  0.034673261            5 
   53000    1.2407678   -6.8166557    17.136875  0.026944772  0.034661336            2 
   54000    1.2380227   -6.7700208      17.6249  0.027198919  0.034644798            2 
   55000    1.2353968   -6.7925144    18.024525  0.027309886  0.034641425            4 
   56000    1.2207477   -6.8055261     18.38998  0.027366042  0.034629945            1 
   57000    1.2154649   -6.7995863    18.739892  0.027397503  0.034605154            1 
   58000    1.2442567   -6.7565374    19.222472  0.027618494   0.03457841            4 
   59000    1.2310878   -6.7915003    19.561571  0.027629337  0.034553588            2 
   60000    1.2454991   -6.8322503    19.804984  0.027506922  0.034504699            4 
   61000    1.2144492   -6.7602037    20.364085  0.027819788  0.034462158            1 
   62000    1.2605942   -6.8031743     20.75767  0.027900094     0.034431            1 
   63000    1.2402489   -6.8023248    21.196343   0.02803749  0.034412101            1 
   64000    1.2578012    -6.813372    21.648387  0.028188004  0.034401772            2 
   65000    1.2871986   -6.7933986    22.028411  0.028241552  0.034383962            2 
   66000    1.2149312   -6.7805683    22.427559  0.028317625  0.034370218            1 
   67000    1.2726765   -6.7749623    22.904614  0.028488326  0.034352944            3 
   68000    1.2262477   -6.7462126    23.310288   0.02856653  0.034346998            2 
   69000    1.2545345   -6.7591949    23.751849  0.028685808  0.034342833            2 
   70000    1.2473017   -6.7528319    24.164646  0.028767436  0.034338983            3 
   71000    1.2138077   -6.7665687    24.540221  0.028803076  0.034318012            3 
   72000    1.2693601   -6.7973163     24.78773  0.028689502  0.034302782            2 
   73000    1.2543454   -6.7798508    25.310683  0.028893473  0.034277899            2 
   74000    1.2177756   -6.7870791    25.499557  0.028715717  0.034262161            7 
   75000    1.2086488   -6.7036046    25.913702  0.028793002  0.034232517            5 
   76000    1.2230646   -6.7465907    26.375537  0.028920545  0.034197517            1 
   77000      1.25807   -6.7758531    26.633489  0.028824122  0.034164059            1 
   78000    1.2385816    -6.797762    27.293432  0.029159649  0.034142999            2 
   79000    1.2695748   -6.8137228    27.562288  0.029074143  0.034130283            4 
   80000    1.2456717   -6.7951023     28.02979  0.029197698  0.034123669            2 
   81000     1.220499   -6.7775118     28.59072  0.029414321   0.03411825            5 
   82000    1.2339104   -6.7907083    28.787298  0.029255384  0.034104286            3 
   83000    1.2600377   -6.7572915    29.193973  0.029311217  0.034084118            2 
   84000    1.2362643   -6.7864588    29.689965   0.02945433  0.034066761            3 
   85000    1.2483114   -6.7590957    29.985023  0.029397081  0.034047996            4 
   86000    1.2364365   -6.8245967    30.349454  0.029408386  0.034022705            3 
   87000    1.2496261   -6.7875484    30.936703  0.029632858  0.034013046            2 
   88000    1.2172039   -6.8152702    31.303828  0.029643776  0.034009014            4 
   89000    1.2560362   -6.7824358    31.736052  0.029715405  0.034003343            5 
   90000    1.2260982   -6.7898236    32.152283  0.029770632   0.03400105            2 
   91000    1.2509202   -6.7698499    32.438682  0.029705753  0.033994145            2 
   92000    1.2175954    -6.846057    32.795231  0.029705825  0.033992164            3 
   93000    1.2494677   -6.8191572    33.352968  0.029886172  0.033987182            5 
   94000    1.2008646   -6.7494369    33.804795  0.029968789  0.033983798            2 
   95000    1.2471307   -6.7195586    34.087966  0.029901725  0.033977164            2 
   96000    1.2744135   -6.7464625    34.645608  0.030074312  0.033970394            2 
   97000    1.2168672   -6.8120366    34.894703  0.029978267   0.03397106            5 
   98000    1.2572643   -6.8038891    35.418987  0.030118186  0.033968921            1 
   99000    1.2202489   -6.8168078    35.949377  0.030260418  0.033968979            2 
  100000    1.2277252   -6.7908675    36.359933  0.030299944  0.033978666            3 
  101000    1.2422214   -6.7767014    37.087174  0.030599979  0.033999116            2 
  102000    1.2300981   -6.7770193    37.411118  0.030564639  0.034022685            2 
  103000    1.2458124   -6.7902952     37.75389  0.030545219  0.034041212            3 
  104000    1.2319847   -6.8235165    38.331288  0.030714173  0.034061699            3 
  105000    1.2361859   -6.7849496    38.818511  0.030808342  0.034084245            1 
  106000    1.2093803    -6.782945    39.157977  0.030784573  0.034108571            4 
  107000    1.2513119   -6.7595031    39.870645  0.031051904  0.034138155            2 
  108000    1.2359345   -6.7996076    40.247535  0.031055197   0.03417469            2 
  109000    1.2293713   -6.7992434     40.48324  0.030950489  0.034197752            3 
  110000    1.2124117   -6.7799571     40.89246  0.030979136  0.034218999            2 
  111000     1.240745   -6.7769362    41.237367  0.030958984  0.034230912            3 
  112000    1.2351159   -6.7804652     41.40479  0.030807135  0.034239501            2 
  113000    1.2053161   -6.7966405    41.842342  0.030857184  0.034242886            2 
  114000     1.228471   -6.7945404    42.433551  0.031018678  0.034249169            3 
  115000    1.2258944   -6.8138018    42.727415  0.030961894  0.034254147            2 
  116000    1.2225635   -6.7994423     42.66683  0.030651458  0.034249854            2 
  117000    1.2381924   -6.8414368    43.363814  0.030885907  0.034241501            2 
  118000    1.2054733   -6.8022325    43.742643  0.030891697  0.034234931            2 
  119000    1.2597007   -6.8029816    44.201575  0.030953484  0.034230124            2 
  120000    1.2414893   -6.8038386    44.446837  0.030865859  0.034224138            1 
  121000    1.2147017   -6.8019271    44.522783  0.030663074  0.034214416            4 
  122000    1.2291507   -6.8072357    44.834466  0.030624635  0.034197088            1 
  123000    1.2301393   -6.7869317     45.45666  0.030797195  0.034180027            2 
  124000    1.2214207    -6.805536     45.51558  0.030588427  0.034158893            5 
  125000    1.2295464   -6.8046421    46.191849  0.030794566  0.034142096            4 
  126000    1.2556661   -6.8543176    46.569638  0.030800025  0.034125928            2 
  127000     1.266979   -6.8113561    46.886108  0.030765163  0.034110696            2 
  128000    1.2137017    -6.815771     47.43604  0.030882839  0.034096156            3 
  129000    1.2419713   -6.7751661    47.895756  0.030940411  0.034083322            2 
  130000    1.2233462   -6.7875208    48.454656  0.031060677  0.034076697            1 
  131000    1.2202113   -6.8166451    48.874863  0.031090879   0.03407372            4 
  132000    1.2379186   -6.8180687    49.259916  0.031098432  0.034068098            1 
  133000    1.1979739   -6.8255171    49.882081  0.031254436  0.034066352            2 
  134000    1.2617927   -6.8256515    50.049536  0.031125333   0.03406533            3 
  135000    1.2229117   -6.8123015     50.40839   0.03111629  0.034059106            3 
  136000    1.2191592   -6.8477377    50.495057  0.030940599  0.034050225            3 
  137000    1.2119549   -6.8356463    51.082725  0.031072217  0.034039358            2 
  138000    1.2302034   -6.8065213    51.580305  0.031147527  0.034028616            1 
  139000    1.2084915   -6.7914877    51.942062  0.031140325  0.034020653            4 
  140000    1.2358006   -6.8539854    52.322151  0.031144137  0.034013555            1 
  141000     1.200393   -6.7673788    52.846373  0.031233081  0.034005231            2 
  142000    1.2331326   -6.8211876    53.255476  0.031253213  0.033998435            2 
  143000    1.2334261   -6.8157892    53.607784  0.031239967  0.033990338            3 
  144000    1.2602592   -6.8726777     53.93122  0.031210197  0.033983824            2 
  145000    1.2356201   -6.8022337    54.603745  0.031381462  0.033981388            4 
  146000    1.2440665   -6.8156186     54.85587  0.031310428   0.03397931            1 
  147000    1.2384866    -6.837762    55.268207  0.031331183  0.033977304            1 
  148000    1.2348234   -6.7632948    55.993439  0.031527837   0.03397655            1 
  149000    1.2086683    -6.817494    56.199262  0.031431354  0.033976733            2 
  150000    1.2180225   -6.8070851     56.69274  0.031495967  0.033974921            1 
  151000    1.2238016   -6.8064021    56.923496  0.031414733   0.03397607            2 
  152000    1.2366397   -6.8175281    57.520044  0.031535112  0.033977834            2 
  153000    1.2292695   -6.8091879    58.190071  0.031693938  0.033983367            4 
  154000      1.24185   -6.8606885    58.296487  0.031545718  0.033988338            5 
  155000    1.2222355   -6.7915047    59.072428   0.03175937  0.033993564            2 
  156000    1.2374823    -6.782501    59.389129  0.031724962  0.033997759            2 
  157000     1.228597   -6.8056806    59.688477  0.031681782  0.034002036            2 
  158000     1.213416   -6.8063684    60.197638  0.031749809  0.034005535            2 
  159000    1.2278986   -6.7776885    61.032565  0.031987718  0.034015996            3 
  160000    1.2392049   -6.8071423    61.068636  0.031806581  0.034024543            2 
  161000    1.2234236    -6.825569    61.699461  0.031935539  0.034030713            2 
  162000    1.1953847   -6.8207742    62.208013  0.032000007  0.034044242            1 
  163000    1.2464876   -6.9104548     62.23651  0.031818256  0.034057276            3 
  164000    1.2312045   -6.8041723    62.916292  0.031969661  0.034069713            2 
  165000    1.2246893   -6.8273697    63.356777  0.031998372  0.034081996            2 
  166000    1.1873861   -6.8043594    63.915155  0.032085921   0.03409333            4 
  167000     1.236768    -6.839403    64.174721  0.032023314  0.034106088            6 
  168000    1.2290211   -6.8074575    64.820484  0.032153018  0.034116547            2 
  169000    1.2216056   -6.7953408    65.156954  0.032128675  0.034127845            3 
  170000    1.2221269    -6.773214    65.686489  0.032199259  0.034140439            3 
  171000    1.2223926   -6.7929203    65.761791  0.032047656  0.034148421            1 
  172000    1.2394787   -6.8914398    65.887952  0.031922457  0.034155532            3 
  173000    1.2628603   -6.7910017    66.391457   0.03198047  0.034160071            3 
  174000    1.2378141    -6.794021    66.963793  0.032070782  0.034166675            2 
  175000    1.2290567   -6.7670466    67.634011  0.032206672  0.034172553            2 
  176000    1.2184025   -6.8567787    67.815518   0.03210962  0.034178588            3 
  177000    1.2231398    -6.812042    68.265156  0.032139904  0.034183434            2 
  178000    1.2302728   -6.8404003    68.477615  0.032058808  0.034185972            1 
  179000    1.2505221   -6.8501996    68.709103  0.031987478  0.034186374            2 
  180000    1.2261778   -6.8533601    68.909804  0.031902687  0.034183198            3 
  181000    1.2489833   -6.8959771    69.234893  0.031876102   0.03417693            3 
  182000    1.2301869   -6.8631723    69.567377  0.031853194  0.034170009            4 
  183000    1.2054067   -6.8534568    70.194159  0.031964553  0.034165546            1 
  184000    1.2239661   -6.8614084     70.41591  0.031891264  0.034159279            3 
  185000    1.1929298   -6.8386224    71.057735  0.032007989  0.034155537            2 
  186000    1.2230569   -6.8289138     71.25626  0.031924848   0.03415363            1 
  187000    1.2585831   -6.8089086    71.607443  0.031910625  0.034149922            3 
  188000    1.2509578   -6.8965429    71.958766  0.031896616  0.034147412            1 
  189000    1.2156542   -6.8372505     72.88523  0.032136345  0.034145307            3 
  190000    1.2318677   -6.8115674    72.915697  0.031980569  0.034145029            3 
  191000    1.2189847   -6.8409611    73.317335  0.031988366  0.034139902            4 
  192000    1.2451164   -6.8445799    73.544666  0.031920428  0.034132245            2 
  193000    1.2162932   -6.7960427    73.951619  0.031930751  0.034123388            3 
  194000     1.254704   -6.8329661    74.240448  0.031890227  0.034115886            1 
  195000     1.219451   -6.8536958    74.564029   0.03186497  0.034107466            6 
  196000    1.2157729   -6.7909768    75.023315  0.031897668  0.034096975            4 
  197000    1.1988089   -6.8525338    75.409182  0.031898977  0.034087552            4 
  198000    1.2126212   -6.8558728    75.672318  0.031848618  0.034079328            1 
  199000    1.2143209   -6.8271359    76.409405  0.031997238  0.034071935            2 
  200000    1.2124543   -6.8126897    76.700408  0.031958503  0.034067142            4 
  201000    1.2563995   -6.8243376     77.41231  0.032094656  0.034064172            1 
  202000     1.240073   -6.8043977     78.03357  0.032192067  0.034061771            2 
  203000    1.2377774   -6.8227584    78.101427  0.032061341  0.034058438            2 
  204000    1.2399135   -6.8579838    78.484059  0.032060482  0.034052853            2 
  205000    1.2376258   -6.8060631    78.657298  0.031974511  0.034045502            4 
  206000    1.2177854   -6.8529409    78.829417  0.031888923  0.034036476            3 
  207000    1.1908519   -6.8387958    79.451334  0.031985239  0.034026606            3 
  208000    1.1879639   -6.8314149    79.368484  0.031798271  0.034014392            3 
  209000    1.2230751   -6.8372733    79.734112  0.031791911  0.034000428            6 
  210000    1.2326003   -6.8626095    80.143313  0.031802902   0.03398736            2 
  211000    1.2246422   -6.8764948    80.101984  0.031635855    0.0339721            4 
  212000     1.221443   -6.7895836    80.964267  0.031825577   0.03395792            2 
  213000    1.2072765   -6.8317078    81.112154  0.031734019  0.033941981            1 
  214000    1.2337402   -6.8665683    81.504324  0.031738444  0.033925766            3 
  215000    1.2112339   -6.8606945    81.951828  0.031764274  0.033912525            3 
  216000    1.1971403   -6.8093693    82.371848  0.031779262  0.033898856            3 
  217000    1.2122035    -6.877252    82.581374  0.031713277  0.033885128            2 
  218000      1.23179   -6.8331218    83.103284   0.03176731  0.033869976            3 
  219000     1.208122   -6.8457273    83.386531  0.031730034  0.033855597            2 
  220000      1.19487   -6.8318525    84.009041  0.031821606  0.033842634            2 
  221000    1.1986977   -6.8588439    84.395626  0.031823388  0.033829029            2 
  222000    1.2218198   -6.8602861    84.249236  0.031625088  0.033815458            3 
  223000     1.217121   -6.8394074    85.215682  0.031844425  0.033802524            2 
  224000    1.2539898   -6.8651035    85.332258  0.031745632  0.033790452            2 
  225000    1.2359246   -6.8799649    85.518481  0.031673511  0.033777454            3 
  226000    1.2157996   -6.8642777    86.089696  0.031743988  0.033765253            5 
  227000    1.1998511   -6.8573794    86.164989  0.031631787  0.033750501            4 
  228000    1.1890569   -6.7807452    87.094602  0.031832822  0.033738818            1 
  229000    1.2111989   -6.8640683    86.891248  0.031619814  0.033724915            2 
  230000    1.2302245   -6.8255481    87.431118  0.031677941  0.033709913            4 
  231000    1.1920602   -6.8731214      87.6189   0.03160855  0.033694981            4 
  232000    1.2291203   -6.9170229    87.954724  0.031592932  0.033679954            1 
  233000    1.1960202   -6.8674947    88.037268  0.031486863   0.03366254            3 
  234000    1.2285064   -6.8550743    88.576797  0.031544443  0.033643395            3 
  235000    1.2344117   -6.8765228     88.71812  0.031460326  0.033624241            3 
  236000    1.2327514   -6.8791047    88.953653  0.031410188  0.033604364            3 
  237000    1.2060554   -6.8234322    89.597678  0.031504106  0.033585236            5 
  238000    1.2052939   -6.8823086    89.607722  0.031375253  0.033564982            2 
  239000    1.2201412   -6.8402955    90.150315  0.031433164  0.033546873            2 
  240000    1.2298371   -6.7853608    90.896614  0.031561324  0.033527776            4 
  241000    1.2173855   -6.8548317    90.510934  0.031297003  0.033509187            4 
  242000    1.2140837   -6.8150837    91.093034  0.031368125  0.033491458            2 
  243000    1.1986746   -6.8689713    91.626887  0.031422115  0.033471451            2 
  244000      1.20583   -6.8035579    92.379734  0.031550456  0.033452731            3 
  245000    1.2186833   -6.8564574    92.951085  0.031616015   0.03343617            2 
  246000     1.202296    -6.851494    92.851392  0.031453724  0.033418973            2 
  247000    1.2418942   -6.8696187    93.118672  0.031416556  0.033401326            3 
  248000    1.2120379   -6.8927001    93.212321  0.031321344  0.033384434            3 
  249000    1.2134063   -6.8604369    94.172392  0.031516865  0.033366092            2 
  250000    1.2145715   -6.8755304    93.823949   0.03127465  0.033347574            2 
  251000    1.2068866   -6.8708422    94.473319  0.031365644  0.033329659            7 
  252000    1.2221353   -6.8575915    95.056571  0.031434051  0.033313226            3 
  253000    1.2166225   -6.8650861    95.521006  0.031462782  0.033296164            2 
  254000    1.2313141   -6.8779844    95.579414  0.031358076  0.033279311            1 
  255000    1.2232781   -6.8486531    95.901332  0.031340305  0.033263435            1 
  256000    1.2063348   -6.8287585    96.399812  0.031380147  0.033244653            3 
  257000    1.2215332   -6.8794328    96.586443  0.031318561  0.033229075            2 
  258000    1.2328964    -6.885038    97.214104  0.031399904  0.033214382            2 
  259000    1.2200025   -6.8778627    97.731182  0.031445039  0.033200185            3 
  260000    1.1897391   -6.8931612    98.182038  0.031468602  0.033186318            3 
  261000    1.2378278   -6.8639131     98.51338  0.031453825  0.033172641            2 
  262000    1.1859754   -6.8988446     98.54092  0.031342532  0.033158984            3 
  263000    1.2013673    -6.816717    99.467177  0.031516849  0.033145501            2 
  264000    1.2115674   -6.8821202    99.378715  0.031369544  0.033132789            2 
  265000    1.1995372   -6.8996915    99.643051  0.031334293  0.033117875            5 
  266000    1.2017107   -6.8101375    100.48839  0.031481324  0.033105022            2 
  267000    1.2158261    -6.849702    100.96056  0.031510787  0.033092285            2 
  268000    1.1946114   -6.8570563    101.10118  0.031436933  0.033078886            3 
  269000    1.1662142   -6.8960288    101.08635  0.031315474   0.03306289            2 
  270000    1.2033492   -6.8102758    101.47524  0.031319518  0.033047242            2 
  271000     1.195791   -6.9004059    101.87501  0.031326878  0.033032133            3 
  272000    1.2304941   -6.8903538    102.14048  0.031293041  0.033016027            1 
  273000    1.2079535   -6.8642056    103.08439  0.031466543  0.033001684            2 
  274000    1.2077097   -6.8497828     103.2235  0.031394008  0.032989886            2 
  275000    1.2198935   -6.8420039    103.76544  0.031444074  0.032976068            2 
  276000    1.2363698   -6.8812607     104.0082  0.031403443   0.03296317            5 
  277000    1.2092308   -6.8233541    104.27364  0.031369929  0.032950652            3 
  278000    1.1935213   -6.8715261    104.71888   0.03139055  0.032937712            3 
  279000    1.2088459   -6.8678597     105.1387  0.031403435  0.032925976            2 
  280000     1.216721   -6.8396265    105.63565  0.031439182   0.03291386            3 
  281000    1.2175465   -6.8825849    105.47735  0.031280354  0.032901309            3 
  282000    1.2114999   -6.9035735     105.9206  0.031300414  0.032888716            4 
  283000    1.2151908   -6.8626241    106.14509  0.031255916  0.032876657            2 
  284000    1.2115044   -6.8447683    106.96447  0.031386288  0.032863622            6 
  285000    1.1971521   -6.8905797    106.97009  0.031277804  0.032851776            1 
  286000    1.1922182   -6.8654254     107.7493  0.031395483  0.032840123            2 
  287000    1.1996275   -6.8644414    108.20775  0.031419208  0.032827355            1 
  288000    1.2279012    -6.858926    108.48678  0.031390851  0.032816175            2 
  289000    1.2165627   -6.8666782    109.08391  0.031454416  0.032803952            5 
  290000    1.2237298   -6.8639457    108.86633  0.031283427  0.032792586            4 
  291000     1.199216   -6.8716041    109.63923  0.031397258  0.032780957            3 
  292000    1.1951025   -6.8715167    109.86552  0.031354314   0.03276983            1 
  293000    1.2243633   -6.8449378    110.28256  0.031365915  0.032757507            1 
  294000    1.1860112   -6.9106847    110.46666  0.031311413  0.032747494            2 
  295000    1.1979079    -6.923318    111.13608  0.031394374  0.032737439            2 
  296000    1.1964042   -6.9192041    111.36722  0.031353384  0.032727076            4 
  297000    1.2002571   -6.8680149    112.11684  0.031458147  0.032715107            4 
  298000      1.19529   -6.8736625    112.01047  0.031322839  0.032704385            5 
  299000     1.228936   -6.9343291    111.84617  0.031172287  0.032693344            3 
  300000    1.2367225   -6.9171768    112.33281  0.031203559   0.03268195            3 
  301000    1.1865646   -6.9050487    112.60191  0.031174392  0.032670364            3 
  302000    1.1986271    -6.881294    113.67616  0.031367594  0.032658928            2 
  303000    1.1988227    -6.867625    113.80596  0.031299768  0.032648427            3 
  304000     1.222593   -6.8397479    114.49159  0.031384757  0.032638576            2 
  305000    1.2101952   -6.8913926    114.75582   0.03135405  0.032628587            3 
  306000    1.1874994   -6.8585819    114.86046  0.031280082  0.032617393            4 
  307000     1.242342    -6.863733    115.33805  0.031307832   0.03260796            2 
  308000    1.2012651   -6.8672513    116.38091  0.031488342  0.032599124            2 
  309000    1.2082965   -6.8784491    116.40211  0.031392154   0.03259013            1 
  310000    1.2131598   -6.9130656    116.41659  0.031294782  0.032581784            2 
  311000    1.1996524   -6.8403074    118.03484   0.03162777  0.032573984            2 
  312000     1.213714   -6.8877878    117.42328  0.031363056  0.032566577            1 
  313000    1.2063307    -6.856866    118.02325  0.031422591  0.032558325            2 
  314000    1.2103453    -6.873364     118.1741  0.031362553  0.032550617            4 
  315000    1.2308282    -6.880187    118.66688  0.031393354  0.032542244            3 
  316000    1.1963256   -6.8714883    118.84603  0.031341254  0.032533675            2 
  317000    1.2041326   -6.8404632    119.61084   0.03144344  0.032525184            4 
  318000    1.2014709   -6.8688879    119.74325  0.031379259  0.032515996            4 
  319000    1.2207771   -6.9187383    119.58584   0.03123977  0.032506427            3 
  320000    1.2042857   -6.8654799    120.35797  0.031343223  0.032496515            3 
  321000    1.2127648   -6.8357637    120.98415   0.03140814  0.032486339            2 
  322000      1.21301   -6.8659499    120.62991  0.031218922  0.032476392            2 
  323000    1.2084374   -6.8962099    120.99668  0.031216893  0.032465913            6 
  324000    1.2021398   -6.8691919    121.52911  0.031257487  0.032455874            4 
  325000    1.1975926   -6.8698339    122.17086  0.031325861   0.03244617            3 
  326000    1.1943611   -6.9149981    122.42074  0.031293646  0.032436899            3 
  327000    1.1848544   -6.8894984    122.71317   0.03127247    0.0324278            4 
  328000    1.2024256   -6.9148164    122.76807  0.031191074  0.032419376            3 
  329000    1.2066339   -6.8734635    123.73261  0.031340581  0.032411131            5 
  330000    1.2159657   -6.8988234    123.60952  0.031214526  0.032402715            3 
  331000    1.1829358   -6.9379641    124.11261  0.031246881  0.032393308            2 
  332000    1.1553478   -6.8634682    124.76492  0.031316496  0.032385124            1 
  333000    1.2038309   -6.8905071    125.19511  0.031330109  0.032377795            3 
  334000     1.208545   -6.9218296    125.48891  0.031309609   0.03237146            3 
  335000    1.1781522   -6.8931737    125.77958  0.031288453  0.032363469            2 
  336000    1.2024695   -6.9216499    125.80525  0.031201699  0.032354567            5 
  337000    1.2022806   -6.9177613    125.86766  0.031124546  0.032344666            7 
  338000     1.196613   -6.8863792    127.11108  0.031339024  0.032336133            3 
  339000    1.1930392   -6.8292243    128.58816  0.031609676  0.032331558            4 
  340000    1.1871013   -6.8772933    128.17451   0.03141532  0.032326935            3 
  341000    1.1868088   -6.8535662    128.45992  0.031392941   0.03232164            1 
  342000    1.1696325   -6.8941401     128.9072  0.031410137   0.03231627            3 
  343000    1.1942224   -6.8522057    129.59201  0.031484938  0.032311031            2 
  344000    1.1899806   -6.8658739    129.34495  0.031333564  0.032305744            3 
  345000    1.1926953   -6.8677424    129.81147  0.031355428  0.032300173            1 
  346000    1.2009559   -6.8418982    130.38243   0.03140232  0.032294439            2 
  347000    1.2175661   -6.9042356    130.96991  0.031452907  0.032289342            1 
  348000    1.2025773    -6.894223    131.81692  0.031565355  0.032285397            3 
  349000    1.1722722   -6.9287721    131.63923  0.031432481  0.032280985            2 
  350000    1.2224451   -6.8621347    133.01203  0.031669531  0.032278333            2 
  351000    1.1983943   -6.8816596    133.22876   0.03163076  0.032277267            2 
  352000    1.1918875   -6.8869736    133.35696  0.031571249  0.032275584            2 
  353000    1.1817263    -6.884606    134.00934  0.031635821  0.032273161            4 
  354000    1.1829333   -6.9264029    133.56685   0.03144229  0.032270248            3 
  355000    1.1895328   -6.9124538    133.81963  0.031413058  0.032266608            3 
  356000    1.2081875   -6.9170796    134.36064  0.031451461  0.032263071            2 
  357000    1.1818677   -6.9166192     134.8841  0.031485552  0.032260132            1 
  358000    1.2094452   -6.8986054    135.78862  0.031608153   0.03225769            2 
  359000    1.1930544   -6.9486773    136.09879  0.031592106  0.032255202            3 
  360000    1.1975549   -6.8746523    135.96955  0.031474433  0.032252119            2 
  361000    1.2203705   -6.8925219    136.38081  0.031482182  0.032248182            4 
  362000    1.2066511   -6.9082768    136.28532  0.031373232  0.032243616            4 
  363000    1.1954642   -6.9329468    136.09324  0.031242708  0.032237643            4 
  364000    1.1916537   -6.9004192     137.1581  0.031400665  0.032230965            5 
  365000    1.1944898   -6.9160153    137.71547  0.031441888  0.032225193            2 
  366000    1.1938584   -6.8907603    137.92316   0.03140327  0.032219953            3 
  367000    1.1850997   -6.9075241    138.48514  0.031445308   0.03221567            2 
  368000     1.153855   -6.9192362    138.48294  0.031359361  0.032211839            1 
  369000    1.1889886   -6.9036485    139.00712  0.031392755    0.0322065            2 
  370000    1.2010372   -6.9339239    139.05699  0.031319142  0.032201735            2 
  371000    1.2003187   -6.8971902    139.63228  0.031363945  0.032196765            5 
  372000    1.1835696   -6.9201176    140.08731  0.031381566  0.032191587            2 
  373000    1.1884616    -6.886857    140.39372  0.031365889  0.032185815            3 
  374000    1.1825188   -6.9455269    140.03344  0.031201747  0.032179676            2 
  375000    1.1962992   -6.9404434    140.54682  0.031232626  0.032172089            3 
  376000    1.1908979   -6.9589188    141.13099  0.031279031  0.032164763            2 
  377000    1.1851421   -6.9073602    142.17374  0.031426557  0.032159411            3 
  378000    1.1943931   -6.8891727    142.53963   0.03142408  0.032154987            3 
  379000    1.1667816   -6.9400777    142.24845  0.031277144  0.032149407            3 
  380000    1.1762217   -6.8942785    142.41862  0.031232153  0.032143905            3 
  381000    1.2014024   -6.8940055    142.60952  0.031191933  0.032137412            4 
  382000    1.1922379    -6.915982    143.46095   0.03129602  0.032130285            2 
  383000    1.1778475   -6.9397128    143.28688  0.031176432  0.032122911            3 
  384000    1.1776268   -6.9271812    143.73824  0.031193194  0.032116113            2 
  385000    1.1983427   -6.9132181    144.44779  0.031265756  0.032109623            1 
  386000    1.2028155   -6.8777481     144.9528  0.031293782  0.032104639            3 
  387000    1.2124948   -6.9296447    144.89852  0.031201233  0.032098809            5 
  388000    1.1588199   -6.9069796    145.60092  0.031271674  0.032092163            2 
  389000    1.1851163   -6.9028435    145.44686  0.031158282  0.032084284            2 
  390000    1.1817691   -6.9088141    145.66546  0.031125097  0.032077314            3 
  391000    1.1754121   -6.9236257     146.6118  0.031247187  0.032070431            3 
  392000    1.1991816   -6.9449751    146.05673  0.031049475  0.032063141            4 
  393000    1.1901279   -6.8909466    146.89954  0.031149181  0.032055446            4 
  394000    1.1760558   -6.8733218    147.33715   0.03116268  0.032047858            5 
  395000    1.1782125   -6.8896033    147.80726  0.031182966  0.032040501            3 
  396000     1.187624   -6.8990796     148.0233  0.031149684  0.032032757            7 
  397000    1.1863851   -6.9309572    147.92676  0.031050958  0.032024365            2 
  398000    1.1756844   -6.9298227    148.18966  0.031027986   0.03201562            2 
  399000    1.1976918   -6.9237638    148.62226  0.031040573   0.03200709            2 
  400000    1.1617983   -6.9565662    148.89366  0.031019512  0.031998286            4 
  401000    1.2198823   -6.8975301    149.60569  0.031090127  0.031990319            4 
  402000     1.169661   -6.9670829     149.4983  0.030990526  0.031982797            2 
  403000    1.2186083   -6.9221757    150.04568  0.031026815  0.031974906            3 
  404000    1.1763591   -6.9151304    150.47429  0.031038426  0.031968259            4 
  405000    1.1986112   -6.9090024    150.83622  0.031036259  0.031961479            1 
  406000    1.2072513   -6.8968763    151.75755  0.031148921  0.031954434            4 
  407000    1.1935011   -6.9373143    151.88894  0.031099292   0.03194757            3 
  408000    1.2071219   -6.9357556    152.22256  0.031091209  0.031941067            3 
  409000    1.1622313   -6.9255716    152.19495  0.031009567  0.031933172            4 
  410000    1.1681881   -6.9511843    153.19034  0.031136247  0.031925829            1 
  411000    1.2223713   -6.8723256     153.6118  0.031145945  0.031919493            3 
  412000    1.1888238   -6.9288688     153.2317  0.030993466  0.031912424            2 
  413000    1.1514321   -6.9609418    153.76874  0.031026784  0.031904635            2 
  414000    1.1716457   -6.9229213    153.88258  0.030974754  0.031897245            1 
  415000    1.1836786   -6.9386235    154.51728  0.031027566  0.031890186            1 
  416000    1.1876833   -6.9178287    154.81689  0.031012999  0.031883391            2 
  417000    1.1865748   -6.9419116    154.76497   0.03092825  0.031875711            2 
  418000    1.1661074   -6.9088294     155.8116  0.031062919  0.031867804            3 
  419000     1.177338   -6.9423887    156.03324  0.031032865    0.0318613            2 
  420000    1.2020956   -6.9045142    156.94053  0.031138995  0.031855032            2 
  421000    1.1870599   -6.9119393    157.34659  0.031145406  0.031849234            1 
  422000    1.1832782   -6.9166186    157.45916  0.031093831  0.031842416            2 
  423000    1.1614699   -6.9169756    157.94515  0.031116066   0.03183661            4 
  424000    1.1748867   -6.8742805    158.29034  0.031110522  0.031830241            1 
  425000    1.1628683    -6.880044    158.17674  0.031015047  0.031823117            2 
  426000    1.1799546   -6.8899641    158.15207  0.030937416  0.031815366            5 
  427000    1.1996632   -6.8747801    158.74282  0.030980254  0.031807077            2 
  428000    1.1785091   -6.8868025    159.36109   0.03102825  0.031798563            2 
  429000    1.1691199   -6.9230412    159.08556    0.0309024  0.031790687            3 
  430000    1.2117368   -6.9678878    158.90335  0.030795222  0.031781608            3 
  431000    1.1851688   -6.9099842    159.72247  0.030882148   0.03177282            3 
  432000    1.1801318   -6.9652008    159.49793  0.030767347  0.031764061            5 
  433000    1.1768604   -6.9164135    160.70108  0.030927844  0.031755587            1 
  434000    1.1685168    -6.950803    160.60296  0.030837743  0.031747439            3 
  435000    1.1849976   -6.9767604    160.61561  0.030769273  0.031738168            2 
  436000    1.1780926   -6.9504638     161.7809  0.030921425  0.031728941            2 
  437000    1.1975518    -6.890206    162.43811  0.030975993  0.031720589            1 
  438000    1.1824364   -6.9739434    162.39194  0.030896488   0.03171231            4 
  439000    1.1707257   -6.9610484    162.73635  0.030891486  0.031704679            2 
  440000    1.1881987   -6.9108148    163.14494  0.030898664  0.031695717            1 
  441000    1.1945773   -6.9256406    163.31743  0.030861193   0.03168769            2 
  442000    1.1744156   -6.9140755    163.15033  0.030759866  0.031678553            2 
  443000    1.1667801   -6.9174797     163.5798  0.030771219  0.031669275            3 
  444000    1.1617588   -6.9145466    163.42159  0.030672221  0.031660043            3 
  445000    1.1745849   -6.9135775     164.3561  0.030778296  0.031650388            2 
  446000    1.1648313   -6.9634383     164.5375   0.03074318  0.031641488            3 
  447000    1.1915873   -6.9824077     164.1448  0.030601193  0.031631996            2 
  448000    1.1938479   -6.9413883    165.72441  0.030826714   0.03162373            1 
  449000    1.1708463    -6.938741     165.5095  0.030718171  0.031614724            3 
  450000    1.1902898   -6.8826895    166.30649  0.030797498  0.031605862            1 
  451000    1.1778182   -6.9501533    165.89646  0.030653449  0.031596634            1 
  452000    1.2069856   -6.9573674    165.82364  0.030572204  0.031586951            4 
  453000    1.1766829   -6.9444934    166.89967  0.030702663  0.031576966            3 
  454000    1.1925476   -6.9312258    166.68014  0.030594738  0.031567586            1 
  455000    1.1752658   -6.8869135    167.45691  0.030669764  0.031558343            4 
  456000    1.1862498   -7.0047787    167.20399  0.030556285  0.031548588            2 
  457000    1.1698871   -6.9557595    167.88112  0.030612896  0.031538204            2 
  458000    1.1698236   -6.9285253    168.61435  0.030679467  0.031529027            2 
  459000    1.2016536   -6.9239329    169.24561  0.030727235  0.031519753            3 
  460000    1.1723281   -6.8996489    169.26881   0.03066464  0.031511054            2 
  461000     1.153457   -6.9500369    169.36517   0.03061554  0.031502238            3 
  462000    1.1630162   -6.9414939     169.5518  0.030582936  0.031493517            2 
  463000    1.1754734   -6.9381792    170.28693  0.030649196  0.031484775            6 
  464000    1.1722787   -6.9537779    170.93769  0.030700015  0.031475942            4 
  465000    1.1625977   -6.9542597     171.0556  0.030655125  0.031467239            2 
  466000    1.1740405   -6.9639774    170.78228  0.030540465  0.031457472            6 
  467000    1.1759908   -6.9749984    170.98689   0.03051158  0.031447721            2 
  468000    1.1832133   -6.8665934    172.60878  0.030735182  0.031438398            2 
  469000    1.1871464    -6.945983    172.12011  0.030582819  0.031429415            2 
  470000    1.1501345   -6.9142639    173.15323  0.030700927  0.031420764            3 
  471000    1.1853884   -6.9440995    172.84145  0.030580583  0.031412638            3 
  472000    1.1665463   -6.9125644    172.93553  0.030532404  0.031403713            2 
  473000    1.1579063   -6.9562724    173.31927   0.03053546  0.031394618            4 
  474000    1.1663705    -6.954088    172.70796  0.030363565  0.031384832            2 
  475000    1.1668772   -6.9794613    172.95236   0.03034252  0.031374841            1 
  476000    1.1771719   -7.0061149    173.40393   0.03035783   0.03136398            2 
  477000    1.1789385   -6.9610713    173.77005   0.03035815  0.031352781            1 
  478000    1.1567404    -6.978466    173.83372  0.030305739  0.031341878            4 
  479000    1.1968583   -6.9677416    175.20289  0.030480669  0.031331075            3 
  480000    1.1788083   -6.9218585    175.72615  0.030508012  0.031321537            2 
  481000    1.1664913   -6.9712736    175.74781  0.030448338  0.031312318            2 
  482000    1.1754715   -6.9611723    176.73019  0.030555011  0.031303085            1 
  483000      1.16516   -6.9700952    176.36537  0.030428808  0.031294112            3 
  484000    1.1556326    -6.967775    176.96656  0.030469449  0.031284387            2 
  485000    1.1802937   -6.9443635    177.38177  0.030477968  0.031274669            4 
  486000    1.1522501   -6.9293061    177.93537   0.03051018  0.031265405            4 
  487000     1.164522   -6.9372247     177.7637  0.030418155  0.031255584            4 
  488000    1.1704442   -7.0053586    177.96785  0.030390685  0.031245228            3 
  489000    1.2024784   -6.9594648    177.79348  0.030298821  0.031234378            5 
  490000    1.1547904   -6.9917042    178.22983  0.030311195  0.031224044            6 
  491000    1.1642131   -6.9987868    178.56198  0.030305834  0.031213776            1 
  492000    1.1608097   -6.9219261    179.64237  0.030427231  0.031204082            1 
  493000      1.17669   -6.9968132    179.10418  0.030274541  0.031194125            3 
  494000    1.1761375    -6.965865    179.69736   0.03031332  0.031183391            2 
  495000    1.1727871   -6.9393897    180.29265  0.030352297  0.031173428            3 
  496000    1.1492771   -6.9083931    181.41974  0.030480466  0.031164237            2 
  497000    1.1775979   -6.9638542    181.27844  0.030395446  0.031155158            1 
  498000    1.1477835   -6.9431137    181.96506  0.030449307  0.031146143            5 
  499000    1.1843061   -6.9512979      182.151  0.030419339  0.031137033            2 
  500000    1.1633192    -6.984234    181.84338  0.030307231  0.031128044            5 
  501000    1.1637011   -6.9365013    182.80818  0.030407216  0.031118897            5 
  502000    1.1808553   -6.9503861    183.17298  0.030407201   0.03111049            4 
  503000    1.1563692   -6.9721154    182.52535  0.030239455  0.031101415            4 
  504000    1.1716559   -6.9320684    184.29668  0.030472335  0.031093033            3 
  505000    1.1779904   -6.9876964    183.89737    0.0303461   0.03108495            3 
  506000    1.1794247   -6.9621032    184.21502  0.030338442  0.031076711            4 
  507000    1.1626699   -6.9480347    184.67291  0.030353864  0.031068233            3 
  508000     1.159131    -6.947238    185.11246  0.030366217  0.031060444            2 
  509000    1.1646928   -6.9896061    185.18494  0.030318424  0.031051784            2 
  510000    1.1596903   -6.9813858    185.12883  0.030249808   0.03104317            2 
  511000    1.1947004   -6.9521814    186.80507  0.030463971  0.031034863            2 
  512000    1.1675892    -6.967834     186.4488  0.030346484  0.031027175            3 
  513000    1.1403654   -7.0185797    186.24707  0.030254559  0.031018884            2 
  514000    1.1623147   -6.9751829    186.64332  0.030259941  0.031010323            2 
  515000    1.1881486   -6.9561548    187.91955  0.030407694   0.03100233            2 
  516000    1.1809777   -6.9347188    188.03604  0.030367578  0.030994649            3 
  517000    1.1672799   -6.9745778    188.12957  0.030323915  0.030986908            1 
  518000    1.1664206   -6.9736475    188.33413  0.030298284  0.030978945            3 
  519000    1.1526868   -6.9851542    189.20655  0.030379986   0.03097116            5 
  520000    1.1509311   -6.9818049    189.64844  0.030392379  0.030963467            2 
  521000    1.1423767    -6.977796    190.03661  0.030396131  0.030956538            3 
  522000    1.1646446   -6.9840665    189.81054   0.03030181   0.03094948            1 
  523000    1.1524189   -6.9598452     190.9961  0.030432775  0.030942586            7 
  524000    1.1752973   -6.9372604    191.72105  0.030489988  0.030935349            2 
  525000    1.1767107   -6.9720587    192.49239  0.030554348  0.030929251            2 
  526000    1.1816862    -6.964114    191.88276  0.030399677  0.030922703            4 
  527000    1.1499049   -6.9976756    191.62355  0.030301003  0.030915784            4 
  528000    1.1711276   -6.9660448    193.13287  0.030481829  0.030909363            7 
  529000    1.1669099   -6.9564999    193.21422  0.030437022  0.030902705            1 
  530000      1.17705    -7.015337    192.71935  0.030301784  0.030895911            2 
  531000    1.1671551   -6.9819585    193.41109  0.030353279  0.030889596            4 
  532000    1.1660773   -6.9896824    193.76933  0.030352339  0.030882987            4 
  533000      1.15987   -7.0144506    193.23667  0.030212112  0.030876751            3 
  534000    1.1633942   -6.9427989     195.4469  0.030500452  0.030871008            1 
  535000    1.1857681   -6.9477297    195.43063  0.030440908  0.030864935            7 
  536000    1.1585494   -6.9510683    195.24308  0.030354956   0.03085892            3 
  537000    1.1768837   -6.9844003    195.19353   0.03029074  0.030852228            2 
  538000    1.1662096   -6.9260855     195.4633  0.030276224   0.03084533            3 
  539000    1.1812393   -7.0244758    195.72943  0.030261198  0.030838858            7 
  540000    1.1674312    -7.027258    195.23955  0.030129561  0.030832024            5 
  541000    1.1709099   -6.9841526     196.2371  0.030227527  0.030825043            2 
  542000    1.1767915   -6.9694908     196.5302  0.030216821  0.030817395            5 
  543000    1.1869645   -6.9829977    196.62037  0.030175011  0.030809784            1 
  544000    1.1619218   -6.9965293    196.70817  0.030132992  0.030801737            2 
  545000    1.1605673   -7.0027571    197.06389  0.030132094  0.030793056            3 
  546000    1.1582156   -6.9997272    197.63988  0.030164816  0.030784606            3 
  547000    1.1510308   -6.9588921    197.83339  0.030139152   0.03077629            1 
  548000    1.1724752   -6.9516293      198.472  0.030181266  0.030767708            3 
  549000    1.1669139   -7.0108464    198.02101  0.030057834  0.030758528            4 
  550000    1.1664178   -6.9975698    198.41274  0.030062537  0.030749948            2 
  551000    1.1696891   -6.9748319    198.05764  0.029954271   0.03074184            1 
  552000    1.1561366   -7.0020717    198.41528  0.029953997  0.030732445            1 
  553000    1.1715687   -7.0442271    198.99158  0.029986675  0.030723243            3 
  554000     1.180964   -6.9686358    200.27155  0.030125083  0.030714879            2 
  555000    1.2176784   -6.9647715    200.63934  0.030126027  0.030707035            4 
  556000    1.1595212     -7.04266    199.68635  0.029929009  0.030698678            4 
  557000    1.1588646   -6.9679884    201.07525  0.030083072  0.030690581            2 
  558000    1.1711833   -6.9467557    201.05559  0.030026223  0.030682888            2 
  559000    1.1837741   -6.9707609    201.18831  0.029992295  0.030674137            2 
  560000    1.1506934   -6.9567883    201.39802  0.029969944  0.030665539            5 
  561000    1.1494184   -6.9601885     201.7794  0.029973172  0.030657294            1 
  562000    1.1825146    -6.971384    201.86806  0.029932986  0.030648593            2 
  563000    1.1823523   -6.9781701    201.58362  0.029837717  0.030639113            2 
  564000     1.165185   -6.9927746     202.5125   0.02992206  0.030628947            3 
  565000       1.1594   -6.9852981    201.98726  0.029791631  0.030618885            3 
  566000    1.1590489   -6.9960173    202.99619  0.029887542   0.03060893            4 
  567000    1.1805835   -6.9733272    203.37133  0.029889966  0.030599019            4 
  568000    1.1662047    -7.000727    203.24208  0.029818381  0.030589054            2 
  569000    1.2028904   -7.0059563    203.61409  0.029820459  0.030579745            1 
  570000    1.1787006   -6.9655627    204.17337  0.029849907  0.030570844            1 
  571000    1.1705652   -6.9933143    204.61835  0.029862574  0.030562409            3 
  572000    1.1421668   -7.0028361    205.05071  0.029873355  0.030553497            2 
  573000    1.1582757   -6.9889164    205.49616  0.029886004  0.030544735            1 
  574000    1.1551569   -6.9748487    205.84504  0.029884588  0.030536386            4 
  575000    1.1598548   -6.9805295     206.6751  0.029952913  0.030528869            1 
  576000    1.1502039   -6.9625415    208.02814  0.030096663  0.030521553            3 
  577000    1.1822851    -7.000504    208.49235  0.030111547  0.030514224            2 
  578000    1.1171642   -6.9947514    207.43616  0.029907174  0.030506761            3 
  579000    1.1679873   -6.9747531    208.62735  0.030026965  0.030499571            2 
  580000    1.1465821    -7.003401     209.0273  0.030032658  0.030492708            2 
  581000    1.1433752   -6.9579278     208.9679  0.029972447  0.030485781            5 
  582000    1.1376954   -7.0014232     208.5442   0.02986028  0.030478878            2 
  583000    1.1453613   -6.9940465    209.89554  0.030002221  0.030471743            5 
  584000    1.1632288   -7.0167294     209.2647  0.029860831  0.030464488            2 
  585000    1.1553206   -7.0000612    209.82463  0.029889549  0.030457193            2 
  586000    1.1485145   -6.9953306    210.68762  0.029961266  0.030450028            2 
  587000    1.1693071   -7.0097862    211.08064  0.029966019  0.030443114            3 
  588000    1.1651069   -6.9858498    211.62047  0.029991563  0.030435658            3 
  589000    1.1478877   -7.0073038    211.54862  0.029930478  0.030429155            3 
  590000    1.1627891   -7.0388755    211.60608  0.029887865  0.030422583            5 
  591000    1.1329198   -6.9873461    212.33154  0.029939586  0.030415727            2 
  592000    1.1585022    -6.984156    213.93589   0.03011485   0.03040898            3 
  593000    1.1186852   -7.0442541     212.7108  0.029891906  0.030401903            3 
  594000    1.1684931   -7.0180172     212.8856  0.029866106  0.030394562           10 
  595000    1.1347614   -6.9656685    214.00551   0.02997276  0.030387711            4 
  596000    1.1560605   -6.9808106    214.08401  0.029933446  0.030380588            3 
  597000    1.1611742   -7.0021297    213.57145  0.029811759  0.030373204            5 
  598000    1.1648911    -7.004813    213.58536  0.029763847  0.030365421            3 
  599000    1.1584653   -7.0451072    213.68358  0.029727821  0.030357617            4 
  600000    1.1662225   -6.9854765    214.36554  0.029772991  0.030349394            2 
  601000    1.1403828   -6.9725352    214.98299  0.029809066  0.030341557            3 
  602000    1.1508633   -6.9757034    214.91456  0.029750078  0.030333548            3 
  603000    1.1614701   -7.0004963    214.75634  0.029678875  0.030325153            3 
  604000     1.151183    -6.979254    215.56381  0.029741144  0.030316859            4 
  605000    1.1354118   -7.0115541    215.57759  0.029693882  0.030308657            5 
  606000    1.1445216   -7.0319365    215.90826  0.029690355  0.030300308            2 
  607000    1.1471971   -7.0185026    216.63273  0.029740903  0.030292318            2 
  608000    1.1856594   -7.0316387    216.35988  0.029654589  0.030283936            4 
  609000    1.1511073   -6.9787683    216.77229  0.029662328  0.030275201            2 
  610000    1.1736721   -7.0143409    216.59242  0.029589128  0.030266641            2 
  611000    1.1324294   -6.9897582    216.63606  0.029546654  0.030257657            6 
  612000    1.1671495   -7.0113771     217.1313  0.029565809   0.03024862            7 
  613000    1.1701898    -7.036652    217.11928  0.029515944  0.030239704            4 
  614000    1.1571498   -6.9799214    218.15562  0.029608526  0.030230689            3 
  615000    1.1318625   -7.0080988    217.90513   0.02952644  0.030221535            2 
  616000    1.1521445   -7.0355833    217.59533  0.029436598  0.030212375            4 
  617000     1.180438   -6.9984653    217.98381  0.029441358  0.030202907            5 
  618000     1.146329   -6.9637463     219.2414  0.029563295  0.030193789            5 
  619000    1.1305873   -7.0145506     219.0055  0.029483778  0.030184821            2 
  620000    1.1358349   -6.9951552    220.21314   0.02959854  0.030175571            5 
  621000     1.165205   -6.9866779     220.6084  0.029603918  0.030166999            3 
  622000    1.1543086   -7.0441375    220.13378  0.029492735  0.030158735            2 
  623000    1.1647455    -6.969657    221.17932  0.029585249  0.030149949            4 
  624000    1.1457329   -6.9865535    222.10812  0.029661875  0.030141233            2 
  625000     1.125651      -7.0249    221.13688  0.029484917  0.030132571            1 
  626000    1.1588885   -7.0393521    221.90298  0.029539801  0.030124154            4 
  627000    1.1681754   -7.0145954    222.22427  0.029535389  0.030115969            3 
  628000    1.1358489   -7.0197768    222.21356  0.029486938  0.030107451            3 
  629000    1.1518388   -6.9867661     222.6392   0.02949645  0.030099372            2 
  630000    1.1185738   -7.0396817     222.6773  0.029454669  0.030091039            3 
  631000    1.1498518   -6.9797703    223.55856  0.029524374  0.030082756            3 
  632000    1.1176613   -6.9978772    223.40367  0.029457235  0.030074165            5 
  633000    1.1464274   -7.0551251    223.88997  0.029474719  0.030065604            6 
  634000    1.1559272   -7.0273516    224.32845  0.029485864  0.030057106            3 
  635000    1.1468303   -7.0724662    224.45833  0.029456474  0.030048469            2 
  636000    1.1465637   -6.9851898    225.39759  0.029533228  0.030039578            8 
  637000     1.122216   -7.0108995    224.26016  0.029338064  0.030030945            3 
  638000     1.138917    -7.029273    224.54642  0.029329469  0.030022338            3 
  639000    1.1647658   -6.9712422    226.17757  0.029496292  0.030013197            3 
  640000    1.1306152   -7.0432744    225.34478  0.029341768  0.030004488            4 
  641000    1.1605693   -7.0609201    225.51989  0.029318758  0.029995428            2 
  642000    1.1358773    -7.085061    225.29416  0.029243791  0.029986162            3 
  643000    1.1570507   -7.0472991     225.5957   0.02923739  0.029977073            2 
  644000    1.1612706   -7.0421255    226.51018  0.029310323   0.02996801            3 
  645000    1.1354107   -6.9865218    227.73449  0.029423061  0.029958971            5 
  646000    1.1454381   -7.0414148    226.74089  0.029249341  0.029949186            2 
  647000    1.1452082   -6.9820639    227.21755  0.029265527  0.029939221            2 
  648000     1.169271   -7.0274945    227.38855  0.029242354   0.02992939            9 
  649000    1.1718013   -7.0404064    227.24936  0.029179425  0.029919781            2 
  650000     1.149856   -7.0560658    228.44392  0.029287682  0.029909914            4 
  651000    1.1701522   -7.0250764    228.36251  0.029232272  0.029900109            4 
  652000    1.1419874   -7.0643537    228.84104  0.029248599  0.029890583            3 
  653000    1.1645445   -7.0065037    229.31221  0.029263937  0.029881327            3 
  654000    1.1565838   -7.0186506    229.40341  0.029230811  0.029872006            2 
  655000    1.1409863    -7.056208    228.72368  0.029099705  0.029862044            5 
  656000    1.1409897    -7.006048     229.6664  0.029175101  0.029851879            3 
  657000    1.1430992    -7.063623    229.61764   0.02912451  0.029842277            3 
  658000    1.1584427   -7.0347378    230.44681  0.029185259   0.02983255            3 
  659000    1.1463603   -7.0196718    230.79136  0.029184543  0.029822832            3 
  660000    1.1510437   -7.0216492    231.00867  0.029167761   0.02981328            4 
  661000    1.1473945   -7.0036374     231.2462   0.02915358  0.029804082            4 
  662000    1.1238677   -7.0585599    231.49783  0.029141217  0.029794946            2 
  663000    1.1391392   -7.0769504    231.10128  0.029047421  0.029785241            2 
  664000    1.1389605   -7.0349801    232.22813  0.029145097  0.029775567            3 
  665000     1.142947   -7.0485625    231.91236  0.029061699   0.02976621            5 
  666000    1.1656132    -7.035548     233.2422   0.02918446  0.029756699            6 
  667000    1.1211341   -7.0072976    233.72973  0.029201616   0.02974791            2 
  668000    1.1150377   -7.0634585    233.40294  0.029117134  0.029739084            1 
  669000    1.1457611   -7.0066529    235.00992  0.029273782  0.029730396            4 
  670000    1.1637253    -7.034133    235.41978  0.029281067  0.029722189            4 
  671000    1.1553468   -7.0748839    233.56828  0.029007486  0.029713647           11 
  672000    1.1424301   -7.0203338    234.84387  0.029122503  0.029704893            3 
  673000    1.1476096   -7.0137297    235.63354  0.029177011  0.029695852            2 
  674000     1.170648   -7.0426952    235.50194  0.029117451  0.029687234            5 
  675000    1.1422131   -7.0328801    234.30307  0.028926305  0.029678377            3 
  676000    1.1557548   -7.0962332    235.48873  0.029029676  0.029669272            1 
  677000     1.158699    -7.033221    236.18702   0.02907275  0.029659681            2 
  678000    1.1536258   -7.0655271    235.95385  0.029001211  0.029650291            2 
  679000     1.156933   -7.0388239    236.57016  0.029034139  0.029641149            2 
  680000    1.1056274   -7.0527555    237.34762  0.029086718  0.029632018            2 
  681000    1.1489919   -6.9869338    238.03118  0.029127653  0.029623322            3 
  682000     1.137477   -7.0669142    237.41363  0.029009486  0.029614412            3 
  683000    1.1415318   -7.0748559    237.73721  0.029006492  0.029605566            2 
  684000    1.1635748   -7.0493283    238.34654  0.029038321  0.029596173            2 
  685000    1.1631815   -7.0243592    238.76455  0.029046782  0.029587233            3 
  686000    1.1631596   -7.0447789    238.01927  0.028913906  0.029578246            2 
  687000    1.1568139   -7.0561478    238.41857  0.028920254  0.029568773            3 
  688000    1.1506184   -7.0679129    238.20239  0.028852034  0.029559371            3 
  689000    1.1641881   -7.0552806    238.77656  0.028879603   0.02954983            3 
  690000    1.1368695   -7.0239958    239.19329  0.028888079  0.029540124            4 
  691000    1.1570217   -7.0078676    240.41337  0.028993411   0.02953044            5 
  692000    1.1515419    -7.031815    239.69064   0.02886448  0.029521004            5 
  693000    1.1785058   -7.0499641    240.51306  0.028921724  0.029511639            3 
  694000    1.1075712   -7.0402406     240.4037  0.028866919  0.029502016            6 
  695000    1.1499603   -7.0294148      241.385  0.028943045  0.029492769            2 
  696000    1.1270174   -7.0160183    243.03518   0.02909904  0.029483314            2 
  697000    1.1340455    -7.013001    242.09391  0.028944753  0.029474152            5 
  698000    1.1445929   -7.0238764    242.30686  0.028928708  0.029465143            2 
  699000     1.121656   -7.0021048    243.08872  0.028980534   0.02945599            2 
  700000    1.1614914   -7.0518506    242.48414   0.02886716  0.029446571            3 
  701000    1.1389936   -7.0623416    242.48972  0.028826643  0.029437238            3 
  702000    1.1280007   -7.0509506    242.55873  0.028793771  0.029427714            3 
  703000    1.1340846   -6.9949316    243.84885  0.028905744  0.029418437            5 
  704000    1.1454222   -7.0303548    243.10661  0.028776824  0.029409345            2 
  705000    1.1350536   -7.0605918    243.91225  0.028831235  0.029400024            3 
  706000    1.1206822   -7.0817608    243.51165  0.028743113   0.02939051            6 
  707000      1.14061   -7.0135815    245.36953  0.028921444  0.029381084            4 
  708000    1.1224337   -7.0510998    244.25989  0.028749988   0.02937204            2 
  709000    1.1398945   -7.0614903    244.98864  0.028795091  0.029362881            2 
  710000    1.1327131   -7.0262561     246.1243  0.028887828  0.029354083            3 
  711000    1.1258083   -7.0312166    245.71917  0.028799715  0.029345231            3 
  712000    1.1451139   -7.1026097    245.05955  0.028682064  0.029336033            5 
  713000    1.1301695   -7.0721707    245.80234  0.028728652  0.029326575            3 
  714000    1.1264857   -7.0268002    246.89141  0.028815525  0.029317443            6 
  715000    1.1380047   -7.0504274    246.31522  0.028708068  0.029308272            4 
  716000    1.1410942   -7.0395152    246.91133  0.028737352  0.029299306            2 
  717000    1.1087807   -7.0724736    246.99842  0.028707394  0.029290189            4 
  718000    1.1391441    -7.021029    247.75675  0.028755426  0.029281016            2 
  719000    1.1354461    -7.047435    248.45113  0.028795913  0.029271887            2 
  720000    1.1383649   -7.0363405    247.92308  0.028694801  0.029262703            3 
  721000    1.1502223   -7.0677923    248.23252  0.028690767  0.029253413            2 
  722000    1.1544193   -7.0653929    248.72174  0.028707496  0.029244367            2 
  723000    1.1275743   -7.0422329    248.82099  0.028679229  0.029235797            3 
  724000    1.1527681   -7.0455975    249.47753  0.028715186  0.029226763            2 
  725000    1.1223344   -7.0154383    249.85984  0.028719521   0.02921762            3 
  726000    1.1263157   -7.0556735     249.4012  0.028627318  0.029209026            4 
  727000    1.1454274   -7.0796308    249.31135  0.028577643  0.029199628            2 
  728000    1.1568293   -7.0695422    249.98837  0.028615885  0.029190053            2 
  729000    1.1299765   -7.0471645     250.0965  0.028588992  0.029180477            5 
  730000    1.1610671   -7.0739519      250.734  0.028622603  0.029170896            5 
  731000    1.1347172   -7.0511267     249.8237  0.028479674  0.029160902            2 
  732000    1.1698417   -7.0757112     250.8639  0.028559187  0.029151163            2 
  733000    1.1075289   -7.0955282    250.21412  0.028446353  0.029141626            3 
  734000    1.1330316   -7.0884747    252.41132  0.028657053  0.029132116            4 
  735000    1.1343318   -7.0783075    251.82274  0.028551331  0.029122259            8 
  736000    1.1075707   -7.0659098    252.31837  0.028568655  0.029112913            2 
  737000    1.1161513   -7.0511071    252.22588  0.028519435  0.029103495            2 
  738000    1.1355338   -7.0207797    253.22886  0.028594044  0.029093819            4 
  739000    1.1420526   -7.0410251     253.4391   0.02857906  0.029084409            4 
  740000    1.1389146    -7.075438    251.98356  0.028376527  0.029074901            4 
  741000    1.1319577   -7.0813143    253.16792  0.028471426  0.029065536            2 
  742000    1.1401118   -7.0665998    253.80186  0.028504252  0.029056164            2 
  743000    1.1300821   -7.0345849    254.65453  0.028561522  0.029046792            4 
  744000    1.1339211   -7.0380978    254.86161  0.028546327  0.029037841            3 
  745000    1.1036894   -7.0272676    255.87685  0.028621572  0.029029396            2 
  746000    1.1329044   -7.0823284    254.78008  0.028460688  0.029020065            2 
  747000    1.1271424   -7.0531303    255.51918   0.02850504  0.029010585            4 
  748000    1.1130966   -7.0364742    255.49707  0.028464468  0.029001277            5 
  749000    1.1442053   -7.0495423    255.68129  0.028446962  0.028992205            1 
  750000    1.0904353    -7.100981    256.08927  0.028454363  0.028983189            2 
  751000    1.1341272   -7.0423978    257.42141  0.028564293  0.028974028            2 
  752000      1.13118   -7.0573512     257.0261  0.028482502  0.028964946            2 
  753000    1.1335199    -7.075927    257.11251   0.02845424   0.02895615            2 
  754000    1.1272382   -7.0334113    258.04668  0.028519748  0.028947151            2 
  755000    1.1110781   -7.0508996    258.10356  0.028488251  0.028938326            2 
  756000    1.1313431   -7.0970075    258.12865  0.028453335  0.028929581            3 
  757000    1.1488693   -7.0841376    258.47883  0.028454297  0.028920892            4 
  758000     1.109712   -7.0590301    258.90838  0.028463981  0.028912339            4 
  759000    1.1218103   -7.0929828    258.47086  0.028378443  0.028903417            2 
  760000    1.1414303   -7.0498098    259.68405  0.028474128  0.028894562            3 
  761000    1.1074797   -7.0791945    259.36469   0.02840174  0.028885874            2 
  762000    1.1234122   -7.0486225    259.37483  0.028365577  0.028877112            3 
  763000    1.1202546   -7.0531511    260.26706  0.028425848  0.028868663            2 
  764000    1.1346882   -7.0531332    260.44228  0.028407753  0.028860041            3 
  765000    1.1209798   -7.0587477    260.05594  0.028328534  0.028851348            3 
  766000    1.1189441   -7.0619664    260.41756  0.028330892  0.028842566            1 
  767000    1.1333419   -7.0762843    261.33646  0.028393792  0.028833873            2 
  768000    1.1409116   -7.0722846    260.14662  0.028227715  0.028825107            4 
  769000    1.1533847   -7.0502541    261.99461  0.028391267  0.028816464            2 
  770000    1.1523483   -7.1012308    261.07261  0.028254611  0.028807731            2 
  771000    1.1333577   -7.1048939    261.38713   0.02825196  0.028798724            5 
  772000    1.1450785   -7.0865251    262.64838  0.028351509   0.02878987            2 
  773000    1.1355104   -7.0865818    262.37068  0.028284894  0.028781068            3 
  774000    1.1114572   -7.0960088    262.65354  0.028278805  0.028772432            4 
  775000    1.1499084   -7.0966813    262.47144  0.028222735  0.028763802            7 
  776000    1.1414443   -7.1006056     263.0656  0.028250172  0.028754874            5 
  777000    1.1438051   -7.0840848    264.60872  0.028379314  0.028746342            2 
  778000    1.1286513   -7.1198789    263.40932  0.028214366  0.028737693            5 
  779000    1.1387292   -7.0880975     263.8977  0.028230392  0.028728901            4 
  780000     1.124212   -7.0877242    264.65559   0.02827517  0.028720286            7 
  781000    1.1194789   -7.0408537    265.25966   0.02830342  0.028711868            2 
  782000    1.1149574   -7.0851651    266.40911  0.028389718  0.028703614            7 
  783000     1.134491    -7.130844    265.74894    0.0282832  0.028695267            3 
  784000    1.1370944   -7.0605893    267.26272  0.028408027  0.028687273            2 
  785000     1.137981   -7.1017185    266.24945  0.028264272   0.02867922            5 
  786000    1.1285317   -7.0839981    267.30348  0.028340063  0.028671061            9 
  787000    1.1252077   -7.0688807    266.74528  0.028244947  0.028662733            2 
  788000    1.1285681   -7.0745897    268.42833   0.02838709  0.028654618            2 
  789000    1.1281703   -7.1213593    267.62571   0.02826634  0.028646522            3 
  790000    1.1248368    -7.071534    268.21503  0.028292725  0.028638424            4 
  791000    1.1201245   -7.1158366     268.2503  0.028260672  0.028630091            2 
  792000    1.1377469   -7.0690377    268.49324  0.028250551  0.028621834            6 
  793000    1.1194905   -7.0746688     269.4903  0.028319704  0.028613796            1 
  794000    1.1237432    -7.073312    269.96241  0.028333586  0.028605831            5 
  795000    1.1148405   -7.0488107    270.19694   0.02832253  0.028598363            2 
  796000     1.115928   -7.0642066    270.89461  0.028359988  0.028590715            3 
  797000    1.1265759   -7.1053266    269.82167  0.028212219  0.028583171            2 
  798000    1.1363655   -7.0764274    270.56819  0.028254824  0.028575552            3 
  799000    1.1475907   -7.0865793    270.59774  0.028222543  0.028567669            2 
  800000    1.1185083   -7.1306582    270.87861  0.028216522  0.028559798            3 
  801000    1.1255155   -7.0693341    271.34288  0.028229596  0.028552008            6 
  802000    1.1270145   -7.0813659    271.69942  0.028231444   0.02854433            3 
  803000    1.1316821   -7.0870442    272.45091  0.028274275  0.028536653            3 
  804000    1.1029973   -7.1049772    272.54153    0.0282485  0.028528865            2 
  805000    1.1148249   -7.0575024    272.96103  0.028256836  0.028521145            3 
  806000    1.1345171   -7.0759737    273.16649   0.02824302  0.028513417            2 
  807000    1.1205693   -7.1201398    272.88168  0.028178612  0.028505651            8 
  808000    1.1195954    -7.105764     273.6622  0.028224237  0.028497736            4 
  809000    1.1166607   -7.1047909    273.20711  0.028142471  0.028489598            3 
  810000    1.0953762   -7.1338102    271.98344  0.027981835  0.028481328            2 
  811000    1.1162358   -7.1188064    273.26617  0.028079138  0.028473293            3 
  812000      1.13195   -7.0834665    274.15081  0.028135346  0.028465497            4 
  813000    1.1304711   -7.0374508      274.999  0.028187679  0.028457482            4 
  814000    1.1311979   -7.0537881    274.92064  0.028145029  0.028449836            2 
  815000    1.1177301    -7.088037      274.967  0.028115235  0.028442009            3 
  816000    1.1339165     -7.08787     274.4101  0.028023907  0.028434128            2 
  817000    1.1225723   -7.1024061    275.33806  0.028084258  0.028426183            2 
  818000      1.10595   -7.0582163     276.0076  0.028118133  0.028418037            4 
  819000    1.1401045   -7.0891077    276.66712  0.028150908  0.028410147            5 
  820000    1.1211925   -7.0732757     276.8513  0.028135295  0.028402228            3 
  821000    1.1303523   -7.0948333    275.92806  0.028007314  0.028394331            2 
  822000    1.1073087   -7.1103017    276.13077  0.027993792   0.02838622            2 
  823000    1.1568617   -7.0851919    276.29521  0.027976429  0.028378011            4 
  824000    1.1080206   -7.0874769    277.20935  0.028034926  0.028370052            5 
  825000    1.1005374   -7.1238698    277.24499  0.028004545  0.028361972            5 
  826000    1.1003858   -7.1154762    278.13061  0.028059988  0.028353948            3 
  827000    1.1379437   -7.1115208    278.40715  0.028053925  0.028345733           10 
  828000     1.118059   -7.0581744    279.72744  0.028152923  0.028337823            5 
  829000    1.1132793   -7.1002686      279.723  0.028118516  0.028330072            3 
  830000    1.1307255   -7.1027931    279.04386  0.028016452  0.028322079            1 
  831000    1.1383527   -7.1066943    279.52729  0.028031216  0.028314229            4 
  832000    1.1048255   -7.0893595    279.79891   0.02802473  0.028306714            3 
  833000    1.1182108   -7.0963957    281.17201  0.028128452  0.028299399            2 
  834000    1.1247871   -7.0429182    281.37834  0.028115341  0.028292038            3 
  835000    1.1205999   -7.1313451    280.77582  0.028021539  0.028284684            3 
  836000    1.1007744   -7.1109899    282.59027  0.028168886   0.02827768            3 
  837000    1.0984593   -7.0939863     282.1487  0.028091268  0.028270953            2 
  838000    1.1058973   -7.1098274    282.87721  0.028130192  0.028264034            2 
  839000     1.121846   -7.0634945    283.48403  0.028156936  0.028257455            3 
  840000     1.127236   -7.0713453    284.07018  0.028181565  0.028250767            4 
  841000    1.1058752   -7.0923823    283.99866  0.028140969  0.028243924            2 
  842000    1.1072164   -7.1327025    283.21107    0.0280296  0.028236884            3 
  843000    1.1177586   -7.1410462    284.09725  0.028083952  0.028229965            4 
  844000    1.1335587    -7.101591    284.73375  0.028113522  0.028223007            2 
  845000    1.1215542   -7.0850787    285.43854  0.028149758  0.028216158            3 
  846000    1.1186587     -7.11345    285.70016  0.028142254   0.02820932            2 
  847000    1.0882622   -7.1445357    284.15771  0.027957271  0.028202387            3 
  848000    1.1412325   -7.1325856    284.16386  0.027924908  0.028195373            6 
  849000     1.108232   -7.1303093    285.31455  0.028004962  0.028188537            3 
  850000    1.1222553   -7.0779246    286.83478  0.028121057  0.028181773            3 
  851000     1.120952   -7.1287815    286.63545  0.028068493  0.028175014            4 
  852000    1.0968419   -7.0910721    286.90304  0.028061722  0.028168204            3 
  853000    1.1159643    -7.115105    286.34922  0.027974719  0.028161582            2 
  854000    1.1109743   -7.1094074    287.14959  0.028020062   0.02815536            2 
  855000    1.1072004   -7.1075641    287.75408  0.028046207  0.028148812            2 
  856000     1.075159   -7.0965148     287.3404   0.02797317  0.028141979            2 
  857000    1.0940388   -7.1233608    288.31959  0.028035744  0.028135167            2 
  858000    1.0892056   -7.1573064    287.28814  0.027902888  0.028128551            3 
  859000    1.1358169   -7.1350658    287.97274   0.02793682  0.028121748            3 
  860000    1.1174414   -7.1137998    288.65025  0.027969985  0.028114995            2 
  861000    1.1126386    -7.098484     288.8089  0.027952855  0.028108437            2 
  862000    1.1102115   -7.1232702    289.47907  0.027985215  0.028101379            2 
  863000    1.1388242    -7.096432    289.76359  0.027980262  0.028094415            2 
  864000    1.1336133   -7.1372703    289.83898  0.027955148  0.028087591            1 
  865000    1.1228989   -7.1085438    290.10067  0.027948041  0.028080973            3 
  866000    1.1217077   -7.1280367    290.11012  0.027916678  0.028074423            3 
  867000    1.1010147   -7.1598843    290.53827  0.027925631  0.028067863            2 
  868000    1.1102956    -7.142109    290.02036  0.027843737  0.028061438            3 
  869000     1.107695   -7.0948487    290.48538  0.027856289  0.028054494            3 
  870000    1.0964144   -7.1576756    290.67064  0.027842015  0.028047452            3 
  871000     1.122002   -7.1521904    290.30792  0.027775346  0.028040326            4 
  872000    1.0993013   -7.1196901    291.18952  0.027827745  0.028033161            3 
  873000    1.1262879   -7.1447501    292.42578  0.027913877  0.028026373            2 
  874000    1.1037434   -7.0981005    292.41803    0.0278812  0.028019627            4 
  875000    1.1236482   -7.1236053    292.31495  0.027839519  0.028012503            5 
  876000    1.1022734   -7.1557778    291.99893  0.027777676  0.028005345            6 
  877000    1.1357496   -7.1028072    292.80206  0.027822316  0.027998436            3 
  878000    1.1072171   -7.1108369    292.11853  0.027725753  0.027991461            3 
  879000    1.1419535    -7.097796     293.0299  0.027780613  0.027984113            2 
  880000    1.0966086   -7.1423658    292.37344  0.027686879  0.027976663            7 
  881000    1.1087316   -7.0844415    294.44571  0.027851467  0.027969366            4 
  882000    1.1413404   -7.1271472    293.32501  0.027714004  0.027962292            6 
  883000    1.0814158    -7.096598    294.52861  0.027796207  0.027955143            1 
  884000    1.1034193   -7.1582168    293.27111  0.027646221  0.027947954            4 
  885000     1.129571   -7.1420556    294.02984  0.027686426  0.027940629            4 
  886000    1.1237629   -7.1490163    293.87131  0.027640266    0.0279338            3 
  887000     1.099243   -7.0876903    296.08746  0.027817311  0.027926866            7 
  888000    1.1246897   -7.1299284    295.28659  0.027710829  0.027919561            4 
  889000    1.1283975   -7.1345604    295.32802  0.027683541  0.027912129            1 
  890000    1.0935629   -7.1265756    295.68605   0.02768596  0.027904811            4 
  891000    1.1241389   -7.1663844     295.0496  0.027595361  0.027897244            2 
  892000    1.1161943   -7.1039931    296.86129  0.027733678  0.027889821            3 
  893000    1.1189732   -7.1306303    296.31974  0.027652085  0.027882459            1 
  894000    1.0948659   -7.0883606    296.50635  0.027638549  0.027875129            5 
  895000    1.1190164   -7.1581576     296.2072  0.027579814  0.027867678            4 
  896000    1.0980962   -7.0989973    297.53341  0.027672378  0.027860236            2 
  897000    1.1047499   -7.1153197     297.8841  0.027674108   0.02785293            4 
  898000    1.1040098   -7.1459235    296.44365  0.027509619  0.027845295            3 
  899000    1.0998282   -7.1001896    297.84928  0.027609314  0.027837695            5 
  900000    1.1325317   -7.1330252    297.45311  0.027541955  0.027830328            7 
  901000    1.0892923   -7.1486998    296.78179  0.027449296  0.027822472            4 
  902000    1.1242451   -7.1448806    298.22847   0.02755252  0.027814428            8 
  903000    1.1217997   -7.0942436    298.30859  0.027529401  0.027806579            2 
  904000    1.1117968   -7.1397415    298.33865  0.027501719  0.027798894            4 
  905000    1.1066693   -7.1538263    299.67869  0.027594723  0.027791394            4 
  906000    1.1013723   -7.0927174    299.74693  0.027570541  0.027783723            4 
  907000    1.1084294   -7.1129747    299.31988  0.027500908   0.02777636            5 
  908000    1.0929399   -7.1001513    300.64634  0.027592359   0.02776892            4 
  909000    1.1081741   -7.1300177    300.24986  0.027525657  0.027761388            3 
  910000    1.1034373   -7.1067255     300.5679  0.027524533  0.027753923            3 
  911000    1.0953091   -7.0989914    301.66973  0.027595109  0.027746556            5 
  912000    1.1102824   -7.1590619    300.64193  0.027470937  0.027739193            2 
  913000    1.1026252   -7.1390498    301.69028  0.027536535  0.027731382            7 
  914000    1.0874034   -7.1608943    301.08087  0.027450845  0.027723471            4 
  915000    1.1074138   -7.1412344    301.62458  0.027470363  0.027715604            8 
  916000     1.115969   -7.1225096    301.36301  0.027416576  0.027708056            5 
  917000    1.0842758   -7.1076457    302.45126  0.027485574   0.02770045            4 
  918000    1.1115709   -7.1408158    302.98457  0.027504046  0.027692812            3 
  919000     1.112443   -7.1491785    302.56838  0.027436378  0.027685329            1 
  920000    1.1024368   -7.1519648    302.42057  0.027393168  0.027677621            3 
  921000    1.1085239   -7.1548446    301.83255   0.02731022  0.027669849            2 
  922000    1.1129745    -7.200061    302.20537  0.027314296  0.027661784            4 
  923000    1.1127636   -7.1807199    302.40008  0.027302282  0.027653951            4 
  924000    1.0936905   -7.1356136    303.72764  0.027392463  0.027646378            4 
  925000    1.1021748    -7.158729    303.87472  0.027376101  0.027638606            6 
  926000    1.0940138   -7.1385265    303.87779  0.027346814  0.027631016            3 
  927000    1.0997571   -7.2251878    303.52666  0.027285748  0.027623171            3 
  928000    1.0687154   -7.1679674    303.45528  0.027249935  0.027615426            2 
  929000    1.0985329   -7.1215709    306.34585  0.027479893  0.027607784            5 
  930000    1.0981459    -7.131328    305.97459  0.027417078  0.027600459            2 
  931000    1.0832656   -7.0978727    307.01604  0.027480848  0.027593412            3 
  932000     1.083525   -7.1614312    305.65861   0.02732999  0.027586108            4 
  933000    1.0947589   -7.1193833    305.88259  0.027320703  0.027578598            3 
  934000     1.103944   -7.1516381    306.11713  0.027312378  0.027571069            3 
  935000    1.1189194   -7.1817667    306.54186  0.027321021   0.02756359            3 
  936000    1.0880083   -7.1495881    306.29004  0.027269413  0.027555901            7 
  937000    1.0938149   -7.1213982      307.273   0.02732773  0.027548259            5 
  938000      1.10826   -7.1453459    308.12026  0.027373869  0.027540798            6 
  939000    1.0892301   -7.1167821    308.11502  0.027344251  0.027533437            2 
  940000     1.107657   -7.1653454    307.74588  0.027282436  0.027526079            2 
  941000    1.1016122   -7.1401878    309.14733  0.027377554  0.027518834            4 
  942000    1.1209369   -7.1698338    309.13768  0.027347636  0.027511692            3 
  943000    1.1177944   -7.1530264    309.76064  0.027373686  0.027504607            3 
  944000    1.1130978   -7.1188851    309.90288  0.027357246  0.027497641            2 
  945000    1.1047629   -7.1072898    310.40317  0.027372414   0.02749064            4 
  946000    1.1105236   -7.1086762    310.53812  0.027355366  0.027483946            8 
  947000    1.1023461   -7.1519273     310.9028  0.027358571  0.027476912            2 
  948000    1.0604248   -7.1721312    310.74486  0.027315828  0.027469774            6 
  949000    1.0763211   -7.0940922    311.52407  0.027355468  0.027462655            2 
  950000    1.1117275   -7.0860567    311.32577  0.027309278  0.027455947            3 
  951000    1.0888477   -7.1039721    311.59346  0.027304018  0.027449015            7 
  952000    1.0973705   -7.1349906    310.96857  0.027220638  0.027441763            2 
  953000    1.1009531   -7.1716393    312.10224  0.027291207  0.027434292            6 
  954000     1.115338   -7.1189373    312.74723   0.02731894  0.027426924            6 
  955000    1.1038973   -7.1443119    313.20347  0.027330145  0.027419822            2 
  956000    1.0885205   -7.1457197    312.27155  0.027220323  0.027412561            3 
  957000    1.1146666   -7.1934258     311.1344   0.02709286  0.027405382            6 
  958000    1.1096843   -7.1756843    312.29799  0.027165796  0.027397942            2 
  959000     1.093071   -7.1427364     312.9756   0.02719635  0.027390578            2 
  960000    1.1020578   -7.1579429     313.7108   0.02723184  0.027383496            4 
  961000    1.1002985   -7.1702772    313.27257  0.027165502  0.027376232            2 
  962000    1.1051454   -7.1566923    314.71899   0.02726256  0.027368866            3 
  963000    1.0943158   -7.1186131    314.96133  0.027255221  0.027361656            3 
  964000    1.0888883   -7.1567978    315.00093  0.027230371  0.027354305            4 
  965000    1.0854445   -7.1889209     313.8825   0.02710557  0.027346945            3 
  966000    1.1092435   -7.1804736     313.9399  0.027082462   0.02733959            3 
  967000    1.0894321   -7.1495133    314.61997  0.027113062  0.027332366            3 
  968000    1.0858842   -7.1684467    314.93542  0.027112209  0.027325221            3 
  969000    1.1083969   -7.1422138    316.12412  0.027186457  0.027318131            4 
  970000    1.1096671   -7.1676156    314.47191  0.027016487  0.027311083            2 
  971000    1.1215673   -7.1611781     316.2337  0.027139865  0.027303831            6 
  972000    1.0912255   -7.1901126    316.16066  0.027105681  0.027296407            3 
  973000     1.080774   -7.1639871    316.20738  0.027081824  0.027289156            3 
  974000    1.0807672   -7.1873707     316.2546   0.02705806  0.027282084            2 
  975000    1.1224778   -7.1546454    317.07607  0.027100519  0.027274764            5 
  976000    1.1045764   -7.1920431    316.65737  0.027037002  0.027267565            3 
  977000    1.0825298    -7.165033    316.81316  0.027022617  0.027260372            7 
  978000    1.1187919   -7.2071901    317.91482  0.027088856  0.027253249            4 
  979000     1.104464   -7.1544302    318.06062  0.027073598  0.027245943            4 
  980000    1.0970765   -7.1671919    318.19458  0.027057362  0.027239038            5 
  981000    1.0766183   -7.1551451    318.86512  0.027086741  0.027231927            3 
  982000    1.0903147   -7.1702695    318.97528  0.027068506   0.02722477            4 
  983000    1.0840879   -7.1670965    319.60136  0.027094046  0.027217433            4 
  984000    1.1106613   -7.1616737    318.83887  0.027001937  0.027210215            4 
  985000    1.0924816   -7.1533371    319.70869  0.027048113  0.027202793            4 
  986000    1.0693029   -7.1849506    318.57003  0.026924445  0.027195429            2 
  987000    1.1212284   -7.1739598    319.41911  0.026968854  0.027188224            4 
  988000    1.0916737   -7.1141389    320.56725  0.027038399  0.027181029            3 
  989000    1.1128126   -7.1385277    320.91322   0.02704021  0.027173687            2 
  990000    1.0861734   -7.1829171    320.98452  0.027018899  0.027166432            3 
  991000    1.0974416   -7.2030409    321.01054  0.026993823  0.027159172            2 
  992000    1.0839261   -7.2052917    319.58749  0.026847068  0.027151654            7 
  993000    1.0807247    -7.192873    320.27739  0.026877928  0.027144092            3 
  994000    1.1056811   -7.1583749    321.30615  0.026937135  0.027136442            3 
  995000     1.081119   -7.1825109    320.25486  0.026822015  0.027128791            2 
  996000    1.0973363   -7.1737498    320.66731  0.026829595  0.027121198            7 
  997000    1.1230758   -7.2140424    320.89373  0.026821609  0.027113428            4 
  998000    1.0998467    -7.164297    322.11565  0.026896764  0.027105702            4 
  999000     1.069739   -7.2313174    321.11176  0.026786099  0.027097685            2 
 1000000    1.0951972   -7.2114393    321.63495  0.026802913  0.027089747            2 
 1001000    1.0943372   -7.1538934    322.34565  0.026835302  0.027082066            3 
 1002000    1.0703711   -7.2008884    322.72511  0.026840079  0.027074357            2 
 1003000    1.0999922   -7.1702404    322.67469   0.02680913  0.027066566            4 
 1004000    1.0987178   -7.2029024    323.25198  0.026830343  0.027058946            4 
 1005000    1.0682924   -7.1797406    324.34574   0.02689434  0.027051458            3 
 1006000    1.0854623   -7.1907591    324.00216  0.026839145  0.027044166            2 
 1007000    1.1031031    -7.150404    324.84827  0.026882512  0.027036983            2 
 1008000      1.06978   -7.1783044    324.95019  0.026864268  0.027029631            4 
 1009000    1.0803832   -7.1891009    324.95954  0.026838416   0.02702225            5 
 1010000    1.0824397   -7.1312094    326.30871  0.026923161  0.027015216            3 
 1011000    1.0858245    -7.156274    326.37729  0.026902183  0.027007991            1 
 1012000    1.0777944   -7.1865901    325.57517  0.026809549  0.027000837            6 
 1013000    1.0896081   -7.1167532    327.55626  0.026946056  0.026993632            6 
 1014000    1.0966797   -7.1775125    326.75616  0.026853727   0.02698672            3 
 1015000    1.0864406   -7.1453372    327.54134  0.026891735  0.026979824            3 
 1016000    1.1032739   -7.1455223    327.90295  0.026894927  0.026972839            3 
 1017000    1.0722474   -7.1508011    327.39858  0.026827153  0.026965786            4 
 1018000     1.067825    -7.157273    328.20171  0.026866545  0.026958627            2 
 1019000    1.0970096   -7.2166922    326.55134  0.026705213  0.026951731            5 
 1020000    1.0752111   -7.1730981    327.59226  0.026764074  0.026944651            4 
 1021000    1.0897032   -7.1666536    328.69871  0.026828168  0.026937459            4 
 1022000    1.0864404   -7.1768546     328.1444  0.026756719  0.026930327            3 
 1023000    1.0803332   -7.1957343     328.6077  0.026768304  0.026923268            4 
 1024000    1.0637079   -7.1833856    328.10412  0.026701182  0.026916223           11 
 1025000    1.1015168   -7.1369263    329.24888  0.026768201  0.026909019            4 
 1026000    1.0765733   -7.2119308    329.88095   0.02679345  0.026901808            4 
 1027000     1.079787   -7.2232752    328.28599  0.026637942   0.02689467            6 
 1028000    1.0683753   -7.1835163    329.90979   0.02674366  0.026887322            4 
 1029000    1.0946551   -7.1900174    330.06363  0.026730129  0.026880141            6 
 1030000    1.0663762   -7.1710055    331.07379  0.026785905  0.026873048            5 
 1031000    1.0908422   -7.1628253    331.32644  0.026780346  0.026866011            3 
 1032000    1.0709258   -7.1585834     332.8161  0.026874685  0.026859079            3 
 1033000    1.0915091   -7.1843358    332.02041  0.026784479  0.026852102            3 
 1034000    1.0853517   -7.2146188    331.72401  0.026734688  0.026845077            2 
 1035000    1.0818455   -7.1306147    332.83555  0.026798354   0.02683813            3 
 1036000     1.098104   -7.2025943    332.48411  0.026744218  0.026831236            4 
 1037000    1.0777563   -7.2036697    332.16881   0.02669309  0.026824292            2 
 1038000    1.1114694   -7.2207314    332.25591  0.026674366  0.026817062            6 
 1039000    1.1097952   -7.1540599    332.48253   0.02666687  0.026809907            6 
 1040000    1.0864688   -7.1815607    332.27529  0.026624623  0.026802947            3 
 1041000    1.0857155   -7.1907896    332.94152  0.026652379  0.026795858            2 
 1042000    1.0873527   -7.1805781    333.36638  0.026660779  0.026788671            2 
 1043000    1.0775785   -7.2310948    333.76555   0.02666711  0.026781572            2 
 1044000    1.0741817   -7.1928755    333.50686  0.026620918  0.026774416            4 
 1045000    1.0689339   -7.2541753    333.52156  0.026596615  0.026767383            2 
 1046000    1.0960794   -7.2084091    334.38405  0.026639902  0.026760429            3 
 1047000    1.0887848   -7.2162103    334.28506  0.026606579  0.026753515            3 
 1048000     1.091742   -7.1621249    335.49779  0.026677623  0.026746653           10 
 1049000    1.1013406   -7.2245827    334.10823  0.026541804    0.0267395            2 
 1050000     1.078101   -7.1996237    335.00303  0.026587542  0.026732454            3 
 1051000    1.0996711   -7.2180988    335.34096  0.026589039  0.026725499            2 
 1052000    1.1068582   -7.1897131    336.30941   0.02664048  0.026718543            2 
 1053000     1.079378   -7.1856962    337.62393   0.02671921  0.026711756            2 
 1054000    1.0759659   -7.2359859     336.3136  0.026590259  0.026705053            3 
 1055000    1.0727478   -7.1894799    337.22222  0.026636826  0.026698201            3 
 1056000    1.0828107    -7.202121    337.82924  0.026659505  0.026691505            6 
 1057000    1.0760261   -7.1966105    337.76833   0.02662948  0.026684804            3 
 1058000     1.072783   -7.2642847    337.22259  0.026561326   0.02667776            4 
 1059000    1.1082811   -7.2051435    337.64576  0.026569544  0.026670947            4 
 1060000    1.0934809    -7.197213    338.20932  0.026588783  0.026664428            5 
 1061000    1.0644272   -7.1894204    339.51015  0.026665893  0.026657693            3 
 1062000    1.0671913   -7.1796595    340.03426   0.02668191  0.026651456            2 
 1063000    1.0633207   -7.2275748    338.99561  0.026575385     0.026645            5 
 1064000    1.1052846   -7.2488091    337.88064  0.026463083  0.026637874            1 
 1065000    1.0827451   -7.2258556    338.99913  0.026525754  0.026631041            3 
 1066000    1.0828127   -7.2194364    340.29201  0.026601939  0.026624329            3 
 1067000    1.0794117   -7.1929681    339.68951  0.026529952  0.026617553            3 
 1068000    1.0971061   -7.2058292    340.77143  0.026589531   0.02661086            3 
 1069000    1.0696393   -7.2054877    340.43814  0.026538676   0.02660431            4 
 1070000    1.0845835   -7.2223613    339.73633  0.026459216  0.026597552            3 
 1071000    1.0658382    -7.180841    341.29408  0.026555718  0.026590738            2 
 1072000    1.0905487   -7.1819018    341.86044  0.026574972  0.026583934            4 
 1073000     1.078323   -7.2477846    340.15534   0.02641778  0.026576841            3 
 1074000     1.074679   -7.2232559    340.25757  0.026401115  0.026569757            6 
 1075000    1.0880718   -7.1998603    342.14491  0.026522861  0.026562903            2 
 1076000    1.0548893   -7.2510137      341.093  0.026416744   0.02655613            3 
 1077000    1.1081174   -7.2134201    342.10454  0.026470485  0.026549191            8 
 1078000    1.0613271   -7.1856528     342.3297  0.026463335  0.026542341            3 
 1079000    1.0615067   -7.2121071     342.1173  0.026422405  0.026535431            3 
 1080000    1.0577131   -7.2367423    342.16267  0.026401441  0.026528666            2 
 1081000    1.0852613   -7.2218589     343.4738  0.026478092  0.026521655            4 
 1082000    1.0491888   -7.2105295    343.30476  0.026440601  0.026514913            5 
 1083000    1.1027997   -7.1942422    343.74503  0.026450064  0.026508215            5 
 1084000    1.0811267   -7.2415601    343.10679  0.026376599  0.026501198            5 
 1085000    1.0751344   -7.2312552    343.00342  0.026344349  0.026493889            4 
 1086000    1.0616499   -7.2343358    342.69587  0.026296491  0.026486649            8 
 1087000    1.0925748   -7.2217968    343.58322  0.026340327   0.02647959            2 
 1088000    1.0826512   -7.1970788    344.57029  0.026391719  0.026472776            3 
 1089000    1.0897909    -7.192321    345.33099  0.026425696  0.026465791            4 
 1090000    1.1182375   -7.2301354    345.51729  0.026415695  0.026458845            5 
 1091000    1.0851495   -7.2016971     344.5106  0.026314589  0.026451926            6 
 1092000    1.0669116   -7.1947463    346.75638  0.026461873   0.02644527            2 
 1093000    1.0817349   -7.2244957    344.51889   0.02626707  0.026438515            4 
 1094000    1.0848841   -7.2096671    345.09335  0.026286818  0.026431617            2 
 1095000    1.0693418    -7.281092    344.93556  0.026250804  0.026424489            3 
 1096000    1.0828743   -7.2590575    346.54225  0.026349015   0.02641723            3 
 1097000     1.109867   -7.2265529    346.62446  0.026331241  0.026410303            3 
 1098000    1.0688929   -7.1864939    347.63038  0.026383605  0.026403647            2 
 1099000    1.0385126   -7.2355853    346.69489  0.026288663  0.026397032            4 
 1100000     1.076711   -7.2281042    347.71899  0.026342348  0.026390214            5 
 1101000    1.0889119    -7.220322    346.89702  0.026256208  0.026383408            2 
 1102000     1.076957   -7.2378492    347.40596  0.026270868  0.026376509            2 
 1103000    1.0536214    -7.244152    347.23713  0.026234295  0.026369604            4 
 1104000     1.053595   -7.2248137    348.47632   0.02630407  0.026362721            4 
 1105000    1.0733019   -7.2671081      347.563  0.026211388  0.026356093            2 
 1106000    1.0809847   -7.2026083    349.32233  0.026320248  0.026349375            3 
 1107000    1.0823117    -7.232356    348.58054  0.026240631  0.026342559            3 
 1108000    1.0462688   -7.2581173    348.56958  0.026216124   0.02633557            3 
 1109000     1.091166   -7.2312831    349.04039  0.026227862  0.026328713            6 
 1110000    1.0711352   -7.2252363    349.52898  0.026240914  0.026322026            2 
 1111000     1.059784   -7.2783533    348.17953  0.026116076  0.026315082            3 
 1112000    1.0850412    -7.222059    349.48722  0.026190589  0.026308176            5 
 1113000    1.0516501   -7.2455021    350.07683  0.026211203  0.026301339            7 
 1114000    1.0586278   -7.1825973    351.04628  0.026260194  0.026294531            7 
 1115000    1.0657339   -7.2125662    349.93165  0.026153337  0.026287615            7 
 1116000    1.0672988   -7.2342457    350.23706  0.026152708   0.02628061            3 
 1117000    1.0835123   -7.2195296    350.95983  0.026183216  0.026273578            2 
 1118000    1.0668034   -7.2548413    349.46234  0.026048177  0.026266519            4 
 1119000    1.0742016   -7.2074395     351.7113  0.026192382  0.026259488            7 
 1120000    1.0535491   -7.2652121     349.9221  0.026035871  0.026252382            3 
 1121000    1.0684198   -7.2519353    351.26847  0.026112732  0.026245124            4 
 1122000    1.0808216    -7.244375    350.17012  0.026007882  0.026237888            4 
 1123000    1.0892155   -7.2271691    351.98778  0.026119604  0.026230639            2 
 1124000     1.090151   -7.2794205    351.03025  0.026025374  0.026223358            2 
 1125000    1.1006453   -7.1941396    351.85726  0.026063501  0.026216001            2 
 1126000    1.0650279   -7.2423495    351.50129  0.026014009  0.026208643            3 
 1127000    1.0528922   -7.2156878    352.01535  0.026028937  0.026201001            6 
 1128000    1.0772358   -7.2798545     350.5021  0.025894068  0.026193371            4 
 1129000    1.0865486   -7.2481255    351.48839  0.025943932  0.026185826            2 
 1130000    1.0820969   -7.2125912    352.34904  0.025984443  0.026178162            1 
 1131000    1.0749399   -7.2405897    351.42783  0.025893592  0.026170509            4 
 1132000    1.0741913   -7.2533228    351.88034   0.02590403  0.026162775            3 
 1133000    1.0628001   -7.2571015    352.35469  0.025916055  0.026155256            7 
 1134000    1.0755361   -7.2551136    352.30352  0.025889442  0.026147506            5 
 1135000    1.0648517   -7.2301288    352.33061   0.02586862  0.026139876            8 
 1136000    1.0581944   -7.2499423    352.74411  0.025876182   0.02613215            4 
 1137000    1.0725566   -7.2508476    352.92226   0.02586648   0.02612441            4 
 1138000    1.0639843   -7.2456106    352.92813   0.02584418   0.02611668            4 
 1139000    1.0623389   -7.2496622    353.62987  0.025872832  0.026108938            4 
 1140000     1.049343   -7.2339555    353.32497  0.025827849  0.026101261            2 
 1141000    1.0608573   -7.2899169    352.62796  0.025754306  0.026093475            5 
 1142000    1.0861144   -7.2175784    354.39187  0.025860469  0.026085464            4 
 1143000    1.0647906    -7.271321    353.72847  0.025789477  0.026077531            4 
 1144000     1.068787   -7.2417456    354.27961  0.025807081  0.026069679            4 
 1145000    1.0729159    -7.254983    354.97732  0.025835322   0.02606173            3 
 1146000    1.0479042   -7.2434148     355.0532  0.025818295  0.026053936            3 
 1147000    1.0671092    -7.248756    354.41348  0.025749309   0.02604612            6 
 1148000     1.057203   -7.2430147    355.61965  0.025814434  0.026038345            2 
 1149000    1.0475077   -7.3156718    354.25265  0.025692824  0.026030374            6 
 1150000    1.0827443   -7.2535374    355.09163  0.025731277  0.026022372            3 
 1151000    1.0461458   -7.2542832    355.13539  0.025712091  0.026014442            3 
 1152000    1.0553579    -7.226328    355.76044  0.025734986  0.026006451            3 
 1153000    1.0383553   -7.2300257    355.61362  0.025702054  0.025998492            4 
 1154000    1.0773888   -7.1984649    356.20382  0.025722401  0.025990439            3 
 1155000    1.0585054   -7.2329511    356.08554  0.025691597  0.025982563            4 
 1156000    1.0719454   -7.2496554    355.93669  0.025658643  0.025974594            6 
 1157000    1.0527873      -7.2976    356.20529  0.025655811  0.025966744            2 
 1158000    1.0848352   -7.2302845    357.24216  0.025708273  0.025958687            6 
 1159000    1.0628309   -7.2521685    357.57515  0.025710034  0.025950933            3 
 1160000    1.0630449    -7.269556    357.82454  0.025705786  0.025943039            3 
 1161000    1.0611431   -7.2720383    357.73101  0.025676931  0.025935279            4 
 1162000    1.0555969   -7.2361925    358.72245  0.025725936  0.025927614            3 
 1163000    1.0807849   -7.2658358    358.43883  0.025683493  0.025920047            2 
 1164000    1.0545513    -7.261458    358.34091  0.025654418  0.025912387            5 
 1165000    1.0767906   -7.2601738     358.8013  0.025665329  0.025904618            3 
 1166000    1.0697492   -7.2542584    360.12863  0.025738181   0.02589687            3 
 1167000      1.05936   -7.1769245    360.94341  0.025774308  0.025889295            6 
 1168000    1.0704233   -7.2041683     361.1899  0.025769827  0.025881883            4 
 1169000    1.0897058   -7.2507923    360.00479  0.025663301  0.025874504            4 
 1170000     1.057376   -7.2725151    360.21345  0.025656229  0.025866986            3 
 1171000    1.0539505   -7.2957881    360.61235  0.025662707  0.025859288            2 
 1172000    1.0440549   -7.2527407    361.59917  0.025710977  0.025851581            4 
 1173000    1.0518819   -7.1982874     362.0019  0.025717669  0.025844171            4 
 1174000    1.0749721   -7.2219791    362.17252  0.025707873  0.025837066            2 
 1175000    1.0675386   -7.2948669    361.33213  0.025626392  0.025829756            2 
 1176000     1.071086   -7.2467991    361.80384  0.025638027  0.025822305            6 
 1177000     1.058014   -7.2572592    362.45606  0.025662423  0.025814875            2 
 1178000    1.0563183   -7.2516435    362.33725  0.025632233  0.025807448            3 
 1179000    1.0678312   -7.2692137    363.28211  0.025677277  0.025800068            2 
 1180000    1.0821216    -7.234743    363.38015   0.02566244   0.02579272            4 
 1181000    1.0548627   -7.2393777    363.87928   0.02567593  0.025785406            3 
 1182000    1.0567682   -7.2177192    364.23781  0.025679485  0.025778065            2 
 1183000     1.055653   -7.2297212    363.48652  0.025604855  0.025770917            1 
 1184000    1.0472891   -7.2733473    364.01023   0.02562009  0.025763741            2 
 1185000    1.0754547    -7.302805    362.70044   0.02550636  0.025756341            5 
 1186000     1.052789   -7.2313094      364.596  0.025618044  0.025749064            5 
 1187000    1.0697629   -7.2835286    363.80118  0.025540661  0.025741788            3 
 1188000    1.0732754   -7.2777159    364.95792  0.025600303  0.025734393            4 
 1189000    1.0656553   -7.2327515    365.73555  0.025633274  0.025727027            2 
 1190000    1.0603448   -7.2307811    366.45361  0.025662017  0.025719854            6 
 1191000       1.0611   -7.2752796     365.1652  0.025550322  0.025712578            3 
 1192000    1.0503265   -7.2510242    365.28099  0.025536982  0.025705264            3 
 1193000    1.0307065   -7.2965905    365.20237  0.025510084  0.025697968            4 
 1194000    1.0644431   -7.2420414    366.35588  0.025569227  0.025690741            6 
 1195000    1.0504865   -7.2736434    365.92376  0.025517696  0.025683554            5 
 1196000    1.0821266   -7.2573307    366.49132  0.025535906  0.025676302            7 
 1197000    1.0558102   -7.2512974    366.58245  0.025520917  0.025668814            4 
 1198000    1.0837072   -7.2463878    366.45799  0.025490957  0.025661479            2 
 1199000    1.0534151    -7.261095    367.17293  0.025519386  0.025654108            2 
 1200000    1.0679755   -7.2383907    367.98795  0.025554719  0.025646766            5 
 1201000    1.0583641   -7.2639504    367.64814  0.025509862  0.025639774            2 
 1202000    1.0543637   -7.2568664    367.50797  0.025478922  0.025632736            2 
 1203000    1.0440865   -7.2941596    366.92676  0.025417481  0.025625555            4 
 1204000    1.0416045   -7.2864318    368.33168   0.02549361  0.025618312            3 
 1205000    1.0599163   -7.3187014    368.72837  0.025499887  0.025611091            4 
 1206000    1.0642338   -7.3183573    368.02091  0.025429858  0.025603824            5 
 1207000    1.0808835   -7.2758709    368.33297  0.025430335  0.025596468            3 
 1208000    1.0756884    -7.289125     367.6894  0.025364887  0.025589008            7 
 1209000    1.0558176   -7.2513091    370.83173    0.0255605   0.02558171            6 
 1210000    1.0270744   -7.2660992    369.66098  0.025458745  0.025574298            6 
 1211000    1.0633035   -7.2883352     368.7472  0.025374842  0.025567003            4 
 1212000    1.0599951   -7.2966046    368.57811  0.025342279  0.025559701            5 
 1213000    1.0534062   -7.2857368    369.23667   0.02536663  0.025552442            4 
 1214000    1.0499862   -7.2483429    370.44557  0.025428718   0.02554523            2 
 1215000    1.0528911   -7.2837712    370.76705  0.025429839  0.025537884            3 
 1216000    1.0456946   -7.2839879     371.1194  0.025433073  0.025530848            7 
 1217000    1.0565835   -7.3175788    370.26873  0.025353926  0.025523734            2 
 1218000    1.0603588   -7.2277403    371.69922  0.025430981  0.025516745            7 
 1219000    1.0701862   -7.2910191     372.0467  0.025433873  0.025509717            5 
 1220000    1.0340481     -7.27433    372.05238  0.025413414  0.025502661            4 
 1221000    1.0872655   -7.2229791    372.99725  0.025457088  0.025495785            2 
 1222000       1.0532   -7.2746456     371.5052  0.025334506  0.025488854            4 
 1223000    1.0430618   -7.3219714    371.47326  0.025311615  0.025481698            6 
 1224000    1.0726305   -7.2785297    372.20682  0.025340879  0.025474481            3 
 1225000    1.0641331   -7.2766016    373.50709  0.025408645  0.025467365            4 
 1226000    1.0514062   -7.3105641    372.77987  0.025338491  0.025460058           10 
 1227000    1.0509143   -7.2984551     372.7162  0.025313516  0.025452661            5 
 1228000    1.0482009   -7.2685232     373.0238  0.025313776  0.025445442            2 
 1229000    1.0879423   -7.2687396    374.30983  0.025380379  0.025438199            4 
 1230000    1.0619498   -7.2668268    373.91375   0.02533291  0.025431049            6 
 1231000    1.0586768   -7.2295669    374.59931   0.02535874  0.025423902            6 
 1232000    1.0699719   -7.2689039     373.8744  0.025289123  0.025416729            2 
 1233000     1.059119   -7.3319247    373.99197  0.025276559  0.025409346            5 
 1234000    1.0897522   -7.2573812    375.51566  0.025358972  0.025402188            2 
 1235000    1.0550945    -7.340476     374.1543  0.025246579  0.025395045            7 
 1236000    1.0741487   -7.3221719    374.42928  0.025244693   0.02538795            4 
 1237000    1.0640404   -7.2631093     375.4982  0.025296295  0.025380847            7 
 1238000    1.0623456   -7.2743965    375.52697  0.025277798  0.025373972            7 
 1239000    1.0273358      -7.2098    377.27436  0.025374923  0.025367188            5 
 1240000    1.0674356   -7.2782424    375.31005   0.02522245  0.025360339            3 
 1241000    1.0539259   -7.3270585     376.2014  0.025261979  0.025353221            2 
 1242000    1.0687795   -7.3019043    376.24245  0.025244394  0.025346026            2 
 1243000    1.0658241   -7.3200712    376.13327  0.025216765  0.025338891            8 
 1244000    1.0423226   -7.2844233    376.20808  0.025201506   0.02533192            3 
 1245000    1.0498866   -7.2702215    376.64171  0.025210288  0.025324702            2 
 1246000    1.0638301   -7.2666947    378.20899  0.025294876  0.025317603            2 
 1247000    1.0358148   -7.3160947    376.40395  0.025153966   0.02531061            2 
 1248000    1.0616623   -7.2839197    377.55079  0.025210389  0.025303445            4 
 1249000    1.0559272   -7.2944419    378.17789  0.025232045  0.025296426            2 
 1250000     1.053373   -7.2756106    378.13705  0.025209136  0.025289472            2 
 1251000    1.0729467   -7.2951207    378.26169  0.025197288  0.025282561            5 
 1252000    1.0621936   -7.2901707    378.27865  0.025178292  0.025275566            2 
 1253000    1.0405739   -7.3325763    377.18251  0.025085296   0.02526853            7 
 1254000    1.0299629   -7.2952258    378.77094  0.025170849  0.025261433            3 
 1255000    1.0256467   -7.3284607    379.23116  0.025181352  0.025254535            3 
 1256000    1.0560228   -7.2868835    379.75191  0.025195854  0.025247507            6 
 1257000    1.0498126   -7.2923622    379.27905  0.025144461  0.025240391            5 
 1258000    1.0327505   -7.2529415    380.64008  0.025214632  0.025233393            4 
 1259000    1.0353389   -7.3012174    378.64911  0.025062822   0.02522646            3 
 1260000    1.0515544   -7.3444584    380.02094   0.02513366  0.025219318           16 
 1261000    1.0357893   -7.3261567    378.53492  0.025015525  0.025212155            3 
 1262000    1.0417223   -7.2867296    380.35373  0.025115804   0.02520485            2 
 1263000    1.0594921   -7.2986518    379.69523   0.02505247  0.025197647            4 
 1264000    1.0613522   -7.2702311    381.37873   0.02514364  0.025190506            5 
 1265000    1.0785023   -7.2892335    380.66366  0.025076657  0.025183462            3 
 1266000    1.0340479   -7.2766559    381.45861  0.025109176  0.025176296            2 
 1267000    1.0426462   -7.2824565     381.5655  0.025096389  0.025169176            2 
 1268000    1.0190323   -7.2633253     382.2859  0.025123942  0.025162107            6 
 1269000    1.0429412    -7.288897    382.69305   0.02513088  0.025155118            4 
 1270000    1.0510472   -7.3127784    381.61732  0.025040507  0.025148238            2 
 1271000     1.044413   -7.3058176    382.80924  0.025098953  0.025141332            4 
 1272000    1.0438989   -7.3522828    380.91694   0.02495525  0.025134328            5 
 1273000    1.0395758   -7.2929614    382.77737  0.025057435  0.025127226            4 
 1274000    1.0637724   -7.2868808    382.76772  0.025037135  0.025120074           14 
 1275000    1.0462407   -7.2474407    383.81296  0.025085814  0.025113174            1 
 1276000    1.0349223   -7.3214647    382.69933  0.024993425  0.025106057            3 
 1277000     1.047457   -7.2798796     382.9502  0.024990225  0.025098859            6 
 1278000    1.0140754   -7.2979209    384.11836  0.025046841    0.0250918            3 
 1279000    1.0660655    -7.284209    383.25968  0.024971311  0.025084646            2 
 1280000    1.0646718   -7.3141443    383.35516  0.024958018  0.025077382            6 
 1281000    1.0407772    -7.310907    384.96641  0.025043352  0.025070149            2 
 1282000    1.0429313   -7.2662406    384.80422  0.025013275  0.025063053            4 
 1283000     1.019647   -7.2789502    384.58246  0.024979375  0.025055979            5 
 1284000    1.0565262   -7.3483997    383.33745  0.024879118  0.025048895            4 
 1285000    1.0507788   -7.3122464    385.04882  0.024970741  0.025041721            3 
 1286000    1.0592325   -7.3551303    384.00059  0.024883397  0.025034694            2 
 1287000    1.0513556    -7.272666    385.19085  0.024941132  0.025027801            4 
 1288000     1.033425   -7.2964072    386.90826  0.025032884  0.025020852            3 
 1289000    1.0445323   -7.3089885    386.85875  0.025010263  0.025014016            2 
 1290000    1.0459879   -7.3097035    386.70019  0.024980633  0.025007141            2 
 1291000    1.0518539   -7.3060186    386.31059  0.024936134  0.025000202            5 
 1292000    1.0170055   -7.3139653     386.1607  0.024907166  0.024993273            2 
 1293000    1.0358363   -7.3208618    385.41877  0.024840086  0.024986382            3 
 1294000    1.0539422   -7.2849423    387.16949  0.024933635  0.024979404            6 
 1295000    1.0501491   -7.3127952    387.67922  0.024947183  0.024972562            4 
 1296000    1.0480336   -7.3142842    386.67981  0.024863671  0.024965595            2 
 1297000    1.0305963   -7.3335352    387.29488   0.02488402  0.024958634            3 
 1298000    1.0508144    -7.268299    388.67805   0.02495365  0.024951677            6 
 1299000    1.0445129   -7.3025963    387.74547  0.024874613  0.024944698            4 
 1300000    1.0301155    -7.329972    387.33055  0.024828881  0.024937652            6 
 1301000    1.0515264    -7.325448    387.95955  0.024850086  0.024930535            2 
 1302000    1.0366723   -7.3526667    388.16078   0.02484388  0.024923442            2 
 1303000    1.0281292   -7.2767372    389.38138  0.024902877  0.024916619            8 
 1304000    1.0509971   -7.3046599    388.65721    0.0248375  0.024909658            6 
 1305000    1.0314751   -7.2836485    389.62998  0.024880586  0.024902743            2 
 1306000    1.0216306   -7.2868456    389.41163  0.024847603  0.024895777            4 
 1307000    1.0534915   -7.3539064    389.19594  0.024814839  0.024888969            3 
 1308000    1.0331421   -7.2981899    390.28437  0.024865212  0.024881866            4 
 1309000    1.0307878   -7.3282789    388.80256  0.024751882  0.024874687            3 
 1310000    1.0304313   -7.2962831    389.70945  0.024790678  0.024867465            3 
 1311000    1.0420214   -7.3462503     388.9742  0.024725032  0.024860325            2 
 1312000    1.0529243   -7.2706044    389.95401   0.02476842  0.024853276            4 
 1313000    1.0573511    -7.310161    390.41526  0.024778831  0.024846125            3 
 1314000     1.055367   -7.3278548    390.17615  0.024744809  0.024838932            3 
 1315000    1.0006985   -7.2951442    391.59306  0.024815783  0.024831708            3 
 1316000    1.0344761   -7.3080159    389.73101  0.024679015  0.024824668            4 
 1317000      1.03972     -7.27876    391.49119  0.024771652  0.024817642            3 
 1318000    1.0510752   -7.3315367    391.79039  0.024771775  0.024810565            3 
 1319000    1.0336977   -7.2697746    391.30445  0.024722293  0.024803525            3 
 1320000    1.0328414   -7.3232983    391.33482  0.024705481  0.024796506            6 
 1321000    1.0501425   -7.3506373    390.65763  0.024644059  0.024789422            3 
 1322000    1.0360774   -7.2886704     393.3046  0.024792272  0.024782374            3 
 1323000    1.0228445   -7.3278484    391.07718  0.024633232  0.024775298            4 
 1324000    1.0489249   -7.3561118    392.27925  0.024690285  0.024768039            2 
 1325000    1.0593485   -7.3306852    391.31875  0.024611242    0.0247609            5 
 1326000    1.0378808   -7.3104228    392.35941  0.024658083  0.024753739            5 
 1327000    1.0606112   -7.3520201    391.29643  0.024572747  0.024746719            4 
 1328000    1.0442822    -7.318369    393.16258  0.024671347  0.024739644            4 
 1329000    1.0295633   -7.3884183     391.7188  0.024562252  0.024732555            3 
 1330000    1.0302245   -7.3611263    391.89511  0.024554832  0.024725343            4 
 1331000    1.0317954   -7.3305863    393.03335  0.024607648     0.024718            5 
 1332000    1.0357308   -7.3208315    393.96605  0.024647525   0.02471092            4 
 1333000    1.0332148   -7.3454031    394.24109   0.02464623  0.024703801            3 
 1334000    1.0423202   -7.3419803    393.23383  0.024564832  0.024696596            3 
 1335000    1.0295919   -7.3544469    394.64898  0.024634768  0.024689416            3 
 1336000    1.0397474   -7.3173137    394.48876  0.024606335  0.024682255            4 
 1337000     1.046473   -7.3621354    394.72801  0.024602843  0.024675094            3 
 1338000    1.0424915   -7.3103521    395.57451  0.024637177  0.024667928            4 
 1339000    1.0208508   -7.3348854    394.01722  0.024521859  0.024660837            2 
 1340000    1.0335882   -7.3114447    393.90153  0.024496364  0.024653655            2 
 1341000    1.0400265   -7.2978934    396.32105  0.024628452   0.02464656            3 
 1342000    1.0403033    -7.312632    395.03673  0.024530348  0.024639413            2 
 1343000    1.0297967   -7.3681708    394.68718  0.024490394  0.024632176            6 
 1344000    1.0390153   -7.3612127    394.25367  0.024445292  0.024624859            4 
 1345000    1.0261454   -7.3581235    394.77378  0.024459342  0.024617415            3 
 1346000    1.0403111   -7.3226077    395.62363  0.024493786  0.024609949            4 
 1347000    1.0300106   -7.3530368    395.43689  0.024464049  0.024602661            5 
 1348000    1.0223661   -7.3336985    395.26685  0.024435389  0.024595293            3 
 1349000     1.050716   -7.3512374    396.50568  0.024493803  0.024587881            3 
 1350000    1.0212466   -7.3093235    396.35029  0.024466067  0.024580431            4 
 1351000     1.018244    -7.319328    396.56632  0.024461283  0.024572992            4 
 1352000    1.0430149   -7.3189525    396.05869  0.024411902  0.024565645            6 
 1353000    1.0466796   -7.3367131    397.10822  0.024458501  0.024558267            4 
 1354000    1.0407175   -7.3518768     395.6109  0.024348283  0.024550809            3 
 1355000    1.0391891   -7.3219191    396.34601  0.024375523   0.02454333            5 
 1356000    1.0486889   -7.3451993    397.12589  0.024405475  0.024535838            9 
 1357000     1.053459   -7.3093897    398.16712  0.024451432  0.024528532            4 
 1358000    1.0262448   -7.3585924    397.64056  0.024401114  0.024521246            3 
 1359000    1.0331714   -7.3211707    397.53244   0.02437653  0.024513915            2 
 1360000    1.0090692    -7.330821    397.74408  0.024371574  0.024506413            5 
 1361000    1.0265235   -7.3917674    395.56154   0.02422003  0.024498865            8 
 1362000    1.0190326   -7.3787476    396.68331  0.024270883   0.02449142            6 
 1363000    1.0461782   -7.3058008    398.88377  0.024387611  0.024484004            2 
 1364000    1.0348466   -7.3406498    397.52474  0.024286702  0.024476699           11 
 1365000    1.0343835   -7.3874126    397.29472  0.024254867  0.024469332            1 
 1366000    1.0362561   -7.3674115    398.50616  0.024311015  0.024461902            5 
 1367000     1.033388   -7.3290277     398.4371  0.024289021  0.024454503            4 
 1368000    1.0466737   -7.3625435    398.45729  0.024272496  0.024447064            3 
 1369000    1.0215629   -7.3466315    399.66582  0.024328331  0.024439698            4 
 1370000    1.0431768   -7.3257338    400.06371  0.024334776  0.024432446            4 
 1371000    1.0154342   -7.3290503    400.48652  0.024342726  0.024425152            3 
 1372000    1.0423833   -7.3146092    399.97183  0.024293721  0.024417899            3 
 1373000    1.0485662   -7.3278184    399.23511  0.024231313  0.024410777            4 
 1374000    1.0338538   -7.3674319     400.7421  0.024305076  0.024403648            8 
 1375000    1.0433792   -7.3320116    399.75984  0.024227869  0.024396417            1 
 1376000    1.0567388   -7.3588587    399.86437  0.024216592  0.024389015            5 
 1377000    1.0327296   -7.3561623    400.34159  0.024227886  0.024381655            3 
 1378000    1.0408339   -7.3152771    400.21777  0.024202816  0.024374274            2 
 1379000    1.0148601   -7.3531576    401.83038  0.024282716  0.024366948            8 
 1380000    1.0274885   -7.3229894    401.00896  0.024215517  0.024359507            3 
 1381000    1.0247103   -7.3014416    401.18183  0.024208414  0.024352202            4 
 1382000    1.0282202   -7.3233134    401.02076  0.024181184  0.024344914            5 
 1383000    1.0356978   -7.3510414    401.18435  0.024173557  0.024337473            3 
 1384000    1.0374474   -7.3219416    401.21664  0.024158034  0.024329982           10 
 1385000    1.0305046   -7.3280859    402.43905  0.024214143  0.024322562           10 
 1386000    1.0366093   -7.3238856    401.83547  0.024160382  0.024315052            7 
 1387000    1.0168202   -7.3811455    400.46277  0.024060489  0.024307504            5 
 1388000    1.0355514   -7.3392928    401.35579  0.024096769  0.024299768            4 
 1389000    1.0440916   -7.3410619    402.46048  0.024145697  0.024292143            4 
 1390000    1.0364659    -7.366162    402.27054  0.024116939   0.02428456            3 
 1391000    1.0115075   -7.3632298    401.65404  0.024062667  0.024277012            4 
 1392000     1.032865    -7.344327     402.4737   0.02409445  0.024269497           12 
 1393000    1.0184459   -7.3593935    402.40763  0.024073201  0.024261944            6 
 1394000    1.0363188   -7.3465812    402.49232  0.024060995  0.024254451            3 
 1395000    1.0318877   -7.3592499    403.19154  0.024085516    0.0242469            2 
 1396000    1.0231353   -7.3517346     404.2146  0.024129334  0.024239387            7 
 1397000    1.0185481   -7.3652601    402.95526   0.02403694  0.024231959            3 
 1398000    1.0285899   -7.4000158    403.74788  0.024066993  0.024224378            4 
 1399000    1.0529525   -7.3296527    405.17041  0.024134525   0.02421696            5 
 1400000    1.0082167   -7.3519395    403.79654  0.024035508  0.024209456            6 
 1401000    1.0422722   -7.3606838    404.00694  0.024030867  0.024201998            2 
 1402000    1.0277742   -7.3589542    404.09538  0.024018984  0.024194458            9 
 1403000    1.0330449   -7.3698281    404.64039  0.024034235  0.024186907            1 
 1404000    1.0435408   -7.3579329    404.63526  0.024016812  0.024179417            5 
 1405000     1.023954    -7.329455    404.22545  0.023975412  0.024171904            6 
 1406000    1.0482066   -7.3831003    404.30631  0.023963152  0.024164409            8 
 1407000   0.99748107   -7.3429836    404.79545  0.023975092  0.024156884            4 
 1408000    1.0009496   -7.3569947    404.77837  0.023957053  0.024149363            4 
 1409000     1.017858   -7.4204739    404.66502  0.023933346   0.02414178            5 
 1410000    1.0295502   -7.3693218    404.86796  0.023928367  0.024134164            6 
 1411000    1.0171029   -7.3302442    406.47112   0.02400609   0.02412678            3 
 1412000    1.0266272   -7.3766765     405.1039  0.023908398  0.024119371            4 
 1413000     1.011617    -7.396044    406.80078  0.023991553  0.024111965            3 
 1414000    1.0258278   -7.3461583     407.7045  0.024027846  0.024104633            9 
 1415000    1.0310338   -7.3741352     406.6164  0.023946784  0.024097278            2 
 1416000    1.0266645   -7.3707634     407.7106  0.023994268  0.024090024            3 
 1417000    1.0334669   -7.3994195    405.72365  0.023860483  0.024082729            9 
 1418000    1.0335563   -7.3346586    407.88247  0.023970526  0.024075372            7 
 1419000    1.0427286   -7.3783394    408.76657  0.024005554  0.024068117            2 
 1420000     1.030247   -7.3528353    408.32421  0.023962688  0.024060799            4 
 1421000    1.0335061    -7.396288    407.91974  0.023922105  0.024053685            2 
 1422000    1.0352081   -7.3810848    407.94899  0.023906997  0.024046403            3 
 1423000    1.0418628   -7.3819541     408.1967  0.023904702  0.024039149            7 
 1424000    1.0231995   -7.3680305    408.69069  0.023916824  0.024031912            3 
 1425000    1.0201331   -7.3884042    408.77201  0.023904796  0.024024601            4 
 1426000    1.0338938   -7.3829088    407.43657  0.023809991   0.02401717            5 
 1427000     1.022934   -7.3469104    408.82792  0.023874557  0.024009773            3 
 1428000    1.0404555   -7.3749043    409.46717  0.023895143  0.024002497            4 
 1429000    1.0480917   -7.3693409     409.9928  0.023909074  0.023995066            4 
 1430000    1.0272292   -7.3593744     408.8334   0.02382479  0.023987567            2 
 1431000    1.0265251   -7.4108999    408.89421  0.023811682  0.023980232            6 
 1432000    1.0117246   -7.3754879    408.86343  0.023793263  0.023972806            5 
 1433000    1.0454807   -7.3770228     407.9442  0.023723203   0.02396538            4 
 1434000    1.0443683   -7.3814572    409.14653   0.02377653  0.023957846            3 
 1435000    1.0033452   -7.3589409    411.12365  0.023874776  0.023950371            1 
 1436000    1.0354283    -7.381016    410.51527  0.023822845   0.02394287            4 
 1437000    1.0013566   -7.4022347    410.12276  0.023783505  0.023935384            2 
 1438000    1.0054023   -7.3643199    410.97418  0.023816306  0.023927879            7 
 1439000    1.0585829   -7.3778948    410.95093  0.023798409  0.023920494            4 
 1440000    1.0202579   -7.3796361    411.25553   0.02379951  0.023913045            2 
 1441000   0.98015899   -7.4112683    410.66704  0.023748962  0.023905607            8 
 1442000   0.99919702    -7.414695    410.68606  0.023733591  0.023898217            5 
 1443000    1.0182127   -7.3759783    411.79821  0.023781371  0.023890835            7 
 1444000    1.0371955   -7.3960491    410.92426  0.023714466  0.023883426            3 
 1445000    0.9863506   -7.3987269    413.06795  0.023821681  0.023876029            7 
 1446000    1.0420615   -7.3873476    410.61789  0.023664009  0.023868678            4 
 1447000    1.0203331   -7.3829288    411.05856  0.023673034  0.023861287            6 
 1448000    1.0231923   -7.3987149     412.3416  0.023730525  0.023853885            4 
 1449000    1.0322606   -7.3517803    411.93895  0.023690991  0.023846438            3 
 1450000    1.0148488   -7.3922921    412.49551  0.023706638  0.023839003            5 
 1451000    1.0529652   -7.3604136    412.75459   0.02370518   0.02383161            3 
 1452000    1.0119056   -7.4029699    411.37654  0.023609764  0.023824139            6 
 1453000    1.0292294   -7.3749538    414.16674  0.023753541  0.023816691            3 
 1454000    1.0453807   -7.3722301    411.92837  0.023608916  0.023809243            2 
 1455000     1.024894   -7.4068366    412.86356  0.023646252  0.023801714            4 
 1456000     1.005553   -7.4323794    411.65183  0.023560659  0.023794084            3 
 1457000    1.0121136   -7.3744473    413.43595  0.023646531  0.023786429            4 
 1458000    1.0088347   -7.3664106    413.89731  0.023656682  0.023778952            3 
 1459000    1.0170567    -7.355187    413.79626  0.023634696  0.023771487            3 
 1460000    1.0073758   -7.3706631    413.14539  0.023581358  0.023763808            6 
 1461000    1.0215889   -7.3956606    413.94086   0.02361059   0.02375636            7 
 1462000    1.0102673   -7.3934735     413.9924  0.023597378   0.02374875            7 
 1463000    1.0259168   -7.3893768    414.78096  0.023626166  0.023741169            6 
 1464000     1.023695   -7.3561755    413.77468  0.023552748  0.023733614            2 
 1465000    1.0200242   -7.3973129    413.30013  0.023509678  0.023725998            3 
 1466000    1.0368774    -7.377554    413.69842  0.023516281    0.0237184           10 
 1467000   0.99252803   -7.3623854    416.23216  0.023644181  0.023710937            3 
 1468000   0.98866778   -7.4026314    414.04574  0.023503959  0.023703375            3 
 1469000    1.0025961   -7.3871135    414.47401  0.023512254  0.023695711            6 
 1470000   0.98917587   -7.4274821    414.42836  0.023493671  0.023688067            2 
 1471000    1.0341933   -7.4261323    413.97628  0.023452089   0.02368034            3 
 1472000     1.003559   -7.3934509     415.1365   0.02350184  0.023672661            5 
 1473000     1.027372   -7.3702559    414.96221  0.023476024  0.023665041            5 
 1474000    1.0232701   -7.3854122    415.12511  0.023469308  0.023657576            3 
 1475000     1.019935   -7.4304855    415.06604  0.023450059  0.023650084            3 
 1476000    1.0213397   -7.3862367    416.08858  0.023491903  0.023642467            7 
 1477000   0.99798813   -7.3659169    416.33322    0.0234898  0.023634895            7 
 1478000    1.0272016   -7.3801191    417.25467  0.023525861  0.023627349            8 
 1479000    1.0118204   -7.4304775    415.41312  0.023406194  0.023619763            5 
 1480000    1.0222428   -7.4340384    415.15684  0.023375948  0.023612072            5 
 1481000   0.99851619   -7.3751007    414.48361  0.023322283  0.023604443            6 
 1482000    1.0158926   -7.4106849    415.69515  0.023374671  0.023596663            5 
 1483000    1.0141179    -7.379557    416.33702  0.023394978  0.023588953            4 
 1484000    1.0238489   -7.4075158    416.25939  0.023374853  0.023581286            8 
 1485000    1.0182441   -7.3853239    416.56199  0.023376094  0.023573527            9 
 1486000    0.9855317   -7.4013251    414.94815   0.02326986  0.023565897            7 
 1487000     1.018753   -7.3872629    417.83991   0.02341627  0.023558267            6 
 1488000     1.024442   -7.3929049    416.82995  0.023343971  0.023550624            3 
 1489000    1.0420362   -7.3878191    418.72696  0.023434462  0.023543031            2 
 1490000   0.97141668   -7.3853819    418.75186  0.023420126  0.023535442            1 
 1491000     1.031366    -7.396462    417.41752  0.023329842  0.023527955            4 
 1492000     0.999821    -7.394725    417.34966  0.023310415  0.023520401            7 
 1493000    1.0257939   -7.3918811    418.27968  0.023346711  0.023512718            6 
 1494000    1.0116636   -7.4104803    418.90605  0.023366022  0.023505215           18 
 1495000    1.0103013   -7.3912927    418.26257  0.023314525  0.023497741            4 
 1496000    1.0055311   -7.4306604    418.13445  0.023291803  0.023490242            4 
 1497000    1.0044285   -7.4122783    419.41093  0.023347302  0.023482798            6 
 1498000    1.0162274   -7.3705685    420.74958  0.023406185   0.02347527            3 
 1499000    1.0064704   -7.4120408    419.19773  0.023304299  0.023467858            5 
 1500000    1.0216053   -7.3913707    420.09954  0.023338863  0.023460391            2 
 1501000    1.0110655   -7.4194885    419.87516  0.023310857  0.023453022            5 
 1502000    1.0131229   -7.4412074    419.46819  0.023272758  0.023445596            3 
 1503000   0.99657207   -7.4170436    420.26393  0.023301393  0.023438198            3 
 1504000   0.99589019   -7.4247026     420.3237  0.023289212  0.023430831            3 
 1505000    1.0011152   -7.4067267    419.24681  0.023214109  0.023423424           16 
 1506000    1.0100864   -7.3781084    421.44885  0.023320543  0.023416019            6 
 1507000    1.0251244   -7.4261386    421.72635  0.023320413  0.023408642            3 
 1508000     1.017141   -7.4343597    420.37483  0.023230262  0.023401159            3 
 1509000    1.0035309   -7.4335738     420.7615  0.023236222  0.023393631            6 
 1510000    1.0034286   -7.4152551     421.5424  0.023263929  0.023386154            4 
 1511000    1.0158029   -7.4394109    421.43863   0.02324281  0.023378643            4 
 1512000     1.015759   -7.4173392    420.77617  0.023190926  0.023371028            7 
 1513000    1.0088005   -7.4054411    422.26582  0.023257646  0.023363474            3 
 1514000     1.008503   -7.3796104    422.49057  0.023254655  0.023356052            4 
 1515000    1.0149584   -7.4336627    421.25104  0.023171124  0.023348548            3 
 1516000    1.0189272   -7.4297616    420.47393  0.023113123  0.023340986            5 
 1517000    1.0084735   -7.3984069    421.15225  0.023135149  0.023333425            6 
 1518000   0.99247731   -7.4354332    422.12505  0.023173312  0.023325774            3 
 1519000   0.98927229   -7.4319466    422.55109  0.023181429  0.023318219            6 
 1520000    1.0154538   -7.4132232    422.07409  0.023140027  0.023310572            7 
 1521000   0.98701357   -7.4424953    422.25342  0.023134639  0.023302932            3 
 1522000    1.0216065   -7.4662111    420.93162  0.023047066  0.023295298            6 
 1523000     1.011389   -7.4308857    423.13514  0.023152503  0.023287706            4 
 1524000    1.0118041   -7.4134033    422.99645  0.023129727  0.023280183            4 
 1525000   0.99557117   -7.4517164     422.1969  0.023070869  0.023272633            5 
 1526000   0.99734411   -7.4162649    422.26911  0.023059694   0.02326495            4 
 1527000    1.0070316   -7.4509922    423.75763  0.023125825  0.023257251            4 
 1528000     1.013565   -7.4331125    423.90665  0.023118818  0.023249533            4 
 1529000    1.0018567   -7.4276732    423.09849  0.023059652  0.023241919            3 
 1530000   0.99142445   -7.4480207    422.50314  0.023012154  0.023234257            5 
 1531000   0.99484977   -7.4237134    424.28768  0.023094256  0.023226602            4 
 1532000    1.0081989   -7.4132313    423.21721  0.023020953   0.02321907            3 
 1533000    1.0274232   -7.4327565    425.51981  0.023131105  0.023211527            3 
 1534000     0.998549   -7.4078472    423.98964  0.023032901  0.023203973            4 
 1535000    1.0092537   -7.4138893    423.52911  0.022992894  0.023196324            6 
 1536000    1.0204865   -7.4954951    422.80574  0.022938679  0.023188589            4 
 1537000    1.0242613   -7.4067386    426.09723  0.023102214  0.023180938            4 
 1538000    1.0188442   -7.4368586    424.44542  0.022997693  0.023173352            5 
 1539000    1.0010587    -7.449895    424.89722  0.023007214  0.023165709            4 
 1540000    1.0184853   -7.3985169    426.06069  0.023055232  0.023158029            2 
 1541000   0.99047558   -7.4426275    424.03921  0.022930954   0.02315039            3 
 1542000    1.0160451   -7.4370486    425.62665  0.023001873  0.023142728            2 
 1543000    1.0119131   -7.4852818    424.16811  0.022908193  0.023135123            4 
 1544000   0.98690195   -7.3910948    425.81582  0.022982287  0.023127697            5 
 1545000    1.0013856   -7.3945227    425.60693  0.022956145  0.023120281            8 
 1546000    1.0323881   -7.4010787    428.32085  0.023087583  0.023112792            3 
 1547000    1.0011311   -7.4439709    425.94615   0.02294474   0.02310523            4 
 1548000    1.0000427   -7.4209056    425.63787  0.022913322  0.023097625            3 
 1549000    1.0172273   -7.4198374    426.03834  0.022920074  0.023090018            5 
 1550000    1.0207835   -7.4608941    424.81923  0.022839744  0.023082301            2 
 1551000    1.0066924   -7.4441357    426.02893  0.022890013  0.023074529            4 
 1552000    1.0052008   -7.4667498    425.28391  0.022835262  0.023066761            3 
 1553000    1.0058765   -7.4568608    425.41736  0.022827719  0.023059026            3 
 1554000   0.97855798   -7.4662355    426.16301  0.022853014  0.023051306            3 
 1555000   0.99868146   -7.4659684    425.94675  0.022826728  0.023043522            4 
 1556000    1.0020108   -7.4351183    426.94796  0.022865679  0.023035866           16 
 1557000   0.99148273   -7.4951452    426.59793  0.022832259  0.023028271            9 
 1558000   0.99231266   -7.4175182    427.69635  0.022876356  0.023020543            4 
 1559000    1.0051473    -7.445677    426.83309  0.022815538  0.023012855            4 
 1560000   0.97595994   -7.4525955    427.52319  0.022837777  0.023005166            2 
 1561000   0.98473396   -7.4372916    427.02624  0.022796617  0.022997545            5 
 1562000    1.0007524   -7.4687461    428.01982  0.022835031  0.022989965            7 
 1563000   0.99414035   -7.4374038    428.13213  0.022826409  0.022982459            3 
 1564000    1.0060093   -7.4369889    428.95969  0.022855908  0.022974791            5 
 1565000    1.0193329   -7.4210437    428.59173  0.022821711  0.022967213            6 
 1566000    1.0010533   -7.4720656    428.14583  0.022783409  0.022959712            6 
 1567000   0.99565806   -7.4424961    428.77991  0.022802591  0.022952144            9 
 1568000    1.0127204   -7.4622873    428.74924  0.022786418  0.022944529            2 
 1569000   0.98500825   -7.4441915    429.94219  0.022835255  0.022937023            5 
 1570000   0.99588702   -7.4291534    430.31995  0.022840762  0.022929605            4 
 1571000    1.0144038   -7.4625462    428.95376  0.022753753  0.022922162            3 
 1572000    1.0070182   -7.4627871    429.44389  0.022765261  0.022914664            4 
 1573000    1.0007493   -7.4249687    430.33865  0.022798191  0.022907074            5 
 1574000    1.0222545   -7.4007593    431.10856  0.022824469   0.02289962            4 
 1575000    1.0354305    -7.448688    429.94356  0.022748337  0.022892115            3 
 1576000   0.99143931   -7.4911264    429.48075   0.02270943   0.02288454            5 
 1577000   0.98326705   -7.4679762    429.81114  0.022712489  0.022876944            7 
 1578000    1.0085395   -7.4669549     429.1922   0.02266541    0.0228694            8 
 1579000   0.99165367   -7.4557283    430.60309  0.022725516   0.02286195            2 
 1580000   0.99040315   -7.4202168    432.45903  0.022809021  0.022854611            4 
 1581000    1.0144701   -7.4619681    430.40959  0.022686569  0.022847234            7 
 1582000   0.99996884   -7.4317495    431.19297  0.022713494  0.022839863            5 
 1583000     1.009721   -7.4648129    430.94689  0.022686191  0.022832381            9 
 1584000   0.98584027    -7.441278    431.24236  0.022687414  0.022824923            7 
 1585000    1.0164023   -7.4579288    432.79483  0.022754723  0.022817483            4 
 1586000   0.99409041   -7.4402202    432.32776  0.022715834  0.022809954            4 
 1587000   0.99231851   -7.5193424    429.84778  0.022571297  0.022802385            5 
 1588000    1.0157436    -7.479071    431.14968  0.022625403  0.022794866            3 
 1589000   0.97304464    -7.492384    431.39732  0.022624152  0.022787337            2 
 1590000    1.0127965   -7.4542792    432.88369  0.022687824  0.022779863            2 
 1591000    1.0012523   -7.4112108     432.2629  0.022641049  0.022772456            2 
 1592000    1.0065494   -7.4295186    433.11942  0.022671662   0.02276515            2 
 1593000    1.0112068   -7.4390703    433.45215  0.022674835  0.022757821            5 
 1594000   0.99200651   -7.4171833    433.49356  0.022662775  0.022750363            4 
 1595000   0.98511177   -7.4568994    433.51715  0.022649799  0.022742919            3 
 1596000   0.99216368   -7.4587647    433.03862  0.022610622  0.022735425            6 
 1597000    1.0217489   -7.4201496    434.04134  0.022648786     0.022728            7 
 1598000   0.96900829   -7.4961276    432.06716  0.022531662  0.022720562            6 
 1599000   0.97529723   -7.4696239    433.99373  0.022617976  0.022712975            5 
 1600000    1.0186604   -7.4705629    432.46832  0.022524392  0.022705382            3 
 1601000   0.98982299   -7.4938293    432.50636  0.022512303  0.022697775            2 
 1602000   0.96454343   -7.4928993    433.24773  0.022536815  0.022690126            5 
 1603000    1.0083451   -7.4747955    433.55789   0.02253888  0.022682569            4 
 1604000    1.0086961   -7.4148423    435.10986  0.022605458  0.022675092            6 
 1605000   0.97790433   -7.4675843     434.5027  0.022559849  0.022667779            4 
 1606000    1.0035052   -7.4793404    434.37139  0.022538988  0.022660394            2 
 1607000   0.99808321   -7.5060703    435.02587  0.022558902  0.022652986            7 
 1608000   0.99421869   -7.4598962    435.52528  0.022570754  0.022645612            5 
 1609000    1.0046847   -7.4947672    435.44684  0.022552664  0.022638343            2 
 1610000   0.99847401    -7.450232    436.79703  0.022608542  0.022631094            3 
 1611000   0.99821534   -7.4480045    437.12023  0.022611226  0.022624025            4 
 1612000    1.0037211   -7.4221687    437.60229   0.02262212  0.022616884            3 
 1613000    1.0004877   -7.4189607    437.19976  0.022587299  0.022609709            5 
 1614000    1.0049403   -7.4380602    437.71544   0.02259993  0.022602527            5 
 1615000   0.99033248   -7.4642563    435.97933  0.022496354  0.022595273            4 
 1616000    0.9858403   -7.4741532    436.99797  0.022534961  0.022587951            5 
 1617000     1.001291   -7.4147832    438.22272  0.022584144  0.022580629            2 
 1618000   0.98818547   -7.4147797    437.25756  0.022520476  0.022573465            3 
 1619000    1.0006793   -7.4569784     437.9909  0.022544312  0.022566237            4 
 1620000    1.0155546   -7.4662623    437.81936  0.022521572  0.022558925            5 
 1621000    1.0157412   -7.4344811    437.30011  0.022480984  0.022551608            2 
 1622000   0.99038517   -7.4365535    437.28789  0.022466497  0.022544335            7 
 1623000   0.99884995   -7.4648232    437.44981  0.022460968   0.02253706            2 
 1624000   0.99953197   -7.4649667    436.69022   0.02240816   0.02252972            3 
 1625000    0.9806584    -7.504816    438.17492  0.022470509  0.022522404            2 
 1626000   0.98428839   -7.4569436    438.24442  0.022460251  0.022515038            7 
 1627000   0.97138355    -7.536242    436.65102  0.022364834  0.022507632            4 
 1628000    1.0067742   -7.5116915    436.94444  0.022366116  0.022500317            8 
 1629000   0.99632298   -7.4772581     438.5525  0.022434648  0.022493106            4 
 1630000   0.99851863   -7.4335446    440.65705  0.022528479  0.022485941            5 
 1631000   0.97791592    -7.466299    439.37856  0.022449344  0.022478848            6 
 1632000   0.99271988   -7.4447231    440.77558  0.022506923  0.022471759            9 
 1633000   0.97144657   -7.4950702    438.21559  0.022362502  0.022464687            8 
 1634000   0.98742508   -7.4547669    439.00971  0.022389316  0.022457462            5 
 1635000   0.99032869   -7.4617878    438.89566  0.022369809    0.0224503            3 
 1636000   0.97702986   -7.4467798    439.85493  0.022404999  0.022443064            4 
 1637000    1.0286256   -7.4735622    439.53744   0.02237515  0.022435839            3 
 1638000   0.96766263   -7.4799404    440.13383  0.022391831  0.022428562            7 
 1639000    0.9721948   -7.4547053    439.70846  0.022356542  0.022421199            7 
 1640000   0.99680074   -7.5043887     438.7043  0.022291885  0.022413816            5 
 1641000   0.97820448    -7.455911    439.04613   0.02229566  0.022406466            4 
 1642000    1.0151939   -7.4891705    439.27535  0.022293714  0.022399165            6 
 1643000   0.98981623   -7.4373151    440.81458  0.022358216  0.022391981            2 
 1644000   0.99812908   -7.4210293    440.39174  0.022323183   0.02238484            2 
 1645000   0.99591157   -7.4793742    440.90234  0.022335478  0.022377649            4 
 1646000   0.97865124   -7.5008524    441.11706  0.022332779  0.022370407            4 
 1647000   0.99172297   -7.4751792    440.71897  0.022299078  0.022363207            4 
 1648000   0.97853433   -7.4883748    440.69234    0.0222842  0.022356005            4 
 1649000   0.96105392   -7.4756035      440.432   0.02225753  0.022348724            7 
 1650000   0.99602243   -7.5008961    441.49301  0.022297627  0.022341529            3 
 1651000   0.99581395   -7.4902079    442.77947  0.022349054  0.022334381            3 
 1652000   0.99018195   -7.4758389    442.42822  0.022317808  0.022327336            4 
 1653000   0.99298082   -7.4277958    442.97607  0.022331925  0.022320331            6 
 1654000    1.0093134   -7.4442227    442.81866  0.022310493  0.022313407            3 
 1655000     1.000952   -7.4289516    443.69518  0.022341147  0.022306485            5 
 1656000   0.97989815   -7.4825736    443.28603  0.022307067  0.022299482            5 
 1657000   0.99663894   -7.4440248    444.14399  0.022336753  0.022292631            5 
 1658000    1.0029623   -7.4702962    444.33181  0.022332721   0.02228565            6 
 1659000   0.99393243   -7.4868569    442.52106  0.022228303  0.022278568            3 
 1660000    0.9849258   -7.5557394    442.44633  0.022211161  0.022271442            3 
 1661000   0.98632291   -7.4769643    443.21037  0.022236121  0.022264318            3 
 1662000   0.97172198    -7.461663    443.61227  0.022242894  0.022257253            3 
 1663000   0.99330149    -7.468721     443.8138  0.022239617  0.022250249            4 
 1664000   0.98519013   -7.4560141    443.71214  0.022221161  0.022243253            5 
 1665000   0.99627496   -7.4502336    444.73454  0.022258986  0.022236311            4 
 1666000   0.98676506   -7.4196307    445.53759  0.022285794  0.022229482            3 
 1667000   0.95444618   -7.5120572    443.68094  0.022179611  0.022222448            5 
 1668000   0.97934834   -7.4447661    444.65195  0.022214826  0.022215261            3 
 1669000   0.97319084   -7.4889118    443.66983  0.022152478  0.022208077            2 
 1670000   0.97720994   -7.4787416    444.65487  0.022188367   0.02220087            6 
 1671000   0.97333012    -7.464807    445.07746  0.022196163  0.022193715            5 
 1672000   0.98954595   -7.4743406    445.67483  0.022212661  0.022186584            3 
 1673000   0.97202006   -7.4833211    444.63952  0.022147814  0.022179473            9 
 1674000   0.98369439   -7.4937478    443.49626  0.022077671  0.022172309            5 
 1675000   0.99244229   -7.4398772    445.30817  0.022154635  0.022165098            3 
 1676000   0.97720114   -7.4740256    444.77592  0.022114952   0.02215797            6 
 1677000   0.98412956   -7.5279052    443.98183  0.022062305  0.022150751            3 
 1678000   0.97261324   -7.5251255    444.34014  0.022066952  0.022143504            3 
 1679000   0.97366878   -7.4874144     444.3661  0.022055097  0.022136218            3 
 1680000   0.96934595   -7.4749779    444.14781  0.022031141  0.022128888            2 
 1681000   0.99086949   -7.4465246    445.22101  0.022071238  0.022121596            2 
 1682000    1.0007357   -7.4912028     444.7023  0.022032417  0.022114291            7 
 1683000   0.99463485   -7.4624481    445.40529  0.022054134  0.022106991            7 
 1684000   0.98601705   -7.4760596    445.45308  0.022043403  0.022099636            4 
 1685000   0.97120144   -7.5409647    443.81993  0.021949551  0.022092233            5 
 1686000   0.97381413    -7.541568    445.58631  0.022023839  0.022084791            5 
 1687000    1.0066996   -7.5070749    444.75713  0.021969825   0.02207739            7 
 1688000   0.97454407   -7.5332382    446.18019  0.022027063  0.022070052            7 
 1689000   0.97679983   -7.4936715     445.4561  0.021978296  0.022062759            8 
 1690000   0.99905429   -7.4925556    444.91741  0.021938728  0.022055492            3 
 1691000   0.98391439    -7.496887    446.03768  0.021980962  0.022048198            5 
 1692000   0.96708831   -7.5085411    445.40332  0.021936728  0.022040802            3 
 1693000   0.97528514   -7.5262619    445.17474  0.021912519   0.02203346            3 
 1694000   0.95968608   -7.5185544    446.64442  0.021971882  0.022026108            5 
 1695000   0.96496657   -7.5376922     444.5494   0.02185592  0.022018671            9 
 1696000   0.97922247   -7.5285293    446.17037  0.021922679  0.022011265            6 
 1697000    1.0023156   -7.5094431    446.06011  0.021904347   0.02200395            4 
 1698000   0.97116454   -7.5334617     445.5936  0.021868551  0.021996506            5 
 1699000   0.97213281   -7.4938669    446.34678  0.021892622  0.021989116           11 
 1700000   0.98138113     -7.53348    445.80944  0.021853404  0.021981776            5 
 1701000   0.96612387   -7.5038328    447.40122  0.021918539  0.021974324            6 
 1702000    0.9675221   -7.5508214    445.79588   0.02182706  0.021966871           26 
 1703000   0.95870709   -7.4852343    446.66275  0.021856662  0.021959346            7 
 1704000   0.98428173    -7.469956     448.0634  0.021912334  0.021951944           10 
 1705000   0.95819029   -7.4868602    447.17263  0.021855945    0.0219446            6 
 1706000   0.97872435   -7.5360487    446.06875  0.021789212  0.021937188            4 
 1707000   0.97565142   -7.4849704    447.83233  0.021862543  0.021929761            5 
 1708000   0.98171802   -7.4880012    447.64936  0.021840816  0.021922293            6 
 1709000   0.95897085   -7.5113713    447.87337  0.021838959  0.021914847            5 
 1710000   0.96149315   -7.4991238    447.30168  0.021798327  0.021907434           16 
 1711000     0.966456    -7.522105    447.69372  0.021804682   0.02190001           10 
 1712000    0.9658372   -7.5290837    448.03272  0.021808446  0.021892509            7 
 1713000    0.9930371   -7.5166969    448.88134  0.021836998  0.021885098            8 
 1714000   0.97930647   -7.5319355    447.90718  0.021776895  0.021877796            6 
 1715000    0.9397032   -7.5185148    448.18755  0.021777821  0.021870366            2 
 1716000   0.98190467   -7.5072719     449.1164  0.021810237  0.021863004            6 
 1717000   0.97777884   -7.5079426     447.9779  0.021742278  0.021855643            4 
 1718000   0.97206707   -7.5258845    448.60295  0.021759941  0.021848335            3 
 1719000   0.96982158   -7.5045108     448.6844  0.021751232   0.02184096            6 
 1720000   0.96469589   -7.5609187    448.23549  0.021716836  0.021833588            6 
 1721000   0.97532884   -7.5221032    449.33244  0.021757333  0.021826213            4 
 1722000   0.95405294   -7.5130125    448.70452  0.021714311  0.021818857            4 
 1723000   0.96714448   -7.5008688    449.97807  0.021763304  0.021811499            2 
 1724000   0.98374829   -7.4623718    450.37055  0.021769651  0.021804249            7 
 1725000   0.98361161   -7.5037039    449.98208  0.021738265  0.021797025            4 
 1726000    1.0151861   -7.5181845    449.56626  0.021705594  0.021789755            6 
 1727000   0.98201389    -7.526731    448.64141  0.021648398   0.02178244            3 
 1728000   0.96405848   -7.5566101    449.76191  0.021689907  0.021775059            7 
 1729000   0.96888328   -7.5468814    450.90188  0.021732306  0.021767748            3 
 1730000   0.97661599   -7.5512769    449.92105  0.021672498  0.021760469            3 
 1731000   0.97993909   -7.5572654    448.94325  0.021612904   0.02175312            7 
 1732000   0.96294849   -7.5597994    449.50452  0.021627431  0.021745783            5 
 1733000   0.97846486    -7.488978     452.1747   0.02174335  0.021738467            3 
 1734000   0.98923376   -7.4841484    450.80874  0.021665164  0.021731167            2 
 1735000   0.96827451   -7.5243879    450.62293  0.021643753  0.021723793            2 
 1736000   0.97157287   -7.5411351    450.22152  0.021612016   0.02171638            5 
 1737000   0.98276026   -7.5308595    450.99992  0.021636918  0.021708937            5 
 1738000   0.97605566   -7.5161749    450.59832  0.021605213  0.021701604            8 
 1739000   0.96935667   -7.5549443    450.15487  0.021571539  0.021694149            5 
 1740000   0.97690936    -7.583293     449.3309  0.021519679  0.021686736            6 
 1741000   0.96951939   -7.5502741    450.53736  0.021565066  0.021679373            5 
 1742000   0.96471242   -7.5445049    450.92259  0.021571115  0.021671977            4 
 1743000   0.97200638   -7.5132978    451.38072  0.021580642  0.021664575            9 
 1744000   0.99160292   -7.5488826     451.7619  0.021586482  0.021657269            9 
 1745000   0.99125572   -7.5529373    450.79613  0.021527991  0.021649946           12 
 1746000   0.98878211   -7.4713201    453.67089  0.021652868  0.021642642           15 
 1747000   0.96604696   -7.5230559    452.66529  0.021592506  0.021635392            5 
 1748000   0.98554496   -7.5141161    452.41353  0.021568151  0.021628147            3 
 1749000   0.97203255   -7.5459883    451.37307  0.021506245  0.021620918            5 
 1750000   0.97799951   -7.5022122     453.9514  0.021616733  0.021613644           10 
 1751000   0.96811979   -7.5098272    452.80568  0.021549861  0.021606385            8 
 1752000   0.96810447   -7.4869289    453.70329  0.021580255  0.021599156            6 
 1753000   0.98070987   -7.5430351    452.10949   0.02149218  0.021591898            7 
 1754000   0.97191521   -7.5207725    453.44651  0.021543449  0.021584686           11 
 1755000   0.98321606   -7.5213338     453.4254  0.021530171   0.02157744            6 
 1756000   0.95763347   -7.5647384    453.30666  0.021512275  0.021570168            4 
 1757000     0.983212   -7.5681329    452.88845  0.021480196  0.021562853            3 
 1758000   0.96302328   -7.5246102     452.5642  0.021452607  0.021555507            3 
 1759000   0.97907584   -7.5289631    453.01512  0.021461774  0.021548127            7 
 1760000   0.96467271   -7.4986608    454.83917  0.021535946   0.02154086            3 
 1761000   0.94687028   -7.5317667     454.5007  0.021507699    0.0215336            5 
 1762000   0.96796883   -7.5311643    453.67019  0.021456214  0.021526351            4 
 1763000   0.96314188   -7.5611347    454.49558  0.021483058   0.02151905            5 
 1764000   0.96124674   -7.4948932    455.40874  0.021514018  0.021511759            5 
 1765000   0.97278833   -7.5400945    453.72607  0.021422383  0.021504532            7 
 1766000   0.98439077   -7.5585339    453.62748    0.0214056  0.021497244            3 
 1767000   0.97519475   -7.5554823    454.33656  0.021426927   0.02148999            3 
 1768000   0.97069368   -7.5512536    454.50198  0.021422605  0.021482709            4 
 1769000   0.95735919   -7.5551174    454.10063  0.021391588  0.021475434            5 
 1770000   0.94751843   -7.5507163    454.28192  0.021388037  0.021468115            3 
 1771000   0.95404821   -7.5498123    454.74312  0.021397662  0.021460804            8 
 1772000   0.96995644   -7.5560413     455.0885  0.021401829  0.021453523           10 
 1773000   0.95471457   -7.5200104     454.3825  0.021356575  0.021446301            5 
 1774000   0.94981184   -7.5605043    454.57955  0.021353793  0.021439093            7 
 1775000   0.97483124   -7.5132174    456.67714  0.021440241  0.021431826            6 
 1776000   0.97995506   -7.5378376     456.3127  0.021411069  0.021424599            4 
 1777000   0.95648604   -7.5239199     457.2741  0.021444105  0.021417406            7 
 1778000    0.9680529   -7.5383579    455.89505  0.021367409  0.021410229            4 
 1779000   0.97941028   -7.5419521    456.04682  0.021362508  0.021403057            2 
 1780000   0.97521493   -7.5438291    455.67772  0.021333227  0.021395877            3 
 1781000   0.94936373   -7.5120852    456.38125  0.021354167  0.021388714            3 
 1782000   0.96211529   -7.5627538    455.92715  0.021320948   0.02138155            3 
 1783000   0.98960307   -7.5470033     455.0906  0.021269891    0.0213743            7 
 1784000   0.98726308   -7.5301959    457.95687  0.021391857  0.021367126            5 
 1785000    0.9597346    -7.533396    458.14542  0.021388675  0.021359975            5 
 1786000   0.97941917   -7.5352023    457.83256  0.021362102  0.021352808            7 
 1787000   0.98163414    -7.556092    456.92761  0.021307947  0.021345613            5 
 1788000   0.97560388   -7.5354735    456.37885  0.021270454  0.021338318            4 
 1789000   0.97538772   -7.5860158    457.28485  0.021300766  0.021331074            4 
 1790000   0.96543446   -7.5114519    458.70661  0.021355056  0.021323913            5 
 1791000   0.97970309   -7.5765871    456.52237  0.021241503  0.021316729            5 
 1792000   0.97310956   -7.5463978    458.29421  0.021312045  0.021309535            6 
 1793000   0.98421931   -7.5618044    458.17422  0.021294582  0.021302324            5 
 1794000   0.97222366   -7.5681058     458.5836  0.021301728  0.021295151            4 
 1795000   0.96911586   -7.5615372    459.65457  0.021339581  0.021287944            6 
 1796000   0.95622499   -7.5710377    458.35567  0.021267431  0.021280948            4 
 1797000   0.97017524   -7.5658616    459.13558  0.021291763  0.021273934            6 
 1798000   0.95324521   -7.5510423    459.34366  0.021289565  0.021266867            5 
 1799000   0.97796472   -7.5483236    459.63369  0.021291166  0.021259898            5 
 1800000   0.94838005   -7.5060547    460.94662  0.021340121  0.021252926            8 
 1801000   0.95074908   -7.5569567    459.02319  0.021239274  0.021245954            4 
 1802000   0.93942677   -7.5846544    459.58964  0.021253683   0.02123897            5 
 1803000   0.96070019   -7.5611521    459.70281  0.021247126  0.021231911            7 
 1804000   0.96764467   -7.5624209     458.3992  0.021175129  0.021224819            3 
 1805000   0.96323653   -7.5552558    461.42352  0.021303025  0.021217829            6 
 1806000    0.9717107   -7.5754114    459.54988  0.021204775   0.02121072           17 
 1807000   0.98028463    -7.563903    459.95493   0.02121172  0.021203527            2 
 1808000    0.9701691   -7.5265525    460.34711  0.021218064  0.021196462            3 
 1809000   0.96754233   -7.5679816    460.77319  0.021225962  0.021189447            8 
 1810000   0.97175751   -7.5685584    459.74261  0.021166787   0.02118239            4 
 1811000   0.96232431   -7.6187097    459.04435  0.021122968  0.021175273            4 
 1812000   0.94179453   -7.5947895    460.01332  0.021155874  0.021168171            2 
 1813000   0.95863259   -7.5615799    460.36729  0.021160475  0.021161077            3 
 1814000   0.94355868   -7.5705375    460.43267  0.021151813  0.021153945            2 
 1815000   0.95515786   -7.5902472    461.26318  0.021178291  0.021146853            9 
 1816000   0.95324431   -7.5558677    461.57329  0.021180859  0.021139783            6 
 1817000   0.95156821   -7.5710692    460.82185  0.021134739  0.021132694            6 
 1818000    0.9561535   -7.5842968    459.58195  0.021066279  0.021125663            3 
 1819000   0.95087876   -7.5369124    462.82196  0.021203132  0.021118628            3 
 1820000   0.94970005    -7.560072    462.47515  0.021175602  0.021111593            6 
 1821000   0.95939597   -7.5545557    461.95381  0.021140116  0.021104545            4 
 1822000   0.97709233   -7.6171277    460.16442  0.021046671  0.021097352            5 
 1823000    0.9691887   -7.5528254     461.8628  0.021112763  0.021090186            3 
 1824000    0.9885794   -7.5694233    461.46679  0.021083095  0.021083095            4 
 1825000   0.98074412   -7.5631487    461.47765  0.021072039   0.02107601            6 
 1826000   0.98064614   -7.5678818    462.52826  0.021108446  0.021068786           10 
 1827000   0.96346478   -7.5711283    461.20292   0.02103644  0.021061686            4 
 1828000   0.96908174   -7.5756714     461.2466  0.021026924  0.021054587            4 
 1829000   0.96466766   -7.5693591    461.64048  0.021033373  0.021047572            4 
 1830000   0.95669229   -7.5456695     462.0042  0.021038442  0.021040597            5 
 1831000   0.98283341   -7.5418547    462.87707  0.021066679  0.021033525            9 
 1832000   0.93832975   -7.5610976    463.42479  0.021080094  0.021026501            2 
 1833000   0.96561855   -7.5525447    462.43674  0.021023674  0.021019413            9 
 1834000   0.96936008   -7.5629166    463.44825  0.021058172  0.021012356            3 
 1835000   0.97253227   -7.5907515    462.19198  0.020989645  0.021005257            5 
 1836000   0.92988668   -7.6065693    462.58206  0.020995918  0.020998106            4 
 1837000   0.92333795   -7.6178745    462.79738  0.020994256  0.020990909            5 
 1838000   0.93946483   -7.6463432    461.58549  0.020927888  0.020983663            6 
 1839000   0.96768588   -7.6082441    463.95481  0.021023872   0.02097651            8 
 1840000   0.94722918    -7.562746    462.68587  0.020954976  0.020969392            8 
 1841000   0.94308573   -7.5864594    463.04469  0.020959836  0.020962404           10 
 1842000   0.94541745    -7.573445    464.90089  0.021032433  0.020955408           11 
 1843000   0.95046921   -7.5761168    464.45698  0.021000948  0.020948409            4 
 1844000   0.94563538   -7.5982178    464.41277  0.020987562  0.020941431            4 
 1845000   0.95660311   -7.5353356    463.91629  0.020953762  0.020934419            3 
 1846000   0.96199108   -7.6173888    463.41038  0.020919573   0.02092748            4 
 1847000   0.98253851   -7.6108158    464.27727  0.020947359   0.02092049           10 
 1848000   0.95451085   -7.5467834    464.91882  0.020964954  0.020913575            6 
 1849000   0.96231679   -7.5703622    464.63866  0.020940989  0.020906623            6 
 1850000    0.9786641   -7.6022108    464.64271  0.020929852  0.020899671            5 
 1851000   0.94876306   -7.5113291    466.40726  0.020997986  0.020892789            7 
 1852000   0.94790797   -7.5461189    465.78824  0.020958794  0.020885895            8 
 1853000   0.95778622   -7.5485356     465.1935  0.020920736  0.020878981            3 
 1854000   0.97613816   -7.5627873    466.60762  0.020973014  0.020872097            3 
 1855000   0.96718561    -7.569599    466.12327  0.020939949  0.020865155            7 
 1856000   0.93440198   -7.5912281    465.55588  0.020903191  0.020858254            9 
 1857000   0.95534561   -7.5915058    464.14205  0.020828489    0.0208513           13 
 1858000   0.93744735   -7.6220626    464.66799  0.020840868  0.020844312            8 
 1859000   0.94568845   -7.6167211    465.52088  0.020867889  0.020837373            5 
 1860000   0.95508999   -7.5618176    466.68377  0.020908771  0.020830453            4 
 1861000   0.93299904   -7.5773899    465.49793  0.020844435  0.020823476            3 
 1862000   0.94449841   -7.5971239    465.27502  0.020823264  0.020816556            3 
 1863000   0.96222857   -7.5626222    464.89302     0.020795  0.020809696            2 
 1864000   0.94047566   -7.5609147     467.1462  0.020884576  0.020802763            7 
 1865000   0.95466515   -7.5956672    466.83816  0.020859614   0.02079579            8 
 1866000   0.94779985   -7.5943734     467.1276  0.020861361  0.020788917            5 
 1867000   0.95031407   -7.6064917    465.72205  0.020787451  0.020782084           14 
 1868000   0.94205632   -7.5787918    467.60581  0.020860359  0.020775212            4 
 1869000   0.96346172   -7.5749669     468.5095  0.020889491  0.020768449            6 
 1870000    0.9510735   -7.5628016    468.27019  0.020867655  0.020761667            5 
 1871000   0.94477822   -7.6016974    467.13629  0.020805999  0.020754856            4 
 1872000   0.94330788   -7.5525427    468.20344   0.02084239  0.020748079            8 
 1873000   0.92995527   -7.6149593    466.56305  0.020758278  0.020741246           12 
 1874000   0.95887572   -7.5677826    469.98606  0.020899415  0.020734382            3 
 1875000   0.93333827   -7.5829766    467.84109  0.020792937  0.020727586            6 
 1876000   0.94797939   -7.5799842    468.16524  0.020796253  0.020720771            5 
 1877000   0.96851111   -7.6140316    467.59928  0.020760046  0.020713952            5 
 1878000    0.9529579   -7.6198294    468.64133  0.020795231  0.020707011           13 
 1879000   0.93848907   -7.6109025    468.18572  0.020763958  0.020700157            4 
 1880000   0.94271899   -7.5882555    469.31137  0.020802809  0.020693296           10 
 1881000   0.96234452   -7.5892918    467.73923  0.020722099  0.020686395            7 
 1882000   0.95749555   -7.5759257    468.69276   0.02075331  0.020679534            3 
 1883000   0.96115354   -7.5935725    469.15364  0.020762685  0.020672637            5 
 1884000   0.97636133   -7.6063916    468.83752  0.020737682  0.020665786            3 
 1885000   0.94161139   -7.5900831    468.79811  0.020724939  0.020658845            4 
 1886000   0.94818963   -7.5887686    466.57019  0.020615509  0.020651902            4 
 1887000   0.95242787   -7.6346878     468.3678  0.020683969  0.020644913            3 
 1888000   0.94804879   -7.6430529    468.52498  0.020679951  0.020637964            9 
 1889000   0.94870873   -7.6118203    468.62223  0.020673294  0.020631009            3 
 1890000   0.94953931   -7.5980299    468.39329  0.020652261  0.020624109            4 
 1891000   0.92747079   -7.6255937    468.73169  0.020656253  0.020617139            6 
 1892000     0.960188   -7.5805722    467.94674  0.020610762  0.020610189            5 
 1893000   0.96014817   -7.5958012    469.39005  0.020663411  0.020603219            5 
 1894000   0.95812499   -7.6162782    468.80841   0.02062691  0.020596209            7 
 1895000   0.95015193   -7.5916036    468.93701   0.02062168  0.020589211           13 
 1896000   0.93345499   -7.5951333    470.07885   0.02066099  0.020582172            8 
 1897000   0.95849889     -7.61823    469.43774  0.020621936  0.020575203            4 
 1898000   0.93194116   -7.6330292    468.38206   0.02056472  0.020568194            5 
 1899000   0.98878969   -7.6187524    468.81128  0.020572726  0.020561193            4 
 1900000   0.95601519   -7.6195882    469.09558  0.020574367  0.020554201            4 
 1901000   0.93370933   -7.6293344    469.04687  0.020561409  0.020547137            8 
 1902000   0.92986851   -7.6048887    470.43833  0.020611564  0.020540134            8 
 1903000   0.95539227    -7.574825    468.95088  0.020535596  0.020533149            7 
 1904000   0.95195402   -7.6134179    469.70861  0.020557975  0.020526188            9 
 1905000   0.91944592   -7.5954244    470.20874  0.020569061  0.020519175            4 
 1906000   0.94574258   -7.5761489    470.36915  0.020565283  0.020512147            7 
 1907000   0.93723405   -7.6179482    469.83421  0.020531123  0.020505149            4 
 1908000   0.94131384   -7.6034523    469.37087  0.020500125  0.020498113            4 
 1909000   0.94370864   -7.6091298    469.92338  0.020513505  0.020491025            6 
 1910000   0.91696704   -7.6329411    468.38779  0.020435768   0.02048397            5 
 1911000   0.95381166   -7.6389299    469.70943  0.020482707  0.020476919            6 
 1912000   0.93121767   -7.6159256    469.07133  0.020444183  0.020469893            8 
 1913000   0.91601695   -7.5583748    471.33168   0.02053196  0.020462909            3 
 1914000   0.96471441   -7.6200732    469.86594  0.020457416  0.020455961            7 
 1915000   0.95194917   -7.5638732    471.00068  0.020496113  0.020448982            4 
 1916000    0.9502623   -7.5981894    469.44172  0.020417611  0.020441962            4 
 1917000   0.91761092   -7.5973022    470.40882  0.020449001  0.020434927            4 
 1918000   0.92695356   -7.6201396    469.47933  0.020397955  0.020427878            9 
 1919000   0.94111319   -7.6965413    469.41944  0.020384725  0.020420693            4 
 1920000   0.96062108   -7.6069922     470.5673  0.020423928  0.020413505            3 
 1921000   0.94160829   -7.6113786    468.70282  0.020332414  0.020406395           24 
 1922000    0.9466463   -7.6402492    470.25518  0.020389142   0.02039922            7 
 1923000   0.94283095   -7.6193962    469.14978  0.020330637  0.020392008            9 
 1924000   0.94451517    -7.615671    468.63313  0.020297693  0.020384756            6 
 1925000   0.92222087   -7.5999369    469.91332  0.020342568  0.020377528           10 
 1926000   0.94220255   -7.5991868    471.21164  0.020388181  0.020370406            4 
 1927000   0.93251279   -7.6076455     470.1443  0.020331444  0.020363308            4 
 1928000   0.94236232   -7.5990314    470.67192  0.020343703  0.020356147            5 
 1929000   0.92805069   -7.6589575    468.82425  0.020253337  0.020348964           13 
 1930000   0.94578813   -7.6367004    468.32457  0.020221268  0.020341744            5 
 1931000    0.9363471   -7.6118133    471.57076  0.020350887  0.020334585            5 
 1932000   0.92812718   -7.5806092    471.44712  0.020335021  0.020327482            9 
 1933000    0.9440567   -7.6254996    470.25343   0.02027304  0.020320315            5 
 1934000   0.95766016   -7.6607558    469.47879  0.020229179  0.020313122            2 
 1935000   0.93955751   -7.6533315    471.18459  0.020292188  0.020305906            4 
 1936000   0.96142838   -7.6565221    470.32761  0.020244818  0.020298645           10 
 1937000   0.94292125   -7.6024749     472.0515  0.020308531  0.020291481            6 
 1938000   0.95786524   -7.6376755    471.28289  0.020265002   0.02028436            4 
 1939000   0.92205097   -7.6372435    471.61064  0.020268637  0.020277132            4 
 1940000   0.93163618   -7.6741186    469.51052  0.020167978  0.020269907            7 
 1941000   0.94024192   -7.6678166    469.74803  0.020167784  0.020262666            5 
 1942000   0.93702105   -7.6277201    471.88824  0.020249238  0.020255525           16 
 1943000   0.93693739   -7.6257985    472.35562  0.020258862  0.020248423            4 
 1944000   0.92364873   -7.6008238    472.35824  0.020248553  0.020241292            3 
 1945000   0.92963529   -7.6090678    473.01071  0.020266097  0.020234299            3 
 1946000    0.9337081   -7.6144011    472.76371  0.020245106  0.020227267           18 
 1947000   0.93287524   -7.6164933    472.05037  0.020204176  0.020220234            3 
 1948000   0.92853817   -7.6579207    472.56416  0.020215784  0.020213182           11 
 1949000   0.93261035   -7.6131776     472.5481  0.020204724  0.020206168            7 
 1950000   0.94359703   -7.5887407    472.06086  0.020173541  0.020199168            4 
 1951000   0.94796927   -7.6429377    472.98174  0.020202534  0.020192106            6 
 1952000   0.97095156   -7.6549537    472.29774  0.020162984  0.020185035           11 
 1953000   0.92644693   -7.6550311    472.83296  0.020175498  0.020177913            6 
 1954000   0.92550079   -7.6253537    472.03838  0.020131285  0.020170815            4 
 1955000   0.93900274   -7.6058334    474.12702  0.020210018  0.020163779            2 
 1956000   0.93116193   -7.6407747    473.54641  0.020174949   0.02015675            5 
 1957000   0.95459259    -7.625199    473.32331   0.02015514  0.020149741            4 
 1958000    0.9387708    -7.657828    473.16981  0.020138313  0.020142652            8 
 1959000   0.94213568    -7.684228    472.23775  0.020088385  0.020135549            6 
 1960000   0.91506386   -7.6607633    473.05043  0.020112689  0.020128413            5 
 1961000   0.93221079   -7.6207072    473.36951  0.020115991  0.020121319            6 
 1962000   0.94626489   -7.6472806    473.99387  0.020132257  0.020114278            6 
 1963000   0.94403274   -7.5548631    476.09251  0.020211093  0.020107272            2 
 1964000   0.92202154   -7.6233646    474.66211   0.02014011  0.020100334            3 
 1965000   0.93411505   -7.6004596    475.50114  0.020165443  0.020093393            7 
 1966000   0.95157533   -7.6287489    474.51849  0.020113534  0.020086473            6 
 1967000   0.94680482   -7.6480594    474.73924  0.020112661  0.020079485            5 
 1968000     0.926742   -7.6368053    474.10674  0.020075658  0.020072491            5 
 1969000   0.94109229   -7.6439522    474.79835  0.020094733  0.020065448            4 
 1970000   0.94279745   -7.6546961    474.19108  0.020058844  0.020058462            6 
 1971000   0.94277372   -7.6467417     475.2198  0.020092161  0.020051464           10 
 1972000   0.92807727   -7.6908932    475.79824  0.020106416  0.020044397            6 
 1973000   0.92988878   -7.6491666    474.17113  0.020027501  0.020037422            4 
 1974000   0.93436053   -7.6270113    475.20692  0.020061082  0.020030455            6 
 1975000    0.9492784   -7.6458314    476.34674  0.020099019  0.020023502            9 
 1976000   0.92710448    -7.658816    475.16072  0.020038829  0.020016617            5 
 1977000   0.94131047   -7.6480661    474.87601  0.020016692  0.020009641            6 
 1978000   0.94082448   -7.6826506    475.19722  0.020020105  0.020002646            6 
 1979000   0.93845425   -7.6723415    474.08655   0.01996322  0.019995622            4 
 1980000   0.94421993   -7.6863649    474.43294  0.019967716  0.019988581           12 
 1981000   0.92959552   -7.6360327    476.18624  0.020031392  0.019981512            6 
 1982000   0.93364365   -7.6526652    476.83235  0.020048451  0.019974474            5 
 1983000   0.93294691   -7.6443164    475.81828  0.019995725  0.019967535            7 
 1984000   0.93028656    -7.669315    476.49916  0.020014246  0.019960563            5 
 1985000   0.92680423   -7.6387382    476.38548   0.01999939  0.019953639            5 
 1986000   0.92561355   -7.6311191    474.58212  0.019913651  0.019946626            3 
 1987000   0.92714039   -7.6641615    475.76113  0.019953075  0.019939585            6 
 1988000   0.94600532   -7.6261411    476.59846  0.019978138  0.019932563            4 
 1989000   0.93861177   -7.5891234     477.5735  0.020008945  0.019925627           10 
 1990000   0.94244428   -7.6072304    478.55405  0.020039952   0.01991874            7 
 1991000   0.96685277   -7.6495546    477.05723  0.019967237  0.019911848            8 
 1992000   0.92311556   -7.6589637     477.1654  0.019961739  0.019904948            5 
 1993000   0.93276202   -7.6557283    476.98088  0.019944007  0.019897941           10 
 1994000   0.93759081   -7.6557898    476.89457  0.019930398  0.019890986            5 
 1995000   0.94864872   -7.6145607    477.42417   0.01994253  0.019884084            4 
 1996000   0.92382345   -7.6479086    475.53295   0.01985358  0.019877141            6 
 1997000   0.92872423   -7.6299637    478.09821  0.019950685  0.019870192            9 
 1998000   0.91129392   -7.6476868    476.86648  0.019889326  0.019863253            7 
 1999000   0.92100464   -7.6800275     476.2131  0.019852138  0.019856268            6 
 2000000   0.92186011   -7.6700926    476.29523  0.019845634  0.019849322           11 
 2001000   0.93762418   -7.6348883    476.82614  0.019857827    0.0198423           10 
 2002000    0.9210974   -7.6335414    478.70447  0.019926093  0.019835445            6 
 2003000   0.93144818    -7.618151    478.64824  0.019913806  0.019828561            5 
 2004000   0.92478927   -7.6099697     479.1244  0.019923669  0.019821645            3 
 2005000   0.91147599   -7.6329439    479.74277  0.019939433  0.019814756            4 
 2006000   0.91940834   -7.6246898    478.03146  0.019858402  0.019807802            6 
 2007000   0.90982974   -7.6090969    479.06797  0.019891545  0.019800915            6 
 2008000   0.91849316   -7.5933854    478.98429  0.019878166  0.019794054            5 
 2009000   0.94876488   -7.6571998     477.4466  0.019804488  0.019787167            4 
 2010000   0.94095488    -7.613219    478.92852  0.019856075  0.019780199            5 
 2011000   0.93089958   -7.6538691    477.49644  0.019786857   0.01977327            6 
 2012000   0.91626518   -7.6570578    478.16645  0.019804774  0.019766375            5 
 2013000   0.92197117   -7.6599358    477.76901  0.019778482  0.019759459            3 
 2014000   0.93041169   -7.6657178    478.04819  0.019780213  0.019752562            3 
 2015000   0.93889123   -7.6415803    479.02873  0.019810948  0.019745599            7 
 2016000   0.91537976   -7.6717128    479.45731  0.019818837  0.019738606           17 
 2017000   0.91949108   -7.6371191    478.96561  0.019788697  0.019731695            6 
 2018000   0.90654827   -7.6426647    478.45839  0.019757945  0.019724716           10 
 2019000   0.92026693   -7.6519219    477.67898  0.019715989   0.01971777            6 
 2020000   0.92879946   -7.6605113    478.11077  0.019724042   0.01971088            6 
 2021000   0.93512057   -7.6708016    477.65882  0.019695647  0.019703872           13 
 2022000   0.91777489   -7.6419526    479.93101   0.01977955  0.019696853            3 
 2023000   0.92948767   -7.6480606    479.09349  0.019735273  0.019689896            4 
 2024000    0.9039196   -7.6991261    478.47875  0.019700212  0.019682907            5 
 2025000   0.92056962   -7.6897078    477.58446  0.019653681  0.019675875            5 
 2026000   0.94404645   -7.6404372    478.95857  0.019700501  0.019668913           10 
 2027000   0.92491674   -7.6358299    479.68168   0.01972051  0.019661999            5 
 2028000   0.93653637   -7.6356089     480.6363  0.019750012  0.019655059            5 
 2029000   0.91278084   -7.6860062     479.6165  0.019698394  0.019648068            4 
 2030000   0.94135803   -7.6351235    480.31551  0.019717386  0.019641013            4 
 2031000   0.92589314   -7.6498483    479.14865    0.0196598  0.019634056            3 
 2032000   0.94731908   -7.6223809    480.56662  0.019708277  0.019627164           10 
 2033000   0.91786178   -7.6895646    478.03653  0.019594873  0.019620276            2 
 2034000   0.91666702   -7.6571185    479.61202  0.019649788  0.019613255            7 
 2035000   0.93428305   -7.6776302    479.20014  0.019623266  0.019606217           13 
 2036000   0.90500088   -7.6439071    480.47297  0.019665724  0.019599207            9 
 2037000   0.94097763   -7.6739959    479.44229  0.019613905  0.019592225            9 
 2038000   0.93184101   -7.6668987    481.70432  0.019696775  0.019585223           11 
 2039000   0.92645514   -7.7311688    478.73409  0.019565722  0.019578159            4 
 2040000   0.91055599   -7.6777862    479.78707  0.019599145  0.019571057           16 
 2041000   0.92762057   -7.6283677    480.30028  0.019610496  0.019564038            3 
 2042000   0.91017064    -7.691861    479.74179  0.019578101  0.019557056            4 
 2043000   0.92756524    -7.690967    479.87813  0.019574079  0.019549993            7 
 2044000    0.9107519    -7.648236    479.85583  0.019563594  0.019542927            9 
 2045000   0.92567751   -7.6740229    481.15873   0.01960712  0.019535918            7 
 2046000   0.91765256   -7.7058814    479.83392  0.019543578  0.019528883           11 
 2047000    0.9302257   -7.6777779    478.93768  0.019497544  0.019521774            5 
 2048000   0.92380113   -7.6912038    479.53688  0.019512405   0.01951472            3 
 2049000   0.93555633   -7.6702362    480.29951  0.019533899  0.019507717           11 
 2050000   0.90770391   -7.6472652     481.2773  0.019564118  0.019500677            3 
 2051000   0.92632924   -7.6628623    481.01868  0.019544071  0.019493699            6 
 2052000   0.93014971   -7.6486576    481.47903  0.019553242  0.019486742            6 
 2053000   0.90932686   -7.7097515    481.15023  0.019530371  0.019479727            7 
 2054000   0.92744749   -7.6786461    480.26063  0.019484771  0.019472715            4 
 2055000   0.92859171   -7.6994677    480.77162  0.019496011  0.019465696           10 
 2056000   0.93691415   -7.6849801    482.25223   0.01954654  0.019458744            3 
 2057000   0.93894181   -7.7160971    480.92901  0.019483431  0.019451671           10 
 2058000   0.90245191   -7.6961986    481.45193  0.019495138  0.019444679            3 
 2059000   0.89666368   -7.6770568    481.25305  0.019477621  0.019437654            7 
 2060000   0.91752768   -7.6599641    481.32508  0.019471079  0.019430715            5 
 2061000   0.92771719   -7.6824801    482.27234  0.019499933  0.019423727           12 
 2062000   0.92799686   -7.6739283    481.40704  0.019455506  0.019416741            7 
 2063000   0.90860476    -7.690834    481.80808  0.019462275  0.019409782            4 
 2064000   0.92945121   -7.6865281    482.69273  0.019488563  0.019402836            7 
 2065000   0.91617305   -7.6913452    480.47506  0.019389631  0.019395827            4 
 2066000   0.94726624   -7.6931603    481.33289  0.019414847  0.019388801            5 
 2067000   0.92361343   -7.6910734    481.28179  0.019403394   0.01938178            8 
 2068000   0.93496068   -7.6575308    482.72352  0.019452108  0.019374777           10 
 2069000   0.93766019   -7.7002918    481.21811  0.019382073   0.01936777            3 
 2070000   0.91503417   -7.7219969    481.34544  0.019377836  0.019360716           16 
 2071000   0.89852944   -7.6596142    483.09898  0.019439038  0.019353699            5 
 2072000   0.91436415   -7.6602448    481.16503  0.019351875  0.019346749            4 
 2073000   0.92178636   -7.6948923    482.57172  0.019399088  0.019339803           10 
 2074000   0.91547247   -7.6833445    482.52709  0.019387942   0.01933285           10 
 2075000   0.93987939   -7.6677718    481.10547  0.019321505  0.019325915           11 
 2076000   0.93027407   -7.7026395    483.19246  0.019395972  0.019318954           10 
 2077000   0.91377314   -7.6963226    482.66759  0.019365575  0.019311991            7 
 2078000   0.92366993   -7.6689519    483.17546  0.019376622  0.019305053            5 
 2079000   0.92626482   -7.6760787     482.9247  0.019357251  0.019298213            8 
 2080000   0.90446345   -7.6618706    483.19051  0.019358594  0.019291296           11 
 2081000   0.92156232    -7.674265    482.68268  0.019328956  0.019284426            4 
 2082000   0.89192887   -7.7247911    482.23506  0.019301756  0.019277464            3 
 2083000   0.92326926   -7.6990559    483.22772  0.019332202  0.019270563            5 
 2084000   0.93148094   -7.6789797    483.35132  0.019327868  0.019263675            3 
 2085000   0.93661484   -7.7007073    484.18492  0.019351915  0.019256734            8 
 2086000   0.92131759   -7.6926988    484.76844  0.019365949  0.019249822            8 
 2087000   0.93668653   -7.7251824    484.21418  0.019334539  0.019242966            7 
 2088000    0.9198195   -7.7145161    481.95833  0.019235246  0.019236049            6 
 2089000   0.94419486    -7.685473    483.74563  0.019297336  0.019229125            4 
 2090000   0.90662261   -7.6987782    483.58361  0.019281643  0.019222222            3 
 2091000    0.9198584   -7.6878497    484.45036  0.019306965  0.019215316           10 
 2092000   0.91867884   -7.7411123    483.03932  0.019241528  0.019208423            6 
 2093000   0.91246272   -7.6834516    484.29463  0.019282315    0.0192015           16 
 2094000   0.91240939   -7.7095107    483.52399  0.019242438  0.019194638           18 
 2095000   0.93436952   -7.6821866    484.86847  0.019286733  0.019187732            8 
 2096000   0.89876579   -7.7132815    484.89785  0.019278699  0.019180912            7 
 2097000   0.92078688   -7.6657537    486.40531  0.019329411  0.019174155           18 
 2098000   0.95067092   -7.6981625    484.84358  0.019258166  0.019167438            6 
 2099000    0.9455823   -7.6991974    485.39829  0.019271014  0.019160691           10 
 2100000   0.90955717   -7.6914508    485.96982  0.019284517  0.019153919           10 
 2101000   0.91075044   -7.6908932    486.03332  0.019277857  0.019147137            7 
 2102000    0.9011912   -7.7120279    485.50458  0.019247723  0.019140396            6 
 2103000   0.93290866   -7.7337056    485.38633  0.019233885  0.019133555           10 
 2104000   0.91167662   -7.7228761    485.39403  0.019225049  0.019126708            6 
 2105000   0.92016487   -7.7217884    486.27344   0.01925073  0.019119913            7 
 2106000   0.91137853   -7.6987985    485.04054  0.019192804  0.019113114            8 
 2107000   0.90654081   -7.7063277    485.12758  0.019187137  0.019106297           10 
 2108000   0.89956592   -7.6972414    485.63661  0.019198158  0.019099485            8 
 2109000   0.92821509   -7.6915956    486.21871  0.019212056  0.019092699            3 
 2110000   0.91008051   -7.6662736    488.03873  0.019274831  0.019085945           10 
 2111000   0.90625655    -7.671217    486.04884  0.019187148  0.019079251           10 
 2112000    0.9152231   -7.7328575    485.25967  0.019146925   0.01907253           10 
 2113000   0.89950769   -7.7243099     486.6862  0.019194123  0.019065744            6 
 2114000   0.91017442   -7.7085944    485.59158  0.019141894  0.019058953            4 
 2115000   0.91629769   -7.6850243    485.71342  0.019137644  0.019052175            5 
 2116000   0.93797705   -7.7202262    486.06299  0.019142367  0.019045387            4 
 2117000   0.90830426   -7.7264517    484.66795  0.019078411  0.019038492            6 
 2118000   0.92560365   -7.7639294    484.73303  0.019071964   0.01903164            5 
 2119000   0.90135189   -7.7570958    484.56509  0.019056359  0.019024745           12 
 2120000   0.88246364   -7.6934203    485.89561   0.01909967  0.019017895            6 
 2121000   0.92819122   -7.7255662     486.8837  0.019129487  0.019011105            9 
 2122000   0.91838782   -7.6884795    487.80768  0.019156758  0.019004317            6 
 2123000   0.90989173    -7.711964    486.60189  0.019100404  0.018997508            7 
 2124000   0.91280992   -7.6832983    487.22342  0.019115796  0.018990735           12 
 2125000   0.92235662   -7.7389757    485.37733  0.019034405  0.018983927            8 
 2126000   0.90900323   -7.7048078    488.81465  0.019160186  0.018977142            4 
 2127000   0.90447109   -7.7048862    487.17428   0.01908691  0.018970415            5 
 2128000   0.91140645   -7.7415289    485.94541  0.019029817  0.018963629            8 
 2129000   0.92311054   -7.7242066    485.93243  0.019020371  0.018956807           15 
 2130000   0.91012234   -7.6964115    487.75168  0.019082617  0.018950048            4 
 2131000   0.91131235    -7.711088    486.78504  0.019035861  0.018943248            7 
 2132000   0.91141833    -7.735609    487.95165  0.019072532  0.018936408            8 
 2133000   0.91759447   -7.7534018    486.81406  0.019019146   0.01892958           12 
 2134000   0.90056413    -7.698048    488.63282  0.019081257  0.018922765            6 
 2135000   0.93409617   -7.7240325    487.38555  0.019023636  0.018916006            5 
 2136000   0.93343763   -7.7039241     488.0221  0.019039564  0.018909263           19 
 2137000    0.9326206   -7.7036631    487.38817  0.019005934  0.018902541            8 
 2138000   0.92870985   -7.7165909    488.63674   0.01904571  0.018895864            5 
 2139000   0.91203168   -7.7017142    487.92922  0.019009242   0.01888918           11 
 2140000   0.89767597   -7.7365015    488.55105  0.019024574   0.01888248            7 
 2141000   0.92217997   -7.6721881    489.41481  0.019049308  0.018875799            5 
 2142000   0.92429565   -7.7093429    489.49524  0.019043543  0.018869088            3 
 2143000    0.9061358   -7.7219252    487.97215   0.01897543  0.018862323            1 
 2144000    0.9198461   -7.6672396    489.52501  0.019026936  0.018855641            3 
 2145000   0.90736777   -7.7426422    488.69841  0.018985952  0.018848923            8 
 2146000   0.89336003   -7.7429086      487.626  0.018935461  0.018842214           20 
 2147000   0.91931208    -7.733014     487.5055  0.018921965  0.018835476            6 
 2148000   0.90914704    -7.719246    489.30831  0.018983097   0.01882871            5 
 2149000   0.91414761   -7.7686665    487.39607  0.018900111  0.018821896            6 
 2150000   0.89290192   -7.7079717    489.57079  0.018975612   0.01881513            6 
 2151000   0.91104634   -7.7419099     487.5505  0.018888521  0.018808366            4 
 2152000   0.90632055   -7.7765045    487.23715   0.01886761  0.018801595           16 
 2153000   0.90054489   -7.7485393     488.2131  0.018896621  0.018794796            4 
 2154000   0.90863475   -7.7510969    488.36299  0.018893647  0.018788039           13 
 2155000   0.91110307   -7.7372012    488.71239  0.018898391  0.018781284            5 
 2156000   0.89109677   -7.7092098    489.58136  0.018923213  0.018774553            4 
 2157000   0.90969644   -7.7224172    489.17601   0.01889878  0.018767891            7 
 2158000   0.93210279   -7.7227141    488.93341  0.018880654  0.018761209            5 
 2159000   0.89096388   -7.7309364    489.58734  0.018897149  0.018754478            4 
 2160000   0.89852284    -7.726761    489.39796  0.018881094  0.018747713            7 
 2161000   0.89526538   -7.7645949     489.0443  0.018858719  0.018740961            4 
 2162000   0.94346656   -7.7451881    488.80968  0.018840953   0.01873423           10 
 2163000   0.90016107   -7.7163718    489.17021  0.018846132  0.018727472           22 
 2164000   0.91078592   -7.7206438    491.15967  0.018914035  0.018720781            5 
 2165000   0.90979331   -7.7641226    488.63947  0.018808294  0.018714059            8 
 2166000   0.91510913   -7.7583031    488.70541  0.018802147  0.018707289            3 
 2167000   0.88406173   -7.7361583    491.55002  0.018902862  0.018700504            5 
 2168000   0.91608219   -7.7368637    489.13226  0.018801209  0.018693811            7 
 2169000   0.89883054   -7.7279222    489.73846  0.018815831  0.018687128            6 
 2170000   0.88958228   -7.7352108    490.04962   0.01881911  0.018680448            6 
 2171000   0.92687514   -7.7414483    491.09094  0.018850412  0.018673751            5 
 2172000   0.90603285   -7.7402886    490.54375  0.018820739  0.018667115           13 
 2173000   0.89821965   -7.7116863    490.58033  0.018813481  0.018660521            5 
 2174000    0.9101919   -7.7323727    490.78845  0.018812805  0.018653962            6 
 2175000    0.8977968   -7.7164165    491.03383  0.018813557  0.018647339            6 
 2176000   0.89751987   -7.7304315    491.02094  0.018804417  0.018640757            8 
 2177000   0.87971223   -7.7314481    491.86014  0.018827903  0.018634145            7 
 2178000   0.90779477   -7.7751023    490.07845  0.018751088  0.018627461            9 
 2179000   0.88219148   -7.7690501    490.80992  0.018770457  0.018620771           14 
 2180000   0.91116712    -7.753467    490.25441  0.018740612  0.018614081           15 
 2181000   0.93791963   -7.7464021    491.67072  0.018786135  0.018607482            7 
 2182000   0.89339904   -7.7268284    492.21043  0.018798138  0.018600938            6 
 2183000   0.88443384   -7.7054535    492.69602  0.018808063  0.018594332            8 
 2184000   0.91224567      -7.7699    491.67296  0.018760415  0.018587774            5 
 2185000   0.89690629   -7.7191858    491.07271  0.018728936  0.018581167           11 
 2186000   0.89038023   -7.7260695    491.40601  0.018733074  0.018574531           11 
 2187000   0.90735229   -7.7335992    492.33488  0.018759902  0.018567938           11 
 2188000     0.906444   -7.7786746    491.45124  0.018717674  0.018561334           21 
 2189000   0.89945147   -7.7602089    491.95898  0.018728452  0.018554694           10 
 2190000   0.88821291   -7.7414283    492.36365  0.018735299   0.01854806           10 
 2191000   0.88930468   -7.7427913    491.88682  0.018708612  0.018541429            7 
 2192000   0.88396727   -7.7557294    491.71805  0.018693661  0.018534736           11 
 2193000   0.90982326   -7.7254482    492.27041  0.018706126  0.018528104           13 
 2194000    0.9074517   -7.7118247    492.23858  0.018696391   0.01852151            6 
 2195000   0.90918741   -7.7608314     492.2575  0.018688591  0.018514943            5 
 2196000   0.89900113   -7.7460071    492.25253  0.018679892  0.018508365            5 
 2197000   0.89588982   -7.7465481     492.4801  0.018680022  0.018501789            8 
 2198000   0.90863599   -7.7280997    493.39938  0.018706376  0.018495214            6 
 2199000   0.91409186   -7.6872641    493.69578  0.018709102  0.018488699            6 
 2200000   0.89133381   -7.7483288    493.86198  0.018706893   0.01848219            9 
 2201000   0.88379272   -7.7168557    492.72883  0.018655491  0.018475614           11 
 2202000   0.91062291   -7.7756971    491.51793  0.018601193  0.018468991           10 
 2203000   0.89276667   -7.7482051    492.17039   0.01861743  0.018462393           10 
 2204000   0.89697989   -7.7646392    491.85817  0.018597178  0.018455748            7 
 2205000   0.88126685   -7.7661475    492.72184  0.018621385  0.018449071            4 
 2206000    0.9012604   -7.7641989    492.82113  0.018616694  0.018442414           16 
 2207000   0.88147848   -7.7365528    492.16226  0.018583381  0.018435743           15 
 2208000   0.93601142   -7.7628942    492.05912  0.018571072  0.018429057           10 
 2209000   0.90418105   -7.7552526     492.1684  0.018566788  0.018422369            4 
 2210000   0.88661431   -7.7597795    492.20388  0.018559724  0.018415686            6 
 2211000   0.89625888   -7.7438414    493.01986  0.018582084     0.018409            6 
 2212000   0.89616232   -7.7657013    492.03516  0.018536587  0.018402304            9 
 2213000   0.92517246    -7.743242    493.13379  0.018569581  0.018395642           11 
 2214000   0.89682179    -7.745233    490.68488  0.018469019  0.018388984            8 
 2215000    0.8994986   -7.7130462    492.40518  0.018525402  0.018382289           43 
 2216000   0.89824951   -7.7529909    492.70829  0.018528441    0.0183756           21 
 2217000   0.87988245    -7.762502    493.39265  0.018545807  0.018368924           21 
 2218000   0.89910148   -7.7526437    494.03878  0.018561722  0.018362235           12 
 2219000   0.90585358   -7.7659146    490.66599  0.018426693  0.018355539           22 
 2220000   0.88242174   -7.7728522    492.06293  0.018470831  0.018348809           10 
 2221000   0.89217658   -7.7641401     492.2089  0.018467991   0.01834205           14 
 2222000   0.87464993   -7.7833195     490.3792  0.018391059   0.01833533           16 
 2223000   0.88079445   -7.7659709    493.21538  0.018489106  0.018328569           23 
 2224000   0.90517404   -7.7854486    491.52202  0.018417342  0.018321783            5 
 2225000     0.888336   -7.7831919    492.98637  0.018463909  0.018315042            6 
 2226000   0.87818171   -7.7640899    491.88643  0.018414437  0.018308308            6 
 2227000   0.89822255   -7.7971568    490.39722  0.018350442   0.01830152           10 
 2228000   0.88675783   -7.7734727    492.74944  0.018430185  0.018294807            4 
 2229000   0.87682704   -7.7776885    492.89889  0.018427505  0.018288061           10 
 2230000    0.9089797   -7.7623672    494.09062  0.018463775  0.018281348            7 
 2231000   0.89728199   -7.7834406    492.69035  0.018403195  0.018274611            9 
 2232000   0.88966013   -7.7712529    493.74686  0.018434396  0.018267867            6 
 2233000   0.89528893   -7.7188932    494.24348  0.018444674   0.01826119            6 
 2234000   0.88343142   -7.7310128    494.20914  0.018435137   0.01825451           11 
 2235000    0.9035554   -7.7489091    493.82044  0.018412395  0.018247839            7 
 2236000   0.89583193   -7.7215573    493.89002  0.018406754  0.018241178           14 
 2237000   0.91457382   -7.7667326    492.89766  0.018361558  0.018234514           10 
 2238000   0.89418141   -7.7542139    494.57607   0.01841585  0.018227848            6 
 2239000   0.90930139   -7.8067873    492.73665  0.018339164  0.018221147            9 
 2240000   0.87083732   -7.7432787    494.12743  0.018382717  0.018214485            7 
 2241000    0.8830748   -7.7783619    492.98921  0.018332188  0.018207812           10 
 2242000   0.88525084   -7.8052785    492.49144   0.01830551  0.018201126           12 
 2243000   0.87099093   -7.8089773    493.07635   0.01831908  0.018194399            9 
 2244000   0.89193578   -7.7907053    494.15428  0.018350946  0.018187691            6 
 2245000   0.90284332   -7.8094134    493.19893   0.01830731  0.018180992            6 
 2246000   0.89373975   -7.8083275    492.53177  0.018274405  0.018174293            6 
 2247000   0.92606394   -7.7587853    493.34971  0.018296607  0.018167608            4 
 2248000   0.89253045   -7.7427312     494.4482  0.018329189  0.018160925            9 
 2249000   0.87659039   -7.7810461    493.71346  0.018293814  0.018154235            4 
 2250000   0.89791893   -7.7980932    493.38078  0.018273362  0.018147561            5 
 2251000   0.87882823   -7.7958589    493.97726  0.018287326  0.018140917            9 
 2252000   0.87745638   -7.7807456    493.14203  0.018248299  0.018134207            5 
 2253000   0.88554289   -7.8125797     491.9595   0.01819646  0.018127452           10 
 2254000   0.90466423   -7.7596003    495.16048  0.018306732  0.018120735            5 
 2255000    0.8726314   -7.7582642    495.23168  0.018301245  0.018114133           12 
 2256000   0.87990738   -7.7594473    495.53513  0.018304341  0.018107554            3 
 2257000   0.88294666   -7.7540878    493.87088  0.018234784  0.018100936            6 
 2258000    0.8815451   -7.8080425    493.98828  0.018231041  0.018094293            8 
 2259000   0.91069175   -7.7857491    494.29113  0.018234142  0.018087638            8 
 2260000   0.88427043    -7.781839    493.64873  0.018202387   0.01808095            5 
 2261000   0.89476999   -7.7651498    495.40654  0.018259123  0.018074319            4 
 2262000   0.90879107   -7.7848965    494.81038  0.018229088  0.018067713            4 
 2263000   0.88545374   -7.7565883    495.55338  0.018248394  0.018061121           11 
 2264000   0.87815858   -7.8080439    494.68473   0.01820836   0.01805453            7 
 2265000   0.88754663   -7.8215024     493.7885  0.018167347  0.018047887            5 
 2266000   0.88988509   -7.8145523     493.6541  0.018154387  0.018041284            5 
 2267000    0.8920287   -7.7913656     494.9947  0.018195659  0.018034692           25 
 2268000    0.8830674   -7.7601153    494.80998  0.018180849  0.018028103            8 
 2269000   0.90111549   -7.7431177    496.78845  0.018245499  0.018021524            4 
 2270000   0.89724858   -7.8099169    494.42105  0.018150553  0.018014931            6 
 2271000   0.88585434   -7.7937157    496.28631  0.018211005  0.018008287            6 
 2272000   0.89487085   -7.7970411    494.78353   0.01814787  0.018001674            7 
 2273000   0.90833587   -7.8182548    494.50227  0.018129574   0.01799505            6 
 2274000    0.8917016   -7.7787512    495.67777  0.018164679  0.017988412            8 
 2275000   0.88716325   -7.8033744    493.51614  0.018077514   0.01798178            9 
 2276000   0.87723292   -7.7909868     495.3844  0.018137976  0.017975143           11 
 2277000   0.91233666   -7.8242104    493.15621  0.018048463  0.017968478            9 
 2278000    0.8897796   -7.8124819    494.54348  0.018091289  0.017961774            6 
 2279000    0.8849736   -7.8259545    495.52557  0.018119262  0.017955072            7 
 2280000   0.87686189   -7.7957466    494.55579  0.018075869   0.01794841           13 
 2281000   0.89582523   -7.8101029    494.77473  0.018075944  0.017941755            3 
 2282000   0.87194773   -7.7580372    496.40266  0.018127471  0.017935096            4 
 2283000   0.90872937   -7.8169094    495.07697  0.018071141  0.017928408            8 
 2284000   0.89174239   -7.8263761    494.71949  0.018050186   0.01792173            3 
 2285000   0.88101101   -7.8118427    495.03871  0.018053928  0.017915034            7 
 2286000   0.87769994   -7.8337817     495.2394  0.018053346   0.01790839            8 
 2287000   0.88288573   -7.8124737    494.76207   0.01802806  0.017901749           13 
 2288000   0.89005005   -7.8001196    495.93932  0.018063058  0.017895147           19 
 2289000     0.856696   -7.8038004    495.72117  0.018047225  0.017888522            9 
 2290000   0.89821914   -7.7847552    495.61699  0.018035553  0.017881863           15 
 2291000   0.87639424   -7.8015019    495.78986  0.018033968  0.017875237           14 
 2292000   0.89218035   -7.8228998    495.26801  0.018007127  0.017868589           17 
 2293000   0.86030484   -7.8149388    495.47139  0.018006665  0.017861954           13 
 2294000   0.89477451   -7.8316143    494.01351  0.017945855  0.017855321           13 
 2295000   0.89335651   -7.7727383     497.3857  0.018060483  0.017848705           14 
 2296000   0.87554164   -7.7796664    496.78073   0.01803066  0.017842125           16 
 2297000   0.89140999   -7.7887611    496.15371  0.018000062  0.017835512           24 
 2298000   0.88824656   -7.7825324    496.32288  0.017998364   0.01782891           10 
 2299000   0.89285556   -7.7929231    497.32715  0.018026937  0.017822326            8 
 2300000   0.88229412   -7.8140029    496.99001  0.018006885  0.017815764            7 
 2301000   0.87994717    -7.775923    496.95012  0.017997614  0.017809225            6 
 2302000   0.87171191   -7.7867895    497.50425  0.018009855  0.017802699            7 
 2303000   0.89702961   -7.7761065    498.19241  0.018026936  0.017796197            5 
 2304000   0.90973441   -7.8339352    497.25794  0.017985313   0.01778968            6 
 2305000   0.86822041    -7.813316    497.37975  0.017981914  0.017783155            9 
 2306000   0.87611247   -7.8333119    496.77814  0.017952376  0.017776576           24 
 2307000   0.87209606   -7.8143539    498.26085  0.017998152  0.017769992            4 
 2308000   0.89116534   -7.8180398    497.99873   0.01798089  0.017763445           14 
 2309000   0.88372408   -7.8403674    497.13955  0.017942094  0.017756907            4 
 2310000   0.89497264   -7.8221891    497.05953   0.01793144  0.017750352           11 
 2311000   0.90147479   -7.8225627    497.19747  0.017928655  0.017743825           12 
 2312000   0.85943845   -7.8283648    497.53144  0.017932938  0.017737329           11 
 2313000   0.88818003   -7.8522139    497.99345  0.017941831  0.017730766           11 
 2314000   0.87927529   -7.8116709    497.88023      0.01793   0.01772419            5 
 2315000   0.85546448   -7.8613963    495.89636  0.017850841   0.01771766            7 
 2316000   0.90202537    -7.837274    497.19616  0.017889902   0.01771114            5 
 2317000   0.88783635   -7.8379869    497.09292  0.017878468    0.0177046           12 
 2318000   0.89542122   -7.8421503     498.1531  0.017908869  0.017698061            3 
 2319000   0.88004526   -7.8386367    497.07676  0.017862468  0.017691541            8 
 2320000   0.87600102   -7.8315429     497.0469  0.017853696   0.01768504            6 
 2321000   0.86461437   -7.8289694    497.49416  0.017862062  0.017678487            5 
 2322000   0.88247099   -7.8455487    498.15688  0.017878154  0.017671931            5 
 2323000   0.89009125   -7.8186381    497.73864  0.017855454  0.017665395            7 
 2324000   0.87426556   -7.8166401    497.94765  0.017855266  0.017658881            8 
 2325000   0.87578747   -7.8620863    498.15419  0.017854989  0.017652312            4 
 2326000    0.8673209   -7.8664234    497.39616  0.017820155  0.017645747            7 
 2327000   0.87182274   -7.8600148    497.13364  0.017803096  0.017639203           10 
 2328000   0.88079436    -7.872973    498.14697  0.017831721   0.01763267           10 
 2329000   0.88118138   -7.8213486    499.55285  0.017874368  0.017626124           24 
 2330000   0.87204502   -7.8068732    497.04497  0.017777002   0.01761966            5 
 2331000   0.86172368   -7.8062347    499.77717  0.017867052  0.017613161            8 
 2332000   0.88686806    -7.802762    499.68953  0.017856258  0.017606714           13 
 2333000    0.8913159   -7.8586293    498.51553   0.01780667  0.017600232           13 
 2334000   0.86773433   -7.8268683    498.57599  0.017801199  0.017593767           22 
 2335000   0.86401012   -7.8287291    498.94273  0.017806664  0.017587291            6 
 2336000   0.88452611   -7.8294401    499.40688  0.017815599  0.017580803           22 
 2337000   0.86879919   -7.8470227    498.98241   0.01779284  0.017574303           14 
 2338000   0.87265741   -7.8172029     499.6715  0.017809791  0.017567816            9 
 2339000   0.88754006   -7.8148225     499.6189  0.017800303  0.017561385            7 
 2340000   0.87279138   -7.8600843    498.25564  0.017744147  0.017554947           19 
 2341000   0.88458447   -7.8253949    498.74683  0.017754052   0.01754846           12 
 2342000   0.87952392   -7.7986257    499.13911  0.017760429  0.017541983           14 
 2343000   0.87382477   -7.8264029     500.7518  0.017810208  0.017535548            7 
 2344000   0.88716198   -7.8187421    499.62906  0.017762694  0.017529124           12 
 2345000   0.86825632   -7.7996941    500.51541  0.017786617  0.017522734            6 
 2346000   0.86539922   -7.8146152     499.8278  0.017754611  0.017516323            8 
 2347000   0.89046535   -7.8461317    499.48447  0.017734856  0.017509885           13 
 2348000   0.89053905   -7.7956999    499.12061  0.017714389  0.017503451            9 
 2349000   0.89883746    -7.838986    499.05698   0.01770459  0.017496989           16 
 2350000   0.89825527    -7.833106    498.24411  0.017668231  0.017490527            8 
 2351000   0.88046239   -7.8351209    498.71782  0.017677507  0.017484076           12 
 2352000   0.85415326   -7.8075458    499.89848  0.017711823  0.017477638            4 
 2353000   0.87360444   -7.8175167    500.26158  0.017717155  0.017471183            5 
 2354000   0.86110329   -7.8006363    502.03176  0.017772294  0.017464746            6 
 2355000   0.88331977   -7.7990983    500.76018  0.017719752  0.017458308            6 
 2356000   0.85302659   -7.8515701    499.44934  0.017665865  0.017451844            7 
 2357000   0.86230807   -7.8397053    499.65563  0.017665664  0.017445382            7 
 2358000   0.87548242   -7.8794762    499.36318  0.017647836  0.017438877           27 
 2359000   0.87811617   -7.8547552    499.80794  0.017656067  0.017432365            8 
 2360000   0.87223912   -7.8070379    499.40909  0.017634502  0.017425868            9 
 2361000     0.861792   -7.8260952    500.38997  0.017661654  0.017419385           27 
 2362000   0.87596293   -7.8213576    499.48632  0.017622295  0.017412929           20 
 2363000   0.88414537   -7.8611206    499.55082  0.017617112  0.017406531            9 
 2364000   0.87952275   -7.8554356     500.7798  0.017652982  0.017400084            7 
 2365000    0.8723246   -7.8112671    500.23552   0.01762634  0.017393636            5 
 2366000   0.88226067   -7.8257692    500.28473  0.017620623  0.017387219           15 
 2367000   0.87092762   -7.8126217    500.88912  0.017634457  0.017380817            8 
 2368000   0.88446115   -7.8578736    500.23303  0.017603921  0.017374349            5 
 2369000   0.88079165    -7.861263    499.00681  0.017553356  0.017367833           13 
 2370000   0.85783982   -7.8308046    500.27767  0.017590635  0.017361341            6 
 2371000   0.86828286   -7.8364756    499.16385  0.017544069  0.017354828           11 
 2372000   0.89746317   -7.8488084    499.47576  0.017547631  0.017348335            8 
 2373000   0.86436383   -7.8442731    499.32942  0.017535097  0.017341834           14 
 2374000   0.86247308   -7.8655107    499.23081  0.017524249   0.01733534            7 
 2375000   0.86779204   -7.8395116    499.98286  0.017543258  0.017328786            6 
 2376000   0.86331053    -7.829513    499.90294  0.017533072  0.017322237           17 
 2377000   0.86682085   -7.8549364    500.05914  0.017531172  0.017315729            8 
 2378000   0.87107901   -7.8621727    500.73951  0.017547642  0.017309227            8 
 2379000   0.88036833   -7.8749179    499.10563  0.017483033  0.017302711           10 
 2380000   0.85632548   -7.8544201    500.07018   0.01750946  0.017296182           10 
 2381000   0.87410052   -7.8471412    500.28021  0.017509457  0.017289669            7 
 2382000   0.84343246   -7.8428051     499.6549   0.01748023  0.017283212           19 
 2383000   0.86810158   -7.8360563    501.01799  0.017520562  0.017276763           10 
 2384000     0.875819   -7.8277504    500.97411  0.017511679  0.017270298           12 
 2385000   0.87524041   -7.8786341    499.62092  0.017457055  0.017263841            8 
 2386000   0.87117692   -7.8746446    500.96733  0.017496763  0.017257368           27 
 2387000   0.87148679   -7.8224285    501.22608  0.017498467  0.017250893            8 
 2388000   0.87395715   -7.8432027    500.39761  0.017462228  0.017244426           15 
 2389000   0.89107143   -7.8202148      502.105  0.017514476  0.017237963           10 
 2390000   0.86597653   -7.8573779    499.95223  0.017432086  0.017231545           22 
 2391000    0.8563223   -7.8214014    501.86243  0.017491371   0.01722511           13 
 2392000   0.86736165    -7.841047    501.21963  0.017461665  0.017218693           10 
 2393000    0.8572432   -7.8645894    499.24081  0.017385458  0.017212229            8 
 2394000   0.87348036   -7.8406715    499.69358  0.017393957  0.017205783            9 
 2395000   0.88728616    -7.882802    500.36189  0.017409947   0.01719932           24 
 2396000   0.87184521    -7.862965    501.62511  0.017446616  0.017192839           13 
 2397000   0.86422557   -7.8442545    499.95254   0.01738119  0.017186392            4 
 2398000   0.87038234    -7.860345     501.3897  0.017423884  0.017179955           10 
 2399000   0.87041989   -7.8388459    500.77733   0.01739535   0.01717354            8 
 2400000   0.86979154   -7.8213052    502.58673  0.017450928  0.017167122           14 
 2401000   0.89012479   -7.8671994    501.31598  0.017399555    0.0171607           10 
 2402000   0.84757073   -7.8251813    501.96896  0.017414965   0.01715428            7 
 2403000   0.88583821   -7.8627294    500.82933  0.017368197  0.017147852            7 
 2404000    0.8805804   -7.8728897    500.48923  0.017349183  0.017141401            6 
 2405000   0.86761358   -7.8565686    500.67613  0.017348445  0.017134977            3 
 2406000   0.86713807   -7.8462163    501.06041  0.017354545  0.017128517           10 
 2407000     0.866062   -7.8667081    500.74011  0.017336245  0.017122046           10 
 2408000   0.88660805   -7.8623964    500.46429    0.0173195  0.017115581            8 
 2409000   0.84123772   -7.8488913    501.32816  0.017342195  0.017109084            7 
 2410000   0.84462057   -7.9069371    499.05495  0.017256395  0.017102569            7 
 2411000    0.8543066   -7.8481104    501.00175  0.017316527  0.017096075           12 
 2412000   0.85626862   -7.8618464    501.04022  0.017310676  0.017089622            7 
 2413000   0.86840881   -7.8279517     501.7932  0.017329507  0.017083145           13 
 2414000   0.89605555   -7.8585026    499.97657  0.017259616  0.017076665           15 
 2415000   0.86530434   -7.8639309    500.87375  0.017283428  0.017070202            4 
 2416000   0.87461152   -7.8779547    500.89902  0.017277146  0.017063755            7 
 2417000    0.8559622   -7.8332642    501.34692  0.017285441  0.017057271            5 
 2418000   0.86392876   -7.8491969     500.5455  0.017250672  0.017050793            7 
 2419000   0.86571943   -7.8512459    502.83494  0.017322411  0.017044328            5 
 2420000   0.87717793   -7.8809543    501.67214  0.017275211  0.017037898           11 
 2421000   0.86951539   -7.8929748    500.26981  0.017219806  0.017031422            8 
 2422000    0.8783591    -7.877824    500.91218  0.017234798  0.017024943           26 
 2423000   0.87927673   -7.9015047    500.67078  0.017219383  0.017018433            8 
 2424000   0.86909688   -7.8666502    501.02677  0.017224518  0.017011959           12 
 2425000   0.88332479   -7.8999944    500.66824  0.017205094  0.017005522           12 
 2426000   0.87225413   -7.8639876    500.59192   0.01719538  0.016999047            8 
 2427000   0.85247781   -7.8950741    500.71692  0.017192588  0.016992556           14 
 2428000   0.86051749   -7.8830019    499.57097  0.017146176  0.016986077           24 
 2429000   0.85920343   -7.8545319    501.25032  0.017196731  0.016979552           11 
 2430000   0.86769649   -7.8493213    500.97198  0.017180109  0.016973082            9 
 2431000   0.85663154   -7.8743246    501.59659  0.017194453  0.016966616            8 
 2432000     0.875118   -7.8643748    500.79209  0.017159817  0.016960134           16 
 2433000   0.85639215   -7.8693952    502.77431  0.017220657  0.016953651           17 
 2434000   0.87915414   -7.8928287    500.83331  0.017147128  0.016947169           15 
 2435000   0.86042032   -7.8977832    500.95728  0.017144329  0.016940681           14 
 2436000   0.86693104   -7.8482563    500.47538  0.017120805  0.016934207           14 
 2437000   0.84703685    -7.861588    502.06215   0.01716804  0.016927735           25 
 2438000    0.8555141   -7.8463186    501.12686  0.017129029  0.016921247           40 
 2439000   0.85752292   -7.8666607    501.22416   0.01712533  0.016914791           26 
 2440000   0.83972733   -7.8965335    500.36569  0.017088992  0.016908286           17 
 2441000    0.8954561   -7.8748279    501.43397  0.017118461  0.016901806           18 
 2442000   0.84048464   -7.8943846    500.15739  0.017067888  0.016895341           17 
 2443000   0.86374783    -7.878291    501.91046  0.017120701  0.016888848           29 
 2444000   0.84267127   -7.8665897    502.04289  0.017118211  0.016882397           51 
 2445000   0.86475631   -7.9059107    500.58236   0.01706143   0.01687592           53 
 2446000   0.86130205   -7.9131499    502.12667  0.017107068  0.016869437           32 
 2447000   0.83750541   -7.9185758    500.40052  0.017041293  0.016862936           42 
 2448000   0.86243886   -7.9028162    499.16904   0.01699241  0.016856402           51 
 2449000   0.86429478   -7.9146217    501.09694  0.017051073  0.016849873           55 
 2450000   0.88730471   -7.9263698    501.14889  0.017045881  0.016843356           84 
 2451000   0.86271914   -7.9260736    500.03973  0.017001215  0.016836846           53 
 2452000   0.86923075   -7.9099248    500.63365  0.017014466  0.016830317           98 
 2453000   0.86145536   -7.8799324     500.6362  0.017007617  0.016823794           77 
 2454000   0.86317064   -7.9043925    500.56717  0.016998342  0.016817284           66 
 2455000   0.86249505   -7.9081505    501.17818  0.017012158  0.016810765           42 
 2456000   0.84340269   -7.8931904    500.40034  0.016978839  0.016804231           51 
 2457000   0.85998279   -7.8834909    501.32804  0.017003393  0.016797727           43 
 2458000   0.85422387   -7.9032915    500.85404  0.016980406  0.016791209           49 
 2459000   0.85359446   -7.9172112    500.85792  0.016973631  0.016784651           56 
 2460000   0.85076924   -7.8892721    500.31458  0.016948326  0.016778137           64 
 2461000   0.86419642   -7.9091563    500.62699  0.016952018  0.016771613           50 
 2462000   0.85739586   -7.9148096    500.12465  0.016928129  0.016765124           65 
 2463000   0.84495259   -7.9182809    501.40655  0.016964628  0.016758614          111 
 2464000   0.87450472   -7.9011638    501.42284  0.016958294  0.016752065          102 
 2465000   0.85920436   -7.9095922    501.30989  0.016947596  0.016745545           69 
 2466000   0.83601467   -7.9239514    501.55225  0.016948913  0.016739003           98 
 2467000   0.86684326   -7.9206243    501.33664   0.01693476  0.016732507           56 
 2468000   0.86990572   -7.8917088    501.95901  0.016948913  0.016726041          118 
 2469000   0.84608778    -7.856466    503.18441  0.016983408   0.01671959           97 
 2470000   0.85963364   -7.8886662    500.96293  0.016901583  0.016713123           85 
 2471000   0.85561143    -7.906677    500.38623  0.016875294  0.016706606           97 
 2472000   0.86948895   -7.9177071    501.78873  0.016915747  0.016700132          118 
 2473000   0.82658608   -7.9580862    499.94967  0.016846936  0.016693653          102 
 2474000   0.84891903   -7.9534513    499.98074  0.016841173  0.016687106          119 
 2475000   0.84524534    -7.940885    500.99608  0.016868555  0.016680564          126 
 2476000   0.84907938   -7.9217505    500.77048  0.016854149  0.016674032           96 
 2477000   0.87137642   -7.9263721    501.72764  0.016879547   0.01666749          128 
 2478000   0.86774632   -7.9573671    500.23254  0.016822456   0.01666096          156 
 2479000   0.85261051   -7.9495359    500.95104  0.016839822  0.016654435          193 
 2480000   0.86287037   -7.9511828      500.491  0.016817574  0.016647921          185 
 2481000    0.8634027   -7.9260337    501.32389  0.016838771  0.016641404          205 
 2482000   0.86879333   -7.9483367    501.18969  0.016827481    0.0166349          201 
 2483000   0.85408952   -7.9236743    501.05098  0.016816049  0.016628371          167 
 2484000   0.84263821   -7.9295789    501.53002   0.01682535  0.016621849          174 
 2485000   0.86866398   -7.9406973    500.21511  0.016774484  0.016615315          209 
 2486000   0.85725406   -7.9456486    501.61059  0.016814514  0.016608809          175 
 2487000   0.86634392   -7.8956784    502.39097  0.016833902  0.016602353          135 
 2488000   0.84370776   -7.9317624    502.43808  0.016828714  0.016595912          147 
 2489000   0.86677006   -7.9563861    501.89901  0.016803904  0.016589432          213 
 2490000   0.85317544   -7.9749184    501.05925  0.016769051  0.016582957          185 
 2491000    0.8582318   -7.9507228    501.60469  0.016780566  0.016576482          172 
 2492000    0.8377862   -7.9343172     502.0906  0.016790082  0.016570039          206 
 2493000   0.85678331   -7.9620301    501.04022  0.016748236  0.016563552          209 
 2494000   0.86066732    -7.985219    501.33725  0.016751445  0.016557056          258 
 2495000   0.84672466   -7.9721266     501.8318  0.016761249  0.016550584          301 
 2496000   0.86735359   -7.9309025    502.41706  0.016774074  0.016544114          258 
 2497000   0.85454545   -7.9166458    503.10683  0.016790376  0.016537668          231 
 2498000   0.85650038   -7.9670887    500.79529  0.016706542  0.016531197          261 
 2499000   0.85919791   -7.9779868    502.01124  0.016740404  0.016524715          267 
 2500000   0.85090438   -7.9760386     501.4149   0.01671383  0.016518213          285 
 2501000   0.83627933   -7.9687721    501.07641  0.016695869  0.016511716          314 
 2502000    0.8572676   -7.9554494    503.19767  0.016759848  0.016505232          353 
 2503000   0.85065553   -7.9625034    501.20326  0.016686751  0.016498746          366 
 2504000    0.8608718   -7.9607257    502.13061  0.016710949  0.016492276          325 
 2505000    0.8477532   -7.9978015    499.18496  0.016606286  0.016485812          321 
 2506000   0.85099286   -7.9818621    501.95478  0.016691766  0.016479302          309 
 2507000   0.83905454   -7.9561871    501.60243  0.016673396   0.01647277          411 
 2508000   0.84574139    -8.019908    500.21444  0.016620629   0.01646625          408 
 2509000   0.83267746   -7.9825201     502.4556  0.016688442  0.016459719          393 
 2510000   0.84355433    -8.005289    501.94894  0.016664971  0.016453235          373 
 2511000   0.86020141   -8.0003332      501.735  0.016651235  0.016446756          446 
 2512000   0.85156435   -8.0039892    501.75595  0.016645301  0.016440288          425 
 2513000   0.85583929   -7.9943016    501.60484  0.016633666  0.016433836          419 
 2514000   0.84459054   -8.0289013    500.21803   0.01658108  0.016427351          466 
 2515000   0.84480653    -7.990119    501.82552  0.016627751  0.016420855          516 
 2516000   0.86655214   -8.0376876    501.21835  0.016601032  0.016414332          567 
 2517000   0.85315437   -8.0178271    500.47431  0.016569802  0.016407804          587 
 2518000   0.82801943   -8.0160872     501.7126  0.016604203  0.016401298          593 
 2519000   0.84420873    -8.005534    500.71344  0.016564557  0.016394815          562 
 2520000   0.84689221   -8.0380217     500.8288  0.016561799    0.0163883          555 
 2521000   0.84522409   -7.9874729    502.84493  0.016621874   0.01638181          533 
 2522000   0.85116418   -8.0270263    500.75505  0.016546228   0.01637532          606 
 2523000   0.84795303   -8.0513956    500.76732  0.016540075  0.016368805          641 
 2524000   0.86052058   -8.0628036    500.52623  0.016525562  0.016362251          670 
 2525000    0.8490754   -8.0555789    500.55554  0.016519985  0.016355693          680 
 2526000   0.82123533   -8.0470808    502.50749   0.01657784  0.016349151          707 
 2527000   0.86455729   -8.0889739    500.37786  0.016501051  0.016342582          742 
 2528000   0.85458451   -8.0553846    501.50583  0.016531706  0.016336006          666 
 2529000   0.86413133   -8.0547969    500.95418  0.016506992  0.016329447          745 
 2530000   0.85453696     -8.06533    500.42582  0.016483064  0.016322882          763 
 2531000   0.84925927    -8.079629    501.03442   0.01649659  0.016316295          848 
 2532000   0.85838634   -8.0979652    498.70963  0.016413561  0.016309669          896 
 2533000   0.84786234   -8.1269384    498.44846  0.016398489  0.016303023         1035 
 2534000   0.84815442   -8.1103311    498.62015  0.016397663  0.016296351         1008 
 2535000   0.85624551   -8.1056213    500.01748  0.016437129  0.016289699         1135 
 2536000   0.82882321   -8.1587218    498.53774  0.016382024  0.016283005         1193 
 2537000    0.8537109   -8.1274189    498.93325  0.016388558  0.016276326         1205 
 2538000   0.84992713   -8.1274808    498.54698  0.016369418  0.016269625         1217 
 2539000    0.8643001    -8.148266    498.11581  0.016348819  0.016262937         1273 
 2540000   0.84258998      -8.1626    497.49632  0.016322058  0.016256199         1379 
 2541000    0.8538021   -8.1477742    498.80602  0.016358587  0.016249427         1382 
 2542000   0.84621843   -8.1698048    497.67533  0.016315084  0.016242655         1415 
 2543000   0.84765797   -8.2053363    498.15243  0.016324303  0.016235854         1457 
 2544000   0.84069144   -8.2089736    497.79496  0.016306177   0.01622903         1511 
 2545000   0.83816214   -8.1882609    498.08604  0.016309301  0.016222204         1584 
 2546000   0.86072766   -8.2246849    497.39892  0.016280405  0.016215358         1669 
 2547000   0.82791644    -8.230913    496.81079   0.01625477  0.016208484         1709 
 2548000   0.82803134   -8.2467637    495.80895  0.016215625  0.016201555         1928 
 2549000   0.82970779   -8.2916977    495.39155  0.016195618  0.016194616         1897 
 2550000   0.85862579   -8.3036207    494.20043  0.016150341  0.016187633         1957 
 2551000   0.84802877   -8.2979876    494.50762  0.016154045  0.016180609         2060 
 2552000   0.84931259   -8.3305876    494.20314  0.016137772  0.016173562         2176 
 2553000   0.83723824   -8.3437882    494.04734  0.016126366  0.016166483         2251 
 2554000   0.84749556   -8.3547766    493.58102  0.016104836  0.016159387         2326 
 2555000   0.83457355   -8.3957824    492.67878  0.016069106  0.016152265         2298 
 2556000   0.83480436   -8.3979939    491.72679  0.016031781  0.016145117         2325 
 2557000   0.84372574   -8.4168941    492.62259  0.016054706  0.016137952         2466 
 2558000   0.84957531   -8.3924883    492.24219  0.016036037  0.016130756         2439 
 2559000   0.84663108   -8.4129605    491.63686  0.016010058  0.016123551         2533 
 2560000   0.83371899   -8.4116385    493.01429  0.016048642  0.016116307         2509 
 2561000   0.84980635   -8.4413956    490.83319  0.015971404  0.016109015         2642 
 2562000   0.85421337   -8.4775302    491.07726  0.015973109  0.016101713         2689 
 2563000   0.84981199   -8.4720816    489.59565  0.015918704  0.016094374         2793 
 2564000   0.83038844   -8.4796948    490.13914  0.015930159  0.016087036         2841 
 2565000   0.83143368   -8.4781172    489.46561  0.015902067  0.016079679         2835 
 2566000   0.84518357   -8.4830961     490.3123  0.015923366  0.016072328         2862 
 2567000   0.84255907   -8.5266316    489.16618  0.015879956  0.016064973         2958 
 2568000   0.84022263   -8.5187951    490.58488  0.015919811   0.01605759         2787 
 2569000   0.84031841   -8.4894177    489.91701  0.015891949  0.016050208         2916 
 2570000   0.83654957   -8.5156885    490.01289  0.015888875  0.016042836         2976 
 2571000   0.86205432   -8.5369128    489.39942   0.01586281  0.016035429         2993 
 2572000   0.83033344   -8.5400571     489.0138  0.015844149  0.016028022         3105 
 2573000   0.83229295   -8.5312274    489.12276  0.015841519  0.016020618         3061 
 2574000   0.83485299   -8.5467468    488.77519  0.015824113    0.0160132         3118 
 2575000    0.8332094   -8.5181038    488.26325    0.0158014  0.016005785         3087 
 2576000   0.83486464   -8.5344649    489.52786  0.015836176  0.015998366         3101 
 2577000   0.85432537   -8.5683992    489.17456  0.015818606  0.015990959         3147 
 2578000   0.84567439   -8.5477973    487.73121  0.015765814  0.015983522         3228 
 2579000   0.81514067   -8.5493437    488.61984  0.015788414  0.015976085         3112 
 2580000   0.84039746   -8.5283378     488.4308  0.015776189  0.015968645         3198 
 2581000   0.84986039   -8.5625709    488.49477  0.015772142  0.015961195         3166 
 2582000    0.8284144   -8.5572287    486.87164  0.015713647  0.015953748         3133 
 2583000   0.82967947   -8.5402997    488.11127  0.015747557  0.015946296         3159 
 2584000   0.84664143   -8.5537885    488.86647  0.015765818  0.015938849         3152 
 2585000   0.84125572   -8.5908669    487.73081  0.015723108  0.015931408         3160 
 2586000   0.86148425   -8.5592501    488.36347  0.015737415  0.015923969         3200 
 2587000   0.84042474   -8.5730025     487.2069  0.015694076  0.015916523         3268 
 2588000   0.82784032   -8.5811684     487.5207  0.015698116  0.015909068         3268 
 2589000   0.84512007   -8.5675025    486.98043  0.015674663  0.015901616         3204 
 2590000   0.84115916   -8.5610915     487.5751  0.015687744  0.015894172         3226 
 2591000   0.83684216   -8.5607519    488.10401  0.015698701   0.01588673         3257 
 2592000   0.85154322   -8.5780136    487.90414  0.015686218  0.015879288         3280 
 2593000   0.83733727   -8.5730476    488.74455  0.015707178  0.015871844         3251 
 2594000   0.84372875    -8.596619    487.41774  0.015658498  0.015864398         3226 
 2595000   0.82849607   -8.5932434    487.00215  0.015639119  0.015856949         3273 
 2596000   0.84479269   -8.6150745     486.4156  0.015614266  0.015849481         3327 
 2597000   0.84128594    -8.616017    487.33234   0.01563767  0.015842025         3324 
 2598000   0.81207109   -8.5922936      487.326  0.015631447  0.015834559         3311 
 2599000    0.8309614   -8.6318437    487.40532  0.015627976  0.015827091         3356 
 2600000   0.83574078   -8.6039863    486.81162  0.015602937  0.015819634         3293 
 2601000   0.83667302    -8.591738     486.7544  0.015595104  0.015812168         3384 
 2602000   0.83869642   -8.5979433    488.10933  0.015632505  0.015804701         3256 
 2603000   0.83182479   -8.6102751     485.7547  0.015551117   0.01579724         3337 
 2604000   0.84827379   -8.5977294    485.88521  0.015549322  0.015789751         3340 
 2605000   0.82995687   -8.5960102    486.27478  0.015555815  0.015782303         3352 
 2606000   0.85405422   -8.6040069    486.99969  0.015573027  0.015774845         3346 
 2607000   0.83337959   -8.5849714    487.66467  0.015588309  0.015767387         3304 
 2608000    0.8299303   -8.5565879    487.19026  0.015567173  0.015759932         3350 
 2609000   0.83430571   -8.5934224    487.01095  0.015555479  0.015752493         3314 
 2610000   0.81369009   -8.6022931     486.6163  0.015536919  0.015745047         3343 
 2611000   0.83668054    -8.622664    487.69494  0.015565395  0.015737592         3273 
 2612000   0.83097824   -8.5864511    488.44309  0.015583304  0.015730149         3307 
 2613000   0.82021124   -8.6176532     486.6156  0.015519059  0.015722698         3388 
 2614000   0.80865453   -8.6154429    485.67778  0.015483224  0.015715255         3355 
 2615000   0.83628363   -8.6168082     487.2432  0.015527189  0.015707812         3368 
 2616000   0.83456896   -8.6122509    486.19377  0.015487824  0.015700363         3444 
 2617000   0.83123369   -8.6296722    486.26276  0.015484103  0.015692893         3418 
 2618000   0.83963874   -8.6270527    487.10565  0.015505018  0.015685435         3432 
 2619000   0.82401438   -8.6221282    486.46829  0.015478818  0.015677987         3436 
 2620000   0.82459679   -8.6177155    486.47974  0.015473274  0.015670524         3450 
 2621000   0.83663018   -8.6386075     485.4193  0.015433655  0.015663074         3450 
 2622000   0.83239874   -8.6316292    486.64201  0.015466629  0.015655638         3456 
 2623000   0.83396512   -8.6248319    487.32634  0.015482474  0.015648181         3442 
 2624000   0.81638052   -8.6231243    486.04687   0.01543594  0.015640729         3498 
 2625000   0.83991019    -8.613837    487.44181  0.015474343  0.015633281         3523 
 2626000   0.83500753   -8.5948066    487.12203  0.015458303  0.015625837         3457 
 2627000   0.83147549   -8.6355927    486.32241  0.015427053  0.015618385         3535 
 2628000   0.83019651   -8.6362242    486.68099  0.015432553  0.015610926         3532 
 2629000   0.82835807   -8.6531318    486.35905  0.015416478  0.015603482         3463 
 2630000   0.83047082   -8.6581876    484.91988  0.015365015  0.015596037         3490 
 2631000    0.8161701   -8.6529065    486.02862  0.015394293  0.015588607         3452 
 2632000   0.84061032   -8.6198877    486.73736  0.015410884  0.015581175         3400 
 2633000   0.84267141   -8.6206164    487.14999   0.01541809  0.015573749         3496 
 2634000   0.81900202   -8.6413482    485.80483   0.01536968  0.015566324         3458 
 2635000   0.83390254    -8.636603    487.39812  0.015414235  0.015558902         3476 
 2636000    0.8239311   -8.6582969     485.8526  0.015359528   0.01555147         3461 
 2637000   0.81270763   -8.6722441    484.70422  0.015317413  0.015544042         3475 
 2638000   0.83665695   -8.6289016    486.08127  0.015355107  0.015536608         3407 
 2639000   0.81968721   -8.6172243    486.93978  0.015376398  0.015529195         3516 
 2640000   0.82989233   -8.6256469    486.35779  0.015352203  0.015521772         3458 
 2641000   0.84152796   -8.6527831    485.97433   0.01533429  0.015514355         3584 
 2642000   0.80784147    -8.645206    486.36928  0.015340944  0.015506936         3547 
 2643000   0.83930934   -8.6372296    485.52872  0.015308636  0.015499536         3566 
 2644000   0.82775894   -8.6210669    486.76958  0.015341956  0.015492132         3532 
 2645000   0.83954735   -8.6321384    486.17645  0.015317468  0.015484738         3565 
 2646000   0.82256784   -8.6535935    486.12257  0.015309983  0.015477339         3485 
 2647000   0.81999411   -8.6507615    485.84087   0.01529533   0.01546992         3493 
 2648000   0.82400965   -8.6531875    487.21904  0.015332925  0.015462511         3501 
 2649000   0.83409127   -8.6765616    484.93743  0.015255361  0.015455103         3543 
 2650000   0.82389767   -8.6497246    485.21792  0.015258425  0.015447694         3535 
 2651000   0.81434278   -8.6566077    485.39244  0.015258155   0.01544029         3535 
 2652000   0.83851125   -8.6522262    486.82832  0.015297521  0.015432893         3546 
 2653000   0.83292557   -8.6285362    485.61263  0.015253569  0.015425506         3514 
 2654000   0.82758554   -8.6863236    484.85162  0.015223927  0.015418113         3554 
 2655000   0.83774649   -8.6675919    486.30696  0.015263872  0.015410733         3589 
 2656000   0.83980903   -8.6595172    485.28897  0.015226185  0.015403348         3567 
 2657000   0.80470217   -8.6678818    486.12451   0.01524666  0.015395964         3557 
 2658000   0.81871132   -8.6405823    485.96549  0.015235938  0.015388578         3503 
 2659000   0.82415703   -8.6102865    486.34695  0.015242163  0.015381217         3432 
 2660000   0.81383171   -8.6523205    485.37281  0.015205915   0.01537385         3537 
 2661000   0.83618309   -8.6556766    485.79334   0.01521337  0.015366483         3601 
 2662000   0.82028129   -8.6758741    486.09329  0.015217045  0.015359126         3590 
 2663000   0.82736244   -8.6436777    486.79722  0.015233359   0.01535176         3614 
 2664000   0.82328233   -8.6531199    484.78053  0.015164556  0.015344404         3520 
 2665000   0.81282398   -8.6754841    484.84613  0.015160917   0.01533704         3617 
 2666000   0.80224428   -8.6575265    484.29029  0.015137856  0.015329689         3556 
 2667000   0.82629358   -8.6855472    484.80067  0.015148127  0.015322336         3611 
 2668000   0.81114131   -8.6941395    485.52095  0.015164947  0.015314983         3623 
 2669000   0.82055374   -8.7143665    484.25753  0.015119818  0.015307624         3662 
 2670000   0.81025153   -8.6874461    484.97692  0.015136608  0.015300267         3685 
 2671000   0.81891789   -8.6690854    485.96626  0.015161808  0.015292916         3642 
 2672000   0.81614735   -8.6512108    486.39241  0.015169424  0.015285566         3636 
 2673000   0.81729308   -8.6773728     485.1803   0.01512596  0.015278221         3650 
 2674000   0.82003191   -8.6437749    485.29298  0.015123815  0.015270881         3674 
 2675000   0.80902946   -8.6840994    486.08081  0.015142704   0.01526354         3636 
 2676000   0.83494297   -8.6874555    485.34575  0.015114155  0.015256202         3687 
 2677000   0.84775764   -8.6582569    486.38952  0.015141001  0.015248872         3620 
 2678000   0.82911651   -8.6652894    485.88135  0.015119534  0.015241541         3629 
 2679000   0.82579675   -8.6467134    485.89616  0.015114351  0.015234215         3582 
 2680000   0.85956377   -8.6524049    485.78532  0.015105265  0.015226893         3654 
 2681000   0.83540627   -8.6741162    486.38702  0.015118333  0.015219568         3635 
 2682000   0.82805334   -8.6808157    485.87544  0.015096801  0.015212249         3644 
 2683000    0.8280793   -8.6844563    484.94849  0.015062383  0.015204923         3706 
 2684000   0.81713125   -8.6700965    485.61272  0.015077394  0.015197597         3623 
 2685000    0.8152476   -8.6748332    485.31378  0.015062501  0.015190285         3625 
 2686000   0.82643566   -8.6749208    485.87129   0.01507419  0.015182988         3677 
 2687000   0.83988765   -8.6725665    484.49147  0.015025787  0.015175671         3687 
 2688000   0.82654999   -8.6838707    484.77408  0.015028958  0.015168372         3640 
 2689000   0.82698963   -8.6908632    484.11509  0.015002947   0.01516107         3703 
 2690000   0.81908034   -8.6974166    485.48551  0.015039824  0.015153757         3691 
 2691000   0.80983818   -8.6992483    484.38231  0.015000072   0.01514645         3741 
 2692000   0.84066829   -8.6702107    485.08169  0.015016149  0.015139142         3731 
 2693000   0.81584666   -8.6849279    485.35285  0.015018964  0.015131835         3726 
 2694000   0.82354244   -8.7252259    483.84672    0.0149668  0.015124518         3703 
 2695000   0.82594879   -8.7104565    483.55562  0.014952245  0.015117212         3797 
 2696000   0.83094063   -8.6700622    484.72825  0.014982945  0.015109899         3751 
 2697000     0.817827   -8.7067484    484.75651  0.014978263  0.015102596         3789 
 2698000   0.81413269   -8.7178475    485.12795  0.014984184  0.015095288         3763 
 2699000   0.79738882   -8.7168199    484.00272   0.01494389  0.015087975         3789 
 2700000   0.80450042   -8.7165844    483.93078  0.014936135  0.015080671         3799 
 2701000   0.83936333   -8.7325825    484.45905  0.014946904  0.015073354         3833 
 2702000   0.83335786   -8.7315232    484.06698   0.01492928  0.015066037         3835 
 2703000   0.81366285   -8.7332559    484.14668  0.014926214  0.015058721         3820 
 2704000   0.81575181   -8.7313541    484.54879  0.014933087  0.015051394         3861 
 2705000   0.83227443   -8.7302057    484.64005  0.014930377  0.015044081         3821 
 2706000    0.8312152   -8.7194423    484.44403  0.014918823  0.015036768         3804 
 2707000   0.80444451   -8.7223578    485.68888  0.014951634  0.015029455         3812 
 2708000   0.81133958   -8.7313148    485.01858  0.014925486  0.015022143         3840 
 2709000   0.81773392   -8.7297136    482.73465  0.014849718  0.015014839         3862 
 2710000   0.82664977   -8.7510593    483.75703  0.014875678  0.015007529         3825 
 2711000    0.8171307   -8.7335066    483.45601  0.014860937  0.015000223         3867 
 2712000   0.82553883   -8.7219418     483.6049  0.014860033  0.014992922         3826 
 2713000   0.79501905   -8.7181812    483.30696  0.014845404  0.014985633         3841 
 2714000   0.80858095   -8.7616642    483.11643  0.014834083  0.014978348         3864 
 2715000    0.8179001   -8.7424346    484.17311  0.014861053  0.014971059         3805 
 2716000    0.8067165   -8.7446993    484.05827  0.014852058  0.014963781         3865 
 2717000   0.81020685   -8.7631957    484.35838  0.014855796  0.014956497         3824 
 2718000   0.80901186   -8.7237891    483.91682  0.014836792  0.014949217         3843 
 2719000   0.82508693   -8.7658622    484.12245  0.014837638  0.014941937         3854 
 2720000   0.80934447   -8.7450474    484.76047   0.01485173  0.014934656         3831 
 2721000   0.81095286   -8.7478102    483.08683  0.014795015  0.014927393         3844 
 2722000   0.82299626   -8.7345489    484.35946  0.014828541  0.014920135         3831 
 2723000   0.84512343   -8.7544668    483.33505  0.014791745  0.014912873         3838 
 2724000   0.80575836   -8.7238839    484.81123  0.014831474  0.014905623         3851 
 2725000   0.80924596   -8.7471597    483.54179  0.014787211   0.01489837         3821 
 2726000   0.83601508   -8.7619248    483.44374  0.014778789  0.014891123         3874 
 2727000   0.84333202   -8.7660856    484.03453  0.014791423  0.014883876         3828 
 2728000   0.82789012   -8.7690162    483.33252  0.014764557  0.014876624         3885 
 2729000   0.80944165   -8.7649673    483.40699   0.01476142  0.014869379         3865 
 2730000   0.81549052   -8.7330211    483.68053  0.014764363  0.014862127         3864 
 2731000   0.82386765   -8.7330351    484.11414  0.014772188  0.014854877         3817 
 2732000   0.82062372   -8.7557639    484.49453  0.014778384  0.014847646         3841 
 2733000   0.82535733   -8.7563257    482.56319  0.014714087  0.014840403         3856 
 2734000   0.81657715   -8.7456829    484.33423  0.014762687  0.014833176         3820 
 2735000   0.82634132   -8.7609979    483.39317  0.014728616  0.014825938         3878 
 2736000   0.81249243   -8.7454312    483.40037  0.014723452  0.014818706         3834 
 2737000   0.82388836   -8.7434211    483.83629  0.014731345  0.014811478         3820 
 2738000   0.80838754   -8.7411161    484.50765  0.014746398  0.014804264         3842 
 2739000   0.81257093   -8.7369645    483.99905   0.01472554  0.014797044         3819 
 2740000   0.79989851     -8.75573    483.88772   0.01471678  0.014789831         3859 
 2741000   0.82024616   -8.7832056    483.17585  0.014689768  0.014782614         3869 
 2742000   0.82287757   -8.7748843    483.68212  0.014699797  0.014775394         3873 
 2743000   0.82548173   -8.7807964      482.943  0.014671983  0.014768162         3873 
 2744000    0.8085777   -8.7617312    484.09699  0.014701682  0.014760949         3863 
 2745000   0.80570301   -8.7836407    483.04071   0.01466426  0.014753735         3869 
 2746000    0.7975943   -8.7862734    482.33727  0.014637572  0.014746525         3891 
 2747000   0.81742673   -8.7536377    484.08124  0.014685149  0.014739327         3847 
 2748000   0.80147225   -8.7536748    482.59911  0.014634859  0.014732119         3861 
 2749000   0.79264907   -8.7949898    483.26541  0.014649733  0.014724919         3887 
 2750000   0.81644795   -8.7622876    482.80776  0.014630538  0.014717715         3888 
 2751000   0.81385077   -8.8011965    482.75694  0.014623681  0.014710525         3869 
 2752000   0.80358764    -8.772502    483.72456  0.014647667  0.014703342         3870 
 2753000   0.80513435   -8.8007612    483.05563  0.014622098  0.014696146         3868 
 2754000   0.80344488   -8.8134611    482.18528  0.014590453   0.01468896         3884 
 2755000   0.81227164   -8.7914326    481.43262   0.01456239  0.014681775         3896 
 2756000   0.79840114   -8.7493402    483.20433  0.014610678  0.014674588         3875 
 2757000   0.80034897   -8.7839951    482.94172   0.01459744  0.014667411         3863 
 2758000   0.81670409   -8.7996949    483.30066  0.014602993  0.014660235         3871 
 2759000   0.80032866   -8.7827432    483.59156  0.014606487  0.014653065         3861 
 2760000   0.81440496   -8.7683327    482.75241  0.014575858  0.014645898         3875 
 2761000   0.80121873   -8.8038067    482.21896  0.014554478  0.014638727         3857 
 2762000   0.81105003    -8.760854    483.14277  0.014577081  0.014631568         3869 
 2763000   0.81068384   -8.8204826    483.26225  0.014575409  0.014624401         3851 
 2764000   0.81443784   -8.7612832    483.45766  0.014576027  0.014617244         3870 
 2765000   0.80915729   -8.7777587    482.63812  0.014546056  0.014610084         3879 
 2766000   0.80920045   -8.7855835    483.12066  0.014555334  0.014602941         3845 
 2767000   0.79925379   -8.7978087     483.2212  0.014553102  0.014595784         3903 
 2768000   0.80699336   -8.7781357    483.28722  0.014549832   0.01458864         3859 
 2769000   0.79349846   -8.7903896    482.79455   0.01452975  0.014581485         3855 
 2770000    0.8043465   -8.7945846    482.72027   0.01452227  0.014574358         3876 
 2771000    0.8020437   -8.7893282    482.34715  0.014505809   0.01456722         3880 
 2772000   0.82265556   -8.8123763    482.64197  0.014509439  0.014560097         3838 
 2773000   0.79808531   -8.7968385    483.70944  0.014536286  0.014552963         3849 
 2774000    0.7880527    -8.776669    481.83981   0.01447488  0.014545831         3906 
 2775000   0.80704904   -8.8157883    482.28013  0.014482887  0.014538704         3867 
 2776000   0.80808554   -8.7980027    482.85576   0.01449495  0.014531585         3883 
 2777000    0.8098821   -8.7932191    482.96793  0.014493096  0.014524476         3859 
 2778000   0.80765226   -8.7864997    483.23151  0.014495786  0.014517355         3872 
 2779000    0.8042313   -8.7816221    482.00788  0.014453877  0.014510242         3855 
 2780000   0.82558313   -8.7742492    483.71692  0.014499908   0.01450313         3855 
 2781000   0.81005773   -8.7929263    482.91009  0.014470517  0.014496031         3862 
 2782000   0.78774322   -8.8068241    483.43268  0.014480969  0.014488932         3873 
 2783000   0.79379426   -8.8178679    483.17211  0.014467964  0.014481834         3861 
 2784000   0.79278609   -8.7994475    483.30471  0.014466736  0.014474729         3878 
 2785000   0.79991889   -8.8233844    482.75053  0.014444959  0.014467632         3885 
 2786000   0.79902607   -8.7933385    482.37807  0.014428633  0.014460552         3867 
 2787000   0.78748813   -8.7883596     482.9583  0.014440805  0.014453459         3894 
 2788000      0.78467   -8.8141984    481.48916  0.014391713  0.014446368         3864 
 2789000   0.82327619   -8.8109711    481.97048  0.014400935  0.014439272         3869 
 2790000   0.80888817    -8.795358    482.90517  0.014423691  0.014432195         3867 
 2791000   0.79980354   -8.8411849    481.71869  0.014383097  0.014425118         3864 
 2792000   0.81128684   -8.8272077    482.93095  0.014414128  0.014418044         3894 
 2793000   0.80707337   -8.8211433    481.59496  0.014369106  0.014410977         3894 
 2794000   0.80693467   -8.8131576    482.57801  0.014393283  0.014403912         3881 
 2795000   0.80176496    -8.806292    482.48559  0.014385378  0.014396859         3851 
 2796000   0.81852034   -8.7804473    483.39987  0.014407483  0.014389803         3858 
 2797000   0.79841439   -8.8230946    483.38267  0.014401819  0.014382757         3885 
 2798000   0.79508747   -8.8018296    482.69479  0.014376185  0.014375712         3896 
 2799000   0.81493936   -8.7974842    482.98977  0.014379831  0.014368666         3897 
 2800000    0.8015544   -8.8026728    482.21688  0.014351693  0.014361635         3866 
 2801000   0.81232342   -8.8232404    483.00613   0.01437005  0.014354601         3893 
 2802000   0.80947795   -8.8069214    481.88593  0.014331606  0.014347573         3858 
 2803000   0.79800518   -8.7679382    483.17134  0.014364708  0.014340546         3880 
 2804000   0.80796754   -8.8016666    482.44108  0.014337883  0.014333518         3876 
 2805000    0.7918731   -8.8057404    483.20322  0.014355414  0.014326487         3892 
 2806000   0.80270664   -8.7897401    481.92734  0.014312406  0.014319474         3866 
 2807000   0.79935146    -8.788784    483.24219  0.014346342   0.01431246         3866 
 2808000   0.78660119   -8.7834725    482.54782  0.014320626  0.014305454         3864 
 2809000   0.79680813   -8.8131097    482.27869  0.014307544  0.014298449         3919 
 2810000   0.80050899   -8.7964858    481.76878  0.014287331  0.014291448         3881 
 2811000    0.7922424   -8.8083323    482.66852  0.014308921  0.014284446         3851 
 2812000   0.81387058   -8.8119373    482.98505  0.014313213  0.014277456         3899 
 2813000   0.79502517   -8.8162454    481.86696  0.014275002  0.014270472         3906 
 2814000   0.79800419   -8.8201697    482.34019  0.014283943  0.014263481         3903 
 2815000   0.80895246   -8.8025083    481.37698  0.014250355    0.0142565         3892 
 2816000   0.80011498   -8.8452486    481.94305  0.014262046  0.014249508         3913 
 2817000   0.80889234   -8.8155872    482.41243  0.014270868  0.014242526         3874 
 2818000   0.80652685   -8.8069848    481.94488  0.014251978  0.014235555         3888 
 2819000   0.77514619   -8.8051444    481.73978  0.014240859  0.014228584         3855 
 2820000   0.80167507   -8.8110275    481.78871  0.014237255  0.014221611         3889 
 2821000   0.79756096   -8.8114429    482.64132  0.014257395   0.01421464         3886 
 2822000   0.80339707   -8.8058649    481.73222  0.014225497  0.014207684         3878 
 2823000   0.80957292   -8.8057622    482.53904  0.014244274  0.014200719         3854 
 2824000    0.7873452    -8.811049    481.93214  0.014221321  0.014193762         3878 
 2825000   0.78865265   -8.8192439    481.75588  0.014211088  0.014186809         3868 
 2826000   0.80779655   -8.8110828    483.19082  0.014248373  0.014179854         3882 
 2827000   0.80656159   -8.8350638     481.8408  0.014203537  0.014172911         3905 
 2828000   0.80764128   -8.8104605    482.74823  0.014225254   0.01416597         3876 
 2829000   0.80813068   -8.8058939    482.42316  0.014210651  0.014159029         3874 
 2830000   0.78446078   -8.8062625    482.39707  0.014204861  0.014152091         3886 
 2831000   0.80005856   -8.8363168    483.53797  0.014233427  0.014145158         3856 
 2832000   0.77795815   -8.7988886    481.56777  0.014170426  0.014138219         3867 
 2833000   0.80959389   -8.8196568    482.54607  0.014194201  0.014131295         3870 
 2834000   0.79206215   -8.8533064    482.71454  0.014194147  0.014124373         3860 
 2835000   0.81169489   -8.7990057     482.3048  0.014177096   0.01411745         3862 
 2836000   0.80136261   -8.8236885    482.47051  0.014176966  0.014110527         3873 
 2837000   0.80675771   -8.8153544    481.81499  0.014152714  0.014103615         3861 
 2838000   0.80518602   -8.8464535    482.44229  0.014166147  0.014096703         3883 
 2839000   0.79628382   -8.8394181    482.39639   0.01415981  0.014089796         3864 
 2840000   0.79039724   -8.8139504    482.21662  0.014149549  0.014082892         3883 
 2841000   0.78896336   -8.8428599    481.44329  0.014121885  0.014075986         3902 
 2842000   0.78623973   -8.8318145    481.79921  0.014127352  0.014069085         3873 
 2843000   0.79653939   -8.8289348    481.09343  0.014101695   0.01406219         3892 
 2844000   0.79727439   -8.8127575    480.96873  0.014093083  0.014055304         3873 
 2845000    0.8004659   -8.8337663    481.02847  0.014089879   0.01404841         3870 
 2846000   0.79484743   -8.8486236    481.04737  0.014085482  0.014041535         3892 
 2847000   0.79728182   -8.8459306    481.73823  0.014100756  0.014034657         3892 
 2848000   0.79236162   -8.8211403    482.32278  0.014112909   0.01402779         3891 
 2849000   0.79088265    -8.830915    481.57909  0.014086202  0.014020925         3881 
 2850000   0.80267337    -8.817118    481.07851  0.014066623  0.014014066         3894 
 2851000   0.79760415    -8.801858    483.50926  0.014132739  0.014007207         3893 
 2852000   0.81427883   -8.8257388    482.82903  0.014107908  0.014000353         3881 
 2853000   0.79075864   -8.8397531    481.91483   0.01407626  0.013993495         3864 
 2854000   0.79946225    -8.838319    481.52999  0.014060091  0.013986647         3886 
 2855000   0.80256734   -8.8062412    482.77046  0.014091374  0.013979798         3871 
 2856000   0.78745676   -8.8486715    481.48461  0.014048921  0.013972954         3895 
 2857000   0.80052277   -8.8068194    483.02573  0.014088955  0.013966098         3868 
 2858000   0.78965504   -8.8571152    482.05917  0.014055842  0.013959252         3876 
 2859000   0.79076358   -8.8327239    482.39706  0.014060775  0.013952404         3864 
 2860000   0.78078036   -8.8229869    481.70738  0.014035763  0.013945568         3909 
 2861000    0.8091133   -8.8125053    483.24247   0.01407557  0.013938736         3879 
 2862000   0.78946615   -8.8112565    482.74718   0.01405623  0.013931914         3881 
 2863000   0.80631289    -8.808138    482.59566   0.01404691  0.013925102         3842 
 2864000   0.80703338   -8.8087429    482.15489  0.014029181  0.013918281         3881 
 2865000   0.78789608   -8.8516659    481.88983  0.014016575  0.013911474         3884 
 2866000    0.7970386   -8.8396786      481.879  0.014011369  0.013904655         3891 
 2867000   0.79967038   -8.8370846    481.79611  0.014004072  0.013897853         3866 
 2868000   0.79107145    -8.788203    480.98086  0.013975502  0.013891039         3883 
 2869000   0.79205349   -8.8250139    481.22658  0.013977767  0.013884243         3883 
 2870000   0.79577032   -8.8465981    480.60594  0.013954876  0.013877448         3862 
 2871000   0.79997701   -8.8385574    482.46036  0.014003842  0.013870648         3871 
 2872000   0.80807026   -8.8176008    481.96294  0.013984533  0.013863858         3862 
 2873000   0.78991003   -8.8296631    481.36787  0.013962405  0.013857072         3865 
 2874000   0.79413014   -8.8145628     481.9988  0.013975841  0.013850284         3870 
 2875000   0.79501996   -8.8173669    482.54648  0.013986855  0.013843504         3883 
 2876000   0.77464264   -8.8571184    481.60815  0.013954803  0.013836723         3869 
 2877000   0.77874185   -8.8240351     481.2861  0.013940624  0.013829953         3900 
 2878000   0.79130745   -8.8293622    481.58517   0.01394444  0.013823182         3878 
 2879000   0.77359569    -8.823187    481.59774   0.01393996  0.013816425         3889 
 2880000   0.78070966    -8.821942    481.69892  0.013938047  0.013809669         3864 
 2881000    0.7910846   -8.8459989    481.59202  0.013930118  0.013802899         3874 
 2882000   0.79873213   -8.8251507    481.93383  0.013935168  0.013796154         3878 
 2883000   0.80346998   -8.8503588     481.6241  0.013921381  0.013789409         3878 
 2884000   0.76783457   -8.8714761    480.86431    0.0138946  0.013782662         3900 
 2885000    0.7828365   -8.8331508    480.90877  0.013891068  0.013775917         3889 
 2886000   0.78985529   -8.8237398    482.11089  0.013920966  0.013769181         3888 
 2887000   0.78961419   -8.8618395    481.93834  0.013911163  0.013762448         3881 
 2888000   0.77992455   -8.8158963    482.44104  0.013920852  0.013755712         3875 
 2889000    0.8063136   -8.8390471    481.74764  0.013896032  0.013748976         3879 
 2890000   0.79270277   -8.8602433    481.45153  0.013882685  0.013742255         3908 
 2891000   0.76499582    -8.846086    481.01419  0.013865277  0.013735525         3859 
 2892000   0.78016658   -8.8429717    482.00367  0.013888995  0.013728806         3851 
 2893000   0.78416014   -8.8352309    481.96946  0.013883208  0.013722086         3899 
 2894000   0.80221323   -8.8382911    481.85058  0.013874988  0.013715381         3899 
 2895000   0.77082146   -8.8162565    480.41926  0.013828994  0.013708679         3887 
 2896000   0.79449192   -8.8645244    481.11181  0.013844147  0.013701972         3872 
 2897000   0.79417725   -8.8465439    480.80968  0.013830678   0.01369527         3875 
 2898000   0.77386106   -8.8447922    481.50542  0.013845911  0.013688573         3881 
 2899000   0.78268071   -8.8199326    481.47357   0.01384022   0.01368188         3913 
 2900000   0.79841698   -8.8302603    481.33585   0.01383149  0.013675186         3876 
 2901000   0.77942485   -8.8385354    482.06311  0.013847613  0.013668489         3887 
 2902000   0.78935272   -8.8372997    481.64898  0.013830949  0.013661796         3888 
 2903000   0.78178166   -8.8463668    481.83676  0.013831575  0.013655115         3895 
 2904000     0.796405   -8.8198924    481.90055  0.013828643  0.013648433         3872 
 2905000   0.78921459   -8.8586939    481.56309  0.013814202  0.013641748         3873 
 2906000   0.79325264   -8.8485406    481.44775  0.013806141  0.013635073         3908 
 2907000   0.77309374   -8.8266448    481.03455  0.013789547  0.013628396         3889 
 2908000   0.78798185   -8.8393768    481.62095  0.013801609  0.013621736         3885 
 2909000    0.8040764   -8.8223085    482.54109  0.013823224  0.013615074         3895 
 2910000   0.79063813   -8.8216833    482.06909  0.013804957  0.013608419         3878 
 2911000   0.79111629   -8.8698489    481.39074  0.013780795  0.013601767         3870 
 2912000    0.7785862   -8.8604082    481.19997  0.013770604  0.013595117         3914 
 2913000   0.77065304   -8.8313925    481.79189   0.01378281  0.013588481         3859 
 2914000   0.76750116   -8.8560882    481.02366   0.01375611  0.013581839         3863 
 2915000   0.77527716   -8.8607262    481.96013  0.013778163  0.013575202         3910 
 2916000    0.7737182   -8.8435168    482.18214  0.013779782  0.013568571         3871 
 2917000   0.78189549   -8.8484423     481.5302  0.013756434  0.013561945         3897 
 2918000   0.78188849   -8.8601794    481.30309  0.013745233  0.013555317         3918 
 2919000    0.7811443   -8.8466317    480.76661  0.013725209  0.013548693         3873 
 2920000   0.78401278   -8.8489352    480.91837  0.013724839  0.013542073         3886 
 2921000   0.77556084   -8.8725355    480.74769  0.013715271  0.013535445         3882 
 2922000   0.77832004   -8.8563209    481.10534  0.013720777   0.01352883         3874 
 2923000   0.79097857   -8.8651876    481.42288  0.013725136   0.01352222         3900 
 2924000   0.77572762   -8.8305274    481.85496  0.013732756  0.013515609         3860 
 2925000    0.7911713   -8.8485186    481.70111  0.013723678  0.013509005         3890 
 2926000   0.78650349   -8.8686386    480.89796  0.013696114  0.013502406         3904 
 2927000    0.7707553   -8.8737928    480.89944  0.013691477  0.013495809         3872 
 2928000   0.77182297    -8.851155    481.89416  0.013715112  0.013489213         3907 
 2929000   0.76815684   -8.8666123    481.05271  0.013686489  0.013482615         3862 
 2930000   0.78423199   -8.8686701    480.85989  0.013676334  0.013476016         3884 
 2931000   0.78968652   -8.8802462    480.87376  0.013672062  0.013469425         3880 
 2932000   0.76819537   -8.8744712    481.69143  0.013690639   0.01346284         3877 
 2933000   0.77911574   -8.8642377     481.3331   0.01367579  0.013456256         3910 
 2934000   0.77246054   -8.8694236    480.25807  0.013640595  0.013449679         3898 
 2935000   0.77886509   -8.8547858    481.70079  0.013676911    0.0134431         3863 
 2936000   0.79555913   -8.8655412    481.69612   0.01367212  0.013436534         3902 
 2937000   0.78694614   -8.8480559     483.0516  0.013705924  0.013429971         3870 
 2938000   0.77991727   -8.8608865    480.64656  0.013633043  0.013423404         3887 
 2939000   0.77250758   -8.8677861    481.80317  0.013661199  0.013416847         3891 
 2940000   0.77976615   -8.8627716    481.14288  0.013637837  0.013410279         3872 
 2941000   0.79400682   -8.8915281    479.87003  0.013597133  0.013403722         3896 
 2942000   0.78255762   -8.8701845    480.27635  0.013604021  0.013397168         3885 
 2943000   0.78010542   -8.8629321    480.55353  0.013607247  0.013390617         3880 
 2944000   0.77947291   -8.8618226    481.30662  0.013623942  0.013384067         3876 
 2945000   0.79306073   -8.8735569    480.36622  0.013592706   0.01337752         3916 
 2946000   0.79101985     -8.86817    481.14736  0.013610188  0.013370968         3864 
 2947000   0.78325791   -8.8791917    480.75074  0.013594354  0.013364419         3901 
 2948000   0.77763647    -8.896493    481.36964  0.013607238  0.013357874         3878 
 2949000   0.78794942   -8.8746599    481.60436  0.013609256  0.013351336         3897 
 2950000   0.78849687    -8.894093    480.85003  0.013583334  0.013344801         3898 
 2951000   0.76693952   -8.8769997    481.32721  0.013592206  0.013338276         3893 
 2952000    0.7787241   -8.8824172    481.18188  0.013583499  0.013331745         3903 
 2953000   0.76052357   -8.8546086    480.74402  0.013566543  0.013325225         3901 
 2954000   0.77757188   -8.8691269    481.00789  0.013569394  0.013318711         3878 
 2955000   0.78793704   -8.8761019    481.21256  0.013570574  0.013312192         3910 
 2956000   0.78400817   -8.8696875     480.5156  0.013546335  0.013305683         3896 
 2957000   0.76379986   -8.8736262      479.525  0.013513837  0.013299172         3919 
 2958000   0.78323857   -8.8464694    480.74175  0.013543547  0.013292668         3900 
 2959000    0.7868297   -8.8818946    480.20765  0.013523928  0.013286171         3865 
 2960000   0.76842219   -8.8698457    481.43107  0.013553803  0.013279673         3896 
 2961000   0.78910618   -8.8656834    481.24165  0.013543894  0.013273184         3887 
 2962000   0.78934406   -8.8809027    481.32545  0.013541679  0.013266695         3890 
 2963000   0.78112785   -8.8820126    480.53137  0.013514776  0.013260207         3888 
 2964000   0.78038138   -8.8781183    481.30184  0.013531878  0.013253724         3919 
 2965000   0.77703062   -8.8838819    481.22484   0.01352515   0.01324725         3898 
 2966000   0.76985368   -8.9123156    480.86005  0.013510341   0.01324077         3896 
 2967000   0.78846227   -8.8625455    480.59493  0.013498341  0.013234291         3905 
 2968000   0.78906761    -8.902071      480.546  0.013492419  0.013227819         3893 
 2969000   0.78323802   -8.9092858     479.5269  0.013459271  0.013221346         3891 
 2970000   0.77638489    -8.900468    480.02153  0.013468618  0.013214888         3905 
 2971000    0.7609353   -8.8612243    482.01383  0.013519966  0.013208429         3890 
 2972000   0.77556521   -8.8660943    480.48975  0.013472683  0.013201967         3913 
 2973000   0.76832923   -8.8927349    480.71944  0.013474589  0.013195511         3876 
 2974000   0.78410295     -8.87665    481.40343  0.013489224  0.013189059         3894 
 2975000   0.77849787   -8.8597342     480.9257  0.013471308  0.013182616         3874 
 2976000   0.78010309   -8.9016647    480.50604   0.01345503  0.013176179         3910 
 2977000   0.76193194    -8.861227    480.82459  0.013459428  0.013169733         3900 
 2978000   0.77415469   -8.9033477    480.71716  0.013451902  0.013163297         3917 
 2979000   0.79394048   -8.8556341    481.49954  0.013469272  0.013156871         3884 
 2980000   0.77234677    -8.902557    480.49977  0.013436795  0.013150443         3897 
 2981000   0.76977162   -8.8642993    480.77435  0.013439963  0.013144018         3857 
 2982000   0.78167518    -8.885891    479.82715  0.013408986  0.013137601         3892 
 2983000   0.76894805   -8.9092474    479.34636  0.013391059  0.013131181         3907 
 2984000   0.76323326   -8.8976597    479.76426  0.013398242  0.013124759         3903 
 2985000   0.78862277   -8.8782444    480.19938  0.013405901  0.013118349         3878 
 2986000   0.76874233   -8.8741045    481.29385  0.013431956  0.013111934         3886 
 2987000   0.78197187   -8.8836705     480.4914  0.013405072  0.013105528         3919 
 2988000   0.76940521   -8.9030596    480.71229  0.013406746  0.013099127         3902 
 2989000   0.77081582   -8.8916995    481.18578  0.013415462  0.013092735         3910 
 2990000    0.7913639   -8.8857958    480.45388  0.013390576  0.013086339         3903 
 2991000   0.78306057   -8.8910528    480.60126  0.013390205  0.013079949         3917 
 2992000    0.7846056   -8.8860076    480.23122  0.013375424  0.013073563         3888 
 2993000    0.7623815   -8.8919665    480.36203  0.013374597  0.013067181         3905 
 2994000   0.76741119   -8.8883158    481.04719    0.0133892  0.013060799         3891 
 2995000   0.78997058   -8.8779202    481.05019  0.013384813  0.013054426         3882 
 2996000   0.78262345   -8.8766171    480.74756  0.013371928   0.01304806         3885 
 2997000    0.7748652   -8.9225027    480.94017  0.013372822  0.013041697         3879 
 2998000   0.77706992   -8.8864451    480.03548  0.013343214  0.013035341         3889 
 2999000   0.76624423   -8.9043768     480.3668  0.013347972  0.013028981         3910 
 3000000   0.76776233   -8.8633335    481.52339   0.01337565   0.01302263         3900 
 3001000   0.77978064   -8.8796942    480.47072  0.013341962  0.013016277         3902 
 3002000   0.76419191   -8.9146403    480.06831  0.013326347  0.013009923         3860 
 3003000   0.76593275   -8.8656218    480.48317  0.013333421  0.013003567         3873 
 3004000   0.76504018    -8.890542     480.9179  0.013341043  0.012997219         3897 
 3005000    0.7668733   -8.8844093    480.36012  0.013321135  0.012990879         3893 
 3006000   0.77182968     -8.87934    481.52455  0.013348984  0.012984543         3873 
 3007000   0.77069854   -8.8765586     480.6568  0.013320497  0.012978216         3919 
 3008000   0.76183954   -8.8860691    480.37081  0.013308145   0.01297188         3881 
 3009000   0.76636425   -8.8600912    480.53497  0.013308269   0.01296556         3891 
 3010000    0.7812291   -8.8921304    480.50632  0.013303054  0.012959232         3907 
 3011000   0.78259534   -8.8923601    480.82714  0.013307515  0.012952915         3886 
 3012000   0.77601856   -8.8822536    479.91232  0.013277787  0.012946603         3897 
 3013000   0.76687712   -8.8889388    481.22292  0.013309628  0.012940295         3923 
 3014000   0.75912968   -8.8827711    480.90189  0.013296336  0.012933983         3914 
 3015000   0.78498038   -8.8689964    480.38675  0.013277688  0.012927683         3907 
 3016000     0.774777   -8.8938266    479.45179  0.013247452  0.012921389         3894 
 3017000   0.78045392   -8.8711927    479.96335  0.013257191  0.012915093         3896 
 3018000   0.77494515   -8.8813951    480.70797  0.013273359  0.012908803         3911 
 3019000   0.76261222   -8.8899678    479.56527   0.01323742  0.012902506         3905 
 3020000   0.77372177   -8.9047565     479.5414  0.013232378  0.012896229         3887 
 3021000   0.76594749   -8.8776995    480.18499  0.013245752  0.012889946         3920 
 3022000   0.77880887   -8.9201167    480.44693  0.013248592  0.012883674         3898 
 3023000   0.76413474   -8.8955952    479.93433  0.013230079  0.012877408         3888 
 3024000   0.76666947   -8.8817724    480.79696  0.013249475  0.012871137         3883 
 3025000   0.77046844   -8.8824799    480.11818  0.013226396  0.012864868         3914 
 3026000    0.7628701    -8.858443    480.80975   0.01324107  0.012858606         3865 
 3027000   0.76512227   -8.8961132    480.79529  0.013236298  0.012852351         3895 
 3028000   0.76416474   -8.9187491    480.54963  0.013225166  0.012846093         3878 
 3029000   0.76062522   -8.9081907    480.56253  0.013221155  0.012839837         3906 
 3030000   0.76479369   -8.8760522     480.7273  0.013221323  0.012833585         3905 
 3031000   0.75853982   -8.8964088    480.49141  0.013210475   0.01282734         3873 
 3032000   0.77164032   -8.8920048    479.97102  0.013191816   0.01282111         3922 
 3033000   0.75678376   -8.9083754    480.08154  0.013190503  0.012814861         3895 
 3034000   0.75895832   -8.8923921    481.16433  0.013215896  0.012808632         3899 
 3035000   0.75779036    -8.888509     479.4185  0.013163605  0.012802409         3917 
 3036000   0.76246482    -8.940679    480.35332  0.013184929  0.012796184         3918 
 3037000   0.75831653   -8.9013795    480.38557  0.013181472  0.012789958         3907 
 3038000   0.77149247   -8.9025663    480.82248  0.013189118  0.012783736         3916 
 3039000   0.77070309   -8.8933567    479.13884   0.01313861  0.012777521         3906 
 3040000   0.76847784   -8.9014075    480.97731  0.013184685  0.012771308         3919 
 3041000   0.76252173   -8.9178899    479.94837  0.013152153  0.012765097         3927 
 3042000   0.77762176   -8.9002033    480.28343  0.013157008  0.012758887         3907 
 3043000   0.76276344   -8.9213612     479.6327  0.013134864  0.012752685         3901 
 3044000   0.76720782   -8.9120216    479.57912  0.013129082  0.012746481         3923 
 3045000   0.75835156   -8.9148114     479.9774   0.01313567  0.012740287         3897 
 3046000   0.76009573   -8.9073346    479.87023  0.013128426  0.012734091         3896 
 3047000   0.76924216   -8.9083593    479.77504  0.013121514  0.012727905         3923 
 3048000   0.76546359   -8.9391302    480.70814   0.01314272  0.012721723         3937 
 3049000   0.76924532    -8.931614    479.54618  0.013106652  0.012715544         3935 
 3050000   0.78753013   -8.8925847    480.62143  0.013131733  0.012709367         3923 
 3051000   0.77243187   -8.9259584    479.38421  0.013093636  0.012703192         3938 
 3052000   0.75672051   -8.9080402     480.7478  0.013126578  0.012697022         3931 
 3053000   0.76566298   -8.9071669    480.14987  0.013105958  0.012690854         3919 
 3054000   0.76849358   -8.9043591    479.80024  0.013092126  0.012684694         3912 
 3055000   0.76690581    -8.919853    479.95978  0.013092193  0.012678534         3906 
 3056000   0.76222117   -8.9080043    479.64192  0.013079241  0.012672373         3926 
 3057000   0.76238569    -8.907675    480.45099  0.013097017  0.012666217         3919 
 3058000   0.76071914   -8.8846008    480.68895  0.013099219  0.012660068         3915 
 3059000    0.7579093   -8.9050487    479.99589  0.013076057  0.012653918         3933 
 3060000    0.7606009   -8.9220884    479.84896  0.013067782  0.012647773         3912 
 3061000   0.76096143   -8.9108393    479.24546  0.013047083  0.012641632         3919 
 3062000   0.75068959    -8.896758    480.21259  0.013069143  0.012635497         3902 
 3063000   0.76103424   -8.9264561    479.99529  0.013058964   0.01262936         3919 
 3064000   0.75157905   -8.9025829    480.01564  0.013055256  0.012623234         3917 
 3065000   0.76591594   -8.9238344     480.8978  0.013074981  0.012617108         3928 
 3066000   0.76055727   -8.9064203    479.61859  0.013035948  0.012610984         3922 
 3067000    0.7664998   -8.9325208     479.5724  0.013030442  0.012604859         3924 
 3068000   0.75191315   -8.9451788    479.23677  0.013017079  0.012598734         3949 
 3069000   0.75346111   -8.9036667    480.04161  0.013034691  0.012592608         3928 
 3070000   0.77229819   -8.9396424    479.52666  0.013016468  0.012586496         3925 
 3071000   0.74773054   -8.9159722    480.22743  0.013031245   0.01258038         3930 
 3072000   0.76895756   -8.9289899    479.34885   0.01300317  0.012574276         3926 
 3073000   0.76145264   -8.9264044    479.13586  0.012993162  0.012568166         3932 
 3074000   0.75859941   -8.9448505    479.26247  0.012992368  0.012562064         3924 
 3075000   0.75095138   -8.8937323    480.82987   0.01303062  0.012555964         3922 
 3076000   0.76078091   -8.9153607     479.4584  0.012989228  0.012549873         3918 
 3077000   0.77115003   -8.9185289    479.30227  0.012980779  0.012543786         3942 
 3078000   0.75743846   -8.9200978    479.97145  0.012994679  0.012537689         3924 
 3079000   0.74746634   -8.9166088    479.66334  0.012982119  0.012531607         3924 
 3080000   0.74913175   -8.9166386    479.71959  0.012979426   0.01252552         3926 
 3081000   0.75788694   -8.9323688    479.07837   0.01295787  0.012519441         3905 
 3082000   0.76324764   -8.9206661    479.59029  0.012967507  0.012513366         3914 
 3083000    0.7651563   -8.9315466    479.34448  0.012956657  0.012507298         3921 
 3084000     0.760816    -8.919403    479.38213  0.012953473  0.012501227         3901 
 3085000   0.76570157   -8.9023994    480.10156  0.012968708  0.012495169         3921 
 3086000    0.7675942   -8.9206808    479.78822  0.012956044   0.01248911         3909 
 3087000   0.73560827   -8.9193488    479.30789  0.012938881  0.012483047         3924 
 3088000   0.75741734   -8.9351127    479.64043  0.012943665  0.012476998         3925 
 3089000   0.75159975   -8.9174277    480.75344    0.0129695  0.012470951         3922 
 3090000   0.75024568   -8.9374362    478.88396  0.012914886  0.012464904         3937 
 3091000   0.76108218   -8.9375791    478.54873   0.01290167  0.012458865         3916 
 3092000   0.73628403   -8.9327635    479.64365  0.012927006   0.01245283         3928 
 3093000   0.76580926   -8.9348157    479.15686  0.012909712  0.012446794         3940 
 3094000   0.75224053   -8.9054286    479.83646  0.012923843  0.012440774         3916 
 3095000   0.77305622   -8.9293861    479.39561  0.012907798  0.012434745         3938 
 3096000   0.76421885   -8.9373726    479.70919  0.012912069  0.012428715         3919 
 3097000   0.76279341   -8.9344666    479.20534  0.012894342  0.012422697         3922 
 3098000   0.75826557   -8.9558858    479.70805  0.012903703  0.012416676         3934 
 3099000   0.75650147   -8.9145354    480.00045  0.012907402  0.012410655         3927 
 3100000   0.75992978   -8.9428041    478.99695  0.012876262  0.012404639         3907 
 3101000   0.76850684   -8.9178942    480.19965   0.01290443  0.012398637         3929 
 3102000   0.77080357   -8.9536303     479.4786  0.012880899  0.012392632         3939 
 3103000   0.75324578   -8.9342707    479.53529  0.012878271  0.012386639         3932 
 3104000   0.76045039   -8.9467033    478.62575  0.012849703   0.01238064         3929 
 3105000   0.76330693   -8.9426791    479.30881  0.012863897  0.012374645         3948 
 3106000    0.7541748   -8.9554007    479.76226  0.012871921  0.012368652         3924 
 3107000   0.74934345   -8.9302334    479.81967  0.012869319  0.012362655         3938 
 3108000   0.75939882   -8.9378455    480.25194  0.012876768  0.012356674         3952 
 3109000   0.74425438   -8.9307898    479.11537  0.012842162  0.012350696         3923 
 3110000   0.75913544   -8.9317386    479.11251  0.012837956  0.012344713         3921 
 3111000   0.73544574    -8.922282    479.36483  0.012840588  0.012338735         3937 
 3112000   0.75922959   -8.9463208    480.69133  0.012871983  0.012332761         3935 
 3113000   0.75664893   -8.9585997    479.16807  0.012827071  0.012326794         3945 
 3114000    0.7794055   -8.9273029    479.10974  0.012821391  0.012320827         3933 
 3115000   0.76230432   -8.9252569    479.08289  0.012816557  0.012314867         3921 
 3116000   0.74681364   -8.9579597    478.91325  0.012807907  0.012308908         3930 
 3117000    0.7484747   -8.9560169     479.1279  0.012809537  0.012302948         3916 
 3118000   0.74251876   -8.9476618    478.35842  0.012784863     0.012297         3932 
 3119000   0.75672405   -8.9422422    479.66246  0.012815605   0.01229105         3946 
 3120000   0.75571231   -8.9315262     479.9217  0.012818421  0.012285109         3940 
 3121000   0.74671297   -8.9290335    479.93342  0.012814627  0.012279162         3933 
 3122000   0.75197757   -8.9262069    479.82975  0.012807756  0.012273226         3935 
 3123000     0.747809   -8.9620886     479.5051  0.012794991   0.01226729         3913 
 3124000   0.75869271    -8.918326     479.1848  0.012782352  0.012261359         3941 
 3125000   0.76697744   -8.9197307    479.28338   0.01278089  0.012255431         3935 
 3126000   0.75032288   -8.9421099    478.63106  0.012759412  0.012249513         3922 
 3127000   0.74051665   -8.9313296    479.65746  0.012782685  0.012243592         3929 
 3128000    0.7493452   -8.9400394     479.0042  0.012761195  0.012237678         3918 
 3129000    0.7418476   -8.9422315    479.90462  0.012781097  0.012231768         3953 
 3130000   0.74931688   -8.9236385    479.47009  0.012765444  0.012225854         3922 
 3131000    0.7403258    -8.961307     477.9856  0.012721857  0.012219949         3922 
 3132000   0.75285243   -8.9473663    478.96431  0.012743835  0.012214045         3922 
 3133000   0.73446353   -8.9408101    479.35142  0.012750064   0.01220815         3930 
 3134000   0.74626445   -8.9563644    478.81863  0.012731829  0.012202258         3945 
 3135000     0.752501   -8.9374522    478.72473  0.012725272   0.01219637         3952 
 3136000   0.75356057   -8.9464628    479.75027  0.012748466  0.012190479         3921 
 3137000   0.77552079   -8.9217662    479.23421  0.012730693  0.012184605         3916 
 3138000   0.76478165   -8.9440232    479.71974   0.01273953  0.012178725         3921 
 3139000    0.7403625   -8.9431879    479.62076  0.012732844  0.012172849         3938 
 3140000   0.73809065   -8.9596187    478.87532  0.012709005  0.012166973         3960 
 3141000   0.75255914   -8.9359761    477.73967  0.012674829  0.012161101         3947 
 3142000   0.74976667   -8.9473136    479.06306  0.012705895  0.012155237         3923 
 3143000   0.74479801   -8.9349727    479.57999  0.012715558  0.012149373         3953 
 3144000   0.74934083   -8.9392649    479.07958   0.01269825  0.012143516         3938 
 3145000   0.75199833   -8.9659957    478.43572  0.012677152  0.012137661         3939 
 3146000     0.738641   -8.9525017     479.1908  0.012693123  0.012131807         3915 
 3147000   0.73631407   -8.9383955    479.30497  0.012692113   0.01212596         3911 
 3148000   0.75785849   -8.9486642     479.0228  0.012680612  0.012120116         3943 
 3149000   0.75337773    -8.950643    478.87721  0.012672732  0.012114274         3942 
 3150000   0.73938578   -8.9132947    480.23771  0.012704701  0.012108434         3950 
 3151000   0.74796071   -8.9480736    478.51267  0.012655048  0.012102604         3918 
 3152000   0.74878805   -8.9441892    478.37949  0.012647512  0.012096777         3940 
 3153000   0.74639079   -8.9429367    478.90038  0.012657268  0.012090956         3907 
 3154000   0.74644985    -8.942581    478.67141  0.012647205   0.01208513         3925 
 3155000   0.73779514   -8.9641201     478.2359  0.012631693  0.012079308         3931 
 3156000   0.75584702   -8.9677005    479.04358  0.012649017  0.012073489         3949 
 3157000   0.73678763   -8.9334411    478.17092  0.012621975  0.012067677         3948 
 3158000   0.74647047   -8.9392377     478.6936  0.012631771  0.012061869         3933 
 3159000   0.74824463   -8.9750077    478.62989  0.012626092  0.012056068         3935 
 3160000   0.75382723   -8.9525023    478.83924  0.012627617  0.012050266         3940 
 3161000   0.75254768   -8.9517242     479.1598  0.012632073  0.012044468         3927 
 3162000   0.74651929   -8.9265497    479.82453  0.012645597  0.012038672         3929 
 3163000   0.75552316   -8.9493699    479.62613  0.012636372  0.012032879         3926 
 3164000   0.76292994   -8.9245225    479.13211  0.012619366  0.012027096         3937 
 3165000   0.74654607   -8.9416409    479.05876  0.012613448  0.012021317         3944 
 3166000    0.7420727   -8.9523338    478.68621  0.012599658  0.012015529         3942 
 3167000   0.75052516   -8.9375052    479.48462  0.012616688   0.01200975         3925 
 3168000   0.74904986   -8.9577367    479.81694  0.012621447  0.012003972         3923 
 3169000   0.74036539   -8.9479507    479.37693  0.012605894  0.011998202         3951 
 3170000   0.73012946    -8.935009    479.62193  0.012608358  0.011992438         3927 
 3171000   0.75976881   -8.9578022    480.00404  0.012614423  0.011986674         3921 
 3172000   0.73885007   -8.9622483    479.45845  0.012596113  0.011980911         3937 
 3173000   0.74939796   -8.9453278    478.77245  0.012574127   0.01197515         3926 
 3174000    0.7440405   -8.9362764    478.64308  0.012566768  0.011969394         3939 
 3175000   0.74615007   -8.9484112    479.57301  0.012587218  0.011963637         3944 
 3176000   0.73461398   -8.9564268    478.91578   0.01256601  0.011957894         3939 
 3177000   0.73467054   -8.9324874    479.56599   0.01257911  0.011952155         3933 
 3178000    0.7338585   -8.9514176    478.82578  0.012555742  0.011946418         3945 
 3179000   0.73300479   -8.9478111    478.99997  0.012556359  0.011940682         3939 
 3180000   0.75844028   -8.9578448    478.85815  0.012548694   0.01193495         3946 
 3181000   0.73217078   -8.9767401    478.38372   0.01253232  0.011929221         3901 
 3182000   0.75326456     -8.94296    479.08153  0.012546656  0.011923492         3944 
 3183000   0.74601804   -8.9252438    479.32728  0.012549149  0.011917775         3947 
 3184000   0.74379546    -8.934453    479.46281  0.012548755  0.011912056         3915 
 3185000   0.75805074   -8.9471936     478.9919  0.012532493  0.011906338         3913 
 3186000   0.74709312   -8.9540403    479.51797   0.01254232  0.011900624         3934 
 3187000   0.74986188   -8.9442303    478.86411  0.012521287   0.01189492         3936 
 3188000   0.75883412   -8.9575695    478.59131  0.012510229  0.011889217         3943 
 3189000   0.73061912   -8.9638553    478.68846  0.012508845  0.011883514         3939 
 3190000   0.74123648   -8.9667577    479.13513  0.012516592  0.011877819         3931 
 3191000   0.74572243    -8.971036    479.44139  0.012520667  0.011872129         3949 
 3192000   0.73237842   -8.9674848    478.79809   0.01249995   0.01186644         3944 
 3193000   0.73515993   -8.9649883    478.95541  0.012500141  0.011860753         3960 
 3194000    0.7344347   -8.9622728    478.70501  0.012489694  0.011855071         3948 
 3195000   0.74590056   -8.9567339    479.28548  0.012500925  0.011849391         3957 
 3196000   0.73111983   -8.9550175    478.68133  0.012481261  0.011843722         3935 
 3197000    0.7277663   -8.9509807    478.86611  0.012482174  0.011838049         3936 
 3198000   0.74263807   -8.9631224    478.39053  0.012465878  0.011832384         3955 
 3199000   0.73846782   -8.9641709    479.26448  0.012484747  0.011826711         3949 
 3200000   0.73820336   -8.9724498    478.74203   0.01246724  0.011821049         3924 
 3201000   0.74418681    -8.960951     477.9707  0.012443265  0.011815392         3963 
 3202000   0.73169762    -8.972237    479.15897  0.012470304  0.011809742         3958 
 3203000    0.7389496    -8.951623    479.33764  0.012471059   0.01180409         3939 
 3204000   0.73614706   -8.9610306    478.53385  0.012446261  0.011798442         3951 
 3205000   0.72754357   -8.9539897    478.58427  0.012443689  0.011792794         3945 
 3206000   0.75301709   -8.9644337    479.03884  0.012451623   0.01178715         3931 
 3207000   0.72921109   -8.9663707    478.98891  0.012446443  0.011781509         3940 
 3208000   0.74213491   -8.9523722    478.08285  0.012419027  0.011775872         3933 
 3209000   0.74072699   -8.9477289    479.28749  0.012446439  0.011770243         3950 
 3210000   0.74913706   -8.9586075     478.4154  0.012419922  0.011764611         3938 
 3211000   0.74612508   -8.9390484    479.08409  0.012433408  0.011758988         3925 
 3212000    0.7205832   -8.9771402    478.64162  0.012418058   0.01175337         3948 
 3213000   0.72538199   -8.9772248    478.12641   0.01240083   0.01174775         3952 
 3214000   0.75388437   -8.9635341    478.88334  0.012416598  0.011742136         3951 
 3215000   0.73408528   -8.9613013    477.45252  0.012375648  0.011736525         3938 
 3216000   0.74749578   -8.9700688    478.45301  0.012397725  0.011730923         3914 
 3217000   0.73920748   -8.9460604    480.48054  0.012446393  0.011725324         3927 
 3218000   0.73777383    -8.964688    479.38297  0.012414102  0.011719726         3941 
 3219000   0.73059093   -8.9585045    479.31627  0.012408519  0.011714134         3942 
 3220000   0.73351899   -8.9790732    480.01779  0.012422821  0.011708542         3937 
 3221000   0.72308115   -8.9612993    478.05524  0.012368189  0.011702956         3945 
 3222000    0.7352372    -8.958359     478.7736   0.01238293  0.011697364         3950 
 3223000   0.71987156   -8.9586922    479.11501  0.012387915  0.011691783         3935 
 3224000   0.73315022   -8.9804324    478.19197  0.012360214  0.011686206         3945 
 3225000   0.72830791   -8.9447069    479.18216  0.012381968  0.011680628         3942 
 3226000   0.72649968   -8.9828496    478.08054  0.012349673  0.011675049         3960 
 3227000   0.74596242   -8.9781609    478.13934  0.012347365  0.011669476         3937 
 3228000   0.73526408   -8.9626312    479.19474  0.012370785  0.011663913         3936 
 3229000   0.74147987    -8.960666    479.11356  0.012364859  0.011658352         3945 
 3230000   0.72617335   -8.9828381    478.02184  0.012332865  0.011652792         3952 
 3231000   0.72680704   -8.9631665    479.19674  0.012359351  0.011647239         3925 
 3232000   0.71931072   -8.9544346    478.98636  0.012350102  0.011641689         3926 
 3233000   0.74373176   -8.9607192    479.44509  0.012358106  0.011636144         3940 
 3234000   0.74530647   -8.9773252    478.04182  0.012318126  0.011630596         3953 
 3235000   0.73418173   -8.9539282    479.62497    0.0123551  0.011625055         3929 
 3236000   0.72685682   -8.9769969    477.92744  0.012307567  0.011619516         3935 
 3237000   0.74303168   -8.9524417    478.64499  0.012322237  0.011613972         3947 
 3238000   0.73383439   -8.9578352    479.64848  0.012344258  0.011608437         3939 
 3239000   0.74945464   -8.9666915    478.61596  0.012313882  0.011602903         3948 
 3240000   0.73543102   -8.9828802     478.7816  0.012314341  0.011597376         3950 
 3241000   0.73558338   -8.9632603    479.81491  0.012337111  0.011591846         3941 
 3242000   0.72467698   -8.9716006    478.69595  0.012304543  0.011586324         3943 
 3243000   0.72454314   -8.9527295    478.85464  0.012304827  0.011580795         3938 
 3244000   0.73548451   -8.9635776     478.7648  0.012298726  0.011575277         3937 
 3245000   0.72721731   -8.9706549    479.78422  0.012321115  0.011569758         3945 
 3246000    0.7287582   -8.9955095    478.96688  0.012296336  0.011564249         3941 
 3247000   0.71944556   -8.9731264     477.7504  0.012261328  0.011558746         3949 
 3248000   0.73122236   -8.9645632    478.30647   0.01227182  0.011553243         3941 
 3249000   0.73402358   -8.9755816    478.85801   0.01228219   0.01154775         3958 
 3250000   0.74064429   -8.9647762    478.39493  0.012266537  0.011542255         3930 
 3251000   0.71954157   -8.9654242    478.13477  0.012256095  0.011536761         3945 
 3252000   0.72656998   -8.9733211    479.18908  0.012279343  0.011531271         3946 
 3253000    0.7178942   -8.9582647    479.04541  0.012271888  0.011525781         3943 
 3254000   0.71707739   -8.9739692    478.74717  0.012260479  0.011520294         3936 
 3255000   0.72842254   -8.9845676    478.00276  0.012237654  0.011514815         3929 
 3256000   0.72644968   -8.9748312    479.38614  0.012269301  0.011509339         3941 
 3257000   0.73568452   -8.9658583    478.11457     0.012233  0.011503865         3943 
 3258000   0.73998197   -8.9623865    478.30485  0.012234112  0.011498395         3953 
 3259000   0.73101363   -8.9752516    478.67224  0.012239753  0.011492924         3957 
 3260000   0.71676807   -8.9845645    477.42192  0.012204037  0.011487457         3937 
 3261000   0.73869657   -8.9934997    477.71066  0.012207673   0.01148199         3951 
 3262000   0.72631773   -8.9631058    477.72334  0.012204254  0.011476529         3929 
 3263000   0.71883059   -8.9758134    478.93376  0.012231427  0.011471079         3951 
 3264000   0.72090634   -8.9707077    478.06434  0.012205482  0.011465622         3948 
 3265000   0.72029825   -8.9743598    479.50497  0.012238514  0.011460171         3935 
 3266000   0.70926104    -8.965014    478.75708  0.012215684  0.011454728         3939 
 3267000   0.74651333   -8.9493756     479.1605  0.012222235  0.011449287         3937 
 3268000   0.71262983   -8.9877385    477.95373  0.012187723  0.011443847         3932 
 3269000   0.73136371   -8.9536857    479.19636  0.012215672  0.011438413         3918 
 3270000   0.74499798   -8.9645923    478.84433  0.012202965  0.011432986         3948 
 3271000    0.7385836   -9.0001226    478.16375  0.012181895   0.01142756         3939 
 3272000   0.72916316   -8.9440226    478.60664  0.012189452  0.011422137         3934 
 3273000   0.72684125   -8.9876981    478.27162  0.012177198  0.011416721         3939 
 3274000    0.7389275   -8.9717213    477.15938  0.012145169  0.011411301         3937 
 3275000   0.74038289   -8.9731418    478.03973  0.012163861  0.011405881         3955 
 3276000   0.73143185    -8.983735      478.185  0.012163843   0.01140047         3945 
 3277000   0.74516896   -8.9751736    479.37774  0.012190462   0.01139506         3925 
 3278000   0.73022757   -8.9919904    478.03757  0.012152674  0.011389651         3928 
 3279000   0.73534141   -8.9805171    479.04225  0.012174501  0.011384247         3948 
 3280000   0.70989453   -8.9819869    478.10213  0.012146904  0.011378847         3931 
 3281000   0.71671517   -8.9934449    478.19477  0.012145555  0.011373451         3940 
 3282000   0.72971962   -9.0026675    478.62786   0.01215285  0.011368055         3921 
 3283000   0.73945931   -8.9738353    477.68276  0.012125159   0.01136266         3951 
 3284000   0.71679005    -8.980998    478.14967  0.012133315  0.011357272         3926 
 3285000   0.73820963   -9.0013143    478.45307  0.012137318   0.01135189         3946 
 3286000   0.72564865   -8.9856934    478.61655   0.01213777  0.011346506         3939 
 3287000   0.75164109   -8.9938001    478.72437  0.012136811  0.011341121         3939 
 3288000   0.71452867   -8.9962485    478.03702  0.012115699  0.011335747         3961 
 3289000   0.71730166   -8.9715584    478.13425  0.012114479  0.011330375         3939 
 3290000    0.7212774    -8.977119    478.20066  0.012112479  0.011325007         3946 
 3291000   0.71709903   -8.9883113    478.51925  0.012116865  0.011319648         3951 
 3292000   0.71876094   -9.0134605    478.73374  0.012118614  0.011314291         3946 
 3293000   0.72357589   -8.9800857    477.80373  0.012091399  0.011308931         3948 
 3294000   0.72061638   -8.9799435    477.93443  0.012091035  0.011303574         3945 
 3295000   0.71271914   -8.9986532    479.14143  0.012117891  0.011298223         3947 
 3296000   0.72642762   -8.9899906    477.08923  0.012062329  0.011292872         3950 
 3297000   0.70699889   -8.9869906    476.89545  0.012053772  0.011287523         3952 
 3298000   0.71178715   -8.9910757    477.65178  0.012069228  0.011282176         3944 
 3299000   0.72461302   -8.9801131    477.93114  0.012072627  0.011276839         3954 
 3300000   0.72664811   -8.9771385    478.34049  0.012079305  0.011271492         3940 
 3301000   0.72279841   -8.9872892    478.08813  0.012069275  0.011266159         3936 
 3302000   0.71261908   -8.9696245    479.11627  0.012091567  0.011260833         3946 
 3303000   0.73185155   -8.9869606    478.69204  0.012077204  0.011255499         3955 
 3304000   0.72309778   -8.9953118    478.11897  0.012059094  0.011250178         3935 
 3305000   0.73616963   -8.9635083    478.71056  0.012070362  0.011244863         3934 
 3306000   0.73075383   -8.9772531     478.4618  0.012060441  0.011239548         3932 
 3307000   0.71399845   -8.9712031    478.82834   0.01206603  0.011234228         3940 
 3308000   0.70826218   -9.0035273    478.28413  0.012048673  0.011228917         3933 
 3309000   0.72411853    -8.964067    478.89288  0.012060363  0.011223605         3918 
 3310000   0.70267537   -8.9935592    477.80545  0.012029342  0.011218293         3949 
 3311000   0.71740074   -8.9891186    478.16268  0.012034699  0.011212985         3944 
 3312000   0.72006682   -8.9811089    477.68885  0.012019144  0.011207681         3935 
 3313000   0.72630654   -8.9691132    477.81553  0.012018702  0.011202382         3920 
 3314000   0.72138402   -8.9891272     478.4875  0.012031973  0.011197084         3939 
 3315000   0.72928494   -8.9888501    478.33965  0.012024627  0.011191792         3936 
 3316000   0.72808241   -8.9886693    477.38024   0.01199689  0.011186501         3953 
 3317000    0.7191521   -8.9984739    478.15777  0.012012807  0.011181217         3961 
 3318000   0.71148198   -9.0107321    477.85902  0.012001683  0.011175927         3933 
 3319000   0.72036402   -8.9790607    478.25993  0.012008133  0.011170648         3940 
 3320000   0.72986328    -8.998677    477.39022  0.011982686  0.011165373         3959 
 3321000   0.71489557   -9.0091185    477.88052  0.011991381  0.011160102         3948 
 3322000   0.70936944   -9.0018822    478.69355  0.012008167  0.011154832         3962 
 3323000   0.71087637   -9.0117252    477.89456  0.011984516  0.011149558         3953 
 3324000   0.72125671   -8.9906704    478.02384  0.011984152  0.011144293         3959 
 3325000   0.71701416   -9.0023064    478.19652  0.011984875  0.011139034         3949 
 3326000   0.72329538   -8.9861183    477.54619  0.011964978  0.011133773         3957 
 3327000   0.71268577   -8.9929125    477.50742   0.01196041  0.011128518         3970 
 3328000   0.71868203   -8.9931728     477.5372  0.011957562  0.011123266         3967 
 3329000    0.7306433    -8.982602    477.83131  0.011961332  0.011118017         3945 
 3330000    0.7213371   -8.9992813    478.08115  0.011963993  0.011112767         3963 
 3331000   0.71248538   -9.0032112    477.23801  0.011939308  0.011107511         3937 
 3332000   0.70258321   -8.9815028    477.93902  0.011953257  0.011102274         3941 
 3333000   0.71866862   -8.9803789    478.39314  0.011961025  0.011097034         3957 
 3334000   0.72626651   -8.9975032     477.4413  0.011933646  0.011091799         3962 
 3335000   0.71591285   -8.9953517    477.67194  0.011935831  0.011086562         3955 
 3336000   0.71762798   -9.0107662    478.51035  0.011953196  0.011081331         3957 
 3337000   0.71011243    -9.003691    477.88356  0.011933962   0.01107611         3966 
 3338000   0.72813746   -8.9936624    477.91882  0.011931267  0.011070888         3938 
 3339000   0.70313221   -9.0060892    478.24001   0.01193571  0.011065662         3956 
 3340000   0.70701809   -9.0008765    477.92872  0.011924369  0.011060448         3958 
 3341000   0.72521049   -9.0038386    477.56097  0.011911627  0.011055229         3940 
 3342000   0.71782487   -8.9910587    477.35445  0.011902914  0.011050019         3935 
 3343000   0.70228094   -9.0085988    478.12737   0.01191862  0.011044812         3959 
 3344000   0.70793973    -9.028607    478.32053   0.01191987  0.011039611         3938 
 3345000   0.72384326   -9.0074301    477.51921  0.011896343  0.011034413         3954 
 3346000   0.71416337   -8.9819177     478.0215  0.011905297  0.011029211         3945 
 3347000   0.72813594   -9.0045131    477.70554  0.011893874   0.01102402         3949 
 3348000   0.72405462   -8.9756692    478.53692  0.011911015  0.011018832         3940 
 3349000   0.72073816   -8.9953707    478.63516  0.011909902  0.011013642         3951 
 3350000    0.7199147   -8.9972169    477.50856  0.011878322  0.011008458         3941 
 3351000   0.70616318   -9.0062085    477.73555  0.011880422  0.011003274         3961 
 3352000   0.71958814   -8.9880016    478.07911   0.01188542  0.010998099         3957 
 3353000   0.70691819   -8.9929174    477.98171  0.011879454  0.010992919         3953 
 3354000   0.72225002   -9.0263654     477.5332  0.011864768   0.01098774         3966 
 3355000    0.7188271   -8.9973068    478.46501  0.011884377  0.010982571         3951 
 3356000   0.72010626   -8.9905061    478.51267  0.011882019  0.010977402         3960 
 3357000   0.71353476   -8.9954748    477.61027  0.011856078  0.010972242         3948 
 3358000   0.70730947   -9.0003374    478.11854  0.011865161  0.010967077         3958 
 3359000   0.70469622   -9.0119064    477.65749  0.011850191  0.010961917         3958 
 3360000   0.71084744   -8.9978189    477.56524  0.011844376  0.010956762         3956 
 3361000   0.70793827    -8.987016    477.79046  0.011846436  0.010951607         3941 
 3362000   0.71639681   -9.0280001    477.80128  0.011843181  0.010946458         3942 
 3363000   0.73233232   -9.0007596     478.6476   0.01186063  0.010941308         3961 
 3364000   0.70381007   -9.0243765    477.51707  0.011829099  0.010936166         3954 
 3365000   0.70856509   -9.0192673    477.72913  0.011830835  0.010931027         3948 
 3366000   0.71083839    -8.982005    477.96134  0.011833069  0.010925887         3959 
 3367000    0.7168393   -9.0067403    478.09637  0.011832897   0.01092075         3952 
 3368000   0.69892322   -8.9945937    477.86061   0.01182355  0.010915618         3960 
 3369000     0.705856   -9.0118969    477.86041  0.011820036  0.010910487         3964 
 3370000   0.69453007   -9.0331927    477.59892  0.011810062  0.010905359         3960 
 3371000   0.72027294   -8.9939863    477.88351  0.011813594  0.010900235         3934 
 3372000   0.72417056   -9.0223816    477.51865  0.011801074  0.010895114         3944 
 3373000   0.70220106   -9.0115296    478.16074  0.011813438  0.010889996         3943 
 3374000   0.70880037    -9.013249    477.92667  0.011804156   0.01088488         3944 
 3375000   0.70668619   -8.9940702    478.23886  0.011808367  0.010879771         3955 
 3376000   0.71066076   -9.0118684    477.47783  0.011786084  0.010874661         3942 
 3377000   0.71828753   -8.9955881    478.24236   0.01180146  0.010869554         3958 
 3378000   0.70534021   -9.0128621    477.38425  0.011776797  0.010864452         3940 
 3379000   0.71398351   -8.9916783    478.35732   0.01179731  0.010859353         3949 
 3380000   0.73288307   -9.0221772     477.2374  0.011766208  0.010854255         3946 
 3381000   0.70629988   -8.9954507    477.86083  0.011778094  0.010849168         3962 
 3382000    0.7227685   -9.0263575    477.16732  0.011757523  0.010844076         3947 
 3383000    0.7162607   -9.0044533    477.78658  0.011769302  0.010838989         3963 
 3384000   0.72541641   -9.0145403    477.95925  0.011770076  0.010833907         3943 
 3385000   0.71339829   -8.9970699    477.73844  0.011761163   0.01082883         3946 
 3386000   0.72083268   -9.0278277    477.22053  0.011744943  0.010823752         3951 
 3387000   0.71405775   -9.0287208     477.2068  0.011741138   0.01081868         3962 
 3388000   0.72214392   -9.0365976    477.27661  0.011739389  0.010813606         3970 
 3389000   0.71504733   -9.0044292    477.39536  0.011738845   0.01080854         3934 
 3390000   0.71917033   -9.0170111    477.61578  0.011740801  0.010803476         3960 
 3391000   0.71221621   -9.0050092    478.32974  0.011754884  0.010798412         3951 
 3392000   0.71979793   -9.0182956    478.14699  0.011746929  0.010793353         3956 
 3393000   0.71157458   -9.0007619    477.02189  0.011715834  0.010788295         3955 
 3394000   0.71198501   -9.0075957    477.20367  0.011716845  0.010783243         3950 
 3395000   0.70544352   -8.9984475    477.43617  0.011719101  0.010778196         3957 
 3396000   0.70985241    -9.028825    476.69379  0.011697433  0.010773146         3948 
 3397000   0.70358022   -9.0162932    476.65982  0.011693156  0.010768096         3948 
 3398000   0.71059251   -9.0063195    477.85696  0.011719074  0.010763057         3928 
 3399000    0.7029537   -8.9954781    478.04251  0.011720175  0.010758022         3943 
 3400000   0.70908324   -9.0162814    477.41021  0.011701231  0.010752984         3948 
 3401000   0.70710444   -9.0220885    477.66687  0.011704079  0.010747945         3951 
 3402000   0.70076297   -9.0219969    478.22062  0.011714203  0.010742914         3962 
 3403000   0.68929056   -8.9998475    478.16352  0.011709362   0.01073789         3943 
 3404000   0.71162907   -9.0077031    477.10565  0.011680025  0.010732865         3957 
 3405000   0.69941137   -9.0320248    477.30282   0.01168142  0.010727845         3954 
 3406000   0.70434565   -9.0058256    477.51273  0.011683126  0.010722831         3946 
 3407000   0.69869457   -9.0209743    477.45477  0.011678279  0.010717819         3959 
 3408000   0.71608258   -9.0396838    477.08205  0.011665739  0.010712812         3955 
 3409000   0.69589861   -9.0077965    477.13194  0.011663536    0.0107078         3948 
 3410000   0.70863473    -9.038401    477.15531  0.011660687  0.010702796         3944 
 3411000   0.70391255   -9.0289088    477.00244  0.011653534  0.010697793         3928 
 3412000   0.70488439   -9.0308885    477.37031  0.011659103  0.010692793         3951 
 3413000   0.71193385   -9.0081652    476.76132  0.011640817    0.0106878         3952 
 3414000   0.71011825   -9.0232489    477.87783  0.011664661  0.010682803         3946 
 3415000   0.70833675   -9.0391458     477.1692  0.011643953   0.01067781         3947 
 3416000   0.70735147   -9.0275916    476.76627  0.011630715  0.010672823         3948 
 3417000   0.71588052   -9.0326454    477.54797  0.011646375  0.010667839         3938 
 3418000   0.70965633   -9.0382791    477.76204  0.011648187  0.010662855         3964 
 3419000   0.69087377   -9.0154208    477.14293   0.01162969  0.010657877         3957 
 3420000   0.71120767   -9.0136795    478.06668  0.011648798  0.010652905         3935 
 3421000    0.7074399   -9.0325273    477.11351  0.011622174  0.010647932         3938 
 3422000   0.70266023   -9.0107521    477.22122  0.011621401  0.010642963         3939 
 3423000   0.69819615   -9.0227451    476.62384  0.011603463  0.010637993         3943 
 3424000   0.70468887   -9.0117505    477.03344  0.011610043  0.010633031         3948 
 3425000   0.70789299   -8.9952888    477.57626   0.01161986  0.010628076         3942 
 3426000   0.68776329   -9.0569694    476.94392  0.011601088  0.010623118         3949 
 3427000   0.69126089   -9.0138785    477.14997  0.011602713  0.010618164         3939 
 3428000   0.72342384    -9.014964    478.20622  0.011625005  0.010613212         3939 
 3429000   0.69731551    -9.028038    477.24988  0.011598374  0.010608267         3952 
 3430000   0.70620266   -9.0075498    477.79327  0.011608194  0.010603321         3952 
 3431000    0.6957277   -8.9920433    478.31573    0.0116175  0.010598377         3953 
 3432000   0.72062654   -9.0157676    477.53604  0.011595184  0.010593437         3950 
 3433000   0.70100693   -9.0210994    477.35974  0.011587527  0.010588503         3956 
 3434000   0.69672651   -9.0415539     476.4762  0.011562711  0.010583563         3948 
 3435000   0.70239452   -9.0478047    476.77337  0.011566554  0.010578631         3940 
 3436000   0.69558531   -9.0303464    478.26749  0.011599425  0.010573702         3945 
 3437000   0.71063874   -9.0357093    476.63668   0.01155651  0.010568778         3955 
 3438000   0.71211946   -9.0238768    477.38958  0.011571398  0.010563858         3934 
 3439000   0.69317672   -9.0176888    477.60244  0.011573191  0.010558936         3958 
 3440000   0.70941305   -9.0224529    478.15703  0.011583261  0.010554017         3947 
 3441000   0.68988741    -9.030735    477.61905  0.011566867  0.010549106         3945 
 3442000   0.69775424   -9.0209877    476.93729     0.011547  0.010544196         3960 
 3443000   0.69856518   -9.0323897    477.08646  0.011547257  0.010539285         3946 
 3444000   0.69532178   -9.0049075    478.59063    0.0115803  0.010534383         3957 
 3445000   0.70997807    -9.008424    477.35597  0.011547072  0.010529482         3934 
 3446000   0.70349154   -9.0356415    477.64671  0.011550752  0.010524586         3958 
 3447000   0.69914154   -9.0349745     476.8363  0.011527809  0.010519688         3949 
 3448000    0.6951627   -9.0183882    476.47325  0.011515691  0.010514792         3959 
 3449000   0.69877865   -9.0411171    477.16822  0.011529144  0.010509904         3943 
 3450000   0.68630281   -8.9992828    477.59409  0.011536089  0.010505023         3940 
 3451000   0.70395808   -9.0429168    477.78465  0.011537348  0.010500141         3956 
 3452000   0.69588717   -9.0350776     477.5849  0.011529184  0.010495257         3959 
 3453000   0.69838698    -9.031793    476.99634  0.011511641  0.010490382         3961 
 3454000    0.6868232   -9.0276174    477.44706  0.011519182  0.010485509         3956 
 3455000    0.6772077   -9.0324034    477.56593  0.011518715   0.01048064         3940 
 3456000   0.68737312    -9.035287    476.81101  0.011497179  0.010475772         3933 
 3457000   0.70944681   -9.0216928    477.34507  0.011506727  0.010470907         3953 
 3458000   0.69422496    -9.021158    477.66026  0.011510995   0.01046604         3963 
 3459000   0.69191679   -9.0282321    476.87286  0.011488698  0.010461181         3944 
 3460000   0.69704746   -9.0152679    476.83129  0.011484376  0.010456323         3943 
 3461000   0.69063996    -9.031901    477.53095  0.011497904  0.010451465         3937 
 3462000   0.71928405   -9.0230391    476.46925  0.011469027  0.010446618         3953 
 3463000   0.70329885   -9.0395976     477.9788  0.011502041  0.010441772         3942 
 3464000   0.68588693   -9.0355883    477.07014  0.011476861  0.010436921         3935 
 3465000   0.69418341   -9.0635989    475.94575  0.011446507  0.010432076         3934 
 3466000   0.69403212   -9.0426369    476.28761  0.011451423  0.010427232         3954 
 3467000   0.69437028   -9.0369169    477.25099  0.011471277  0.010422396         3938 
 3468000   0.70363371   -9.0446564    476.68414  0.011454348  0.010417564         3946 
 3469000   0.69953184   -9.0553139    476.12922  0.011437715  0.010412725         3952 
 3470000   0.68775304   -9.0660694    476.57584  0.011445145  0.010407895         3950 
 3471000   0.69437739   -9.0612473    476.17885  0.011432317  0.010403067         3945 
 3472000   0.71508737   -9.0468337    477.09675  0.011451055  0.010398245         3947 
 3473000   0.70696287   -9.0255636    476.57743  0.011435297  0.010393423         3951 
 3474000    0.6904214   -9.0380719    476.99196  0.011441949  0.010388609         3957 
 3475000   0.69832613    -9.032894     477.1542  0.011442547  0.010383796         3944 
 3476000   0.67604874   -9.0235596     476.5203  0.011424058  0.010378985         3949 
 3477000   0.69155303   -9.0336132    477.23115  0.011437809  0.010374178         3952 
 3478000   0.72324747   -9.0476155    476.78793  0.011423901  0.010369368         3964 
 3479000   0.68751591   -9.0490523    476.82874  0.011421595  0.010364564         3953 
 3480000   0.70511463   -9.0497991    476.70654  0.011415386  0.010359764         3954 
 3481000   0.70777095   -9.0348331    476.13209  0.011398355  0.010354971         3942 
 3482000   0.69544755   -9.0241515    477.55823  0.011429213  0.010350182         3956 
 3483000   0.69325665    -9.021133    477.86705   0.01143332  0.010345394         3947 
 3484000    0.7072967   -9.0344308    477.67751  0.011425505  0.010340612         3954 
 3485000   0.68681859   -9.0420631    477.01885  0.011406476   0.01033583         3940 
 3486000   0.69445583   -9.0540131     475.7587   0.01137308  0.010331055         3953 
 3487000   0.69688687   -9.0230334    476.64349  0.011390964  0.010326276         3945 
 3488000   0.68906081   -9.0141506    477.10476  0.011398718    0.0103215         3958 
 3489000   0.68513067   -9.0626683    477.43259  0.011403281  0.010316725         3962 
 3490000   0.70335554   -9.0591577    477.11775  0.011392496  0.010311957         3951 
 3491000     0.685487   -9.0545169    476.96878  0.011385677   0.01030719         3969 
 3492000   0.69770628   -9.0456932     476.4639  0.011370368  0.010302423         3947 
 3493000   0.69368133    -9.039076    476.43759  0.011366485  0.010297657         3968 
 3494000   0.70585921   -9.0573883    477.48982  0.011388328  0.010292893         3966 
 3495000   0.69263516   -9.0264603    476.27333  0.011356064  0.010288136         3962 
 3496000   0.66208676   -9.0387568    477.71889  0.011387273  0.010283386         3960 
 3497000   0.67420274   -9.0515669    476.15542   0.01134676  0.010278639         3963 
 3498000   0.68476518   -9.0584876    475.80474  0.011335162  0.010273887         3951 
 3499000   0.69291971   -9.0459109     477.0546  0.011361689   0.01026914         3955 
 3500000   0.68556231   -9.0763888    477.11328   0.01135984  0.010264392         3970 
 3501000   0.69761666   -9.0398813    476.83257  0.011349914  0.010259649         3942 
 3502000    0.6988666   -9.0411574    476.37231   0.01133572  0.010254912         3967 
 3503000   0.69737725   -9.0651992    476.35521  0.011332078  0.010250176         3964 
 3504000    0.6781713   -9.0451755    477.05382  0.011345458  0.010245445         3952 
 3505000   0.68022165   -9.0400283     477.2511  0.011346912  0.010240714         3967 
 3506000   0.70972695   -9.0187342    477.16669  0.011341669  0.010235992         3960 
 3507000   0.69589247   -9.0520148    477.26312  0.011340726  0.010231268         3968 
 3508000    0.6930243   -9.0562451    476.25442  0.011313531  0.010226545         3962 
 3509000   0.67580046   -9.0391648    477.13666  0.011331259  0.010221828         3958 
 3510000   0.68341014   -9.0470608    477.12028  0.011327642  0.010217109         3968 
 3511000   0.69184531   -9.0430307    476.45818  0.011308701  0.010212397         3964 
 3512000    0.6914584   -9.0311704     476.1351  0.011297815  0.010207689         3951 
 3513000   0.68571029   -9.0595142    476.83248  0.011311142  0.010202982         3964 
 3514000    0.7056315   -9.0474851    476.85076  0.011308356  0.010198279         3974 
 3515000   0.69074672   -9.0569743    477.10967  0.011311277  0.010193578         3968 
 3516000   0.68425372   -9.0589045      476.776  0.011300152  0.010188879         3964 
 3517000   0.70495361   -9.0606403    476.35012  0.011286848  0.010184183         3980 
 3518000   0.67017685   -9.0492906    476.73325  0.011292715  0.010179488         3971 
 3519000     0.692054   -9.0514609    476.82077  0.011291578  0.010174796         3955 
 3520000   0.68473843   -9.0349133    478.12775  0.011319312   0.01017011         3953 
 3521000   0.69197375    -9.050156    477.39334  0.011298716  0.010165422         3944 
 3522000   0.68916272   -9.0345446     477.6304  0.011301117   0.01016074         3958 
 3523000   0.67639827   -9.0335668    476.98328  0.011282602  0.010156058         3958 
 3524000   0.70130539   -9.0654967    477.05433   0.01128108  0.010151379         3953 
 3525000   0.68703658   -9.0404014    476.10554   0.01125545  0.010146704         3960 
 3526000   0.68377358   -9.0477623    476.18822  0.011254212  0.010142033         3961 
 3527000    0.6893518   -9.0284345    476.48443   0.01125802  0.010137363         3959 
 3528000   0.68396198   -9.0556345    477.01741  0.011267418  0.010132696         3955 
 3529000   0.68606096   -9.0606321    476.77422  0.011258483  0.010128031         3956 
 3530000   0.68449304   -9.0679295    476.91472   0.01125861  0.010123369         3958 
 3531000    0.6815415   -9.0714617    475.99966  0.011233826  0.010118707         3965 
 3532000   0.68950548   -9.0424899    476.46973  0.011241736  0.010114054         3947 
 3533000   0.69718202   -9.0628887    476.62308  0.011242171  0.010109401         3978 
 3534000   0.68583689   -9.0631355    476.95898   0.01124691   0.01010475         3949 
 3535000   0.69390547   -9.0324093    475.53045  0.011210053   0.01010011         3959 
 3536000   0.67369943   -9.0385803    477.05502  0.011242813  0.010095463         3967 
 3537000   0.68088723   -9.0555314    476.73896  0.011232187  0.010090819         3950 
 3538000    0.6864743   -9.0681462    475.23724  0.011193641  0.010086183         3957 
 3539000    0.6789907   -9.0597192    475.83084  0.011204456  0.010081546         3959 
 3540000   0.68528847   -9.0544498    477.63525  0.011243768  0.010076914         3963 
 3541000   0.68761842   -9.0369419    476.38197  0.011211098  0.010072283         3949 
 3542000   0.67396782   -9.0653674    476.54338   0.01121173  0.010067658         3968 
 3543000   0.67556507   -9.0608954    476.31049  0.011203088  0.010063033         3954 
 3544000   0.68425135   -9.0429817    476.29842  0.011199643  0.010058409         3958 
 3545000   0.68007134   -9.0695466    475.99957  0.011189459  0.010053785         3953 
 3546000      0.68446   -9.0669117    476.83596  0.011205959  0.010049174         3960 
 3547000   0.68959477   -9.0554432    476.62118  0.011197753  0.010044563         3951 
 3548000   0.70015608   -9.0775955    475.68544  0.011172619  0.010039953         3970 
 3549000   0.67789124    -9.055318    476.36087  0.011185331  0.010035346         3962 
 3550000    0.6774484   -9.0389456    476.79686  0.011192415  0.010030742         3963 
 3551000   0.68702443    -9.057142    476.72237  0.011187515  0.010026138         3954 
 3552000    0.6789811    -9.068926    476.72812    0.0111845  0.010021533         3969 
 3553000   0.68463078   -9.0613426    476.57963  0.011177869  0.010016934         3953 
 3554000   0.68389586   -9.0634194    476.63397  0.011175998  0.010012339         3965 
 3555000   0.67763308   -9.0759237    476.65223  0.011173282  0.010007746         3957 
 3556000   0.68457584   -9.0749572    475.41388   0.01114112  0.010003161         3967 
 3557000   0.69504468   -9.0290048    476.20919   0.01115662 0.0099985758         3974 
 3558000   0.68639167   -9.0626462    476.25036  0.011154449 0.0099939949         3956 
 3559000   0.69897136     -9.06939    476.93523  0.011167351 0.0099894153         3963 
 3560000   0.68988627   -9.0722033    476.38634  0.011151366 0.0099848367         3958 
 3561000   0.68289554   -9.0662297    476.23188  0.011144619  0.009980264         3947 
 3562000   0.68423472   -9.0720532    475.98613  0.011135741 0.0099756929         3969 
 3563000   0.67811897   -9.0623104    476.08436  0.011134914 0.0099711215         3951 
 3564000   0.68113331   -9.0669132    476.31626  0.011137211 0.0099665504         3970 
 3565000   0.67077578   -9.0397363    475.96839  0.011125956 0.0099619859         3966 
 3566000   0.69678687   -9.0680074    476.42876  0.011133594 0.0099574244         3958 
 3567000   0.68540328   -9.0812856    475.36674  0.011105662 0.0099528638         3969 
 3568000    0.6697596    -9.068853    476.61596  0.011131726 0.0099483067         3949 
 3569000   0.67761843   -9.0969375    475.64168  0.011105858 0.0099437486         3968 
 3570000   0.68772921   -9.0801181    476.50294  0.011122851 0.0099392008         3958 
 3571000   0.67687324   -9.0503506    475.64183  0.011099641 0.0099346561         3954 
 3572000   0.69146156   -9.0698078    476.53503  0.011117372 0.0099301147         3960 
 3573000   0.67277575   -9.0729131    477.10195  0.011127483 0.0099255735         3944 
 3574000   0.69215875   -9.0590824    476.35496  0.011106952 0.0099210351         3950 
 3575000   0.67318035   -9.0527428    475.92361   0.01109379 0.0099165009         3959 
 3576000   0.68174083    -9.081252    476.05877  0.011093838 0.0099119716         3967 
 3577000   0.68327021    -9.076624    476.66396  0.011104836 0.0099074449         3961 
 3578000   0.65566646   -9.0710703    476.60885  0.011100448 0.0099029177         3958 
 3579000   0.65893193   -9.0659832    476.59864  0.011097109  0.009898391         3964 
 3580000   0.67386592   -9.0507437    476.58933  0.011093793 0.0098938713         3972 
 3581000   0.66813658    -9.072718    475.88467  0.011074296 0.0098893505         3961 
 3582000   0.67004241   -9.0674776    476.22102   0.01107903 0.0098848342         3963 
 3583000   0.67485279   -9.0548529    475.91496  0.011068819 0.0098803196         3951 
 3584000   0.67144712   -9.0637703    476.20925  0.011072574 0.0098758095         3961 
 3585000   0.69906689    -9.091914    475.66426  0.011056817    0.0098713         3965 
 3586000   0.68837109   -9.0863119    476.07148  0.011063197 0.0098667959         3964 
 3587000   0.68637093   -9.0768372    476.33254  0.011066177 0.0098622909         3959 
 3588000   0.68303249     -9.06571    476.34433  0.011063367 0.0098577926         3961 
 3589000   0.68058679    -9.065829    476.82915  0.011071541 0.0098532962         3962 
 3590000   0.69871098   -9.0745727    477.03486  0.011073233  0.009848801         3938 
 3591000   0.67092718   -9.0675531     476.8501  0.011065861 0.0098443056         3952 
 3592000   0.67254876   -9.0720703    476.41014  0.011052574 0.0098398141         3970 
 3593000   0.66196125   -9.0700499    475.79588  0.011035251 0.0098353297         3954 
 3594000   0.67387896   -9.0729385    476.72943  0.011053827 0.0098308477         3972 
 3595000   0.67931533   -9.0782092    476.09386  0.011036019 0.0098263678         3965 
 3596000   0.68810959   -9.0749901    476.91483  0.011051975 0.0098218893         3970 
 3597000   0.67260432   -9.0593636    475.77024  0.011022385 0.0098174147         3957 
 3598000   0.68494868    -9.085214     475.4944  0.011012933 0.0098129416         3963 
 3599000   0.66420719   -9.0920195    476.64313  0.011036471  0.009808471         3971 
 3600000   0.67707867   -9.0849137    476.45331  0.011029012 0.0098040034         3961 
 3601000   0.67364354   -9.0579088    475.96782  0.011014714 0.0097995353         3960 
 3602000    0.6720279   -9.0766076    475.98979  0.011012164  0.009795072         3961 
 3603000   0.68717803   -9.0910965    475.81343  0.011005029 0.0097906137         3974 
 3604000   0.68376833   -9.0699047     476.6882  0.011022202 0.0097861577         3963 
 3605000   0.67330652   -9.0719401    476.42456   0.01101305 0.0097817004         3958 
 3606000   0.66842093   -9.1037909    475.92764  0.010998513 0.0097772423         3962 
 3607000   0.67521288   -9.0873896    475.42366   0.01098382 0.0097727915         3968 
 3608000   0.66667949   -9.0722567    476.46527  0.011004833 0.0097683439         3957 
 3609000   0.68953563   -9.0791602    476.27019   0.01099728 0.0097638945         3961 
 3610000   0.67046921   -9.0638724    475.44774  0.010975248 0.0097594527         3960 
 3611000   0.67660351   -9.0615365    477.37535  0.011016693  0.009755011         3967 
 3612000   0.68117038   -9.0783746    475.85856  0.010978649 0.0097505724         3954 
 3613000   0.68494277   -9.0798666    476.59416  0.010992577 0.0097461378         3968 
 3614000   0.68079959   -9.0838808    475.85362  0.010972459 0.0097417039         3969 
 3615000   0.66791075   -9.0841403      475.699   0.01096586 0.0097372701         3954 
 3616000   0.67768893   -9.0657001    476.12619  0.010972672 0.0097328434         3959 
 3617000   0.67575892   -9.0906809    474.50126  0.010932201  0.009728416         3962 
 3618000   0.68780553   -9.0795526    475.69789  0.010956742 0.0097239953         3956 
 3619000   0.67150323   -9.1080558    476.85318  0.010980316 0.0097195755         3969 
 3620000   0.65962463   -9.0773263    475.46418  0.010945308 0.0097151592         3960 
 3621000   0.68412891   -9.0851975    475.99625   0.01095453 0.0097107411         3964 
 3622000   0.67780783   -9.0802805    475.56605  0.010941608 0.0097063241         3979 
 3623000   0.66129355   -9.0821454     475.5515  0.010938253 0.0097019152         3968 
 3624000   0.65134602   -9.0747693    475.54442  0.010935072 0.0096975108         3972 
 3625000   0.67256643   -9.0815631    476.55792  0.010955355 0.0096931066         3946 
 3626000   0.68138814   -9.0859501    475.26663  0.010922657 0.0096887104         3954 
 3627000   0.66389238    -9.088537    476.04295  0.010937482 0.0096843125         3966 
 3628000   0.67869488   -9.0842482    476.36779  0.010941928 0.0096799164         3960 
 3629000   0.67969863   -9.0755804    476.88747  0.010950847 0.0096755272         3947 
 3630000   0.67404389   -9.0740866    476.70651  0.010943676 0.0096711371         3969 
 3631000   0.66431269   -9.0817724    476.46522  0.010935124 0.0096667483         3966 
 3632000   0.66086795   -9.0909518    476.79145  0.010939598 0.0096623637         3966 
 3633000   0.67075731   -9.0752592    475.65799  0.010910588 0.0096579815         3950 
 3634000   0.69372491   -9.0854115    475.19603  0.010896992 0.0096536009         3966 
 3635000   0.66696264   -9.0836516    476.08062  0.010914274 0.0096492267         3959 
 3636000   0.67124621   -9.0964655    475.30596  0.010893518 0.0096448521         3969 
 3637000   0.67858436    -9.096183    475.49353   0.01089482 0.0096404802         3968 
 3638000   0.67640163    -9.076045     476.0377   0.01090429 0.0096361127         3963 
 3639000   0.67484354   -9.1053625    475.39756  0.010886635 0.0096317474         3971 
 3640000   0.66213018   -9.1007942    475.37427  0.010883111 0.0096273848         3964 
 3641000   0.66596894   -9.0980373    476.51731  0.010906283 0.0096230261         3963 
 3642000   0.67312338   -9.0715883    476.48974  0.010902658 0.0096186722         3966 
 3643000   0.66790364   -9.0926674    475.89965  0.010886166 0.0096143152         3959 
 3644000   0.67179028   -9.0847713    476.51443  0.010897238 0.0096099692         3959 
 3645000   0.67017863   -9.0794518    476.93566  0.010903879 0.0096056207         3958 
 3646000   0.65415679   -9.0824135    475.85625  0.010876217  0.009601273         3959 
 3647000   0.68212164    -9.084773    475.85745  0.010873262 0.0095969299         3950 
 3648000   0.68412735     -9.08385    476.53421  0.010885741 0.0095925893         3959 
 3649000   0.66068627   -9.1098196    475.99151  0.010870364 0.0095882505         3959 
 3650000   0.66334267     -9.06676      476.097  0.010869795 0.0095839177         3967 
 3651000   0.66441785   -9.0823809    476.17913  0.010868692 0.0095795833         3974 
 3652000   0.66950361   -9.0827086    475.60314  0.010852573  0.009575249         3953 
 3653000   0.67116113   -9.0706727    475.79289   0.01085393 0.0095709212         3969 
 3654000   0.66501081   -9.0769146    475.72752  0.010849469 0.0095665948         3958 
 3655000   0.67196265   -9.0815131    476.21554  0.010857628 0.0095622713         3967 
 3656000   0.66468446    -9.093139    476.30455  0.010856686 0.0095579516         3960 
 3657000   0.64961766    -9.087571    475.54931  0.010836508 0.0095536317         3965 
 3658000    0.6546141   -9.1121661    474.78809  0.010816204  0.009549314         3949 
 3659000   0.66006791   -9.1042835    474.97703  0.010817551 0.0095450002         3954 
 3660000   0.66519179   -9.0963137    475.68028  0.010830607 0.0095406914         3961 
 3661000   0.67738152   -9.0667878    475.31655   0.01081937 0.0095363824         3950 
 3662000   0.67554538   -9.0830724    476.43483  0.010841863 0.0095320788         3961 
 3663000   0.65532065   -9.0606088    476.51731   0.01084078  0.009527778         3968 
 3664000   0.66611062   -9.0759386    475.97862  0.010825569 0.0095234779         3950 
 3665000   0.66978349   -9.0771259    476.23527  0.010828451 0.0095191825         3951 
 3666000   0.66325584   -9.0926303     475.1759  0.010801416 0.0095148872         3962 
 3667000   0.66810918     -9.10127    476.36092  0.010825401 0.0095105958         3963 
 3668000   0.66224501   -9.0935015    475.61501  0.010805503 0.0095063048         3963 
 3669000   0.67061527   -9.0891009    475.11934    0.0107913 0.0095020195         3955 
 3670000   0.66883812   -9.1167593    475.60256  0.010799332 0.0094977391         3970 
 3671000   0.67264439   -9.0728013    475.21502  0.010787592 0.0094934538         3948 
 3672000   0.67049076   -9.0903825    475.65733  0.010794692 0.0094891727         3966 
 3673000   0.66332028   -9.0943529    475.77014  0.010794313 0.0094848908         3962 
 3674000   0.65536585   -9.0765921    474.98427   0.01077355 0.0094806173         3948 
 3675000   0.66300407   -9.1168239    475.34911  0.010778891 0.0094763467         3979 
 3676000   0.66561167   -9.1193987    475.73997   0.01078482 0.0094720727         3976 
 3677000   0.66445965    -9.100162    475.91544  0.010785863 0.0094678042         3971 
 3678000   0.65404345   -9.0785661    476.06534  0.010786327 0.0094635388         3933 
 3679000   0.67259776   -9.1019111     474.4689  0.010747234 0.0094592741         3947 
 3680000   0.67034321   -9.1120204     475.4412  0.010766331 0.0094550159         3955 
 3681000    0.6492113   -9.0756715    474.77611   0.01074835 0.0094507559         3966 
 3682000    0.6574732   -9.0794823     475.0373  0.010751342 0.0094465005         3959 
 3683000   0.66248578   -9.1140901    475.96522  0.010769419 0.0094422431         3966 
 3684000   0.65970394   -9.0975508    475.69245  0.010760325 0.0094379935         3960 
 3685000   0.67499217   -9.0953588    476.29187  0.010770961 0.0094337402         3947 
 3686000   0.67271386   -9.1039342    474.38549  0.010724939  0.009429498         3971 
 3687000   0.67394916   -9.1050403    475.30578   0.01074283 0.0094252561         3965 
 3688000   0.65072274   -9.1114947    475.34175   0.01074073 0.0094210186         3971 
 3689000   0.66607122   -9.0946755    475.29993  0.010736874  0.009416779         3955 
 3690000   0.66313921   -9.0972205    475.50516  0.010738599 0.0094125417         3960 
 3691000   0.67059921   -9.0867581    476.42506  0.010756459 0.0094083086         3959 
 3692000    0.6625427    -9.097191    475.24882  0.010726996 0.0094040798         3959 
 3693000   0.66693311   -9.0924381    476.78096  0.010758664 0.0093998538         3964 
 3694000   0.66647421   -9.1042201    476.01157  0.010738395 0.0093956293         3957 
 3695000   0.65589909   -9.1088103    475.94186  0.010733917 0.0093914002         3962 
 3696000    0.6637774   -9.0869105    476.01744  0.010732717 0.0093871837         3954 
 3697000   0.67036092   -9.0964369    475.59945  0.010720392 0.0093829657         3963 
 3698000   0.65813303   -9.1056613    475.23356  0.010709247 0.0093787482         3956 
 3699000   0.65433038   -9.0969588    475.96797  0.010722897 0.0093745316         3957 
 3700000    0.6638829    -9.124596    475.40056   0.01070722 0.0093703167         3975 
 3701000   0.66667233   -9.0903826    475.42205  0.010704811 0.0093661054         3959 
 3702000   0.65783118   -9.1018441    475.75627  0.010709442 0.0093618997         3966 
 3703000   0.64087049   -9.1163807    474.98525  0.010689199 0.0093576938         3971 
 3704000   0.66443289   -9.1151244    475.49258  0.010697727 0.0093534912         3964 
 3705000   0.66003301   -9.0918281    475.88659  0.010703702 0.0093492898         3959 
 3706000   0.65598186   -9.1171005    475.32995  0.010688297 0.0093450885         3967 
 3707000   0.67894503   -9.0909963    476.28848  0.010706962  0.009340895         3961 
 3708000   0.65209771   -9.1124568    475.40552   0.01068423 0.0093367041         3967 
 3709000   0.65420246   -9.0877095    475.99328  0.010694556 0.0093325131         3964 
 3710000   0.65688257   -9.0837082    474.97934  0.010668898  0.009328327         3963 
 3711000   0.65414201   -9.1174597    475.47893  0.010677242 0.0093241452         3969 
 3712000   0.65673573   -9.1004195    476.82796  0.010704651 0.0093199591         3966 
 3713000   0.65899624   -9.1350431    475.48727  0.010671678 0.0093157786         3970 
 3714000   0.65483571     -9.11017    474.57709  0.010648382 0.0093115949         3953 
 3715000   0.64658731   -9.1112373    475.88717  0.010674903 0.0093074164         3956 
 3716000   0.64834102   -9.0925525    476.77925  0.010692036  0.009303249         3955 
 3717000   0.65351432   -9.0976676    475.57474  0.010662155 0.0092990794         3962 
 3718000   0.65786124   -9.1046497    475.19204  0.010650709 0.0092949122         3965 
 3719000   0.66461069   -9.1117288    475.30627  0.010650405 0.0092907487         3970 
 3720000   0.63546219   -9.1070027    474.57062  0.010631062 0.0092865878         3973 
 3721000   0.65907808   -9.1023637    475.53182  0.010649732  0.009282427         3964 
 3722000   0.65765095   -9.1237446      475.498  0.010646113  0.009278273         3969 
 3723000   0.66265978   -9.1095338    475.67639  0.010647247 0.0092741207         3971 
 3724000   0.66545427   -9.1094725    475.09222  0.010631315 0.0092699688         3976 
 3725000   0.66592233   -9.1101752    475.88215  0.010646133 0.0092658249         3964 
 3726000   0.66729879   -9.1020497    475.69416  0.010639071 0.0092616795         3963 
 3727000   0.65705253   -9.0996446    476.27474  0.010649198 0.0092575373         3961 
 3728000   0.67139484   -9.1041632    475.20878  0.010622514 0.0092533971         3970 
 3729000   0.65494914   -9.1187663    475.13823  0.010618089 0.0092492586         3959 
 3730000   0.66961898   -9.1205326    475.80758  0.010630196 0.0092451231         3961 
 3731000   0.65507212     -9.10043    475.77043  0.010626517 0.0092409897         3963 
 3732000   0.64438637   -9.1112238    475.28206  0.010612765 0.0092368564         3950 
 3733000   0.65995418   -9.1008871    476.01156  0.010626207 0.0092327267         3960 
 3734000    0.6499483   -9.1018248    475.89758  0.010620817  0.009228598         3951 
 3735000   0.64493521   -9.1084668     475.4654  0.010608331 0.0092244729         3962 
 3736000   0.68030504   -9.1257012    474.55286  0.010585137  0.009220349         3967 
 3737000   0.66402435   -9.1147047    474.59158  0.010583168 0.0092162284         3956 
 3738000   0.65367556   -9.1096853    476.02095  0.010612202 0.0092121109         3970 
 3739000   0.65829188   -9.1064863    475.79571  0.010604344 0.0092079956         3952 
 3740000   0.64998596   -9.1221027    474.79814  0.010579281 0.0092038839         3962 
 3741000   0.65371656   -9.1152621    475.37497  0.010589302 0.0091997712         3963 
 3742000   0.66002966   -9.1354681    475.37701  0.010586518 0.0091956665         3971 
 3743000   0.65461507   -9.0945308    475.89083  0.010595129 0.0091915588         3969 
 3744000   0.65551849   -9.1355061    474.81117  0.010568269 0.0091874524         3963 
 3745000   0.66434301    -9.119795    475.35703  0.010577593  0.009183351         3957 
 3746000   0.65002809   -9.1129214    475.79322  0.010584473 0.0091792519         3970 
 3747000   0.66184337   -9.1182114    475.02225  0.010564502 0.0091751509         3971 
 3748000   0.65233308   -9.1003746    474.77881   0.01055627 0.0091710549         3963 
 3749000    0.6600359   -9.1050296    474.93463  0.010556918 0.0091669647         3951 
 3750000   0.64924028   -9.0909206    475.45004  0.010565556 0.0091628707         3965 
 3751000   0.63700021   -9.1228017    475.01998  0.010553185 0.0091587856         3971 
 3752000   0.64690995   -9.1010398    475.07997  0.010551705 0.0091546963         3957 
 3753000   0.65291319   -9.1156437     475.2703   0.01055312 0.0091506176         3967 
 3754000   0.65490906   -9.1148661    474.48649  0.010532909 0.0091465388         3958 
 3755000   0.65828595   -9.0958549    475.14134  0.010544637 0.0091424644         3953 
 3756000   0.66058117   -9.1005298    475.78227   0.01055605 0.0091383887         3958 
 3757000    0.6378165   -9.1322972    475.97148  0.010557437 0.0091343176         3972 
 3758000    0.6568353    -9.127592    475.80501  0.010550936 0.0091302467         3963 
 3759000   0.66417216   -9.1147426    475.09134  0.010532308 0.0091261805         3972 
 3760000   0.64363487   -9.1039408    475.03516  0.010528262 0.0091221169         3957 
 3761000     0.641912   -9.1458162    475.41087  0.010533787 0.0091180526         3966 
 3762000   0.65467579   -9.1057175    475.53173  0.010533664 0.0091139928         3972 
 3763000   0.63471119   -9.1172919    475.05084  0.010520215 0.0091099383         3960 
 3764000   0.65822645   -9.1032147    475.39819  0.010525111 0.0091058828         3969 
 3765000   0.65078247    -9.109717    474.19871  0.010495766 0.0091018282         3955 
 3766000    0.6463514   -9.1238264    475.46268  0.010520948  0.009097781         3957 
 3767000   0.64832633    -9.135367     474.5689  0.010498383 0.0090937334         3967 
 3768000   0.64717298   -9.1302829    475.82866  0.010523458  0.009089688         3962 
 3769000   0.65239119   -9.1132448    475.02389  0.010502872 0.0090856428         3953 
 3770000   0.64206906   -9.1214569    475.26933  0.010505511 0.0090816029         3951 
 3771000   0.64446225   -9.1048692    474.69729  0.010490084 0.0090775618         3959 
 3772000   0.63743206   -9.1248164    474.50696  0.010483098 0.0090735233         3954 
 3773000   0.65001112   -9.1211497    474.84919  0.010487879 0.0090694866         3970 
 3774000   0.66892699   -9.1135004    475.72233  0.010504379  0.009065459         3939 
 3775000   0.66018869   -9.1323669    475.06998  0.010487196 0.0090614297         3962 
 3776000   0.64318545   -9.1362886    475.15057  0.010486197 0.0090574041         3957 
 3777000   0.64732905   -9.1122875    475.14373   0.01048327 0.0090533834         3949 
 3778000   0.63593291   -9.1212313    476.12727   0.01050219 0.0090493655         3971 
 3779000   0.65582243   -9.1158522    475.67323  0.010489398 0.0090453449         3961 
 3780000    0.6589707   -9.1293151    474.98394  0.010471427 0.0090413291         3950 
 3781000   0.64472332   -9.1169164     474.9966  0.010468937 0.0090373126         3967 
 3782000   0.64093251   -9.1314824     475.2676   0.01047214 0.0090332987         3970 
 3783000   0.64247698   -9.1267472    475.55907  0.010475792 0.0090292871         3955 
 3784000   0.63500015   -9.1249612    474.89427  0.010458383 0.0090252803         3963 
 3785000    0.6374964   -9.1050993    474.94893  0.010456824 0.0090212758         3973 
 3786000   0.63979125    -9.129108    475.03209  0.010455892 0.0090172743         3951 
 3787000   0.64622419     -9.11069    475.58498  0.010465298  0.009013272         3970 
 3788000   0.63477109   -9.1366782    475.73402  0.010465814 0.0090092761         3961 
 3789000   0.64504223   -9.1226178    475.40971  0.010455919  0.009005278         3967 
 3790000   0.65590264   -9.1245485    474.64452  0.010436335 0.0090012796         3964 
 3791000    0.6376205   -9.1207739    474.80789  0.010437173 0.0089972883         3956 
 3792000   0.63875935   -9.1277754    475.63197  0.010452531 0.0089933035         3968 
 3793000   0.64189976   -9.0935702    474.93083  0.010434371  0.008989316         3965 
 3794000   0.64618855   -9.1219133    475.65472  0.010447521 0.0089853306         3966 
 3795000   0.64199052    -9.114353    474.83533  0.010426775 0.0089813479         3952 
 3796000   0.65418541   -9.1347845    474.82176   0.01042373 0.0089773688         3960 
 3797000    0.6497105   -9.1210582     474.8509  0.010421624 0.0089733943         3962 
 3798000   0.64232289   -9.1126294    475.42813  0.010431546 0.0089694182         3968 
 3799000   0.64863811   -9.1171598    475.80547  0.010437077 0.0089654434         3974 
 3800000   0.64400102   -9.1222165    474.50247  0.010405756 0.0089614744         3965 
 3801000   0.65865539   -9.1048706    476.30529  0.010442543 0.0089575063         3948 
 3802000    0.6220981   -9.1314365    474.84575  0.010407806 0.0089535409         3956 
 3803000   0.65013971   -9.1258308    475.29855  0.010414991 0.0089495774         3960 
 3804000   0.64688073   -9.1245352    474.92607  0.010404094 0.0089456176         3961 
 3805000   0.63766364   -9.0998407    475.37692  0.010411233 0.0089416589         3958 
 3806000   0.64632956   -9.1297136     474.9848  0.010399912 0.0089377029         3961 
 3807000   0.65171489   -9.1235168    474.69104   0.01039075 0.0089337506         3954 
 3808000   0.65274352   -9.1279409    475.58773  0.010407645 0.0089297972         3976 
 3809000   0.64124014   -9.1350852    474.86318  0.010389061 0.0089258511         3953 
 3810000   0.64024606   -9.1209184    475.46799  0.010399562 0.0089219012         3970 
 3811000   0.63294862    -9.118962    475.34058  0.010394048 0.0089179587         3951 
 3812000   0.64915712   -9.1332064    474.65167  0.010376261 0.0089140161         3957 
 3813000   0.64521779   -9.1035771    474.91511  0.010379297 0.0089100764         3966 
 3814000   0.63376178   -9.1183605    474.12992   0.01035942 0.0089061362         3967 
 3815000   0.64387509   -9.1389649    475.38704  0.010384164 0.0089022013         3958 
 3816000   0.63539879   -9.1212579    475.32471  0.010380082 0.0088982677         3963 
 3817000   0.65285407   -9.1318694    474.44593  0.010358177  0.008894338         3966 
 3818000   0.63269068   -9.1142325    475.08846  0.010369488 0.0088904099         3960 
 3819000   0.65831518    -9.120801    474.66434  0.010357518 0.0088864854         3963 
 3820000   0.63422607   -9.1346201    474.32281  0.010347356 0.0088825632         3969 
 3821000   0.64631587   -9.1226052    475.56713  0.010371786 0.0088786416         3965 
 3822000   0.64108684   -9.1337104     474.5262  0.010346376 0.0088747263         3965 
 3823000   0.63306324   -9.1498655    474.49785  0.010343052 0.0088708075         3970 
 3824000   0.62952471   -9.1267647    474.25228  0.010334996 0.0088668888         3963 
 3825000   0.63183849   -9.1254518    474.25822  0.010332423   0.00886298         3967 
 3826000   0.64086787   -9.1087482    476.27884  0.010373733 0.0088590701         3951 
 3827000   0.63451832    -9.139804    474.51656  0.010332649 0.0088551608         3962 
 3828000   0.64274802   -9.1258359    475.14095  0.010343542 0.0088512559         3960 
 3829000   0.64692562   -9.1346626     475.1736  0.010341551  0.008847354         3957 
 3830000   0.65013937   -9.1426339    474.35581  0.010321058 0.0088434511         3959 
 3831000   0.64356909   -9.1355366    475.38054  0.010340654 0.0088395563         3965 
 3832000   0.64242466   -9.1153449    474.76916   0.01032466 0.0088356595         3962 
 3833000   0.64058147   -9.1256874    474.89615  0.010324727 0.0088317671         3962 
 3834000   0.65020237   -9.1331923    474.55278  0.010314571 0.0088278757         3963 
 3835000   0.63435968   -9.1420205    474.50682  0.010310883 0.0088239851         3967 
 3836000   0.63619663   -9.1428166    474.75732  0.010313637 0.0088200975         3961 
 3837000   0.63965763   -9.1501559    474.18446  0.010298507 0.0088162123         3975 
 3838000   0.64283716   -9.1275057    474.86498    0.0103106  0.008812331         3963 
 3839000   0.64605293   -9.1392708    475.41786  0.010319915 0.0088084501         3965 
 3840000   0.64358654   -9.1425327    474.67486  0.010301104 0.0088045725         3966 
 3841000   0.62858256   -9.1350839     474.7417  0.010299872 0.0088007016         3952 
 3842000   0.63351293   -9.1262903    474.35577   0.01028882 0.0087968274         3968 
 3843000   0.65112177   -9.1370237    474.73702   0.01029441 0.0087929551         3965 
 3844000   0.63150114   -9.1257142    474.49762  0.010286542 0.0087890843         3964 
 3845000   0.63924031   -9.1158065    475.06211  0.010296101 0.0087852176         3967 
 3846000   0.64656017   -9.1350244    474.59124  0.010283221 0.0087813543         3964 
 3847000   0.63926409   -9.1297269    474.69354  0.010282764 0.0087774933         3966 
 3848000   0.63601742   -9.1357778    474.49347  0.010275759 0.0087736369         3971 
 3849000   0.63069592   -9.1499931    474.70836  0.010277742 0.0087697789         3963 
 3850000   0.63486197   -9.1115667    474.80374  0.010277137 0.0087659234         3963 
 3851000   0.63259009   -9.1352688    474.10425  0.010259332 0.0087620719         3946 
 3852000   0.63082646   -9.1387577    475.15475  0.010279395 0.0087582228         3960 
 3853000   0.61512587    -9.144831    474.56736  0.010264023  0.008754372         3955 
 3854000   0.64213504   -9.1526818     474.2212  0.010253875 0.0087505264         3980 
 3855000   0.64983763   -9.1422343    474.49392   0.01025711 0.0087466823         3969 
 3856000   0.62528657   -9.1276685    474.87205  0.010262622 0.0087428383         3977 
 3857000   0.63129724    -9.119412    474.94302  0.010261495 0.0087390028         3967 
 3858000   0.63116419   -9.1515035    474.76865  0.010255069 0.0087351699         3962 
 3859000    0.6366898   -9.1553779     474.5526  0.010247746 0.0087313366         3981 
 3860000   0.66083648    -9.133477    475.15805  0.010258162 0.0087275042         3974 
 3861000   0.61775919   -9.1463112    474.67183  0.010245011  0.008723673         3959 
 3862000    0.6338016   -9.1248957    474.47313   0.01023807 0.0087198512         3972 
 3863000   0.63082025   -9.1206767    475.40012  0.010255417 0.0087160295         3973 
 3864000   0.63259714   -9.1216126    474.81514  0.010240147  0.008712205         3959 
 3865000   0.62986574   -9.1538443    473.47244  0.010208548 0.0087083814         3982 
 3866000   0.64475047   -9.1478591    474.67641  0.010231859 0.0087045663         3961 
 3867000   0.63950678   -9.1373841    474.84667  0.010232882 0.0087007544         3972 
 3868000   0.61409228   -9.1472373     475.2828  0.010239633 0.0086969418         3982 
 3869000   0.63814696   -9.1197123    474.57263   0.01022169 0.0086931324         3972 
 3870000   0.63698577   -9.1642095    474.54494  0.010218453 0.0086893221         3976 
 3871000   0.63218954   -9.1485568      474.743  0.010220077 0.0086855133         3961 
 3872000   0.63641502   -9.1447929     474.6463  0.010215356  0.008681706         3970 
 3873000   0.62271041   -9.1428163    474.35113  0.010206367 0.0086779022         3966 
 3874000   0.63419434   -9.1300477     474.9249  0.010216075 0.0086741026         3978 
 3875000   0.63624803   -9.1356752    475.12451  0.010217731 0.0086703072         3975 
 3876000   0.62867634   -9.1342865    475.17284  0.010216134  0.008666512         3973 
 3877000   0.62581993   -9.1427331    474.39244  0.010196725 0.0086627179         3970 
 3878000   0.64529048   -9.1491106    473.89011  0.010183301 0.0086589273         3976 
 3879000   0.62828166   -9.1406349    474.39156  0.010191449 0.0086551367         3967 
 3880000   0.63339016   -9.1279421    474.94584  0.010200727 0.0086513522         3972 
 3881000    0.6335651   -9.1617914     473.9885  0.010177542 0.0086475677         3978 
 3882000   0.63291343   -9.1359283    473.68352  0.010168374 0.0086437825         3969 
 3883000   0.63097466   -9.1678806    474.79542  0.010189618 0.0086400011         3963 
 3884000   0.63558481   -9.1567844    474.95755  0.010190473 0.0086362234         3966 
 3885000   0.62905514    -9.151504    474.79486   0.01018436 0.0086324442         3973 
 3886000   0.62776668   -9.1453517    474.83025  0.010182498 0.0086286725         3972 
 3887000   0.63533882   -9.1322783      474.305  0.010168618  0.008624902         3972 
 3888000    0.6219859   -9.1384239    474.89536  0.010178656 0.0086211312         3974 
 3889000   0.63633417   -9.1443732    473.99189  0.010156679  0.008617364         3957 
 3890000   0.62804136   -9.1512214    473.49734  0.010143473 0.0086135992         3967 
 3891000   0.62614256   -9.1353917    474.76357  0.010167985 0.0086098393         3974 
 3892000    0.6323791   -9.1516411    474.03639  0.010149803 0.0086060798         3957 
 3893000   0.64488903   -9.1363645    474.56695  0.010158553   0.00860232         3972 
 3894000   0.63243941   -9.1546726    473.26774   0.01012814  0.008598564         3965 
 3895000   0.63549425   -9.1670341    474.47367  0.010151341 0.0085948132         3969 
 3896000   0.64075704   -9.1335387    474.88002  0.010157427 0.0085910577         3962 
 3897000   0.62324504   -9.1551679    473.70502  0.010129694  0.008587307         3955 
 3898000   0.62849511   -9.1552945    474.05777  0.010134637 0.0085835601         3964 
 3899000   0.63795218   -9.1612077    473.84952  0.010127587 0.0085798141         3966 
 3900000   0.63013579    -9.145737    474.09202  0.010130171 0.0085760719         3970 
 3901000    0.6181575   -9.1411654    474.73966  0.010141409 0.0085723292         3961 
 3902000   0.63948928   -9.1348062    475.14458  0.010147458 0.0085685939         3954 
 3903000   0.62529073    -9.169131    474.06368   0.01012178 0.0085648555         3964 
 3904000   0.65003206   -9.1485766    474.28962   0.01012401 0.0085611215         3963 
 3905000   0.63469761   -9.1597466    474.09721  0.010117311 0.0085573862         3967 
 3906000   0.64300189   -9.1636071    474.71694  0.010127943 0.0085536525         3969 
 3907000     0.631102   -9.1517396    474.53702  0.010121513 0.0085499231         3971 
 3908000   0.62634593   -9.1503549    474.83717  0.010125323 0.0085461949         3964 
 3909000   0.62549951   -9.1534836    474.31322  0.010111563 0.0085424695         3970 
 3910000   0.62915475    -9.145682    474.55249  0.010114077 0.0085387453         3965 
 3911000   0.62385686    -9.140264    474.29408  0.010105985 0.0085350245         3961 
 3912000   0.62021374   -9.1453895    474.11326   0.01009955  0.008531306         3967 
 3913000   0.62753078   -9.1515991    473.81692  0.010090658 0.0085275905         3951 
 3914000   0.63339463   -9.1675152    473.72055  0.010086028 0.0085238753         3964 
 3915000   0.62090263   -9.1727867    474.64929   0.01010322  0.008520159         3970 
 3916000   0.61701009   -9.1480097    474.36182  0.010094523 0.0085164503         3980 
 3917000   0.62202664    -9.167912    473.91641   0.01008247  0.008512741         3972 
 3918000   0.62262913   -9.1704498    474.16182  0.010085116 0.0085090332         3971 
 3919000   0.64143425   -9.1604211      474.328  0.010086076 0.0085053293         3967 
 3920000   0.63845025   -9.1679221    473.98058  0.010076118 0.0085016309         3965 
 3921000   0.61819848   -9.1362632    474.68977   0.01008862  0.008497931         3960 
 3922000   0.61306116   -9.1490915    473.38678  0.010058363 0.0084942327         3958 
 3923000   0.62538812   -9.1626914    473.80873  0.010064762 0.0084905359         3965 
 3924000   0.62093648   -9.1602993    474.18684  0.010070227 0.0084868443         3972 
 3925000   0.63364498   -9.1456909    473.98505  0.010063377 0.0084831549         3967 
 3926000   0.62018445   -9.1589503     474.9621  0.010081553 0.0084794636         3960 
 3927000   0.61847845   -9.1618835    474.43289  0.010067755 0.0084757796         3964 
 3928000    0.6254329   -9.1451412    474.39048  0.010064292 0.0084720967         3958 
 3929000   0.62282202   -9.1545647    474.28378  0.010059468 0.0084684131         3958 
 3930000    0.6176723   -9.1648911    473.69029  0.010044323 0.0084647341         3966 
 3931000   0.61886832   -9.1719549    473.34597  0.010034469 0.0084610583         3965 
 3932000   0.62430864   -9.1431918     473.6738  0.010038865 0.0084573818         3976 
 3933000   0.62864372   -9.1677312    473.97537  0.010042702 0.0084537039         3968 
 3934000   0.62035231   -9.1661325     473.4432  0.010028877 0.0084500368         3965 
 3935000   0.61821235   -9.1637516    475.70097  0.010074142 0.0084463662         3966 
 3936000   0.60663049   -9.1584007     475.0129  0.010057014  0.008442702         3963 
 3937000   0.61048094    -9.158454    473.27663  0.010017709 0.0084390354         3969 
 3938000    0.6224688   -9.1607457     474.7681  0.010046726 0.0084353721         3964 
 3939000   0.63750794   -9.1576716    474.65157   0.01004171 0.0084317136         3965 
 3940000   0.61516705   -9.1527305    473.54344  0.010015724 0.0084280579         3965 
 3941000   0.62168347   -9.1681554    473.69992  0.010016492 0.0084243995         3971 
 3942000   0.62370414   -9.1820402    474.00268  0.010020351 0.0084207472         3969 
 3943000   0.62897952   -9.1553863    474.50412  0.010028407  0.008417095         3961 
 3944000   0.63047676   -9.1632098    474.71335  0.010030285 0.0084134434         3962 
 3945000   0.62638051   -9.1626616    473.81035  0.010008668 0.0084097955         3957 
 3946000   0.60993485   -9.1456652    473.47759 0.0099991043 0.0084061509         3970 
 3947000   0.63083297   -9.1717922    473.84488  0.010004326 0.0084025105         3966 
 3948000    0.6357276   -9.1720031     474.1437  0.010008099 0.0083988686         3966 
 3949000   0.63180165   -9.1633646    473.78199 0.0099979317 0.0083952288         3959 
 3950000    0.6200644   -9.1545461    474.18573  0.010003918 0.0083915901         3964 
 3951000   0.61975827   -9.1533579    474.26429  0.010003043  0.008387957         3962 
 3952000   0.60750403   -9.1546187    474.85649     0.010013 0.0083843237         3972 
 3953000    0.6233798   -9.1905913    474.04548 0.0099933695 0.0083806912         3974 
 3954000    0.6156107   -9.1609748    473.96013 0.0099890434 0.0083770654         3969 
 3955000     0.627964   -9.1700481    474.30078 0.0099936952  0.008373438         3968 
 3956000   0.62221909   -9.1655194    474.61026 0.0099976883 0.0083698102         3959 
 3957000   0.62011429   -9.1560901    473.80017 0.0099781014 0.0083661876         3966 
 3958000   0.61314567   -9.1768667    473.33753   0.00996584 0.0083625692         3972 
 3959000   0.63053625   -9.1601632    474.27211 0.0099829947 0.0083589486         3971 
 3960000      0.61213   -9.1431417    474.13067 0.0099774972 0.0083553331         3952 
 3961000   0.61729136   -9.1698266    473.73479 0.0099666497 0.0083517186         3959 
 3962000   0.62100392   -9.1537025    474.29479 0.0099759125 0.0083481079         3953 
 3963000   0.61404917   -9.1607875    473.99053 0.0099669975 0.0083444986         3958 
 3964000   0.62459118   -9.1474627    473.57295 0.0099557045 0.0083408886         3945 
 3965000   0.61215698   -9.1715297    474.34432 0.0099694057 0.0083372852         3966 
 3966000    0.5974527   -9.1685363    473.61091 0.0099514816 0.0083336791         3969 
 3967000   0.59993464   -9.1636134    473.50066  0.009946657 0.0083300768         3961 
 3968000   0.60557417   -9.1530244    474.58568 0.0099669371 0.0083264761         3963 
 3969000   0.60457839   -9.1472941    475.05247 0.0099742267 0.0083228807         3967 
 3970000   0.62457921    -9.153006    474.11508 0.0099520377  0.008319285         3978 
 3971000   0.61629449   -9.1483408    473.70125 0.0099408472 0.0083156928         3950 
 3972000   0.61504693   -9.1638183    473.88721 0.0099422459 0.0083121001         3946 
 3973000   0.61397947   -9.1670339    473.94857 0.0099410305 0.0083085094         3963 
 3974000   0.61917101   -9.1754313    473.54294 0.0099300231 0.0083049222         3969 
 3975000   0.61300092   -9.1576024    474.05669 0.0099382955 0.0083013387         3964 
 3976000   0.60714541   -9.1685046    474.08355 0.0099363588 0.0082977581         3960 
 3977000   0.61096402   -9.1573054    473.97541 0.0099315944 0.0082941755         3944 
 3978000    0.6223478   -9.1626985    473.45974 0.0099182953 0.0082905985         3967 
 3979000   0.62599814   -9.1711025    473.97027 0.0099264947 0.0082870247         3972 
 3980000   0.61675356   -9.1528483    473.83221   0.00992111 0.0082834529         3970 
 3981000   0.61160554    -9.167283    474.16502 0.0099255845 0.0082798788         3963 
 3982000   0.61212907   -9.1778367    473.63582  0.009912017 0.0082763075         3972 
 3983000   0.61962933   -9.1616971     474.0015 0.0099171794 0.0082727369         3964 
 3984000   0.63061259   -9.1626546    473.46616 0.0099034923 0.0082691682         3964 
 3985000   0.61645416   -9.1639021    473.47827 0.0099012603 0.0082656026         3964 
 3986000   0.61232926   -9.1930509    474.27562 0.0099154462 0.0082620393         3954 
 3987000   0.61521405   -9.1706201    473.79611 0.0099029369 0.0082584764         3955 
 3988000    0.6263146   -9.1764122     473.8443 0.0099014606 0.0082549193         3967 
 3989000   0.60533554   -9.1461811    473.53218 0.0098924579 0.0082513588         3978 
 3990000   0.61071191   -9.1647626    473.63077 0.0098920379 0.0082478072         3973 
 3991000   0.62272039   -9.1759881    473.55549 0.0098879873  0.008244251         3968 
 3992000   0.60210106   -9.1792312    473.59425 0.0098863194 0.0082407027         3968 
 3993000   0.60715395    -9.154604    474.15909 0.0098956317 0.0082371566         3973 
 3994000    0.6263297   -9.1425223    474.18604 0.0098937164 0.0082336133         3965 
 3995000   0.61129113   -9.1449678    473.73195 0.0098817679 0.0082300716         3965 
 3996000   0.61174954   -9.1696315    473.58828 0.0098762988 0.0082265308         3970 
 3997000   0.60508509   -9.1683009    473.88157 0.0098799426 0.0082229926         3953 
 3998000   0.60901973   -9.1597812    473.58399 0.0098712688 0.0082194559         3972 
 3999000   0.61877159   -9.1692587    473.21966 0.0098612082 0.0082159244         3965 
 4000000    0.6098094    -9.185826    473.16695 0.0098576448 0.0082123883         3966 
 4001000   0.61228339   -9.1851553    473.53353 0.0098628161 0.0082088548         3964 
 4002000   0.60387234   -9.1681093    472.99617 0.0098491623  0.008205324         3970 
 4003000   0.60629619   -9.1685543    473.84153 0.0098643003 0.0082017961         3965 
 4004000   0.61408115   -9.1760611     473.2639 0.0098498148 0.0081982717         3965 
 4005000    0.6167383   -9.1620157    473.27328 0.0098475505 0.0081947523         3968 
 4006000   0.61150035   -9.1868647    472.79617 0.0098351675 0.0081912295         3972 
 4007000   0.62053429   -9.1669646    473.22558 0.0098416435 0.0081877076         3961 
 4008000   0.61404412    -9.179539    474.72326 0.0098703273 0.0081841907         3974 
 4009000    0.6043575   -9.1706611    473.53695  0.009843206  0.008180677         3961 
 4010000   0.59775729   -9.1600332    473.68244 0.0098437747 0.0081771663         3969 
 4011000   0.60622505     -9.17202    474.03504 0.0098486463 0.0081736508         3965 
 4012000   0.59901464   -9.1762716    473.71099 0.0098394606 0.0081701424         3968 
 4013000    0.6124541   -9.1720986    473.40488  0.009830652  0.008166636         3958 
 4014000   0.59880072   -9.1677273    473.01682 0.0098201465  0.008163131         3977 
 4015000   0.59294257   -9.1690699    473.75957 0.0098331168 0.0081596277         3966 
 4016000   0.61261908   -9.1715115    473.21152  0.009819296 0.0081561264         3972 
 4017000   0.61179565    -9.170446    473.68818   0.00982674 0.0081526269         3974 
 4018000   0.61439313   -9.1715252     473.1901 0.0098139643 0.0081491285         3963 
 4019000   0.62103469   -9.1879494    472.98273 0.0098072226 0.0081456333         3972 
 4020000    0.6182075   -9.1568627    473.72491 0.0098201681 0.0081421406         3958 
 4021000    0.6059158   -9.1819737    473.88718 0.0098210888 0.0081386508         3963 
 4022000   0.59906127   -9.1784892    473.75832 0.0098159771 0.0081351644         3963 
 4023000   0.59062877   -9.1827502    474.00956 0.0098187413 0.0081316766         3969 
 4024000   0.60638087   -9.1951706    473.10435 0.0097975553 0.0081281899         3967 
 4025000   0.62170321    -9.191992    473.00689 0.0097931032 0.0081247084         3955 
 4026000   0.60324712   -9.1995814     473.7882  0.009806843 0.0081212258         3960 
 4027000   0.60838703   -9.1831962    473.32154 0.0097947508 0.0081177485         3973 
 4028000   0.60521006   -9.1824707     473.4718 0.0097954278 0.0081142703         3965 
 4029000   0.60534028   -9.1732544    473.72736 0.0097982824 0.0081107927         3961 
 4030000   0.59937491   -9.1858393    473.21118 0.0097851774 0.0081073159         3973 
 4031000   0.60801098   -9.1785934    473.94147 0.0097978474 0.0081038453         3968 
 4032000   0.59535015   -9.1853891    474.38722 0.0098046301 0.0081003738         3958 
 4033000   0.60636056   -9.1750082    474.45108 0.0098035186 0.0080969084         3955 
 4034000   0.61093087   -9.2121012    473.23357 0.0097759373  0.008093442         3956 
 4035000   0.60666167   -9.1731253    472.84887 0.0097655693 0.0080899781         3968 
 4036000   0.60368213   -9.1706241    473.59955 0.0097786494 0.0080865193         3964 
 4037000   0.61656969   -9.2036597    473.68042 0.0097778965 0.0080830608         3967 
 4038000   0.60965712   -9.1756069    474.26111 0.0097874589 0.0080796037         3964 
 4039000   0.60612399   -9.1619809    474.01268   0.00977991 0.0080761489         3963 
 4040000    0.6061814   -9.1837221    473.70018 0.0097710432 0.0080726971         3966 
 4041000   0.60959493   -9.1941954    473.25487 0.0097594421 0.0080692446         3959 
 4042000   0.60723732   -9.1816016    474.04401 0.0097732972 0.0080657963         3965 
 4043000   0.60266833   -9.1818286    474.53532 0.0097810066 0.0080623485         3961 
 4044000   0.60651362   -9.1951608    473.85013 0.0097644685 0.0080589019         3969 
 4045000   0.60533745   -9.1990958    473.51761 0.0097552041 0.0080554565         3968 
 4046000    0.6140849   -9.1956234    473.08022 0.0097437844 0.0080520132         3977 
 4047000   0.60818837    -9.177864    473.23045 0.0097444701 0.0080485733         3956 
 4048000   0.60741866   -9.1918789    473.35559 0.0097446391 0.0080451327         3965 
 4049000   0.59242008   -9.1839884    473.94546 0.0097543727 0.0080416944         3963 
 4050000   0.59408345   -9.1796726    474.10626 0.0097552729  0.008038258         3974 
 4051000   0.60090504   -9.1703003    473.66609   0.00974381 0.0080348288         3973 
 4052000   0.60562208    -9.193234    474.10551 0.0097504423 0.0080314005         3963 
 4053000   0.59300797   -9.1939843     473.5876 0.0097373879 0.0080279713         3972 
 4054000   0.61307948   -9.1616816    474.43794 0.0097524655 0.0080245478         3972 
 4055000   0.59885619   -9.1781197    473.58663 0.0097325653 0.0080211246         3967 
 4056000   0.60415516   -9.1965731    473.44962 0.0097273508 0.0080177049         3966 
 4057000   0.60646693    -9.177125    473.17775 0.0097193688 0.0080142862         3969 
 4058000   0.59745555   -9.1851423    473.39107 0.0097213543 0.0080108705         3961 
 4059000   0.61309119   -9.1820542    473.27933 0.0097166652 0.0080074547         3970 
 4060000   0.60498257   -9.1846408    473.72291 0.0097233767 0.0080040372         3968 
 4061000   0.59679658    -9.199735     472.8657 0.0097033921  0.008000626         3959 
 4062000   0.59726057   -9.1839874    473.50091 0.0097140348 0.0079972141         3971 
 4063000   0.60315107     -9.18482    473.75232 0.0097168004 0.0079938035         3954 
 4064000   0.60981069   -9.1761239    473.35921 0.0097063486 0.0079903984         3963 
 4065000   0.59442749   -9.1734632    473.46392 0.0097061074 0.0079869944         3977 
 4066000   0.60097442   -9.1968359    472.35907 0.0096810763 0.0079835906         3970 
 4067000   0.60127243    -9.191774    473.00576 0.0096919467 0.0079801922         3959 
 4068000    0.6102207   -9.1942463     473.2578 0.0096947271 0.0079767928         3954 
 4069000   0.59995469    -9.188719    473.23541  0.009691886 0.0079733948         3971 
 4070000   0.59859803   -9.1886338     473.7258 0.0096995454 0.0079699989         3967 
 4071000   0.59547949     -9.18808    474.20627 0.0097069982 0.0079666047         3975 
 4072000    0.6082814   -9.1847288     473.0748 0.0096814587 0.0079632128         3971 
 4073000   0.59917404   -9.1892527    473.92625 0.0096965024 0.0079598241         3946 
 4074000   0.60549217   -9.1905059    473.78205 0.0096911727 0.0079564402         3974 
 4075000   0.62052789   -9.1951596    474.21208 0.0096975885 0.0079530555         3968 
 4076000   0.60664361   -9.1773534    473.85075  0.009687822 0.0079496732         3954 
 4077000   0.60114975   -9.2151229    473.25821 0.0096733344 0.0079462934         3968 
 4078000   0.59517612   -9.1909586    473.69408 0.0096798691 0.0079429124         3964 
 4079000   0.58979851   -9.2126537    472.76099 0.0096584333 0.0079395343         3979 
 4080000   0.60346543   -9.1960683    473.14512 0.0096639118 0.0079361596         3966 
 4081000   0.59822661   -9.1819384    473.47636 0.0096683075  0.007932785         3972 
 4082000   0.59503284   -9.1767186    473.07711 0.0096577884 0.0079294118         3966 
 4083000   0.59917756   -9.1748287    473.34504 0.0096608915 0.0079260394         3967 
 4084000   0.59177346   -9.2152033    473.34777 0.0096585817 0.0079226715         3972 
 4085000   0.61551722   -9.1774912    474.07218 0.0096709952  0.007919307         3964 
 4086000   0.59024946   -9.2043002    473.46381 0.0096562206 0.0079159404         3968 
 4087000   0.59999807   -9.2102638    472.63946 0.0096370496 0.0079125744         3977 
 4088000   0.59804728    -9.195167    473.98379 0.0096620962 0.0079092133         3948 
 4089000   0.59162969   -9.1882261    472.65682 0.0096326897 0.0079058574         3972 
 4090000   0.59344416   -9.1944694    473.87996 0.0096552559 0.0079024998         3962 
 4091000   0.60842259   -9.1816967    473.72996 0.0096498403  0.007899147         3966 
 4092000   0.59554224   -9.2009338    472.97165 0.0096320392 0.0078957957         3963 
 4093000   0.59702378   -9.2064503    473.91176 0.0096488265 0.0078924472         3964 
 4094000   0.58693891    -9.199694    473.96364 0.0096475257 0.0078890961         3968 
 4095000   0.60682317    -9.217798    473.18437 0.0096293115 0.0078857488         3962 
 4096000   0.60585661   -9.1923484    472.67146 0.0096165255 0.0078824046         3958 
 4097000    0.5939009   -9.2129908    472.95165 0.0096198774 0.0078790603         3957 
 4098000   0.60419143   -9.1874668    472.84408 0.0096153425 0.0078757198         3957 
 4099000   0.60458846   -9.1947186    473.43919 0.0096250954 0.0078723799         3961 
 4100000   0.60248858   -9.2000417    474.07582 0.0096356874 0.0078690432         3958 
 4101000   0.59229198   -9.1988896    473.02915 0.0096120692 0.0078657091         3974 
 4102000   0.60580391   -9.1691572    474.06882 0.0096308471 0.0078623762         3971 
 4103000   0.59727683   -9.2131143    473.71136 0.0096212397  0.007859047         3959 
 4104000   0.59055102   -9.2013299    472.79872 0.0096003638  0.007855719         3963 
 4105000   0.59628886   -9.2070273    473.81643 0.0096186851 0.0078523901         3961 
 4106000   0.58768706   -9.2084668    473.41825 0.0096082614 0.0078490629         3970 
 4107000   0.59734959   -9.2058459    473.16104 0.0096007028 0.0078457393         3967 
 4108000   0.59027174   -9.1998844    473.16783 0.0095985034  0.007842419         3968 
 4109000   0.59100746   -9.2153661    473.69654 0.0096068901 0.0078390977         3967 
 4110000   0.59740998   -9.2091068    473.67352 0.0096040859 0.0078357778         3968 
 4111000   0.58719209   -9.2050486    473.26324 0.0095934331 0.0078324635         3964 
 4112000   0.60863752   -9.2079498    472.94397 0.0095846297   0.00782915         3979 
 4113000    0.6057396   -9.1939215    473.57245  0.009595033  0.007825837         3961 
 4114000   0.59298639   -9.1899789    472.37645 0.0095684744 0.0078225241         3958 
 4115000   0.60344749   -9.1985728    472.98393 0.0095784513 0.0078192127         3969 
 4116000   0.59537867    -9.191977    473.96678 0.0095960232 0.0078159033         3965 
 4117000   0.59623144   -9.1944664    473.06918 0.0095755239 0.0078125962         3967 
 4118000   0.60028354   -9.1986887    472.54466 0.0095625842 0.0078092899         3955 
 4119000   0.59985275    -9.210251    473.08754 0.0095712459 0.0078059873         3978 
 4120000   0.59297854   -9.2011548    472.75653 0.0095622275 0.0078026873         3970 
 4121000   0.59129642   -9.2086688    473.29888 0.0095708744 0.0077993872         3963 
 4122000   0.59108272     -9.22295    472.10922 0.0095445015 0.0077960905         3978 
 4123000   0.58190735   -9.1896984     473.0537 0.0095612763 0.0077927976         3969 
 4124000    0.5888528   -9.2289108    473.05434 0.0095589707 0.0077895042         3970 
 4125000   0.60858742   -9.2083875    472.96965 0.0095549425 0.0077862115         3974 
 4126000   0.59323427   -9.2177615    473.47665 0.0095628665 0.0077829235         3977 
 4127000    0.5883919   -9.2030693    472.52401 0.0095413136 0.0077796377         3967 
 4128000   0.60698902    -9.210228    473.68227 0.0095623844 0.0077763511         3971 
 4129000   0.58837265   -9.1959628    473.26646 0.0095516763 0.0077730687         3964 
 4130000   0.59661186   -9.1932202    472.54503 0.0095348069 0.0077697844         3970 
 4131000   0.58639137   -9.1981448    472.54796  0.009532558 0.0077665062         3971 
 4132000   0.59198338   -9.2122943    474.40847 0.0095677732 0.0077632285         3964 
 4133000   0.58131145   -9.1960665     473.3569 0.0095442556  0.007759953         3960 
 4134000     0.593386   -9.1923159    473.97285 0.0095543633  0.007756679         3961 
 4135000    0.5830871    -9.205518    473.05363 0.0095335274 0.0077534074         3980 
 4136000   0.58222206    -9.207083    473.27282 0.0095356386 0.0077501366         3966 
 4137000   0.59139221   -9.2135716    472.50506 0.0095178683 0.0077468671         3977 
 4138000   0.59453516   -9.2041606    472.47405 0.0095149437    0.0077436         3967 
 4139000   0.58760088   -9.2371999    472.41079 0.0095113713 0.0077403357         3965 
 4140000   0.59332867   -9.2141658    472.55944 0.0095120661 0.0077370698         3970 
 4141000   0.60089074   -9.2043657    473.47975 0.0095282893 0.0077338091         3963 
 4142000   0.58388024   -9.2094237    472.70232 0.0095103476 0.0077305508         3981 
 4143000   0.58854528   -9.2141715    473.02142 0.0095144706 0.0077272935         3961 
 4144000   0.58971978   -9.2300702    472.95181 0.0095107749 0.0077240366         3969 
 4145000   0.60098116    -9.203533    472.66312 0.0095026764  0.007720782         3970 
 4146000   0.58414348   -9.2061566    473.06029 0.0095083674 0.0077175301         3968 
 4147000    0.5884849   -9.2159933    473.66654 0.0095182569 0.0077142803         3970 
 4148000   0.59479668   -9.1971476    473.12455 0.0095050737 0.0077110304         3973 
 4149000   0.58588082   -9.2184921    473.06506 0.0095015878  0.007707786         3958 
 4150000   0.58327839   -9.2079936    472.44566 0.0094868606 0.0077045413         3960 
 4151000   0.58705084   -9.2207553    473.37922 0.0095033169 0.0077013016         3963 
 4152000   0.57326053   -9.2092316    473.42662 0.0095019794  0.007698063         3958 
 4153000    0.5818315   -9.2277735    472.32837 0.0094776542 0.0076948238         3975 
 4154000   0.57686578   -9.2147166    472.89555 0.0094867508 0.0076915849         3977 
 4155000     0.590754   -9.2181074     472.8473 0.0094834999 0.0076883518         3967 
 4156000   0.59831729   -9.1910752    473.83902 0.0095011032 0.0076851211         3953 
 4157000   0.58538791    -9.212413    472.67798 0.0094755429 0.0076818921         3971 
 4158000   0.58447353   -9.2150346    472.75691 0.0094748459 0.0076786649         3969 
 4159000   0.58290756   -9.1948294    472.74719 0.0094723729 0.0076754317         3961 
 4160000   0.58379751   -9.2048379    472.15319 0.0094581969 0.0076722072         3965 
 4161000   0.58659688   -9.2316983    472.79496 0.0094687767 0.0076689837         3967 
 4162000   0.58448385   -9.2186799    472.49751 0.0094605461   0.00766576         3973 
 4163000   0.58544403   -9.2079574    473.36737 0.0094756859 0.0076625394         3966 
 4164000   0.59545154   -9.2182477    472.43495 0.0094547501 0.0076593203         3972 
 4165000   0.59354316   -9.2028148    472.62245 0.0094562316 0.0076561046         3973 
 4166000   0.57621159   -9.2016373    472.44685  0.009450449   0.00765289         3963 
 4167000   0.57866531   -9.2095433    472.57276 0.0094506991 0.0076496769         3975 
 4168000   0.59340924   -9.2123386    473.13175 0.0094596079 0.0076464648         3970 
 4169000   0.59019923   -9.2156483    472.82805 0.0094512683 0.0076432557         3968 
 4170000   0.57887111   -9.2191318    472.94163 0.0094512717 0.0076400475         3967 
 4171000   0.57775872   -9.2096096    472.35033 0.0094371919 0.0076368416         3969 
 4172000   0.58667525   -9.1941079    472.58488 0.0094396149 0.0076336414         3971 
 4173000   0.58904004   -9.2092159    473.01588 0.0094459598 0.0076304407         3968 
 4174000   0.57942928   -9.2314607    472.87975 0.0094409789 0.0076272382         3957 
 4175000   0.57437394   -9.2066455    473.12101 0.0094435332 0.0076240401         3975 
 4176000   0.56128233   -9.2071984    472.94874  0.009437834  0.007620842         3975 
 4177000   0.58216477   -9.2052035    472.58295 0.0094282769 0.0076176457         3979 
 4178000   0.58400851   -9.2301831    472.49866  0.009424339 0.0076144537         3984 
 4179000   0.58348192   -9.2232579    472.64816  0.009425065 0.0076112606         3971 
 4180000   0.59517572   -9.2330828    472.68394 0.0094235235 0.0076080702         3973 
 4181000   0.58647714   -9.2254824    472.24209 0.0094124629 0.0076048833         3964 
 4182000   0.57737797   -9.1933092    473.30225 0.0094313376 0.0076016983         3963 
 4183000   0.58476559   -9.2125835    471.94328 0.0094020097  0.007598516         3973 
 4184000   0.59164251   -9.2270272    473.23192 0.0094254285 0.0075953352         3967 
 4185000   0.59098408    -9.217657    472.68853 0.0094123562 0.0075921578         3963 
 4186000   0.57217047   -9.2183064    472.60505 0.0094084458 0.0075889795         3963 
 4187000   0.57531672   -9.2202283    472.96279 0.0094133188 0.0075858031         3971 
 4188000   0.59338123   -9.2296472     472.6551 0.0094049487 0.0075826292         3966 
 4189000   0.59336866   -9.2263546    473.29305 0.0094153945 0.0075794573         3966 
 4190000   0.58215375   -9.2289057     472.7959 0.0094032597 0.0075762818         3958 
 4191000    0.5728413   -9.2077299    472.76928 0.0094004868 0.0075731098         3968 
 4192000   0.58526727   -9.2184442     472.7345 0.0093975529 0.0075699413         3950 
 4193000   0.58445761   -9.2308556     472.8904   0.00939841 0.0075667721         3971 
 4194000   0.59104139    -9.225459    473.01955 0.0093987353 0.0075636078         3979 
 4195000   0.57559374    -9.231093    472.56613 0.0093874876 0.0075604442         3972 
 4196000   0.58523887   -9.2217301    471.68917 0.0093678338 0.0075572827         3962 
 4197000   0.57799282    -9.222501    472.69591 0.0093855911 0.0075541219         3963 
 4198000   0.57645275   -9.2238913    472.18284 0.0093731705 0.0075509671         3960 
 4199000   0.57005839    -9.220971    472.80974 0.0093833798 0.0075478125         3972 
 4200000   0.56771389   -9.2158746    472.67911 0.0093785537 0.0075446564         3973 
 4201000   0.58941871   -9.2256217    472.42812 0.0093713425 0.0075415032         3962 
 4202000   0.58146092   -9.2181504    472.48974 0.0093703344 0.0075383512         3960 
 4203000   0.58303818   -9.2382869    471.77383 0.0093539106 0.0075352032         3962 
 4204000    0.5739315   -9.2305154    472.45869 0.0093652611 0.0075320553         3969 
 4205000   0.58987008   -9.2360533    472.61979 0.0093662265 0.0075289108         3969 
 4206000    0.5837464   -9.2284684    472.97467 0.0093710308 0.0075257657         3974 
 4207000    0.5887051   -9.2267835    473.12791 0.0093718389 0.0075226213         3969 
 4208000   0.57963946   -9.2213323    471.92413 0.0093457725 0.0075194804         3970 
 4209000   0.58835831   -9.1980059    472.51414 0.0093552337 0.0075163441         3960 
 4210000   0.58977244   -9.2187586    472.58327 0.0093543799  0.007513206         3962 
 4211000    0.5756104   -9.2293056     472.4188 0.0093489036 0.0075100688         3971 
 4212000   0.55735163   -9.2210283    473.13718 0.0093608971  0.007506935         3964 
 4213000   0.58140558   -9.2323768    472.77348 0.0093514811 0.0075038051         3964 
 4214000   0.57884737   -9.2330153    472.59452 0.0093457229 0.0075006746         3980 
 4215000   0.56916721   -9.2117967    473.17577 0.0093549974 0.0074975479         3956 
 4216000   0.59159214   -9.2385425    472.84183 0.0093461778 0.0074944228         3972 
 4217000   0.57412071   -9.2352043    472.36715 0.0093345813 0.0074913018         3977 
 4218000   0.57445494   -9.2234011    472.10664 0.0093272215 0.0074881785         3976 
 4219000    0.5749657   -9.2362913    472.53996 0.0093335695 0.0074850603         3974 
 4220000   0.58612264   -9.2082396    472.44252 0.0093294336 0.0074819431         3971 
 4221000   0.58547017    -9.232958    472.28931 0.0093241986 0.0074788238         3978 
 4222000   0.57327723   -9.2254725    472.21433 0.0093205103 0.0074757084         3971 
 4223000   0.55796362   -9.2266163    472.88065 0.0093314518  0.007472595         3965 
 4224000   0.58024554   -9.2257371    472.67344 0.0093251546 0.0074694833         3977 
 4225000   0.56968558   -9.2210651    472.16205 0.0093128609 0.0074663704         3974 
 4226000    0.5714074    -9.239662    472.71751 0.0093216105 0.0074632606         3979 
 4227000   0.59240172   -9.2348636    472.17366 0.0093086835 0.0074601538         3973 
 4228000   0.58110559   -9.2249859    472.89084 0.0093206172 0.0074570469         3964 
 4229000   0.57798543   -9.2404768    472.60158 0.0093127134 0.0074539427         3973 
 4230000   0.58452348   -9.2261547    471.91707 0.0092970265 0.0074508427         3971 
 4231000   0.56853519   -9.2143063    472.07156  0.009297872 0.0074477432         3963 
 4232000    0.5796319   -9.2217592    472.41996 0.0093025354 0.0074446438         3964 
 4233000   0.58176433   -9.2408869    472.62283 0.0093043316 0.0074415448         3962 
 4234000   0.58617558   -9.2228989    472.53293 0.0093003648  0.007438449         3968 
 4235000   0.55366429   -9.2339378    471.87172 0.0092851578 0.0074353555         3972 
 4236000   0.56410781   -9.2443133    472.12796 0.0092880068 0.0074322627         3966 
 4237000   0.57228541   -9.2382569    472.17038  0.009286649 0.0074291714         3967 
 4238000   0.57207659   -9.2316627    472.94494 0.0092996882 0.0074260822         3967 
 4239000    0.5859513   -9.2477334    472.49893 0.0092887264 0.0074229943         3976 
 4240000   0.57506308   -9.2318737     472.1948 0.0092805582 0.0074199085         3971 
 4241000   0.57501479   -9.2301184    472.22146 0.0092788937 0.0074168265         3970 
 4242000   0.57744843   -9.2317837    472.20546  0.009276392 0.0074137444         3982 
 4243000   0.57210681   -9.2298315    472.37837 0.0092776018 0.0074106631         3966 
 4244000   0.58317869   -9.2421725    472.99244 0.0092874732 0.0074075857         3975 
 4245000    0.5803993   -9.2286989    472.80747 0.0092816543 0.0074045112         3969 
 4246000   0.57032915   -9.2403199     472.0847 0.0092652829 0.0074014372         3976 
 4247000   0.57240202   -9.2284863    472.20768 0.0092655144 0.0073983635         3960 
 4248000   0.58553057      -9.2399    472.34159 0.0092659603  0.007395294         3958 
 4249000    0.5708752   -9.2531445    473.15283 0.0092796898 0.0073922277         3964 
 4250000   0.57414826   -9.2348273    472.55393 0.0092657633 0.0073891606         3970 
 4251000   0.56706461   -9.2143229    472.92152 0.0092707896 0.0073860948         3975 
 4252000   0.56110639   -9.2476408    472.83355 0.0092668851 0.0073830307         3969 
 4253000   0.57008169   -9.2239542    472.24266 0.0092531283 0.0073799688         3974 
 4254000   0.57205232   -9.2356882    472.31626 0.0092523951 0.0073769081         3969 
 4255000   0.57678034   -9.2216129    472.76689  0.009259046 0.0073738497         3956 
 4256000   0.58003076   -9.2424394    472.94969 0.0092604497 0.0073707937         3965 
 4257000   0.58268926   -9.2248237    472.22947 0.0092441757 0.0073677391         3970 
 4258000   0.57469494   -9.2234399    472.30227 0.0092434294  0.007364687         3967 
 4259000   0.56407398   -9.2600505    471.98308 0.0092350138 0.0073616373         3975 
 4260000   0.55355557   -9.2311292    472.35773 0.0092401747 0.0073585874         3970 
 4261000    0.5788024   -9.2348014    472.14449 0.0092338358 0.0073555366         3961 
 4262000   0.57848902   -9.2253492     472.5125 0.0092388647 0.0073524914         3970 
 4263000   0.56415204   -9.2300142    471.91461   0.00922501 0.0073494461         3968 
 4264000   0.57430019     -9.22881    472.44401 0.0092331929 0.0073464004         3978 
 4265000   0.56853154    -9.236147    472.44395 0.0092310267 0.0073433581         3968 
 4266000   0.56696419   -9.2406919    471.95029 0.0092192195 0.0073403205         3964 
 4267000   0.57738729   -9.2321836    471.80403 0.0092142026  0.007337284         3971 
 4268000   0.56306175   -9.2091394    472.55781 0.0092267614 0.0073342471         3968 
 4269000   0.56803212   -9.2284489    472.85481 0.0092303977 0.0073312135         3979 
 4270000   0.57533756   -9.2309869    472.01351 0.0092118172  0.007328182         3972 
 4271000   0.57018911   -9.2262015    472.17265 0.0092127654   0.00732515         3971 
 4272000   0.57223887   -9.2256227    472.57118 0.0092183829 0.0073221186         3963 
 4273000   0.57276646    -9.240521    471.59527 0.0091971929 0.0073190886         3974 
 4274000   0.56562761   -9.2273957    472.77871 0.0092181155 0.0073160614         3956 
 4275000   0.57147096   -9.2344367    471.57585 0.0091925116 0.0073130375         3967 
 4276000   0.58033935   -9.2460606    471.95448  0.009197741  0.007310015         3967 
 4277000   0.57441003   -9.2534391    472.01651 0.0091967989  0.007306994         3974 
 4278000   0.55946712    -9.247131    472.51277 0.0092043162 0.0073039763         3969 
 4279000   0.56624393   -9.2304412    472.88231 0.0092093618 0.0073009581         3968 
 4280000   0.57517176     -9.23859    471.74475 0.0091850613 0.0072979405         3976 
 4281000   0.56345523    -9.245396    471.91961 0.0091863195 0.0072949268         3969 
 4282000   0.56234985   -9.2480063     471.9613 0.0091849856 0.0072919147         3960 
 4283000   0.55876447   -9.2238264    471.93523 0.0091823339 0.0072889021         3978 
 4284000   0.56302106    -9.246787     472.1048  0.009183489 0.0072858913         3968 
 4285000   0.56654475   -9.2316551    472.13397  0.009181913 0.0072828815         3968 
 4286000   0.57554466   -9.2493323    472.00558 0.0091772745 0.0072798744         3966 
 4287000   0.56361042   -9.2294942    472.14441 0.0091778323 0.0072768671         3970 
 4288000   0.56552401    -9.226274    471.69994 0.0091670541 0.0072738642         3969 
 4289000   0.56776728   -9.2472497    471.68175 0.0091645635 0.0072708619         3967 
 4290000   0.55981128   -9.2365467    472.07539 0.0091700737 0.0072678655         3967 
 4291000   0.57536718   -9.2443796    472.77717 0.0091815655 0.0072648633         3955 
 4292000   0.56549171   -9.2549854    471.93766 0.0091631264 0.0072618651         3971 
 4293000    0.5576195   -9.2429675    471.67195 0.0091558341 0.0072588711         3959 
 4294000   0.57689587   -9.2303787    472.12651 0.0091625234 0.0072558783         3962 
 4295000   0.54482021   -9.2511644    472.56322 0.0091688635 0.0072528878         3965 
 4296000   0.55363847   -9.2558642    471.64783 0.0091489726 0.0072498959         3974 
 4297000   0.55991672   -9.2359232    471.95036 0.0091527104 0.0072469054         3965 
 4298000   0.56433693   -9.2491098    472.39394 0.0091591815 0.0072439172         3976 
 4299000   0.55670512   -9.2369018    472.37233 0.0091566319 0.0072409308         3956 
 4300000   0.56866017   -9.2469822    472.40731 0.0091551803 0.0072379452         3983 
 4301000   0.55317629   -9.2340597     472.0094 0.0091453421 0.0072349657         3964 
 4302000   0.55215427   -9.2457329    471.60584 0.0091353991 0.0072319856         3976 
 4303000    0.5637788   -9.2399974     472.0272 0.0091414361 0.0072290082         3975 
 4304000    0.5687951   -9.2378562    472.34168 0.0091454013 0.0072260323         3972 
 4305000   0.57102711   -9.2485908    472.38981 0.0091442084 0.0072230572         3967 
 4306000   0.56203292   -9.2402835    472.12333 0.0091369277 0.0072200847         3952 
 4307000   0.57487935    -9.237289    472.27462 0.0091377335 0.0072171135         3969 
 4308000   0.57081365    -9.241957    471.88695 0.0091281133 0.0072141442         3982 
 4309000    0.5698593   -9.2546113    472.71596 0.0091420275 0.0072111786         3975 
 4310000   0.56770958   -9.2497979    472.99915 0.0091453819 0.0072082127         3965 
 4311000   0.56367129   -9.2366235    472.29112 0.0091295739  0.007205247         3974 
 4312000   0.56304661   -9.2431311    471.49535 0.0091120777 0.0072022838         3966 
 4313000   0.55541174   -9.2404502    472.39461   0.00912734  0.007199324         3963 
 4314000   0.56079262   -9.2610228    471.49425  0.009107832 0.0071963642         3981 
 4315000   0.56812289   -9.2558192     471.4369 0.0091046137 0.0071934046         3962 
 4316000   0.56309332   -9.2615944     471.7333 0.0091082271 0.0071904505         3981 
 4317000   0.56125002   -9.2353401    472.38785 0.0091187525 0.0071874982         3967 
 4318000   0.56010767   -9.2388455    471.55028 0.0091004763 0.0071845473         3969 
 4319000   0.55160173    -9.247019    472.25924 0.0091120484 0.0071815943         3971 
 4320000     0.560543   -9.2623189    471.98874  0.009104721 0.0071786462         3959 
 4321000   0.55688483   -9.2381256    471.42144 0.0090916733 0.0071756953         3962 
 4322000   0.54799801   -9.2696094    471.31651 0.0090875464 0.0071727498         3964 
 4323000   0.54704269   -9.2661517    472.24156 0.0091032763  0.007169804         3970 
 4324000   0.55193275   -9.2462552    472.32421 0.0091027639 0.0071668602         3971 
 4325000   0.55960768   -9.2604916    472.03382 0.0090950639 0.0071639192         3973 
 4326000   0.55964284   -9.2485012    471.45413 0.0090817948 0.0071609818         3976 
 4327000   0.55991973   -9.2472888    472.42523 0.0090983982 0.0071580418         3973 
 4328000   0.56255415   -9.2714715    471.47814 0.0090780602 0.0071551051         3969 
 4329000   0.55720445   -9.2511266    471.89893 0.0090840636 0.0071521692         3969 
 4330000   0.57134747   -9.2592753    472.41126 0.0090918256 0.0071492358         3970 
 4331000   0.56192463   -9.2412766    472.56671 0.0090927175 0.0071463056         3970 
 4332000   0.54471716   -9.2475865     471.5469 0.0090710007 0.0071433739         3977 
 4333000   0.54737895   -9.2595492    471.72138 0.0090722628 0.0071404431         3977 
 4334000   0.55270192   -9.2494754    472.47045 0.0090845725 0.0071375198         3960 
 4335000   0.56225118   -9.2536205    471.79638  0.009069519 0.0071345943         3980 
 4336000   0.54940259   -9.2517633    471.51818 0.0090620807 0.0071316698         3978 
 4337000   0.55146267   -9.2488958    471.73336 0.0090641258 0.0071287464         3977 
 4338000   0.54855266   -9.2479451    472.59449 0.0090785787 0.0071258263         3970 
 4339000    0.5633065   -9.2542615    472.27198 0.0090702922 0.0071229074         3961 
 4340000     0.555287   -9.2452305    472.11503 0.0090651888 0.0071199939         3970 
 4341000   0.55454454   -9.2473569    471.51036 0.0090514927 0.0071170786         3974 
 4342000   0.55630192   -9.2655649    471.29159 0.0090452093 0.0071141636         3969 
 4343000   0.54385555   -9.2626896    471.08868 0.0090392333 0.0071112503         3968 
 4344000   0.56250893   -9.2417083    472.45992 0.0090634576 0.0071083418         3957 
 4345000   0.55580999   -9.2513408    472.45839 0.0090613423 0.0071054311         3971 
 4346000   0.55443372   -9.2564335    472.52296 0.0090604954 0.0071025241         3975 
 4347000   0.55267647   -9.2507373    471.86951 0.0090458843 0.0070996189         3975 
 4348000      0.55689   -9.2613513    472.24485 0.0090509975 0.0070967167         3971 
 4349000   0.54764884    -9.255581    471.14225 0.0090277889 0.0070938133         3973 
 4350000   0.55793275   -9.2587994     470.9046 0.0090211609  0.007090912         3977 
 4351000   0.57355218   -9.2539041    471.80566 0.0090363453 0.0070880138         3971 
 4352000   0.53989922   -9.2563343    471.63605 0.0090310213 0.0070851163         3955 
 4353000   0.55858209   -9.2599445    471.73184 0.0090307803 0.0070822207         3968 
 4354000   0.54743578   -9.2531748    472.23027 0.0090382459 0.0070793259         3977 
 4355000   0.56501124   -9.2723328     472.5486 0.0090422618 0.0070764337         3972 
 4356000   0.55074756   -9.2622946    471.00563 0.0090106679   0.00707354         3967 
 4357000   0.55633231   -9.2526059     471.7201 0.0090222649 0.0070706504         3975 
 4358000   0.55410418   -9.2490404    472.28192 0.0090309377  0.007067762         3971 
 4359000   0.56077953   -9.2739431    472.13946 0.0090261425 0.0070648764         3967 
 4360000   0.56015975   -9.2552409    471.42065 0.0090103336  0.007061989         3972 
 4361000   0.54865256   -9.2487687    471.62488   0.00901217 0.0070591037         3960 
 4362000   0.56405402   -9.2632042    472.42015 0.0090252971 0.0070562212         3971 
 4363000   0.55354042   -9.2790377    472.11165 0.0090173362 0.0070533413         3969 
 4364000   0.56258901   -9.2519372    471.93608 0.0090119172 0.0070504637         3962 
 4365000   0.55113608   -9.2490696    472.03967 0.0090118302 0.0070475876         3962 
 4366000   0.55124271    -9.272896    472.31911 0.0090150997 0.0070447126         3961 
 4367000   0.55307459    -9.281622    471.62775 0.0089998426 0.0070418356         3970 
 4368000   0.55289094   -9.2776361    471.38604 0.0089931708 0.0070389615         3975 
 4369000   0.55641458    -9.272275    471.42213 0.0089918008 0.0070360894         3973 
 4370000   0.55361807    -9.244672    472.08163 0.0090023194 0.0070332179         3975 
 4371000    0.5640703   -9.2682318    471.61317 0.0089913286 0.0070303506         3967 
 4372000    0.5507722   -9.2582479    472.25005 0.0090014115 0.0070274818         3972 
 4373000   0.55973241   -9.2591697    471.13027 0.0089780141 0.0070246175         3966 
 4374000   0.55682278   -9.2491111    472.19755 0.0089962953 0.0070217562         3973 
 4375000    0.5308272   -9.2687716     472.0232 0.0089909181 0.0070188972         3972 
 4376000   0.55533261    -9.268227     471.4268 0.0089775061 0.0070160388         3964 
 4377000   0.55667921   -9.2690018    471.40884 0.0089751131  0.007013184         3961 
 4378000   0.55006331    -9.253043     471.0104 0.0089654789 0.0070103293         3972 
 4379000   0.56314955   -9.2528691    472.08101 0.0089838054 0.0070074776         3970 
 4380000   0.54069195   -9.2498606     471.9447 0.0089791609 0.0070046268         3966 
 4381000   0.55598066   -9.2694241    471.35468 0.0089658884  0.007001774         3979 
 4382000   0.54806681   -9.2777352    471.53365 0.0089672458 0.0069989241         3968 
 4383000   0.55607137   -9.2764704    471.36355 0.0089619657 0.0069960754         3974 
 4384000   0.53923526   -9.2532267    471.36453 0.0089599401 0.0069932283         3962 
 4385000   0.54226169   -9.2745383    471.42864 0.0089591151 0.0069903857         3967 
 4386000   0.54293351    -9.267141     471.2082 0.0089528843 0.0069875437         3970 
 4387000    0.5564663   -9.2560395    471.88005 0.0089636056 0.0069847019         3971 
 4388000   0.56076263   -9.2798367    471.61472 0.0089565238 0.0069818639         3959 
 4389000   0.55082185   -9.2685904    470.88921  0.008940708 0.0069790272         3981 
 4390000   0.54781389    -9.272624    472.07193 0.0089611224 0.0069761896         3977 
 4391000   0.55162392   -9.2515191    471.89442 0.0089557129 0.0069733559         3970 
 4392000   0.54364762   -9.2597106    472.29615 0.0089612962  0.006970523         3975 
 4393000   0.55021904   -9.2773546     472.0269 0.0089541487 0.0069676935         3975 
 4394000   0.55539574   -9.2687038    471.84244 0.0089486125 0.0069648637         3969 
 4395000   0.54856873   -9.2896275    471.60121 0.0089420025 0.0069620344         3966 
 4396000   0.54578138   -9.2719322    471.56256 0.0089392356 0.0069592077         3980 
 4397000   0.54228484   -9.2735602    471.74189 0.0089406013 0.0069563832         3973 
 4398000   0.53846446   -9.2841156    472.40651 0.0089511617 0.0069535598         3986 
 4399000   0.54115889   -9.2605807    471.93158   0.00894013 0.0069507385         3964 
 4400000    0.5427402    -9.250418    471.72043 0.0089340991 0.0069479159         3971 
 4401000    0.5497798   -9.2740584     471.1051 0.0089204177 0.0069450955         3970 
 4402000    0.5638146   -9.2652981    471.39779  0.008923932 0.0069422781         3976 
 4403000   0.54838219   -9.2579475    471.55867 0.0089249503 0.0069394608         3976 
 4404000   0.53552803   -9.2833134    471.73755 0.0089263084 0.0069366451         3973 
 4405000   0.55304549   -9.2647937    471.68664  0.008923319 0.0069338308         3968 
 4406000   0.54388403   -9.2573136    470.97752 0.0089078817 0.0069310199         3966 
 4407000   0.54505772   -9.2736979    471.88388  0.008922999 0.0069282074         3974 
 4408000   0.54564432   -9.2685793    471.61545    0.0089159 0.0069253978         3971 
 4409000   0.54382778   -9.2727004     472.0524 0.0089221366  0.006922588         3972 
 4410000   0.54611055   -9.2745364     471.5862 0.0089113038 0.0069197822         3972 
 4411000   0.54561287   -9.2608744    472.18535 0.0089206029 0.0069169783         3972 
 4412000   0.54659534   -9.2750974    472.27733 0.0089203182 0.0069141768         3983 
 4413000   0.54816337   -9.2755525    471.78435 0.0089089876 0.0069113748         3968 
 4414000    0.5486257   -9.2630632    471.60663 0.0089036141  0.006908577         3964 
 4415000   0.54698066     -9.27033     471.8351 0.0089059098 0.0069057783         3963 
 4416000   0.55038812   -9.2759277    471.53479  0.008898226  0.006902981         3971 
 4417000   0.54451471   -9.2731702    471.72089 0.0088997224 0.0069001847         3963 
 4418000   0.53711026   -9.2751007    470.93114 0.0088828117 0.0068973918         3969 
 4419000   0.54162515     -9.28325    471.53591 0.0088922062    0.0068946         3973 
 4420000   0.55587548   -9.2787158    471.93889 0.0088977921 0.0068918107         3970 
 4421000   0.55037086   -9.2774944    470.60995 0.0088707296  0.006889023         3972 
 4422000   0.54797157   -9.2640832       472.03 0.0088954847 0.0068862367         3967 
 4423000   0.55049107   -9.2868939    470.59569 0.0088664499 0.0068834507         3971 
 4424000   0.54514752   -9.2823019    471.41773 0.0088799301 0.0068806642         3979 
 4425000   0.54699648   -9.2841061    472.15052 0.0088917235 0.0068778797         3970 
 4426000   0.54975727   -9.2808321     471.4664 0.0088768338 0.0068750968         3976 
 4427000    0.5493431   -9.2824953    471.64103  0.008878116 0.0068723154         3978 
 4428000   0.54056893   -9.2813927    471.26091 0.0088689572 0.0068695365         3970 
 4429000   0.53980212   -9.2878852    470.88451 0.0088598727  0.006866759         3970 
 4430000   0.54167484   -9.2722105     471.3867 0.0088673194  0.006863984         3965 
 4431000   0.53539484   -9.2813844     471.4865 0.0088671952 0.0068612099         3968 
 4432000   0.54007884   -9.2874466    471.27536 0.0088612244 0.0068584377         3968 
 4433000   0.53878446   -9.2552524    470.94028 0.0088529266  0.006855668         3972 
 4434000     0.529401   -9.2943051    471.02687 0.0088525573 0.0068528969         3962 
 4435000   0.54920749   -9.2912202    471.29825 0.0088556605 0.0068501311         3975 
 4436000   0.53951676    -9.265847    471.74106 0.0088619826 0.0068473655         3972 
 4437000   0.54349773   -9.2889925    471.68596 0.0088589505 0.0068445991         3972 
 4438000   0.56419193   -9.2692208    471.52789 0.0088539861 0.0068418355         3965 
 4439000   0.53516533   -9.2874701    470.74874 0.0088373646 0.0068390719         3978 
 4440000   0.53835567   -9.2897264    470.85248 0.0088373213 0.0068363095         3974 
 4441000   0.54450469   -9.2820059    471.56423 0.0088486871 0.0068335499         3970 
 4442000   0.54291993   -9.2744979    471.12546 0.0088384634 0.0068307891         3974 
 4443000   0.53865173   -9.2721846    471.93076 0.0088515785 0.0068280328         3974 
 4444000   0.53237714   -9.2684979    471.14534 0.0088348586 0.0068252784         3968 
 4445000   0.53689208    -9.297987    471.55582 0.0088405665 0.0068225249         3971 
 4446000   0.54173677   -9.2750047    471.48605 0.0088372705 0.0068197715         3961 
 4447000   0.54653278   -9.2784652    471.26462 0.0088311338 0.0068170199         3964 
 4448000   0.53601601   -9.2861033    470.60482 0.0088167869 0.0068142711         3966 
 4449000    0.5414261   -9.2936741    470.92615  0.008820824 0.0068115235         3965 
 4450000   0.54043657   -9.2743087    471.00359  0.008820292 0.0068087752         3978 
 4451000   0.53265542    -9.261088    471.20172 0.0088220198 0.0068060293         3965 
 4452000    0.5476993   -9.2678731    471.09283 0.0088179999 0.0068032873         3969 
 4453000   0.53629233   -9.2644034    470.36982 0.0088024894  0.006800546         3973 
 4454000   0.53894111   -9.2678823    471.49408 0.0088215476 0.0067978064         3969 
 4455000   0.54533116   -9.2843249    470.96887 0.0088097433 0.0067950671         3974 
 4456000   0.53429841   -9.2923107    470.46172 0.0087982817 0.0067923302         3975 
 4457000   0.53804615   -9.2871284    470.79471 0.0088025336 0.0067895947         3975 
 4458000   0.55080431   -9.2954472    470.69216 0.0087986421 0.0067868633         3979 
 4459000   0.54708266   -9.2793121    470.71178 0.0087970355 0.0067841306         3965 
 4460000   0.53426083    -9.291686    470.80918 0.0087968829 0.0067813984         3977 
 4461000   0.54005742   -9.2905599    471.04995 0.0087994087 0.0067786697         3973 
 4462000   0.54579133   -9.2985962    471.25398 0.0088012472 0.0067759414         3972 
 4463000   0.54571164   -9.2847026    470.49092 0.0087850273 0.0067732148         3966 
 4464000   0.53903187   -9.2855966    470.54584 0.0087840845 0.0067704882         3976 
 4465000   0.54316766   -9.2837433    470.66969 0.0087844288 0.0067677653         3968 
 4466000   0.53219485   -9.2933216    470.54304 0.0087800985 0.0067650425         3974 
 4467000   0.53616941   -9.2836337    471.12587 0.0087890059 0.0067623206         3968 
 4468000   0.53207471   -9.2974333    470.74604 0.0087799545 0.0067596008         3961 
 4469000   0.54791632   -9.2733413    470.70016 0.0087771343 0.0067568823         3968 
 4470000   0.53447399   -9.2864866    470.53971 0.0087721795 0.0067541669         3977 
 4471000   0.54317575   -9.2769232    471.10702 0.0087807913 0.0067514516         3962 
 4472000   0.53772081   -9.2919202    470.82275 0.0087735306 0.0067487413         3973 
 4473000   0.53803699   -9.2821887    471.13701  0.008777424 0.0067460321         3965 
 4474000   0.54262442    -9.285675    470.75251 0.0087683005  0.006743322         3975 
 4475000   0.54149078   -9.2824945    470.77142 0.0087666931 0.0067406129         3977 
 4476000   0.53187457   -9.2890422    470.12336 0.0087526691 0.0067379038         3962 
 4477000    0.5320593   -9.2817054    471.04904 0.0087679443 0.0067351988         3973 
 4478000   0.52237655   -9.2795693    470.91108  0.008763419 0.0067324923         3971 
 4479000   0.53217778   -9.2976988    471.51583 0.0087727139 0.0067297894         3974 
 4480000   0.52936292   -9.2870692    470.78132  0.008757093 0.0067270888         3982 
 4481000   0.53476272   -9.2902858    470.87311 0.0087568458 0.0067243903         3968 
 4482000   0.53395159   -9.3149975    470.66308  0.008750987 0.0067216908         3963 
 4483000   0.54033845   -9.2772327    471.67598 0.0087678634 0.0067189942         3959 
 4484000     0.540144   -9.2864266    471.92083 0.0087704585  0.006716297         3971 
 4485000   0.53285967   -9.2815082     471.0376 0.0087520922 0.0067136042         3959 
 4486000   0.53748592   -9.2968986    471.07223 0.0087507845 0.0067109082         3970 
 4487000   0.54327457   -9.2879403    471.00692 0.0087476212 0.0067082157         3969 
 4488000   0.52742227   -9.3068853    470.86325 0.0087430045  0.006705523         3964 
 4489000   0.52473096   -9.2856984    471.03204 0.0087441902 0.0067028362         3973 
 4490000   0.52939026   -9.2919024    471.01235 0.0087418772 0.0067001481         3970 
 4491000   0.52212479   -9.2896836    470.75776 0.0087352067  0.006697462         3969 
 4492000   0.54423185   -9.2982967    469.99439 0.0087191004 0.0066947783         3973 
 4493000   0.53201341   -9.2818498    471.27821 0.0087409712 0.0066920941         3961 
 4494000   0.54045033   -9.2973831     470.2108  0.008719233  0.006689413         3970 
 4495000   0.52220684   -9.2962481    470.32499 0.0087194103 0.0066867332         3983 
 4496000   0.52523584   -9.2878819    471.18628 0.0087334349 0.0066840548         3961 
 4497000   0.53876575   -9.2894513    471.23516 0.0087323987 0.0066813765         3974 
 4498000   0.53280198   -9.2812624    471.46671 0.0087347471 0.0066787005         3980 
 4499000    0.5243015   -9.3085085    470.44803 0.0087139369 0.0066760263         3968 
 4500000   0.52646566   -9.2855388    471.68378 0.0087348849 0.0066733537         3971 
 4501000   0.54331994   -9.2940823    471.59613 0.0087313214 0.0066706835         3966 
 4502000   0.53404464   -9.3096005    471.00943 0.0087185219 0.0066680156         3967 
 4503000    0.5408495   -9.3159068    470.51075 0.0087073572 0.0066653487         3963 
 4504000   0.53265574   -9.2814604    470.20955  0.008699851 0.0066626828         3969 
 4505000   0.54160444   -9.2967596    470.47943 0.0087029121 0.0066600156         3972 
 4506000   0.53286671   -9.2915309    470.42034 0.0086998879 0.0066573514         3967 
 4507000   0.53261652   -9.2857293    470.86933 0.0087062592 0.0066546885         3981 
 4508000   0.51443156   -9.2807942    471.07391 0.0087081099 0.0066520279         3964 
 4509000   0.53222186   -9.3026962    471.62769 0.0087164132 0.0066493681         3964 
 4510000   0.53325982   -9.2975064    471.01208 0.0087031056 0.0066467074         3970 
 4511000    0.5302718     -9.29156    471.17071 0.0087041068 0.0066440521         3966 
 4512000   0.53075625   -9.3006073    470.55817 0.0086908646 0.0066413969         3974 
 4513000   0.53741681   -9.2738421    470.43061 0.0086865834 0.0066387414         3973 
 4514000   0.53850189   -9.2983763    471.21759 0.0086991876 0.0066360893         3969 
 4515000   0.52854959   -9.3064271    471.21898 0.0086972865 0.0066334412         3975 
 4516000    0.5322958   -9.2866703    470.70532 0.0086858821  0.006630792         3983 
 4517000   0.53228196   -9.2984985     471.0634 0.0086905653 0.0066281454         3965 
 4518000   0.53710644   -9.2840746    471.76869 0.0087016506 0.0066254994         3976 
 4519000   0.53684498   -9.3006275    470.36501 0.0086738404 0.0066228541         3964 
 4520000   0.53569109   -9.3029238    471.05301 0.0086846057 0.0066202111         3969 
 4521000   0.53251392   -9.2870195     470.9512 0.0086808081 0.0066175696         3980 
 4522000   0.53005755   -9.3154179    470.74913 0.0086751646 0.0066149281         3965 
 4523000   0.52712544   -9.2973338    470.96229 0.0086771739 0.0066122876         3969 
 4524000   0.52708601   -9.3144661    471.19501 0.0086795426   0.00660965         3974 
 4525000    0.5132112   -9.3029676    471.02706 0.0086745316 0.0066070122         3981 
 4526000   0.53380129   -9.3142433    470.89563  0.008670195 0.0066043769         3974 
 4527000   0.51909011   -9.2983779    470.55207 0.0086619554 0.0066017427         3982 
 4528000   0.52005047   -9.3054408    471.13495 0.0086707698 0.0065991103         3966 
 4529000    0.5261713    -9.322661    471.34026 0.0086726331 0.0065964799         3968 
 4530000   0.51359176   -9.3004968     470.3682 0.0086528367 0.0065938495         3976 
 4531000   0.52369137   -9.2858819    470.63476 0.0086558295  0.006591222         3973 
 4532000    0.5342539   -9.3112083    470.77774 0.0086565486 0.0065885973         3971 
 4533000   0.52900688   -9.3016333    470.86288 0.0086562042 0.0065859706         3973 
 4534000   0.53568992   -9.2932759    471.37124 0.0086636385 0.0065833478         3969 
 4535000   0.51129348   -9.2932113    470.93235 0.0086536632 0.0065807254         3964 
 4536000   0.52199963    -9.306295    470.62134 0.0086460417  0.006578103         3969 
 4537000   0.52333111   -9.3057123     470.7932 0.0086472926 0.0065754832         3986 
 4538000   0.51825723   -9.2837177     470.4259 0.0086386423 0.0065728637         3974 
 4539000   0.51731601   -9.3032343    471.22533 0.0086514161 0.0065702483         3966 
 4540000   0.53065182   -9.2933029    471.29163 0.0086507273 0.0065676327         3966 
 4541000    0.5234497   -9.2925723    470.18541 0.0086285218 0.0065650179         3970 
 4542000   0.52878094   -9.2969139    470.99662 0.0086415057 0.0065624043         3978 
 4543000   0.53219491   -9.3089041    470.48095 0.0086301444 0.0065597919         3966 
 4544000   0.52485277   -9.3125673    470.54283   0.00862938 0.0065571824         3967 
 4545000   0.51529405   -9.2910695    470.62387 0.0086289672  0.006554574         3970 
 4546000   0.50404719   -9.2987187    470.87459  0.008631665 0.0065519692         3976 
 4547000   0.52713955   -9.3120538     470.7395 0.0086272909 0.0065493656         3965 
 4548000   0.52206774   -9.2835894    470.77245 0.0086259978 0.0065467607         3970 
 4549000   0.52284235   -9.3052255    470.88181 0.0086261048 0.0065441581         3975 
 4550000   0.52619622   -9.3082618    470.91734 0.0086248597 0.0065415576         3959 
 4551000   0.52978257   -9.3032535    470.73889  0.008619697 0.0065389573         3970 
 4552000   0.53766942   -9.3005578    471.29174 0.0086279244 0.0065363593         3970 
 4553000   0.52554787   -9.3053216    471.57554 0.0086312236 0.0065337629         3976 
 4554000   0.52356609   -9.3102284     470.6743 0.0086128366  0.006531167         3979 
 4555000   0.51899234   -9.3040382    470.52968 0.0086083001 0.0065285732         3958 
 4556000   0.51948867   -9.3046534    471.24571 0.0086195074 0.0065259798         3969 
 4557000   0.51852632   -9.3131589    471.05071 0.0086140501 0.0065233869         3973 
 4558000   0.52009081   -9.3044645    470.48457 0.0086018094 0.0065207962         3965 
 4559000   0.52710437   -9.3124722    470.06352 0.0085922265  0.006518208         3972 
 4560000   0.51386386   -9.3248225    469.79369  0.008585411 0.0065156189         3976 
 4561000   0.52743894   -9.3111026     470.2245    0.0085914 0.0065130326         3967 
 4562000   0.52851444   -9.3117946    469.95948 0.0085846755 0.0065104474         3981 
 4563000   0.51731101    -9.303839    471.32718 0.0086077723 0.0065078635         3965 
 4564000   0.52492916   -9.2960832    471.06107 0.0086010273 0.0065052827         3973 
 4565000   0.53221374   -9.3289992    470.82657 0.0085948626 0.0065027021         3975 
 4566000   0.51867625   -9.2989633    470.39235 0.0085850553 0.0065001229         3967 
 4567000   0.53025172   -9.2999171    470.74947 0.0085896917 0.0064975452         3973 
 4568000   0.52037834   -9.3154858    470.73411 0.0085875312 0.0064949689         3971 
 4569000   0.51300291   -9.2880234    470.15094 0.0085750152 0.0064923932         3969 
 4570000   0.54169077   -9.3205129    470.56793 0.0085807426 0.0064898191         3976 
 4571000   0.50745462   -9.3128852    470.14961 0.0085712392 0.0064872454         3968 
 4572000   0.51800392   -9.3185025    471.09484 0.0085865931 0.0064846741         3978 
 4573000   0.52054873   -9.2989254    470.96278 0.0085823088 0.0064821064         3964 
 4574000   0.52692386   -9.3019606    470.80211 0.0085775053 0.0064795387         3970 
 4575000    0.5234343    -9.303265    469.83376  0.008557992 0.0064769713         3972 
 4576000   0.51491608   -9.3170865    470.30145 0.0085646389  0.006474403         3968 
 4577000   0.51380455   -9.3279977    470.44711 0.0085654197 0.0064718362         3971 
 4578000   0.52295722   -9.3174312    470.21779 0.0085593743 0.0064692726         3978 
 4579000   0.51071545   -9.3087226    470.70249 0.0085663261 0.0064667129         3966 
 4580000   0.51802688   -9.3121098    470.09058 0.0085533221  0.006464152         3973 
 4581000   0.52768015   -9.3193279    469.89993 0.0085479868 0.0064615945         3982 
 4582000   0.51822331   -9.3175279    470.34169 0.0085541556  0.006459038         3977 
 4583000   0.51079027   -9.3163751     470.6858  0.008558546 0.0064564826         3973 
 4584000    0.5190828   -9.3089526    470.64519 0.0085559407 0.0064539269         3970 
 4585000   0.52826874    -9.316902    469.43743 0.0085321234 0.0064513709         3967 
 4586000   0.51957993   -9.2991675     470.3646 0.0085471108 0.0064488185         3970 
 4587000   0.52107275   -9.3102534    470.46835 0.0085471322 0.0064462684         3969 
 4588000   0.51307956    -9.318931    470.07048 0.0085380428 0.0064437178         3981 
 4589000   0.51629246   -9.3054296     470.8177 0.0085497512 0.0064411695         3973 
 4590000   0.52043651   -9.3148409    471.30634 0.0085567599 0.0064386243         3966 
 4591000   0.51420546    -9.309474    470.87629 0.0085470901  0.006436078         3973 
 4592000   0.52156846   -9.3176883     470.5057 0.0085385035 0.0064335327         3966 
 4593000   0.51272311   -9.3157122    470.84967 0.0085428855 0.0064309887         3969 
 4594000   0.51340724   -9.3122261    470.13008 0.0085279728 0.0064284464         3976 
 4595000   0.51619779   -9.3175998     470.6543 0.0085356239 0.0064259076         3970 
 4596000   0.51920593   -9.3273126    470.40336 0.0085292167 0.0064233677         3976 
 4597000    0.5159054   -9.3351397    470.12792 0.0085223682 0.0064208304         3961 
 4598000   0.51758982   -9.3069214    470.53595 0.0085279098 0.0064182953         3969 
 4599000   0.52292605   -9.3183928    470.68258 0.0085287124 0.0064157605         3973 
 4600000    0.5166073    -9.311587    470.88478 0.0085305215 0.0064132293         3978 
 4601000   0.50710549   -9.3021676    471.57927 0.0085412459 0.0064107005         3977 
 4602000   0.51921114   -9.3127438    470.50387 0.0085199166 0.0064081695         3977 
 4603000   0.52892383   -9.3062172     470.1975 0.0085125191 0.0064056397         3977 
 4604000   0.51252316   -9.2972456     470.4157 0.0085146196 0.0064031123         3968 
 4605000   0.51191707   -9.3194743    470.07697 0.0085066408 0.0064005867         3975 
 4606000   0.52031319   -9.3193238    470.27561 0.0085083878 0.0063980621         3976 
 4607000   0.51705804   -9.3162992    470.60212  0.008512447 0.0063955399         3971 
 4608000   0.50371415   -9.3070977    470.51982 0.0085091113 0.0063930156         3972 
 4609000   0.52353131   -9.3166516    471.16718 0.0085189697 0.0063904969         3982 
 4610000   0.52616085   -9.3158471    470.45358 0.0085042224 0.0063879794         3979 
 4611000    0.5104963   -9.3274158    470.11891 0.0084963295  0.006385461         3982 
 4612000   0.51303925    -9.320979    470.46152 0.0085006779 0.0063829458         3975 
 4613000   0.51577505   -9.3273792    470.16444 0.0084934685 0.0063804301         3985 
 4614000    0.5069465    -9.315993     470.2214 0.0084926565 0.0063779175         3977 
 4615000   0.51575438   -9.3229131    470.07135 0.0084881066 0.0063754037         3979 
 4616000   0.52118912   -9.3219492    469.86035 0.0084824587 0.0063728908         3972 
 4617000   0.50546287   -9.3313098     469.8251 0.0084799853 0.0063703796         3967 
 4618000   0.51178092   -9.3198658    470.94708 0.0084983954 0.0063678717         3967 
 4619000   0.50717697     -9.31647    469.64152 0.0084730013 0.0063653627         3965 
 4620000   0.51090545   -9.3209291    470.44076 0.0084855836 0.0063628575         3974 
 4621000   0.51554203   -9.3100182    470.09596 0.0084775293 0.0063603548         3983 
 4622000   0.52141707     -9.32705     470.1685 0.0084770031 0.0063578522         3976 
 4623000    0.5180961   -9.3158796    470.34027 0.0084782658 0.0063553488         3975 
 4624000   0.51184108   -9.3200929    470.76878 0.0084841547 0.0063528463         3978 
 4625000   0.51351487   -9.3198482    470.76881 0.0084823209 0.0063503465         3963 
 4626000   0.51354227    -9.311988    469.90338 0.0084648974 0.0063478463         3972 
 4627000   0.51500065   -9.3274918    469.61368 0.0084578504 0.0063453491         3964 
 4628000    0.5068158   -9.3210201    469.97308 0.0084624942 0.0063428541         3967 
 4629000   0.50074375   -9.3294348     469.6678 0.0084551703 0.0063403595         3976 
 4630000    0.5217434   -9.3180458    470.11511  0.008461395 0.0063378673         3971 
 4631000    0.5163324   -9.3256194    470.68787 0.0084698745 0.0063353759         3978 
 4632000   0.51008342   -9.3180149    471.15447 0.0084764406 0.0063328852         3976 
 4633000   0.50332821    -9.315555    470.26258 0.0084585686 0.0063303955         3972 
 4634000   0.51923502   -9.3249928    469.63465 0.0084454512 0.0063279082         3977 
 4635000   0.50606271   -9.3170088    470.57871 0.0084606024 0.0063254239         3972 
 4636000   0.51264373     -9.32964    470.21682 0.0084522723 0.0063229397         3962 
 4637000   0.50541354   -9.3233432    470.14887 0.0084492284 0.0063204572         3977 
 4638000   0.50460326   -9.3207427    470.32844 0.0084506332 0.0063179757         3972 
 4639000   0.51216728    -9.342118    470.11954  0.008445059 0.0063154944         3983 
 4640000   0.50724152   -9.3294286    469.89297 0.0084391698 0.0063130157         3978 
 4641000   0.51308773   -9.3505755    469.90811 0.0084376231 0.0063105372         3973 
 4642000   0.51212943   -9.3223341    469.91096 0.0084358566 0.0063080608         3972 
 4643000   0.50699591   -9.3208316    470.37346 0.0084423407 0.0063055854         3981 
 4644000   0.51458603    -9.325514    470.30025 0.0084392091 0.0063031093         3954 
 4645000   0.50404573   -9.3330226    469.39281 0.0084211125 0.0063006353         3983 
 4646000   0.52495515   -9.3322281     470.0036 0.0084302554 0.0062981641         3974 
 4647000   0.50928367   -9.3231371    470.39258 0.0084354168 0.0062956937         3983 
 4648000   0.49628425   -9.3225409    469.08871 0.0084102249 0.0062932242         3984 
 4649000   0.49466497   -9.3320577    470.65249 0.0084364467 0.0062907563         3975 
 4650000   0.51558384   -9.3364071     469.8453 0.0084201667 0.0062882888         3971 
 4651000   0.52111582   -9.3229854    470.47235 0.0084295914 0.0062858245         3969 
 4652000   0.51822028   -9.3367487    469.71771 0.0084142611 0.0062833621         3967 
 4653000   0.50101139   -9.3283298     469.7435 0.0084129146 0.0062808989         3979 
 4654000   0.50960335   -9.3234312    469.86248 0.0084132373 0.0062784379         3978 
 4655000   0.50420858   -9.3141905    470.52593 0.0084233071 0.0062759796         3973 
 4656000   0.50360683   -9.3390307    470.12984 0.0084144086 0.0062735197         3981 
 4657000   0.50313706   -9.3316946    469.62311 0.0084035342 0.0062710644         3969 
 4658000   0.51125022   -9.3348558    469.66655 0.0084025073 0.0062686084         3975 
 4659000   0.50815856   -9.3333416    470.59857 0.0084173744 0.0062661532         3977 
 4660000   0.50710624   -9.3310022    470.11774 0.0084069697 0.0062637001         3972 
 4661000   0.50069509   -9.3356519      469.736 0.0083983408 0.0062612492         3979 
 4662000   0.50715854   -9.3135578    469.53303 0.0083929113 0.0062587974         3971 
 4663000   0.51254477   -9.3302868      469.706 0.0083942026 0.0062563471         3978 
 4664000   0.50644366    -9.328076     470.1871 0.0084009988 0.0062538999         3973 
 4665000    0.5052223    -9.323383    470.00763  0.008395992 0.0062514531         3973 
 4666000   0.51166326   -9.3290961    470.26591 0.0083988053 0.0062490079         3976 
 4667000   0.50786162   -9.3567213    469.58628 0.0083848704 0.0062465641         3980 
 4668000   0.50590859   -9.3296719    470.28707 0.0083955847 0.0062441205         3981 
 4669000   0.51258998   -9.3338338    469.96923 0.0083881136 0.0062416794         3977 
 4670000   0.50920075   -9.3430125    469.96442 0.0083862317 0.0062392394         3965 
 4671000   0.50571442   -9.3199458    470.18203 0.0083883184  0.006236801         3975 
 4672000   0.51313332   -9.3263653    469.59624 0.0083760745 0.0062343623         3977 
 4673000   0.50968818   -9.3230783    469.56502 0.0083737252 0.0062319252         3964 
 4674000   0.50390646   -9.3284675    469.70048 0.0083743489 0.0062294908         3966 
 4675000   0.50414419   -9.3451214    469.90405 0.0083761864 0.0062270565         3966 
 4676000   0.50591043   -9.3167233    470.06803 0.0083773173 0.0062246234         3968 
 4677000   0.50900432   -9.3519524    470.13144 0.0083766559 0.0062221925         3968 
 4678000   0.50368935   -9.3460977    469.83581 0.0083695989 0.0062197635         3981 
 4679000   0.49534518   -9.3389351    469.42716 0.0083605322 0.0062173343         3973 
 4680000   0.49641081   -9.3311712    469.74709 0.0083644425 0.0062149067         3965 
 4681000   0.49941922   -9.3450661    469.75643 0.0083628218 0.0062124811         3977 
 4682000   0.48279601   -9.3420945    469.66288 0.0083593706 0.0062100559         3975 
 4683000   0.50177306   -9.3414109    470.36855  0.008370143  0.006207631         3978 
 4684000   0.49770099   -9.3226867    470.24393 0.0083661387 0.0062052051         3979 
 4685000   0.50050245   -9.3438287    469.94882 0.0083591039 0.0062027841         3975 
 4686000   0.50107424   -9.3244803    468.93846 0.0083393523 0.0062003644         3975 
 4687000   0.49254161    -9.320956    469.94861 0.0083555333 0.0061979441         3974 
 4688000   0.49967355   -9.3489736    469.83356 0.0083517058 0.0061955271         3975 
 4689000   0.49748714   -9.3325334    469.89977 0.0083511013 0.0061931111         3978 
 4690000   0.50830792     -9.33918    470.49571 0.0083599096 0.0061906973         3976 
 4691000   0.51521687   -9.3322267    469.14149 0.0083340704 0.0061882837         3973 
 4692000   0.50715209   -9.3472654    469.73966 0.0083429181 0.0061858699         3975 
 4693000   0.50855237    -9.328809    470.67265 0.0083577073 0.0061834598         3972 
 4694000   0.49726627   -9.3419269    469.95875  0.008343253 0.0061810503         3977 
 4695000   0.49760056   -9.3368181    469.60456 0.0083351891 0.0061786437         3967 
 4696000   0.50154229      -9.3463    469.91823 0.0083389805 0.0061762368         3962 
 4697000   0.49820046   -9.3361084    469.99795 0.0083386196 0.0061738312         3964 
 4698000   0.49344356   -9.3370445    470.06205 0.0083379816 0.0061714287         3976 
 4699000    0.5136111   -9.3152522    470.24678 0.0083394833 0.0061690263         3976 
 4700000   0.49842082   -9.3392929    470.16538 0.0083362655 0.0061666246         3976 
 4701000   0.51102342   -9.3294626    469.81976 0.0083283656 0.0061642258         3966 
 4702000   0.50174154   -9.3394085    469.93061 0.0083285589  0.006161827         3969 
 4703000   0.50466477   -9.3444021    469.94722 0.0083270823 0.0061594303         3978 
 4704000   0.50403155    -9.328888    469.40526 0.0083157111 0.0061570326         3970 
 4705000   0.49994111   -9.3267876    469.83494 0.0083215541 0.0061546388         3971 
 4706000   0.50339097   -9.3350413    470.19493 0.0083261604 0.0061522443         3964 
 4707000   0.49722728   -9.3431034    470.63111 0.0083321137 0.0061498505         3972 
 4708000   0.50255611    -9.336339    469.09905 0.0083032259 0.0061474561         3969 
 4709000   0.49225077   -9.3421332     469.6392 0.0083110214 0.0061450655         3981 
 4710000   0.48367177   -9.3498922    470.04644 0.0083164622 0.0061426773         3970 
 4711000   0.49772946   -9.3426079    470.98621 0.0083313205  0.006140289         3967 
 4712000   0.49996645   -9.3286087    469.76691 0.0083079887 0.0061379034         3974 
 4713000   0.50212748   -9.3510621    469.84235 0.0083075598 0.0061355182         3973 
 4714000   0.49273489   -9.3322376    470.41989 0.0083160072 0.0061331341         3987 
 4715000   0.49785967   -9.3322228    470.01773 0.0083071356 0.0061307507         3976 
 4716000   0.49133537   -9.3556579     469.3273 0.0082931739 0.0061283679         3981 
 4717000   0.50839918   -9.3467219    469.52106 0.0082948389 0.0061259879         3971 
 4718000   0.49758705   -9.3421559    470.02881  0.008302049 0.0061236083         3973 
 4719000   0.50224968   -9.3373404    470.35534  0.008306056 0.0061212309         3971 
 4720000   0.50185536   -9.3611961    469.58776 0.0082907443 0.0061188548         3973 
 4721000   0.48923805   -9.3346734    469.84587 0.0082935443 0.0061164795         3969 
 4722000   0.47762258   -9.3405113    470.02246 0.0082949044 0.0061141059         3980 
 4723000    0.5030491   -9.3412319    469.53016 0.0082844618 0.0061117344         3963 
 4724000   0.48947766   -9.3459599    469.24313 0.0082776448 0.0061093634         3974 
 4725000   0.49665051   -9.3543427    470.14616 0.0082918195 0.0061069936         3963 
 4726000   0.49993438   -9.3457894    469.69126 0.0082820437 0.0061046236         3969 
 4727000    0.5038392   -9.3387668    469.64269 0.0082794354  0.006102256         3974 
 4728000   0.50008658   -9.3440203    469.98174 0.0082836602 0.0060998903         3979 
 4729000   0.49484331   -9.3349345    469.52915 0.0082739329 0.0060975258         3985 
 4730000   0.49665304   -9.3385918    469.61912 0.0082737689 0.0060951628         3974 
 4731000   0.49350339   -9.3516456    469.43575 0.0082687901 0.0060927997         3974 
 4732000   0.48187223   -9.3386305    469.50118 0.0082681949  0.006090438         3977 
 4733000   0.48482777   -9.3560463    469.36863 0.0082641143 0.0060880783         3978 
 4734000   0.49317772    -9.358524    470.02285 0.0082738849 0.0060857182         3974 
 4735000   0.48465176   -9.3546122    469.55311 0.0082638704 0.0060833592         3971 
 4736000   0.48467924   -9.3465921    470.14443   0.00827253 0.0060810044         3969 
 4737000   0.50393372   -9.3338647    469.89262 0.0082663538 0.0060786493         3956 
 4738000   0.48959404    -9.359495    468.76137 0.0082447123  0.006076294         3976 
 4739000   0.48283247    -9.349283    470.21818 0.0082685901 0.0060739403         3966 
 4740000   0.48376261   -9.3447577    469.89585 0.0082611788 0.0060715872         3965 
 4741000   0.50978362   -9.3543958    469.69038 0.0082558247 0.0060692341         3970 
 4742000   0.48737364   -9.3355883    469.91612 0.0082580507 0.0060668838         3978 
 4743000   0.49278963   -9.3488412    469.92136 0.0082564018 0.0060645357         3982 
 4744000    0.4877453   -9.3514404    469.93459 0.0082548936 0.0060621892         3974 
 4745000   0.50239799    -9.362644    469.58769 0.0082470616 0.0060598429         3968 
 4746000   0.50076365   -9.3527536    469.72942 0.0082478126 0.0060574976         3969 
 4747000   0.50015813   -9.3473971    469.93017 0.0082495993 0.0060551541         3981 
 4748000   0.48867177   -9.3469127    470.17325 0.0082521281 0.0060528117         3977 
 4749000   0.49796541   -9.3577648    469.63427 0.0082409326 0.0060504681         3960 
 4750000   0.48446186   -9.3541228    469.50208 0.0082368786 0.0060481282         3975 
 4751000    0.4810588   -9.3507483    469.25396 0.0082307928 0.0060457891         3965 
 4752000    0.4957317    -9.338902    469.21077 0.0082283034 0.0060434507         3982 
 4753000   0.48940298   -9.3392213    469.28762 0.0082279195 0.0060411148         3962 
 4754000    0.4932099   -9.3565311    469.11614  0.008223183 0.0060387788         3983 
 4755000   0.50166937   -9.3622289    469.52335 0.0082285901 0.0060364462         3969 
 4756000   0.50258617   -9.3469046    469.26429 0.0082223208 0.0060341146         3971 
 4757000     0.485182   -9.3534993    469.51469 0.0082249787 0.0060317847         3978 
 4758000   0.48872586   -9.3626014    469.51666 0.0082232847  0.006029454         3975 
 4759000   0.48790342   -9.3555446    469.41154  0.008219716 0.0060271277         3973 
 4760000    0.4935629   -9.3641868    469.17704 0.0082138837 0.0060248024         3973 
 4761000    0.4937456   -9.3466774    469.41686 0.0082163562 0.0060224772         3981 
 4762000   0.49774637   -9.3546997    469.17315 0.0082103659  0.006020152         3972 
 4763000   0.48756451   -9.3606083    469.80221 0.0082196482 0.0060178315         3975 
 4764000   0.49039649   -9.3678982    468.99419 0.0082037886 0.0060155095         3978 
 4765000   0.48679572   -9.3348912    469.57448 0.0082122154 0.0060131886         3962 
 4766000   0.50565106   -9.3527465    470.03138 0.0082184812 0.0060108692         3982 
 4767000   0.48754764   -9.3590234    469.29649 0.0082039104 0.0060085508         3969 
 4768000   0.48304365   -9.3558884    469.39215 0.0082038617 0.0060062341         3971 
 4769000   0.49097757   -9.3512053    469.65692  0.008206768 0.0060039181         3969 
 4770000   0.49581033   -9.3500443    469.30704 0.0081989351 0.0060016032         3968 
 4771000   0.49789337   -9.3524298    469.35886 0.0081981216 0.0059992899         3979 
 4772000   0.48103345   -9.3478058    469.18146 0.0081933057 0.0059969779         3969 
 4773000   0.48224738   -9.3583582    469.48049   0.00819681 0.0059946682         3973 
 4774000   0.48596557   -9.3643426    469.47339 0.0081949691 0.0059923574         3977 
 4775000   0.48628616   -9.3717792     469.0862 0.0081864957 0.0059900488         3977 
 4776000   0.48115843   -9.3552884    469.46809 0.0081914449 0.0059877404         3973 
 4777000   0.49606429   -9.3417083     469.5023 0.0081903269 0.0059854336         3967 
 4778000   0.48196362   -9.3581835    469.47071 0.0081880618 0.0059831284         3974 
 4779000   0.48621908   -9.3608896    469.58144 0.0081882793 0.0059808243         3976 
 4780000   0.48801671   -9.3538683    469.04152 0.0081771534 0.0059785232         3979 
 4781000   0.48936795   -9.3589305    469.63221 0.0081857388 0.0059762216         3966 
 4782000   0.48053202   -9.3565617    469.49545 0.0081816439 0.0059739207         3981 
 4783000   0.49579535   -9.3593232    468.95336 0.0081704886 0.0059716224         3968 
 4784000   0.50557515   -9.3623489     469.2154 0.0081733452 0.0059693248         3964 
 4785000   0.48946454    -9.348569    469.57969 0.0081779814 0.0059670282         3979 
 4786000   0.49354777   -9.3488187     469.0125 0.0081663968 0.0059647337         3982 
 4787000   0.47705496   -9.3609016    469.23911 0.0081686357 0.0059624396         3974 
 4788000   0.48461192   -9.3662397    469.38117 0.0081694021 0.0059601462         3972 
 4789000   0.48065992   -9.3407073    468.91388  0.008159565  0.005957855         3977 
 4790000   0.48449589   -9.3588929    469.12316 0.0081615025 0.0059555646         3966 
 4791000   0.48550078   -9.3701141     469.4366 0.0081652508  0.005953275         3965 
 4792000    0.4805353   -9.3486246    469.29666 0.0081611133 0.0059509872         3969 
 4793000   0.48772073   -9.3613672    469.32194 0.0081598501 0.0059486995         3979 
 4794000   0.48446814   -9.3623704     469.4989 0.0081612241 0.0059464118         3978 
 4795000   0.48717245   -9.3522655    469.23359 0.0081549112 0.0059441261         3980 
 4796000   0.48073104   -9.3610907    469.26419 0.0081537426 0.0059418422         3973 
 4797000    0.4827817   -9.3686523    468.91121 0.0081459108 0.0059395608         3959 
 4798000   0.47522434   -9.3431523    469.62147  0.008156549 0.0059372806         3979 
 4799000   0.49111346   -9.3766214    469.24331 0.0081482827 0.0059350008         3969 
 4800000   0.47573591   -9.3609567    469.68362 0.0081542295 0.0059327219         3969 
 4801000   0.48462995   -9.3542337    469.57217 0.0081505965 0.0059304442         3976 
 4802000   0.48028511   -9.3629648    469.80977 0.0081530225 0.0059281676         3972 
 4803000   0.48010795   -9.3646261    469.08376 0.0081387286 0.0059258914         3973 
 4804000   0.47801883   -9.3422383     469.7776 0.0081490702 0.0059236183         3972 
 4805000   0.49233271   -9.3550091     469.2139  0.008137598 0.0059213456         3971 
 4806000    0.4869902   -9.3763034    469.27377 0.0081369429 0.0059190737         3974 
 4807000   0.49627667   -9.3480283    469.61851 0.0081412265 0.0059168038         3977 
 4808000   0.48250751   -9.3657491    469.28937 0.0081338286 0.0059145348         3976 
 4809000   0.47095208   -9.3637609    469.64775 0.0081383475 0.0059122656         3972 
 4810000   0.47282825    -9.360635    469.72911  0.008138065 0.0059099979         3978 
 4811000   0.49449905   -9.3467929    468.89915 0.0081219974 0.0059077327         3971 
 4812000   0.48800011   -9.3740426    469.42242 0.0081293714 0.0059054681         3975 
 4813000   0.48521315   -9.3706526    469.37919 0.0081269339 0.0059032056         3973 
 4814000   0.48158278   -9.3711245    469.19861 0.0081221196 0.0059009429         3970 
 4815000   0.48103308   -9.3737767    469.93443 0.0081331678 0.0058986811         3975 
 4816000   0.48958646   -9.3670168    469.51188 0.0081241674 0.0058964223         3978 
 4817000   0.47767264   -9.3805025    469.49857 0.0081222506 0.0058941634         3974 
 4818000   0.47961816   -9.3679277    469.03226 0.0081124993 0.0058919064         3979 
 4819000   0.48379811   -9.3803873    468.83376 0.0081073833 0.0058896516         3983 
 4820000   0.47827442   -9.3694578    469.14905 0.0081111524 0.0058873961         3981 
 4821000   0.47058131   -9.3625568    468.92551 0.0081056059 0.0058851411         3974 
 4822000   0.47097398   -9.3613034     469.2404 0.0081093669  0.005882888         3974 
 4823000   0.48297261   -9.3606911    468.67528 0.0080979211  0.005880637         3982 
 4824000   0.47854982   -9.3634487    469.17841 0.0081049338 0.0058783855         3981 
 4825000    0.4839503   -9.3658552    469.57083 0.0081100315 0.0058761341         3974 
 4826000   0.47707735   -9.3815506    469.91703 0.0081143292 0.0058738852         3974 
 4827000   0.48336547   -9.3769148    468.98899 0.0080966265 0.0058716366         3972 
 4828000   0.48090637   -9.3729443    469.62502 0.0081059276 0.0058693935         3981 
 4829000    0.4819785   -9.3665615    469.38544 0.0081001145 0.0058671505         3971 
 4830000   0.47616986   -9.3794465    469.21415 0.0080954822 0.0058649073         3973 
 4831000   0.47635095   -9.3756553    468.78159  0.008086345 0.0058626653         3976 
 4832000   0.48296098   -9.3728737    468.61917 0.0080818704 0.0058604241         3974 
 4833000   0.48394415   -9.3751073    468.74277 0.0080823292 0.0058581835         3967 
 4834000   0.47588393   -9.3621146    468.62953 0.0080787052 0.0058559475         3976 
 4835000   0.46622933   -9.3717654    468.81711 0.0080802673 0.0058537108         3983 
 4836000   0.47605481   -9.3969038    469.54222 0.0080910915 0.0058514744         3977 
 4837000   0.47101553   -9.3666343    468.62361 0.0080735927 0.0058492381         3983 
 4838000    0.4684835   -9.3728026    469.37136 0.0080848036 0.0058470026         3977 
 4839000   0.48744822   -9.3558739    469.32042 0.0080822556 0.0058447707         3973 
 4840000   0.48320669   -9.3808471    468.99727 0.0080750218 0.0058425398         3974 
 4841000   0.47238511   -9.3789765    468.85326 0.0080708749 0.0058403094         3974 
 4842000   0.47299195   -9.3747583    469.33298 0.0080774641 0.0058380796         3975 
 4843000    0.4696267   -9.3779608    469.24218 0.0080742339  0.005835852         3976 
 4844000   0.46407827   -9.3823992    468.72378 0.0080636488 0.0058336243         3977 
 4845000   0.47172393   -9.3848939    469.02239 0.0080671206 0.0058313981         3977 
 4846000   0.48019515   -9.3768802    468.36545 0.0080541589 0.0058291734         3977 
 4847000   0.47428694   -9.3707801    469.14352 0.0080658745 0.0058269496         3972 
 4848000   0.46837463   -9.3836121    469.25901 0.0080661958  0.005824726         3976 
 4849000   0.47135977   -9.3834117    469.25534 0.0080644693 0.0058225031         3975 
 4850000   0.47115847   -9.3737813    468.76372 0.0080543595 0.0058202824         3973 
 4851000    0.4790069   -9.3861981    469.25944 0.0080612148 0.0058180627         3970 
 4852000   0.47445501   -9.3902171    468.81975 0.0080520018 0.0058158433         3968 
 4853000   0.48479126   -9.3648654    468.98815 0.0080532343 0.0058136265         3979 
 4854000   0.47430245   -9.3819849    469.23338 0.0080557853 0.0058114104         3981 
 4855000   0.46958091   -9.3645701    468.79873 0.0080466655  0.005809195         3968 
 4856000   0.48301825   -9.3722861    468.94705 0.0080475537 0.0058069805         3969 
 4857000   0.46998839   -9.3747555    469.00022  0.008046809 0.0058047679         3974 
 4858000   0.48004846   -9.3865904     469.4513 0.0080528904 0.0058025552         3977 
 4859000   0.47485903    -9.381146     469.4227 0.0080507426 0.0058003451         3972 
 4860000   0.48009703   -9.3716388    468.44741 0.0080323631 0.0057981345         3977 
 4861000   0.46834691   -9.3766184    469.32153 0.0080456958 0.0057959265         3980 
 4862000   0.47111134    -9.377823    468.90775 0.0080369489  0.005793719         3970 
 4863000   0.48291411   -9.3629701    469.27635 0.0080416127 0.0057915138         3976 
 4864000   0.47998234   -9.3812619    468.99383  0.008035119 0.0057893101         3973 
 4865000   0.46947208   -9.3802218    468.99784 0.0080335361 0.0057871092         3976 
 4866000   0.47254115   -9.3930214    468.89425 0.0080301111 0.0057849075         3975 
 4867000   0.46799073   -9.3658393    468.99504  0.008030187  0.005782708         3979 
 4868000   0.47089417   -9.3596211    469.78684  0.008042092 0.0057805109         3974 
 4869000   0.48481889   -9.3769136    468.90925 0.0080254202 0.0057783133         3968 
 4870000     0.473603   -9.3971642     468.8798 0.0080232684  0.005776116         3975 
 4871000   0.46584328   -9.3863321     468.6468  0.008017635   0.00577392         3982 
 4872000   0.46445729   -9.3913217     468.8159 0.0080188817 0.0057717237         3972 
 4873000   0.46108414   -9.3710984    468.93486 0.0080192705 0.0057695291         3977 
 4874000   0.47609169   -9.3846574    469.26395 0.0080232518 0.0057673362         3982 
 4875000   0.47655729   -9.3912321    468.55419 0.0080094733 0.0057651441         3973 
 4876000   0.47577088   -9.3798531    468.61583 0.0080088842 0.0057629541         3973 
 4877000    0.4662711   -9.3691624    468.29772 0.0080018064  0.005760764         3983 
 4878000   0.46924386   -9.3961566    469.04845 0.0080129912 0.0057585739         3973 
 4879000   0.47643644   -9.3724738    469.28759 0.0080154334 0.0057563868         3967 
 4880000   0.47069284   -9.3780605    468.62507 0.0080024773 0.0057541991         3967 
 4881000   0.46236199   -9.3770801    468.38379 0.0079967184 0.0057520142         3971 
 4882000   0.46944461   -9.3991896    469.12022 0.0080076509 0.0057498299         3973 
 4883000   0.46877123   -9.3824326    468.83225 0.0080010965 0.0057476459         3976 
 4884000   0.46873401   -9.3642068    469.52483 0.0080112754 0.0057454642         3981 
 4885000   0.47111762     -9.37915    469.24715 0.0080048985 0.0057432838         3981 
 4886000   0.47311719   -9.3733077    468.17492 0.0079849727 0.0057411033         3979 
 4887000   0.47758144   -9.3829881    469.13473 0.0079997056 0.0057389256         3980 
 4888000   0.46180947   -9.3851025    468.70109 0.0079906759 0.0057367486         3979 
 4889000   0.47048859   -9.3919458    468.95695 0.0079934027 0.0057345732         3966 
 4890000   0.46651656   -9.3791651    469.58222 0.0080024237 0.0057323978         3975 
 4891000   0.47098021   -9.3806154    469.00507  0.007990954 0.0057302235         3978 
 4892000   0.46677597   -9.3777748    468.74632 0.0079849128 0.0057280496         3978 
 4893000   0.48401533   -9.3822957    468.85024 0.0079850507 0.0057258783         3972 
 4894000   0.46842423   -9.3763966    468.70229 0.0079808999 0.0057237079         3978 
 4895000   0.46514734    -9.374174    468.55377 0.0079767411 0.0057215366         3964 
 4896000    0.4714717   -9.3929933    468.94399 0.0079817536 0.0057193693         3978 
 4897000   0.46661488   -9.3741825     469.0631 0.0079821506 0.0057172016         3972 
 4898000   0.46259245   -9.3767089    468.60985 0.0079728094 0.0057150352         3981 
 4899000   0.47776778     -9.38555    468.47022 0.0079688069 0.0057128703         3980 
 4900000   0.46826373   -9.3749985    469.13678 0.0079785167 0.0057107064         3983 
 4901000   0.47479294   -9.3872167    468.85852 0.0079721574 0.0057085414         3979 
 4902000   0.46725092   -9.3907339    469.21837 0.0079766484 0.0057063787         3985 
 4903000   0.47098855   -9.3779066    469.27649 0.0079760093 0.0057042177         3974 
 4904000   0.46411704   -9.3851515    468.66083 0.0079639212 0.0057020564         3978 
 4905000   0.47366045   -9.3817101    469.00156 0.0079680863 0.0056998977         3974 
 4906000   0.46622357   -9.3789767    468.64671 0.0079604347 0.0056977405         3976 
 4907000   0.47304859   -9.3874244    469.24851 0.0079690326 0.0056955843         3979 
 4908000    0.4661262    -9.386894     469.2659  0.007967704 0.0056934297         3981 
 4909000    0.4752524   -9.3807032    468.43429 0.0079519639 0.0056912741         3982 
 4910000   0.46910854   -9.3808611    469.40533 0.0079668251 0.0056891215         3977 
 4911000   0.46390397   -9.3857309    468.73379 0.0079538076 0.0056869701         3982 
 4912000   0.46918054    -9.390759    468.57453 0.0079494864 0.0056848206         3978 
 4913000   0.47045507   -9.3850799    468.32139 0.0079435747 0.0056826712         3971 
 4914000   0.45927203   -9.3861801    468.48962 0.0079448111 0.0056805236         3973 
 4915000   0.46560812   -9.3897491    468.75486 0.0079476918 0.0056783739         3975 
 4916000   0.47165226   -9.3998435    468.24255 0.0079373907 0.0056762277         3978 
 4917000   0.46435618   -9.3890016     468.5383 0.0079407887 0.0056740834         3978 
 4918000   0.46721469   -9.3926476    468.88019 0.0079449673 0.0056719383         3977 
 4919000   0.46052201   -9.3900805    468.85066 0.0079428518 0.0056697966         3978 
 4920000   0.46616553   -9.3944313    468.43496 0.0079341966 0.0056676545         3983 
 4921000   0.46251224    -9.399471    467.49607 0.0079166848 0.0056655122         3976 
 4922000   0.46353502   -9.3979473    468.39993 0.0079303794 0.0056633719         3981 
 4923000   0.46472963    -9.390549    468.07356  0.007923244 0.0056612323         3981 
 4924000   0.46075499   -9.3899452    468.63706 0.0079311714 0.0056590945         3981 
 4925000    0.4467608   -9.3901665    468.11583 0.0079207416 0.0056569564         3983 
 4926000    0.4677276    -9.388649    469.11254  0.007935995 0.0056548197         3974 
 4927000   0.45793858   -9.3805192    468.80641 0.0079292065 0.0056526842         3985 
 4928000   0.46911706   -9.3966472    468.66525 0.0079252106 0.0056505504         3983 
 4929000   0.45444576   -9.3867395    468.59051  0.007922339 0.0056484197         3977 
 4930000   0.46029497   -9.4037293    468.39759 0.0079174711 0.0056462892         3977 
 4931000   0.46086412   -9.3937263    468.21917 0.0079128501 0.0056441575         3972 
 4932000   0.45496813   -9.3953817     468.1535 0.0079101361 0.0056420285         3975 
 4933000   0.46138955   -9.3979651    468.67726 0.0079173806 0.0056399015         3979 
 4934000   0.46355816   -9.3877654    468.46125 0.0079121277 0.0056377742         3975 
 4935000   0.45914397   -9.3886911    468.67853 0.0079141934 0.0056356471         3980 
 4936000   0.45398623   -9.3812597    468.78222 0.0079143405  0.005633523         3962 
 4937000   0.47041416   -9.3944904     468.6817 0.0079110408 0.0056313989         3986 
 4938000   0.45325542   -9.3879469    468.68132 0.0079094323 0.0056292764         3975 
 4939000   0.46450336   -9.4037643    468.75953 0.0079091505 0.0056271547         3985 
 4940000   0.45511155   -9.4028686    468.46373 0.0079025596 0.0056250336         3978 
 4941000   0.45470686   -9.3988185     468.7558 0.0079058861 0.0056229144         3974 
 4942000   0.45960939   -9.4083001    468.41221 0.0078984926 0.0056207947         3979 
 4943000   0.46224437    -9.399477    468.79501 0.0079033484 0.0056186777         3980 
 4944000   0.47034112   -9.3991808    469.18827 0.0079083783 0.0056165633         3967 
 4945000   0.45830872   -9.3947468    468.57089  0.007896375 0.0056144477         3980 
 4946000   0.46147114   -9.3992402    468.30767 0.0078903435 0.0056123339         3968 
 4947000   0.46408052   -9.4030338    468.74236  0.007896071 0.0056102228         3977 
 4948000   0.46487537   -9.3933551    468.20471 0.0078854201 0.0056081105         3977 
 4949000   0.45508466   -9.3894333    468.73605 0.0078927739 0.0056060007         3976 
 4950000   0.46176133   -9.3887497     468.8308 0.0078927745 0.0056038913         3982 
 4951000   0.46458781   -9.3820059    468.52622 0.0078860537 0.0056017836         3974 
 4952000    0.4612954    -9.398259    468.34598  0.007881428 0.0055996765         3980 
 4953000   0.46853191   -9.3964291    468.41396 0.0078809805 0.0055975705         3969 
 4954000   0.45365168   -9.3943973    468.24206 0.0078764981  0.005595465         3974 
 4955000   0.45441199    -9.414378     468.3107 0.0078760629 0.0055933592         3970 
 4956000   0.45433995   -9.3906104    467.82446 0.0078662978  0.005591256         3976 
 4957000   0.45633182   -9.4070089    468.59534 0.0078776703 0.0055891547         3972 
 4958000   0.46178514   -9.3969443    467.95486 0.0078653164 0.0055870534         3980 
 4959000   0.45716008   -9.3878043    468.87203 0.0078791429 0.0055849526         3986 
 4960000   0.46010985    -9.396169    468.32297 0.0078683294 0.0055828542         3976 
 4961000   0.46495483   -9.3927819    468.59901 0.0078713803 0.0055807567         3978 
 4962000   0.46414677   -9.4027731    468.34781 0.0078655752 0.0055786597         3975 
 4963000   0.45351949   -9.4021476    467.80347 0.0078548503 0.0055765621         3979 
 4964000   0.45028526    -9.410736     468.5949 0.0078665542 0.0055744668         3969 
 4965000   0.44775538   -9.4125533    468.19812 0.0078583102 0.0055723731         3973 
 4966000   0.46451195   -9.3920588    468.50533 0.0078618829 0.0055702794         3980 
 4967000   0.44834613   -9.4171421    468.25169 0.0078560447 0.0055681874         3975 
 4968000    0.4556182   -9.3954848    468.28149 0.0078549632 0.0055660967         3965 
 4969000   0.45572428   -9.3824796      468.591 0.0078585731 0.0055640072         3974 
 4970000   0.44719792   -9.4038145    468.63425 0.0078577171  0.005561918         3971 
 4971000    0.4605998   -9.4011257    468.28691 0.0078503137   0.00555983         3980 
 4972000   0.45480782    -9.397021    468.20511 0.0078473637 0.0055577433         3973 
 4973000   0.45108539   -9.3882347    467.85626   0.00783994 0.0055556579         3979 
 4974000   0.46056273   -9.4009972    468.61493 0.0078510744 0.0055535736         3977 
 4975000   0.45708673   -9.4083492    468.56497 0.0078486595 0.0055514905         3973 
 4976000   0.44639195   -9.3978144    468.38081  0.007843998 0.0055494079         3979 
 4977000   0.45476495   -9.4169543    467.72983 0.0078315221  0.005547327         3983 
 4978000   0.46118053   -9.4096872    467.97407 0.0078340377 0.0055452471         3967 
 4979000   0.44263046   -9.4067926    468.04432 0.0078336399  0.005543167         3971 
 4980000   0.45938713   -9.3895293    468.31419 0.0078365828 0.0055410899         3977 
 4981000   0.45844053   -9.4069699    468.48552  0.007837876  0.005539014         3975 
 4982000   0.46134438   -9.4073035    467.81386 0.0078250679 0.0055369385         3973 
 4983000    0.4546493   -9.4053419    468.39493 0.0078332151 0.0055348639         3981 
 4984000   0.45390479     -9.40336    467.69619 0.0078199604 0.0055327904         3970 
 4985000   0.45594114   -9.4031351    468.48386  0.007831559 0.0055307188         3980 
 4986000   0.46674443   -9.3930262     468.3419 0.0078276156 0.0055286474         3983 
 4987000   0.45179536   -9.4287778    468.62276 0.0078307392 0.0055265767         3968 
 4988000   0.45534443   -9.3976861    468.55707 0.0078280719 0.0055245069         3976 
 4989000   0.45471931   -9.4062103    468.31519 0.0078224626 0.0055224371         3971 
 4990000   0.45513503   -9.4009103    468.00322  0.007815685 0.0055203695         3977 
 4991000   0.46025357   -9.4105282    468.26568 0.0078185013 0.0055183032         3977 
 4992000   0.46048321   -9.4036508    468.49527 0.0078207677 0.0055162374         3966 
 4993000   0.44860921   -9.4125123    468.59161 0.0078208093 0.0055141727         3979 
 4994000   0.45304179    -9.418854     467.6117 0.0078028918 0.0055121089         3985 
 4995000   0.45545361   -9.4149158    468.46942 0.0078156393  0.005510046         3980 
 4996000   0.45608641   -9.3915973    468.75742 0.0078188788 0.0055079852         3966 
 4997000   0.44821477   -9.4077459    467.73659   0.00780029 0.0055059252         3979 
 4998000   0.45121751   -9.4055701    468.35105 0.0078089744 0.0055038644         3972 
 4999000   0.44226651   -9.4165011    467.88894 0.0077997089 0.0055018064         3966 
 5000000   0.45331281   -9.3903811    469.36629 0.0078227715 0.0054997475         3977 
 5001000   0.45813439   -9.4183178    468.49534 0.0078066943 0.0054976914         3981 
 5002000   0.44678341   -9.4243072    467.90738 0.0077953383 0.0054956353         3981 
 5003000   0.45512725   -9.4128321    468.28017 0.0077999895 0.0054935799         3979 
 5004000   0.45640153   -9.4082554    468.27108 0.0077982795 0.0054915263         3971 
 5005000   0.44103721   -9.4174208    467.93929  0.007791197 0.0054894731         3983 
 5006000   0.44500198   -9.4051969    467.97885 0.0077902992 0.0054874222         3977 
 5007000   0.45472401   -9.4166144    467.68147 0.0077837939 0.0054853731         3974 
 5008000    0.4537152   -9.4203541    468.72664 0.0077996313 0.0054833238         3974 
 5009000   0.44663118   -9.4010185    469.13006 0.0078047857 0.0054812763         3980 
 5010000   0.45267231   -9.4188519    468.30963 0.0077895813 0.0054792296         3984 
 5011000   0.45177018   -9.4243918    468.11553  0.007784799 0.0054771843         3980 
 5012000    0.4549175   -9.4145117    467.95103 0.0077805106 0.0054751382         3970 
Loop time of 13392.2 on 48 procs for 5000000 steps with 4000 atoms

Performance: 64515.113 tau/day, 373.351 timesteps/s
99.4% CPU use with 48 MPI tasks x no OpenMP threads

MPI task timing breakdown:
Section |  min time  |  avg time  |  max time  |%varavg| %total
---------------------------------------------------------------
Pair    | 1011.9     | 1122.9     | 1238.5     | 176.8 |  8.38
Neigh   | 94.958     | 99.379     | 103.49     |  19.4 |  0.74
Comm    | 840.89     | 956.87     | 1082.3     | 190.6 |  7.14
Output  | 18.709     | 18.714     | 18.828     |   0.4 |  0.14
Modify  | 11027      | 11067      | 11108      |  15.6 | 82.64
Other   |            | 127.1      |            |       |  0.95

Nlocal:        83.3333 ave          88 max          78 min
Histogram: 1 3 1 6 6 11 5 5 3 7
Nghost:        2465.54 ave        2481 max        2449 min
Histogram: 1 2 2 7 10 13 3 5 2 3
Neighs:        17233.7 ave       19931 max       15023 min
Histogram: 3 6 7 4 9 5 5 3 4 2
FullNghs:      34467.1 ave       36491 max       32212 min
Histogram: 2 2 4 7 10 4 5 7 4 3

Total # of neighbors = 1654420
Ave neighs/atom = 413.60500
Neighbor list builds = 265900
Dangerous builds = 2

#clear
#
#next RN
#
#jump SELF
Total wall time: 3:43:15
