
units lj                  # Use reduced LJ style units
atom_style atomic         # Uncharged point particles
atom_modify map hash      # Needed for indexing of clusters etc
                          # Used to be able to find where atoms are in relation to each other.

lattice fcc 1.0 spacing 1 1 1
Lattice spacing in x,y,z = 1.5874011 1.5874011 1.5874011
region box block 0 10 0 10 0 10 units lattice
create_box 2 box
Created orthogonal box = (0.0000000 0.0000000 0.0000000) to (15.874011 15.874011 15.874011)
  3 by 4 by 4 MPI processor grid
create_atoms 1 box
Created 4000 atoms
  using lattice units in orthogonal box = (0.0000000 0.0000000 0.0000000) to (15.874011 15.874011 15.874011)
  create_atoms CPU = 0.003 seconds
set type 1 type/fraction 2 0.42 78393
Setting atom values ...
  1685 settings made for type/fraction
mass 1 1.0
mass 2 1.0
pair_style lj/cut  3.5
pair_modify tail  yes
pair_coeff 1  1  1.0  1.0   # Intearaction between 1 and 1 set with epsilon = 1 and sigma = 1
pair_coeff 1  2  1.5  0.8
pair_coeff 2  2  0.5  0.88

write_data data.0
System init for write_data ...
Neighbor list info ...
  update every 1 steps, delay 10 steps, check yes
  max neighbors/atom: 2000, page size: 100000
  master list distance cutoff = 3.8
  ghost atom cutoff = 3.8
  binsize = 1.9, bins = 9 9 9
  1 neighbor lists, perpetual/occasional/extra = 1 0 0
  (1) pair lj/cut, perpetual
      attributes: half, newton on
      pair build: half/bin/atomonly/newton
      stencil: half/bin/3d
      bin: standard
WARNING: Not all mixed pair coeffs generated from mixing. Use write_data with 'pair ij' option to store all pair coeffs. (../write_data.cpp:312)


#############################
#   M E L T   S Y S T E M   #
#############################

velocity all create 2.4 6229865 mom yes dist gaussian # Assign velocities
                                                    # Temperature 2.4, random number seed, zero linear momentum
                                                                                # Gaussian distribution

timestep 0.002   # simulation timestep
thermo 1000       # output thermodynamic data every 1000 steps bf 100

# Define a fix  in this case with index 1 applied to all
# particles in the simulation. This fix is for simulations
# in the anisotropic NPT ensemble. Note that we use the MTK
# correction.
fix 1 all npt temp 2.4 2.4 0.1 iso 5.68 5.68 0.5 mtk yes tchain 5 pchain 5 # Use NPT ensemble
                                                                         # Set temperature and pressure and damping
                                                                         # Numbers of thermostats in chain and in barostat
run 10000          # run for 10000 steps
Per MPI rank memory allocation (min/avg/max) = 3.642 | 3.644 | 3.648 Mbytes
Step Temp E_pair E_mol TotEng Press Volume 
       0          2.4   -5.7538232            0   -2.1547232    -4.186528         4000 
    1000    2.4091305   -4.9936732            0   -1.3808808    5.5927383    3870.9208 
    2000    2.3746756    -5.048265            0    -1.487142    5.5090114    3850.1234 
    3000    2.3799363   -5.0278343            0   -1.4588224    5.5412284    3862.0974 
    4000    2.4399766   -5.0505691            0   -1.3915191    5.8179075    3829.4643 
    5000    2.4035229   -5.0429089            0   -1.4385258    5.1287268    3883.4697 
    6000     2.368324   -5.0160119            0    -1.464414    5.7616271    3834.1126 
    7000    2.4107431   -5.0756161            0   -1.4604055    5.6407308    3824.8062 
    8000    2.3742843   -5.0160619            0   -1.4555258    5.7144277    3836.3118 
    9000    2.3666017   -5.0956342            0   -1.5466192    5.2877102    3843.6974 
   10000    2.4077743   -5.0395996            0   -1.4288411    5.3829877    3863.7424 
Loop time of 2.55595 on 48 procs for 10000 steps with 4000 atoms

Performance: 676069.741 tau/day, 3912.441 timesteps/s
99.6% CPU use with 48 MPI tasks x no OpenMP threads

MPI task timing breakdown:
Section |  min time  |  avg time  |  max time  |%varavg| %total
---------------------------------------------------------------
Pair    | 1.1181     | 1.2028     | 1.3493     |   3.5 | 47.06
Neigh   | 0.21244    | 0.22024    | 0.25007    |   1.3 |  8.62
Comm    | 0.6885     | 0.87245    | 0.95265    |   5.0 | 34.13
Output  | 0.00025225 | 0.00025674 | 0.00033024 |   0.0 |  0.01
Modify  | 0.21056    | 0.24481    | 0.28019    |   3.4 |  9.58
Other   |            | 0.01541    |            |       |  0.60

Nlocal:        83.3333 ave          92 max          74 min
Histogram: 3 4 3 3 4 10 8 8 4 1
Nghost:        1682.12 ave        1708 max        1648 min
Histogram: 1 4 1 5 6 5 10 10 2 4
Neighs:        9884.94 ave       11480 max        8557 min
Histogram: 4 2 6 5 8 7 11 4 0 1

Total # of neighbors = 474477
Ave neighs/atom = 118.61925
Neighbor list builds = 908
Dangerous builds = 213

# Equilibrate just above the melting temperature to avoid step fn in T

fix 1 all npt temp 1.25 1.25 0.1 iso 5.68 5.68 0.5 mtk yes tchain 5 pchain 5
run 2000
Per MPI rank memory allocation (min/avg/max) = 3.643 | 3.645 | 3.649 Mbytes
Step Temp E_pair E_mol TotEng Press Volume 
   10000    2.4077743   -5.0395996            0   -1.4288411    5.3829877    3863.7424 
   11000    1.2640101    -7.028461            0   -5.1329198    5.8043446    3045.0438 
   12000    1.2652736   -7.0926494            0   -5.1952134    5.6254236    3031.3029 
Loop time of 0.628957 on 48 procs for 2000 steps with 4000 atoms

Performance: 549481.116 tau/day, 3179.868 timesteps/s
99.6% CPU use with 48 MPI tasks x no OpenMP threads

MPI task timing breakdown:
Section |  min time  |  avg time  |  max time  |%varavg| %total
---------------------------------------------------------------
Pair    | 0.26393    | 0.30081    | 0.34532    |   2.7 | 47.83
Neigh   | 0.039209   | 0.041976   | 0.047108   |   0.7 |  6.67
Comm    | 0.18684    | 0.23682    | 0.27381    |   3.5 | 37.65
Output  | 5.2953e-05 | 5.4412e-05 | 7.2151e-05 |   0.0 |  0.01
Modify  | 0.041972   | 0.044396   | 0.047223   |   0.7 |  7.06
Other   |            | 0.004903   |            |       |  0.78

Nlocal:        83.3333 ave          92 max          72 min
Histogram: 1 2 3 3 6 6 12 6 5 4
Nghost:        1973.29 ave        2004 max        1946 min
Histogram: 1 5 6 5 6 9 10 5 0 1
Neighs:        12590.7 ave       14458 max        9943 min
Histogram: 1 0 1 6 6 9 14 6 4 1

Total # of neighbors = 604355
Ave neighs/atom = 151.08875
Neighbor list builds = 142
Dangerous builds = 10

#############################
# L I N E A R  Q U E N C H  #
#############################

# Define solid atoms. This closely follows ten Wolde  Ruiz-Montero and Frenkel  Faraday Discuss  1996  104  93-110
# Compute components of the per-atom q6 vector
compute q6 all orientorder/atom degrees 1 6 components 6 nnn NULL cutoff 1.3 # compute the Q6 parameter.
                                                                             # Use all neighbours within 1.3 unit cell.

# get number of connections
compute coord_number all coord/atom orientorder q6 0.5

# An atom is solid if it has 8 or more connections (of a possible 14)
variable is_solid atom c_coord_number>=8
group solid dynamic all var is_solid    # Must be dynamic to update
dynamic group solid defined

# do clustering
compute cluster solid cluster/atom 1.3 # Create a cluster where all atoms within are solid and max 1.3 units from another member

# define chunks one chunk per cluster
compute clus_chunks solid chunk/atom c_cluster nchunk every compress yes  # Says which atoms are in which chunk

# count the size of each chunk
compute size_chunks solid property/chunk clus_chunks count


# Find the maximum entry in the vector of chunk sizes
variable max_n equal max(c_size_chunks)


# Thermo style which includes this variable
# thermo_style custom step temp pe vol v_max_n

thermo ${N}  # Print the thermo information every 100 steps
thermo 1000  

# Reset the npt fix at a lower temperature (below freezing)
fix 1  all npt temp  ${temp} ${temp}  0.1  iso  5.68  5.68  0.5  mtk yes tchain  5  pchain  5
fix 1  all npt temp  0.45 ${temp}  0.1  iso  5.68  5.68  0.5  mtk yes tchain  5  pchain  5
fix 1  all npt temp  0.45 0.45  0.1  iso  5.68  5.68  0.5  mtk yes tchain  5  pchain  5

dump dmp2 all dcd ${N} traj.dcd
dump dmp2 all dcd 1000 traj.dcd


compute msd all msd com yes
variable twopoint equal c_msd[4]/6/(step*dt+1.0e-6)
fix 9 all vector 10 c_msd[4]
variable fit equal slope(f_9)/6/(10*dt)
thermo_style custom step temp pe c_msd[4] v_twopoint v_fit v_max_n

fix 1 all npt temp 1.25 ${temp} 0.1 iso 5.68 5.68 0.5 mtk yes tchain 5 pchain 5
fix 1 all npt temp 1.25 0.45 0.1 iso 5.68 5.68 0.5 mtk yes tchain 5 pchain 5
run 5000000 # 5000000  # Run for this many steps
Neighbor list info ...
  update every 1 steps, delay 10 steps, check yes
  max neighbors/atom: 2000, page size: 100000
  master list distance cutoff = 3.8
  ghost atom cutoff = 3.8
  binsize = 1.9, bins = 8 8 8
  4 neighbor lists, perpetual/occasional/extra = 1 3 0
  (1) pair lj/cut, perpetual
      attributes: half, newton on
      pair build: half/bin/atomonly/newton
      stencil: half/bin/3d
      bin: standard
  (2) compute orientorder/atom, occasional
      attributes: full, newton on
      pair build: full/bin/atomonly
      stencil: full/bin/3d
      bin: standard
  (3) compute coord/atom, occasional
      attributes: full, newton on
      pair build: full/bin/atomonly
      stencil: full/bin/3d
      bin: standard
  (4) compute cluster/atom, occasional
      attributes: full, newton on
      pair build: full/bin/atomonly
      stencil: full/bin/3d
      bin: standard
Per MPI rank memory allocation (min/avg/max) = 9.826 | 9.833 | 9.839 Mbytes
Step Temp PotEng c_msd[4] v_twopoint v_fit v_max_n 
   12000    1.2652736   -7.0926494 9.9455639e-31 6.9066413e-33 8.3333333e+20            1 
   13000    1.2345759   -7.1334213   0.46830507 0.0030019555  0.038260272            3 
   14000    1.2693863   -7.1546461   0.89606065 0.0053336941  0.036388758            2 
   15000    1.2643373   -7.0910571    1.3580168 0.0075445375  0.036499918            1 
   16000    1.2739339   -7.1438909    1.7919535 0.0093330909  0.036763413            1 
   17000    1.2361269   -7.0776597    2.2263092   0.01091328  0.036868802            2 
   18000    1.2381861   -7.1186694    2.6812021  0.012412972  0.036819699            2 
   19000    1.2598447   -7.1085442    3.1034632   0.01361168  0.036924413            2 
   20000    1.2484779   -7.0775765    3.5324402  0.014718501  0.036841197            2 
   21000    1.2527199   -7.1480388    3.9721392  0.015762457   0.03666451            1 
   22000    1.2285333   -7.1341622    4.3660917  0.016538226  0.036446974            3 
   23000    1.2669715   -7.1032277    4.8741118  0.017659825   0.03636928            2 
   24000    1.2428866   -7.1137702    5.3332148  0.018518106  0.036558966            3 
   25000    1.2492078    -7.149481    5.7492625  0.019164208  0.036650172            4 
   26000     1.265632   -7.1473943    6.1750592  0.019791856  0.036630909            1 
   27000     1.215232   -7.1495111    6.5252016  0.020139511  0.036533677            1 
   28000    1.2626154    -7.136726    6.9238014  0.020606552  0.036365524            1 
   29000    1.2386883   -7.1756615     7.253299  0.020842813  0.036155341            4 
   30000    1.2562128   -7.1369418    7.7180709  0.021439085  0.035936984            2 
   31000     1.265193   -7.0772018    8.1019766  0.021779507  0.035741071            2 
   32000    1.2354079   -7.1471669    8.4001932  0.021875503  0.035485943            6 
   33000    1.2309807   -7.1507622    8.8088526  0.022244577  0.035223647            1 
   34000    1.2514073   -7.1684695     9.262866  0.022703103  0.035055836            2 
   35000    1.2534495   -7.1234083    9.7783556  0.023281799  0.034972855            3 
   36000    1.2547434    -7.102934    10.306504  0.023857648  0.035012736            1 
   37000    1.2446179   -7.1104467    10.715885  0.024134876  0.035065115            1 
   38000    1.2457281   -7.1460225     10.98849  0.024097566  0.035051997            1 
   39000    1.2581691   -7.1052309    11.415854  0.024392849  0.035004835            2 
   40000     1.239662   -7.1416141    11.860054  0.024708446  0.034963387            1 
   41000    1.2604584   -7.1035378     12.42829  0.025260752  0.034959683            2 
   42000    1.2224749   -7.1305119    12.860598   0.02551706  0.034997944            1 
   43000    1.2445417    -7.119906    13.333105   0.02583935  0.035059464            2 
   44000    1.2241048   -7.1232761    13.685532  0.025919568  0.035104452            1 
   45000    1.2410959    -7.158986    13.879404  0.025702599  0.035078546            1 
   46000    1.2486878   -7.1620642    14.301778  0.025909017  0.034998781            1 
   47000    1.2604221   -7.1413498    14.791069    0.0262253  0.034959635            3 
   48000     1.259364   -7.1342685    15.268527   0.02650786  0.034951971            3 
   49000    1.2344696   -7.1621106    15.569022  0.026477927  0.034942606            1 
   50000    1.2576649   -7.1369131    15.980996  0.026634993  0.034903927            2 
   51000    1.2586679   -7.1523029    16.474294   0.02691878  0.034883373            2 
   52000    1.2462656   -7.1726247    16.802318  0.026926791  0.034853524            1 
   53000    1.2303223   -7.0571198    17.281114  0.027171563  0.034839537            1 
   54000    1.2271871    -7.150847    17.754332   0.02739866   0.03485326            1 
   55000    1.2630404   -7.1240527    18.211189   0.02759271  0.034872331            2 
   56000    1.2360408   -7.1105828    18.523644  0.027564946  0.034869438       -1e+20 
   57000    1.2461786   -7.1521975    18.928972  0.027673935  0.034856177            1 
   58000    1.2337048   -7.1358977    19.349403  0.027800866  0.034847848            1 
   59000    1.2473061   -7.1806874    19.803096  0.027970474  0.034836322            1 
   60000    1.2216359   -7.1657484    20.178907  0.028026259  0.034829407            1 
   61000    1.2298075    -7.139173    20.668407  0.028235529  0.034818822            1 
   62000     1.258554   -7.1690235     21.08887  0.028345255  0.034819285            1 
   63000    1.2376449   -7.1803478    21.560486  0.028519161  0.034816429            2 
   64000    1.2386447   -7.1495491    22.020936  0.028673094  0.034834085            1 
   65000    1.2334499   -7.1469474    22.557132  0.028919399  0.034877487            1 
   66000    1.2450061   -7.1398984    23.085414   0.02914825  0.034931113            1 
   67000    1.2388821   -7.1686324    23.341042  0.029031146  0.034970642            3 
   68000     1.259473   -7.1886198    23.717558  0.029065635  0.034985115            1 
   69000    1.2510336   -7.0799092     24.37127  0.029433901  0.035014224            2 
   70000    1.2402764   -7.1690678    24.606166  0.029293054  0.035036188            2 
   71000    1.2663843   -7.1492235    24.909295  0.029236261  0.035053717            2 
   72000    1.2388129   -7.1629631    25.454211  0.029460893   0.03506009            2 
   73000     1.256966   -7.1540198    25.828107  0.029484141  0.035068912            1 
   74000     1.219511    -7.154948    26.284059  0.029599166   0.03507399            1 
   75000    1.2569133   -7.1641872    26.707643  0.029675159  0.035087135            2 
   76000    1.2280482   -7.1402114    27.249325  0.029878646  0.035100789            2 
   77000    1.2449757   -7.1436809    27.619405   0.02989113   0.03510867            3 
   78000    1.2289518   -7.1461638    28.026976   0.02994335  0.035120383            2 
   79000    1.2263525   -7.1469045    28.405687  0.029963805  0.035127984            3 
   80000    1.2501944   -7.1342946    28.584714  0.029775743  0.035118647            1 
   81000    1.2367888   -7.1316946    28.998018  0.029833352   0.03509303            1 
   82000    1.2576926   -7.1278497    29.362057  0.029839488  0.035072935            2 
   83000    1.2561522   -7.1705688     29.66733  0.029786476  0.035047396            1 
   84000    1.2288181   -7.1578828    30.117237  0.029878211  0.035021709            2 
   85000    1.1939805   -7.1461326    30.703384  0.030101356  0.035005882            3 
   86000     1.237735   -7.1185237    31.067543  0.030104208  0.034995729            2 
   87000     1.238839   -7.1055167    31.597573  0.030265874  0.034986136            1 
   88000    1.2456928   -7.1275938    32.023065  0.030324872  0.034976739            1 
   89000    1.2436972   -7.1506214    32.360043  0.030299665  0.034966152            1 
   90000    1.2429012   -7.1548923    32.921949  0.030483286  0.034965918            4 
   91000    1.2366833   -7.1508747    33.425628  0.030609549  0.034970401            2 
   92000    1.2398441   -7.1390643     33.76381  0.030583161  0.034972773            3 
   93000    1.2387862   -7.1544215    34.320504  0.030753139  0.034980315            5 
   94000     1.226623   -7.1272114    34.703384  0.030765412  0.034987596            1 
   95000    1.2406536    -7.140773    35.169866  0.030850759  0.034997957            2 
   96000    1.2244738   -7.1467415    35.618302  0.030918665  0.035006571            2 
   97000    1.2475185   -7.1793304    36.005524  0.030932581  0.035019909            2 
   98000    1.2422328   -7.1328718    36.245603  0.030821091  0.035028952            2 
   99000    1.2459197   -7.1545177    36.921667  0.031078844  0.035039092            3 
  100000    1.2161237   -7.1626427    37.396023  0.031163352  0.035055486            1 
  101000    1.2438925   -7.1473101    37.673723   0.03108393  0.035070388            2 
  102000    1.2631769   -7.1826233    38.142013  0.031161775   0.03508124            3 
  103000    1.2357963   -7.1646366    38.607557  0.031235887  0.035090866            2 
  104000    1.2434645    -7.146241    39.026915  0.031271566  0.035098745            4 
  105000     1.216719   -7.1659749    39.333079  0.031216729  0.035105446            2 
  106000    1.2498576   -7.1727869    39.684592  0.031198579  0.035104151            1 
  107000    1.2149272   -7.1141699    40.312421  0.031395966  0.035105687            2 
  108000    1.2638597   -7.1182669    40.710562   0.03141247  0.035110288            1 
  109000    1.2329439   -7.2065729    40.827429   0.03121363  0.035113213            2 
  110000    1.2606004   -7.1525444    41.478828  0.031423354  0.035112077            1 
  111000    1.2521752   -7.1606515    41.914995  0.031467714  0.035115875            1 
  112000    1.2291069    -7.211181      42.2677  0.031449182  0.035125848            3 
  113000    1.2156906   -7.1761863    42.875603  0.031619176  0.035135573            1 
  114000    1.2530604   -7.1681276    43.260385  0.031623088   0.03514333            2 
  115000    1.2399894   -7.1704305    43.564816  0.031568707  0.035143115            2 
  116000    1.2211881   -7.2158655    43.986803  0.031599714  0.035144743            2 
  117000    1.2078957   -7.1331254    44.501426  0.031696173  0.035145349            2 
  118000     1.217825   -7.1671728    44.814032  0.031648328  0.035146112            1 
  119000    1.2398563   -7.1971613    45.281549  0.031709768  0.035147304            2 
  120000    1.2464983   -7.1788789    45.652493   0.03170312  0.035150983            1 
  121000    1.2398514   -7.1525758    46.103807  0.031751933  0.035150125            1 
  122000    1.2199472   -7.1785765    46.548868  0.031795675  0.035149715            1 
  123000    1.2302127   -7.1785214    46.969641   0.03182225  0.035152081            1 
  124000    1.2557648    -7.173372    47.640162  0.032016238   0.03515812            1 
  125000    1.2226825    -7.180924    47.707604  0.031805069  0.035160172            2 
  126000    1.2429099   -7.1930776    48.343354  0.031973117   0.03516201            9 
  127000    1.2452631   -7.2175181    48.454036  0.031793987  0.035163671            1 
  128000    1.2191643     -7.21729    48.878855  0.031822171  0.035164422            1 
  129000    1.2369919   -7.2080686    49.263475   0.03182395  0.035157636            2 
  130000    1.2356973   -7.1695446    49.782332  0.031911751  0.035154464            1 
  131000    1.2417426   -7.1490319    50.148673  0.031901191  0.035149177            2 
  132000    1.2077107    -7.161752    50.475741  0.031865998  0.035144692            3 
  133000     1.229587   -7.1804586    50.978415  0.031941363   0.03513616            3 
  134000    1.2399137   -7.1783903    51.060871  0.031754273  0.035125718            1 
  135000     1.221717   -7.2176963    51.420083  0.031740792  0.035108886            2 
  136000    1.2260271   -7.1802798    51.802781    0.0317419  0.035091566            1 
  137000    1.2152901    -7.196944    52.166755  0.031731603  0.035072496            1 
  138000    1.2531314    -7.170199    52.468619  0.031683948  0.035052339            1 
  139000    1.2613421   -7.1882421    52.876467   0.03170052  0.035028169            1 
  140000    1.2560333   -7.1698144    52.920655   0.03150039  0.035002777            1 
  141000    1.2374315   -7.1724253     53.57472  0.031663546  0.034978167            1 
  142000    1.2399075   -7.1304537    54.009557  0.031695749  0.034954477            2 
  143000    1.2493857   -7.1527661     54.15811   0.03156067  0.034928405            3 
  144000    1.2005286   -7.1594867    54.643268  0.031622262  0.034902029            2 
  145000    1.2310457   -7.1772507    55.175376  0.031709986  0.034878457            3 
  146000    1.2146299   -7.1765527     55.39454  0.031617888  0.034858052            1 
  147000    1.2434919   -7.1644338    55.977176  0.031733093  0.034836821            3 
  148000    1.2283749   -7.1473906    56.597198  0.031867792  0.034819937            3 
  149000    1.2286927    -7.196533    56.758518  0.031744138  0.034802618            2 
  150000    1.2577877   -7.1770566    57.301355  0.031834086  0.034785667            1 
  151000    1.2418906   -7.1788665     57.77741  0.031885988   0.03477089            2 
  152000    1.2376702    -7.174493    57.902616  0.031744855  0.034754045            3 
  153000    1.2057873    -7.196221    58.138553  0.031665879  0.034733781            1 
  154000    1.1943036   -7.1694949    58.623477   0.03172266  0.034713139            2 
  155000    1.2614757   -7.2226813    58.951868  0.031694553  0.034693302            2 
  156000    1.2150122   -7.1651963    59.373789  0.031716768  0.034677223            2 
  157000    1.1949114   -7.1988088    59.984048  0.031838667  0.034660754            1 
  158000    1.2317558   -7.1834969    60.435272  0.031875143  0.034647796            2 
  159000    1.2271886   -7.1776964    60.873413  0.031904305   0.03463361            3 
  160000     1.201183   -7.1404098    61.314489   0.03193463  0.034619796            4 
  161000    1.2342521   -7.1667194     61.58493  0.031876258  0.034603952            1 
  162000    1.2297145   -7.2260576    61.761776  0.031770461  0.034585792            3 
  163000    1.2271654   -7.1624794     62.27994   0.03184046  0.034568351            2 
  164000    1.2225845   -7.1546327    62.792081  0.031906545  0.034550266            3 
  165000    1.2383387   -7.1140801    63.577584  0.032109891  0.034538366            3 
  166000    1.2062937   -7.2268221    63.613616  0.031934546  0.034526652            2 
  167000    1.2180559   -7.1733127    64.048909  0.031960534  0.034514533            1 
  168000    1.2108576   -7.1818763    64.381623  0.031935329  0.034500043            2 
  169000    1.2447522   -7.2269154    64.864086  0.031984263  0.034485069            4 
  170000    1.2241662   -7.1800475    65.343781  0.032031265  0.034468884            2 
  171000    1.2458644   -7.1875631    65.432886  0.031887371   0.03445343            1 
  172000    1.2420124   -7.1678837    65.832027  0.031895362   0.03443639            1 
  173000    1.2315863   -7.1857084    65.777458   0.03168471  0.034416722            1 
  174000    1.2269598   -7.1490057     66.53033  0.031863185  0.034395955            3 
  175000     1.233656   -7.1657384    66.945802  0.031878953  0.034377492            1 
  176000    1.2305389   -7.1608273    67.364671  0.031896151   0.03435821            1 
  177000    1.1926259    -7.178656    67.098346  0.031590558  0.034336404            3 
  178000    1.1904726   -7.1927724    67.641121  0.031667192  0.034312679            3 
  179000    1.2200179     -7.17484    67.962067  0.031639696   0.03428948            2 
  180000    1.2062856   -7.2089344    68.546937  0.031734693   0.03426871            2 
  181000    1.1978968   -7.1838665    68.861524  0.031704201  0.034245661            3 
  182000    1.2105025   -7.1836883    69.455817  0.031802114  0.034225038            1 
  183000    1.2340672    -7.205427    69.628374   0.03170691  0.034205307            2 
  184000    1.2180314   -7.1724606    70.076123  0.031737374  0.034186578            3 
  185000    1.2023376   -7.1982181    70.434836  0.031727403  0.034168659            2 
  186000    1.2248169   -7.1677393    71.247248   0.03192081  0.034152538            1 
  187000    1.2025244   -7.1910843     71.56743  0.031892794   0.03413857            2 
  188000    1.2208207    -7.179091    71.786239  0.031820141  0.034125168            3 
  189000     1.204955   -7.1540487    72.086933  0.031784362  0.034106373            1 
  190000    1.1997202   -7.1920533    72.272217  0.031698341  0.034087947            1 
  191000    1.2050113    -7.150398       72.685  0.031712478  0.034068081            2 
  192000    1.2157625   -7.2002767     73.15058  0.031749384  0.034047959            1 
  193000    1.2140525   -7.2045062    73.281878  0.031641571  0.034028045            1 
  194000    1.1968493   -7.2298999    73.583635  0.031608091  0.034007087            2 
  195000    1.2317044   -7.1657686    74.047387  0.031644182  0.033984655            2 
  196000    1.2156945   -7.1979123    74.290086  0.031585921  0.033962122            2 
  197000    1.2130546    -7.231512    74.239498  0.031404187  0.033938568            1 
  198000    1.2075608   -7.1708369    74.664391  0.031424407  0.033913195            4 
  199000    1.2074494   -7.2017819    75.448241  0.031594741  0.033888316            2 
  200000    1.2016882   -7.1613129    75.406217  0.031419257  0.033863191            1 
  201000    1.1879879    -7.170081    75.920622  0.031476212  0.033838687            1 
  202000    1.2148574   -7.1651861    76.092713  0.031391383  0.033815093            2 
  203000    1.2219081   -7.2106443     76.48251  0.031396761  0.033789094            2 
  204000    1.2154216   -7.2034942    77.029445  0.031466276  0.033765308            1 
  205000    1.2061703   -7.1730566    77.386818  0.031458056  0.033740823            2 
  206000    1.2138221    -7.222279    77.363415   0.03129588  0.033715664            2 
  207000    1.2361418    -7.210609    77.935721  0.031375089  0.033691726            1 
  208000    1.2244071    -7.218998    78.268124  0.031357421   0.03366758            2 
  209000    1.2324316   -7.1957516    78.977138  0.031490087  0.033644795            2 
  210000    1.2276115   -7.1607129    79.326195  0.031478649  0.033623831            2 
  211000    1.2288059   -7.2423911    79.408246  0.031361866  0.033600351            5 
  212000     1.226719   -7.2165346    79.640911  0.031305389  0.033575633            1 
  213000    1.2256263   -7.2418952    79.936983   0.03127425  0.033549925            2 
  214000    1.2302031   -7.1869594    80.629763  0.031397883  0.033525586       -1e+20 
  215000    1.2156705   -7.2087211     81.08398  0.031427899  0.033503839            1 
  216000    1.2074556   -7.2558488    81.287647  0.031360975  0.033481946            1 
  217000    1.1986445   -7.2138266      81.9386  0.031466436  0.033461985            1 
  218000     1.185203   -7.1940357    82.298804  0.031459787  0.033442617            1 
  219000    1.2089845   -7.2054261    82.262832  0.031302447  0.033422259            1 
  220000    1.2031396   -7.2065701    82.636754  0.031301801  0.033400452            2 
  221000    1.2152122   -7.2390602     82.64771  0.031164295  0.033377283            1 
  222000    1.2323974   -7.2352836    83.520473  0.031351529  0.033355295            4 
  223000    1.1965349    -7.175803     83.96995  0.031378905  0.033334502            1 
  224000     1.238674   -7.1700067    84.354973  0.031382058  0.033312559       -1e+20 
  225000    1.2306019   -7.2006824    84.560979  0.031318881  0.033291794            1 
  226000    1.2266517   -7.2326294    84.569608  0.031183484  0.033270201            1 
  227000    1.2097308   -7.2244016    85.222276  0.031285711  0.033248696            1 
  228000    1.2009461   -7.2197309    85.548913  0.031267878  0.033227942            1 
  229000    1.1828252   -7.2243062    86.080178  0.031324664  0.033207447            1 
  230000    1.2466268   -7.2773953    85.727485  0.031060683  0.033185133            1 
  231000    1.2263082   -7.1617114    86.646001  0.031257576  0.033161464            2 
  232000    1.2236894   -7.1866225    86.856748  0.031198544  0.033139872            1 
  233000    1.2409027   -7.2249581    86.814295  0.031049462  0.033117045            2 
  234000      1.22723   -7.1945528    87.522441  0.031168961  0.033095224            2 
  235000    1.2184802   -7.2083166    87.852129  0.031153237   0.03307422            3 
  236000    1.1865868   -7.2239072    88.351119  0.031197429  0.033051243            1 
  237000    1.2278101   -7.2408333     87.98037  0.030935433  0.033027228            1 
  238000    1.2089345   -7.2380845    88.684452  0.031051979  0.033004683            1 
  239000    1.1886402   -7.1821646    88.886611  0.030992542  0.032982701            3 
  240000    1.2103975    -7.204423    89.417607   0.03104778  0.032959717            2 
  241000    1.2199067   -7.2061231    89.657826  0.031002014  0.032937406            1 
  242000    1.1821896   -7.1992583    89.727026  0.030897736   0.03291294            2 
  243000    1.2289049   -7.2104212    90.413626  0.031006045  0.032888627            2 
  244000    1.2076335    -7.206412    90.607235  0.030945094  0.032863888            2 
  245000    1.2328632   -7.1857265    90.908685  0.030921321  0.032840804            1 
  246000    1.2097434   -7.2445882    91.304263  0.030929628  0.032817888            2 
  247000    1.1947849   -7.1831743    91.811758  0.030975627  0.032796634            1 
  248000     1.208902   -7.2222999    92.065558  0.030936007  0.032775947            2 
  249000    1.2100448    -7.203674    92.378965  0.030916655  0.032755027            1 
  250000    1.1980104   -7.2177628    93.018005  0.031006002  0.032733873            3 
  251000    1.1992888   -7.1960558    93.751603   0.03112603  0.032715071            3 
  252000     1.212676   -7.1726053    94.055658  0.031103061  0.032697986            1 
  253000    1.2067422   -7.2054556    94.226196  0.031036297  0.032679274            1 
  254000    1.2150621   -7.2202275    94.709158  0.031072558  0.032660388            2 
  255000      1.20597   -7.1639644    95.298904  0.031143433  0.032642341            1 
  256000    1.2033638   -7.2163366      95.6289  0.031129199  0.032626694            1 
  257000      1.21868   -7.2343306    95.917144  0.031101538  0.032612372            1 
  258000    1.2025317   -7.2343077    96.175792  0.031064532  0.032596235            2 
  259000    1.2133009   -7.2607247    96.311143  0.030988141  0.032578766            2 
  260000    1.2052045   -7.1979211    96.668026  0.030983342  0.032561006            1 
  261000    1.1888721   -7.2257957    96.948919  0.030954316  0.032542213            1 
  262000    1.2219501   -7.2128922    97.310781  0.030951266  0.032523826            2 
  263000    1.2337361   -7.2608806    97.497211  0.030892652  0.032505498            1 
  264000    1.1867061    -7.246127    97.999393  0.030934152   0.03248676            3 
  265000    1.1882609   -7.2549184    98.452172  0.030959802  0.032469474            1 
  266000    1.2019592   -7.2217495     98.85163  0.030968556  0.032452509            1 
  267000    1.2021609   -7.2456277    99.363327  0.031012274   0.03243649            1 
  268000    1.2264168   -7.2121736    99.947077  0.031078071    0.0324217            1 
  269000     1.177651   -7.1687007    100.34542  0.031085941  0.032406849            1 
  270000    1.2231281   -7.2292841    100.48166  0.031012857  0.032393085            1 
  271000    1.2074164   -7.2157816    100.90248  0.031027823  0.032378773            1 
  272000    1.2023316   -7.1860059    101.44485  0.031079917    0.0323653            2 
  273000    1.2322976   -7.1887682    102.26573  0.031216645  0.032353106            1 
  274000    1.1813246   -7.2341958    102.17564  0.031075318  0.032341234            3 
  275000    1.2130238   -7.2073011    103.11424  0.031246738  0.032329045            2 
  276000    1.1984791   -7.2230546    103.37747  0.031213004   0.03231965            2 
  277000    1.2167033   -7.2204442    103.51032  0.031140288  0.032309404            1 
  278000    1.2125066   -7.2126982      103.832  0.031124702  0.032299892            1 
  279000    1.2057061   -7.2433263    104.53121  0.031221985  0.032289675            3 
  280000    1.2126896   -7.2069222    104.96272  0.031238906  0.032281053            2 
  281000    1.2309769   -7.2027213    105.17047  0.031189343   0.03227222            1 
  282000    1.1913328   -7.2633515    105.05428  0.031044409  0.032262549            1 
  283000    1.2057801    -7.210671    105.69894   0.03112454  0.032252177            1 
  284000    1.1981988   -7.1970386    105.92562  0.031081461  0.032241325            1 
  285000    1.1902926   -7.2205138    106.40909  0.031113768  0.032229492            2 
  286000    1.2247022   -7.1821423     106.7316   0.03109895  0.032218803            1 
  287000    1.2038981   -7.2439714    106.43818  0.030905395  0.032206875            2 
  288000    1.1925833   -7.2209578    107.29399  0.031045714  0.032193923            1 
  289000    1.2048025   -7.2287235    107.63593  0.031036888  0.032180963            1 
  290000    1.1886797   -7.1978656    107.85156  0.030991827   0.03216799            1 
  291000    1.1927429   -7.2100466    108.08254  0.030951471  0.032155486            1 
  292000    1.1935942   -7.2285295    108.79261   0.03104812  0.032144149            1 
  293000    1.1910874   -7.2398283    109.00251  0.031001851   0.03213309            2 
  294000    1.2199457   -7.2272606    109.36024    0.0309978  0.032121811            2 
  295000    1.2083339   -7.2052581    109.89996  0.031045187  0.032110514            2 
  296000    1.1907918   -7.2106429    110.56038  0.031126234  0.032100245            2 
  297000    1.2148284   -7.2482992    110.76983    0.0310802  0.032090163            1 
  298000    1.1977096   -7.1549408    111.52571   0.03118728  0.032082234            1 
  299000    1.2034965   -7.2292533    111.65348  0.031118584    0.0320732            2 
  300000    1.2208791   -7.1690662    112.19688    0.0311658   0.03206492            4 
  301000    1.2054613   -7.1951037    112.37798  0.031112398  0.032056301            1 
  302000    1.1921217   -7.2500586    112.68737  0.031094749  0.032047018            1 
  303000    1.2327521   -7.2193332    112.79859  0.031022713  0.032038243            1 
  304000    1.1998961   -7.2150665    113.20499  0.031032068  0.032028922            3 
  305000    1.1842097   -7.2265652    113.95549  0.031135379  0.032019763            2 
  306000    1.2047641   -7.2164006    114.32156  0.031133322  0.032012443            2 
  307000    1.2018745    -7.202375    114.36587   0.03104394  0.032003847            1 
  308000    1.2051425   -7.2450937      114.759  0.031049513  0.031994829            2 
  309000    1.2092806   -7.2426554    114.83733  0.030970153  0.031985923            1 
  310000    1.2014932   -7.2147654    115.43084  0.031029795  0.031976331            1 
  311000    1.1953907   -7.2257588    116.35359  0.031177276  0.031968277            2 
  312000    1.2227411   -7.2642225    116.19971  0.031036247  0.031960907            2 
  313000    1.1713394   -7.2975876    116.71403  0.031074024  0.031952815            2 
  314000    1.2207986   -7.2337704    117.34256  0.031141869  0.031945423            1 
  315000    1.1977833   -7.2244043    117.62515  0.031117764  0.031938111            1 
  316000    1.2158207   -7.2281444    117.85445   0.03107976  0.031930727            1 
  317000    1.2204269    -7.244134    118.23083  0.031080659   0.03192381            2 
  318000    1.1996557     -7.24232    118.55285  0.031067308  0.031916863            2 
  319000    1.2129537   -7.2833886      118.455  0.030944357  0.031909828            3 
  320000    1.2455678   -7.1985593    119.61331  0.031149299  0.031901905            3 
  321000    1.2144176   -7.2384853    119.76663  0.031092065    0.0318932            3 
  322000    1.1829363   -7.2271882    119.47598  0.030920286  0.031884707            1 
  323000    1.1857694   -7.2079651     120.4824  0.031084211   0.03187742            1 
  324000    1.2054642   -7.2363702     120.3764  0.030961008  0.031869541            5 
  325000    1.2265215   -7.2526968    120.98498  0.031021789  0.031861353            1 
  326000    1.2172862   -7.2313952        121.7  0.031109407  0.031853805            3 
  327000    1.1787433   -7.2333397    121.53133  0.030971287  0.031846427            2 
  328000    1.2167757   -7.2175087    122.05114  0.031008928  0.031838092            1 
  329000    1.1900902   -7.1987137    122.62278  0.031059469  0.031830161            2 
  330000    1.1710398   -7.2288843    123.22085  0.031116377  0.031823381            2 
  331000    1.1803689   -7.2079994    123.37756  0.031061824   0.03181784            1 
  332000     1.201559    -7.196114    124.01062  0.031127163  0.031811866            1 
  333000    1.2228041   -7.2590605    123.74778  0.030967912  0.031805591            2 
  334000    1.2155012   -7.2482211    124.27161  0.031005891  0.031798105            2 
  335000    1.2025458   -7.2424191    124.36959  0.030937708  0.031789828            2 
  336000    1.1886807    -7.248192    124.38681  0.030849904  0.031781193            2 
  337000    1.1892084   -7.2174969    124.92651  0.030891819  0.031771855            2 
  338000    1.2036915   -7.2269544    124.82853  0.030776264  0.031762917            1 
  339000     1.229455   -7.2524582     125.6328  0.030883186  0.031752589            3 
  340000    1.1979231   -7.2472651    125.73524  0.030817461  0.031742298            2 
  341000    1.2067906   -7.2014143    126.52554   0.03092022  0.031733172            2 
  342000    1.2081559   -7.2643826    126.67764  0.030866871  0.031724563            2 
  343000    1.1835988   -7.2501843    127.26008  0.030918387  0.031716124            2 
  344000    1.1813924   -7.2664943     127.2882  0.030835319  0.031707312            3 
  345000    1.2005792   -7.2207471    127.86341  0.030884881  0.031699013            1 
  346000    1.2051991   -7.2432553    128.37148  0.030917987  0.031691411            1 
  347000    1.1829722   -7.2230002    128.70355  0.030908633  0.031683187            3 
  348000    1.2076941   -7.2620475     129.2108  0.030941284  0.031675557            2 
  349000    1.2166277   -7.2564935    129.30523  0.030875175  0.031668255            3 
  350000      1.20283   -7.2487047    129.93995  0.030938082  0.031661798            1 
  351000     1.197957   -7.2571665    130.43957   0.03096856  0.031655487            2 
  352000     1.187089   -7.2040104    131.29715  0.031083606  0.031650012            1 
  353000    1.1899766   -7.2576504      131.159  0.030962936   0.03164484            1 
  354000     1.194736   -7.2468171    132.00579  0.031074809  0.031638941            1 
  355000    1.1933025   -7.1741958     132.8231  0.031179132  0.031633986            2 
  356000    1.2097902   -7.2677786    132.40925  0.030994674  0.031630021            3 
  357000    1.1693591    -7.262835    133.28457  0.031112177  0.031625812            1 
  358000     1.201395   -7.2503526     133.7621  0.031136429  0.031622208            1 
  359000    1.1970274   -7.2683322    133.60907  0.031014176  0.031617399            1 
  360000    1.1839882   -7.2333085    134.10233  0.031042206  0.031612563            2 
  361000    1.1953782   -7.2917836    134.06541  0.030947693  0.031607808            2 
  362000    1.1939124   -7.2767298    134.74235  0.031018037  0.031602917            3 
  363000    1.1655141   -7.2601093    134.52429  0.030882528  0.031598087            3 
  364000    1.1854704    -7.261561    135.20386  0.030953264  0.031593168            1 
  365000    1.2123568   -7.2588812    135.49922  0.030935894  0.031588292            1 
  366000    1.1946409    -7.277331    135.22987  0.030790043  0.031582479            2 
  367000    1.1713442   -7.2741607    135.97409  0.030875134  0.031576111            3 
  368000    1.1735678   -7.2769968    136.67454  0.030949851  0.031570525            2 
  369000     1.173864   -7.2847323    136.59549  0.030848124  0.031565296            7 
  370000    1.1604729   -7.2296275    137.70997  0.031015758  0.031559775            2 
  371000     1.194719   -7.2511916     138.2355  0.031050203  0.031555897            1 
  372000    1.1891909   -7.2282202    138.88122  0.031111383  0.031552582            2 
  373000    1.1864506   -7.2552908    139.42424  0.031149293   0.03154991            1 
  374000     1.197856   -7.2476562    139.25973  0.031029352  0.031547259            1 
  375000    1.1720806   -7.2459866     139.4604  0.030991201  0.031543361            1 
  376000    1.2084288   -7.2553803    140.03263    0.0310356  0.031539198            2 
  377000    1.2109619   -7.2451893     140.3176  0.031016268  0.031534867            2 
  378000     1.224233   -7.2708225    140.24203  0.030917555  0.031530721            1 
  379000    1.1969519   -7.2773627    140.36451  0.030862908  0.031527095            1 
  380000     1.193355   -7.3023477    141.66014   0.03106582  0.031523522            1 
  381000    1.1990921   -7.2285207    141.89677  0.031036038  0.031519913            2 
  382000     1.211661   -7.2395219    141.99661  0.030976573  0.031515646            2 
  383000    1.2120674   -7.2833543    142.28715  0.030958909  0.031511015            1 
  384000    1.1818264   -7.2220105    142.97954  0.031028547  0.031506315            1 
  385000     1.201188   -7.2564228    143.31925  0.031021483  0.031501796            2 
  386000    1.1916187   -7.2859191    143.66332  0.031015397  0.031498156            1 
  387000    1.2120968   -7.2529177    143.41048  0.030880809  0.031493269            1 
  388000    1.1964482    -7.273188     143.8992  0.030906185   0.03148762            1 
  389000    1.1855399    -7.246807    144.24565  0.030900954  0.031483442            1 
  390000    1.1939667   -7.2463293    144.89941  0.030961411  0.031478327            1 
  391000    1.1530152   -7.2907321    144.89392  0.030881058  0.031472647            2 
  392000    1.1922358   -7.2650165    144.72917  0.030767256  0.031467107            2 
  393000    1.1774409   -7.2320814    145.88584  0.030934233  0.031461189            1 
  394000     1.180544   -7.2627269    146.22858   0.03092821  0.031455882            1 
  395000    1.1844404   -7.2740189    146.39717  0.030885478  0.031450611            4 
  396000    1.1706639   -7.2747304    146.72911  0.030877339  0.031445455            2 
  397000    1.2084764    -7.289978    147.34006  0.030927805  0.031440939            1 
  398000    1.1545913   -7.2493389    147.30303  0.030842343  0.031436066            1 
  399000    1.1790861   -7.2874376     148.3032  0.030973934    0.0314314            1 
  400000    1.1885182   -7.3032041    148.53555  0.030944905  0.031427697            4 
  401000    1.1942975   -7.2326791     148.8072   0.03092419  0.031423829            1 
  402000    1.1648447   -7.2643381    149.25666  0.030940435  0.031419562            2 
  403000    1.1804887   -7.2580293    149.42122  0.030897689  0.031414674            4 
  404000    1.1718942   -7.2810444    148.96494  0.030727092   0.03140909            3 
  405000    1.2015408   -7.2310749    150.10926  0.030886678  0.031404119            2 
  406000    1.1985886   -7.2539436    149.49129  0.030683762  0.031397339            2 
  407000    1.1923707   -7.2447114    149.93255  0.030698719  0.031390039            2 
  408000     1.189125   -7.2598117    150.53256  0.030746029   0.03138308            1 
  409000    1.2062761    -7.269407     150.7177  0.030708577  0.031375037            2 
  410000    1.1921114   -7.2252795    150.69202  0.030628459  0.031366968            1 
  411000     1.184093   -7.3092712    151.57337  0.030732638   0.03135955            3 
  412000    1.1976299   -7.2649929    151.33598  0.030610028   0.03135276            1 
  413000    1.1842748   -7.2783893    151.52958  0.030574976  0.031345223            3 
  414000    1.1808129   -7.3114254    151.64443  0.030524241  0.031337285            2 
  415000    1.1739058   -7.2533248    152.47041  0.030616549  0.031328969            3 
  416000    1.1823119   -7.2558786     152.4468  0.030538221  0.031320355            1 
  417000    1.1703529   -7.2717038    152.61085  0.030497772  0.031311938            2 
  418000    1.1858668   -7.3095487    153.37082  0.030576319  0.031304775            2 
  419000    1.1676452   -7.2813178    154.02371  0.030633196  0.031296995            2 
  420000    1.1489169   -7.2907034    153.98029  0.030551645  0.031288204            2 
  421000    1.1671425   -7.2728501    154.09609  0.030501997   0.03127955            1 
  422000    1.1730118   -7.2977526    154.13819  0.030438031  0.031270323            3 
  423000    1.1628979   -7.3054056     153.7007  0.030279885  0.031261251            2 
  424000    1.1689757   -7.2677176    154.57396  0.030380103  0.031251008            1 
  425000    1.1799064   -7.2950662    155.29923  0.030450829  0.031240995            2 
  426000     1.162689   -7.3054723    155.23227   0.03036625  0.031231263            3 
  427000    1.1840964   -7.2688333    156.45034  0.030532853  0.031221851            1 
  428000    1.1521899   -7.3070428    156.23829  0.030420228  0.031213054            1 
  429000    1.1832537   -7.3131261    156.89866  0.030477596  0.031203522            1 
  430000    1.1846002   -7.2901377     157.0967  0.030445097  0.031194408            1 
  431000    1.1782241   -7.2504154    157.93615  0.030536766  0.031186357            2 
  432000    1.1698983   -7.2680093    158.16944  0.030511081   0.03117878            1 
  433000    1.2038974   -7.2812627    158.28029  0.030461949  0.031170758            2 
  434000    1.1733768   -7.3071057    158.91511  0.030513655  0.031162602            2 
  435000    1.1761135   -7.2299779    160.51057  0.030749152  0.031155931            3 
  436000     1.184165   -7.2983841    159.53458  0.030492083  0.031148985            4 
  437000    1.1799257   -7.2751045    160.22923  0.030554774  0.031142137            2 
  438000     1.196915   -7.2812671    160.19533  0.030478563  0.031134334            2 
  439000     1.179639   -7.3042673    160.47735  0.030462671  0.031126722            2 
  440000    1.1843242   -7.3039345    160.31868  0.030363385  0.031118909            2 
  441000    1.1600855   -7.3069593    161.00423  0.030424079  0.031110242            6 
  442000     1.171218   -7.2660048    161.63301  0.030473795  0.031101837            2 
  443000    1.1890015   -7.3324893    161.87798  0.030451087  0.031093399            2 
  444000    1.1822428   -7.2693481    162.53634   0.03050607  0.031084871            1 
  445000    1.1736849   -7.2984682    161.64562  0.030270716  0.031076198            2 
  446000    1.2149813   -7.2755687    162.96862  0.030450042  0.031067936            3 
  447000    1.1722905   -7.2398668    163.68703  0.030515852  0.031060234            1 
  448000    1.1943246   -7.3050524    163.21343  0.030359642  0.031052369            2 
  449000    1.1900072   -7.2881506    163.91497   0.03042223  0.031044323            1 
  450000    1.2089289   -7.3121731    163.89408  0.030350755  0.031036284            2 
  451000    1.1899235   -7.2444438    164.68573  0.030429736  0.031028715            1 
  452000    1.1722215   -7.2685237    165.20606  0.030458345  0.031021637            3 
  453000    1.1678215   -7.2917011    165.31939  0.030411956  0.031013814            1 
  454000    1.1752652   -7.2483852    166.14781  0.030497029  0.031006043            2 
  455000    1.1815817    -7.259047    166.40332  0.030476798   0.03099847            3 
  456000    1.1726524   -7.2553925    166.20384  0.030373509  0.030990444            2 
  457000    1.1986657   -7.2860237     166.1099  0.030289917  0.030981958            1 
  458000    1.2018129   -7.2869767    166.36641  0.030270453   0.03097336            6 
  459000    1.1882413   -7.2691158    166.57893  0.030243089  0.030964847            2 
  460000    1.1611948   -7.2940829    166.42196  0.030148907  0.030955506            3 
  461000     1.161723   -7.2806097     167.5548  0.030288286  0.030945576            2 
  462000    1.1929086   -7.3056643    168.17313  0.030334258  0.030936345            2 
  463000    1.1871309   -7.3481858    167.13161  0.030081284  0.030926892            2 
  464000    1.1438627   -7.3208012    168.41562  0.030247058  0.030917685            2 
  465000    1.1893489   -7.2984322    168.58711  0.030212744  0.030908539            1 
  466000    1.1683863   -7.2513513    168.91755  0.030207002  0.030899639            1 
  467000    1.1666603    -7.274352    169.25689   0.03020287  0.030889943            2 
  468000    1.1560326    -7.320244    169.11038  0.030112248  0.030880068            2 
  469000    1.1817936   -7.2949081    169.31703  0.030084759  0.030869981            1 
  470000    1.1703746    -7.331792    169.39125   0.03003391  0.030859734            2 
  471000    1.1597242   -7.3039791     170.2442  0.030121055  0.030850332            5 
  472000    1.1816545   -7.3144456    170.52846  0.030107425  0.030841359            1 
  473000    1.1903988   -7.3403743    171.15125  0.030153496  0.030833284            3 
  474000    1.1750565   -7.2731574     171.8201  0.030207472  0.030825431            1 
  475000    1.1449748   -7.2925593     172.0267  0.030180122  0.030817056            2 
  476000    1.1453788    -7.292737    172.33511  0.030170713  0.030808096            1 
  477000    1.1905962   -7.3323633    172.29175  0.030099886  0.030799473            1 
  478000    1.1716822   -7.3460376    172.02733  0.029990817  0.030790277            1 
  479000    1.2032698   -7.3335726    172.40727  0.029994306   0.03078005            3 
  480000    1.1714361   -7.2774415     172.9148  0.030019931  0.030769448            1 
  481000    1.1945625   -7.3078309    173.19349  0.030005803  0.030759543            2 
  482000    1.1541591   -7.2855983    172.83779  0.029882052   0.03074902            2 
  483000    1.2021996   -7.3280569    173.33893  0.029906648  0.030738291            2 
  484000    1.1645841   -7.3332724     174.0239  0.029962792  0.030727964            1 
  485000    1.1764536   -7.2976235    173.99778  0.029896526  0.030717692            2 
  486000    1.1625467   -7.3183839    175.04606  0.030014756  0.030707952            1 
  487000    1.1648178   -7.3290087    174.56147  0.029870204  0.030698064            1 
  488000    1.1586719   -7.3033131    175.58486  0.029983754   0.03068794            2 
  489000    1.1518502    -7.354855    175.42643  0.029895438  0.030677791            3 
  490000    1.1799302   -7.2890668     176.5192  0.030020272  0.030667976            2 
  491000    1.1442925   -7.3275575    176.50932  0.029957455  0.030657891            2 
  492000    1.1591604    -7.256065    176.91999  0.029966122  0.030647928            1 
  493000    1.1735998   -7.3443549    176.25745  0.029793348  0.030637964            3 
  494000    1.1849399   -7.3094106    177.37696  0.029921889  0.030628066            3 
  495000    1.1643317   -7.2864806    177.96712  0.029960794   0.03061826            3 
  496000     1.183746   -7.3356616    177.40568  0.029806061  0.030608693            1 
  497000    1.1854232    -7.315878    177.95506  0.029838205  0.030598848            2 
  498000    1.1384261   -7.3146894    178.88385   0.02993371  0.030589083            2 
  499000    1.1876104   -7.3128773    179.24808  0.029934549  0.030579729            1 
  500000    1.1619243   -7.3172362    179.33332  0.029888887  0.030570503            2 
  501000    1.1862784    -7.285659    180.11643  0.029959486  0.030561178            3 
  502000    1.1597703   -7.3453326    180.24936  0.029921873  0.030551801            1 
  503000    1.1648333   -7.2862071    180.93075  0.029975273  0.030542934            2 
  504000    1.1853775   -7.2976379     181.1921  0.029959012  0.030534262            2 
  505000    1.1839771   -7.3031639    181.20241  0.029901388  0.030525821            2 
  506000    1.1770565   -7.2718119    182.35817  0.030032636  0.030517682            1 
  507000    1.1810908   -7.3118097    182.52623  0.030001023  0.030509344            3 
  508000     1.156978   -7.2813057    182.45945  0.029931012  0.030501601            1 
  509000    1.1645888   -7.3329671    183.17466  0.029989302  0.030493868            1 
  510000    1.1646803   -7.3133417    183.48558  0.029981304  0.030486274            2 
  511000    1.1745826   -7.2550687    183.80705  0.029975057  0.030478861            1 
  512000    1.1705279   -7.3011907    183.99142   0.02994652  0.030471158            1 
  513000    1.1706194   -7.3135195    184.26916  0.029933262  0.030463169            1 
  514000    1.1733356   -7.3094555     185.2338   0.03003142  0.030456131            1 
  515000     1.187743   -7.3153013    185.43979  0.030006439  0.030449292            1 
  516000    1.1722796   -7.3189283    185.25046   0.02991771   0.03044193            2 
  517000    1.1673943   -7.2713803    185.74782   0.02994001   0.03043446            1 
  518000    1.1369871    -7.353106    185.57886  0.029855029  0.030426262            1 
  519000    1.1547158   -7.2813294    186.22971  0.029902008  0.030417937            1 
  520000    1.1698217   -7.2797237    186.51467  0.029890171  0.030409856            1 
  521000    1.1468648   -7.3468129    187.17336  0.029938157   0.03040153            1 
  522000    1.1513235   -7.3009554    187.29374  0.029900023   0.03039396            1 
  523000    1.1825731   -7.3456464    188.45396  0.030027718  0.030386656            2 
  524000    1.1534813   -7.3114949     187.7406  0.029856966  0.030378955            2 
  525000    1.1671458   -7.3181151    188.81455  0.029970564  0.030371948            2 
  526000    1.1763018   -7.2914371    189.25019  0.029982603  0.030365266            3 
  527000     1.178866   -7.2995838     189.5573  0.029974273  0.030358881            2 
  528000    1.1676715   -7.3544018    189.05663  0.029838483   0.03035266            4 
  529000    1.1720221     -7.35019    189.37351  0.029831996  0.030345672            1 
  530000    1.1647941   -7.3434966    190.11294  0.029891971  0.030338377            1 
  531000    1.1626087   -7.3439183     190.4653  0.029890977  0.030331418            3 
  532000    1.1713021   -7.2940818    191.38208  0.029978396  0.030325212            1 
  533000    1.1739477   -7.2814109    192.05617  0.030027543  0.030319355            1 
  534000    1.1746843   -7.3174037    191.76987  0.029926633  0.030313394            1 
  535000    1.1428896   -7.3911826    191.08734  0.029764383   0.03030647            2 
  536000    1.1645903   -7.2992578    192.67953  0.029956394  0.030299381            2 
  537000    1.1435614   -7.3201281    192.77697  0.029915731  0.030292103            3 
  538000    1.1760633   -7.3270352    192.36162   0.02979579  0.030285075            1 
  539000    1.1572729   -7.3293405    193.23085  0.029874899   0.03027824            1 
  540000    1.1665174   -7.3034527    193.85201  0.029915434  0.030271283            1 
  541000    1.1697551   -7.2586305    193.64917  0.029828893  0.030264687            4 
  542000     1.162155   -7.3172531    194.09715  0.029842735  0.030257836            1 
  543000    1.1788267   -7.3268031    194.47128  0.029845193  0.030250436            1 
  544000    1.1601516   -7.3269007      194.471  0.029790288  0.030243108            1 
  545000    1.1430828   -7.3691457     194.3246  0.029713242  0.030235566            2 
  546000    1.1716143   -7.3076289     195.2659  0.029802488  0.030227742            1 
  547000     1.168286   -7.3290567    194.88125  0.029689404  0.030220449            3 
  548000    1.1336024   -7.3203746    196.04706  0.029812509   0.03021291            5 
  549000    1.1495573   -7.3155191    196.33053  0.029801234   0.03020534            3 
  550000    1.2002595    -7.294287    196.66685  0.029798007  0.030197783            2 
  551000    1.1558245   -7.3404348    196.11258    0.0296601  0.030190216            1 
  552000     1.167463   -7.3103191    196.34279  0.029641122  0.030181927            1 
  553000    1.1592301   -7.3144692    197.23245  0.029721587  0.030174079            2 
  554000    1.1594811   -7.2977275    197.23684  0.029668598  0.030166127            1 
  555000    1.1558612   -7.3417631    197.43087  0.029644275  0.030158249            2 
  556000    1.1698138   -7.3108784     198.1055  0.029692071  0.030150393            1 
  557000    1.1718736   -7.3636684    197.91447  0.029610185  0.030142458            2 
  558000    1.1366319    -7.300839    198.80374  0.029689926  0.030134717            1 
  559000     1.188848   -7.3312541    198.53078  0.029596121   0.03012711            2 
  560000    1.1659091   -7.3175464    199.27935  0.029654665  0.030119445            2 
  561000     1.168457   -7.3301181    199.32877  0.029609146  0.030111719            3 
  562000     1.168217   -7.3374528     199.8084  0.029627581   0.03010439            1 
  563000    1.1581373   -7.3290329    200.87007    0.0297321   0.03009708            1 
  564000    1.1619235   -7.3372195    200.72798   0.02965839  0.030089268            6 
  565000    1.1665446   -7.3533797    200.33742  0.029548291  0.030081273            3 
  566000    1.1342459   -7.3098746    201.07216  0.029604264  0.030073572            3 
  567000    1.1710627   -7.3316764     201.1133  0.029558099  0.030066159            2 
  568000    1.1772634   -7.2875608    201.47155   0.02955862  0.030058339            1 
  569000    1.1707352   -7.3082527    202.96527  0.029725434  0.030050987            1 
  570000    1.1554252   -7.3112476    202.98797  0.029676603  0.030044044            1 
  571000    1.1658975   -7.3386743    203.96399  0.029767074  0.030037763            2 
  572000    1.1387803   -7.3554321    203.50481  0.029648137  0.030031529            1 
  573000    1.1625079   -7.3455185    204.23495  0.029702581  0.030024642            1 
  574000    1.1782182   -7.3543748    204.07302  0.029627325  0.030017215            1 
  575000    1.1629427   -7.3038022    204.50842  0.029638901  0.030009836            2 
  576000    1.1640057   -7.3457899    204.27149  0.029553166  0.030002278            1 
  577000    1.1763554   -7.3506878    204.76343  0.029572997  0.029995366            1 
  578000    1.1422432   -7.3183024    205.33405  0.029604102  0.029988345            3 
  579000    1.1491307   -7.3876943    205.26913  0.029543628  0.029980986            4 
  580000    1.1832106   -7.3447188    205.71731  0.029557085  0.029973646            1 
  581000    1.1642161   -7.3416649     206.2834  0.029587406  0.029966598            1 
  582000    1.1360325   -7.3434183    205.75413  0.029460786   0.02995908            2 
  583000    1.1551536   -7.3281524    206.71267  0.029547265  0.029951065            2 
  584000     1.165263     -7.35634     206.9581  0.029531692   0.02994314            1 
  585000    1.1647479   -7.3466916    207.21238  0.029517433  0.029935507            1 
  586000    1.1682545   -7.3676081    207.28581  0.029477504  0.029928047            4 
  587000    1.1564021   -7.3615299    207.49656  0.029457207  0.029920513            1 
  588000    1.1832526   -7.2956025    208.55629  0.029557297  0.029913693            1 
  589000    1.1172292   -7.3586567    208.65521  0.029521111  0.029906788            2 
  590000    1.1687731   -7.3092086    208.83783  0.029496869  0.029899025            1 
  591000    1.1431397   -7.3284312    209.15408  0.029491551  0.029891854            2 
  592000    1.1536534   -7.4039201    208.54147  0.029355499   0.02988392            1 
  593000     1.143747     -7.37602    209.00451  0.029371066  0.029875752            2 
  594000    1.1264102   -7.3692532    208.96635  0.029316267  0.029867682            2 
  595000    1.1655542   -7.3593737    209.87666  0.029394491  0.029859817            2 
  596000    1.1578251   -7.3271022    210.27957  0.029401506  0.029852196            1 
  597000    1.1390747   -7.3351437    210.56164   0.02939163  0.029844169            1 
  598000    1.1548033    -7.346458    210.59035  0.029346481  0.029836578            1 
  599000    1.1614882    -7.331915     211.3347  0.029401044  0.029828735            1 
  600000    1.1631733   -7.3450202    212.10747  0.029459371  0.029821435            1 
  601000    1.1644029   -7.3486995    212.17128  0.029419201  0.029814185            1 
  602000    1.1368655   -7.3453518    212.52965  0.029419941  0.029806709            5 
  603000    1.1576487   -7.3748335    212.89155  0.029421164  0.029799178            1 
  604000    1.1559906    -7.347137    213.37107  0.029438613   0.02979193            2 
  605000    1.1415277   -7.3683196    213.86608  0.029458138  0.029784979            3 
  606000    1.1429966   -7.3542297    213.40749  0.029346465  0.029777758            2 
  607000    1.1539384   -7.3532672     214.3485  0.029427306  0.029770595            2 
  608000    1.1428962   -7.3843403    213.43269  0.029253384  0.029762674            2 
  609000    1.1527722   -7.3454416    214.94489  0.029412273  0.029755099            1 
  610000    1.1471624   -7.3522456    214.84752  0.029350754  0.029748354            2 
  611000    1.1672123   -7.3510916    214.99977  0.029323481  0.029741349            2 
  612000    1.1298825   -7.3491839    216.89567  0.029533724   0.02973478            1 
  613000    1.1664886   -7.3244733    216.69756  0.029458613   0.02972834            3 
  614000    1.1330026   -7.3775835    216.93948  0.029443469  0.029722413            3 
  615000    1.1667032   -7.3850562    217.46929  0.029467384  0.029716411            2 
  616000    1.1542452   -7.3589542    217.63798  0.029442368  0.029710169            5 
  617000    1.1570761   -7.3737524    217.40458  0.029363125  0.029703424            3 
  618000    1.1387515   -7.3282177    218.35683  0.029444017  0.029696605            1 
  619000    1.1846796   -7.3886576    218.04026  0.029353831  0.029690021            3 
  620000    1.1741856   -7.3645421     219.2067  0.029463266  0.029683467            1 
  621000    1.1407877   -7.3474696    218.98188  0.029385653  0.029677673            3 
  622000    1.1721153   -7.3419212    220.35035  0.029521751  0.029671748            2 
  623000    1.1493221   -7.3403298    220.19062     0.029453  0.029666012            1 
  624000    1.1701946   -7.3729225    219.74399  0.029346153   0.02965977            3 
  625000    1.1566805   -7.3913511    219.78615   0.02930482  0.029653308            2 
  626000    1.1319388   -7.3919829    219.50456  0.029220521   0.02964626            6 
  627000    1.1454883    -7.369457    220.37006  0.029288949  0.029639314            1 
  628000    1.1545469   -7.3347656    221.10343  0.029339627  0.029632592            1 
  629000    1.1457717   -7.3622995     221.0903  0.029291242  0.029626608            2 
  630000    1.1465597   -7.3742695    221.43958   0.02929095  0.029620436            1 
  631000    1.1452206    -7.336377    221.78553  0.029290218  0.029614257            3 
  632000    1.1373605   -7.3884927    222.13574  0.029290051  0.029607825            4 
  633000     1.141507   -7.3775019    222.07791  0.029236165  0.029601246            1 
  634000    1.1290627   -7.3696856    222.36781  0.029228156  0.029594485            1 
  635000    1.1353199   -7.3684468    223.44912  0.029324032   0.02958776            2 
  636000    1.1486227   -7.3627842    223.81472  0.029325829  0.029581547            2 
  637000    1.1695307   -7.3468051    223.99945  0.029303958  0.029574845            2 
  638000    1.1404525   -7.3791597    223.70122  0.029219073  0.029567865            4 
  639000    1.1560749   -7.3042886    224.27994  0.029248818  0.029560548            1 
  640000    1.1337059   -7.3608638    224.38476  0.029216765  0.029553698            1 
  641000    1.1517078   -7.3705308    224.87982  0.029235546  0.029546806            3 
  642000    1.1042632   -7.3564429    223.87699  0.029059838   0.02953973            2 
  643000    1.1411689   -7.3488386    224.56195  0.029103415  0.029531953            1 
  644000    1.1493642    -7.371017    224.22929  0.029015177  0.029523973            1 
  645000    1.1510192    -7.352275    225.23979  0.029100749  0.029515844            1 
  646000    1.1664516   -7.3144839    225.24852  0.029056827  0.029507864            1 
  647000    1.1779888   -7.3483641     224.9564  0.028974292  0.029500039            3 
  648000    1.1549593   -7.3214231    225.81356   0.02903981  0.029492106            1 
  649000    1.1441674   -7.3795848    225.36166  0.028937039  0.029484079            3 
  650000    1.1586289    -7.373348    226.53183  0.029042543  0.029476202            1 
  651000    1.1254051   -7.3608684    227.25982  0.029091119  0.029468005            4 
  652000    1.1296718   -7.3447573     227.9241  0.029131403  0.029460111            3 
  653000    1.1583698   -7.3862374    227.69381  0.029057403  0.029452428            2 
  654000    1.1537004   -7.3697407    227.61321  0.029002703   0.02944444            2 
  655000    1.1583975   -7.3638742    227.74516  0.028975212  0.029436522            1 
  656000    1.1540682   -7.4157153    227.67553  0.028922197  0.029428303            2 
  657000    1.1647479   -7.4152261    228.03249  0.028923452  0.029420192            4 
  658000    1.1513106   -7.3609911    228.86775  0.028985277  0.029412276            1 
  659000    1.1666564   -7.4100855    229.59294  0.029032997   0.02940501            2 
  660000    1.1607782   -7.3517836    230.26765  0.029074198  0.029397873            1 
  661000    1.1312773   -7.3746708    230.45637  0.029054005  0.029390899            2 
  662000    1.1525082   -7.3517381    231.45145  0.029135379  0.029384075            1 
  663000    1.1469949   -7.3642347    231.60461  0.029110686    0.0293774            1 
  664000    1.1444755   -7.3844711     232.3105  0.029155435  0.029370601            4 
  665000    1.1698134   -7.3735925    232.69773  0.029160117  0.029363803            1 
  666000    1.1246565   -7.3602488    232.38545  0.029077258  0.029356743            1 
  667000    1.1353687   -7.3785937    232.95203  0.029104451  0.029349827            1 
  668000    1.1518271   -7.3441805     232.9596  0.029061826  0.029343032            1 
  669000    1.1522864   -7.4122837    233.00868    0.0290245  0.029335931            2 
  670000    1.1452449   -7.3667976    233.67656  0.029064249  0.029328957            2 
  671000    1.1675095   -7.3783447    233.47413  0.028995794  0.029322431            2 
  672000     1.136046   -7.4201412    233.65434  0.028974992  0.029315853            1 
  673000    1.1453827   -7.3729357    234.37964  0.029021749  0.029309369            1 
  674000    1.1378465   -7.3587675    234.85465  0.029037419  0.029302938            3 
  675000    1.1455709   -7.3488865    235.90014  0.029123474  0.029296753            1 
  676000    1.1288723   -7.3929289     235.4435    0.0290241  0.029290526            1 
  677000    1.1295875   -7.3656082    236.06081  0.029057215  0.029284164            1 
  678000    1.1440709   -7.4180028    235.50615  0.028946183  0.029278175            1 
  679000    1.1646819   -7.3976977    236.18817  0.028987257  0.029271711            3 
  680000    1.1519431   -7.4107685     236.9971  0.029043762  0.029265441            2 
  681000    1.1455315     -7.37716    236.63397  0.028956677  0.029258958            3 
  682000    1.1482556   -7.3730926    237.32727  0.028998934  0.029252438            1 
  683000    1.1247231   -7.3690629     238.1397  0.029055601  0.029246082            2 
  684000    1.1404576   -7.3766963    237.77342  0.028968497  0.029239764            3 
  685000    1.1610984   -7.3618818    238.98417    0.0290735  0.029233653            2 
  686000    1.1353989   -7.3669238    239.64173  0.029110998  0.029228293            3 
  687000    1.1529114    -7.380932    240.00355  0.029112512  0.029222734            1 
  688000    1.1116932    -7.379785     239.7607  0.029040783  0.029217303            1 
  689000    1.1636294   -7.3924099    240.56193  0.029095541  0.029211856            2 
  690000    1.1073344   -7.3667544    240.65973  0.029065185  0.029206696            2 
  691000     1.159472   -7.3929442    241.45229  0.029118704  0.029201769            2 
  692000    1.1341697   -7.4227383    241.59292  0.029093559  0.029196853            1 
  693000    1.1298175   -7.3934219    242.95236   0.02921505  0.029191814            1 
  694000    1.1229672   -7.3923623    242.44856   0.02911246  0.029186652            3 
  695000    1.1310282   -7.4164517     241.7955  0.028992266   0.02918135            2 
  696000    1.1494504   -7.3976857    242.55852  0.029041968   0.02917599            3 
  697000    1.1681542   -7.4195891    242.56647  0.029001252  0.029170928            3 
  698000     1.152159   -7.4239921    243.20744  0.029036227  0.029165755            3 
  699000    1.1395585   -7.4100688    243.07426   0.02897881  0.029160453            1 
  700000    1.1299437   -7.3549519     243.9138  0.029037358   0.02915486            3 
  701000    1.1428624   -7.3907684    244.04586  0.029011633  0.029149641            3 
  702000    1.1470766   -7.3616289    244.94652  0.029077222   0.02914404            2 
  703000    1.1348012   -7.3797063    244.56298  0.028990396  0.029138245            1 
  704000     1.151834   -7.3733794    244.73805  0.028969939  0.029132465            1 
  705000    1.1635504   -7.3949685    244.83512  0.028940321  0.029126651            2 
  706000    1.1181689   -7.4150573    244.47201   0.02885647  0.029120721            3 
  707000    1.1195101   -7.4069803    244.98183  0.028875747  0.029114782            2 
  708000    1.1427853   -7.3797434    245.82948  0.028934732  0.029109088            2 
  709000    1.1417663   -7.3569264    246.50639  0.028973483  0.029103211            1 
  710000    1.1464393   -7.3963537    245.77973  0.028847386  0.029097509            2 
  711000    1.1682919   -7.4115067    246.81878  0.028928596  0.029091545            2 
  712000    1.1525437   -7.4226373    246.51431   0.02885233  0.029085317            2 
  713000    1.1518174   -7.3495742     247.7796  0.028959748  0.029079341            2 
  714000     1.148145   -7.4113616    247.38997  0.028873713  0.029073293            2 
  715000    1.1456848   -7.4045744    247.68815  0.028868083  0.029067151            1 
  716000    1.1503102   -7.3991883     247.4343   0.02879822  0.029060937            1 
  717000    1.1400531   -7.3888484    248.19502  0.028846469  0.029054692            2 
  718000    1.1201094   -7.3874597    248.39666  0.028829696  0.029048799            1 
  719000    1.1442506   -7.4049945    248.40305   0.02879034  0.029042665            2 
  720000    1.1256663    -7.406417    249.24102  0.028847341  0.029036727            1 
  721000    1.1436101   -7.3753675    249.90749  0.028884361     0.029031            1 
  722000    1.1334798   -7.3700509    249.89684  0.028843126  0.029024798            1 
  723000    1.1024065   -7.3557471    250.49819  0.028872544  0.029018456            1 
  724000    1.1346025   -7.4204576     249.7283   0.02874405  0.029012214            1 
  725000    1.1389203   -7.4064928    249.77096  0.028709306  0.029005862            3 
  726000     1.123821   -7.3747155    250.81988   0.02879016  0.028999645            4 
  727000    1.1014091   -7.3878201    251.19342  0.028793377   0.02899345            4 
  728000    1.0984061   -7.4004701    251.27002  0.028762593  0.028987375            4 
  729000    1.1231575   -7.3735881    252.69309  0.028885813  0.028981498            1 
  730000    1.1156191   -7.3828737    252.12238  0.028781094  0.028975418            1 
  731000    1.1497262   -7.4226392    251.91542  0.028718128  0.028969178            2 
  732000    1.1244977   -7.3740545    252.88917   0.02878975  0.028963124            2 
  733000    1.1261313   -7.3598374     253.0777  0.028771908  0.028956866            1 
  734000    1.1477007    -7.396938    253.72198  0.028805855  0.028950796            4 
  735000    1.1379947   -7.3878589    253.45547  0.028736448  0.028944708            2 
  736000    1.1341685    -7.404264    253.69329  0.028724331   0.02893903            4 
  737000    1.1262885   -7.3608032    255.24271   0.02886055  0.028933134            1 
  738000    1.1094027   -7.4015446    254.61859   0.02875097  0.028927686            1 
  739000    1.1246661   -7.4031583    255.55428  0.028817578  0.028921972            2 
  740000    1.1622405   -7.3367541    256.33937  0.028867046  0.028916836            1 
  741000    1.1171038   -7.4461097    255.31707   0.02871312  0.028911226            2 
  742000    1.1513531   -7.4193845    256.60904  0.028819524  0.028905299            1 
  743000    1.1218766    -7.428359    255.73592  0.028682809  0.028899098            5 
  744000    1.1192427   -7.3872176    256.26463  0.028703475  0.028893172            5 
  745000    1.1350608   -7.4126112     256.3015  0.028669071   0.02888691            4 
  746000    1.1058811   -7.3831078    257.25603  0.028737269  0.028881134            4 
  747000     1.132134   -7.3877461    257.25255   0.02869841  0.028874895            4 
  748000    1.1210858   -7.4095823    256.78574  0.028608037  0.028868617            2 
  749000    1.1538679   -7.4198435    256.28728  0.028514383  0.028862133            3 
  750000    1.1546881    -7.379431    257.87083  0.028652314  0.028855593            2 
  751000    1.1160848   -7.3939647     257.8876  0.028616023  0.028848809            2 
  752000      1.14601   -7.3869103    258.19734  0.028612293   0.02884193            1 
  753000     1.132356   -7.3971187    258.63641  0.028622888  0.028835146            2 
  754000    1.1292134   -7.4359517    258.31026   0.02854888   0.02882847            1 
  755000    1.1353424   -7.3847326    260.11416  0.028710172  0.028822076            2 
  756000    1.1583945   -7.3944837     259.0989  0.028560285  0.028815491            2 
  757000    1.1326287   -7.4097621      259.954  0.028616689  0.028809073            5 
  758000    1.1351051    -7.412547    260.62523   0.02865273  0.028802617            2 
  759000    1.1486043   -7.3943688    260.28208  0.028577304  0.028795849            8 
  760000    1.1494928   -7.4000865    259.75585  0.028482001  0.028789555            3 
  761000    1.1160235   -7.3730177    260.94063  0.028574313  0.028782959            2 
  762000     1.135001   -7.4005308    260.84878   0.02852677  0.028776054            2 
  763000    1.1169158   -7.3881005    261.62547   0.02857421  0.028769092            1 
  764000    1.1498152   -7.4246034    260.89778  0.028457437  0.028762361            3 
  765000    1.1049363   -7.4103258    261.36218  0.028470826  0.028755448            3 
  766000    1.1431944   -7.4094956    261.20508  0.028416566  0.028748673            2 
  767000    1.1177722   -7.4192021    261.38319  0.028398869  0.028741943            2 
  768000     1.105878   -7.4281206    261.86357  0.028414015  0.028734874            2 
  769000    1.1166179   -7.4370636    261.41566  0.028328528  0.028727696            1 
  770000    1.1361076   -7.3990335    262.92209  0.028454772   0.02872038            1 
  771000    1.1299113    -7.408633    263.52724  0.028483272  0.028713311            3 
  772000    1.1178404   -7.3953943    264.07468   0.02850547  0.028706853            2 
  773000    1.1435065   -7.3980627    264.58943  0.028524086   0.02870046            1 
  774000    1.1238229   -7.4479298     263.4977  0.028369692  0.028693918            2 
  775000      1.11202   -7.4432999    264.45342  0.028435851  0.028687392            1 
  776000    1.1048152   -7.4366601    263.96728  0.028347002  0.028680759            3 
  777000    1.1280044    -7.435843    264.40306  0.028357257  0.028673848            3 
  778000    1.1355428   -7.4250399    265.11051  0.028396584  0.028667037            4 
  779000    1.1229056    -7.437893     265.0983  0.028358826  0.028660067            2 
  780000    1.1018812   -7.4078194    265.58179  0.028374123  0.028652917            1 
  781000     1.139518   -7.3878961    266.10617  0.028393744  0.028645952            4 
  782000    1.1284697   -7.4419752    265.19895  0.028260758  0.028638812            2 
  783000    1.1184405    -7.414356    266.03955  0.028314128  0.028631704            3 
  784000    1.1266503   -7.4029896    266.27277  0.028302803  0.028624825            2 
  785000    1.1449457   -7.3980208    267.11959  0.028356644  0.028617899            2 
  786000    1.1310163   -7.3859945    268.21531  0.028436737  0.028610988            1 
  787000    1.1055802   -7.4106438    267.97775   0.02837545  0.028604122            3 
  788000    1.1216089   -7.4237376    267.77873  0.028318393  0.028597187            2 
  789000    1.1430649   -7.4250163    267.72424  0.028276747   0.02859025            2 
  790000    1.1333016   -7.4047284    268.81203  0.028355699  0.028583368            1 
  791000    1.1219326   -7.4408133    268.57133  0.028294494  0.028576486            2 
  792000    1.1115238    -7.413034    269.16056  0.028320766  0.028569743            1 
  793000    1.1167118    -7.458516    269.80783  0.028353071  0.028563001            4 
  794000    1.1182418   -7.4101222    270.57145  0.028397508  0.028556586            1 
  795000    1.1344581   -7.4311384    269.53054  0.028252678  0.028549688            2 
  796000    1.1301306   -7.4089397     270.8771  0.028358155  0.028542752            2 
  797000    1.1328244   -7.4414956     270.1973  0.028251495  0.028536221            3 
  798000    1.1291565   -7.3626492    271.04225  0.028304329  0.028529422            2 
  799000    1.1152196   -7.4466515    270.94057  0.028258299  0.028522554            1 
  800000    1.1306949   -7.4300449    271.01386  0.028230611  0.028515571            2 
  801000    1.1351673   -7.4355863    271.04586  0.028198696  0.028508613            1 
  802000    1.1066613   -7.3901701    272.23554   0.02828715  0.028501679            3 
  803000    1.1234808   -7.4254239     272.0798  0.028235761  0.028494851            2 
  804000    1.1136477   -7.4263289    271.82986  0.028174737  0.028487877            2 
  805000    1.1279905    -7.467897    272.67099   0.02822681  0.028480927            3 
  806000    1.1127716   -7.4485633    272.32048   0.02815555  0.028473969            1 
  807000    1.1111987   -7.4491738    272.69411  0.028159244  0.028466896            2 
  808000    1.1362934   -7.4220735     273.6396  0.028221906  0.028459926            3 
  809000    1.0978332   -7.4467651    273.46435  0.028168969  0.028453154            2 
  810000    1.0859372   -7.3871549    274.56214  0.028247133  0.028446367            4 
  811000     1.091212   -7.4248383    274.47571  0.028203423  0.028439595            4 
  812000    1.1182982   -7.3695961    276.89636  0.028417114  0.028432956            3 
  813000    1.1299995   -7.4551269     274.0446  0.028089852  0.028426299            1 
  814000    1.1242245   -7.4567126    274.73733  0.028126263  0.028419127            1 
  815000    1.1191227   -7.4479776    274.99885  0.028118492  0.028412462            3 
  816000    1.1286558   -7.4429681    275.10151  0.028094517  0.028405712            3 
  817000    1.1020893   -7.4665253    276.23386  0.028175628  0.028399051            1 
  818000    1.1195199   -7.3965984    276.55031  0.028173422  0.028392435            3 
  819000     1.112005   -7.4179274    277.07182  0.028192086  0.028386047            3 
  820000     1.124058   -7.4199293    277.18704  0.028169415  0.028379543            3 
  821000    1.1371095   -7.4537586    277.11208  0.028127495  0.028373043            2 
  822000    1.1247205   -7.4573641    277.82963  0.028166021  0.028366275            1 
  823000     1.149545   -7.4498647    277.69135  0.028117795  0.028359637            2 
  824000    1.1141083    -7.398342    278.12814  0.028127846   0.02835312            2 
  825000    1.1110465   -7.4142963    278.02613  0.028083448  0.028346613            2 
  826000    1.1371891   -7.4869093    278.89959   0.02813757  0.028340082            3 
  827000    1.1270474   -7.4342589    281.01582   0.02831679  0.028333626            2 
  828000    1.1392481    -7.451185    279.17562  0.028097385    0.0283272            1 
  829000    1.1251198   -7.4048688    280.21381  0.028167854  0.028321105            3 
  830000    1.1074228   -7.4246452    280.24929  0.028137478  0.028314716            2 
  831000    1.1100256   -7.4261251    280.64793  0.028143595  0.028308371            3 
  832000    1.1207019   -7.4135467    280.95041  0.028140065  0.028302142            2 
  833000    1.1414154    -7.447462    281.18703  0.028129955  0.028296023            1 
  834000    1.1216508   -7.4586361    281.35908  0.028113418  0.028290203            4 
  835000     1.115014   -7.3981909    282.03316  0.028147022  0.028284276            2 
  836000    1.1107713   -7.4109314    282.71049   0.02818087  0.028278748            2 
  837000    1.1285589   -7.4315335    282.70695  0.028146849  0.028272845            3 
  838000    1.1291814     -7.42175    283.22275  0.028164553     0.028267            2 
  839000    1.1369745   -7.4566755    282.77366  0.028086379  0.028260989            2 
  840000    1.1108863   -7.4342602    283.52693  0.028127672  0.028255169            1 
  841000    1.1285336   -7.4636281    283.12899  0.028054795  0.028249311            2 
  842000    1.1068039   -7.4621491    283.83233  0.028091086  0.028243226            1 
  843000    1.1536666   -7.4591459    284.47471  0.028121264  0.028237359            2 
  844000    1.1123217   -7.4204862    284.18989  0.028059824  0.028231572            2 
  845000    1.1275166    -7.456315    285.34355   0.02814039  0.028225788            2 
  846000    1.1030911   -7.4002301    285.49557  0.028122101  0.028220106            1 
  847000    1.1069774    -7.414884    286.03427    0.0281419  0.028214479            1 
  848000     1.094491   -7.4643298    286.39791  0.028144449  0.028208618            1 
  849000    1.1051563    -7.467813    285.98922  0.028071184  0.028202597            3 
  850000    1.1102366   -7.4880163    286.13396  0.028052349   0.02819669            3 
  851000    1.1125624   -7.4812816    286.24385  0.028030146  0.028191066            2 
  852000    1.1138376   -7.4679362    287.08921   0.02807993  0.028185282            1 
  853000     1.138933   -7.4196108     287.0169  0.028039948  0.028179506            4 
  854000      1.12751   -7.4618595    287.76197  0.028079817  0.028173852            3 
  855000    1.0992259   -7.4459379    287.91323  0.028061719  0.028168144            3 
  856000    1.1275435   -7.4751918    288.28816  0.028065436    0.0281624            4 
  857000    1.1286968   -7.4446638    288.40122  0.028043681  0.028157182            2 
  858000    1.1197985   -7.4537704    289.29539  0.028097843  0.028151761            2 
  859000    1.1109393   -7.4242321    289.59613  0.028094308  0.028146411            2 
  860000    1.0843394   -7.4064902    289.59346  0.028061382  0.028140933            2 
  861000    1.1098452    -7.489702     290.3612  0.028103098  0.028135307            4 
  862000     1.096355   -7.4668488    289.61575  0.027998429    0.0281296            2 
  863000    1.1151031   -7.4666775    290.46851  0.028048331   0.02812386            4 
  864000    1.1016784    -7.428369    291.19299  0.028085744  0.028118254            1 
  865000    1.0949186   -7.4615591    290.63058  0.027999093  0.028112383            1 
  866000    1.1303902   -7.4774975    290.30539  0.027935469  0.028106849            1 
  867000    1.0648189   -7.4919404    291.65652  0.028033114  0.028100923            1 
  868000    1.1420288   -7.4606734    292.07316  0.028040818  0.028095473            1 
  869000    1.0999977   -7.4024894     292.6312  0.028062064  0.028090185            4 
  870000    1.1074221   -7.4350112    292.67026   0.02803355  0.028084705            3 
  871000    1.1003293   -7.4967495    292.28673   0.02796467  0.028078924            1 
  872000    1.1046193   -7.4615047    292.60009  0.027962547  0.028072702            1 
  873000    1.1167549    -7.504078    293.08639  0.027976936  0.028066807            1 
  874000    1.1299288    -7.419928    293.75239  0.028008428  0.028060828            2 
  875000    1.1019078   -7.4615088    292.88012  0.027893344   0.02805514            2 
  876000     1.101671   -7.4539776    294.09524  0.027977096  0.028049228            2 
  877000    1.1294679   -7.4959658    293.37914  0.027877151  0.028043219            5 
  878000    1.1014524   -7.4622223     293.9658  0.027901082  0.028037288            5 
  879000    1.1479914   -7.4533507    294.79372  0.027947831  0.028031499            1 
  880000    1.0876336   -7.4270146    295.33266  0.027967108  0.028025888            3 
  881000    1.1067154    -7.457633    294.62567  0.027868489  0.028020079            3 
  882000    1.1178738   -7.4151072    295.68944    0.0279374  0.028014325            1 
  883000    1.1021182   -7.4945761    295.16138  0.027855925  0.028008534            3 
  884000     1.114434   -7.4325208    295.00579  0.027809746  0.028002449            1 
  885000    1.1126874   -7.4834578    294.74524  0.027753789  0.027996079            1 
  886000     1.083376    -7.466244    295.68405  0.027810765  0.027989822            1 
  887000     1.111593   -7.4789333     296.1823  0.027826221  0.027983899            2 
  888000    1.0901847   -7.4234223     298.1462  0.027979185  0.027978129            1 
  889000    1.1007531   -7.4666654    297.53594  0.027890508  0.027972342            1 
  890000    1.1251298   -7.4510783    297.76885  0.027880979  0.027966675            2 
  891000    1.1334283   -7.4619712    298.42735  0.027911275  0.027961189            4 
  892000    1.1038482   -7.4702416    299.31302  0.027962726  0.027955868            2 
  893000    1.1126466   -7.4382436    300.24982  0.028018833   0.02795069            5 
  894000    1.1032205    -7.472591    298.85066  0.027857071   0.02794555            2 
  895000    1.1061223   -7.4167714    300.71723  0.027999742  0.027940254            3 
  896000    1.1207828   -7.5041186    299.90987  0.027893403  0.027934906            4 
  897000     1.086484   -7.4360811    300.54691  0.027921489  0.027929269            2 
  898000    1.1029732   -7.4342327    300.15834  0.027854338   0.02792386            2 
  899000    1.1097893   -7.4647684    299.62977  0.027774358  0.027918001            1 
  900000    1.1211971   -7.4280387    300.75933  0.027848086  0.027912263            3 
  901000    1.0978631   -7.4870723    300.79674  0.027820638  0.027906742            1 
  902000    1.0992748   -7.4372337     301.7479   0.02787767  0.027900971            1 
  903000    1.0960971     -7.46666    301.61676  0.027834696  0.027895466            1 
  904000    1.0965469    -7.482211     301.9439  0.027834061   0.02788985            2 
  905000    1.0827927   -7.4946802    301.22394  0.027737011  0.027884066            1 
  906000    1.1078608   -7.4964917    300.89885  0.027676495  0.027878255            4 
  907000    1.1021545   -7.4450336    302.88997   0.02782892  0.027872554            2 
  908000    1.0732674   -7.4327933    302.11503   0.02772715  0.027866824            5 
  909000     1.094844   -7.4327494    303.10239  0.027787164  0.027860906            1 
  910000    1.0917156   -7.4522102    302.76919  0.027726116  0.027855034            5 
  911000    1.0968384   -7.5089728    302.65254  0.027685011  0.027849018            3 
  912000    1.1013043   -7.4564159    302.45439  0.027636549  0.027842635            4 
  913000    1.1217351   -7.4286735    303.42103  0.027694508  0.027836356            2 
  914000    1.1333721   -7.4522652    303.46609  0.027668316  0.027830109            2 
  915000    1.1142385   -7.4722708    302.43945  0.027544577  0.027823548            2 
  916000     1.089706   -7.4325585    303.06941  0.027571817  0.027817056            3 
  917000    1.1176859   -7.4950897    303.65725   0.02759517  0.027810584            1 
  918000    1.0854093   -7.4657542    303.50559  0.027551342  0.027804064            3 
  919000    1.1239808   -7.4968232    303.69551  0.027538585  0.027797432            2 
  920000    1.1087746   -7.5104886    303.54285  0.027494823  0.027790584            2 
  921000    1.0888172   -7.4640113    305.11471  0.027607194  0.027783672            2 
  922000     1.094026   -7.4698524    304.65641  0.027535829  0.027776713            2 
  923000     1.112544   -7.4969821    304.66563  0.027506828  0.027769882            3 
  924000    1.1044244   -7.4561406     304.8771  0.027496131  0.027762852            2 
  925000    1.1220001   -7.4755441    305.30078  0.027504575  0.027756032            2 
  926000    1.1106076   -7.5398334     304.1544  0.027371706  0.027749014            2 
  927000    1.0986553   -7.4961814    304.03703  0.027331628  0.027742077            3 
  928000     1.103052   -7.4503795    305.98978  0.027477531  0.027735313            2 
  929000    1.1167987   -7.4872878    306.91309  0.027530776  0.027728819            1 
  930000    1.1339379   -7.5036867      306.484  0.027462724  0.027721987            1 
  931000    1.1132537   -7.4963229    306.75566  0.027457542  0.027715228            2 
  932000    1.0954504   -7.4796996    307.53976   0.02749819  0.027708453            2 
  933000    1.0844703   -7.4720258    308.24521  0.027531726  0.027701872            3 
  934000    1.1001148   -7.4815247    308.02049    0.0274822  0.027695243            2 
  935000    1.0732813   -7.4823305     307.9097  0.027442933  0.027688636            4 
  936000    1.0986634   -7.4734186    308.09577  0.027430179  0.027681807            3 
  937000    1.1050942   -7.4644864    308.83062   0.02746626  0.027675125            3 
  938000    1.1040698    -7.473872    309.35133  0.027483238  0.027668229            1 
  939000    1.0813817   -7.4756857    309.10563  0.027432165  0.027661636            2 
  940000    1.0947369   -7.5154322    308.29976  0.027331539  0.027654825            2 
  941000    1.0961489   -7.4846933    309.42972  0.027402561   0.02764792            1 
  942000     1.123283   -7.4493472    309.73968  0.027400892  0.027641158            6 
  943000    1.1218915   -7.5047098    309.19331  0.027323551  0.027634234            2 
  944000    1.1053915   -7.4989319    310.10853    0.0273754  0.027627349            1 
  945000    1.1014994   -7.4904553    311.12227  0.027435826  0.027620268            1 
  946000    1.1247732   -7.4635492    310.75302  0.027374297  0.027613737            1 
  947000    1.1191508   -7.4408555    311.47153  0.027408618  0.027607124            1 
  948000    1.0909258     -7.45465    311.87002  0.027414735  0.027600334            2 
  949000    1.0866445   -7.4790938    311.69931  0.027370856   0.02759386            2 
  950000    1.0853886   -7.4794451    312.17933  0.027384152  0.027587528            1 
  951000    1.1064614   -7.4982906    312.56221  0.027388908  0.027580997            2 
  952000    1.1211506   -7.4566643    313.29135  0.027423963  0.027574534            1 
  953000    1.0886423   -7.4879078    313.34613  0.027399976  0.027568226            2 
  954000    1.0978785     -7.46052    313.17295  0.027356128  0.027561797            2 
  955000    1.0996237    -7.463255    313.57139   0.02736225  0.027555314            3 
  956000    1.0917071   -7.4923656    313.63231  0.027338939  0.027548635            3 
  957000    1.1030076   -7.4740558    314.55678  0.027390872  0.027542064            2 
  958000    1.1121345   -7.4760171     314.1185  0.027324156  0.027535637            1 
  959000    1.1031207   -7.4506026    314.78363  0.027353461  0.027529203            2 
  960000    1.1250215   -7.4996742    314.84057   0.02732991  0.027522651            2 
  961000    1.0921284   -7.4801182    314.69042  0.027288451  0.027516046            3 
  962000    1.1033572   -7.5043069     315.1385    0.0272989  0.027509602            1 
  963000    1.0739369   -7.5034358    315.41324  0.027294326  0.027502945            3 
  964000    1.0987287   -7.4913019    316.09146  0.027324642  0.027496502            2 
  965000    1.1126645   -7.4797965    316.30281  0.027314577  0.027490061            3 
  966000    1.1107697   -7.4659758    316.94299  0.027341528    0.0274835            2 
  967000    1.0643461   -7.4716446    317.65903  0.027374959  0.027477005            3 
  968000    1.0947099   -7.4829288    317.13022  0.027301155  0.027470571            2 
  969000    1.0834592   -7.5094726    317.27642  0.027285554  0.027464144            2 
  970000    1.0890925   -7.4706293    318.57818   0.02736926  0.027457893            2 
  971000    1.1067978   -7.4863212    318.09653  0.027299737  0.027451524            2 
  972000    1.0953613   -7.4878071    318.04252   0.02726702  0.027445329            2 
  973000    1.1012652   -7.4725149    318.41414  0.027270824  0.027439033            2 
  974000    1.1030862   -7.4680432    318.01142  0.027208369  0.027432552            1 
  975000    1.1194214   -7.4656945    318.64782  0.027234856  0.027426037            2 
  976000    1.1222327    -7.545694    317.75541  0.027130755  0.027419342            6 
  977000     1.098244   -7.5091497    319.36016  0.027239864  0.027412575            2 
  978000    1.1197971   -7.4651207    319.18032  0.027196687  0.027406051            4 
  979000    1.1198882   -7.5095295    318.89667  0.027144762  0.027399406            1 
  980000    1.1065313   -7.4694326    319.52052  0.027170112  0.027392919            2 
  981000    1.1119616   -7.4697313    319.97082  0.027180667  0.027386319            2 
  982000    1.1004333    -7.472195     320.8687  0.027229183  0.027379887            1 
  983000     1.098919   -7.4861065     321.0227  0.027214539  0.027373216            1 
  984000    1.0935228   -7.5015136    320.75444  0.027164163  0.027366612            3 
  985000     1.092477   -7.5118609    320.89985  0.027148887  0.027360058            1 
  986000    1.0842934   -7.4921107    321.83129  0.027200075  0.027353297            2 
  987000    1.0821088   -7.4755035     321.8475  0.027173886  0.027346773            3 
  988000    1.1205522   -7.4740512    322.37936  0.027191242   0.02733993            1 
  989000    1.0810528   -7.5106127    322.66387  0.027187721  0.027333214            2 
  990000    1.0652343   -7.5463039     322.3765  0.027136069  0.027326493            1 
  991000    1.1139043   -7.4953577    323.95597  0.027241504  0.027319825            1 
  992000    1.0939759   -7.5042183    323.55269  0.027180165  0.027313536            1 
  993000    1.0878301   -7.4971084    324.51214  0.027233311  0.027307309            2 
  994000    1.0968949   -7.5046965    323.52133  0.027122848  0.027301092            3 
  995000     1.087799   -7.4556686    324.54152  0.027181032   0.02729487            3 
  996000    1.0877085   -7.4975789    324.86906  0.027181147  0.027288554            2 
  997000    1.0827971   -7.4974027    324.79655  0.027147823  0.027282231            4 
  998000    1.0777558   -7.5136757    324.46476  0.027092916  0.027275894            3 
  999000    1.0853671   -7.4929979    325.70596  0.027169332  0.027269604            1 
 1000000    1.1086295   -7.4852955    324.77106  0.027064255   0.02726348            3 
 1001000    1.0720912   -7.4968032    326.03594  0.027142519  0.027257123            1 
 1002000    1.1068004   -7.5209042    325.28291  0.027052804  0.027250665            2 
 1003000    1.1046064   -7.5108256    325.19029  0.027018136  0.027244328            2 
 1004000    1.0959035   -7.4934678    326.76494  0.027121924   0.02723789            1 
 1005000    1.0888941   -7.5223821    325.18576  0.026963994    0.0272311            2 
 1006000    1.0879736   -7.4916653    326.06761  0.027010239  0.027224367            2 
 1007000    1.1022477   -7.5127331    325.71092  0.026953899  0.027217473            2 
 1008000    1.0974524   -7.5144102    326.57555   0.02699864  0.027210587            2 
 1009000    1.0874688    -7.538586    325.05266  0.026846107    0.0272036            1 
 1010000    1.0830456   -7.4924635    326.72785  0.026957743  0.027196556            2 
 1011000    1.0755282   -7.4907621    326.31297  0.026896882  0.027189347            2 
 1012000    1.0824994    -7.493666    326.84316  0.026913963  0.027182156            4 
 1013000    1.0861735   -7.5314081    326.08612  0.026825117  0.027174959            3 
 1014000    1.0947022   -7.4962341    327.93886  0.026950926  0.027167855            2 
 1015000    1.0942643   -7.4924169    328.20527  0.026946246  0.027160856            1 
 1016000    1.0773133   -7.4875496    328.94062  0.026980038  0.027153779            1 
 1017000    1.0877527   -7.5277847    327.31791  0.026820543   0.02714689            3 
 1018000    1.0971543    -7.518404    328.49092   0.02689022  0.027139732            2 
 1019000    1.0488641   -7.5094098    329.42135  0.026939921  0.027132523            2 
 1020000    1.0795918   -7.4850732    329.60918  0.026928855  0.027125587            1 
 1021000    1.0862689   -7.5629082    328.10235  0.026779493  0.027118568            1 
 1022000    1.0871349   -7.4890877    330.30049  0.026932525  0.027111411            2 
 1023000     1.066032    -7.567158    328.80588  0.026784448  0.027104206            1 
 1024000    1.0879367   -7.4768212    330.70773  0.026913064  0.027097347            3 
 1025000    1.0819439   -7.5228492    330.81582  0.026895595  0.027090399            2 
 1026000    1.0801236   -7.5009248    330.70311  0.026860227  0.027083578            1 
 1027000    1.0798244   -7.4609843    332.05488  0.026943758  0.027076889            1 
 1028000    1.0821615   -7.5052644    332.44698  0.026949334  0.027070368            2 
 1029000    1.0877737   -7.5067193    331.14876  0.026818008  0.027063597            2 
 1030000    1.0957365   -7.4902285     332.0426  0.026864288  0.027056781            5 
 1031000    1.0861972   -7.4951657     332.6802  0.026889767  0.027049855            1 
 1032000    1.0983555   -7.5157472    332.35454  0.026837415  0.027042853            2 
 1033000    1.0941573    -7.509751    332.78524  0.026846179  0.027036118            1 
 1034000    1.0800948    -7.492103    333.25787  0.026858307  0.027029353            4 
 1035000    1.1001048   -7.5379165    333.00724  0.026812177  0.027022522            2 
 1036000    1.0504129   -7.4881021    332.59806  0.026753383  0.027015841            2 
 1037000     1.078859   -7.4926105    333.91437  0.026833363  0.027009237            3 
 1038000    1.0714944   -7.5482438    332.33826  0.026680978  0.027002251            1 
 1039000    1.0696248   -7.4838101    333.13589  0.026719272  0.026995171            2 
 1040000    1.0810047    -7.558281    333.45878  0.026719454  0.026988101            2 
 1041000    1.0889094   -7.5312143    334.17808  0.026751367  0.026980847            2 
 1042000    1.0729958   -7.4835574    333.98009   0.02670986  0.026973605            1 
 1043000    1.1012293   -7.5383955    333.48364  0.026644586  0.026966238            2 
 1044000     1.112625   -7.4685734    335.94287  0.026815363  0.026959213            1 
 1045000    1.0761249   -7.5309491    333.68241  0.026609443  0.026952251            4 
 1046000    1.0846334   -7.5454475    334.38216  0.026639751  0.026945112            3 
 1047000    1.1032353   -7.5209871    336.05174  0.026747193  0.026938085            3 
 1048000    1.0904937   -7.5271863    335.61186  0.026686694  0.026930996            3 
 1049000    1.0786795   -7.4750519    336.73737  0.026750665  0.026923921            2 
 1050000    1.1002937   -7.5070017    336.21443  0.026683685  0.026917022            2 
 1051000    1.0842982   -7.5577732    334.99537  0.026561638  0.026909895            3 
 1052000    1.0831342   -7.5635958    336.16888  0.026629347  0.026902653            1 
 1053000    1.0994498   -7.5307787    336.18529  0.026605357  0.026895641            1 
 1054000    1.0793346   -7.4814967    337.19974  0.026660321  0.026888763            2 
 1055000     1.074988   -7.4977493    337.68933  0.026673722  0.026881828            1 
 1056000    1.1074838   -7.5330885    336.49847  0.026554488  0.026874746            3 
 1057000    1.0826769   -7.5249453    337.37959  0.026598832  0.026867483            1 
 1058000    1.0928999   -7.5459192    336.96357  0.026540924  0.026860522            1 
 1059000    1.0870753   -7.4982618     337.3749   0.02654823  0.026853365            2 
 1060000    1.0791637   -7.4963122    338.00661  0.026572847  0.026846238            2 
 1061000    1.0723365   -7.5536673    337.97821  0.026545571  0.026838898            1 
 1062000    1.0908777    -7.529155          339  0.026600753  0.026831818            2 
 1063000    1.1024822   -7.6009897    337.52949  0.026460449  0.026824401            3 
 1064000    1.0708879   -7.5607546    338.19375  0.026487606  0.026816928            2 
 1065000     1.087072   -7.5505035    338.34914  0.026474894  0.026809721            3 
 1066000    1.0949085   -7.4784554    341.05083  0.026661259  0.026802681            1 
 1067000     1.091489   -7.4846042    340.55886  0.026597849  0.026795749            5 
 1068000    1.0996236   -7.5522849    340.13117  0.026539573  0.026788776            1 
 1069000    1.0653099   -7.5244417    341.25027  0.026601986  0.026781771            1 
 1070000    1.0633804   -7.5448722    341.27794  0.026579279  0.026775055            2 
 1071000    1.0976884   -7.5439321    341.63207  0.026582016  0.026768239            2 
 1072000    1.0728836   -7.5390483    341.21989  0.026525178  0.026761487            1 
 1073000    1.0930429   -7.5092661    341.17047   0.02649662  0.026754606            3 
 1074000    1.0772469   -7.5769336    341.47394  0.026495495  0.026747728            4 
 1075000    1.1042005   -7.5195183    342.28034   0.02653336  0.026740893            3 
 1076000    1.0906479   -7.4932358    343.50692  0.026603696  0.026734155            1 
 1077000    1.0674374   -7.5174029    343.12703    0.0265496   0.02672745            2 
 1078000    1.0602917    -7.517632    342.54634  0.026480082  0.026720595            2 
 1079000    1.0689459   -7.5880705    342.00854  0.026414005  0.026713508            3 
 1080000    1.0873655   -7.5399148    344.11331  0.026551953  0.026706471            1 
 1081000    1.0837306   -7.5421376    342.65216  0.026414751  0.026699438            2 
 1082000    1.0934938   -7.5334805    343.65304  0.026467424  0.026692504            2 
 1083000    1.0649964   -7.5439954    343.36617  0.026420912  0.026685443            4 
 1084000    1.0669673   -7.5902403    344.58069  0.026489905  0.026678236            2 
 1085000    1.0434623    -7.523392    344.35003  0.026447775  0.026671068            2 
 1086000    1.0998097   -7.5257565    344.16874   0.02640951  0.026664034            2 
 1087000    1.0781909   -7.5169347    344.45308  0.026407013  0.026657127            3 
 1088000    1.0585909   -7.5509777    344.82729  0.026411404  0.026650263            3 
 1089000    1.0761787   -7.5511544    344.37413  0.026352474  0.026643333            2 
 1090000    1.0696373   -7.4997086    345.32973  0.026401355   0.02663642            2 
 1091000    1.0571902   -7.5532902    345.59071  0.026397091  0.026629465            1 
 1092000     1.052468   -7.5251121    346.59687    0.0264497  0.026622753            1 
 1093000    1.0517682   -7.5593701    346.20469    0.0263956  0.026615821            4 
 1094000    1.1134159    -7.542246    346.44561  0.026389824  0.026608886            3 
 1095000    1.0870617   -7.5399441    347.66742  0.026458708   0.02660191            3 
 1096000    1.0652278   -7.5467459    347.03738  0.026386662  0.026595014            1 
 1097000    1.0917236   -7.5157528    347.64337  0.026408643  0.026588129            1 
 1098000    1.0969649   -7.5311403    347.64002  0.026384337    0.0265812            1 
 1099000    1.0700237   -7.5484462    346.21794  0.026252498  0.026574234            2 
 1100000    1.0875421   -7.5679768    347.85326   0.02635252  0.026567327            1 
 1101000    1.0608411   -7.5404306    348.91113  0.026408653  0.026560435            2 
 1102000    1.0793679   -7.5684807     348.6355  0.026363846  0.026553567            3 
 1103000     1.069875   -7.5346531    348.62639  0.026339255  0.026546529            2 
 1104000    1.0393363   -7.5913612    347.83334  0.026255536  0.026539431            1 
 1105000    1.0666255   -7.5391239    348.50292  0.026282271   0.02653231            4 
 1106000    1.0811742   -7.5640047    349.41329  0.026327102  0.026525542            1 
 1107000    1.0787088   -7.5203966    350.11072   0.02635582   0.02651885            3 
 1108000    1.0887419   -7.5598791    350.29268  0.026345719  0.026512082            2 
 1109000    1.0856535   -7.5608623    350.58197    0.0263437  0.026505307            4 
 1110000    1.0686015    -7.557356    349.98225  0.026274944  0.026498538            3 
 1111000    1.0853753   -7.5257908    351.40486  0.026358001  0.026491899            2 
 1112000     1.054258   -7.5724785    350.85839  0.026293345  0.026485273            2 
 1113000    1.0614178   -7.5093808    351.90897   0.02634838  0.026478886            2 
 1114000    1.0573779   -7.5771151    352.49028  0.026368214  0.026472463            1 
 1115000     1.078846   -7.5615996    352.09921  0.026315337  0.026465889            3 
 1116000    1.0857365   -7.5360067    352.18772  0.026298366  0.026459389            2 
 1117000    1.0812557   -7.5546669    351.99721  0.026260609  0.026452748            1 
 1118000    1.0809836    -7.520019     354.2678  0.026406366  0.026446334            1 
 1119000    1.0702623   -7.5628159    352.84112  0.026276521  0.026439867            1 
 1120000    1.0921366   -7.5440991    353.99864  0.026339184  0.026433455            2 
 1121000    1.0625026   -7.5188329    354.37965  0.026344012  0.026427143            4 
 1122000    1.1021805   -7.5469682    353.99945  0.026292294  0.026420663            2 
 1123000     1.041628   -7.5239849    353.88866   0.02626066   0.02641414            1 
 1124000    1.0853267   -7.5502041    353.46423  0.026205829  0.026407616            1 
 1125000     1.068392   -7.5453125     354.3733  0.026249874  0.026400983            2 
 1126000     1.086277   -7.5859779    353.99704  0.026198715  0.026394453            1 
 1127000     1.084076   -7.5402205    354.83423  0.026237373  0.026387577            2 
 1128000    1.0689583   -7.5417662    355.17643  0.026239393  0.026380972            1 
 1129000    1.0756184    -7.559905    355.56551   0.02624487  0.026374441            3 
 1130000    1.0718531   -7.5628555    355.40796  0.026210026  0.026367902            1 
 1131000    1.0626354   -7.5225565    356.44638  0.026263364  0.026361343            2 
 1132000    1.0423815   -7.5321449    356.46829  0.026241776  0.026355046            3 
 1133000    1.0397886   -7.5714308    356.90167  0.026250491  0.026348416            1 
 1134000    1.0725422    -7.608813    356.13394  0.026170925  0.026341579            2 
 1135000    1.0713145   -7.5626397    356.70911  0.026190096  0.026335028            2 
 1136000     1.079477   -7.5716386    356.87924  0.026179522  0.026328464            3 
 1137000    1.0793656   -7.5699031    357.72149  0.026218227  0.026321843            2 
 1138000    1.0820594   -7.5460018    356.83321  0.026130142  0.026315182            3 
 1139000    1.0721787   -7.5532329    357.26844  0.026139043  0.026308688            2 
 1140000    1.0753204   -7.5730053    356.71241  0.026075468  0.026302124            4 
 1141000    1.0643611     -7.53096    358.91846  0.026213735  0.026295562            2 
 1142000    1.0651332    -7.555482    358.64539  0.026170854  0.026289052            3 
 1143000    1.0856408   -7.5658424    358.69832  0.026151817  0.026282714            3 
 1144000    1.0808976   -7.5940337    358.47333  0.026112568  0.026276306            4 
 1145000    1.0471471   -7.5563084    359.49771  0.026164317  0.026269974            2 
 1146000    1.0409844   -7.5287394    360.28193  0.026198511  0.026263755            2 
 1147000    1.1102246   -7.5624692    360.01952  0.026156605  0.026257404            2 
 1148000    1.0677731   -7.5722041    360.31181  0.026155039  0.026250959            2 
 1149000    1.0672685   -7.5390231    360.38153  0.026137332  0.026244543            1 
 1150000    1.0744452   -7.5804436    360.34391  0.026111878  0.026238269            2 
 1151000     1.074258   -7.5614605    362.11195  0.026217199  0.026232169            2 
 1152000    1.0747292   -7.5854198      361.746  0.026167969  0.026225997            1 
 1153000    1.0855537   -7.5716592    362.42048  0.026194021  0.026219886            1 
 1154000    1.0674489   -7.5554369    361.19571  0.026082879  0.026213654            2 
 1155000    1.0714347   -7.5486584    363.06785  0.026195371  0.026207516            3 
 1156000      1.06377   -7.5235293    362.71005  0.026146918  0.026201581            1 
 1157000    1.0695465   -7.5268779    363.84384  0.026205981  0.026195525            1 
 1158000    1.0815915   -7.5595983    364.23485  0.026211489  0.026189506            1 
 1159000    1.0678492   -7.5653718    364.81162  0.026230343   0.02618347            2 
 1160000    1.0719309   -7.5896792    363.31568  0.026100264  0.026177459            2 
 1161000    1.0578674   -7.5835189    364.60498  0.026170326  0.026171332            2 
 1162000    1.0365403   -7.5925122    363.48971  0.026067822  0.026165226            2 
 1163000    1.0925222   -7.5569577    363.08212  0.026016202  0.026158855            2 
 1164000    1.0497382   -7.5641252    363.32145  0.026010986  0.026152315            4 
 1165000    1.0537258    -7.596398    363.53536   0.02600396  0.026145651            2 
 1166000     1.061291    -7.573262    363.29395  0.025964404  0.026139154            3 
 1167000    1.0734812   -7.5697079    365.03301  0.026066339  0.026132718            3 
 1168000    1.0702348   -7.5784649    363.84445  0.025959222  0.026126327            2 
 1169000    1.0629128   -7.6112412    364.01082  0.025948875  0.026119852            2 
 1170000    1.0497639    -7.574597    366.01306  0.026069306  0.026113422            3 
 1171000    1.0597141   -7.5878681    364.36081  0.025929463  0.026107014            1 
 1172000    1.0592097   -7.5849581    366.32259  0.026046828  0.026100622            4 
 1173000     1.049698   -7.5919198    365.20968  0.025945559  0.026094277            4 
 1174000    1.0599792   -7.5777882    366.44994  0.026011495   0.02608796            2 
 1175000    1.0786011   -7.5680494    366.93494  0.026023754  0.026081657            1 
 1176000    1.0527878   -7.5994088    367.44791  0.026037976  0.026075312            2 
 1177000    1.0744976   -7.5665129    366.68155  0.025961594  0.026068892            1 
 1178000    1.0700006   -7.5741477    367.90253  0.026025929  0.026062614            2 
 1179000    1.0678241   -7.6205693    367.03693  0.025942673  0.026056302            1 
 1180000    1.0496512    -7.587096    368.07349  0.025993891  0.026050129            4 
 1181000     1.063403   -7.5933984    367.41441  0.025925375  0.026043875            2 
 1182000     1.051832   -7.6124835    369.09266  0.026021761  0.026037721            1 
 1183000    1.0857228   -7.5666265    368.50368  0.025958275  0.026031517            3 
 1184000    1.0650665   -7.5519722    368.85161   0.02596084    0.0260253            1 
 1185000    1.0521345   -7.5722221    369.49174  0.025983948   0.02601917            1 
 1186000    1.0789617   -7.5967101    368.77702   0.02591182  0.026012985            5 
 1187000    1.0615089   -7.5912383    369.07161  0.025910672  0.026006863            5 
 1188000    1.0536432   -7.6040838    369.55649  0.025922874  0.026000861            3 
 1189000    1.0575666   -7.5635145    370.92726  0.025997144  0.025995046            2 
 1190000    1.0396302   -7.5863076    371.64085   0.02602527  0.025989175            3 
 1191000    1.0640915   -7.5486805    372.07793     0.026034  0.025983456            1 
 1192000    1.0701753   -7.5413834    372.27376   0.02602585   0.02597775            3 
 1193000    1.0481815   -7.5784834    372.48175  0.026018563  0.025972175            1 
 1194000    1.0707346   -7.6242633    371.15525  0.025904191  0.025966464            4 
 1195000    1.0423467   -7.5577932    372.74869  0.025993632  0.025960524            2 
 1196000    1.0691205   -7.5980064     373.5714  0.026029222  0.025954746            2 
 1197000    1.0496859    -7.565676    373.23334  0.025983942  0.025948945            2 
 1198000    1.0540567   -7.5743401    373.36536  0.025971436  0.025943249            1 
 1199000     1.061799   -7.5812247    373.95558  0.025990797  0.025937589            4 
 1200000    1.0496705   -7.5558823    373.43901  0.025933265  0.025931791            2 
 1201000    1.0516785   -7.5411983     374.9169  0.026014218  0.025926185            3 
 1202000    1.0641545   -7.5878343    374.24722  0.025946147  0.025920469            2 
 1203000     1.085011   -7.5719674    374.61792  0.025950258  0.025914665            1 
 1204000    1.0707565    -7.602552    374.28856  0.025905908  0.025908789            1 
 1205000     1.070159   -7.6139939    374.33072  0.025887325  0.025902789            4 
 1206000    1.0826708   -7.6023467    374.26496  0.025861315   0.02589688            2 
 1207000    1.0573065   -7.5724875    375.57954   0.02593065  0.025891118            2 
 1208000    1.0563806   -7.5775052    374.98943  0.025868476  0.025885231            2 
 1209000    1.0432232   -7.5856178    375.96761  0.025914503  0.025879234            1 
 1210000    1.0596186    -7.575361    375.75032  0.025878121  0.025873385            2 
 1211000     1.060118   -7.5980438    375.65954  0.025850505  0.025867424            2 
 1212000    1.0793733   -7.6122164    375.74999  0.025835396  0.025861486            2 
 1213000    1.0649675   -7.5734145    377.35526  0.025924379  0.025855644            3 
 1214000    1.0599572   -7.5857476    376.14063  0.025819648  0.025849884            1 
 1215000    1.0351522   -7.5811377    376.38815  0.025815374  0.025844015            1 
 1216000    1.0747314   -7.5780735    376.69991  0.025815509  0.025838105            5 
 1217000    1.0561496   -7.5792792    377.42061  0.025843646  0.025832128            7 
 1218000    1.0506336   -7.5499594    377.71563  0.025842613  0.025826172            1 
 1219000    1.0483564   -7.5736947    377.19194  0.025785612  0.025820428            2 
 1220000    1.0520419   -7.5894363    377.00353  0.025751607   0.02581449            2 
 1221000     1.065184   -7.5998187     378.0054  0.025798894   0.02580843            1 
 1222000    1.0598352    -7.600546    378.29629  0.025797619  0.025802497            1 
 1223000    1.0697067   -7.5913809    378.27318  0.025774951  0.025796394            1 
 1224000    1.0826988    -7.630411    377.80912  0.025722299  0.025790343            2 
 1225000    1.0457508   -7.6228008    378.66329  0.025759407  0.025784289            1 
 1226000    1.0457362   -7.5716369     379.5962  0.025801808  0.025778572            3 
 1227000    1.0540552   -7.6025932     378.9137  0.025734427  0.025772811            2 
 1228000    1.0381964   -7.5674084    379.55232  0.025756808  0.025767033            2 
 1229000    1.0518873   -7.5991411    380.63145  0.025809021  0.025761304            1 
 1230000    1.0777329   -7.6485746    379.98208  0.025744043  0.025755347            2 
 1231000    1.0668308    -7.602412      381.328  0.025814243  0.025749467            2 
 1232000    1.0494259   -7.5853416     380.8545  0.025761262   0.02574378            3 
 1233000    1.0420978   -7.5885918    381.12662   0.02575876  0.025738035            2 
 1234000    1.0422617   -7.5634962    382.62768  0.025839254  0.025732554            4 
 1235000    1.0498191   -7.5814865    380.72085  0.025689666  0.025726898            1 
 1236000    1.0445116   -7.5714723     382.7748  0.025807362  0.025721174            2 
 1237000    1.0571586   -7.5804944    383.04823   0.02580492  0.025715495            3 
 1238000    1.0707872   -7.6108163    382.01014  0.025714199  0.025709744            3 
 1239000    1.0395669   -7.6159576    382.42638  0.025721441  0.025703943            2 
 1240000    1.0257864   -7.6296693    382.74527  0.025722128  0.025698283            2 
 1241000    1.0628033   -7.6194496    381.92012  0.025645992  0.025692437            7 
 1242000    1.0561974    -7.587208    383.16164  0.025708644  0.025686606            2 
 1243000    1.0376506   -7.6140323     382.6779  0.025655531  0.025680748            1 
 1244000    1.0615866   -7.6365668    383.27137  0.025674663  0.025675032            4 
 1245000    1.0747564   -7.6219971    383.78492  0.025688415   0.02566916           10 
 1246000    1.0472121   -7.6077923    384.35746   0.02570609   0.02566351            2 
 1247000    1.0680298   -7.5813426    384.06734  0.025666088  0.025657871            1 
 1248000    1.0263768   -7.5895037     383.7729  0.025625862  0.025651966            1 
 1249000    1.0224423    -7.611908    385.02957  0.025689189  0.025646021            2 
 1250000    1.0719027    -7.644006    383.77896  0.025585264  0.025640136            3 
 1251000    1.0532796   -7.6031631    384.25862  0.025596764  0.025634218            3 
 1252000    1.0494676   -7.6183278    385.34141   0.02564839   0.02562818            2 
 1253000    1.0443864   -7.6208568    384.15029  0.025548703  0.025622163            3 
 1254000    1.0342784   -7.5837175    385.46534  0.025615719  0.025616171            3 
 1255000    1.0724238   -7.6055489    385.04389  0.025567323  0.025610227            5 
 1256000    1.0540592   -7.5939726    386.04797  0.025613586  0.025604249            2 
 1257000    1.0641251   -7.6314338    385.81904  0.025578032  0.025598359            1 
 1258000    1.0288801   -7.6279199    385.95862  0.025566947   0.02559236            3 
 1259000    1.0435797    -7.621124    386.16155  0.025560071  0.025586119            5 
 1260000    1.0369815   -7.6189784    385.92792  0.025524333  0.025580091            2 
 1261000    1.0370594   -7.5758471    386.61592  0.025549558  0.025573805            1 
 1262000    1.0508038   -7.6247923    385.56492  0.025459913  0.025567505            4 
 1263000     1.035397   -7.6092855    385.41159  0.025429638  0.025561159            2 
 1264000    1.0726144   -7.6164163    385.79623  0.025434878  0.025554764            5 
 1265000    1.0403013   -7.6326353    385.28773  0.025381274  0.025548377            5 
 1266000    1.0415656   -7.5862306    386.32704  0.025429637  0.025541867            1 
 1267000    1.0252996   -7.6086651    386.02925  0.025389979  0.025535404            1 
 1268000     1.031342   -7.6149617      386.278  0.025386304  0.025528881            2 
 1269000    1.0509744   -7.6289121    386.06215  0.025352124  0.025522366            3 
 1270000    1.0603272   -7.6494353     386.3838  0.025353268  0.025515848            4 
 1271000    1.0697274   -7.5915442    388.57664  0.025477094  0.025509554            2 
 1272000    1.0368528   -7.6288262    386.68136  0.025332898  0.025503044            3 
 1273000    1.0507823    -7.585256    387.16445  0.025344622  0.025496666            2 
 1274000    1.0263569    -7.632073    388.38232   0.02540439  0.025490227            1 
 1275000    1.0529598   -7.6327274    388.11418   0.02536694  0.025483722            2 
 1276000    1.0392526   -7.6071807    387.73627  0.025322379  0.025477207            1 
 1277000    1.0561194   -7.6448898    387.54641   0.02529016  0.025470659            2 
 1278000    1.0407772   -7.5960432    388.22164    0.0253144   0.02546403            2 
 1279000    1.0605562   -7.5922985    388.62314  0.025320767  0.025457383            2 
 1280000    1.0632671   -7.5818104    388.03942  0.025262983  0.025450727            2 
 1281000    1.0812309   -7.6186598    388.05778  0.025244456  0.025443907            1 
 1282000    1.0397877   -7.5625222    388.57274  0.025258239  0.025437227            1 
 1283000     1.047309   -7.6081761    390.24758  0.025347336  0.025430708       -1e+20 
 1284000    1.0610601   -7.6497793    388.10849  0.025188765   0.02542404            3 
 1285000     1.041617   -7.6424026    389.26187  0.025243961  0.025417267            4 
 1286000    1.0479837   -7.6158454    389.76476  0.025256918  0.025410704            1 
 1287000    1.0214279   -7.6659785    388.07914  0.025128149  0.025403839            1 
 1288000    1.0522969   -7.6051816    390.18681  0.025245006  0.025397004            4 
 1289000    1.0468014   -7.6112875    389.49642  0.025180788  0.025390385            1 
 1290000    1.0397371    -7.646781    389.43171  0.025157087  0.025383814            6 
 1291000    1.0323942   -7.6332911    392.13408  0.025312037  0.025377144            2 
 1292000    1.0376689   -7.6305223    392.18779   0.02529591  0.025370509            3 
 1293000    1.0567448   -7.5833885    391.85296  0.025254767  0.025364025            2 
 1294000     1.061344     -7.60008     393.3964  0.025334647  0.025357678            3 
 1295000    1.0364794   -7.6271288    391.94522    0.0252217   0.02535112       -1e+20 
 1296000    1.0307491   -7.6421594    391.56684  0.025177909  0.025344517            1 
 1297000    1.0517567   -7.6521407    392.03077  0.025188304  0.025338068            2 
 1298000    1.0266253   -7.6190756    392.54324    0.0252018  0.025331668            2 
 1299000    1.0283079    -7.568138    394.54167  0.025310602   0.02532526            2 
 1300000    1.0373745   -7.5943288    393.27675  0.025210048  0.025318955            2 
 1301000    1.0528935   -7.6147052    394.34072  0.025258822  0.025312645            1 
 1302000    1.0279352   -7.6155254    393.87605   0.02520968  0.025306559            4 
 1303000    1.0336203   -7.6070901    395.18571  0.025274092  0.025300292            2 
 1304000    1.0394404   -7.6757712    393.97941   0.02517762   0.02529405            2 
 1305000    1.0043506   -7.6485765    394.99384  0.025223106  0.025287832            3 
 1306000    1.0512769   -7.6352263    395.45083  0.025232953  0.025281719            1 
 1307000    1.0671288   -7.6044312    396.32952  0.025269671  0.025275656            1 
 1308000    1.0721634   -7.6234133    396.48546  0.025260287  0.025269581            1 
 1309000    1.0464282   -7.6331659     395.9235  0.025205214   0.02526347            1 
 1310000    1.0564706   -7.6404264    395.23723  0.025142317  0.025257213            2 
 1311000    1.0433959   -7.6412895    395.65922  0.025149963  0.025250946            5 
 1312000    1.0306355   -7.6170736     397.2371  0.025231015  0.025244794            1 
 1313000    1.0529837   -7.6701027    395.65613  0.025111458  0.025238511            2 
 1314000    1.0486684   -7.6350498    397.07755  0.025182493  0.025232255            2 
 1315000    1.0440947   -7.6092642     396.0619  0.025098979   0.02522607            2 
 1316000    1.0242035   -7.6470086     396.0278  0.025077748  0.025219752            2 
 1317000    1.0326876   -7.6413274    397.89862  0.025177083  0.025213349            2 
 1318000    1.0650232   -7.5928347    397.53352  0.025134896  0.025207025            2 
 1319000    1.0316719   -7.6638188    396.86801  0.025073794  0.025200615            2 
 1320000    1.0352257   -7.5954725    398.77514  0.025175198  0.025194215            1 
 1321000    1.0325197   -7.6163855    398.67905  0.025150079  0.025187992            4 
 1322000    1.0363036   -7.6559572    398.16319  0.025098537  0.025181606            3 
 1323000    1.0234939   -7.6053127    399.96551  0.025193091  0.025175396            3 
 1324000     1.024421     -7.60967    399.23795   0.02512827  0.025169246            2 
 1325000    1.0679112   -7.6471927    399.30594  0.025113581   0.02516312            1 
 1326000    1.0368291   -7.6514764    399.53374  0.025108958  0.025157019            1 
 1327000    1.0540771   -7.6636753    398.35751  0.025016171  0.025150779            1 
 1328000    1.0508727   -7.6178202    400.54968  0.025134894  0.025144591            1 
 1329000    1.0486763   -7.6308623    399.59767  0.025056287  0.025138375            2 
 1330000    1.0464658   -7.6523774    400.32812  0.025083215  0.025132091            3 
 1331000    1.0285802   -7.6296704    399.72699  0.025026734  0.025125839            6 
 1332000    1.0471908   -7.6796449    400.22293  0.025038972  0.025119667            3 
 1333000    1.0425542   -7.6506251    400.37544  0.025029723  0.025113354            1 
 1334000    1.0368046   -7.6192719     401.3512  0.025071914  0.025107065            1 
 1335000    1.0468245   -7.6405337    400.39113  0.024993204  0.025100848            1 
 1336000    1.0304261   -7.6747218    400.73207  0.024995763  0.025094508            5 
 1337000    1.0361596   -7.6108483    402.32102  0.025076104  0.025088278            2 
 1338000    1.0291189   -7.6578622    401.43379  0.025002105  0.025082028            2 
 1339000    1.0323568   -7.6667524    401.59021  0.024993167  0.025075742            3 
 1340000     1.041028   -7.6440627     402.4997  0.025031076  0.025069453            1 
 1341000    1.0291353   -7.6678154    401.72931  0.024964536  0.025063209            2 
 1342000    1.0525769   -7.5897124    403.57646  0.025060635  0.025056941            1 
 1343000    1.0336559   -7.6553331    401.87731  0.024936542  0.025050648            2 
 1344000    1.0250667   -7.6754857    402.47835  0.024955255  0.025044459            2 
 1345000    1.0494378   -7.6163974    403.48506  0.024999074   0.02503821            1 
 1346000    1.0607534   -7.6365034     404.4379  0.025039494  0.025032111            3 
 1347000    1.0253339   -7.6494575     403.5338  0.024964971  0.025025875            1 
 1348000    1.0562906    -7.619027    404.68131  0.025017391  0.025019584            4 
 1349000    1.0317746    -7.606229    403.93097  0.024952494  0.025013374            2 
 1350000    1.0341866   -7.6390678    403.83856  0.024928306   0.02500713            1 
 1351000      1.04654    -7.667208    404.91288  0.024976121  0.025000913            2 
 1352000    1.0388226   -7.6254965    404.54127  0.024934743   0.02499473            3 
 1353000    1.0316135   -7.6271656    405.40555  0.024969546  0.024988714            1 
 1354000    1.0330267   -7.6561055    405.73634  0.024971464   0.02498267            2 
 1355000    1.0425527    -7.640312    406.09779  0.024975264  0.024976483            2 
 1356000     1.052719   -7.6554215    405.25877  0.024905283  0.024970132            4 
 1357000    1.0100918   -7.6696523    405.77694  0.024918751  0.024963836            1 
 1358000    1.0515223   -7.6580972     405.7428  0.024898306   0.02495765            1 
 1359000    1.0370944   -7.6738347    407.38994  0.024980987  0.024951529            2 
 1360000    1.0294504    -7.657114    405.98194  0.024876344  0.024945447            1 
 1361000    1.0416235   -7.6644858    405.98447  0.024858221  0.024939176            2 
 1362000    1.0209611   -7.6189292    406.76175  0.024887528  0.024932977            3 
 1363000    1.0272764   -7.6566247    405.98107  0.024821537  0.024926749            5 
 1364000    1.0344943   -7.6247853    407.54782   0.02489906  0.024920523            1 
 1365000    1.0563578   -7.6300396     407.0781  0.024852143  0.024914302            4 
 1366000    1.0322604   -7.6519735    407.42917  0.024855366  0.024908099            2 
 1367000    1.0282506   -7.6081399    407.75895  0.024857288  0.024901938            2 
 1368000    1.0385546   -7.6521355    407.72679  0.024837158  0.024895816            2 
 1369000    1.0382826   -7.6665762    407.31844  0.024794159  0.024889569            2 
 1370000    1.0347816   -7.6862912    407.73778  0.024801568  0.024883378            2 
 1371000    1.0405471   -7.6845705    409.04354  0.024862846  0.024877186            2 
 1372000    1.0378909   -7.6779463    408.66076  0.024821475  0.024870991            4 
 1373000    1.0429842   -7.6323513    409.55775  0.024857839  0.024864892            2 
 1374000    1.0258787   -7.6517705    409.34697  0.024826963  0.024858875            2 
 1375000    1.0350544   -7.6368472    410.06924  0.024852681  0.024852898            2 
 1376000    1.0375432   -7.6973557    408.62811  0.024747342  0.024846837            3 
 1377000    1.0174945     -7.63602    409.78978  0.024799672  0.024840805            1 
 1378000    1.0210416   -7.6432837     410.4943   0.02482428  0.024834672            2 
 1379000    1.0602548    -7.693409    409.61342  0.024753047  0.024828524            2 
 1380000    1.0275405   -7.6784528    411.65499  0.024858393  0.024822456            2 
 1381000    1.0133452    -7.647659    410.51348  0.024771511  0.024816268            2 
 1382000    1.0178207   -7.6894658    409.72887  0.024706275  0.024810017            1 
 1383000    1.0077506   -7.6471549    410.94969  0.024761972  0.024803763            3 
 1384000    1.0211039   -7.6225366    410.26455  0.024702827  0.024797516            2 
 1385000    1.0389196   -7.6275958    411.82128  0.024778657  0.024791358            3 
 1386000    1.0417386   -7.6490582    411.48357  0.024740474  0.024785222            2 
 1387000    1.0276663   -7.6811997    411.38535  0.024716736  0.024779047            2 
 1388000     1.042288   -7.6356852    411.32622  0.024695378  0.024772711            1 
 1389000    1.0419585   -7.6886925    411.09122    0.0246635    0.0247663            2 
 1390000    1.0289222   -7.6988213    410.49267  0.024609872  0.024760053            1 
 1391000    1.0299605    -7.603989    412.42415  0.024707893  0.024753831            2 
 1392000    1.0240027    -7.636001    413.35854  0.024746081  0.024747788            2 
 1393000     1.049326   -7.6228002    414.35739  0.024788071  0.024741652            3 
 1394000    1.0497856   -7.6230475    413.26619  0.024705057  0.024735562            3 
 1395000    1.0164914   -7.6938783    412.83873  0.024661812  0.024729318            2 
 1396000    1.0318656   -7.6468393    413.82246  0.024702869  0.024723118            2 
 1397000    1.0416259   -7.6474244    413.65702  0.024675317  0.024716948            2 
 1398000    1.0712117   -7.6820953    413.39803  0.024642229   0.02471072            4 
 1399000    1.0075662   -7.6608976     414.1406  0.024668847  0.024704668            3 
 1400000    1.0288884   -7.6642845    414.72617  0.024686082  0.024698663            4 
 1401000    1.0283798   -7.6636806    415.38362  0.024707567  0.024692503            1 
 1402000    1.0108227   -7.6433478    416.03208  0.024728488  0.024686443            5 
 1403000    1.0334005   -7.6627388    416.04928  0.024711884  0.024680435            2 
 1404000    1.0142127   -7.6772141    414.54383  0.024604928  0.024674389            2 
 1405000    0.9980486   -7.6699595    415.56214  0.024647813  0.024668265            1 
 1406000      1.03743   -7.6770595    416.64421  0.024694417  0.024662284            3 
 1407000    1.0308841   -7.6814776    416.22749  0.024652185  0.024656294            8 
 1408000    1.0123009   -7.6751515    415.99643  0.024621001  0.024650274            2 
 1409000    1.0247687   -7.6611429    416.63685  0.024641403  0.024644342            3 
 1410000    1.0266862   -7.6846501    417.28239   0.02466208  0.024638282            3 
 1411000    1.0546103   -7.6485504     416.9454  0.024624699  0.024632254            2 
 1412000    1.0314958    -7.706865    417.12873  0.024618079  0.024626257            2 
 1413000    1.0439279    -7.654544     417.1356  0.024601061    0.0246202            2 
 1414000    1.0229565   -7.6437052    417.14551  0.024584247   0.02461424            4 
 1415000    1.0401498    -7.648003    417.91331  0.024612091  0.024608207            4 
 1416000    1.0277823   -7.6530318    417.91379  0.024594738  0.024602251            1 
 1417000    1.0180174   -7.6956954    418.47894  0.024610617  0.024596263            3 
 1418000    1.0522668   -7.6875288      417.708  0.024547955  0.024590204            1 
 1419000    1.0171007   -7.6553168    419.16554  0.024616252   0.02458416            2 
 1420000    1.0121259   -7.6726225    417.71853  0.024513998  0.024578198            1 
 1421000    1.0279417   -7.6985404    420.40761  0.024654446  0.024572151            2 
 1422000    1.0267692   -7.6561449     417.8911  0.024489633  0.024565989            2 
 1423000    1.0126431   -7.6547679    418.94879  0.024534363  0.024559896            2 
 1424000    1.0197557   -7.6442538    420.31949  0.024597348  0.024553853            1 
 1425000   0.98826017   -7.6574661    419.37232  0.024524697   0.02454787            1 
 1426000    1.0316582   -7.7188482    418.36707  0.024448753  0.024541745            2 
 1427000    1.0093917   -7.6476021    418.76172  0.024454667  0.024535654            2 
 1428000    1.0084355   -7.6523777     419.1154  0.024458182  0.024529606            2 
 1429000    1.0379415   -7.6695321    420.70066  0.024533512  0.024523522            2 
 1430000    1.0240657   -7.7016512    419.84792  0.024466662  0.024517359            2 
 1431000    1.0088524   -7.7020192     418.9408  0.024396739  0.024511191            2 
 1432000    1.0065875   -7.6991231    420.24399  0.024455539  0.024504913            3 
 1433000   0.99956362    -7.690599    421.73445  0.024525148  0.024498704            3 
 1434000    1.0217449   -7.6831883    420.44908  0.024433349  0.024492619            3 
 1435000    1.0379261   -7.6680551     422.3876  0.024528897  0.024486459            2 
 1436000    1.0264791   -7.6605419    421.23645  0.024445012  0.024480438            1 
 1437000    1.0288823    -7.659086    421.69181  0.024454408  0.024474334            1 
 1438000    1.0241646   -7.7038803    421.73933  0.024440156  0.024468339            2 
 1439000    1.0209974   -7.7187111    421.51461  0.024410158   0.02446238            6 
 1440000   0.99838906   -7.6925169    423.52769  0.024509704  0.024456396            1 
 1441000    1.0148455   -7.7102979    422.71917  0.024445938  0.024450376            3 
 1442000    1.0325378   -7.6333713     423.9726  0.024501421  0.024444408            4 
 1443000    1.0182414   -7.6984913    422.39114  0.024393113  0.024438456            1 
 1444000    1.0251521   -7.6449007    423.31394  0.024429475  0.024432486            3 
 1445000    1.0550262   -7.6719723    424.49951  0.024480941  0.024426596            2 
 1446000    1.0285617   -7.6504844    423.59705  0.024412001  0.024420706            2 
 1447000    1.0290753   -7.6981061    423.33473  0.024380023  0.024414698            1 
 1448000    1.0232199    -7.683336    424.16905  0.024411202  0.024408843            2 
 1449000   0.98887781   -7.6722608    425.25301  0.024456695  0.024402849            3 
 1450000    1.0309666   -7.7243087    423.18915  0.024321216  0.024396803            3 
 1451000    1.0312522    -7.708003    424.97871  0.024407231  0.024390835            3 
 1452000    1.0164316   -7.6947206    425.42012  0.024415755  0.024384942            1 
 1453000    1.0155056   -7.6687985    426.95661  0.024487073  0.024379082            1 
 1454000    1.0266355   -7.6669549      425.965    0.0244134  0.024373354            6 
 1455000     1.038126   -7.6936833    425.67633  0.024380087  0.024367527            2 
 1456000    1.0364096   -7.7126501     426.2232  0.024394643  0.024361586            1 
 1457000    1.0138058   -7.7079391    426.47343  0.024392212  0.024355625            2 
 1458000     1.012253   -7.7299494    426.72767  0.024390013  0.024349838            3 
 1459000    1.0097368   -7.6870145    426.68496  0.024370857  0.024344108            2 
 1460000    1.0249437   -7.7228388    427.14693  0.024380532  0.024338435            1 
 1461000    1.0257244    -7.689519     428.0529   0.02441552  0.024332738            2 
 1462000    1.0235351   -7.7565353    426.40506  0.024304894  0.024326887            4 
 1463000    1.0087206   -7.6941251    428.86585  0.024428449  0.024321085            2 
 1464000    1.0111984   -7.6561338    429.40781  0.024442612  0.024315429            3 
 1465000    1.0051197    -7.712412    428.49705  0.024374121  0.024309718            1 
 1466000    1.0169082   -7.6872229     427.4012  0.024295202  0.024303958            2 
 1467000    1.0304702   -7.6607213     430.5944  0.024460032  0.024298234            3 
 1468000    1.0275215   -7.6975432    429.41669  0.024376515  0.024292508            1 
 1469000    1.0441611   -7.6694586    429.57935  0.024369148  0.024286718            2 
 1470000    1.0303778   -7.6949172    429.79297  0.024364681  0.024280983            2 
 1471000    1.0076726   -7.7225412    429.01555  0.024304076   0.02427509            5 
 1472000   0.98681469   -7.6828234    428.76064  0.024273134  0.024269153            1 
 1473000    1.0141483   -7.7078701    427.94624  0.024210582  0.024263174            2 
 1474000   0.99328548   -7.7126144    429.11899  0.024260458  0.024257327            2 
 1475000    1.0112299    -7.685128    429.29675  0.024254054  0.024251597            1 
 1476000    1.0059354   -7.7373174     429.9146  0.024272504  0.024245852            1 
 1477000    1.0292051   -7.7135808    430.55421  0.024292158  0.024240069            5 
 1478000    1.0264457    -7.702078    430.47097  0.024271029  0.024234375            2 
 1479000   0.99767756   -7.7045956    432.09183  0.024345945  0.024228701            2 
 1480000    1.0015073    -7.679767    431.39372  0.024290187  0.024222981            2 
 1481000    1.0021177    -7.717862    431.67943  0.024289862  0.024217242            2 
 1482000    1.0328511   -7.7123488    431.34579  0.024254712  0.024211437            2 
 1483000    1.0501888   -7.7115852    431.88348   0.02426857  0.024205561            1 
 1484000   0.99978237     -7.74032    431.10833  0.024208689  0.024199734            2 
 1485000    1.0034776   -7.7292092    432.18214  0.024252645  0.024194077            2 
 1486000    1.0060075   -7.7045097    434.09656  0.024343684  0.024188214            1 
 1487000    1.0257595   -7.6722487    433.83853  0.024312852  0.024182549            1 
 1488000    1.0163721   -7.7103935      431.695  0.024176467  0.024176949            4 
 1489000     1.019823   -7.7013373    432.44302  0.024202094  0.024171154            2 
 1490000    1.0350544   -7.7050733    432.35457  0.024180904  0.024165357            1 
 1491000    1.0265859   -7.7117012     433.1108  0.024206953  0.024159632            4 
 1492000   0.99244855   -7.6846922    434.05327  0.024243368  0.024153966            3 
 1493000    1.0211873   -7.6726834    433.98188  0.024223146   0.02414823            1 
 1494000    1.0077734   -7.6694922    435.19609  0.024274659   0.02414251            1 
 1495000    1.0144415   -7.6891556    434.55282  0.024222565  0.024136868            1 
 1496000    1.0190695    -7.717129    434.88977  0.024225143  0.024131145            2 
 1497000   0.98996405   -7.6867545     434.1915   0.02417009  0.024125413            2 
 1498000    1.0063305   -7.7233635    433.64709   0.02412367  0.024119603            2 
 1499000    1.0040676   -7.6965019    434.01983  0.024128299  0.024113821            1 
 1500000    1.0236065   -7.7078965    434.09701    0.0241165  0.024108012            3 
 1501000    1.0041785   -7.7441053    434.52675  0.024124292  0.024102234            2 
 1502000     1.004618   -7.7213966    434.34803  0.024098315  0.024096427            1 
 1503000     1.002429   -7.7646982    435.04801  0.024121092  0.024090525            3 
 1504000    1.0046903   -7.7525838    434.96579  0.024100498  0.024084577            2 
 1505000     1.033311   -7.7163253    435.89696  0.024136044  0.024078873            2 
 1506000    1.0304654   -7.7218294    435.52601  0.024099491  0.024073101            2 
 1507000    1.0084527   -7.7092396    435.77604  0.024097326   0.02406728            2 
 1508000    1.0061187   -7.7148948    435.55052  0.024068884   0.02406143            2 
 1509000   0.97068389   -7.6934803    437.26935  0.024147854  0.024055655            2 
 1510000    1.0166225   -7.7224741    437.26472  0.024131607  0.024049937            2 
 1511000    1.0067033   -7.7273656     436.5196  0.024074542  0.024044162            2 
 1512000    1.0054791   -7.6751718    437.76616  0.024127324  0.024038479            2 
 1513000    1.0245901   -7.6719137    438.34782  0.024143414  0.024032812            4 
 1514000    1.0309319   -7.7360095    437.44056   0.02407753  0.024027049            2 
 1515000    1.0262136   -7.6866039     437.5847  0.024069565  0.024021305            2 
 1516000    1.0195525   -7.7351129    437.73977  0.024062212  0.024015392            2 
 1517000   0.98972299    -7.712384    437.54761  0.024035795  0.024009414            2 
 1518000    1.0037256   -7.7322698    437.08791  0.023994725  0.024003526            2 
 1519000    1.0166932   -7.6926151    438.22437  0.024041275  0.023997602            5 
 1520000    1.0085255   -7.7365175    437.60311  0.023991399  0.023991676            1 
 1521000    1.0242804   -7.7431032    437.78532  0.023985608  0.023985728            3 
 1522000    0.9907597   -7.7159094    438.20893  0.023993042  0.023979739            1 
 1523000    1.0151419   -7.7214063    436.95546  0.023908703  0.023973753            1 
 1524000    1.0179506   -7.7423106    437.22767    0.0239079  0.023967679            2 
 1525000    1.0115869   -7.6836345    439.25691   0.02400311  0.023961631            2 
 1526000     1.007453   -7.7307626    438.41774  0.023941554  0.023955636            3 
 1527000   0.98958282   -7.7375727    437.74909  0.023889385  0.023949456            2 
 1528000    0.9915602   -7.7009428     438.5191  0.023915745  0.023943289            1 
 1529000    1.0262521   -7.7222101    437.82527  0.023862289  0.023937198            4 
 1530000    1.0181484   -7.7222169    437.87675  0.023849496  0.023931075            2 
 1531000    1.0002655   -7.7652097    438.04729  0.023843201  0.023924874            1 
 1532000    1.0128857   -7.7425523     438.3175  0.023842336  0.023918684            1 
 1533000     1.016338   -7.7278335     438.3665  0.023829447  0.023912587            1 
 1534000    1.0108383   -7.6680517    439.76678  0.023889982  0.023906445            1 
 1535000   0.99134752   -7.7093235     439.7417  0.023873056  0.023900395            2 
 1536000    0.9917432   -7.7699103    439.46323  0.023842406  0.023894282            5 
 1537000    1.0129483   -7.7457299    440.19685   0.02386667  0.023888033            2 
 1538000   0.99819616     -7.71566    439.25282  0.023800001  0.023881814            2 
 1539000    1.0004811   -7.7391706    441.70619  0.023917381  0.023875651            3 
 1540000    1.0125927   -7.7480262    439.47405  0.023781063   0.02386948            3 
 1541000    1.0102891   -7.7068267    442.11311  0.023908345  0.023863347            6 
 1542000    1.0045427   -7.7042309     443.1834  0.023950681  0.023857359            2 
 1543000    1.0066943   -7.7583838    441.40279  0.023838993  0.023851209            9 
 1544000    1.0284835   -7.7189292    441.77424  0.023843601  0.023845002            1 
 1545000    1.0138257   -7.6970298    441.00495  0.023786675   0.02383896            2 
 1546000   0.99343242   -7.7198535    440.99727  0.023770875  0.023832897            1 
 1547000    1.0233581   -7.7555898    440.68163  0.023738506  0.023826612            1 
 1548000    1.0082749   -7.7441979    441.42103  0.023762975  0.023820421            3 
 1549000   0.99778404   -7.7159566     441.8766  0.023772144  0.023814162            5 
 1550000     1.015597   -7.7768042    440.75701  0.023696613  0.023807815            4 
 1551000    1.0234626   -7.7590637    441.23342  0.023706932  0.023801376            2 
 1552000   0.99207537   -7.7615936    441.92185  0.023728622  0.023795103            2 
 1553000    1.0130466    -7.732888    441.59084  0.023695581  0.023788891            2 
 1554000    0.9924252   -7.7581551    440.61956  0.023628247  0.023782575            2 
 1555000    1.0123779   -7.7508008    442.16338  0.023695787  0.023776291            2 
 1556000    1.0026318   -7.7457091    442.14994  0.023679838  0.023769887            3 
 1557000   0.98353489   -7.7501315     441.3023  0.023619263  0.023763442            2 
 1558000   0.99506287   -7.7275723    442.48734  0.023667487  0.023757093            2 
 1559000    1.0345392   -7.7071995    443.28717  0.023695059  0.023750782            2 
 1560000    1.0101125   -7.7253053    443.16131  0.023673147  0.023744436            3 
 1561000    1.0018298   -7.7364432    443.23527   0.02366193  0.023738166            2 
 1562000   0.99494894   -7.6984613    443.57078  0.023664681   0.02373199            4 
 1563000    1.0057634   -7.7361333    443.72202  0.023657604  0.023725649            4 
 1564000   0.99359927   -7.7222707    443.23082  0.023616305  0.023719273            3 
 1565000    1.0078439    -7.752331    442.06661  0.023539223  0.023712922            1 
 1566000     1.030481   -7.7416086    443.16822  0.023582813  0.023706528            4 
 1567000   0.98612127   -7.7588135    443.07309  0.023562704  0.023700133            3 
 1568000   0.99740924   -7.7246786    443.40227  0.023565172   0.02369381            2 
 1569000    1.0096998   -7.7111538    444.85384  0.023627249  0.023687485            1 
 1570000   0.99235377    -7.705989      445.778  0.023661253  0.023681182            1 
 1571000    1.0038625   -7.7213337     444.6956  0.023588776  0.023674703            2 
 1572000    1.0169287   -7.7476775    444.96145  0.023587863   0.02366825            6 
 1573000    1.0058217   -7.7047851    445.29588  0.023590585   0.02366187            4 
 1574000    1.0037936   -7.7496576    446.34537  0.023631161  0.023655555            1 
 1575000    1.0338895   -7.7696039    444.64033  0.023525943   0.02364923            4 
 1576000    0.9806991   -7.8162178    444.39356  0.023497967  0.023642944            2 
 1577000    1.0026515   -7.7257199     445.9676  0.023566244  0.023636607            2 
 1578000    1.0090136   -7.6997364    448.27567  0.023673198  0.023630365            2 
 1579000    0.9715895   -7.7380066    447.10801  0.023596581  0.023624147            2 
 1580000   0.99411019   -7.7401863    446.57263  0.023553409  0.023617833            3 
 1581000   0.98418593   -7.7264169    447.90367  0.023608669  0.023611502            1 
 1582000    1.0211259    -7.736493    446.10159   0.02349882  0.023605174            1 
 1583000    1.0015516   -7.7298476    446.05446  0.023481494  0.023598848            4 
 1584000   0.99815189   -7.7375371    447.17952  0.023525858   0.02359246            1 
 1585000     1.006141   -7.7357893    446.58416  0.023479714  0.023585952            3 
 1586000   0.99753318   -7.7740328    445.35148  0.023400141  0.023579514            1 
 1587000    1.0087171   -7.7092521    447.50574  0.023498516  0.023573134            4 
 1588000    1.0089007   -7.7164383    447.99428  0.023509355  0.023566885            6 
 1589000   0.99723206   -7.7223391    448.65178  0.023529042  0.023560571            2 
 1590000    1.0120308   -7.7133792    448.30027  0.023495821  0.023554263            2 
 1591000   0.97218723   -7.7083368    448.88778  0.023511826  0.023547888            2 
 1592000    1.0111284   -7.7617043    448.64691  0.023484449   0.02354151            2 
 1593000   0.98192048   -7.7249301     449.2407  0.023500769  0.023535145            5 
 1594000   0.97940332   -7.7683592    447.93583  0.023417808  0.023528757            1 
 1595000   0.98576975   -7.7152847     449.9723  0.023509525  0.023522394            2 
 1596000   0.97912835    -7.723575    448.38809  0.023412076    0.0235161            1 
 1597000   0.97818958   -7.7355463    448.67674  0.023412479  0.023509785            2 
 1598000   0.98785277   -7.7311988    450.37062  0.023486161  0.023503455            5 
 1599000    1.0163408   -7.7673641    449.28392  0.023414839  0.023497195            3 
 1600000    0.9983711   -7.7443486    449.60566  0.023416962  0.023490775            4 
 1601000    1.0131015   -7.7425119    448.65534   0.02335287   0.02348454            1 
 1602000    0.9980165   -7.7233086    450.52962  0.023435789   0.02347827            1 
 1603000   0.98505517   -7.6982052    450.41317  0.023415116  0.023472035            7 
 1604000    0.9980245   -7.7288321    451.98904   0.02348239  0.023465827            1 
 1605000   0.98631824   -7.7286847    450.60615  0.023395958  0.023459543            3 
 1606000   0.98325021   -7.7545813    451.06905  0.023405409  0.023453264            4 
 1607000   0.98511417   -7.7235236    451.57099  0.023416873  0.023446914            1 
 1608000    1.0059377   -7.8123237    450.28665  0.023335751  0.023440592            4 
 1609000   0.97936329   -7.7768931    452.27306  0.023424128  0.023434282            3 
 1610000    1.0069638   -7.7395309    452.10163  0.023400705  0.023428074            2 
 1611000   0.99592169   -7.7929436    450.79232  0.023318452  0.023421783            1 
 1612000   0.98330151   -7.7620735    451.66462  0.023349081  0.023415519            1 
 1613000    1.0074243   -7.7732701    452.29427  0.023367135  0.023409247            2 
 1614000   0.99031547   -7.7573954    451.99837   0.02333738   0.02340297            1 
 1615000   0.99899574   -7.7690943    450.37851  0.023239345  0.023396619            1 
 1616000     1.007209   -7.7821198    452.17668  0.023317692   0.02339029            4 
 1617000    1.0107106   -7.7494014    452.33402   0.02331138  0.023383998            1 
 1618000    0.9963316   -7.7263443    452.17171  0.023288613  0.023377854            2 
 1619000     1.002356   -7.7507584    453.29027  0.023331803  0.023371549            1 
 1620000   0.98347785   -7.7719907    453.16241  0.023310824  0.023365174            2 
 1621000    0.9999773   -7.7578673    451.98812  0.023236075  0.023358897            2 
 1622000   0.99276923   -7.7663511    452.46213  0.023246102  0.023352621            2 
 1623000    1.0032698   -7.8019325    452.59486  0.023238594   0.02334626            2 
 1624000   0.99991423   -7.7959995    451.85049  0.023186088  0.023339864            2 
 1625000   0.99563972   -7.7516704    452.92801  0.023227077  0.023333407            1 
 1626000     1.004561   -7.7344646    453.97071  0.023266231  0.023326996            2 
 1627000   0.99131113   -7.7613335     452.0442  0.023153257  0.023320556            2 
 1628000   0.98422802   -7.7771175    452.79245  0.023177337  0.023314083            2 
 1629000    1.0021743   -7.7465087     455.7529  0.023314554  0.023307613            3 
 1630000   0.99589636   -7.7193955    454.90474  0.023256888  0.023301181            2 
 1631000    1.0027162   -7.7595947    454.05234  0.023199077  0.023294731            2 
 1632000   0.99403675   -7.7511138    454.73194  0.023219564  0.023288267            3 
 1633000   0.99233466   -7.7834469    453.29695  0.023132116  0.023281726            3 
 1634000   0.97956829   -7.7808113     451.6976  0.023036393  0.023275172            5 
 1635000   0.99075947   -7.7426694    454.91025  0.023186047  0.023268693            1 
 1636000   0.97857995   -7.7659429    454.35245  0.023143462  0.023262218            3 
 1637000   0.96314072   -7.7910292    453.47847  0.023084834  0.023255628            2 
 1638000   0.99548887     -7.77835    454.15042  0.023104926  0.023249025            2 
 1639000   0.99904593   -7.7632839    453.99495  0.023082924  0.023242439            1 
 1640000   0.98738502   -7.7385823    455.52705    0.0231467   0.02323601            2 
 1641000   0.99340281   -7.7621607    453.06453  0.023007543  0.023229448            5 
 1642000    0.9665816   -7.7303539    454.94411  0.023088922  0.023222951            1 
 1643000    0.9923494   -7.7804959    455.07024  0.023081266  0.023216411            2 
 1644000   0.97508584   -7.7903686    454.86741  0.023056945  0.023209785            5 
 1645000   0.99169981   -7.7436275    455.07553  0.023053472  0.023203173            2 
 1646000   0.98705802   -7.7597373    455.80157  0.023076224   0.02319652            1 
 1647000   0.98517841   -7.7839584    455.36726  0.023040238  0.023189883            3 
 1648000   0.98324494   -7.7854283    456.13256  0.023064955  0.023183252            1 
 1649000   0.99468264   -7.7337163    456.79382  0.023084385  0.023176695            3 
 1650000   0.98584756   -7.7968077    455.74198  0.023017272  0.023170069            1 
 1651000   0.98670888   -7.6970383    457.10432  0.023072094  0.023163462            2 
 1652000   0.97377669   -7.7676176    457.44604  0.023075365  0.023156942            1 
 1653000   0.98516811   -7.7703755    457.14763  0.023046362  0.023150399            2 
 1654000   0.97443686   -7.7555188    458.76559  0.023113946  0.023143864            3 
 1655000   0.98545386   -7.7868781    456.12744  0.022967142  0.023137272            3 
 1656000   0.98139553   -7.7963347    455.08824  0.022900978  0.023130632            6 
 1657000   0.97933168   -7.7774006    457.15094  0.022990894  0.023124022            1 
 1658000   0.97687401   -7.7692567    458.35187  0.023037388  0.023117439            3 
 1659000   0.98685899   -7.7672301    458.44639   0.02302825  0.023110953            1 
 1660000   0.99433957   -7.7609882    457.81501  0.022982681  0.023104318            1 
 1661000   0.99368214   -7.7433596    458.20785  0.022988553  0.023097809            5 
 1662000   0.98050211    -7.752958    457.52133  0.022940299    0.0230914            2 
 1663000   0.98787128   -7.7879891    458.40735  0.022970903   0.02308491            3 
 1664000    1.0090131   -7.7816408    458.78217   0.02297587  0.023078337            8 
 1665000   0.98095341   -7.7711254    459.40586  0.022993286  0.023071792            2 
 1666000   0.96887754   -7.8001525    458.23904  0.022921121  0.023065281            3 
 1667000   0.98450584   -7.8037004    458.74651  0.022932739  0.023058843            3 
 1668000   0.96859272   -7.7401016    459.37833  0.022950556  0.023052328            2 
 1669000   0.97823823   -7.7933993    461.05047  0.023020295  0.023045802            1 
 1670000    1.0021111   -7.7838801    460.49137  0.022978611  0.023039368            6 
 1671000    0.9622554   -7.7856294    460.92296  0.022986384  0.023032895            4 
 1672000   0.99111912   -7.8084223    459.41453  0.022897455  0.023026342            1 
 1673000   0.99438843   -7.8023772    460.14644  0.022920225  0.023019762            1 
 1674000   0.99776116   -7.8062206     459.0953  0.022854206  0.023013187            1 
 1675000    1.0040703    -7.774841    460.48879   0.02290989  0.023006632            1 
 1676000   0.96724304   -7.8149056    458.45583  0.022795139  0.023000014            2 
 1677000    0.9915849   -7.8249703    458.68307  0.022792838  0.022993367            4 
 1678000   0.97745202   -7.8426181    458.85827  0.022787956  0.022986613            1 
 1679000   0.98020077   -7.7808063    459.63734   0.02281305  0.022979862            4 
 1680000   0.98535162   -7.7859102    459.82438  0.022808749  0.022973271            3 
 1681000    1.0065941   -7.7630339    459.89406  0.022798635  0.022966624            3 
 1682000   0.99994998   -7.8062285    459.15754   0.02274859  0.022959944            4 
 1683000   0.96842443   -7.7745017    460.27802  0.022790554  0.022953299            1 
 1684000   0.98188985   -7.8005473    460.76152  0.022800946  0.022946727            2 
 1685000    1.0011994   -7.7641129    462.21146  0.022859123  0.022940186            4 
 1686000   0.98768503   -7.7646338    461.24717  0.022797903  0.022933612            2 
 1687000   0.95990861   -7.7850396      461.354  0.022789666  0.022926959            3 
 1688000    1.0022253   -7.7697104    461.59086  0.022787858  0.022920286            5 
 1689000   0.98274126   -7.7662692    461.76263  0.022782841  0.022913601            2 
 1690000   0.98124781   -7.7904498    462.28366  0.022795052  0.022906996            3 
 1691000   0.99305494   -7.7463181    463.08352  0.022820989  0.022900433            1 
 1692000   0.96893662   -7.8050837    461.66569  0.022737672  0.022893793            3 
 1693000   0.97213709   -7.7962216    462.25413  0.022753206   0.02288712            4 
 1694000    0.9815992    -7.773638    462.27792  0.022740945  0.022880488            1 
 1695000   0.99360858   -7.8222254    461.29721  0.022679312  0.022873909            5 
 1696000   0.98369053   -7.7706663    463.85048  0.022791395  0.022867303            1 
 1697000    1.0127375   -7.7567005    464.17014  0.022793663  0.022860748            2 
 1698000   0.98947385   -7.7799635    463.30359   0.02273771  0.022854268            4 
 1699000   0.98606237   -7.7904856    462.85048  0.022702103  0.022847659            1 
 1700000    0.9999107    -7.773996    463.40448  0.022715906  0.022841056            2 
 1701000    0.9911968   -7.8019301     462.5536  0.022660866  0.022834389            2 
 1702000   0.97814274   -7.7712226    462.83312  0.022661238  0.022827694            2 
 1703000   0.97532924     -7.77771    463.66844  0.022688806  0.022821051            2 
 1704000   0.97172334   -7.7935951    462.18211  0.022602803  0.022814303            5 
 1705000   0.99804842   -7.7823025     463.4707  0.022652527  0.022807649            1 
 1706000   0.98682848   -7.7723455    463.50911  0.022641125  0.022800958            5 
 1707000   0.97089011   -7.8087269     464.7494  0.022688411  0.022794241            2 
 1708000   0.98617154   -7.8058054    464.19341     0.022648  0.022787441            2 
 1709000   0.98639845   -7.8406917    461.88536  0.022522204  0.022780611            4 
 1710000   0.99548656   -7.8194616    462.28394  0.022528457  0.022773739            2 
 1711000   0.97069446   -7.8412707     463.8699  0.022592534  0.022766915            1 
 1712000   0.96405183   -7.8176222    463.47756  0.022560239  0.022760136            2 
 1713000   0.98647032   -7.7772926    465.03335  0.022622755  0.022753384            2 
 1714000   0.96438171   -7.8070769    464.20484  0.022569275  0.022746612            3 
 1715000   0.97246139   -7.8194233    464.02872  0.022547557  0.022739777            1 
 1716000   0.97456662   -7.8001266    465.24016  0.022593248  0.022732974            1 
 1717000   0.99737343   -7.7929416    466.48978  0.022640739  0.022726163            2 
 1718000   0.98372075   -7.7863639    465.59548  0.022584181  0.022719373            3 
 1719000   0.98254977    -7.806535    464.16625  0.022501757  0.022712608            3 
 1720000   0.98972291   -7.8281036     463.7658  0.022469273    0.0227058            3 
 1721000   0.97671244   -7.7639087    465.12607  0.022522084  0.022698988            2 
 1722000   0.98053266   -7.7972121    465.63908  0.022533831  0.022692165            3 
 1723000    0.9704556   -7.7964825    464.72288   0.02247644  0.022685258            2 
 1724000   0.96373246   -7.8326908    463.59645  0.022408954    0.0226783            2 
 1725000   0.97391021   -7.8497067    463.30295  0.022381785  0.022671196            4 
 1726000   0.97873306   -7.8080251    463.80754   0.02239318  0.022664072            2 
 1727000   0.97622841    -7.823727    464.32387  0.022405128  0.022656985            5 
 1728000   0.98535685   -7.7788182    464.97802  0.022423709  0.022649959            3 
 1729000    0.9853839   -7.8008673    464.20142  0.022373309  0.022642875            1 
 1730000   0.97286066   -7.8173174    463.83511  0.022342732  0.022635802            4 
 1731000    0.9710243   -7.7794276    465.36695   0.02240357  0.022628732            1 
 1732000   0.97160438   -7.7813116     466.0137  0.022421752  0.022621744            2 
 1733000   0.98612426   -7.7632443    465.49798  0.022384015  0.022614855            2 
 1734000   0.98922276   -7.8435864     464.1954  0.022308507  0.022607854            1 
 1735000   0.97284065   -7.8555739    464.67459  0.022318664  0.022600824            4 
 1736000   0.96616859   -7.8042064    466.69614  0.022402848  0.022593824            4 
 1737000   0.96713349   -7.7879944    466.73171  0.022391658  0.022586867            2 
 1738000   0.96968154   -7.7687384    467.18788  0.022400647  0.022579995            2 
 1739000   0.99543103   -7.8125102    465.96426  0.022329129  0.022573102            3 
 1740000   0.98060638   -7.8227788    466.00001  0.022318008  0.022566181            2 
 1741000   0.96042453   -7.7876416     466.5181  0.022329988  0.022559282            2 
 1742000   0.98399678   -7.8131201    465.53342  0.022270064  0.022552275            3 
 1743000   0.96167316   -7.8482919    466.74886  0.022315398  0.022545208            3 
 1744000   0.96597021   -7.7905224    467.44346  0.022335792  0.022538179            8 
 1745000   0.97990063   -7.8415358     467.2956  0.022315931  0.022531168            1 
 1746000   0.94294836   -7.8341595    466.64286  0.022271996  0.022524216            2 
 1747000   0.98516481   -7.8287839    468.12085  0.022329749  0.022517281            2 
 1748000   0.97310224   -7.8122554    468.30411  0.022325711  0.022510353            2 
 1749000   0.98077775   -7.8153389    468.55238  0.022324775  0.022503503            1 
 1750000   0.98881191   -7.8227711    469.18995  0.022342378  0.022496705            2 
 1751000   0.95639481   -7.8092748     469.3138  0.022335513  0.022489869            2 
 1752000   0.97067354   -7.8155229    467.46722  0.022234932  0.022482945            1 
 1753000   0.98595792   -7.8055864    468.46232  0.022269553  0.022476057            3 
 1754000    0.9712783    -7.860296    466.33523  0.022155798  0.022469092            2 
 1755000   0.96811149   -7.8273302    468.44024  0.022243126  0.022462005            9 
 1756000   0.93893515    -7.807201    467.53984   0.02218773  0.022455009            3 
 1757000   0.99368749   -7.8151522    467.18332  0.022158192  0.022447989            3 
 1758000    0.9835726   -7.8316276    467.14362  0.022143706  0.022440924            1 
 1759000   0.97125105   -7.8175864    468.40546  0.022190897  0.022433776            3 
 1760000   0.97812929   -7.7985768    468.95402  0.022204262   0.02242666            2 
 1761000   0.95643761   -7.7902052    469.23451  0.022204926  0.022419597            2 
 1762000   0.97201761   -7.8499524    468.05577  0.022136576  0.022412524            1 
 1763000   0.95543527    -7.829403    468.48444  0.022144282  0.022405522            3 
 1764000   0.96761044   -7.8116279    469.22622  0.022166772  0.022398548            2 
 1765000   0.96232712   -7.8186801    470.36522   0.02220799  0.022391496            2 
 1766000   0.93866416   -7.8283261     469.4537  0.022152402  0.022384516            2 
 1767000   0.95520061   -7.8457709    469.37107  0.022135968  0.022377578            2 
 1768000   0.96292681   -7.8520729    469.35451  0.022122667  0.022370651            1 
 1769000     0.945137   -7.7754438    471.73711    0.0222224   0.02236377            2 
 1770000    1.0051692   -7.7752854     472.2391  0.022233479  0.022356907            2 
 1771000   0.94598391   -7.8065033    472.69533  0.022242393  0.022350072            2 
 1772000   0.95570538   -7.8306861    470.81821  0.022141564   0.02234316            3 
 1773000   0.96637807   -7.8124603    471.37749  0.022155362  0.022336317            2 
 1774000   0.96597282   -7.8638494    469.79467  0.022068521   0.02232943            3 
 1775000   0.99278209   -7.8166138    470.49965  0.022089186  0.022322528            2 
 1776000    0.9840453   -7.8426885    472.30569  0.022161491  0.022315593            1 
 1777000   0.95898841   -7.7932166    472.95861  0.022179638  0.022308742            1 
 1778000    0.9701881   -7.7824043    472.87317   0.02216316  0.022301993            4 
 1779000   0.96938606   -7.8289227    472.40544  0.022128791  0.022295152            1 
 1780000   0.96875379   -7.7886059    471.53739  0.022075721  0.022288296            3 
 1781000   0.94510453   -7.8131638    473.59547  0.022159623  0.022281564            2 
 1782000   0.96530751   -7.8626225    471.07416  0.022029282  0.022274763            2 
 1783000   0.94721162   -7.8382775    472.15665   0.02206752  0.022268043            2 
 1784000    0.9632801   -7.8413301    474.01945  0.022142164  0.022261364            1 
 1785000   0.99135775   -7.8354459    473.13219  0.022088338  0.022254697            3 
 1786000   0.95971001    -7.810211    473.29481  0.022083558  0.022247989            3 
 1787000   0.97988472   -7.8598939    474.28781  0.022117506  0.022241251            3 
 1788000   0.95841244    -7.824567    472.30753  0.022012842  0.022234509            2 
 1789000   0.95466358   -7.8453317    473.62777  0.022062035   0.02222779            3 
 1790000   0.95962682   -7.8154417    473.06552  0.022023535  0.022221036            3 
 1791000   0.97206408   -7.8098176    474.78551  0.022091267  0.022214386            2 
 1792000   0.94369728   -7.8224447     473.7228   0.02202952  0.022207711            5 
 1793000   0.96163185   -7.8827186    474.08006  0.022033838  0.022200975            3 
 1794000   0.97045739   -7.8242199    473.40458  0.021990179  0.022194233            3 
 1795000   0.96308933   -7.8321096    476.04867  0.022100681  0.022187579            2 
 1796000   0.95740526   -7.8196109    476.72882  0.022119934  0.022180937            1 
 1797000    0.9653375   -7.7967361    475.89701  0.022069051  0.022174261            1 
 1798000   0.96754152   -7.8015336    476.34248  0.022077423  0.022167616            2 
 1799000   0.95125582    -7.852995    475.10626  0.022007887  0.022161007            1 
 1800000   0.97504295   -7.8589054    476.25335  0.022048766   0.02215436            3 
 1801000   0.95900941   -7.8572858    475.38683  0.021996429  0.022147639            3 
 1802000   0.96123369   -7.8875557    474.57074  0.021946483  0.022140915            2 
 1803000   0.96275632   -7.8540223    476.16531   0.02200801  0.022134255            2 
 1804000   0.96476625   -7.8362558    476.45362  0.022009129  0.022127575            3 
 1805000   0.95628753   -7.8389411    476.49528  0.021998859  0.022120867            2 
 1806000   0.94581958     -7.79149    478.13109  0.022062158  0.022114281            2 
 1807000   0.97342098   -7.7935392    477.21967  0.022007917  0.022107763            3 
 1808000   0.97202254   -7.8457522    477.15447  0.021992739   0.02210119            2 
 1809000    0.9710174   -7.8303398    477.05777  0.021976127  0.022094592            2 
 1810000   0.97808805   -7.8379633     477.9613  0.022005585  0.022088023            1 
 1811000    0.9815714   -7.8691883    478.08003  0.021998897  0.022081384            3 
 1812000   0.98005413   -7.8544632    476.98384  0.021936343  0.022074744            2 
 1813000   0.94796677   -7.8595115     476.9286  0.021921704   0.02206809            2 
 1814000   0.98360067   -7.8669706    477.16117  0.021920304  0.022061496            6 
 1815000   0.98095561    -7.839129    478.47523   0.02196856  0.022054907            1 
 1816000   0.95376551   -7.8419366     478.7811  0.021970498  0.022048302            5 
 1817000   0.96380326   -7.8403736    479.05799  0.021971106  0.022041815            2 
 1818000   0.98166983   -7.8103391    478.70726  0.021942944  0.022035258            1 
 1819000   0.96616356   -7.8062745    478.50224  0.021921488  0.022028648            2 
 1820000   0.97346487   -7.8351587    477.69118  0.021872307  0.022022013            2 
 1821000   0.96865063   -7.8543067    478.95934   0.02191833  0.022015338            3 
 1822000   0.95773946   -7.8601641    479.67732  0.021939138  0.022008625            1 
 1823000   0.97160066   -7.8561909    478.02961  0.021851783  0.022001955            1 
 1824000    0.9538277   -7.8461074    478.57409  0.021864679  0.021995283            2 
 1825000   0.94297729   -7.8547076    479.25614  0.021883842  0.021988635            3 
 1826000   0.94003243   -7.8781917    478.12576   0.02182027  0.021981989            1 
 1827000   0.97393045   -7.8714242    478.66439  0.021832895  0.021975324            3 
 1828000   0.95604859   -7.8724781    480.50399  0.021904814  0.021968755            3 
 1829000   0.96188235   -7.8825258     479.3634  0.021840869  0.021962225            3 
 1830000   0.96611285   -7.8521966    478.61138   0.02179469  0.021955679            1 
 1831000   0.96553813   -7.8468834    479.99495  0.021845756  0.021949099            3 
 1832000   0.97124221   -7.8478849    479.89643   0.02182935  0.021942521            2 
 1833000    0.9600287   -7.8331765    480.77435  0.021857353  0.021936059            2 
 1834000    0.9836537   -7.8836706    479.25448  0.021776376  0.021929476            3 
 1835000   0.96787983   -7.8580188    480.09045  0.021802473  0.021922939            4 
 1836000   0.96384243   -7.8399034     481.8498  0.021870452  0.021916452            2 
 1837000   0.96930637   -7.8183797    481.57221  0.021845954  0.021909977            3 
 1838000   0.98039811   -7.8503858    480.69778  0.021794422  0.021903476            2 
 1839000   0.95294085   -7.8838742    480.77528  0.021786083  0.021896896            2 
 1840000   0.94913457   -7.8496309    480.87411  0.021778719   0.02189034            3 
 1841000   0.96492657   -7.8673871    481.14014  0.021778931  0.021883744            1 
 1842000   0.94916461   -7.8529106    481.83036  0.021798334  0.021877196            2 
 1843000   0.97081265   -7.9053213    480.45554  0.021724342  0.021870668            3 
 1844000   0.97331896   -7.8714615     482.1801  0.021790496  0.021864147            3 
 1845000   0.94440886   -7.8650242    481.85297   0.02176391  0.021857648            3 
 1846000   0.95842721   -7.8246454     481.4369  0.021733338  0.021851148            3 
 1847000   0.93850385   -7.8341347    481.26602  0.021713861  0.021844623            2 
 1848000   0.94522089   -7.8492107    481.56714   0.02171569  0.021838107            2 
 1849000   0.97667026   -7.8616905    483.04677  0.021770631  0.021831608            1 
 1850000   0.94732961   -7.8679343    483.17145   0.02176448   0.02182509            3 
 1851000    0.9707371   -7.8679434    481.69613  0.021686302  0.021818572            2 
 1852000   0.95105043   -7.8606494    483.02858  0.021734547  0.021812041            3 
 1853000   0.93643923   -7.8496043    483.27833   0.02173405  0.021805547            3 
 1854000   0.94429973   -7.8280998    483.76752  0.021744315  0.021799103            2 
 1855000   0.94186369   -7.8428303    483.78688  0.021733463  0.021792596            2 
 1856000   0.95461401   -7.8760551    482.47621  0.021662904   0.02178608            4 
 1857000   0.96148431   -7.8752876    482.89316   0.02166995  0.021779544            2 
 1858000   0.95797971   -7.8787684    483.17715  0.021671024   0.02177297            2 
 1859000   0.95693793   -7.8873017    484.22667  0.021706414  0.021766415            3 
 1860000   0.96189561   -7.9036638    483.21228  0.021649296  0.021759851            1 
 1861000   0.94787775   -7.8741421    482.76967  0.021617843   0.02175327            3 
 1862000   0.97427316   -7.8690146    484.41694  0.021679956  0.021746658            4 
 1863000   0.94364585   -7.8623262    484.05961  0.021652335  0.021740097            2 
 1864000   0.94532512   -7.9023168    485.56502  0.021708021   0.02173347            1 
 1865000   0.96318592   -7.8570927    484.52393  0.021649863  0.021726846            2 
 1866000   0.94795461   -7.8516402     484.7767  0.021649549  0.021720338            4 
 1867000   0.97503007   -7.8777993    484.88065  0.021642593  0.021713942            2 
 1868000   0.94420247   -7.8566502    486.53316  0.021704727  0.021707427            2 
 1869000   0.96662473   -7.8862193    484.17433  0.021587941  0.021700971            3 
 1870000   0.94473825   -7.8584194    483.90523  0.021564404  0.021694494            1 
 1871000    0.9522506   -7.8764849     483.6002  0.021539293  0.021688029            2 
 1872000   0.94983551    -7.837723    485.80127  0.021625769  0.021681606            4 
 1873000   0.95807331   -7.8563096    484.96741  0.021577123   0.02167506            2 
 1874000    0.9675661   -7.8708619    485.38165  0.021584029  0.021668523            3 
 1875000   0.96071415   -7.8645564    485.82059  0.021592026  0.021661995            2 
 1876000   0.94671982   -7.8712005    484.60746  0.021526629  0.021655509            3 
 1877000   0.97657277   -7.8519281     486.5415  0.021601026  0.021649074            2 
 1878000   0.96237947    -7.840138    487.18824  0.021618222  0.021642679            2 
 1879000   0.95289212   -7.8705402    486.96362  0.021596755  0.021636191            4 
 1880000   0.93503731   -7.8507991    486.85415  0.021580414  0.021629698            4 
 1881000   0.95254548   -7.8295058    486.59872  0.021557626  0.021623214            4 
 1882000   0.93778371   -7.8481498    487.94503  0.021605784  0.021616722            2 
 1883000   0.95073897   -7.8902135    485.87365   0.02150264  0.021610244            4 
 1884000   0.96493893   -7.8291899    487.18584  0.021549267   0.02160383            1 
 1885000   0.95042342   -7.8731271    486.99737  0.021529503  0.021597337            2 
 1886000   0.96912058   -7.8579239    487.94632  0.021560018  0.021590886            1 
 1887000   0.93555765   -7.8729485    487.61953  0.021534161  0.021584424            4 
 1888000   0.94151622   -7.8760179    487.39552  0.021512867  0.021578017            2 
 1889000   0.95671162   -7.8235717    489.14162  0.021578508  0.021571626            2 
 1890000   0.96474511    -7.850488    487.23002  0.021482805  0.021565249            2 
 1891000   0.93438173   -7.8900478    487.28854  0.021474023  0.021558748            2 
 1892000   0.95844187    -7.835645    488.63731   0.02152208  0.021552294            2 
 1893000   0.93971325   -7.8710924    489.29546  0.021539684   0.02154586            1 
 1894000    0.9450213   -7.8927365     488.2792  0.021483597  0.021539398            3 
 1895000   0.94886469   -7.8596915    487.31323  0.021429782  0.021532964            2 
 1896000   0.96829651   -7.8954552    488.68534  0.021478786  0.021526502            3 
 1897000   0.95400334   -7.8996722    488.77988  0.021471617  0.021520014            5 
 1898000   0.95090701    -7.864104    489.32023  0.021484028  0.021513576            2 
 1899000   0.92466663   -7.8583239    489.20733   0.02146776  0.021507138            1 
 1900000   0.95918929   -7.8699075     489.5162  0.021470009  0.021500751            2 
 1901000   0.94081049   -7.8780578    487.86256  0.021386225  0.021494338            2 
 1902000    0.9493241   -7.8524492    489.84993  0.021462054  0.021487853            3 
 1903000   0.94615647   -7.8943693    489.99529  0.021457142  0.021481375            1 
 1904000   0.92750954    -7.877717    488.08839  0.021362412  0.021474885            4 
 1905000   0.93813889   -7.8847191    489.31443  0.021404831  0.021468368            3 
 1906000   0.92205953   -7.8820246    489.27448  0.021391854  0.021461869            2 
 1907000   0.94436959   -7.8659888    490.60481   0.02143877  0.021455386            1 
 1908000   0.93037113   -7.8723971    489.50308  0.021379415  0.021448941            2 
 1909000   0.97125541   -7.8764829    487.92587  0.021299366  0.021442441            2 
 1910000   0.94696943   -7.8719297    490.62416  0.021405941  0.021436008            1 
 1911000   0.93301712   -7.8702916    491.11274  0.021416045  0.021429588            1 
 1912000   0.91958133   -7.8687758    491.02533  0.021401034  0.021423252            4 
 1913000   0.94537467   -7.8948639    490.33657  0.021359843  0.021416863            2 
 1914000   0.94251067   -7.8917338    490.69239  0.021364176  0.021410487            2 
 1915000   0.94666311   -7.8947354    489.86019  0.021316806  0.021404073            5 
 1916000   0.95265487   -7.8976241    490.59554  0.021337662   0.02139764            2 
 1917000    0.9627768   -7.9279801    488.53959  0.021237158  0.021391188            2 
 1918000    0.9505058   -7.8806656    491.44739  0.021352424   0.02138471            1 
 1919000   0.92216365    -7.923518    490.89422  0.021317276  0.021378255            1 
 1920000   0.93599846   -7.8941556    491.12934  0.021316378  0.021371794            2 
 1921000   0.92761284   -7.8678703    491.72471  0.021331109  0.021365379            2 
 1922000   0.94946992   -7.9197707    492.36843   0.02134792   0.02135903            4 
 1923000   0.94557551   -7.8865281    492.30221  0.021333949  0.021352617            2 
 1924000   0.94074288   -7.8860369    490.62531   0.02125023  0.021346142            3 
 1925000    0.9362059    -7.897262    491.44326    0.0212746  0.021339642            2 
 1926000   0.95579291   -7.8911319    490.61789  0.021227842  0.021333166            1 
 1927000   0.92414913   -7.8955777    491.05795  0.021235857  0.021326666            2 
 1928000     0.946949   -7.8556754     492.6045  0.021291688  0.021320198            2 
 1929000   0.90465666   -7.9061742    491.32466  0.021225361  0.021313734            5 
 1930000    0.9464192   -7.8718982    490.99515  0.021200136  0.021307228            2 
 1931000   0.93936224   -7.9005144    492.42222  0.021250743  0.021300798            3 
 1932000   0.96449877   -7.8735608    493.77642  0.021298155  0.021294425            3 
 1933000   0.95424272   -7.8881867    492.65516  0.021238798  0.021288127            6 
 1934000   0.93621022   -7.8668999    494.24656  0.021296387  0.021281799            5 
 1935000   0.94688849   -7.9122578    492.55295  0.021212444  0.021275454            1 
 1936000   0.93680898   -7.8656984    494.13451  0.021269564  0.021269053            7 
 1937000   0.94428226   -7.9023234    493.95857  0.021251014  0.021262692            2 
 1938000   0.95697976   -7.8856784    493.43095  0.021217361  0.021256313            1 
 1939000   0.93083016   -7.8609787    494.14997  0.021237321  0.021249993            2 
 1940000   0.94491362   -7.8988156    494.26924  0.021231496  0.021243652            3 
 1941000   0.93255031   -7.9242536    494.12793  0.021214491  0.021237338            3 
 1942000     0.938553   -7.9314098    493.07787  0.021158508  0.021230955            2 
 1943000   0.92969723   -7.9257608    493.80481  0.021178796  0.021224559            2 
 1944000   0.95106397   -7.8802044    494.17798  0.021183898  0.021218202            1 
 1945000   0.92999657   -7.8740219    495.40711  0.021225669   0.02121186            2 
 1946000   0.93750201   -7.8918856    495.12426  0.021202649  0.021205578            2 
 1947000   0.94747107   -7.8621087     496.4004  0.021246379  0.021199329            3 
 1948000   0.96662575   -7.9063923    495.32001  0.021189254  0.021193052            2 
 1949000   0.94033392   -7.9174759    496.23018  0.021217299  0.021186731            3 
 1950000   0.91598289   -7.8882136    496.42792  0.021214868  0.021180423            3 
 1951000   0.93549469   -7.8986994    496.44629  0.021204779  0.021174086            3 
 1952000   0.94498154   -7.9482006    496.63883  0.021202136  0.021167763            2 
 1953000   0.93370354    -7.905585    495.51709  0.021143416  0.021161504            1 
 1954000   0.93902329   -7.8928088    497.28068  0.021207808  0.021155228            3 
 1955000   0.95951883   -7.8961376     496.0368  0.021143939  0.021149012            2 
 1956000   0.93034682   -7.8420489    498.42001  0.021234663  0.021142837            4 
 1957000   0.95039298   -7.8981285    497.49158  0.021184278  0.021136714            1 
 1958000   0.92477436   -7.8637327    497.75285  0.021184578  0.021130517            2 
 1959000   0.94552172   -7.8818592    498.38691  0.021200736  0.021124335            6 
 1960000   0.94705896   -7.8988185    497.22576  0.021140551  0.021118077            5 
 1961000   0.94759098   -7.9355263    496.41364  0.021095259  0.021111779            3 
 1962000   0.93129106    -7.897605     497.6756  0.021138107  0.021105459            5 
 1963000   0.92623163   -7.8955003    496.81382  0.021090755  0.021099128            3 
 1964000   0.93277388   -7.9025809    495.44649     0.021022  0.021092789            3 
 1965000   0.94983728   -7.8919565    497.34003  0.021091604  0.021086469            7 
 1966000   0.96252461   -7.9122344    497.44601  0.021085369   0.02108011            2 
 1967000   0.96110698   -7.9115022    496.45622  0.021032716  0.021073769            2 
 1968000   0.92189775   -7.9136457    497.14888  0.021051358  0.021067415            3 
 1969000   0.93577148   -7.8704857    499.85195  0.021155068   0.02106116            2 
 1970000   0.93128849   -7.8908328    497.66168  0.021051679  0.021054912            2 
 1971000   0.94351467   -7.8990014    498.10451   0.02105972  0.021048639            3 
 1972000   0.93521276   -7.8888152      498.672  0.021073022  0.021042379            1 
 1973000   0.93980584   -7.9089603    497.36748  0.021007243  0.021036134            2 
 1974000    0.9456305    -7.917772    497.88336  0.021018379  0.021029817            2 
 1975000   0.93251191   -7.9462872    497.54319  0.020993383  0.021023506            1 
 1976000   0.95360026   -7.8769893     498.5672  0.021025944  0.021017271            2 
 1977000   0.91873139   -7.8815195    499.62328  0.021059825  0.021011033            3 
 1978000   0.95158878   -7.8717399    499.17138  0.021030139  0.021004789            3 
 1979000   0.93108616   -7.8857668    498.68142  0.020998881  0.020998544            1 
 1980000   0.93558948   -7.8964595    499.31238  0.021014831  0.020992281            4 
 1981000   0.94106418   -7.8868171    499.94019  0.021030632  0.020986071            3 
 1982000    0.9104736   -7.9267917    498.44175  0.020957019  0.020979827            1 
 1983000   0.91601023   -7.8904345     499.2073  0.020978623  0.020973586            3 
 1984000   0.92533552   -7.8767761    499.98091  0.021000542  0.020967369            2 
 1985000   0.94314616   -7.8827352    499.44777  0.020967581   0.02096108            4 
 1986000   0.93983255   -7.9207625    498.71256  0.020926173  0.020954796            2 
 1987000   0.92289226   -7.9009151    498.98176  0.020926932  0.020948398            4 
 1988000   0.93045033   -7.9253467      499.118  0.020922116  0.020942033            5 
 1989000   0.92686725   -7.9194476    498.69185  0.020893743  0.020935665            2 
 1990000   0.92822361   -7.9164584     499.4844  0.020916432  0.020929317            2 
 1991000   0.93045104   -7.9151688    500.13234  0.020933046  0.020922953            2 
 1992000   0.94545884   -7.9213674    499.50854  0.020896441  0.020916648            2 
 1993000   0.94948739   -7.9512494    499.62488  0.020890821  0.020910343            2 
 1994000   0.95819904    -7.911852    499.34195   0.02086852  0.020904063            1 
 1995000   0.92419997   -7.9032055    500.47271  0.020905293    0.0208978            3 
 1996000   0.92767916   -7.9332743    500.01218  0.020875592  0.020891552            1 
 1997000   0.91384518   -7.9184913    500.48483  0.020884862  0.020885317            2 
 1998000   0.94158368   -7.9123657    500.42958  0.020872105  0.020879076            3 
 1999000   0.93541002   -7.9068543    502.40509  0.020944017  0.020872819            1 
 2000000   0.94057026   -7.9145611    500.69159   0.02086215  0.020866551            1 
 2001000   0.92874014   -7.9317626    501.80116  0.020897933  0.020860217            3 
 2002000   0.91658264   -7.9072542    502.03267  0.020897131    0.0208539            1 
 2003000    0.9351569   -7.9420803    500.16399  0.020808953  0.020847552            1 
 2004000   0.94153781   -7.9237425       500.72   0.02082169  0.020841242            2 
 2005000   0.93085447   -7.9297315    501.05136  0.020825077  0.020834958            2 
 2006000   0.92660741   -7.9385517    501.72271  0.020842585   0.02082861            3 
 2007000   0.91444496   -7.9120782    501.37313  0.020817685  0.020822311            3 
 2008000   0.92457911   -7.9610794    500.32562  0.020763845   0.02081599            5 
 2009000   0.93217168   -7.9523716    501.79707  0.020814546  0.020809717            3 
 2010000   0.93571745   -7.9201135    503.62024  0.020879778  0.020803421            3 
 2011000   0.93442012   -7.9322719    502.17924  0.020809682  0.020797172            2 
 2012000   0.88429457   -7.9368948    501.47497   0.02077017   0.02079088            1 
 2013000   0.91932923   -7.9317189    500.87673  0.020735086  0.020784555            5 
 2014000   0.92411162   -7.9527466    501.33944  0.020743936  0.020778244            1 
 2015000   0.94150995   -7.9328449    501.91916  0.020757616  0.020771913            2 
 2016000   0.93655184   -7.9219946    503.38867  0.020808064  0.020765631            1 
 2017000   0.92468866   -7.9186055     503.0738  0.020784738  0.020759406            7 
 2018000   0.92752739    -7.926522    503.13385  0.020776918  0.020753182            3 
 2019000   0.93170995   -7.9292008    503.51822  0.020782492   0.02074693            8 
 2020000   0.94073844   -7.9763003    502.84385  0.020744383  0.020740605            9 
 2021000   0.93339427   -7.9268011    501.55075    0.0206808  0.020734342            2 
 2022000   0.92468127   -7.9789751    501.35286  0.020662416  0.020728067            6 
 2023000   0.93242573   -7.9092159    505.01151  0.020802913  0.020721769            2 
 2024000   0.91661729    -7.930583     504.1477  0.020757069  0.020715451            3 
 2025000   0.92231342   -7.9590102    501.96383  0.020656948  0.020709089            2 
 2026000   0.93902382   -7.9280664    503.66851  0.020716869  0.020702787            1 
 2027000   0.90567408   -7.9148276    503.75598  0.020710244  0.020696518            2 
 2028000     0.909674   -7.8958594    504.61482  0.020735323  0.020690287            2 
 2029000   0.92714589   -7.8856548    504.51041  0.020720815  0.020684101            3 
 2030000   0.92109507   -7.9131397    503.24721  0.020658753  0.020677918            5 
 2031000   0.93327395   -7.8891912    505.68353  0.020748545  0.020671739            7 
 2032000   0.92161337   -7.8861917    505.05208  0.020712438  0.020665545            2 
 2033000   0.90931259   -7.8912527    504.57746  0.020682795  0.020659314            3 
 2034000   0.92127355   -7.9112718    504.88084  0.020685056   0.02065308            4 
 2035000   0.93663987   -7.9429665     505.2833  0.020691372  0.020646845            3 
 2036000   0.90512635    -7.914349     506.0837   0.02071397  0.020640667            2 
 2037000   0.92288043   -7.9404668    504.91284  0.020655901  0.020634403            1 
 2038000   0.91361241   -7.9359083    504.77655  0.020640193  0.020628162            3 
 2039000   0.92692995   -7.9119264    505.90266  0.020676094  0.020621955            2 
 2040000   0.90900555    -7.928475    505.02261  0.020630008  0.020615736            5 
 2041000   0.94430786   -7.9303148    504.48413  0.020597915   0.02060949            2 
 2042000   0.93817331   -7.9249079    505.03237  0.020610201  0.020603231            3 
 2043000   0.92933589   -7.9291994    504.80486  0.020590833  0.020597024            3 
 2044000    0.9055847    -7.973138    504.17356  0.020555021  0.020590731            5 
 2045000   0.94619826   -7.8961978    505.65021  0.020605143  0.020584447            3 
 2046000   0.94202904   -7.9424965    504.95788  0.020566873  0.020578195            2 
 2047000   0.91028388   -7.9258586    505.23886  0.020568265  0.020571922            3 
 2048000   0.91417126   -7.9718115    505.10681  0.020552849  0.020565688            2 
 2049000   0.93729133   -7.9322044    505.76156  0.020569447   0.02055937            5 
 2050000   0.92230373   -7.9317753    506.21836  0.020577982  0.020553103            5 
 2051000    0.9186271   -7.9744007    505.24157  0.020528261  0.020546793            3 
 2052000    0.8980991   -7.9436745    507.11792  0.020594457  0.020540512            2 
 2053000   0.93313299   -7.9342659    505.07202  0.020501381  0.020534216            2 
 2054000   0.92027792   -7.9226681    506.82893   0.02056268  0.020527925            5 
 2055000   0.92247232   -7.9540306    504.82849  0.020471553  0.020521668            1 
 2056000   0.91785654   -7.9286087    506.73668  0.020538938  0.020515368            3 
 2057000   0.91730127   -7.9451055    506.16675  0.020505864  0.020509125            2 
 2058000   0.91183103   -7.8681149    506.82098  0.020522392  0.020502937            4 
 2059000   0.92765829   -7.9073801    508.17364   0.02056717  0.020496718            2 
 2060000   0.90944787   -7.9577474    504.46096  0.020406997  0.020490438            6 
 2061000   0.92661182   -7.9543306    506.85917  0.020494063  0.020484146            5 
 2062000   0.92759442   -7.9419161    507.50746  0.020510324  0.020477932            5 
 2063000   0.90479501   -7.9103568    505.88658  0.020434908  0.020471715            2 
 2064000   0.93481942   -7.9458097    508.57523  0.020533561  0.020465527            3 
 2065000   0.92789679   -7.9437095    506.69732  0.020447834  0.020459288            1 
 2066000   0.91845302   -7.9651298    506.80292  0.020442196  0.020453047            3 
 2067000   0.93659228   -7.9147037    509.77674  0.020552199  0.020446858            2 
 2068000    0.9129405   -7.9622595    506.94764  0.020428258  0.020440618            3 
 2069000   0.90966785   -7.9435983    506.99231  0.020420183   0.02043437            1 
 2070000    0.9431453   -7.9854428     507.2231  0.020419609  0.020428091            2 
 2071000   0.91252163   -7.9730898    507.77993  0.020432156  0.020421753            3 
 2072000   0.93408513   -7.9473894    506.65551  0.020377072  0.020415453            6 
 2073000   0.91039263   -7.9438075    508.22844  0.020430473  0.020409105            1 
 2074000   0.92045595   -7.9538999    507.58805  0.020394891  0.020402771            1 
 2075000   0.92034828   -7.9480114    506.82591  0.020354454  0.020396432            3 
 2076000   0.90610388   -7.9478033     506.2391  0.020321094  0.020390062            5 
 2077000   0.91533168    -7.938482    506.70314  0.020329929   0.02038369            5 
 2078000   0.95622826   -7.9567238    507.58825  0.020355641  0.020377343            3 
 2079000   0.92258558   -7.9462065    508.95326  0.020400563  0.020370965            6 
 2080000   0.92183921   -7.9451228     508.0625  0.020355068  0.020364602            2 
 2081000   0.91234193   -7.9536906    506.29741  0.020274604   0.02035826            3 
 2082000   0.90640564    -7.937662    507.37422  0.020307966  0.020351929            2 
 2083000   0.91160763   -7.9411294    509.81077  0.020395694  0.020345599            2 
 2084000   0.91326721    -7.940679    508.49698  0.020333373  0.020339243            2 
 2085000   0.91142957   -7.9918591    507.09646  0.020267644   0.02033286            4 
 2086000   0.92667191   -7.9250421    509.20041  0.020341978  0.020326477            1 
 2087000   0.92560261   -7.9494626    507.97494  0.020283299  0.020320159            4 
 2088000   0.92776805   -7.9651174    508.10544  0.020278793  0.020313825            3 
 2089000   0.92045477   -7.9695505    507.73817  0.020254435  0.020307489            2 
 2090000    0.9117773   -7.9527546    509.37048  0.020309828  0.020301227            2 
 2091000   0.91699951    -7.959735    510.02365  0.020326146  0.020294988            2 
 2092000   0.91647555   -7.9378662    509.67846  0.020302679  0.020288724            2 
 2093000   0.91580426   -7.9483427    509.34825  0.020279831  0.020282445            1 
 2094000   0.92148723   -7.9301377    511.06576  0.020338497  0.020276153            2 
 2095000   0.91078786   -7.9516993    509.73626  0.020275905  0.020269855            4 
 2096000   0.90864697   -7.9544415    511.71093  0.020344741  0.020263619            2 
 2097000   0.91182351   -7.9684584    509.81132   0.02025955  0.020257352            5 
 2098000   0.91932613   -7.9538624    511.99591  0.020336666  0.020251054            2 
 2099000   0.89396379   -7.9463311    509.50209  0.020227969  0.020244727            2 
 2100000    0.9089611   -7.9371601    509.30811  0.020210639  0.020238393            2 
 2101000   0.93380557   -7.9943283    509.60417  0.020212762  0.020232048            3 
 2102000   0.93098734   -7.9695784    509.75894  0.020209283  0.020225668            3 
 2103000   0.91596984   -8.0106841    507.36138  0.020104667  0.020219307            2 
 2104000   0.92292651   -7.9834215    509.16052  0.020166371    0.0202129            5 
 2105000   0.91023094    -7.991575    510.35038  0.020203895  0.020206494            2 
 2106000   0.93690565   -8.0010006     509.4572  0.020158959   0.02020008            1 
 2107000   0.93859414   -7.9828637    510.55232  0.020192704    0.0201937            3 
 2108000   0.91498573   -7.9826361    510.12665  0.020166297  0.020187385            3 
 2109000   0.91639361   -7.9614192    509.49089  0.020131614  0.020181084            2 
 2110000   0.92058339    -7.972584     509.9965  0.020142042  0.020174742            1 
 2111000   0.91726685   -7.9275516    510.35043  0.020146472  0.020168458            3 
 2112000   0.91649381   -7.9437614    510.79707  0.020154556  0.020162211            2 
 2113000   0.92559634   -7.9499977    511.34491  0.020166624  0.020155942            1 
 2114000   0.91524412   -7.9750931    511.48533  0.020162619  0.020149678            3 
 2115000   0.90442914   -7.9451353    511.24678  0.020143687  0.020143348            3 
 2116000   0.92910008   -7.9544949    510.15242  0.020091069  0.020137084            2 
 2117000   0.93255357   -7.9671323    511.77617  0.020145496   0.02013083            5 
 2118000   0.91709085   -7.9688613    510.74766  0.020095517  0.020124592            2 
 2119000   0.90020964   -7.9634381    512.17255   0.02014207  0.020118357            2 
 2120000    0.9227677   -8.0103592    510.20436  0.020055203  0.020112041            1 
 2121000   0.92744104   -7.9685265    511.64837  0.020102482  0.020105744            2 
 2122000   0.92842282   -7.9612405    511.99957    0.0201068  0.020099482            3 
 2123000   0.92678801   -7.9734603    512.64889  0.020122817  0.020093201            1 
 2124000   0.91585968   -7.9963798      512.483  0.020106835  0.020086927            3 
 2125000   0.91648824   -7.9633984    513.04313  0.020119339  0.020080685            2 
 2126000   0.90308317    -7.944819    513.25232  0.020118075  0.020074437            2 
 2127000   0.89689375   -7.9728276    511.90616  0.020055875   0.02006821            4 
 2128000   0.91649306   -8.0050149    512.08675  0.020053522  0.020061968            2 
 2129000    0.9062026   -8.0009028    510.25909  0.019972565  0.020055677            2 
 2130000   0.91683534   -7.9669349    511.80446  0.020023649  0.020049374            1 
 2131000   0.90341634   -7.9877511     512.8512  0.020055185  0.020043063            2 
 2132000   0.91417941   -7.9979433    512.73943   0.02004141  0.020036761            1 
 2133000   0.89141459   -8.0110849    511.73833  0.019992902  0.020030431            2 
 2134000   0.91147151   -7.9421047    513.27921  0.020043705  0.020024063            1 
 2135000   0.91201351    -7.977832    512.97158   0.02002231  0.020017766            5 
 2136000   0.91775265   -7.9644757    512.82078  0.020007053  0.020011445            3 
 2137000   0.90553955   -7.9631031     513.2587  0.020014768  0.020005132            2 
 2138000   0.93121082   -7.9490473     513.7092  0.020022966  0.019998775            2 
 2139000    0.9227087   -7.9536945    513.59993  0.020009347  0.019992449            5 
 2140000   0.91146101   -7.9775285    513.00912  0.019976991  0.019986155            2 
 2141000   0.91221873    -7.960503    513.64052  0.019992236  0.019979843            2 
 2142000   0.91405372   -7.9960393    513.49423  0.019977211  0.019973527            2 
 2143000   0.92256934   -8.0022857    512.21756  0.019918244   0.01996722            4 
 2144000   0.89726469   -7.9410889    512.78284  0.019930925  0.019960912            5 
 2145000   0.91094648   -7.9875624    513.54168  0.019951114  0.019954629            2 
 2146000   0.92026351   -7.9748776    513.64369  0.019945778  0.019948315            3 
 2147000   0.91036935   -7.9793707    513.01619  0.019912133  0.019941975            2 
 2148000   0.90755652   -7.9583687    512.64979  0.019888648  0.019935608            6 
 2149000   0.90115375    -8.002567    512.05025  0.019856144  0.019929207            4 
 2150000   0.92266841   -7.9978647    513.80059  0.019914751   0.01992282            3 
 2151000   0.89833895   -8.0198468    512.75816  0.019865108  0.019916433            3 
 2152000   0.92419404   -7.9867521    513.88382  0.019899466  0.019910038            5 
 2153000    0.9111869   -7.9835785    514.10239  0.019898684  0.019903671            2 
 2154000   0.92635024   -7.9813361     514.4674  0.019903567  0.019897318            1 
 2155000   0.89631088    -7.953113    516.21092  0.019961753  0.019890981            5 
 2156000   0.88745601    -7.937993    514.81109  0.019898388  0.019884665            3 
 2157000   0.91487587   -7.9627145    514.26963  0.019868244  0.019878349            3 
 2158000   0.88194802   -7.9847193    514.01684  0.019849276  0.019871977            2 
 2159000   0.91364868   -8.0126291    512.82947  0.019794252   0.01986558            4 
 2160000   0.89753734   -7.9964339    513.05134  0.019793647  0.019859199            2 
 2161000   0.90960832   -8.0013559    513.16172  0.019788744  0.019852831            3 
 2162000   0.92230603   -8.0088824    514.36949  0.019826144  0.019846465            2 
 2163000   0.89099683   -7.9742795    515.12405  0.019846049  0.019840077            2 
 2164000   0.90898121   -7.9879789    514.03941   0.01979511  0.019833753            1 
 2165000   0.89602197   -7.9879437    513.10546  0.019750018  0.019827432            3 
 2166000   0.92768965   -7.9925124     513.7463  0.019765555  0.019821064            6 
 2167000   0.91216318   -8.0204139    515.47401  0.019822874   0.01981468            1 
 2168000   0.89958575   -7.9998045    513.39932  0.019733984  0.019808345            2 
 2169000   0.92063556   -7.9737239    515.42229  0.019802608  0.019801995            1 
 2170000   0.88930008    -7.997913    515.62447  0.019801247   0.01979568            2 
 2171000   0.89992359   -7.9814576    516.31299  0.019818555  0.019789358            4 
 2172000   0.91622911   -8.0126016    515.37588  0.019773476  0.019783084            2 
 2173000   0.90502653   -7.9752944    514.93688  0.019747541  0.019776754            1 
 2174000   0.91236529    -7.978301    516.57449   0.01980123  0.019770469            4 
 2175000   0.90166115   -7.9697907    515.64055  0.019756343  0.019764176            3 
 2176000   0.89974393   -7.9917932    516.61522   0.01978459  0.019757887            6 
 2177000   0.90876377   -7.9710181    517.26166  0.019800247  0.019751622            4 
 2178000   0.88501916   -7.9853612    516.16885  0.019749344  0.019745346            4 
 2179000   0.90089439   -7.9896034    515.90634  0.019730241  0.019739089            1 
 2180000   0.90575331   -7.9432218    515.75502  0.019715406  0.019732846            2 
 2181000   0.87492174   -7.9915466    516.24119  0.019724942  0.019726567            2 
 2182000   0.91323279   -7.9420938    517.35988  0.019758627  0.019720308            2 
 2183000   0.88730093   -7.9681989    516.75679  0.019726553  0.019714109            4 
 2184000    0.9179359   -7.9941281    516.85143  0.019721132  0.019707861            2 
 2185000   0.91700289   -7.9992335    516.54562  0.019700443  0.019701571            2 
 2186000   0.88880398   -7.9979517    516.92418  0.019705862  0.019695312            2 
 2187000   0.90379378   -7.9940567    516.68671  0.019687803   0.01968899            1 
 2188000    0.9038556   -7.9969874    516.56159   0.01967404  0.019682695            3 
 2189000   0.89726359   -8.0045799    517.25834  0.019691577  0.019676376            2 
 2190000   0.89800814   -7.9806098    516.69881  0.019661294  0.019670149            2 
 2191000    0.8771801   -8.0097723    516.20572  0.019633566  0.019663861            3 
 2192000   0.88570787   -7.9921458    517.53225   0.01967504  0.019657553            2 
 2193000   0.90320291   -8.0205467    517.07159  0.019648563  0.019651256            3 
 2194000   0.90313526    -7.991099    517.25518  0.019646581  0.019644935            2 
 2195000   0.88713337   -7.9789713    518.99539  0.019703698  0.019638628            3 
 2196000   0.90810938   -7.9612646    518.18011  0.019663787   0.01963237            3 
 2197000    0.8970026   -8.0185563    518.95738  0.019684319  0.019626131            2 
 2198000   0.91236185   -7.9943879    519.16074  0.019683073  0.019619924            3 
 2199000   0.89026181   -7.9963541    518.45157  0.019647247  0.019613692            2 
 2200000   0.90774047   -7.9955032    518.99003  0.019658713  0.019607534            1 
 2201000   0.89399496   -7.9907751    517.75165  0.019602894  0.019601373            2 
 2202000   0.89929362   -8.0184088    518.70036  0.019629895  0.019595204            4 
 2203000   0.90651036   -8.0165404    518.88795  0.019628081     0.019589            3 
 2204000   0.88248919   -8.0234713    518.38282  0.019600076    0.0195828            4 
 2205000   0.90414462   -8.0432493    518.49329  0.019595363  0.019576586            3 
 2206000   0.89193089   -8.0068331    520.19606  0.019650803  0.019570353            2 
 2207000   0.89686925   -8.0374015    518.74937  0.019587274  0.019564095            2 
 2208000   0.92245701   -8.0291343    519.02774  0.019588909  0.019557859            2 
 2209000   0.89420981   -8.0146591    519.06033  0.019581271  0.019551615            1 
 2210000   0.88806683   -7.9815638    519.62993  0.019593889   0.01954544            2 
 2211000    0.9249068    -8.018593    518.31801   0.01953558  0.019539244            4 
 2212000   0.88923007   -7.9924538    518.73693  0.019542531  0.019533021            2 
 2213000   0.90542692    -7.987675    520.78731   0.01961091  0.019526819            3 
 2214000   0.89921245   -8.0033763    519.48594  0.019553069  0.019520643            1 
 2215000   0.89335913   -7.9979154    520.55157  0.019584333  0.019514442            2 
 2216000   0.90571321   -8.0462624    519.89021  0.019550625  0.019508261            4 
 2217000   0.91350989   -8.0080445     521.1353  0.019588607  0.019502092            2 
 2218000   0.89811978   -7.9947198    519.64253   0.01952369  0.019495942            2 
 2219000   0.88079886   -8.0274081    518.92037  0.019487771  0.019489742            1 
 2220000   0.89636747   -7.9964103    520.20919  0.019527372  0.019483553            4 
 2221000   0.89184963    -8.059602    518.22648  0.019444187  0.019477352            3 
 2222000   0.87754254    -8.024978    519.15287   0.01947018  0.019471141            3 
 2223000   0.90649102   -8.0219128    520.58185  0.019514989  0.019464906            2 
 2224000   0.91536712   -8.0099997     520.9078  0.019518428  0.019458735            3 
 2225000   0.90702331   -8.0033286    521.40306  0.019528205  0.019452589            3 
 2226000    0.9019802    -8.016015    521.52109   0.01952385  0.019446379            5 
 2227000   0.90863474   -8.0354679    520.88342  0.019491222  0.019440167            2 
 2228000   0.91985889   -8.0264781    520.03505  0.019450742   0.01943398            2 
 2229000   0.91713661   -8.0001436    521.04975  0.019479952  0.019427797            2 
 2230000   0.90585469   -8.0233932    521.30908  0.019480907  0.019421604            2 
 2231000   0.90604086   -7.9822177    521.75722  0.019488915  0.019415398            2 
 2232000   0.89229171    -8.043794    519.71358  0.019403882  0.019409182            2 
 2233000   0.89495558    -8.016038    520.95588  0.019441554  0.019402969            2 
 2234000   0.88564979   -8.0219894    520.41439  0.019412653    0.0193968            7 
 2235000   0.91830304    -8.010065    521.22294  0.019434114  0.019390613            4 
 2236000    0.9086348   -8.0556907    520.89883  0.019413343  0.019384411            2 
 2237000   0.87107811   -8.0531354    521.34298  0.019421211  0.019378208            2 
 2238000    0.8891762   -8.0133319    521.13761  0.019404886   0.01937206            4 
 2239000   0.89499358   -8.0339126    522.64641  0.019452375   0.01936592            6 
 2240000   0.89419477   -8.0371562    521.86942  0.019414785  0.019359742            8 
 2241000   0.88021022   -8.0368163    521.28246  0.019384295  0.019353605            3 
 2242000   0.89753293   -8.0359414    522.09655  0.019405908  0.019347471            3 
 2243000   0.89386526   -8.0269842    522.48342   0.01941163  0.019341311            2 
 2244000    0.9051265   -8.0257554    521.84453  0.019379253  0.019335178            5 
 2245000   0.88780512   -7.9810082    522.99198  0.019413214  0.019329094            3 
 2246000   0.87531945   -8.0320397    522.64572  0.019391723  0.019323011            4 
 2247000   0.90994184    -7.987812    522.72609  0.019386074  0.019316845            3 
 2248000   0.88705174   -7.9964545    522.97437  0.019386654  0.019310706            6 
 2249000   0.89301992   -8.0421449    522.85337   0.01937355   0.01930463            2 
 2250000   0.90287864   -8.0090488    523.28545  0.019380943  0.019298528            4 
 2251000     0.886804   -8.0159956    523.15392  0.019367463  0.019292473            4 
 2252000   0.90258321    -8.008966    523.54778  0.019373438  0.019286408            2 
 2253000   0.89990106   -8.0579982    523.60936  0.019367117   0.01928034            3 
 2254000   0.87733582   -8.0143756    524.30069  0.019384083  0.019274237            2 
 2255000   0.89913614   -8.0263537    523.64136  0.019351122  0.019268124            2 
 2256000   0.88306028   -8.0359618    524.07604  0.019358601  0.019262019            4 
 2257000   0.87241184   -8.0287573     524.3083  0.019358599  0.019255916            2 
 2258000   0.90072534   -8.0288666     523.8868   0.01933447  0.019249794            3 
 2259000    0.8844665   -8.0296575    525.21289   0.01937483  0.019243636            4 
 2260000   0.90399715   -8.0272512    524.81256  0.019351496  0.019237579            2 
 2261000   0.86167983   -8.0518039    522.84298  0.019270344  0.019231473            3 
 2262000   0.87147111   -8.0153986    523.49163  0.019285722  0.019225376            2 
 2263000   0.85375722   -8.0481433    523.76135  0.019287132  0.019219272            5 
 2264000    0.9049956   -8.0568883    524.27431  0.019297494  0.019213179            3 
 2265000   0.87179896   -8.0017026    524.26112  0.019288488  0.019207115            3 
 2266000   0.88874037   -8.0447385    523.61712  0.019256293  0.019200993            3 
 2267000   0.86365865   -8.0079633     525.5488  0.019318806  0.019194894            3 
 2268000   0.88668382   -8.0036721    525.21047  0.019297857  0.019188781            7 
 2269000   0.89639257   -8.0646718    524.38566  0.019259059  0.019182676            2 
 2270000   0.89400872   -8.0421968    524.94349  0.019271053  0.019176592            3 
 2271000   0.86583637   -8.0342869    524.64837  0.019251738  0.019170495            1 
 2272000   0.89058093   -8.0583518    524.74801  0.019246919  0.019164401            6 
 2273000   0.90345532   -8.0307423    525.23611  0.019256347  0.019158334            1 
 2274000   0.90266662   -8.0048525    524.68679  0.019227748  0.019152271            2 
 2275000   0.89590124    -8.025766    525.37449  0.019244487  0.019146192            2 
 2276000    0.8902634   -8.0462664    524.41748  0.019200991  0.019140056            4 
 2277000   0.88279369   -8.0659266    523.69523  0.019166126  0.019133879            1 
 2278000   0.87808028   -8.0351623    523.92033  0.019165947   0.01912772            2 
 2279000   0.90237721   -7.9849877    526.62018  0.019256259  0.019121656            3 
 2280000   0.90218558   -8.0225805    524.27379  0.019162054  0.019115614            3 
 2281000   0.87763753   -8.0250978    525.67557  0.019204865  0.019109538            2 
 2282000   0.86656812   -8.0283495    526.14363  0.019213542  0.019103458            4 
 2283000   0.86844112   -8.0087565    526.20818  0.019207482  0.019097419            3 
 2284000   0.87756348   -8.0445379    525.71446  0.019181059  0.019091381            4 
 2285000   0.89412563   -8.0492763    526.23226  0.019191549  0.019085327            3 
 2286000   0.88315121   -8.0370007    526.48609  0.019192406   0.01907928            3 
 2287000   0.88474805    -8.069767    525.33132  0.019141937  0.019073226            4 
 2288000   0.88342476   -8.0513449    526.16996  0.019164116  0.019067148            2 
 2289000   0.87980991   -8.0784831    525.60186  0.019135061  0.019061125            1 
 2290000   0.89351645   -8.0630368    525.20545   0.01911228  0.019055071            2 
 2291000   0.88616866   -8.0720467    526.67157  0.019157266  0.019049021            3 
 2292000   0.89848165   -8.0439823    527.08559  0.019163961  0.019042949            3 
 2293000   0.87204732   -8.0593999    525.80448  0.019109045  0.019036936            2 
 2294000   0.89534449   -8.0165607    527.21045  0.019151789  0.019030896            1 
 2295000   0.88011719   -8.0451485    527.42235  0.019151138  0.019024933            1 
 2296000   0.87385027   -8.0854845    526.76919  0.019119091  0.019018909            2 
 2297000   0.87608823   -8.0580992    526.93677  0.019116847  0.019012893            1 
 2298000   0.90354582   -8.0384324    527.24818  0.019119821  0.019006876            1 
 2299000    0.8736425   -8.0317454    527.21546  0.019110318  0.019000864            3 
 2300000   0.86413931   -8.0716448    526.40212  0.019072541  0.018994842            3 
 2301000   0.88505441   -8.0527895    528.05772  0.019124211  0.018988886            1 
 2302000   0.88063085   -8.0403053    527.33331   0.01908968  0.018982916            6 
 2303000   0.87081373   -8.0401149    528.59775  0.019127144   0.01897692            2 
 2304000   0.89305713   -8.0596703    526.94514  0.019059069  0.018970859            4 
 2305000   0.88369092   -8.0490551    527.70015  0.019078096  0.018964887            2 
 2306000   0.87492808   -8.0451846    529.25377  0.019125967  0.018958886            3 
 2307000   0.88954079   -8.0510362    529.18609  0.019115232   0.01895291            2 
 2308000   0.88762066    -8.060124    528.34053   0.01907642  0.018946953            2 
 2309000   0.87972813   -8.0335744    527.76639  0.019047437  0.018940976            4 
 2310000   0.86009964   -8.0680122    528.50935  0.019065994  0.018935012            5 
 2311000   0.86202621   -8.0732673    528.76097  0.019066817  0.018929021            3 
 2312000   0.89108745   -8.1014764    528.60977   0.01905312  0.018923038            2 
 2313000   0.88199934   -8.0605237    528.37517  0.019036431  0.018917087            3 
 2314000   0.88232212   -8.0862049    528.94995  0.019048903  0.018911155            9 
 2315000   0.88221451   -8.0671265    529.22216  0.019050474  0.018905205            5 
 2316000   0.87960819   -8.0225279    530.44903  0.019086393   0.01889932            1 
 2317000   0.89755814   -8.0813697    529.00155  0.019026095  0.018893414            3 
 2318000   0.88983736    -8.016006    529.89788  0.019050111  0.018887506            1 
 2319000   0.89881768   -8.0363798     529.9748   0.01904466  0.018881672            5 
 2320000   0.87313374   -8.0479008    530.58082  0.019058219  0.018875802            9 
 2321000   0.88166784   -8.0471075    529.31888  0.019004699  0.018869912            3 
 2322000   0.87065058     -8.05752    529.82336  0.019014619   0.01886406            2 
 2323000    0.8836866   -8.0348526    531.69261   0.01907349  0.018858179            2 
 2324000   0.87076776   -8.0312058    531.58823   0.01906154  0.018852302            4 
 2325000   0.88947525   -8.0750774    530.07863  0.018999234  0.018846434            8 
 2326000   0.86599581   -8.0642963    530.88663  0.019020014  0.018840581            9 
 2327000   0.89219401   -8.0563644    530.23795   0.01898861  0.018834738            2 
 2328000   0.87314076   -8.0606869    531.76798  0.019035223  0.018828837            2 
 2329000    0.8816237   -8.0502146     531.9158  0.019032338  0.018823004            2 
 2330000   0.88797773    -8.032672    530.50332  0.018973652   0.01881717            1 
 2331000   0.87937911   -8.0379558    531.73731  0.019009628  0.018811324            2 
 2332000   0.88696925   -8.0919122    530.03554  0.018940664  0.018805466            2 
 2333000   0.86312386    -8.029044    531.17425  0.018973219  0.018799628            4 
 2334000   0.86372673   -8.0764383    532.25738  0.019003762  0.018793806            6 
 2335000   0.86217756   -8.0711088    531.35734  0.018963502  0.018787927            2 
 2336000   0.89008797   -8.0397244    530.55011  0.018926588  0.018782088            5 
 2337000   0.89670716   -8.0569257    532.21546  0.018977873  0.018776276            3 
 2338000   0.86370803    -8.066414    532.01243  0.018962519  0.018770463            5 
 2339000   0.87803315   -8.0481233    532.68154  0.018978251  0.018764624            6 
 2340000   0.88389458   -8.0806087    531.59861  0.018931574  0.018758737            5 
 2341000    0.8666924   -8.0734211    530.13242  0.018871295  0.018752821            3 
 2342000   0.87771229   -8.0441448    531.46606  0.018910691   0.01874696            1 
 2343000   0.87926003   -8.0518034    532.10765  0.018925439  0.018741109            5 
 2344000   0.88693209   -8.0339707     532.4369  0.018929071  0.018735261            5 
 2345000   0.88401591   -8.1070321    530.27385  0.018844131  0.018729399            1 
 2346000   0.88121521   -8.0905601    529.66883  0.018814608  0.018723469            1 
 2347000   0.87825573   -8.0400983    529.69558  0.018807541  0.018717514            2 
 2348000   0.86940752   -8.0962187    531.88567   0.01887726  0.018711549            2 
 2349000   0.85068231   -8.0809372     530.2366  0.018810721  0.018705609            1 
 2350000   0.87522256   -8.0813489    530.30708  0.018805216  0.018699646            3 
 2351000   0.86984039   -8.0869203    531.03362   0.01882297  0.018693704            2 
 2352000   0.88089833   -8.0815462    531.55912  0.018833586  0.018687745            3 
 2353000   0.86869157   -8.0678755    531.16715  0.018811699  0.018681811            2 
 2354000   0.89278193   -8.0531718     531.7324  0.018823719  0.018675888            3 
 2355000   0.88463313   -8.0864207    531.64627  0.018812678  0.018669946            1 
 2356000   0.84286268   -8.0450529     531.2617   0.01879109  0.018664041            4 
 2357000   0.88515202   -8.0683235    531.89213  0.018805407  0.018658152            3 
 2358000   0.87537606   -8.0989135    531.54129  0.018785033  0.018652274            6 
 2359000   0.87514217   -8.0814244    531.58108  0.018778475  0.018646336            2 
 2360000   0.85362936   -8.0854735    531.76964  0.018777177  0.018640391            2 
 2361000   0.87970897   -8.0837018      533.106  0.018816391  0.018634472            2 
 2362000   0.89110539   -8.1139978    532.54054  0.018788475  0.018628554            1 
 2363000   0.87710842   -8.0684394    531.69662  0.018750762   0.01862262            4 
 2364000   0.85819063   -8.1023385    531.89391  0.018749785  0.018616704            1 
 2365000   0.88915698   -8.0860108    534.00355  0.018816193  0.018610815            2 
 2366000   0.86981889   -8.0607931    532.51733  0.018755893  0.018604975            3 
 2367000   0.86366634   -8.0287302    532.80418  0.018758069  0.018599132            2 
 2368000   0.86663114   -8.0832178    532.74088  0.018747919  0.018593305            4 
 2369000    0.8775314   -8.0178808    534.69595  0.018808778  0.018587468            6 
 2370000   0.88506204    -8.085485    532.87809  0.018736923  0.018581591            2 
 2371000   0.86699483   -8.0596232    533.75035  0.018759678  0.018575731            2 
 2372000   0.86585117   -8.0788093     532.1802  0.018696606  0.018569823            5 
 2373000   0.88334503   -8.0768033    533.02135  0.018718266  0.018563953            6 
 2374000   0.88372955   -8.0983118    531.59892  0.018660451  0.018558034            4 
 2375000   0.87572118    -8.095564    533.52519  0.018720182  0.018552105            6 
 2376000   0.88008407    -8.052675    533.52761  0.018712388  0.018546189            2 
 2377000   0.89084286   -8.0985639     532.2996  0.018661464  0.018540253            2 
 2378000   0.85919472   -8.0798649    533.57023  0.018698144  0.018534311            1 
 2379000   0.87239151   -8.0839956    532.63934  0.018657676  0.018528401            1 
 2380000   0.85825901   -8.0847509     532.7865  0.018654989  0.018522446            3 
 2381000   0.85792652   -8.0884881    533.76593  0.018681434  0.018516495            2 
 2382000   0.87657654   -8.0803543    532.47925  0.018628577  0.018510573            2 
 2383000   0.86708858   -8.0824169    532.14636  0.018609119  0.018504629            2 
 2384000   0.86384964   -8.0673911    533.94928  0.018664334  0.018498722            2 
 2385000   0.86554333   -8.0889887    532.86131  0.018618494  0.018492797            3 
 2386000   0.86702167   -8.0825117    532.96768  0.018614406  0.018486892            3 
 2387000   0.86616903   -8.0958497    532.81829  0.018601393   0.01848097            4 
 2388000   0.87439108    -8.093888    534.59079  0.018655458   0.01847506            2 
 2389000   0.89268377   -8.1064949    532.90583  0.018588874  0.018469162            2 
 2390000   0.88327991   -8.1222697     532.5015  0.018566998  0.018463241            2 
 2391000   0.88142729   -8.0824854    534.20455  0.018618589  0.018457314            1 
 2392000   0.87780391   -8.0652119    532.66385   0.01855713  0.018451437            1 
 2393000   0.86752989   -8.0808687    534.02034  0.018596613  0.018445556            2 
 2394000   0.88301826   -8.0608554    534.75803  0.018614523   0.01843965            2 
 2395000   0.86632468   -8.1014124    534.13837   0.01858519  0.018433738            2 
 2396000   0.85334606   -8.0663423    533.61705  0.018559302  0.018427808            1 
 2397000   0.86140029    -8.085856    535.48664  0.018616557  0.018421899            3 
 2398000   0.86668987   -8.0994947    535.16235  0.018597524  0.018416006            2 
 2399000   0.86796656   -8.0962431    533.22697  0.018522543  0.018410088            6 
 2400000   0.87677994   -8.1079616    533.02964  0.018507973  0.018404144            2 
 2401000   0.86190047   -8.0924686    532.96592  0.018498054  0.018398211            1 
 2402000   0.87193434   -8.0918805    533.53689  0.018510161  0.018392306            6 
 2403000   0.87867402   -8.1028472       533.01  0.018484186  0.018386366            3 
 2404000   0.87593815   -8.0839542    535.09001    0.0185486  0.018380395            2 
 2405000   0.87404876   -8.1108627    534.27808  0.018512754  0.018374515            5 
 2406000   0.85525586   -8.1176929    534.82509  0.018524006  0.018368617            4 
 2407000   0.86438189   -8.0935939    534.46465  0.018503831  0.018362731            2 
 2408000   0.86433943   -8.0959432     533.3416  0.018457281  0.018356828            4 
 2409000   0.87008978     -8.08002    534.79923  0.018500043  0.018350923            1 
 2410000   0.85035684   -8.1289968    534.20543  0.018471834  0.018345038            2 
 2411000   0.85665644   -8.0945943    535.37392   0.01850456  0.018339116            4 
 2412000   0.85892795   -8.1079419    535.21579  0.018491424  0.018333167            4 
 2413000   0.87451506   -8.0977614    534.91894   0.01847351  0.018327222            2 
 2414000   0.86196571   -8.0655523    534.94655   0.01846681   0.01832128            6 
 2415000   0.87412986   -8.1054923    534.90924  0.018457876  0.018315341            3 
 2416000   0.84401528   -8.1154706     533.1641  0.018390042  0.018309338            2 
 2417000   0.86637871   -8.0856325    533.82977  0.018405384  0.018303339            2 
 2418000   0.85970454   -8.1083606    536.05777  0.018474558  0.018297384            4 
 2419000   0.86456853   -8.0940996    535.62985  0.018452179  0.018291435            2 
 2420000   0.86866645    -8.120598    533.89545   0.01838483  0.018285478            3 
 2421000   0.86972243   -8.1137224     534.5176  0.018398651  0.018279496            1 
 2422000   0.85699891    -8.128517    533.04144  0.018340264  0.018273495            5 
 2423000   0.86950496    -8.141573    532.76143  0.018323065  0.018267508            4 
 2424000    0.8805894   -8.1035438    533.54458  0.018342429  0.018261497            3 
 2425000   0.84975391   -8.1052274    535.15181  0.018390097  0.018255532            3 
 2426000   0.87843484    -8.126327    534.52608  0.018361022   0.01824955            2 
 2427000   0.86058052   -8.1398956    534.15723  0.018340792  0.018243522            3 
 2428000   0.85868022    -8.156964    532.23902  0.018267402  0.018237499            3 
 2429000   0.84562455   -8.1284696    534.17146  0.018326179  0.018231468            3 
 2430000   0.85949186   -8.1361785    533.77418  0.018305013  0.018225429            4 
 2431000   0.86188305   -8.1279239    533.76103  0.018297033  0.018219417            4 
 2432000    0.8918324   -8.0745991     534.6656  0.018320504  0.018213414            2 
 2433000   0.86319461   -8.1393616    533.51562  0.018273586    0.0182074            5 
 2434000   0.85733201   -8.1028831    534.27831  0.018292191  0.018201377            2 
 2435000   0.86848405   -8.0885888    535.05703  0.018311329   0.01819541            2 
 2436000   0.86994704   -8.0933497    533.92428  0.018265062  0.018189456            7 
 2437000   0.86588467   -8.0853992    535.52074  0.018312158  0.018183492            1 
 2438000   0.85767287   -8.0964447     535.5338  0.018305093  0.018177536            4 
 2439000   0.85777727   -8.0958753    534.68953  0.018268742  0.018171594            6 
 2440000   0.86594382    -8.095908    535.29614  0.018281972  0.018165632            4 
 2441000   0.85181252   -8.0844376    534.88072    0.0182603  0.018159647            3 
 2442000   0.85482532   -8.1059808    535.50525  0.018274135  0.018153652            6 
 2443000   0.85877343   -8.1141553    533.30782  0.018191698  0.018147582            4 
 2444000   0.83679022   -8.1257614    534.46043  0.018223555  0.018141504            4 
 2445000   0.86058311   -8.1337176    534.04031  0.018201783  0.018135446            5 
 2446000     0.866532   -8.1108438    534.96488  0.018225841  0.018129448            3 
 2447000   0.86494811    -8.099976    535.18615  0.018225928  0.018123459            9 
 2448000   0.85535767   -8.0982391    533.97614  0.018177292  0.018117462            3 
 2449000   0.85273159   -8.0988234    535.62906  0.018226115  0.018111477            2 
 2450000   0.86533751   -8.1199443    533.77646  0.018155662  0.018105466            2 
 2451000   0.85577678   -8.1143633    535.77814  0.018216311   0.01809945            3 
 2452000   0.86045925    -8.142498    535.19011  0.018188897  0.018093442            1 
 2453000   0.85129168   -8.0899156    535.72738  0.018199734  0.018087424            2 
 2454000   0.84895959   -8.1430449    535.03969  0.018168965    0.0180814            3 
 2455000   0.84634921    -8.157677    535.92913  0.018191756  0.018075363            3 
 2456000   0.86890557   -8.1308853    535.86151  0.018182054  0.018069362            2 
 2457000   0.84119509   -8.1237313    536.78999  0.018206145  0.018063367            4 
 2458000   0.86924686   -8.0993947    537.21035   0.01821299  0.018057339            1 
 2459000   0.85022248   -8.1191757    534.60133  0.018117166  0.018051341            3 
 2460000   0.86839878   -8.0985834    536.41537  0.018171252  0.018045343            1 
 2461000   0.86040129   -8.1238643    535.11247   0.01811975  0.018039338            2 
 2462000   0.83893169   -8.1392212    534.26536  0.018083718   0.01803331            5 
 2463000   0.85759579    -8.117443     535.9452  0.018133212  0.018027316            7 
 2464000   0.86137723   -8.1235515    536.26853  0.018136787  0.018021328            2 
 2465000   0.86201452   -8.1338801    535.68205  0.018109603  0.018015301            1 
 2466000   0.87003111   -8.1368719     535.8026  0.018106333    0.0180093            2 
 2467000   0.87845376   -8.0999871    535.77514  0.018098066  0.018003291            5 
 2468000   0.86737947   -8.1203624    537.01893   0.01813273  0.017997273            4 
 2469000   0.85268527   -8.1133198    535.89496   0.01808745  0.017991273            2 
 2470000   0.86191502   -8.1268721    536.49993  0.018100538  0.017985279            3 
 2471000   0.86778074   -8.0916596    536.62824   0.01809754  0.017979308            5 
 2472000   0.86860256   -8.1206895    536.43123  0.018083577  0.017973347            4 
 2473000   0.85025297   -8.1246465    536.76261  0.018087431  0.017967375            2 
 2474000   0.86612617   -8.1045385    536.59635   0.01807452  0.017961417            3 
 2475000   0.84355592    -8.128849    536.84783  0.018075684   0.01795546            9 
 2476000   0.84543713   -8.0833858     537.4133  0.018087416  0.017949495            2 
 2477000   0.83816415   -8.1321591    536.51715  0.018049965  0.017943543            3 
 2478000   0.84348175   -8.1018161    536.89742  0.018055469  0.017937611            2 
 2479000   0.85870886   -8.1257546    537.88308  0.018081319  0.017931691            2 
 2480000   0.86279282   -8.0968299    537.62731  0.018065434  0.017925733            4 
 2481000   0.84379114   -8.1063007    537.95366  0.018069114  0.017919787            4 
 2482000   0.84533204   -8.0977936    537.76642  0.018055547  0.017913882            1 
 2483000   0.84109857   -8.1286173    538.99217  0.018089414  0.017907957            2 
 2484000   0.84265069    -8.130301    537.94665  0.018047056  0.017902007            3 
 2485000   0.85381926   -8.0846403    539.14003  0.018079813  0.017896099            4 
 2486000    0.8428598   -8.1068363    537.79659  0.018027507  0.017890181            2 
 2487000   0.85805124    -8.081051    539.07556  0.018063114  0.017884296            3 
 2488000   0.82593035    -8.120934    539.91091  0.018083833  0.017878431            2 
 2489000   0.84052013   -8.1154247    537.81645  0.018006443  0.017872581            3 
 2490000   0.85325479   -8.1168579    537.95496  0.018003847  0.017866694            6 
 2491000   0.86058493   -8.1531492    539.15208  0.018036668  0.017860783            4 
 2492000   0.84602788   -8.1569454    537.75066  0.017982566  0.017854879            2 
 2493000   0.86836231   -8.1088887    538.84135  0.018011811   0.01784897            6 
 2494000   0.85254227   -8.1612671     538.7316  0.018000922  0.017843026            2 
 2495000   0.88157272   -8.1484133    537.64002  0.017957248  0.017837127            2 
 2496000   0.85748372   -8.1491052    537.85341  0.017957178  0.017831216            1 
 2497000   0.84324005   -8.1090023    538.67046  0.017977255  0.017825331            5 
 2498000   0.84162825   -8.1177997    539.06326  0.017983162  0.017819465            4 
 2499000   0.85147802   -8.1435668    538.64851  0.017962135  0.017813567            3 
 2500000   0.86319066     -8.16095    538.55618  0.017951872  0.017807684            3 
 2501000   0.84945252   -8.1495119    538.31363  0.017936613  0.017801778            2 
 2502000   0.83299244   -8.1368576    539.87416   0.01798142  0.017795855            5 
 2503000    0.8500294   -8.1601274    536.89423  0.017875024  0.017789944            2 
 2504000   0.85911065   -8.1513008     538.3064  0.017914883  0.017784012            2 
 2505000   0.84830022   -8.1519742    537.65691  0.017886125  0.017778114            3 
 2506000   0.85191246   -8.1530521    539.03131  0.017924691  0.017772222            4 
 2507000   0.85038115   -8.1385108    539.09929  0.017919801  0.017766309            2 
 2508000   0.85382939    -8.122938    540.29441  0.017952366  0.017760446            3 
 2509000   0.85650926   -8.1772709     539.4245  0.017916318  0.017754547            4 
 2510000   0.84891787   -8.1679073    537.77024  0.017854258  0.017748656            2 
 2511000   0.84789464   -8.1601363     540.0104  0.017921492  0.017742711            2 
 2512000   0.85233801   -8.1465587     538.2737  0.017856744  0.017736796            3 
 2513000    0.8493682   -8.1666644    538.91417  0.017870877  0.017730882            3 
 2514000   0.84106324   -8.1191939    539.68503  0.017889321   0.01772499            1 
 2515000   0.86538439   -8.1309477    538.77744  0.017852135   0.01771912            2 
 2516000    0.8352493   -8.1563191    539.65057  0.017873959  0.017713245            4 
 2517000   0.84404431   -8.1477541    538.86198  0.017840749  0.017707384            1 
 2518000   0.85976843   -8.1827441    539.84516  0.017866202  0.017701495            4 
 2519000   0.83467326   -8.1497979    538.97665  0.017830377  0.017695625            4 
 2520000   0.83462111    -8.168363    539.42993  0.017838291  0.017689751            5 
 2521000   0.85864654    -8.166877    539.28078  0.017826285   0.01768392            1 
 2522000   0.85523832   -8.1703073    539.89516  0.017839518  0.017678044            2 
 2523000    0.8540409   -8.1675627    539.58633  0.017822246  0.017672122            3 
 2524000   0.84470284   -8.1317468    540.51886  0.017845974  0.017666252           12 
 2525000   0.84433275   -8.1579766    541.14901  0.017859703  0.017660424            4 
 2526000   0.87377802   -8.1648504    540.07102   0.01781707  0.017654587            2 
 2527000   0.86319689   -8.1574459    540.45294  0.017822614   0.01764874            2 
 2528000   0.83412296   -8.1569134    540.18261  0.017806653  0.017642928            3 
 2529000   0.85173591   -8.1570084    540.65704  0.017815245  0.017637094            2 
 2530000    0.8401915   -8.1315205    541.65626  0.017841115  0.017631257            6 
 2531000   0.84459983   -8.1535216    540.53708  0.017797217  0.017625414            5 
 2532000   0.83879832   -8.1403408    540.63336  0.017793357  0.017619599            2 
 2533000    0.8525596   -8.1311806    540.13621  0.017769977  0.017613803            2 
 2534000   0.84480374     -8.12943    541.56508  0.017809954  0.017608001            4 
 2535000   0.85349739   -8.1580573     541.1696  0.017789928  0.017602172            1 
 2536000    0.8492606   -8.1349332    540.46525  0.017759768  0.017596369            1 
 2537000   0.83999153   -8.1499569    541.05195  0.017772039  0.017590519            3 
 2538000   0.84587169   -8.1678497    540.41357  0.017744076  0.017584671            4 
 2539000   0.84206613   -8.1493258    541.73549  0.017780474  0.017578827            3 
 2540000   0.84810259   -8.1681652    540.87941  0.017745388  0.017573017            3 
 2541000   0.83066661   -8.1799344    541.49298  0.017758526  0.017567182            4 
 2542000   0.84785102   -8.1590642    540.42329  0.017716473  0.017561344            2 
 2543000    0.8317245   -8.2070971    540.97503  0.017727586  0.017555475            2 
 2544000   0.82212486      -8.1478    542.55587  0.017772401  0.017549639            3 
 2545000   0.84610283   -8.1672863    540.39021  0.017694506  0.017543829            2 
 2546000   0.84714967   -8.1659175    540.38547  0.017687401  0.017537989            4 
 2547000   0.83028516   -8.1743634    542.39159  0.017746093  0.017532195            2 
 2548000   0.84148898   -8.1527403    542.77344  0.017751617  0.017526427            2 
 2549000   0.84493369   -8.1227064    541.94835  0.017717679  0.017520663            1 
 2550000   0.86836979   -8.1321241    541.62211  0.017700069  0.017514918            2 
 2551000   0.83861752   -8.1517928    540.94884  0.017671137  0.017509173            1 
 2552000   0.84176276   -8.1363389    542.66182  0.017720148  0.017503442            1 
 2553000   0.83955942    -8.156073    541.56365  0.017677361  0.017497677            4 
 2554000   0.84269732   -8.1233605    542.19009   0.01769088  0.017491951            3 
 2555000   0.83683595   -8.1271102     542.7438  0.017702016  0.017486197            3 
 2556000   0.83858727   -8.1523838    542.69378  0.017693459  0.017480461            6 
 2557000    0.8330511   -8.1708844    542.70365  0.017686861  0.017474689            4 
 2558000   0.83821617   -8.1891781    542.44442  0.017671502  0.017468922            3 
 2559000   0.84752381   -8.1315413    542.48458  0.017665904  0.017463141            2 
 2560000   0.83742102   -8.1202785    542.61354  0.017663201  0.017457386            3 
 2561000   0.85068898   -8.1550357    543.30531  0.017678814  0.017451693            2 
 2562000   0.83466348   -8.1282278    542.46527   0.01764459  0.017445979            5 
 2563000   0.84629347   -8.1495354    544.29652  0.017697247  0.017440274            2 
 2564000   0.85009207   -8.1534188    543.79746  0.017674124  0.017434581            2 
 2565000   0.83051505   -8.1504296    542.73183  0.017632613  0.017428846            2 
 2566000    0.8238956   -8.1373548    542.33593  0.017612884  0.017423102            6 
 2567000   0.83896814   -8.1403595    543.83835  0.017654796  0.017417371            4 
 2568000   0.84744309    -8.176047    541.73845  0.017579779  0.017411614            4 
 2569000   0.84146472   -8.1656083    541.71945  0.017572319  0.017405836            3 
 2570000   0.83071781   -8.1675199    544.37526  0.017651597  0.017400062            2 
 2571000   0.81951315   -8.1619714    543.33093  0.017610882  0.017394283            3 
 2572000   0.83824054   -8.1793972     541.8265  0.017555291  0.017388534            2 
 2573000   0.82224755   -8.1659416    542.48977   0.01756995  0.017382764            2 
 2574000   0.83593562   -8.1534308    542.85021  0.017574793  0.017377013            4 
 2575000   0.85331583   -8.1501125    542.58876  0.017559507  0.017371265            2 
 2576000   0.83813245   -8.1709024    542.95567   0.01756456  0.017365561            5 
 2577000    0.8347743   -8.1643315    543.01563  0.017559683  0.017359875            4 
 2578000   0.84085685   -8.1677394    542.95314  0.017550851  0.017354185            1 
 2579000   0.85581828   -8.1719747    544.53972  0.017595312  0.017348502            2 
 2580000   0.83339715   -8.1710925    543.76196  0.017563371   0.01734279           11 
 2581000   0.84316617    -8.167818    544.35573  0.017575737  0.017337084           13 
 2582000   0.83941548   -8.0974715    546.16258  0.017627246  0.017331394            6 
 2583000   0.85042934   -8.1523844    544.70754  0.017573479  0.017325707           14 
 2584000   0.84844405   -8.1368751    544.85582   0.01757146  0.017320041            1 
 2585000   0.83198067   -8.1809374     543.4154  0.017518227  0.017314338            2 
 2586000   0.83952951   -8.1732577    544.22876  0.017537663  0.017308633            2 
 2587000   0.85692944   -8.1745509    543.46768  0.017506368  0.017302923            7 
 2588000   0.85593983    -8.176522    544.91577  0.017546232  0.017297218            5 
 2589000   0.84841735    -8.180743    544.66057   0.01753124  0.017291518            4 
 2590000   0.83912079   -8.1588401    543.32511  0.017481503  0.017285809            2 
 2591000   0.82301612     -8.18374    544.65439  0.017517509  0.017280126            9 
 2592000   0.82437416   -8.1979527    544.35437  0.017501105  0.017274431           12 
 2593000   0.85160854   -8.1370058    544.35007  0.017494218  0.017268741            6 
 2594000   0.83940084   -8.1627653    544.62338  0.017496253  0.017263065            2 
 2595000   0.84138038   -8.1802758    546.29949  0.017543336  0.017257355            2 
 2596000   0.84900064   -8.1592325    544.18125  0.017468582  0.017251658            2 
 2597000   0.82559039   -8.1739425    545.69333  0.017510375   0.01724599            1 
 2598000   0.83772547   -8.1580286    545.72989  0.017504808   0.01724033            4 
 2599000   0.81937629   -8.1932259    543.53133  0.017427579  0.017234634            4 
 2600000   0.85225706   -8.1537759    546.32313  0.017510357  0.017228975            1 
 2601000   0.82739338   -8.1743994     545.4183  0.017474635  0.017223312            5 
 2602000   0.83372012   -8.1242215    544.75927  0.017446813  0.017217631            2 
 2603000   0.83928206   -8.1970491    544.47112  0.017430885  0.017211944            2 
 2604000   0.84015094   -8.1725918    545.58394  0.017459804  0.017206247            5 
 2605000    0.8396493   -8.1484843    544.79596  0.017427894  0.017200562            5 
 2606000     0.849336   -8.1057296    545.92161  0.017457202  0.017194927            3 
 2607000   0.83213477   -8.1729059    544.74843  0.017413004  0.017189268            1 
 2608000   0.83323138   -8.1838024    544.20157  0.017388854  0.017183586            3 
 2609000   0.83675829   -8.1880915    544.89894  0.017404463  0.017177904            2 
 2610000   0.85829392   -8.1606084    545.59081  0.017419885  0.017172263            2 
 2611000   0.81357933   -8.1754638    545.44283  0.017408491    0.0171666            2 
 2612000   0.81502369   -8.1675843    544.97216  0.017386809   0.01716095            3 
 2613000   0.83279078   -8.1481779    545.97966  0.017412287  0.017155295            3 
 2614000   0.82739744   -8.1790055    546.04759  0.017407791  0.017149644            3 
 2615000   0.82810214   -8.1917129    545.94426  0.017397841   0.01714398            4 
 2616000    0.8333726   -8.1597339    545.80914  0.017386886  0.017138352            1 
 2617000   0.83544881   -8.1795746    546.09279  0.017389275   0.01713268            2 
 2618000   0.86433426   -8.1734558     544.9602  0.017346581  0.017127014            2 
 2619000   0.83284199   -8.1661947    546.04825  0.017374578  0.017121392            3 
 2620000   0.83219933   -8.2071199    544.50778   0.01731895  0.017115718            2 
 2621000   0.84894862   -8.2001409     545.7558  0.017352022  0.017110058            3 
 2622000   0.84414288   -8.1936698    545.58442  0.017339958  0.017104425            3 
 2623000   0.81321466    -8.177561    546.52639  0.017363273  0.017098775            3 
 2624000   0.81316409   -8.1700658    545.80882  0.017333868  0.017093128            2 
 2625000   0.82704928   -8.1976145    546.64202  0.017353715  0.017087456            3 
 2626000   0.82402365    -8.191987    546.75473  0.017350683  0.017081769           10 
 2627000   0.83026474    -8.190392    546.03495  0.017321246  0.017076095            1 
 2628000   0.81773728   -8.2200248    546.01558  0.017314041  0.017070421            4 
 2629000   0.85170593   -8.2093208    547.10249  0.017341907  0.017064761            2 
 2630000   0.83833162   -8.2187423    545.66931  0.017289902   0.01705911            3 
 2631000   0.82910632   -8.1727214     546.9068  0.017322526  0.017053475            1 
 2632000   0.81944952   -8.1846222    545.09168  0.017258475  0.017047826            2 
 2633000   0.83011045   -8.2269348     546.1684  0.017285998  0.017042163            3 
 2634000   0.82637975   -8.2078882      545.224  0.017249557  0.017036474            4 
 2635000   0.84913672   -8.2211516    545.57282  0.017254042  0.017030794            2 
 2636000   0.81122663    -8.182272    547.83297  0.017318948  0.017025125            3 
 2637000   0.84132724   -8.2159372    546.25067  0.017262378  0.017019468            2 
 2638000   0.84691397   -8.1709385    546.63504  0.017267976  0.017013819            2 
 2639000   0.83186772   -8.1958105    546.03596  0.017242515  0.017008188            3 
 2640000   0.82140954    -8.212482    544.85608   0.01719874  0.017002547            3 
 2641000   0.81577903   -8.2142558     546.5775  0.017246545  0.016996862            2 
 2642000   0.82837963   -8.2338234    544.77648   0.01718321  0.016991204            2 
 2643000   0.83222132   -8.1765192    546.98504  0.017246344  0.016985538            2 
 2644000   0.82442484   -8.1928108    545.88846  0.017205259  0.016979891            6 
 2645000   0.82673905   -8.1981418    545.68481  0.017192338  0.016974227            2 
 2646000   0.83966159   -8.2062349    546.97872  0.017226591  0.016968564            1 
 2647000   0.81085623   -8.2186586    545.68411  0.017179326  0.016962916            2 
 2648000   0.82099637    -8.202581    546.35941   0.01719409  0.016957221            3 
 2649000   0.81999919   -8.2225885    546.28732  0.017185332  0.016951509            3 
 2650000   0.85271566   -8.2167412    544.97247  0.017137499    0.0169458            2 
 2651000   0.81951405   -8.2271775     545.7355   0.01715502  0.016940095            2 
 2652000   0.83542636   -8.2295602    547.10299  0.017191522  0.016934388            2 
 2653000   0.84775473   -8.2431304    546.14143  0.017154838  0.016928663            2 
 2654000   0.82343297    -8.227632    545.03334  0.017113581  0.016922943            3 
 2655000    0.8267502   -8.2272358    544.94577  0.017104387  0.016917207            3 
 2656000   0.81772307    -8.227325    546.67478  0.017152196  0.016911492            7 
 2657000    0.8230567   -8.2202101    545.74784  0.017116668  0.016905802            7 
 2658000   0.82757175   -8.2629118    545.75527  0.017110461  0.016900095            7 
 2659000   0.81611082   -8.2135614    545.53496  0.017097122  0.016894392            2 
 2660000   0.83113132   -8.1915042    546.26763  0.017113647  0.016888723            3 
 2661000   0.82365596   -8.2154973    545.42848  0.017080937  0.016883043           11 
 2662000   0.84059768   -8.1883095     545.7276  0.017083884  0.016877341            8 
 2663000   0.81594615   -8.2034829    547.30186  0.017126732  0.016871685            4 
 2664000   0.81492245   -8.1828083    548.15972  0.017147138  0.016866062            4 
 2665000   0.81991607   -8.2202174    546.20269  0.017079509   0.01686041            4 
 2666000   0.80400035   -8.2106436    546.89738  0.017094817  0.016854758            4 
 2667000    0.8080207   -8.2223205    546.05779  0.017062173  0.016849112            4 
 2668000   0.80990125    -8.209442    546.60587  0.017072897  0.016843458            5 
 2669000   0.82934249     -8.21256    546.75185  0.017071058  0.016837807            3 
 2670000   0.83236767   -8.2409892    545.84552  0.017036377  0.016832158            3 
 2671000   0.83290222   -8.2200913    547.22257  0.017072962  0.016826509            5 
 2672000   0.80719187   -8.2072355    547.17329  0.017065035  0.016820868            3 
 2673000   0.81166995   -8.2017992    547.52844  0.017069723  0.016815226            3 
 2674000    0.8279297   -8.2148087    547.33028  0.017057164  0.016809611            3 
 2675000   0.82943926   -8.2300901    545.30198  0.016987601  0.016803973            4 
 2676000   0.81433599   -8.2317093      547.014  0.017034567  0.016798325            4 
 2677000   0.81451563   -8.2515765    546.91287  0.017025055  0.016792673            2 
 2678000   0.83096555   -8.1857343    549.03908   0.01708486  0.016787008            2 
 2679000   0.83770695   -8.2085472     546.8421  0.017010144  0.016781372            4 
 2680000   0.82245758   -8.2541606     547.3435  0.017019388  0.016775712            2 
 2681000   0.82921502    -8.251405    545.67693  0.016961237  0.016770056            3 
 2682000   0.82350188    -8.235531    548.35099     0.017038  0.016764414            5 
 2683000   0.82283109    -8.241005    547.15119  0.016994384  0.016758754            6 
 2684000   0.81818347   -8.2320965    546.24052  0.016959778  0.016753116            3 
 2685000   0.80826381   -8.2214948    546.87793  0.016973244  0.016747454            2 
 2686000   0.81984201   -8.2724264    545.95122  0.016938174  0.016741781            3 
 2687000   0.81000732    -8.259924    546.72882  0.016955986  0.016736119            2 
 2688000   0.81760512   -8.2302991    547.57191  0.016975816  0.016730439            1 
 2689000   0.81164235    -8.241716    546.45587  0.016934916  0.016724764            3 
 2690000   0.82753225   -8.2578671    545.96999  0.016913569   0.01671905            5 
 2691000   0.80425038   -8.2350811    546.58224  0.016926243  0.016713338            2 
 2692000   0.83020553   -8.2481363    546.24192  0.016909421  0.016707638            4 
 2693000   0.80778975     -8.24255    546.18269  0.016901309  0.016701945            3 
 2694000   0.81075319   -8.2143255    547.40135  0.016932732  0.016696228            4 
 2695000   0.80362863   -8.2739351    546.30165  0.016892444  0.016690523            3 
 2696000   0.81837088    -8.278582    545.30782  0.016855459  0.016684806            3 
 2697000   0.81188447   -8.2317608    547.34517  0.016912161  0.016679112            2 
 2698000   0.80548441   -8.2358919    548.28286  0.016934855  0.016673419            3 
 2699000   0.82390933   -8.2458519    547.08404  0.016891566  0.016667725            4 
 2700000    0.8353485   -8.2496042    548.41607  0.016926422   0.01666203            4 
 2701000   0.81595887   -8.2334522    548.24767   0.01691496  0.016656363            3 
 2702000   0.83764629   -8.2392517    546.93726  0.016868285  0.016650707            5 
 2703000   0.81583803   -8.2269126    548.11391   0.01689832  0.016645067            8 
 2704000   0.83083637    -8.238506    548.32474  0.016898568  0.016639453            3 
 2705000   0.82140204   -8.2277674    548.20662  0.016888682  0.016633808           10 
 2706000   0.83536332   -8.2291977    547.80172  0.016869972  0.016628174            3 
 2707000   0.79891172    -8.228299    547.90297  0.016866857  0.016622548            2 
 2708000   0.82814987   -8.2559368    548.83918  0.016889438  0.016616927            3 
 2709000   0.83198645   -8.2379991    547.35415  0.016837522  0.016611304            4 
 2710000   0.83379639   -8.2252763    548.51164  0.016866902   0.01660567            3 
 2711000   0.81839545   -8.2572347    549.00892  0.016875966  0.016600053            6 
 2712000   0.81047058   -8.2635982    547.92362  0.016836394  0.016594443            3 
 2713000   0.81421095   -8.2346534    548.96531  0.016862185  0.016588812            3 
 2714000   0.82307018    -8.262739    548.25994  0.016834314  0.016583167            2 
 2715000   0.81553693   -8.2652698    547.37916  0.016801079  0.016577548            3 
 2716000   0.81098996   -8.2387272    548.84383  0.016839833  0.016571925            3 
 2717000   0.80573515   -8.2528871    549.52467  0.016854517  0.016566291            2 
 2718000   0.82359325   -8.2384548     548.8962  0.016829047  0.016560665            3 
 2719000   0.82064962   -8.2271643    549.35333  0.016836868   0.01655503            2 
 2720000   0.81094042   -8.2601149    546.76961   0.01675152  0.016549415            2 
 2721000   0.82732995   -8.2799497    548.73222   0.01680547   0.01654378            2 
 2722000    0.7984334   -8.2411012    548.95135  0.016806005   0.01653817            1 
 2723000   0.81428201   -8.2365653    548.48025  0.016785416  0.016532567            1 
 2724000   0.80928862   -8.2487256    548.80233  0.016789107  0.016526933            7 
 2725000   0.80681876    -8.267371    548.22275  0.016765222  0.016521305            5 
 2726000   0.83866985   -8.2628392    547.46165  0.016735805  0.016515652            2 
 2727000   0.82329055   -8.2537204    548.71423  0.016767945  0.016510014            5 
 2728000   0.79577409   -8.2603065    548.06733  0.016742037  0.016504358            3 
 2729000   0.81832744   -8.2367276      547.768  0.016726762  0.016498705            6 
 2730000    0.8199352    -8.263308    548.00885  0.016727987  0.016493053            4 
 2731000   0.80428637   -8.2690381    547.83668  0.016716608  0.016487423            5 
 2732000   0.82874855   -8.2226884    550.29263  0.016785402  0.016481797            3 
 2733000   0.79999767   -8.2154901    548.05127  0.016710918  0.016476178            3 
 2734000    0.8156264   -8.2726251    548.56247  0.016720387  0.016470568            3 
 2735000   0.80324956   -8.2642107    549.97073  0.016757182  0.016464978            4 
 2736000   0.79372589   -8.2305605    548.07552  0.016693333   0.01645938            2 
 2737000   0.80982708    -8.224052    549.02723  0.016716211  0.016453779            4 
 2738000   0.82501204   -8.2507587    549.68016  0.016729978  0.016448205            6 
 2739000   0.83961004   -8.2562146    548.00017  0.016672757  0.016442634            4 
 2740000   0.82241763   -8.2332614     550.3672  0.016738662  0.016437063            2 
 2741000   0.81277071   -8.2399501    550.00751   0.01672162  0.016431477            3 
 2742000    0.8164567   -8.2307217    550.02518  0.016716058  0.016425909            3 
 2743000   0.81300011   -8.2327522    549.55592  0.016695708  0.016420359            1 
 2744000   0.81576082   -8.2339299    549.35988   0.01668367  0.016414814            3 
 2745000   0.81731611   -8.2359487    550.36275  0.016708037  0.016409285            2 
 2746000   0.82758441   -8.2327696    550.03064  0.016691874  0.016403765            7 
 2747000   0.82116848   -8.2507987    549.45139  0.016668226  0.016398221            5 
 2748000    0.7916101   -8.2371454    550.90779  0.016706326  0.016392674            2 
 2749000   0.80371425   -8.2745728       549.24  0.016649691  0.016387141            3 
 2750000   0.81833795    -8.228351    549.43737  0.016649617  0.016381593            3 
 2751000   0.81894209   -8.2141818    550.97935  0.016690275  0.016376076            2 
 2752000   0.81261312   -8.2337638    550.49043  0.016669405  0.016370547            4 
 2753000   0.79786027   -8.2203113    549.77971  0.016641836  0.016365011            2 
 2754000   0.80685616   -8.2621894    549.33942  0.016622471  0.016359462            2 
 2755000   0.80457512   -8.2282679    549.44182  0.016619535  0.016353878            5 
 2756000   0.81925998   -8.2680404     548.0563  0.016571611  0.016348322            3 
 2757000   0.80164856   -8.2269129    551.49662  0.016669587  0.016342751            2 
 2758000    0.8080978   -8.2309427    550.99203  0.016648297  0.016337201            1 
 2759000   0.80652299   -8.2628477    550.11537  0.016615784  0.016331671            5 
 2760000     0.797505    -8.264153    550.49965  0.016621366  0.016326125            3 
 2761000   0.81613076   -8.2687374    550.30172  0.016609372  0.016320534            5 
 2762000   0.81232339   -8.2664366    550.94119  0.016622652  0.016314962            8 
 2763000   0.81063306    -8.260892    549.16193  0.016562973  0.016309406            5 
 2764000   0.79761497   -8.2720617    550.27955  0.016590676   0.01630384            2 
 2765000   0.82425241   -8.2687162    551.31053  0.016615748  0.016298287            3 
 2766000   0.81602275   -8.2526723    551.13816  0.016604548  0.016292745            8 
 2767000   0.80619466   -8.2424745    550.47148  0.016578469  0.016287194            2 
 2768000   0.81109698   -8.2870857    550.27062  0.016566432   0.01628161            2 
 2769000    0.7997558   -8.2654998    550.38763  0.016563971   0.01627606            7 
 2770000   0.79919905   -8.2982985    550.65759  0.016566113  0.016270488            2 
 2771000   0.80944369   -8.2588232    550.90795  0.016567664  0.016264944            6 
 2772000   0.81566071   -8.2797293    551.55362  0.016581097  0.016259408            5 
 2773000   0.80047003   -8.2884147    550.58588  0.016546036   0.01625388            4 
 2774000   0.82059704   -8.2412162    551.55022  0.016569041  0.016248376            1 
 2775000   0.81390927   -8.2758353     550.3751  0.016527781  0.016242888            2 
 2776000   0.81683409    -8.271456    551.60874   0.01655886  0.016237347            4 
 2777000   0.79207008   -8.2864151    550.63998  0.016523826  0.016231835            4 
 2778000   0.79792424   -8.2772992    550.16634   0.01650367  0.016226312            3 
 2779000   0.80386564   -8.2785292    551.40965  0.016535014  0.016220812            2 
 2780000   0.80593772   -8.2662528    551.68417  0.016537295  0.016215304            2 
 2781000   0.81213447   -8.2790737    551.84702  0.016536228    0.0162098            3 
 2782000   0.81746731   -8.2858972    550.06763  0.016476984  0.016204276            2 
 2783000   0.81495531   -8.2828086     550.7356  0.016491065  0.016198746            4 
 2784000   0.81640364   -8.2956302    550.90188  0.016490118  0.016193263            2 
 2785000   0.78383727   -8.3002554    550.69479  0.016478001  0.016187754            5 
 2786000   0.79463928   -8.2646968    549.40372  0.016433469  0.016182223            3 
 2787000    0.7943656   -8.2803552    550.78789   0.01646896  0.016176702            5 
 2788000   0.78795714   -8.2742083    551.20798  0.016475609  0.016171209            5 
 2789000   0.80088714   -8.2743771    550.93995  0.016461693  0.016165736            3 
 2790000   0.80081135   -8.2709313    550.93996  0.016455793  0.016160256            4 
 2791000   0.81077355   -8.2706217    552.93354  0.016509421  0.016154794            3 
 2792000   0.79574414   -8.2735917    552.03091  0.016476567  0.016149341            5 
 2793000   0.81600487   -8.2688877    553.00854  0.016499837  0.016143891            6 
 2794000   0.78423059   -8.2677083    551.82604  0.016458663  0.016138436            4 
 2795000   0.80732225   -8.2651341    552.32342  0.016467604  0.016133004            3 
 2796000    0.8123947    -8.291094    551.91105  0.016449423  0.016127551            4 
 2797000   0.80824583    -8.245736     551.6186  0.016434829  0.016122088            5 
 2798000   0.81708295   -8.2435507    552.24731   0.01644768  0.016116656            6 
 2799000   0.79681881    -8.285572    552.65223  0.016453859  0.016111239            4 
 2800000   0.80173012   -8.2565432    550.98652  0.016398408   0.01610579            5 
 2801000   0.79668089   -8.2690018    551.99319  0.016422504  0.016100325            6 
 2802000   0.80018147   -8.2373052     552.7067  0.016437863   0.01609489            4 
 2803000   0.79564702   -8.2542897    553.19576  0.016446538  0.016089475            3 
 2804000   0.81693961    -8.287679    552.05871   0.01640688  0.016084053            4 
 2805000   0.81485581   -8.2729462    552.48479  0.016413689  0.016078627            2 
 2806000   0.78956763   -8.2747991    553.13429  0.016427129  0.016073204            5 
 2807000   0.81418193   -8.2873114    552.85822  0.016413081  0.016067815            4 
 2808000   0.81803917   -8.2841963    552.87001  0.016407586  0.016062395            5 
 2809000    0.8055173   -8.2911367    552.34453  0.016386155  0.016056962            2 
 2810000    0.8022002   -8.3073603    552.15202  0.016374615  0.016051524            2 
 2811000   0.81376665   -8.2709459    553.20876  0.016400117    0.0160461            4 
 2812000   0.80756427   -8.2497888    553.48122   0.01640236  0.016040702            7 
 2813000   0.82364271   -8.2911241    553.82856  0.016406818  0.016035315            3 
 2814000   0.81052752   -8.2916494    552.24272  0.016354025  0.016029912            2 
 2815000   0.79726819   -8.2980205    552.78493  0.016364267  0.016024495            4 
 2816000   0.80616755   -8.2805712    552.44851    0.0163485  0.016019085            3 
 2817000   0.81456253   -8.3032778    553.11423   0.01636239  0.016013658            4 
 2818000   0.82377262     -8.27334    552.80284  0.016347375  0.016008251            4 
 2819000   0.80388177   -8.2815502    553.48627  0.016361779  0.016002825            2 
 2820000   0.80687911   -8.2906066    552.84177  0.016336932  0.015997406            2 
 2821000   0.79245359   -8.2537122    553.04532  0.016337153  0.015991988            7 
 2822000   0.79783986   -8.3049149    553.61535  0.016348197   0.01598656            4 
 2823000   0.79443419   -8.3001165    552.68241  0.016314866  0.015981122            2 
 2824000   0.78395441   -8.3193744    553.22329   0.01632505  0.015975676            2 
 2825000   0.78480839   -8.2996345    552.31094  0.016292358  0.015970237            2 
 2826000   0.78880008   -8.2871405    552.34122  0.016287486  0.015964802            2 
 2827000   0.78907976   -8.3237449    552.79355  0.016295058  0.015959359            3 
 2828000   0.80234295   -8.2810622    553.45141  0.016308681  0.015953917            4 
 2829000   0.81454075   -8.3332776    552.45682  0.016273619  0.015948486            5 
 2830000   0.79945819   -8.2785872    553.18257  0.016289239  0.015943044            5 
 2831000   0.79786067    -8.334514    551.60585  0.016237073  0.015937585            6 
 2832000   0.81162989   -8.2990282    551.40413  0.016225404  0.015932151            8 
 2833000   0.79357676   -8.3049205    551.99558  0.016237074  0.015926714            3 
 2834000   0.78564994   -8.3134915    552.44709  0.016244621  0.015921281            2 
 2835000   0.80938358   -8.3131183    552.71962  0.016246902  0.015915848            3 
 2836000   0.80011665   -8.2678042    553.93395  0.016276856   0.01591043            2 
 2837000   0.81006408   -8.3172234    552.68053  0.016234301  0.015904986            3 
 2838000   0.78808454   -8.2866792    553.27242   0.01624596  0.015899554            4 
 2839000   0.78955145    -8.308544    551.57278  0.016190348  0.015894121            3 
 2840000   0.80444345   -8.2879049    552.98636  0.016226126  0.015888682            1 
 2841000   0.80825471   -8.3157703    553.69493  0.016241198  0.015883267            4 
 2842000   0.80419629   -8.2714354    552.80425  0.016209367  0.015877859            2 
 2843000    0.7941711   -8.2934608    553.17214  0.016214449  0.015872465            3 
 2844000   0.79580806   -8.3136162     553.3334  0.016213473  0.015867067            6 
 2845000   0.78975617   -8.2514332    552.98799  0.016197656   0.01586165            2 
 2846000   0.79255382   -8.2913799    552.61732  0.016181111  0.015856263            2 
 2847000   0.79586981   -8.2696589    552.44583  0.016170408  0.015850866            4 
 2848000   0.79786352   -8.2774874     552.5561  0.016167957  0.015845486            1 
 2849000   0.79776986   -8.2706899    553.76938  0.016197771  0.015840114            4 
 2850000   0.79531726   -8.3134277    554.63376  0.016217362  0.015834741            6 
 2851000   0.78929313   -8.3238831    552.92563  0.016161745  0.015829347            2 
 2852000    0.8070057   -8.2744248    553.99592  0.016187351  0.015823951            2 
 2853000   0.79075193   -8.2728224    553.26817  0.016160421  0.015818565            4 
 2854000    0.7912349     -8.26681    553.15491  0.016151451  0.015813165            4 
 2855000   0.79809597   -8.2956883    553.71313  0.016162088  0.015807766            3 
 2856000   0.78155578   -8.2999223    553.85232   0.01616049  0.015802386            3 
 2857000   0.80575349    -8.283842    554.27172  0.016167067   0.01579701            4 
 2858000   0.79689856   -8.2879331    554.29898  0.016162205  0.015791648            3 
 2859000   0.79829653   -8.2876448    554.51248  0.016162775  0.015786309            3 
 2860000   0.79788657   -8.2711303     553.8857  0.016138861  0.015780985            7 
 2861000   0.80589117   -8.3074977    554.69479  0.016156786  0.015775638            3 
 2862000   0.79451974   -8.2995384    553.45341  0.016114996  0.015770307            7 
 2863000   0.81809464   -8.3530196    552.84578  0.016091681  0.015764976            3 
 2864000   0.80119671   -8.2766209     555.6825  0.016168602  0.015759617            6 
 2865000    0.8054627   -8.2704656    554.82798  0.016138103  0.015754274            4 
 2866000   0.79645063   -8.2826148    553.94135  0.016106692  0.015748942            3 
 2867000   0.79315978   -8.2969322    554.03049  0.016103665  0.015743602            2 
 2868000   0.81517922   -8.3098347    554.04983  0.016098612   0.01573825            1 
 2869000   0.80668849   -8.2997988    553.39654  0.016074025  0.015732899            2 
 2870000   0.80238507   -8.3097061    554.04561  0.016087271  0.015727528            4 
 2871000   0.78721603     -8.29521    555.21015  0.016115469  0.015722153            3 
 2872000   0.79242267   -8.2996345    554.33978  0.016084604  0.015716807            3 
 2873000   0.78406193   -8.3160197    554.02847  0.016069975  0.015711429            7 
 2874000    0.7897582   -8.2864734    553.92901    0.0160615  0.015706066            7 
 2875000   0.78043286   -8.2796444     554.7352  0.016079281  0.015700692            2 
 2876000   0.78872675   -8.2825251    554.53844  0.016067989   0.01569536            5 
 2877000   0.79440549    -8.294069    554.06591  0.016048717  0.015690029            6 
 2878000     0.781524   -8.3049931     553.6092  0.016029917  0.015684675            5 
 2879000   0.79510601   -8.2897422    553.82724   0.01603066  0.015679326            5 
 2880000   0.80540616   -8.2935044    552.97909  0.016000552   0.01567397            2 
 2881000   0.80591423   -8.3064632    554.37352  0.016035333  0.015668644            2 
 2882000   0.79671223   -8.3197586    553.25371  0.015997389  0.015663304            2 
 2883000   0.81078882   -8.3494258    552.66495  0.015974822  0.015657952            3 
 2884000     0.785671   -8.3264604    554.20626  0.016013819  0.015652593            2 
 2885000   0.79677897   -8.3340184    554.76669  0.016024457  0.015647241            3 
 2886000   0.77988535   -8.3259721    554.31952  0.016005992   0.01564188            3 
 2887000    0.7732958   -8.2979343    555.63182  0.016038327  0.015636533            3 
 2888000   0.79560647   -8.2888295    555.12214  0.016018067  0.015631189            4 
 2889000   0.79797385   -8.3156665     554.5883  0.015997124  0.015625852            2 
 2890000   0.79772543   -8.3390392    554.14665  0.015978854  0.015620506            3 
 2891000    0.7803816   -8.2888598    554.03561  0.015970126  0.015615163            2 
 2892000   0.79654817   -8.3377673    553.95136  0.015962176  0.015609812            4 
 2893000   0.77808337   -8.3172745    553.89742  0.015955105   0.01560445            4 
 2894000   0.77900899   -8.3027318    554.17971   0.01595772  0.015599108            3 
 2895000   0.77820012   -8.3255624    554.82705  0.015970842  0.015593785            2 
 2896000   0.77470338   -8.3052117    554.98887  0.015969984  0.015588435            6 
 2897000   0.78905722   -8.2982888    554.56634  0.015952317  0.015583086            1 
 2898000   0.78353576   -8.3272815    554.53877  0.015946019  0.015577741            2 
 2899000     0.777545    -8.310475    553.36847  0.015906878  0.015572394            4 
 2900000   0.79876779    -8.321019    554.42636  0.015931792  0.015567075            2 
 2901000   0.81352335   -8.2992006    555.24886  0.015949927  0.015561743            2 
 2902000   0.77889374   -8.3219211     553.8337  0.015903793  0.015556415            7 
 2903000   0.78127636    -8.320078    554.15442  0.015907522  0.015551078            6 
 2904000   0.76976091   -8.3387499    553.75486  0.015890578  0.015545734            1 
 2905000   0.80189029   -8.3348865    554.32747  0.015901534  0.015540386            2 
 2906000   0.79319763   -8.3617073    554.04577  0.015887984  0.015535047            2 
 2907000    0.7925548   -8.3298108    553.79804  0.015875417  0.015529692            2 
 2908000   0.78302262   -8.3357711    553.59887   0.01586425  0.015524328            2 
 2909000    0.7943688   -8.3453826    554.68759  0.015889985  0.015518956            5 
 2910000   0.78107238   -8.3503656    553.87836  0.015861351  0.015513574            4 
 2911000   0.79392455   -8.3351096    553.80522  0.015853808  0.015508202            5 
 2912000   0.77810088   -8.3645215    553.30909  0.015834166  0.015502819            3 
 2913000   0.78128497   -8.3464154    553.86221  0.015844554  0.015497433            3 
 2914000   0.79261898   -8.3440913    554.49146  0.015857111  0.015492049            5 
 2915000   0.78286972   -8.3314674    554.86643  0.015862391   0.01548671            3 
 2916000   0.77723148    -8.326481    555.07374  0.015862876  0.015481383            6 
 2917000   0.78030007   -8.3568374    554.58002  0.015843333  0.015476045            2 
 2918000   0.79527257   -8.3580208    554.48735  0.015835257  0.015470714            5 
 2919000   0.79992148   -8.3447976    555.11438  0.015847733  0.015465392            3 
 2920000   0.79394279   -8.3069455    555.55859  0.015854983  0.015460072            3 
 2921000   0.79722068   -8.3264152    554.36584  0.015815527  0.015454759            3 
 2922000   0.77870362    -8.345381    554.64967  0.015818209   0.01544944            2 
 2923000   0.78627533   -8.3278116    554.22892  0.015800802  0.015444133            4 
 2924000    0.7850479   -8.3373689    553.91598  0.015786479  0.015438838            2 
 2925000   0.79406925   -8.3576578    554.05612  0.015785075  0.015433531            4 
 2926000   0.78228499   -8.3565042      554.525  0.015793034  0.015428212            4 
 2927000   0.78421867   -8.3056914    555.28897  0.015809389  0.015422918            4 
 2928000   0.78104658   -8.2944796    555.01568  0.015796211  0.015417647            3 
 2929000   0.78234229   -8.3701784    554.30028  0.015770464  0.015412358            6 
 2930000   0.78285304   -8.3303591    555.92106  0.015811179  0.015407057            2 
 2931000   0.77675815   -8.3216655    555.10049  0.015782455  0.015401758            4 
 2932000   0.78843483   -8.3340408    555.79038   0.01579668  0.015396458            3 
 2933000   0.78940217   -8.3353159    555.86477  0.015793407  0.015391143            3 
 2934000   0.77941741   -8.3602227    554.80581  0.015757947  0.015385861            5 
 2935000   0.76816448   -8.3059826    555.94336  0.015784877  0.015380596            2 
 2936000   0.78041196   -8.3284068    554.34047  0.015734005  0.015375336            2 
 2937000   0.78143694   -8.3254476    556.30907  0.015784504   0.01537007            3 
 2938000   0.77703453   -8.3234041    557.30915  0.015807498   0.01536481            7 
 2939000   0.78405645    -8.350802    555.29498  0.015745009  0.015359549            4 
 2940000   0.78085355   -8.3463905    556.69881  0.015779445   0.01535428            3 
 2941000   0.77955306   -8.3335422    554.98462  0.015725508  0.015349023            9 
 2942000   0.78506662   -8.3277345    556.46404  0.015762068  0.015343757            3 
 2943000   0.80130799    -8.303354    556.66109  0.015762292  0.015338513            2 
 2944000     0.786371   -8.3589502    554.56726  0.015697669  0.015333271            4 
 2945000   0.77288513   -8.3396189    555.37642  0.015715235  0.015328006            2 
 2946000   0.80649248   -8.3339509    556.10611  0.015730542   0.01532274            6 
 2947000   0.78847909   -8.3452416    556.06742   0.01572411  0.015317494            2 
 2948000   0.79472427   -8.3856458    555.72712  0.015709157  0.015312248            2 
 2949000   0.79316295   -8.3577427     554.9975  0.015683212  0.015306956            3 
 2950000   0.76697453   -8.3694397    555.63651  0.015695947  0.015301677            2 
 2951000   0.75537151   -8.3448154    555.96555   0.01569992  0.015296417            4 
 2952000     0.780515   -8.3447383    555.61694   0.01568476  0.015291147            2 
 2953000   0.79968711   -8.3231089    555.47625  0.015675478  0.015285897            1 
 2954000   0.74660736   -8.3405521    556.85061  0.015708943  0.015280654            4 
 2955000   0.79309737   -8.3594715    555.91752  0.015677313  0.015275422            4 
 2956000   0.78737871    -8.350499    556.21161    0.0156803  0.015270178            4 
 2957000   0.78424589   -8.3556577     556.2408   0.01567582  0.015264943            1 
 2958000   0.77246406   -8.3604925    556.38567  0.015674602    0.0152597            2 
 2959000   0.76694496    -8.321075    556.58849  0.015675017  0.015254447            1 
 2960000   0.78730077   -8.3819365    555.72681  0.015645462  0.015249191            4 
 2961000   0.79253559   -8.3308401    555.55848  0.015635441  0.015243952            3 
 2962000   0.77175614    -8.334459    556.33164  0.015651914  0.015238731            2 
 2963000   0.78995433   -8.3328867    556.11311  0.015640486  0.015233485            2 
 2964000   0.76053269   -8.3607493    555.08912  0.015606419  0.015228247            1 
 2965000   0.78207101   -8.3423139    555.64722  0.015616842  0.015223022            3 
 2966000   0.78058176   -8.3551403    556.03025  0.015622338  0.015217803            5 
 2967000   0.79581274    -8.334101    556.89403  0.015641333  0.015212578            4 
 2968000   0.76709465   -8.3036081     556.9511  0.015637666  0.015207364            2 
 2969000   0.78758924   -8.3279814    555.23869  0.015584335  0.015202127            3 
 2970000   0.76727645   -8.3521811    555.91359  0.015598025  0.015196884            5 
 2971000     0.776327   -8.3328811    555.69477  0.015586637  0.015191663            2 
 2972000   0.77159366   -8.3772217    555.46528  0.015574957  0.015186418            3 
 2973000   0.77842837   -8.3529287    555.19306  0.015562088  0.015181168            3 
 2974000   0.78275349   -8.3465536    555.30566  0.015560011  0.015175928            2 
 2975000    0.7837383   -8.3384851    556.35571  0.015584194  0.015170669            1 
 2976000   0.76286849   -8.3342339     556.6335  0.015586735  0.015165424            2 
 2977000   0.76774319    -8.387872    553.57872  0.015495989  0.015160177            9 
 2978000   0.79000048   -8.3426597    556.03443  0.015559504  0.015154929            6 
 2979000   0.77318047   -8.3741394    555.41643  0.015536993   0.01514968            7 
 2980000   0.77082864   -8.3700481    555.59177  0.015536682   0.01514442           11 
 2981000   0.75901012   -8.3793682    556.78469  0.015564819  0.015139173            4 
 2982000   0.78265962   -8.3633675    556.19447  0.015543105  0.015133934           20 
 2983000   0.77115703   -8.3466785    556.06071  0.015534158  0.015128689           10 
 2984000   0.75955836   -8.3436545    555.36434  0.015509505  0.015123448            5 
 2985000   0.77067034   -8.3353937    555.26634  0.015501573  0.015118228            3 
 2986000   0.76680141   -8.3590335    556.61523  0.015534026  0.015112997            8 
 2987000   0.78157118   -8.3586202    556.51273  0.015525966  0.015107765            3 
 2988000   0.76831248   -8.3727134     554.6891   0.01546991  0.015102517            2 
 2989000   0.77286364   -8.3564975    555.43128  0.015485426  0.015097283            2 
 2990000   0.77580642   -8.3422616    556.20971  0.015501943  0.015092058            2 
 2991000   0.76903476   -8.3659148    557.17932  0.015523775  0.015086821            2 
 2992000   0.78564538   -8.3619115    555.98865  0.015485424   0.01508158           11 
 2993000   0.78681576   -8.3758237    556.44832  0.015493048  0.015076328            8 
 2994000   0.77034065   -8.3720156    554.24388  0.015426516  0.015071089            3 
 2995000   0.77400857    -8.355298    556.09909  0.015472985  0.015065846            2 
 2996000   0.77987184   -8.3752317    555.87194  0.015461503  0.015060581            8 
 2997000   0.76842131   -8.3971655    556.48226  0.015473314  0.015055333           11 
 2998000   0.77078683   -8.3482741    557.43283  0.015494575  0.015050093            1 
 2999000     0.767267   -8.3702538    555.29024  0.015429872  0.015044851            2 
 3000000   0.75359346   -8.3715968    554.27615   0.01539656  0.015039617            6 
 3001000   0.77301736   -8.3543025    556.59475  0.015455813  0.015034389            4 
 3002000   0.76789455   -8.3371933    557.70093  0.015481371  0.015029199            2 
 3003000   0.74839612   -8.3673718     556.6613  0.015447367  0.015023987            2 
 3004000   0.78428588   -8.3598508    557.07921  0.015453817   0.01501878            4 
 3005000    0.7777391   -8.3846435    556.72402  0.015438825  0.015013591            3 
 3006000   0.76435982   -8.3961844    555.71115   0.01540561  0.015008369            3 
 3007000   0.77579529    -8.377697    557.00101  0.015436232  0.015003157            3 
 3008000   0.75316022   -8.3621294    556.29805  0.015411626  0.014997945            7 
 3009000   0.78016573   -8.3840102    556.38923  0.015409029  0.014992736            3 
 3010000   0.77528841     -8.33698    555.95065  0.015391768   0.01498753            3 
 3011000   0.76102313   -8.3648529    556.37285  0.015398341  0.014982331            3 
 3012000   0.76985601   -8.3859135    555.89359  0.015379969  0.014977123            3 
 3013000    0.7565989   -8.3734608     556.3773  0.015388243   0.01497193            1 
 3014000   0.77596053   -8.3394967    556.09886  0.015375439  0.014966738            3 
 3015000   0.77541784   -8.3802748    556.41206  0.015378995  0.014961544            5 
 3016000    0.7573894   -8.3700161    556.65885  0.015380715  0.014956363            2 
 3017000   0.76258516   -8.4288611    555.96199  0.015356369  0.014951164            6 
 3018000   0.75923141   -8.3767893    556.84411  0.015375638  0.014945949            2 
 3019000   0.76305954   -8.3619828    556.71155  0.015366886  0.014940758            3 
 3020000    0.7669864   -8.3813064    557.18474  0.015374855  0.014935547            5 
 3021000   0.77273979   -8.3698898    557.43569  0.015376688  0.014930349            4 
 3022000   0.76859373   -8.3944847    556.96434  0.015358602  0.014925168            4 
 3023000   0.76177426   -8.3810679    555.82441  0.015322098  0.014919992            4 
 3024000   0.75813652   -8.3980424    557.10507  0.015352322   0.01491481            2 
 3025000   0.75692768   -8.4052296    557.13536  0.015348081   0.01490962            4 
 3026000   0.79207349   -8.3745684    555.37317   0.01529448  0.014904434            5 
 3027000   0.75791789   -8.3978591    556.23573  0.015313174  0.014899259            3 
 3028000   0.76627128   -8.3529242    558.02378  0.015357326  0.014894123            5 
 3029000   0.77768886   -8.3932602     556.9481  0.015322661  0.014888975            3 
 3030000   0.78107264   -8.3708994    557.37325  0.015329297   0.01488382            2 
 3031000   0.76877652   -8.3695133    558.24995  0.015348344  0.014878667            4 
 3032000   0.76589137   -8.3748834    556.77933  0.015302862  0.014873508            7 
 3033000   0.76203374   -8.3904329    556.55062  0.015291532  0.014868342            2 
 3034000   0.75018755   -8.3798672    556.90066  0.015296107  0.014863173            4 
 3035000   0.76432403   -8.3857379    556.48091  0.015279542  0.014858005            2 
 3036000   0.77378837   -8.3673237    557.90324   0.01531355  0.014852849            3 
 3037000   0.76558398   -8.3758941    556.84384  0.015279438   0.01484768            7 
 3038000   0.76769005   -8.3965765    557.29123  0.015286681  0.014842505            6 
 3039000    0.7720112   -8.3842007    557.99582  0.015300971  0.014837357            3 
 3040000   0.75782819    -8.355092    558.22869  0.015302322    0.0148322            3 
 3041000   0.79681337   -8.3555567    557.47698   0.01527669  0.014827056            3 
 3042000   0.75612366   -8.3756739    558.42881  0.015297743  0.014821922            3 
 3043000   0.77618503   -8.3782755    558.22464  0.015287125  0.014816786            2 
 3044000   0.76273346   -8.3561504    557.64322  0.015266185  0.014811641            3 
 3045000   0.74892487   -8.3794489    557.73366  0.015263647  0.014806521            2 
 3046000   0.75819979   -8.3840757    558.16305  0.015270383  0.014801405            4 
 3047000   0.76204739   -8.3800901    556.87303  0.015230091  0.014796282            6 
 3048000   0.75699027   -8.3854341    556.80907  0.015223345  0.014791161            7 
 3049000   0.75617856   -8.3846188    557.78637  0.015245063  0.014786055            5 
 3050000   0.76100412    -8.342565    557.17646    0.0152234   0.01478094            3 
 3051000   0.76679373   -8.3393407    558.35396  0.015250572  0.014775843            3 
 3052000   0.77444587    -8.353678    558.87984  0.015259935  0.014770729            3 
 3053000   0.75079682   -8.3833076     557.9298  0.015229004  0.014765616            4 
 3054000   0.76895939   -8.3818682    557.85225  0.015221902  0.014760493            4 
 3055000   0.77807438   -8.4008645    557.05658  0.015195215  0.014755379            4 
 3056000   0.78181353   -8.3837089    557.36372  0.015198618  0.014750262            3 
 3057000   0.75627914   -8.3749469    557.11637  0.015186904   0.01474514            4 
 3058000   0.73957659   -8.3915508    557.35567  0.015188458  0.014740023            5 
 3059000   0.74820829   -8.4026081    555.89005  0.015143567  0.014734883            2 
 3060000   0.74910723   -8.3922362    557.78246  0.015190154  0.014729754            2 
 3061000   0.76496698    -8.362505    557.88639  0.015188021  0.014724638            4 
 3062000   0.77706519   -8.4072413    557.70187  0.015178039  0.014719503            3 
 3063000   0.76801738     -8.41719    558.17901  0.015186065  0.014714368            4 
 3064000   0.75022076   -8.4302653    556.52112  0.015136018  0.014709232            3 
 3065000   0.75346337   -8.4036806    556.72264  0.015136559  0.014704073            3 
 3066000   0.76209014   -8.4066906    557.08006  0.015141337  0.014698921            5 
 3067000   0.77580633   -8.4173567    555.52196  0.015094065  0.014693757            4 
 3068000   0.75485973   -8.3730202    558.15613  0.015160695  0.014688605            5 
 3069000   0.76738691    -8.418287    556.72685  0.015116945  0.014683467            7 
 3070000   0.78073835   -8.4280703    557.77505  0.015140474   0.01467833            6 
 3071000   0.76162295   -8.3990321    557.58725  0.015130448  0.014673187            6 
 3072000   0.76065816   -8.4037404    556.87594  0.015106227  0.014668034            2 
 3073000   0.74625992   -8.4182213    556.44458  0.015089613  0.014662897            1 
 3074000    0.7616741   -8.3990983    557.70159  0.015118781  0.014657751            1 
 3075000   0.76000735   -8.4295362    555.84068  0.015063433  0.014652619            5 
 3076000   0.73859003   -8.4228374    556.67015  0.015081007  0.014647471            3 
 3077000   0.76756958   -8.4032777    556.85131  0.015081013  0.014642323            5 
 3078000    0.7693002   -8.3814509    558.90342  0.015131672  0.014637198            4 
 3079000   0.76507456   -8.3995461    556.45045  0.015060367  0.014632069            4 
 3080000   0.75602082   -8.4201087    558.06977   0.01509929   0.01462693            4 
 3081000   0.77224881   -8.4136556    557.63775  0.015082705   0.01462179            3 
 3082000   0.75593081   -8.4314719    557.35794  0.015070245  0.014616666            4 
 3083000   0.74680766   -8.3862078    558.30512  0.015090959  0.014611537            4 
 3084000    0.7603545   -8.3975284    556.52803  0.015038047  0.014606428            6 
 3085000   0.74633469   -8.4186236    556.79027  0.015040256  0.014601315            5 
 3086000   0.75717596   -8.3989035    557.54522  0.015055769  0.014596213            2 
 3087000   0.76601517   -8.3973814    556.87212  0.015032721  0.014591121            3 
 3088000   0.74670929   -8.4150296    557.14667  0.015035262  0.014586019           10 
 3089000   0.76198368   -8.3997891    556.83075  0.015021872  0.014580909           10 
 3090000   0.76353849   -8.4136102    556.94999  0.015020226  0.014575805            4 
 3091000   0.74722314   -8.4208947    557.85053  0.015039645  0.014570707            2 
 3092000   0.77251125   -8.4015918    557.62717  0.015028762  0.014565609            1 
 3093000    0.7395344   -8.4100098    556.30828  0.014988368  0.014560497            4 
 3094000   0.76013032   -8.4165742    557.86093  0.015025343   0.01455537            2 
 3095000   0.75642247    -8.412089    556.27334  0.014977742  0.014550244            7 
 3096000    0.7593909    -8.396079    557.92552  0.015017375  0.014545115            3 
 3097000   0.75637012   -8.4072704    558.17108  0.015019134  0.014539999            2 
 3098000   0.75036062   -8.4184164    557.50357   0.01499633    0.0145349            3 
 3099000   0.74245649   -8.4419103    556.54723  0.014965775  0.014529782            4 
 3100000   0.75079618   -8.4085561    558.17823  0.015004791  0.014524664            2 
 3101000   0.74402987    -8.414494    558.26718  0.015002343  0.014519551            7 
 3102000   0.77835759   -8.4159678    558.42115  0.015001643  0.014514461            2 
 3103000   0.74714823   -8.4364506    556.78308  0.014952817  0.014509349            3 
 3104000   0.76625351   -8.4283053    558.53551  0.014995047  0.014504265            7 
 3105000   0.75071796   -8.4415617     556.4523  0.014934307  0.014499175            2 
 3106000   0.76334514   -8.4545116    555.86732  0.014913804  0.014494071            3 
 3107000   0.75569018   -8.4114433     558.0443  0.014967394  0.014488974            2 
 3108000   0.77522514   -8.4403671    557.05547  0.014936065  0.014483886            2 
 3109000   0.75675727   -8.4468992     557.9297  0.014954693  0.014478793            3 
 3110000   0.74306294   -8.4226815    557.77713  0.014945796  0.014473728            3 
 3111000   0.75137166   -8.4272579     556.2273  0.014899478   0.01446865            3 
 3112000   0.76210866   -8.4186762    556.55352  0.014903425  0.014463562            3 
 3113000   0.75790313   -8.4581668    557.24151  0.014917055  0.014458464            2 
 3114000   0.75121085   -8.3985666    558.54837  0.014947238  0.014453388            6 
 3115000   0.76110498   -8.4102943    558.06029  0.014929382  0.014448329            2 
 3116000   0.76251191   -8.4206608    556.71046  0.014888491  0.014443265            2 
 3117000   0.75690734   -8.4268142    557.92167  0.014916096  0.014438193            3 
 3118000   0.76844688   -8.4010772    557.78467  0.014907651  0.014433114            3 
 3119000   0.76338671   -8.4279892    558.55965  0.014923577   0.01442805            2 
 3120000   0.75233854   -8.4116604    558.17299  0.014908467  0.014422964            5 
 3121000   0.75878026   -8.4144768    557.38944  0.014882768  0.014417881            4 
 3122000    0.7566318   -8.4473047    555.95252  0.014839647  0.014412798            8 
 3123000   0.75482911   -8.4241641    556.03635  0.014837132  0.014407711            3 
 3124000   0.75824217   -8.4181732     556.8632  0.014854439  0.014402646            3 
 3125000   0.74999891   -8.4142285     558.4999  0.014893331  0.014397585            4 
 3126000   0.75375632   -8.4231369     557.1202  0.014851786  0.014392513            2 
 3127000   0.74651344   -8.4213767    559.57439   0.01491244  0.014387453            3 
 3128000   0.74210813   -8.4322811      558.201  0.014871084  0.014382385            3 
 3129000   0.75332966   -8.4386086    556.82487  0.014829681  0.014377312            6 
 3130000   0.74821285   -8.4563587    558.09148  0.014858666  0.014372244            5 
 3131000   0.74530057   -8.4288469    557.69593  0.014843392  0.014367189            6 
 3132000   0.75269087   -8.4267282    557.84418  0.014842597  0.014362157            4 
 3133000   0.75249977   -8.4201792     559.2439   0.01487509  0.014357119            9 
 3134000   0.75780013   -8.4413116    558.11357  0.014840289  0.014352069            5 
 3135000   0.75686571   -8.4231588    558.27245  0.014839778  0.014347044            2 
 3136000      0.75099   -8.4113986    556.72054  0.014793807  0.014341989           11 
 3137000   0.75385956   -8.3943087     559.2998  0.014857608  0.014336956            3 
 3138000   0.73083105   -8.4194036    558.53479  0.014832558  0.014331926            7 
 3139000   0.74330192   -8.4221595    558.63808  0.014830575  0.014326894            7 
 3140000   0.77078769   -8.4126906    557.93448  0.014807178  0.014321847            4 
 3141000   0.73671016   -8.4201744    557.09557  0.014780207  0.014316816            5 
 3142000   0.74618097   -8.4171841    557.76469   0.01479325  0.014311778            2 
 3143000   0.74769551   -8.4288619     557.6283  0.014784927  0.014306742            1 
 3144000   0.77480321   -8.4078547    557.43238  0.014775031  0.014301709           10 
 3145000   0.73413925   -8.4113572    557.42631  0.014770172  0.014296679            8 
 3146000   0.75875636   -8.4226788    557.29544  0.014762011  0.014291655            5 
 3147000   0.75384035   -8.4276891    557.48358  0.014762302  0.014286607            2 
 3148000   0.74679824   -8.4217713    557.28811  0.014752438  0.014281573            4 
 3149000   0.73412051   -8.4181483    557.45438  0.014752154  0.014276528            9 
 3150000   0.75530009   -8.4385845    557.27724  0.014742784  0.014271485            5 
 3151000   0.74723271   -8.4325744    557.64242  0.014747763  0.014266442            4 
 3152000   0.74415492   -8.4026702    557.87842  0.014749324  0.014261409            4 
 3153000   0.75116969   -8.4354854    557.87934   0.01474467  0.014256387            2 
 3154000   0.73395221   -8.4195522    559.45776  0.014781699  0.014251371            4 
 3155000   0.74290615   -8.4251223    557.67787  0.014730002  0.014246346            3 
 3156000   0.75706133   -8.4104629    557.40992  0.014718259   0.01424131            2 
 3157000   0.75193994   -8.4494115    557.46757  0.014715119  0.014236296            5 
 3158000    0.7475822   -8.4418143    557.96262  0.014723523  0.014231282            3 
 3159000   0.73433221   -8.4094384    558.64896  0.014736967  0.014226283            3 
 3160000   0.74653993    -8.427705    558.40598  0.014725896  0.014221291            1 
 3161000   0.74104867   -8.4022234    557.25277  0.014690836  0.014216297            2 
 3162000   0.74570327   -8.3965193    558.68612  0.014723965  0.014211313            5 
 3163000   0.76508646   -8.4053065    558.45454  0.014713208  0.014206306            2 
 3164000   0.72466893   -8.4135433    557.72574  0.014689363  0.014201296            4 
 3165000   0.74883694   -8.4532993    558.28665  0.014699491    0.0141963            2 
 3166000   0.73740157   -8.4371162    557.49308   0.01467396    0.0141913            5 
 3167000   0.74373637   -8.4341944    556.69214  0.014648251   0.01418628            3 
 3168000   0.74040431   -8.4239599    558.03634  0.014678986  0.014181254            4 
 3169000   0.75610864    -8.461047    558.32399  0.014681918  0.014176229            4 
 3170000   0.74792698   -8.4381579    557.33921  0.014651399  0.014171213            4 
 3171000   0.75641937   -8.4494408    556.28207  0.014618997  0.014166182            3 
 3172000   0.75473126   -8.4380729    557.08481  0.014635477  0.014161142            5 
 3173000   0.73999968    -8.443777    557.92685   0.01465298  0.014156127            6 
 3174000   0.74533524   -8.4671344    558.18355  0.014655103  0.014151081            3 
 3175000    0.7264171   -8.4283909    557.33882  0.014628315  0.014146039            4 
 3176000   0.74648659   -8.4227349    557.94306  0.014639564   0.01414101            6 
 3177000   0.73669394   -8.4515864    557.60369  0.014626054  0.014135976            3 
 3178000   0.74787145   -8.4461568    556.70635  0.014597922  0.014130946            6 
 3179000   0.75275808   -8.4200591    556.77097  0.014595024  0.014125932            5 
 3180000   0.75861219   -8.4534764    556.89582  0.014593706  0.014120917            6 
 3181000   0.74609309   -8.4524757    556.91669  0.014589665  0.014115892            7 
 3182000   0.74663318   -8.4387348    557.20111  0.014592528  0.014110874            8 
 3183000   0.73387851   -8.4331397     557.8548  0.014605058  0.014105841            2 
 3184000   0.74794602   -8.4211143    557.55599   0.01459265  0.014100827            5 
 3185000    0.7390969   -8.4406862    558.12338  0.014602914  0.014095807            3 
 3186000   0.73093729   -8.4317871    556.57676  0.014557877  0.014090796            5 
 3187000   0.75081412   -8.4380347    557.32521   0.01457288  0.014085779            4 
 3188000   0.73474954   -8.4409491    557.76798  0.014579882  0.014080767            2 
 3189000   0.73437232   -8.4519246      557.879  0.014578211  0.014075743            3 
 3190000   0.73704275     -8.45483    557.24885   0.01455718  0.014070717            9 
 3191000   0.74609673   -8.4304311     557.1636  0.014550392  0.014065686           13 
 3192000   0.74222757   -8.4555286     557.3111  0.014549684  0.014060654            4 
 3193000    0.7402418   -8.4614039     557.1916  0.014542008  0.014055618            5 
 3194000   0.73927571   -8.4451879    557.42387  0.014543516  0.014050589            3 
 3195000   0.72935738   -8.4574202    557.05593  0.014529367  0.014045571            6 
 3196000   0.71983736   -8.4625244    556.82943  0.014518915  0.014040557           11 
 3197000   0.76283906   -8.4701369    557.12923  0.014522188  0.014035537            3 
 3198000   0.72824489   -8.4526903    557.20145  0.014519529  0.014030524            4 
 3199000   0.74084963   -8.4653322    557.75491  0.014529408  0.014025526           11 
 3200000   0.73301871   -8.4308932    557.55548  0.014519674  0.014020532            3 
 3201000   0.72188624   -8.4423059    557.44118  0.014512162  0.014015523            3 
 3202000   0.73449933   -8.4560425    557.78951  0.014516696  0.014010517            7 
 3203000    0.7511019    -8.446442     558.5235   0.01453126  0.014005514            3 
 3204000   0.74212961   -8.4568767    555.63014  0.014451471  0.014000523            5 
 3205000   0.73728919   -8.4557328    557.43248  0.014493824  0.013995527            5 
 3206000   0.73183179   -8.4570099     558.2082  0.014509467  0.013990519            3 
 3207000   0.74817256   -8.4494112    556.91275   0.01447128  0.013985522            6 
 3208000   0.74284844   -8.4536777    557.67948  0.014486687  0.013980524            6 
 3209000   0.74291261   -8.4448148     557.6327  0.014480957  0.013975528            4 
 3210000   0.72922217   -8.4506989    556.94499  0.014458593  0.013970533            2 
 3211000   0.72429564   -8.4598126    558.02201  0.014482041  0.013965531            5 
 3212000   0.75629473   -8.4451838    557.11687  0.014454049  0.013960533            5 
 3213000   0.73105727     -8.46231    557.32524  0.014454955  0.013955541            2 
 3214000   0.74023736   -8.4216505    557.07126  0.014443872  0.013950579            4 
 3215000   0.74711422    -8.433153    556.76876  0.014431539  0.013945612            5 
 3216000   0.73973812   -8.4695502    557.14648  0.014436839  0.013940622            9 
 3217000   0.74618087   -8.4727941    556.91576  0.014426375  0.013935617            7 
 3218000   0.73016106   -8.4821415     556.4294  0.014409297  0.013930607            7 
 3219000   0.73498733    -8.452571    556.98669  0.014419248   0.01392562            3 
 3220000   0.74770327   -8.4838681    556.44579  0.014400771  0.013920613            5 
 3221000   0.74346211   -8.4764454    555.95241  0.014383535  0.013915587            5 
 3222000   0.74184112   -8.4428549    556.48205   0.01439277  0.013910576            7 
 3223000   0.75232866   -8.4923347    557.71033  0.014420062  0.013905555            3 
 3224000   0.73367605   -8.4998388    556.20758  0.014376747  0.013900533            8 
 3225000   0.72341059   -8.4784206    557.31059   0.01440079  0.013895527            9 
 3226000   0.71988599   -8.4787333     557.0237  0.014388916  0.013890518            2 
 3227000   0.73702763   -8.4847842     556.5155  0.014371333  0.013885512            4 
 3228000   0.71558111   -8.4819615    557.10044  0.014381982  0.013880505            2 
 3229000   0.74194112   -8.4720022    557.45084  0.014386571  0.013875508            3 
 3230000   0.71898167   -8.4752718    557.14919  0.014374334   0.01387052            2 
 3231000   0.73676577    -8.501949    556.88319  0.014363025  0.013865511            2 
 3232000   0.72756686   -8.4809246    556.79213  0.014356233  0.013860502            4 
 3233000   0.72601255    -8.495975    556.07248  0.014333243  0.013855498            4 
 3234000   0.75535679    -8.493166    555.44549  0.014312654  0.013850506            4 
 3235000   0.75547017   -8.5109126     556.3659   0.01433194  0.013845498            5 
 3236000   0.72763546     -8.51061    555.94349  0.014316633  0.013840483            4 
 3237000   0.74207446   -8.4902009    556.15668  0.014317698  0.013835457            6 
 3238000   0.72663335   -8.4759052    556.33041  0.014317748  0.013830434           10 
 3239000   0.73008771   -8.4750976    556.64067   0.01432131  0.013825423            1 
 3240000   0.73140609   -8.5162885    555.10209  0.014277317  0.013820418            8 
 3241000    0.7385781   -8.4708666     555.6531   0.01428708  0.013815419            7 
 3242000   0.72327562   -8.5085067    556.35603  0.014300741  0.013810421            5 
 3243000   0.73233087   -8.5068964    556.57129  0.014301863  0.013805409           11 
 3244000   0.73857751   -8.4879852     556.7103  0.014301025  0.013800425            3 
 3245000   0.72920857   -8.4787006    557.19436  0.014309049  0.013795417            5 
 3246000   0.75332029   -8.4928235    556.30495  0.014281807  0.013790421            2 
 3247000    0.7339031   -8.4819824    556.50334    0.0142825  0.013785433            3 
 3248000   0.72353914   -8.4976707    557.17381  0.014295305   0.01378044            2 
 3249000   0.72775656   -8.4856977    557.37861  0.014296158  0.013775448            4 
 3250000   0.72782489   -8.5437714    555.73825  0.014249699  0.013770463            2 
 3251000   0.73354514    -8.518625    556.76301  0.014271583  0.013765482            4 
 3252000   0.74191988   -8.5094796    555.62816  0.014238114   0.01376049            4 
 3253000   0.73153834   -8.5071122    556.86876  0.014265518  0.013755494            1 
 3254000   0.73303356   -8.5051395    556.24758  0.014245226  0.013750517            2 
 3255000   0.74211449   -8.5263846    557.73054  0.014278816  0.013745541            4 
 3256000   0.76082153   -8.5072293    556.41087  0.014240655  0.013740567            3 
 3257000   0.72075997   -8.4849525    556.62201  0.014241685  0.013735604            2 
 3258000   0.74157083   -8.4957629    557.41987  0.014257721  0.013730646            9 
 3259000   0.73122638   -8.5014331    556.12358    0.0142202    0.0137257            3 
 3260000   0.72868835   -8.4823784    556.76773  0.014232304   0.01372076            5 
 3261000   0.73504167   -8.5127299    556.49626  0.014221002  0.013715811            8 
 3262000    0.7265645    -8.478109     557.1387  0.014233055  0.013710864            4 
 3263000   0.73037754   -8.4794117    555.42279  0.014184871  0.013705912            6 
 3264000   0.72400238   -8.4613843    558.28792  0.014253675  0.013700979            5 
 3265000    0.7332205   -8.5123632    557.50469  0.014229318  0.013696044            5 
 3266000   0.73358978   -8.4984722    556.76755  0.014206153  0.013691098            5 
 3267000   0.70873002   -8.4815979    557.55571  0.014221909  0.013686168            4 
 3268000   0.74868829   -8.4815302    556.38949  0.014187819  0.013681232            7 
 3269000   0.72107119   -8.4969844    556.61757  0.014189293  0.013676294            6 
 3270000   0.73915129   -8.5191132    556.80877  0.014189826  0.013671349            6 
 3271000   0.73332681   -8.5056427    556.16868  0.014169181  0.013666415            9 
 3272000   0.73176897   -8.4870676    557.80976  0.014206646  0.013661482            8 
 3273000    0.7385411   -8.4749592    557.17494  0.014186143  0.013656541            4 
 3274000   0.74478822   -8.5164419     556.9278  0.014175519  0.013651608            6 
 3275000   0.74155556   -8.5160772    557.10821  0.014175781  0.013646667            5 
 3276000   0.73053795   -8.5001688    557.22996  0.014174551   0.01364173            5 
 3277000   0.73622899   -8.5066523    557.43674  0.014175484  0.013636803            8 
 3278000    0.7229227   -8.4885126    556.76124  0.014153987  0.013631866           10 
 3279000   0.72667541   -8.4941769    557.75145  0.014174836  0.013626951           11 
 3280000   0.72260272   -8.5079588    557.48252  0.014163682  0.013622052            4 
 3281000   0.72149961   -8.4958215    556.96025    0.0141461  0.013617146            2 
 3282000   0.74283907   -8.4963759      555.774   0.01411167  0.013612198            3 
 3283000   0.75467307   -8.5010331    556.91545  0.014136345  0.013607284            3 
 3284000   0.73078312   -8.5186743    556.73133  0.014127368  0.013602354            4 
 3285000    0.7414703   -8.5109416    556.68344  0.014121853  0.013597435            3 
 3286000   0.72952163   -8.4871641    557.18809  0.014130353  0.013592518            5 
 3287000   0.73356043   -8.4977108    556.24618  0.014102175  0.013587603            5 
 3288000   0.73281692    -8.495242    556.58234  0.014106406  0.013582682            7 
 3289000   0.72458961   -8.5083679    556.70739  0.014105285  0.013577765            3 
 3290000   0.73429464    -8.499633    557.48668  0.014120736  0.013572844            2 
 3291000   0.72942236   -8.5002687    555.68095  0.014070722  0.013567922            5 
 3292000   0.71809376   -8.4818557    557.53379   0.01411335  0.013563018            2 
 3293000    0.7098663   -8.5315072    555.83068  0.014065965  0.013558107            2 
 3294000   0.70789304   -8.5035474    557.85636  0.014112942  0.013553193            2 
 3295000   0.72896034   -8.5026404    557.75559   0.01410611  0.013548292            5 
 3296000   0.74921108   -8.5172211    556.69654  0.014075054  0.013543397            2 
 3297000   0.72585548   -8.5116375    555.92932  0.014051393  0.013538504            4 
 3298000   0.71524353   -8.5110948    556.61255  0.014064396  0.013533604            5 
 3299000   0.73580651   -8.5118415    556.56368  0.014058899  0.013528717            2 
 3300000   0.72845955   -8.5143025    556.45497  0.014051893  0.013523828            3 
 3301000   0.72357504    -8.504411    557.11665   0.01406434  0.013518948            3 
 3302000   0.71949079   -8.5152623    557.81976  0.014077825  0.013514074            5 
 3303000   0.74137727   -8.4765169    558.03879   0.01407909  0.013509201            3 
 3304000   0.72112697   -8.5130152    556.32836  0.014031688  0.013504326            7 
 3305000   0.72773007   -8.5191578     557.2029  0.014049493  0.013499451            6 
 3306000   0.72898884   -8.5105469    557.24692  0.014046353  0.013494579            6 
 3307000   0.73937512   -8.5186605    557.03233  0.014036698  0.013489715            4 
 3308000   0.73129753   -8.5150889    557.63596  0.014047661  0.013484855            7 
 3309000   0.73691132    -8.511236    557.00165  0.014027441  0.013479994            1 
 3310000    0.7383775   -8.4760167    557.67989  0.014040279  0.013475143            2 
 3311000   0.71784388   -8.4826002    558.05608  0.014045507   0.01347029            3 
 3312000   0.71137834   -8.4885493    558.23713  0.014045821  0.013465437            3 
 3313000   0.70893109   -8.5099074     557.1943  0.014015351  0.013460589            2 
 3314000   0.72484939   -8.4716521    558.85436  0.014052866  0.013455751            2 
 3315000   0.72738043   -8.4813324    558.77452   0.01404662  0.013450935            1 
 3316000   0.71685754   -8.4925508    558.63186  0.014038798  0.013446115            4 
 3317000   0.71576856   -8.4995179    557.74213  0.014012213  0.013441293            3 
 3318000   0.71477848   -8.5097935    557.29941  0.013996871  0.013436465            8 
 3319000   0.71063363   -8.5174045    556.72426  0.013978213  0.013431614            2 
 3320000   0.74198708   -8.5081728     557.1333   0.01398427  0.013426777            4 
 3321000   0.71675086    -8.488758    557.74971  0.013995526  0.013421937            4 
 3322000   0.72834562   -8.5228476    557.37057  0.013981802    0.0134171            5 
 3323000   0.69922291    -8.502483     557.5435  0.013981931  0.013412258            6 
 3324000   0.71127237   -8.4998227    557.94315  0.013987745  0.013407422            5 
 3325000   0.70426715   -8.5088843    558.11621  0.013987875  0.013402595            1 
 3326000   0.74547717   -8.5062997    557.38744   0.01396541  0.013397766            2 
 3327000   0.72616963   -8.5114968    557.35048  0.013960287  0.013392933            4 
 3328000   0.71858985   -8.5120732    557.90165  0.013969893  0.013388119            4 
 3329000   0.71518009   -8.5076901    557.67037  0.013959907  0.013383294            4 
 3330000   0.71343753   -8.5040441    557.37247   0.01394826   0.01337848            4 
 3331000   0.73033634   -8.4999873    557.39638  0.013944671  0.013373669            7 
 3332000   0.71539651   -8.5367975     556.7929  0.013925393  0.013368844            4 
 3333000   0.71198856   -8.5007109    557.33711  0.013934821  0.013364028            3 
 3334000   0.72312743   -8.5199383    557.93149  0.013945498  0.013359214            4 
 3335000   0.72072889   -8.5185059    558.02128   0.01394356  0.013354406            3 
 3336000    0.7323151   -8.5206395    557.13077  0.013917135  0.013349583            2 
 3337000   0.71795589   -8.5177431    556.60781  0.013899905  0.013344764            3 
 3338000   0.72536399   -8.5492177    556.51283   0.01389337  0.013339939            5 
 3339000   0.72189054   -8.5073248    557.78058  0.013920849  0.013335123            6 
 3340000   0.69629544   -8.5068388    557.02832  0.013897912  0.013330311            6 
 3341000   0.71130121   -8.5172549     558.2837  0.013925065  0.013325496            3 
 3342000   0.70973108     -8.51002    558.45684  0.013925216  0.013320688            5 
 3343000   0.71688906   -8.5123939    557.24324  0.013890798  0.013315872            3 
 3344000   0.71768623   -8.5450072    558.12703  0.013908668   0.01331105            6 
 3345000    0.7062669   -8.5512395     557.3615  0.013885439  0.013306251            3 
 3346000   0.70854748   -8.5192037    558.54161   0.01391068  0.013301448            2 
 3347000     0.719603   -8.5186492    558.76468  0.013912078  0.013296652            1 
 3348000   0.71902955   -8.5189185    558.21361  0.013894206  0.013291852            4 
 3349000   0.72176156    -8.555695    557.41359   0.01387015  0.013287038            2 
 3350000   0.71831244   -8.5415019    556.11738  0.013833766  0.013282226            2 
 3351000   0.70937957   -8.5590608    556.17433  0.013831054  0.013277404            3 
 3352000   0.71146741   -8.5362617    556.35112  0.013831322  0.013272591            4 
 3353000   0.71994053   -8.5234754    557.67022  0.013859982  0.013267781            3 
 3354000   0.71402491   -8.5533713     557.3385  0.013847607  0.013262975            5 
 3355000   0.72009593   -8.5598282    556.75549  0.013828999  0.013258174            6 
 3356000   0.71056056   -8.5431735    558.56383  0.013869781  0.013253367            3 
 3357000   0.69528559   -8.5443905    557.20567  0.013831935  0.013248567            4 
 3358000   0.71739637   -8.5522995     557.1864  0.013827338   0.01324376            4 
 3359000    0.7165514   -8.5756595    556.74535  0.013812279  0.013238957            2 
 3360000   0.71269543   -8.5458003    557.87829  0.013836267  0.013234152            1 
 3361000    0.7147271   -8.5755854    557.43855  0.013821248  0.013229348            2 
 3362000   0.70085677   -8.5600229    557.31279  0.013814019  0.013224541            5 
 3363000   0.71230886   -8.5582523    557.03093  0.013802927  0.013219738            3 
 3364000   0.70224996   -8.5649092    556.33794  0.013781657  0.013214943            1 
 3365000   0.71827893   -8.5476208    556.11409  0.013772018   0.01321015            2 
 3366000   0.70665361   -8.5364826    556.96968  0.013789109  0.013205355            8 
 3367000   0.71725781   -8.5339629    556.30741  0.013768622  0.013200569            4 
 3368000   0.71283395   -8.5418062    557.46772  0.013793243  0.013195778            3 
 3369000   0.71572405   -8.5556869     555.9696  0.013752093  0.013190993            2 
 3370000   0.70686054   -8.5882312    557.20688  0.013778607  0.013186198            3 
 3371000   0.71831084   -8.5680639    556.72098  0.013762508  0.013181402            2 
 3372000   0.72826221   -8.5429414    558.84458  0.013810908  0.013176609            2 
 3373000   0.70963968   -8.5607848      556.968  0.013760451  0.013171825            4 
 3374000   0.71462404   -8.5479562       557.24   0.01376309  0.013167042            8 
 3375000   0.69494459   -8.5578263    557.49409  0.013765286  0.013162249            9 
 3376000   0.70592425   -8.5565944    556.67081  0.013740887  0.013157465            2 
 3377000   0.73612674   -8.5554189    556.67711  0.013736973  0.013152697            4 
 3378000   0.69591083   -8.5539577    556.95912  0.013739864  0.013147943            6 
 3379000   0.71135932   -8.5257076    557.72762   0.01375475  0.013143185            2 
 3380000    0.7156171   -8.5364719    556.19914  0.013712996  0.013138422           15 
 3381000   0.72158109   -8.5466816    557.83602  0.013749286   0.01313367            4 
 3382000   0.71573307   -8.5560933    556.75283   0.01371853  0.013128925            2 
 3383000   0.71458059   -8.5706851    556.02493  0.013696545  0.013124166            5 
 3384000   0.71032721   -8.5359324    558.29326  0.013748357  0.013119407            2 
 3385000   0.71176853   -8.5588579    557.30805  0.013720041  0.013114659            4 
 3386000     0.719901   -8.5979592    558.27858  0.013739874  0.013109899            3 
 3387000   0.71114091   -8.5510936    557.12076  0.013707331  0.013105138            2 
 3388000   0.70812656   -8.5632191    556.58171  0.013690026  0.013100383            1 
 3389000   0.70942933   -8.5473091      557.901  0.013718427  0.013095636            3 
 3390000   0.72324689   -8.5468059     556.9968  0.013692153  0.013090896            4 
 3391000   0.70853319   -8.5526752    556.68388  0.013680426  0.013086147            3 
 3392000   0.70876806   -8.5470865    557.57376  0.013698255  0.013081416            9 
 3393000   0.69783432    -8.557939    556.66938  0.013672006   0.01307666            4 
 3394000   0.71781575   -8.5655738    557.45042  0.013687154  0.013071919            7 
 3395000   0.69883212   -8.5633171    557.10982  0.013674762  0.013067171            4 
 3396000   0.71923208   -8.5797719    556.13824  0.013646894  0.013062419            6 
 3397000    0.7166889   -8.5465063    557.85956  0.013685104  0.013057678            2 
 3398000   0.70398055   -8.5626839    558.06535  0.013686123  0.013052938            6 
 3399000   0.69992141   -8.5359071    557.85697  0.013676988  0.013048199            4 
 3400000   0.68912595   -8.5783909    557.25506  0.013658212  0.013043456            4 
 3401000   0.71094606   -8.5838576    557.55579  0.013661565  0.013038711            5 
 3402000   0.70235682   -8.5825484    555.55109  0.013608443   0.01303396            3 
 3403000   0.71324311   -8.5515597    556.30562  0.013622921  0.013029221            3 
 3404000   0.70708788   -8.5580104    556.82417  0.013631614  0.013024494            6 
 3405000   0.69457027   -8.5682435    557.03137  0.013632682  0.013019768            4 
 3406000   0.71441993   -8.5634833    558.02036  0.013652876   0.01301505            5 
 3407000   0.70834388   -8.5436491    557.76035  0.013642509  0.013010327            3 
 3408000    0.6971441   -8.5736417    556.99037  0.013619679  0.013005611            4 
 3409000   0.71397343   -8.5487466    557.53685  0.013629042  0.013000894            2 
 3410000   0.70314303   -8.5792682    557.97369  0.013635721  0.012996164            2 
 3411000   0.69233973   -8.5561212    557.16647  0.013612002  0.012991447            5 
 3412000   0.71707622   -8.5794571    555.93094  0.013577837  0.012986714            3 
 3413000   0.69682013   -8.5798586    555.97265  0.013574877  0.012981993            1 
 3414000   0.70089009   -8.5726409    556.99423  0.013595837  0.012977277            7 
 3415000   0.69654298   -8.5822582    557.53141  0.013604964  0.012972549            6 
 3416000   0.70431672   -8.5538339    556.46589  0.013574988  0.012967825            8 
 3417000   0.70380339   -8.5669801    557.28053  0.013590882  0.012963112            2 
 3418000   0.70183286   -8.5846568    558.03781  0.013605369  0.012958401            5 
 3419000    0.6962497   -8.5472801    558.44982  0.013611432   0.01295369            7 
 3420000   0.69142807   -8.5437567    556.22871  0.013553331     0.012949            4 
 3421000   0.70045068   -8.5786708    558.23609  0.013598268  0.012944311            3 
 3422000   0.69616042   -8.5650524    556.73253  0.013557679  0.012939615            3 
 3423000   0.70993887   -8.5749869    555.45373  0.013522586  0.012934913            3 
 3424000   0.70560538   -8.5598073    557.76542  0.013574898  0.012930216            5 
 3425000   0.71351005   -8.5767938     556.4912  0.013539932  0.012925516            2 
 3426000   0.71195351   -8.5629494    557.72744   0.01356605  0.012920826            3 
 3427000    0.7013233   -8.5702148    557.11615  0.013547227  0.012916133            4 
 3428000   0.71347065   -8.6138219    555.66053  0.013507889   0.01291144            2 
 3429000   0.71456563   -8.5622709    556.34926  0.013520688  0.012906751            4 
 3430000   0.69712029   -8.5779747    557.07125  0.013534287  0.012902065            2 
 3431000     0.702622   -8.5516121    557.82823  0.013548728   0.01289738            5 
 3432000    0.6932071   -8.5814658     557.1433  0.013528149  0.012892687            4 
 3433000   0.71072707   -8.5680369    557.62163   0.01353582  0.012888011            6 
 3434000   0.70044619   -8.5597384     558.4978   0.01355314  0.012883338            7 
 3435000   0.70644402    -8.540525    557.47376  0.013524351  0.012878666            5 
 3436000   0.70865818    -8.579916    557.53657  0.013521938  0.012873998            2 
 3437000   0.69704155   -8.5670249    557.03608  0.013505869  0.012869333            3 
 3438000    0.6968064   -8.5762986    557.07262  0.013502827  0.012864663            2 
 3439000   0.70424121   -8.5645375     557.2026   0.01350205  0.012859997            4 
 3440000   0.70410229   -8.5521541    557.78653  0.013512271  0.012855324            4 
 3441000   0.69853671   -8.5677279     558.2883  0.013520496  0.012850667            4 
 3442000   0.69950408   -8.5808809     557.2363  0.013491098     0.012846            2 
 3443000   0.70350296   -8.5874151    556.69732  0.013474134  0.012841347            3 
 3444000   0.70332036   -8.5805042    556.97391  0.013476914  0.012836694            2 
 3445000   0.70839075    -8.577697    556.69877  0.013466347   0.01283203            3 
 3446000   0.69233949   -8.6109558    556.11476  0.013448316  0.012827368            4 
 3447000   0.70193306   -8.5920045    557.15095  0.013469465  0.012822702            3 
 3448000   0.70365311   -8.5802389    557.57975  0.013475922  0.012818037            7 
 3449000   0.69049994   -8.5798515      555.932  0.013432203  0.012813366            9 
 3450000   0.67792154   -8.5812341    556.67563  0.013446271  0.012808693            2 
 3451000    0.7130018   -8.5958718    556.48721  0.013437825  0.012804044            5 
 3452000   0.69839429   -8.5872126    557.14392  0.013449786   0.01279939            2 
 3453000   0.70676213   -8.5746218    556.80828   0.01343779  0.012794744            2 
 3454000   0.69537432   -8.5726952    557.30412  0.013445863    0.0127901            8 
 3455000   0.67849729   -8.5799497    557.33217  0.013442648  0.012785445            2 
 3456000   0.69885168   -8.5687487    556.99971  0.013430741  0.012780787            4 
 3457000   0.69526061   -8.5776553    558.19085   0.01345557  0.012776141            2 
 3458000   0.69578268   -8.5981631    557.10437  0.013425496  0.012771496           13 
 3459000   0.69349222   -8.5767178    557.65742  0.013434938   0.01276685            5 
 3460000    0.7033971   -8.6056023    557.28409  0.013422064  0.012762212            6 
 3461000   0.69225527   -8.5880194    557.99212  0.013435234  0.012757577            6 
 3462000   0.67970679   -8.5790111    558.25088  0.013437581  0.012752947            4 
 3463000   0.69517217    -8.569103    558.13444  0.013430899  0.012748321            2 
 3464000   0.69661117   -8.5860329    557.88118  0.013420929  0.012743692            3 
 3465000   0.71095388   -8.5671591    558.57957  0.013433852  0.012739072            2 
 3466000   0.71212012   -8.5889917    557.49098  0.013403803  0.012734464            3 
 3467000   0.70623088   -8.5903094    557.15241  0.013391799  0.012729848            4 
 3468000   0.69760296   -8.5858389    557.93674  0.013406784  0.012725231            3 
 3469000    0.6935575   -8.5873351    556.67334   0.01337257  0.012720607            7 
 3470000   0.68750724   -8.6192736     557.2951  0.013383648  0.012715985            4 
 3471000    0.6921141   -8.5776687    557.05706  0.013374077  0.012711359            5 
 3472000   0.69083651   -8.6005467    557.15357  0.013372542  0.012706725            3 
 3473000   0.68851231   -8.6000724    557.25996  0.013371244  0.012702095            2 
 3474000   0.67990541   -8.6330858    556.02935  0.013337875  0.012697472            2 
 3475000   0.70069979   -8.6031537    556.67272  0.013349466   0.01269285            5 
 3476000   0.69303737   -8.5875355    558.39069  0.013386812  0.012688244            3 
 3477000    0.7032066     -8.58495    558.11881  0.013376446  0.012683636            3 
 3478000   0.69220677   -8.5737961    557.15741  0.013349564  0.012679029            7 
 3479000   0.69224023   -8.5882708    556.58138  0.013331929  0.012674424            4 
 3480000    0.6827082   -8.6069408    557.74443  0.013355949  0.012669821            3 
 3481000   0.70039034    -8.602786    557.87652  0.013355274  0.012665215            3 
 3482000   0.70652491   -8.5779769    557.63984  0.013345774  0.012660606            2 
 3483000   0.69702533   -8.5639832    557.91548  0.013348538  0.012656001            4 
 3484000   0.69764537   -8.6175543    557.37942  0.013331884  0.012651402            2 
 3485000   0.68183131     -8.60072    557.19979  0.013323763    0.0126468            4 
 3486000   0.68867666   -8.6100565    557.67061  0.013331196  0.012642201            6 
 3487000   0.68884715     -8.56873    557.05264  0.013312605  0.012637607            3 
 3488000   0.68317975   -8.5962425    557.14052  0.013310888  0.012633026            3 
 3489000   0.67922582    -8.589534    558.18797  0.013332091  0.012628446            4 
 3490000   0.69212932    -8.564002    558.50546  0.013335852  0.012623874            3 
 3491000   0.68211922   -8.5863875    558.43398  0.013330325  0.012619304            5 
 3492000   0.68293571    -8.578885    558.03352  0.013316951  0.012614735            8 
 3493000   0.69123375   -8.5779763    557.42259  0.013298564  0.012610163            4 
 3494000   0.70618505   -8.5709421    557.32516  0.013292434  0.012605583            4 
 3495000   0.68669232   -8.5975274     558.0579  0.013306102  0.012601011            3 
 3496000   0.69329382   -8.6181325    557.45353  0.013287889  0.012596432            4 
 3497000   0.68109139   -8.6019547    557.17843  0.013277534  0.012591843            6 
 3498000   0.70446603   -8.5873376    557.30222  0.013276687  0.012587261            3 
 3499000   0.68704877    -8.616436    556.23758  0.013247537  0.012582684            3 
 3500000   0.67930745   -8.6040447    557.77613  0.013280384  0.012578107            5 
 3501000   0.69567378   -8.5929251    557.12154   0.01326101  0.012573551            4 
 3502000   0.68393762   -8.5886275    558.37992  0.013287167  0.012568975            3 
 3503000   0.68169623   -8.6028614    557.28913  0.013257425  0.012564414            2 
 3504000   0.69322906   -8.6345779    557.33396  0.013254708  0.012559847            4 
 3505000   0.69098487   -8.6113481    559.20946  0.013295517  0.012555298            6 
 3506000    0.7053575   -8.5974414    558.06236   0.01326446  0.012550747            3 
 3507000   0.68310722   -8.6039379    558.26085  0.013265394  0.012546202            3 
 3508000     0.683345   -8.5673542    557.32239  0.013239319  0.012541664            2 
 3509000   0.70669229   -8.5953571    556.01868  0.013204585  0.012537121            1 
 3510000   0.68183347     -8.58912    556.71198  0.013217283  0.012532577            5 
 3511000   0.69856867   -8.6104031    556.92433  0.013218559  0.012528026            4 
 3512000   0.70007758   -8.5686298    558.12498  0.013243284   0.01252348            3 
 3513000   0.68151415   -8.5868281    557.99861  0.013236517  0.012518933            6 
 3514000   0.68154948   -8.6010697    558.45005  0.013243456  0.012514398            4 
 3515000   0.68655382   -8.6187081    556.82049  0.013201055  0.012509867            6 
 3516000   0.68695248   -8.5914476    557.30997  0.013208902  0.012505335            5 
 3517000   0.70240612   -8.6038755    558.61897  0.013236162  0.012500807            5 
 3518000    0.7054479   -8.5985113    557.91349  0.013215688  0.012496275            3 
 3519000   0.67908626   -8.6010537    557.02413  0.013190872  0.012491743            1 
 3520000   0.66967069   -8.6130107    556.45014  0.013173536  0.012487209            7 
 3521000   0.68370825    -8.605614    558.29158  0.013213376  0.012482677            2 
 3522000   0.68252683   -8.5883596      557.403    0.0131886  0.012478156            6 
 3523000   0.70253095   -8.6035217    557.09139  0.013177486  0.012473625            4 
 3524000   0.68804027   -8.5989138    558.67786  0.013211262  0.012469096            5 
 3525000   0.70106589   -8.5989943    557.80622  0.013186908  0.012464569            3 
 3526000   0.70022496   -8.5822816    557.89733  0.013185322  0.012460049            4 
 3527000   0.67702972   -8.6136398     557.3074  0.013167645  0.012455523            2 
 3528000   0.68655766   -8.6039081    557.32163  0.013164249  0.012450998            5 
 3529000   0.69823997   -8.6026301    557.26624   0.01315921   0.01244648            5 
 3530000   0.67883604   -8.6141588    557.42259  0.013159174  0.012441965            2 
 3531000   0.67615254   -8.5992654    557.12957  0.013148531   0.01243745            2 
 3532000    0.6920951   -8.6274654    557.25369  0.013147737  0.012432941            3 
 3533000   0.67843122   -8.6183864    556.90581   0.01313581  0.012428434            2 
 3534000   0.68203283   -8.6211618    555.26866  0.013093489   0.01242393            3 
 3535000   0.67883669   -8.5967455      557.595  0.013144625  0.012419434            5 
 3536000   0.68577845   -8.6269035    557.38151  0.013135876  0.012414939            4 
 3537000   0.67352978    -8.629656    557.99883  0.013146707  0.012410438            3 
 3538000   0.68240942   -8.6013968    557.58676  0.013133285  0.012405942            1 
 3539000   0.68712863    -8.621427    556.94967  0.013114573  0.012401451            2 
 3540000   0.69286772   -8.5986689    558.62725  0.013150359   0.01239696            2 
 3541000   0.68077657   -8.6200564    558.13544  0.013135071  0.012392468            4 
 3542000   0.67699878   -8.6176455    558.37369  0.013136968  0.012387976            3 
 3543000   0.67593679   -8.6021984    558.11743  0.013127233  0.012383475            4 
 3544000   0.68850121   -8.6051851    557.38591  0.013106328  0.012378973            3 
 3545000   0.68250202   -8.6132974    557.27542  0.013100033   0.01237448            4 
 3546000   0.68151022   -8.5935963    558.54295  0.013126127  0.012369982            5 
 3547000   0.68732585   -8.5935382     556.5844  0.013076412  0.012365484            5 
 3548000   0.68037894   -8.6242872    557.83263  0.013102044  0.012360994            2 
 3549000    0.6823683   -8.6234154    558.18038  0.013106518  0.012356514            2 
 3550000   0.69450001   -8.6036772    557.10148    0.0130775  0.012352033            1 
 3551000    0.6897303   -8.6228883    556.87889  0.013068593  0.012347548            5 
 3552000   0.68561108   -8.6260565    557.40026  0.013077146  0.012343061            4 
 3553000   0.68416963   -8.6051934    556.90478  0.013061844  0.012338575            6 
 3554000   0.68527432   -8.6076154    557.05153   0.01306161   0.01233408            7 
 3555000     0.686154   -8.6186917    556.74792  0.013050819   0.01232959            2 
 3556000   0.70193977    -8.619806    557.04451  0.013054099  0.012325102            3 
 3557000   0.69250552   -8.6118095    556.16612   0.01302985  0.012320613            8 
 3558000   0.67988921   -8.6208664    557.56013  0.013058838  0.012316126            3 
 3559000   0.67525005   -8.6447468    556.97764  0.013041529  0.012311638            6 
 3560000   0.69111383    -8.625398    557.01908  0.013038836  0.012307146            4 
 3561000   0.67799093    -8.640913    556.83748  0.013030925  0.012302653            1 
 3562000   0.68342413   -8.6278217    556.34549  0.013015756  0.012298165            2 
 3563000   0.68582312    -8.613438    557.18096  0.013031644  0.012293683            3 
 3564000   0.66200987   -8.6071875    556.95891  0.013022795  0.012289198            6 
 3565000   0.67150507   -8.6342077     555.7515  0.012990919  0.012284712            2 
 3566000    0.6714942   -8.6275965    556.52975  0.013005462  0.012280221            5 
 3567000   0.66571976   -8.6487581    556.26172  0.012995555  0.012275737            3 
 3568000   0.68843589   -8.6463567    556.82621  0.013005096   0.01227125            6 
 3569000   0.68054802   -8.6091088    556.54375  0.012994857  0.012266763           11 
 3570000   0.68757957   -8.6397558    557.08823  0.013003927  0.012262287            6 
 3571000   0.66993032   -8.6299781    556.76442  0.012992729  0.012257815            3 
 3572000   0.67710653   -8.6436375     556.7072  0.012987757  0.012253333            3 
 3573000   0.67631112   -8.6370674    556.32607  0.012975232  0.012248857            4 
 3574000   0.68713805   -8.6462863    557.40353  0.012996725  0.012244388            9 
 3575000    0.6595445   -8.6082606    558.25247  0.013012878  0.012239925            2 
 3576000   0.66656033   -8.6339885    557.72545  0.012996958  0.012235465            7 
 3577000   0.68504869   -8.6519925    556.96879  0.012975696  0.012231009            4 
 3578000   0.67864974   -8.6621644    556.15071  0.012953016  0.012226544            3 
 3579000   0.68959216   -8.6494389    556.53212  0.012958278  0.012222067            3 
 3580000   0.68072099   -8.6377472    556.09767  0.012944545  0.012217583            6 
 3581000    0.6718005    -8.621832    556.56238  0.012951745  0.012213113            6 
 3582000   0.67112879   -8.6412458    557.81313  0.012977227   0.01220865            3 
 3583000   0.69455417   -8.6396726    556.60805  0.012945577  0.012204185            3 
 3584000   0.66479174   -8.6407821    556.72825   0.01294476  0.012199723            4 
 3585000   0.67006522   -8.6376846     555.9843  0.012923856  0.012195273            3 
 3586000   0.67353174   -8.6211373      556.513  0.012932539  0.012190823            6 
 3587000   0.67360274   -8.6382446    557.18202  0.012944476  0.012186366            5 
 3588000   0.68283094    -8.629794    556.97462  0.012936051   0.01218192            3 
 3589000   0.67751658   -8.6593279    556.47932  0.012920946  0.012177471            3 
 3590000      0.68343   -8.6552735    557.37002  0.012938023  0.012173023            5 
 3591000   0.67182208   -8.6330373     557.8004  0.012944407  0.012168577            2 
 3592000   0.66927356   -8.6252113    556.87597  0.012919357   0.01216414            2 
 3593000   0.67942403    -8.629571    557.00123  0.012918667  0.012159714            4 
 3594000    0.6798449   -8.6275878    558.01352  0.012938544  0.012155287            8 
 3595000   0.67116741   -8.6259107    556.74214  0.012905474  0.012150852            4 
 3596000   0.67841409   -8.6342903    556.89025  0.012905317  0.012146435            8 
 3597000   0.67589902   -8.6353626    556.93686  0.012902809   0.01214202            4 
 3598000   0.67538178   -8.6525433    556.99233  0.012900508   0.01213761            4 
 3599000   0.66035725   -8.6425023    557.63222   0.01291174  0.012133197            2 
 3600000    0.6691516   -8.6262982     556.8161  0.012889261  0.012128792            4 
 3601000   0.68849923   -8.6271174    556.37329  0.012875435  0.012124387            4 
 3602000   0.67974944   -8.6601376    556.37272  0.012871847  0.012119983            3 
 3603000   0.67523152   -8.6576256    558.45197  0.012916365   0.01211558            4 
 3604000   0.66896664   -8.6461256    556.94377  0.012877908   0.01211118            5 
 3605000   0.66858441   -8.6525045    556.72749  0.012869336  0.012106778            2 
 3606000    0.6759156   -8.6878502    555.38603  0.012834767  0.012102367            3 
 3607000   0.68428928    -8.646713    555.92623  0.012843689  0.012097952            1 
 3608000   0.67430324   -8.6341957    557.70087  0.012881118  0.012093537            4 
 3609000   0.67583606    -8.656368    556.40401  0.012847604  0.012089127            2 
 3610000    0.6780461   -8.6534359    556.10591  0.012837163  0.012084718            4 
 3611000   0.66195675   -8.6499191    557.53579  0.012866606  0.012080306            3 
 3612000   0.67173288   -8.6523297    556.54873  0.012840272   0.01207589            2 
 3613000   0.67771106    -8.664057    555.99788  0.012824012  0.012071484            4 
 3614000   0.65627167   -8.6657784    556.69119  0.012836451  0.012067073            3 
 3615000   0.68134143   -8.6704419    556.66697  0.012832341  0.012062663            5 
 3616000   0.68241453   -8.6626599    556.83527  0.012832671  0.012058255            3 
 3617000   0.67087028   -8.6802761    555.69409  0.012802831  0.012053854            3 
 3618000   0.67779036   -8.6416849    556.70477  0.012822572  0.012049458            2 
 3619000   0.68041072   -8.6796639    556.76573  0.012820432  0.012045066            4 
 3620000   0.68854691   -8.6634605    557.10281   0.01282465  0.012040672            3 
 3621000   0.67977196   -8.6744434    557.59347  0.012832401  0.012036293            4 
 3622000   0.66535786   -8.6242741     556.7319  0.012809035  0.012031909            3 
 3623000   0.66954198   -8.6454786    557.82657  0.012830678  0.012027525            2 
 3624000   0.66310621   -8.6534569    557.27044   0.01281435  0.012023149            2 
 3625000   0.67549425   -8.6609778    556.67871  0.012797212  0.012018774            2 
 3626000   0.67403577   -8.6669495    557.05172  0.012802255  0.012014405            2 
 3627000   0.67059982    -8.653813     556.9118  0.012795511  0.012010038            2 
 3628000   0.67367598   -8.6494094    557.53277  0.012806247  0.012005673            3 
 3629000   0.67343552    -8.640447    557.68838  0.012806291  0.012001315            2 
 3630000   0.67834624    -8.654138     557.2097  0.012791775  0.011996961            3 
 3631000   0.66429213   -8.6370844    557.68456   0.01279915  0.011992601            5 
 3632000    0.6749515   -8.6537812    556.49191  0.012768262  0.011988246            1 
 3633000   0.67332053   -8.6783816    556.31942   0.01276079  0.011983889            8 
 3634000   0.66356093   -8.6624446    556.66216  0.012765138  0.011979531            7 
 3635000   0.67852599   -8.6526019    557.90699  0.012790165  0.011975171            2 
 3636000   0.67228876   -8.6575347    557.22096  0.012770924  0.011970816            2 
 3637000   0.66455333   -8.6473462    557.90494  0.012783084  0.011966464            2 
 3638000   0.67635168    -8.651442    557.28213  0.012765305  0.011962117            4 
 3639000   0.66538099   -8.6554069    557.59091  0.012768868  0.011957769            2 
 3640000   0.67069501   -8.6458015    557.08614  0.012753804  0.011953422            3 
 3641000   0.66816484   -8.6536013    557.36454  0.012756673  0.011949079            5 
 3642000     0.668699   -8.6474219    555.71206  0.012715359  0.011944728            8 
 3643000   0.65014015   -8.6628234    556.39399  0.012727468  0.011940376            2 
 3644000   0.65115753   -8.6454822    556.77692  0.012732732  0.011936026            8 
 3645000   0.67353316   -8.6462554    556.19218  0.012715871  0.011931684            2 
 3646000   0.66034134   -8.6550409    556.04428  0.012709003  0.011927335            5 
 3647000   0.66125634   -8.6482054    556.98905  0.012727106   0.01192299           10 
 3648000   0.66646115   -8.6402716    556.37881  0.012709677   0.01191865            4 
 3649000   0.66369047   -8.6469932    556.12866  0.012700481  0.011914314            3 
 3650000   0.67850774   -8.6265216    557.15969  0.012720541  0.011909976            4 
 3651000   0.66748689   -8.6715799    556.80917  0.012709056  0.011905634            4 
 3652000   0.66359946   -8.6687811    556.66931  0.012702385  0.011901309            4 
 3653000   0.64829152   -8.6597061    556.85091   0.01270305  0.011896982            7 
 3654000   0.67779843   -8.6589435    556.07531  0.012681885  0.011892655            5 
 3655000   0.66312024   -8.6662106    556.08779    0.0126787  0.011888326            4 
 3656000   0.67481694   -8.6491945    556.46818  0.012683903  0.011884001            8 
 3657000   0.66516831   -8.6594395    555.98418  0.012669405  0.011879669           15 
 3658000   0.66757235   -8.6700518    556.03304  0.012667055  0.011875341            7 
 3659000   0.67628199   -8.6713089    556.51737  0.012674624  0.011871015            6 
 3660000   0.66170379   -8.6977533    556.25586  0.012665206    0.0118667            4 
 3661000   0.66037074   -8.6671572    556.03707  0.012656767  0.011862373            5 
 3662000   0.66386425   -8.6696597    556.31191  0.012659565  0.011858058            7 
 3663000   0.65591493   -8.6557716    557.58566  0.012685086  0.011853739            8 
 3664000   0.67556368   -8.6528487    556.94147  0.012666973  0.011849431            4 
 3665000   0.67141042   -8.6691133     556.4726  0.012652856  0.011845113            4 
 3666000   0.66164845   -8.6519634    557.23475  0.012666729  0.011840797            3 
 3667000   0.67275061   -8.6539366    556.26177  0.012641164  0.011836487            3 
 3668000    0.6741962    -8.640853    556.23673  0.012637149   0.01183218            9 
 3669000   0.65302722   -8.6500689    556.78708  0.012646204  0.011827871            4 
 3670000   0.66529273   -8.6640487    557.05646  0.012648875  0.011823575            5 
 3671000   0.67502181   -8.6602783    556.42495  0.012631094  0.011819282            9 
 3672000   0.67291198   -8.6689322    556.62665  0.012632231  0.011814986            5 
 3673000   0.65770074   -8.6541659    557.47015   0.01264793  0.011810695            7 
 3674000   0.66259315   -8.6975346    556.40794  0.012620394  0.011806397            3 
 3675000   0.65670248   -8.6680431    555.90712  0.012605604  0.011802105            8 
 3676000   0.65405716   -8.6607043    556.52288  0.012616134  0.011797801            8 
 3677000   0.67062145   -8.6588547    557.17417  0.012627463  0.011793508            3 
 3678000     0.670835   -8.6818162    556.03339  0.012598183  0.011789218           14 
 3679000   0.65134163   -8.6782313    556.76414  0.012611311  0.011784919            4 
 3680000   0.67311551   -8.6669244    556.79225   0.01260852  0.011780623            9 
 3681000   0.65557254   -8.6568294    557.46175  0.012620251  0.011776328           11 
 3682000   0.67393497   -8.6776608    556.73156  0.012600298  0.011772049            7 
 3683000   0.65959852   -8.6695687    556.01658  0.012580699  0.011767755            4 
 3684000   0.67020318   -8.6848617     555.2937  0.012560932  0.011763459           14 
 3685000   0.64798406   -8.6670382    555.85237  0.012570158  0.011759163           18 
 3686000   0.66583352   -8.6843376    555.46826  0.012558063  0.011754869            9 
 3687000   0.66179068   -8.6776935    556.68294  0.012582112   0.01175059           10 
 3688000   0.64809991     -8.65384    555.67871  0.012556008  0.011746306            6 
 3689000   0.65347629   -8.6638884    556.46226  0.012570305  0.011742029           17 
 3690000   0.66682036   -8.6600072    556.47464  0.012567178  0.011737746           19 
 3691000    0.6689526   -8.6619477    555.39652  0.012539432  0.011733469            5 
 3692000   0.66199359   -8.6881698    555.36508  0.012535326  0.011729187            5 
 3693000   0.66829336   -8.7007514    556.32715  0.012553641  0.011724922           23 
 3694000   0.66413063   -8.6794626    556.73663   0.01255948  0.011720638           24 
 3695000   0.65674081   -8.6852652    556.64383  0.012553988  0.011716358           19 
 3696000   0.66112286   -8.6883024      555.231  0.012518737  0.011712084           17 
 3697000   0.66551702   -8.6784111    555.74112  0.012526849   0.01170781            9 
 3698000   0.66085548   -8.6680488    555.92882  0.012527691  0.011703542           12 
 3699000   0.66681206   -8.7067664    555.85759    0.0125227  0.011699269           18 
 3700000   0.65097289     -8.69271    556.13945  0.012525663  0.011695002           18 
 3701000   0.67013163   -8.6739755    556.28869  0.012525639  0.011690738           17 
 3702000    0.6548216   -8.6634168    557.09514  0.012540409  0.011686472           17 
 3703000   0.64369653   -8.6851321    556.91986  0.012533078  0.011682213           16 
 3704000   0.65319976    -8.687644    556.45204  0.012519169  0.011677958           15 
 3705000   0.65779107   -8.6846205     556.1791  0.012509651    0.0116737           11 
 3706000   0.65158866    -8.676224    557.04879  0.012525832  0.011669444           15 
 3707000   0.66294692   -8.6794476     555.6867  0.012491833  0.011665191            4 
 3708000   0.67452575    -8.673611    556.12996  0.012498426  0.011660939            9 
 3709000   0.67333325   -8.6852774    556.23904  0.012497507  0.011656692           22 
 3710000   0.66519909   -8.7043629    555.61594  0.012480142  0.011652438           11 
 3711000   0.66045579   -8.6512573    556.25128  0.012491046  0.011648182            5 
 3712000   0.64018263   -8.6855901    555.89107  0.012479595  0.011643929           21 
 3713000   0.65406102   -8.6885379    555.23042  0.012461406  0.011639679            6 
 3714000   0.66515453   -8.6675911    555.19698  0.012457301  0.011635428           14 
 3715000   0.66766147   -8.6985309    555.29296  0.012456101  0.011631174            3 
 3716000   0.65628514   -8.6734044    556.55887  0.012481137  0.011626927            4 
 3717000   0.65000698   -8.6719834    555.93841  0.012463869  0.011622695            3 
 3718000   0.66678126   -8.6938559    555.97929  0.012461433  0.011618454           12 
 3719000   0.67827656   -8.6784129    555.25342  0.012441817  0.011614209           13 
 3720000    0.6668097   -8.6790417    555.65776  0.012447531   0.01160997           10 
 3721000    0.6521083    -8.667793    556.72603   0.01246811  0.011605734           11 
 3722000   0.65247953   -8.6770138    557.61112  0.012484576  0.011601504            8 
 3723000   0.65174794   -8.6835347    556.77742  0.012462562  0.011597276            4 
 3724000   0.65257966   -8.6928408    556.21294  0.012446584  0.011593046            8 
 3725000     0.652109   -8.7034793    555.25372  0.012421783  0.011588809           13 
 3726000   0.65138919   -8.7011804    555.79035  0.012430452  0.011584573           15 
 3727000   0.64351696    -8.691756    554.65175  0.012401658  0.011580338            7 
 3728000   0.64571963   -8.6844302    555.64735  0.012420586  0.011576101           17 
 3729000   0.65493303   -8.7112001    556.10896  0.012427571  0.011571871           17 
 3730000   0.65367999    -8.686589    555.82687  0.012417937  0.011567648            5 
 3731000   0.65364319   -8.6882959    555.61974  0.012409983  0.011563426           12 
 3732000    0.6365847   -8.7107971    556.49815  0.012426272    0.0115592           10 
 3733000   0.65942263   -8.6918199    556.20624  0.012416426   0.01155498            9 
 3734000   0.65546087   -8.6946979    555.51081  0.012397581  0.011550763           21 
 3735000   0.66132701   -8.6768572    556.12816  0.012408036  0.011546549            4 
 3736000   0.64424042   -8.6938112    555.51032  0.012390933  0.011542339           16 
 3737000   0.65748614   -8.6805808    556.26798  0.012404513  0.011538128            8 
 3738000   0.63864847   -8.6864384    556.22377  0.012400209  0.011533921           12 
 3739000   0.65078224   -8.6996981     556.2612  0.012397727  0.011529713           15 
 3740000   0.64719129   -8.6763244    556.49687  0.012399663  0.011525514            8 
 3741000   0.66343515    -8.679719    555.69017  0.012378378  0.011521309            7 
 3742000    0.6562112    -8.715624    556.06404  0.012383397  0.011517114            4 
 3743000   0.64554212   -8.7073739    555.45581  0.012366547  0.011512919           17 
 3744000   0.63833512    -8.686878     555.2174  0.012357937  0.011508731            6 
 3745000   0.65133331   -8.7007009    555.57425  0.012362578  0.011504532            2 
 3746000   0.65683263   -8.7087788    556.07745  0.012370472  0.011500341            3 
 3747000   0.65673125   -8.7110506    555.80237  0.012361053  0.011496155           13 
 3748000   0.64303554   -8.6745682    555.95928  0.012361243  0.011491967            5 
 3749000   0.65785872   -8.6831014    555.51697  0.012348114  0.011487777           13 
 3750000   0.65920172   -8.7217806    555.45275  0.012343395  0.011483584            7 
 3751000    0.6512611   -8.6777581    556.43749  0.012361981  0.011479398            7 
 3752000   0.66782212   -8.7089449    556.08403  0.012350836  0.011475214           12 
 3753000   0.65117222   -8.6970665    556.50162  0.012356817  0.011471027           22 
 3754000   0.65664077   -8.6896125     556.2747  0.012348488  0.011466847           16 
 3755000   0.64207818   -8.7015829    556.09483  0.012341208  0.011462663            5 
 3756000   0.63755279   -8.7056248    555.45176  0.012323655  0.011458489           14 
 3757000   0.66275781   -8.6918954    556.05716  0.012333803  0.011454319            5 
 3758000   0.64322543     -8.70253    555.96879  0.012328561  0.011450148            6 
 3759000   0.65925641   -8.7133229    555.34874  0.012311535  0.011445975           12 
 3760000   0.65624075   -8.6932477    556.37836  0.012331081  0.011441801            5 
 3761000   0.64257865   -8.6878645     555.9068  0.012317353  0.011437638           10 
 3762000   0.64492093   -8.7106899    555.57066  0.012306633  0.011433474           17 
 3763000   0.64836488   -8.7276817    555.12494  0.012293492  0.011429304           19 
 3764000   0.64807244   -8.7191393    555.18461  0.012291547  0.011425136           22 
 3765000   0.63595829   -8.7097112    554.87714  0.012281477   0.01142097           14 
 3766000    0.6512231    -8.691047    556.67609  0.012318023  0.011416803           19 
 3767000   0.66682329   -8.7178657    555.92454  0.012298127  0.011412645           22 
 3768000   0.64732381   -8.7380345    554.91988  0.012272644   0.01140848           15 
 3769000   0.65656863   -8.6833795    557.45894  0.012325527  0.011404326           18 
 3770000   0.65533122   -8.7101771    556.62786  0.012303887  0.011400173           17 
 3771000   0.64047031   -8.7246354    555.85988  0.012283653  0.011396021           16 
 3772000   0.65996472   -8.7484657    555.76052  0.012278202   0.01139187           15 
 3773000   0.63267163   -8.7112073    555.50742  0.012269357  0.011387718           20 
 3774000   0.65508947   -8.6824647    556.84255  0.012295587  0.011383575            9 
 3775000   0.65206364   -8.7053082     556.6128  0.012287258  0.011379432           10 
 3776000   0.65474956   -8.7084825    555.44066  0.012258136  0.011375282           23 
 3777000   0.65136585   -8.7055651    555.68486  0.012260278  0.011371135           25 
 3778000   0.65512122   -8.7149495    555.68981  0.012257142  0.011366998           14 
 3779000   0.63655941     -8.69402    555.61083  0.012252157   0.01136286           13 
 3780000   0.66238658   -8.7354566    555.61982  0.012249114  0.011358728            6 
 3781000   0.64646896   -8.7187793    555.76712  0.012249121  0.011354588           11 
 3782000   0.64801172   -8.7404887    554.71959  0.012222801  0.011350453           19 
 3783000   0.64880431   -8.7145576    555.36389  0.012233763  0.011346322           21 
 3784000   0.65156706   -8.7100208    555.88763  0.012242064  0.011342199           16 
 3785000   0.65212252   -8.7324281    555.80729  0.012237061   0.01133807           22 
 3786000   0.65611724   -8.7304363    555.62821  0.012229887  0.011333948            5 
 3787000   0.64274357   -8.7123858    556.75803  0.012251519  0.011329824           16 
 3788000   0.65552438   -8.7009164    556.29227  0.012238038  0.011325703           17 
 3789000   0.65035341   -8.7313193    555.60151  0.012219616  0.011321583           14 
 3790000   0.65233242    -8.722802    555.63798  0.012217194   0.01131746           13 
 3791000    0.6391429   -8.7196848    555.01488  0.012200274  0.011313336           15 
 3792000   0.63832984   -8.7175402    554.90052  0.012194544  0.011309218           21 
 3793000   0.65899005   -8.7041094    555.42831  0.012202924  0.011305095           12 
 3794000   0.64403247    -8.721976    554.51322  0.012179609  0.011300973           22 
 3795000    0.6355527   -8.7282511    555.59833  0.012200227  0.011296851           13 
 3796000   0.63612215   -8.7408184    555.46988  0.012194193  0.011292726           12 
 3797000   0.64445282   -8.7012431    556.06887  0.012204128  0.011288612           17 
 3798000   0.64957229   -8.7315701    556.13153  0.012202289  0.011284498           10 
 3799000   0.64152439   -8.7134742    555.54074  0.012186118  0.011280387           18 
 3800000   0.63994014    -8.733977    556.34325   0.01220051  0.011276273            9 
 3801000   0.64125342   -8.7310746    555.27529  0.012173886   0.01127215            9 
 3802000   0.64634906   -8.7458597    555.96097  0.012185713   0.01126804           15 
 3803000   0.64183121   -8.7257072    555.12379  0.012164164  0.011263925           16 
 3804000   0.64206267   -8.7161809    556.22471  0.012185084  0.011259816            5 
 3805000   0.64027188   -8.7165214     556.0584  0.012178239  0.011255715           17 
 3806000    0.6441194   -8.7144168    555.44547  0.012161619  0.011251621           15 
 3807000    0.6201545   -8.7149232    556.01998     0.012171  0.011247519           14 
 3808000   0.64384809   -8.7389953    555.40067  0.012154251  0.011243424           12 
 3809000   0.64731179   -8.7391113    555.95005   0.01216308  0.011239322           16 
 3810000   0.63263757   -8.7213706    555.51834  0.012150445  0.011235218           12 
 3811000   0.63379076   -8.7439532    554.70892  0.012129557  0.011231116           15 
 3812000   0.64864089   -8.7406469    554.44127  0.012120524  0.011227011           11 
 3813000   0.64940844   -8.7380902    555.09451  0.012131622  0.011222915            8 
 3814000   0.64496572   -8.7333329    555.18918   0.01213051   0.01121882           14 
 3815000    0.6501932   -8.7347773    554.85046  0.012119932  0.011214721            7 
 3816000   0.63068803   -8.7259161     554.9176  0.012118221  0.011210627           10 
 3817000    0.6327729   -8.7173733    555.71023  0.012132352  0.011206541           10 
 3818000   0.63938892   -8.7423869    554.55137   0.01210388  0.011202451           12 
 3819000   0.64833331   -8.7399448    555.21428  0.012115176  0.011198367            7 
 3820000   0.61977289   -8.7166503    554.60656  0.012098747  0.011194282            8 
 3821000    0.6363401   -8.7431945     554.8336  0.012100532  0.011190196            5 
 3822000   0.64370299   -8.7467201    554.30531  0.012085847  0.011186117            8 
 3823000   0.63819626   -8.7436379    554.68832  0.012091035  0.011182041            7 
 3824000   0.64053586   -8.7214914    556.07567  0.012118107  0.011177969           10 
 3825000   0.64530945   -8.7308749    555.92061   0.01211156  0.011173894            5 
 3826000     0.630541   -8.7183402    555.40422  0.012097147  0.011169822            5 
 3827000   0.63251454   -8.7507417    554.67148  0.012078031  0.011165751            8 
 3828000    0.6343287   -8.7400616    555.20714  0.012086536  0.011161679            4 
 3829000   0.63661212   -8.7193803    555.95727  0.012099706  0.011157613           14 
 3830000   0.64844186   -8.7213438    555.30982  0.012082459  0.011153556            8 
 3831000   0.63294888   -8.7260368    555.67662  0.012087284  0.011149499            9 
 3832000   0.64204886   -8.7104938    556.45047  0.012100958  0.011145439            3 
 3833000   0.63324481   -8.7344574     555.4168  0.012075328  0.011141378           17 
 3834000   0.64418769   -8.7336095    554.81717  0.012059146  0.011137317            6 
 3835000   0.62605918   -8.7394321    556.03458  0.012082455   0.01113326            3 
 3836000   0.63279759   -8.7317962    554.67419  0.012049752  0.011129209            6 
 3837000   0.63022427   -8.7261156    555.68651  0.012068598  0.011125156            7 
 3838000   0.63164478   -8.7406595    555.52485  0.012061943  0.011121106            5 
 3839000   0.64041902   -8.7639753    554.65514  0.012039922   0.01111705            7 
 3840000   0.64481007   -8.7326692    554.95894   0.01204338  0.011113003            5 
 3841000   0.64546019   -8.7269129    555.76301  0.012057689   0.01110895            3 
 3842000   0.64305589    -8.749988    555.15486   0.01204136    0.0111049            2 
 3843000   0.64508512   -8.7519548    554.82609  0.012031097  0.011100851            3 
 3844000   0.63748601    -8.738648    555.11622  0.012034257  0.011096804            1 
 3845000   0.62830487   -8.7308351    553.63804  0.011999091  0.011092757            4 
 3846000   0.64295741   -8.7680099    554.95824  0.012024576  0.011088711            4 
 3847000   0.62982561   -8.7625255    554.17146  0.012004407  0.011084664            4 
 3848000   0.61872037   -8.7533575    555.74774  0.012035424  0.011080621            7 
 3849000   0.64045955    -8.732017    555.26856  0.012021923  0.011076586            3 
 3850000   0.63185065   -8.7423082     554.8702  0.012010177   0.01107255            7 
 3851000   0.64057574   -8.7336313    555.01449  0.012010181  0.011068515            4 
 3852000   0.64111407    -8.761729    554.77821  0.012001952  0.011064481           11 
 3853000   0.65384239   -8.7204149    554.98063  0.012003215  0.011060446            4 
 3854000   0.63024582   -8.7334893    555.73844  0.012016486  0.011056418            2 
 3855000   0.62905221   -8.7389493    555.29923  0.012003874   0.01105238            2 
 3856000   0.63252072    -8.739199    554.92334  0.011992638  0.011048352            2 
 3857000   0.64199172   -8.7600475    554.83854  0.011987696  0.011044321            8 
 3858000   0.65972031   -8.7335028    555.23281  0.011993106  0.011040286            4 
 3859000   0.62710695   -8.7434402     555.6309  0.011998594  0.011036256           10 
 3860000   0.62889134   -8.7492872    555.46963  0.011992004  0.011032225            3 
 3861000   0.63999114   -8.7487383    553.85539  0.011954057  0.011028193            8 
 3862000   0.64070227   -8.7404258    555.24425  0.011980931  0.011024168           10 
 3863000   0.63204104   -8.7472951    554.98803  0.011972302  0.011020143            2 
 3864000   0.62260826   -8.7398072    555.11954   0.01197204  0.011016126            5 
 3865000   0.63699535   -8.7462871    554.85793  0.011963302  0.011012112            4 
 3866000   0.63900709   -8.7585556    553.91019  0.011939778  0.011008096           11 
 3867000    0.6251595   -8.7279669    554.72503   0.01195425  0.011004084            8 
 3868000    0.6255674   -8.7183768    555.36657  0.011964981  0.011000075           10 
 3869000   0.63331901   -8.7390833    554.61966  0.011945801  0.010996062            2 
 3870000   0.62706703   -8.7565381    555.66042  0.011965125  0.010992055            7 
 3871000   0.63408807   -8.7391369    555.63407  0.011961467  0.010988037            6 
 3872000   0.61995803   -8.7519534    553.92868  0.011921674  0.010984023            2 
 3873000   0.63608705   -8.7343891     554.8757  0.011938973  0.010980016            3 
 3874000   0.63169438   -8.7412562    555.81281  0.011956049  0.010976006            8 
 3875000   0.62996361   -8.7397576    555.35565  0.011943132  0.010972004            8 
 3876000   0.62189446   -8.7409862    555.04671  0.011933409  0.010968001            6 
 3877000   0.63760569   -8.7687001     554.2088   0.01191232     0.010964            8 
 3878000   0.63518495   -8.7427607    554.74706  0.011920815  0.010959995           10 
 3879000   0.62416533   -8.7555008    554.52122   0.01191289  0.010955997            9 
 3880000   0.62558595   -8.7463982     555.4599  0.011929981     0.010952            9 
 3881000   0.64118762   -8.7551871    554.21208  0.011900113  0.010948007            6 
 3882000   0.62940895   -8.7652138     554.5937   0.01190524   0.01094401            6 
 3883000   0.62353133   -8.7345142    555.61875  0.011924173  0.010940021            3 
 3884000   0.63713808   -8.7331483    555.44984  0.011917479  0.010936038            5 
 3885000   0.63952123   -8.7490667    554.60115  0.011896207  0.010932045            5 
 3886000   0.63747464    -8.766371    553.77986  0.011875533   0.01092806            6 
 3887000   0.62789233   -8.7653182    554.61672  0.011890419  0.010924078            4 
 3888000   0.63112011   -8.7464633    553.46345  0.011862643  0.010920094            8 
 3889000   0.62884635   -8.7531038    555.38215  0.011900706  0.010916114           12 
 3890000   0.63207682   -8.7457478    554.44352  0.011877539  0.010912131            8 
 3891000   0.63582002   -8.7559259      554.137  0.011867922  0.010908147            8 
 3892000   0.62367741   -8.7717665    555.03094  0.011884013  0.010904168            2 
 3893000   0.63274414   -8.7823888    554.39926  0.011867439  0.010900197           15 
 3894000   0.63002382   -8.7483233    554.90562  0.011875227  0.010896223            6 
 3895000   0.62964865   -8.7469933    554.16955   0.01185643  0.010892247            8 
 3896000   0.63043418   -8.7863848    554.27845  0.011855716  0.010888272            6 
 3897000   0.62401771    -8.735913    554.70466  0.011861788  0.010884297            6 
 3898000   0.63930738   -8.7676122    553.58946  0.011834904  0.010880332            4 
 3899000   0.64078608   -8.7652414    554.62858  0.011854077  0.010876368            8 
 3900000   0.62036537   -8.7614158    555.16786  0.011862561  0.010872402            4 
 3901000   0.60933334   -8.7690611    554.95437   0.01185496  0.010868441            3 
 3902000   0.62628748   -8.7606605    554.49591   0.01184213  0.010864477            3 
 3903000   0.63117854   -8.7560219     554.2232  0.011833274  0.010860519            5 
 3904000   0.61602729   -8.7783128    554.16219   0.01182894  0.010856558            4 
 3905000   0.63331669   -8.7809277    555.15552  0.011847109  0.010852596            2 
 3906000   0.62312076   -8.7866403    553.35322  0.011805624  0.010848641            3 
 3907000   0.63058679    -8.773223    554.35085  0.011823881  0.010844681            4 
 3908000   0.62949833   -8.7691493    554.26941  0.011819119  0.010840727            5 
 3909000   0.62785645   -8.7593253     554.9863  0.011831379  0.010836779            5 
 3910000   0.61635093     -8.75692    555.19627  0.011832828  0.010832831            5 
 3911000   0.63467038   -8.7524462    554.09076  0.011806246  0.010828883            4 
 3912000   0.63008748   -8.7786141    554.39545  0.011809719  0.010824938            7 
 3913000   0.61413033   -8.7441195    555.69786  0.011834438  0.010820989            3 
 3914000   0.62715916   -8.7571327    555.30321  0.011823012   0.01081705            4 
 3915000    0.6229564   -8.7588467    554.39422  0.011800643   0.01081311           10 
 3916000   0.64301091   -8.7768867    553.90687  0.011787259  0.010809177            6 
 3917000   0.62646449   -8.7545078    554.94608  0.011806359  0.010805237            2 
 3918000   0.63852497   -8.7637785    553.51764  0.011772963  0.010801296            2 
 3919000    0.6263505   -8.7642021    553.64881  0.011772748  0.010797359            3 
 3920000   0.62686427   -8.7643909    553.85099  0.011774043  0.010793421            3 
 3921000    0.6314941   -8.7392564    554.73959  0.011789926  0.010789492            6 
 3922000   0.61464272    -8.775863    554.32364  0.011778082  0.010785567            3 
 3923000   0.63204094   -8.7740828    554.09509  0.011770224  0.010781646            4 
 3924000   0.62500098   -8.7503309    554.30976  0.011771784  0.010777727            2 
 3925000   0.61918003    -8.765582    554.28212  0.011768198   0.01077381            9 
 3926000   0.61165407   -8.7619946    555.63338  0.011793882  0.010769894            3 
 3927000   0.63920078   -8.7782825    554.38362  0.011764358  0.010765984            4 
 3928000   0.63218424   -8.7518896    553.96196  0.011752418  0.010762069            4 
 3929000   0.61816822   -8.7596422    555.02258  0.011771922  0.010758158            2 
 3930000   0.62580245   -8.7920136    554.15142  0.011750454  0.010754251            6 
 3931000   0.62425177   -8.7552144    553.99113  0.011744067  0.010750342            4 
 3932000   0.61627997   -8.7576541    554.06434  0.011742632  0.010746431            6 
 3933000   0.63326755   -8.7736344     553.9248  0.011736689   0.01074252            4 
 3934000   0.60697782   -8.7478302    553.74361  0.011729868   0.01073861            3 
 3935000    0.6136876   -8.7698854    555.23064  0.011758379  0.010734703            3 
 3936000   0.61223922   -8.7576994    553.93354  0.011727929  0.010730801            5 
 3937000   0.63533424   -8.7877088    553.72298  0.011720493  0.010726894            3 
 3938000    0.6179037   -8.7665905    554.04719  0.011724378  0.010722986            3 
 3939000   0.62281919   -8.7790738     553.4144  0.011708014  0.010719082            5 
 3940000   0.63999063   -8.7615313    553.90081   0.01171533  0.010715179            2 
 3941000   0.63076524   -8.7624514      554.354   0.01172194  0.010711279            1 
 3942000   0.62354287   -8.7610698    554.84472   0.01172934  0.010707384            6 
 3943000   0.62602537   -8.7906748    554.83486  0.011726157  0.010703495            1 
 3944000   0.61547935    -8.764552    555.26596  0.011732293  0.010699609            6 
 3945000   0.62308998   -8.7816971    553.21909  0.011686081  0.010695721            2 
 3946000    0.6236471   -8.7803113    555.21361  0.011725241  0.010691826            1 
 3947000   0.62025376   -8.7659851    554.24519  0.011701824  0.010687942            2 
 3948000    0.6204451   -8.7725533    555.08748  0.011716639  0.010684053            4 
 3949000    0.6181376   -8.7725935    554.25108  0.011696022  0.010680167            3 
 3950000   0.63264178    -8.776881    554.12571  0.011690416  0.010676282            1 
 3951000   0.62543368   -8.7813023    554.07104  0.011686304  0.010672397            2 
 3952000   0.60779846   -8.7686988    553.76362  0.011676864  0.010668522            2 
 3953000    0.6009471   -8.7704002     554.5824  0.011691171  0.010664642            3 
 3954000   0.61272152   -8.7569423    554.23298   0.01168085  0.010660766            8 
 3955000   0.63126234   -8.7668883    553.41541   0.01166067  0.010656894            2 
 3956000    0.6132512   -8.7463163    554.47492  0.011680041  0.010653023            3 
 3957000   0.61711358   -8.7781153    554.84668  0.011684919  0.010649146            2 
 3958000   0.62518788   -8.7554109    553.85289  0.011661043  0.010645275            1 
 3959000   0.61128452   -8.7821017    554.08253  0.011662931  0.010641405            2 
 3960000   0.63010327   -8.7796534    553.79991  0.011654039  0.010637537            2 
 3961000   0.62794799   -8.7817472    554.29032  0.011661414  0.010633663            1 
 3962000    0.6243945   -8.7746526    554.01975  0.011652779  0.010629793            2 
 3963000    0.6229177   -8.7868234    553.88962  0.011647103   0.01062592            3 
 3964000   0.62234952   -8.7727497     552.9891  0.011625233  0.010622054            2 
 3965000    0.6190411   -8.7921866    554.53742  0.011654843  0.010618191            2 
 3966000   0.62374349   -8.7657114    554.49863  0.011651089  0.010614335            3 
 3967000     0.628104   -8.7658715    554.09294   0.01163963  0.010610476            7 
 3968000   0.61850319   -8.7894885    554.71002  0.011649656  0.010606617            2 
 3969000   0.62032234   -8.7722241    554.45534  0.011641374  0.010602757            2 
 3970000   0.61677761   -8.7758594    554.36796  0.011636607  0.010598899            2 
 3971000   0.61571175   -8.7880355    554.42408  0.011634854  0.010595047            3 
 3972000    0.6205869   -8.7855449    554.76121  0.011638998   0.01059119            2 
 3973000   0.59882218   -8.7663654    554.31588  0.011626728  0.010587338            2 
 3974000   0.62449673   -8.7702107    553.84848  0.011614001  0.010583493            3 
 3975000   0.61496046   -8.7950363    553.19879  0.011597459  0.010579644            3 
 3976000   0.61245967   -8.7837014    553.48958  0.011600637  0.010575796            3 
 3977000    0.6076984   -8.7793546    554.66947  0.011622443   0.01057195            4 
 3978000   0.63394786   -8.7683354    553.40379  0.011593007  0.010568107            3 
 3979000   0.61629046   -8.7894951    554.37538  0.011610442  0.010564266            2 
 3980000   0.61939195   -8.7810814    554.26144  0.011605139  0.010560422            1 
 3981000   0.61419674   -8.7856395    553.95434  0.011595795  0.010556576            2 
 3982000   0.61656598   -8.8045322    553.98632  0.011593553  0.010552739            4 
 3983000   0.60927181   -8.7906517    554.13828  0.011593821    0.0105489            2 
 3984000   0.61998543   -8.8168779    553.79158  0.011583659  0.010545056            2 
 3985000   0.59513668   -8.7977012    553.86639  0.011582317  0.010541211            4 
 3986000   0.61560386   -8.7903722    553.52093  0.011572189  0.010537375            2 
 3987000    0.6079465   -8.7958067    554.01902  0.011579697  0.010533539            7 
 3988000   0.60202753   -8.7938926    553.69084  0.011569936  0.010529702            3 
 3989000   0.62237303   -8.7976782     553.6758  0.011566721  0.010525867            3 
 3990000   0.60228272   -8.7916921    553.83111  0.011567066  0.010522036            4 
 3991000   0.60486018   -8.7757127    554.06847  0.011569124  0.010518206            4 
 3992000   0.61353917   -8.8172956     552.0824  0.011524766   0.01051437            3 
 3993000   0.61769088   -8.7948532    553.72937  0.011556252   0.01051054            3 
 3994000   0.60036941   -8.7923728    553.87405  0.011556377  0.010506707            2 
 3995000   0.60807709   -8.7960588    552.87764    0.0115327  0.010502877            3 
 3996000   0.63447076   -8.7769661    554.01193  0.011553469   0.01049905            4 
 3997000   0.60368827   -8.7871419    553.94887  0.011549263  0.010495228            2 
 3998000   0.61395119   -8.8055136    554.23605  0.011552361  0.010491404            2 
 3999000   0.61572898   -8.7968537    554.01188    0.0115448  0.010487582            6 
 4000000   0.62493278   -8.7953509    552.99235  0.011520674  0.010483759            2 
 4001000   0.62285925     -8.80616     553.5609  0.011529636  0.010479936            4 
 4002000   0.59877899   -8.8075497    553.61607  0.011527904  0.010476121            3 
 4003000   0.61532856    -8.788214    554.71387  0.011547878  0.010472307            2 
 4004000   0.60090361   -8.7894367     553.7689  0.011525327  0.010468494            3 
 4005000   0.59534033   -8.7978672    554.42768  0.011536156  0.010464679            3 
 4006000   0.61536039     -8.78271    553.48827  0.011513735  0.010460864            3 
 4007000   0.61752777   -8.7874091    553.89229  0.011519264  0.010457053            3 
 4008000   0.61875844   -8.7935428    552.73398  0.011492307  0.010453242            2 
 4009000   0.59788784   -8.8066235    552.90599  0.011493015  0.010449431            2 
 4010000   0.60723858   -8.8044366    553.54472  0.011503423   0.01044562            3 
 4011000   0.61363601   -8.8054619     553.7365   0.01150454  0.010441814            5 
 4012000   0.60748967   -8.7883376    552.77584  0.011481718  0.010438003            5 
 4013000   0.61496106   -8.8038359    553.53548  0.011494632  0.010434196            3 
 4014000   0.62709903   -8.8067072    552.22466  0.011464554   0.01043039            4 
 4015000   0.59495717    -8.787038    553.26626  0.011483318  0.010426584            4 
 4016000   0.60212049   -8.8010465    554.05639  0.011496854  0.010422782            4 
 4017000   0.61638089    -8.798526    552.28401  0.011457224  0.010418984            4 
 4018000   0.60955611   -8.8106035    552.35744  0.011455895  0.010415184            4 
 4019000   0.60724033   -8.8030072    553.13431  0.011469153  0.010411389            4 
 4020000   0.60126324   -8.8073112    552.58852  0.011454986  0.010407598            6 
 4021000   0.62472751    -8.814783    553.39919  0.011468938  0.010403805            4 
 4022000   0.60647732    -8.774315    553.19343  0.011461823  0.010400015            4 
 4023000   0.60688412   -8.8152263    552.78897  0.011450596  0.010396236            1 
 4024000   0.61039801   -8.8009893    553.60332  0.011464615  0.010392453            9 
 4025000   0.60110203   -8.7730491    554.43445  0.011478974  0.010388673            4 
 4026000   0.61290748   -8.8058758    553.21246  0.011450829  0.010384887            3 
 4027000   0.60996573    -8.802352    553.69334  0.011457937  0.010381104            5 
 4028000    0.5959408   -8.7982976    553.51244   0.01145135  0.010377324            4 
 4029000    0.6005218   -8.8029526    553.23904  0.011442853  0.010373548            3 
 4030000   0.61231028   -8.8087331    553.00979  0.011435273   0.01036977            3 
 4031000   0.59083174   -8.8087079    552.60177  0.011424001  0.010365996            3 
 4032000   0.61979195   -8.7963051    553.34563  0.011436542  0.010362225            5 
 4033000   0.61818675   -8.8113351    552.61581  0.011418626  0.010358453            4 
 4034000   0.60451463   -8.8255572    552.90148  0.011421696   0.01035468            3 
 4035000   0.61944115   -8.7974498    552.23427  0.011405086  0.010350905            4 
 4036000   0.59742634   -8.7912881    552.56491  0.011409087   0.01034713            4 
 4037000   0.60535003   -8.7977904    553.24862  0.011420374  0.010343356            3 
 4038000   0.59985782   -8.8191149    554.32328  0.011439724  0.010339584            3 
 4039000   0.60947591   -8.8169022    552.04518   0.01138989  0.010335817            4 
 4040000   0.60003991   -8.7962887    553.24695   0.01141186  0.010332054            3 
 4041000   0.59250005   -8.8180019     553.9807  0.011424167  0.010328294            3 
 4042000   0.60290368   -8.8077204    553.43054  0.011409998  0.010324536            3 
 4043000   0.61103739   -8.8015228    552.57806  0.011389605  0.010320779            6 
 4044000    0.6062275   -8.8068112    554.05139  0.011417149  0.010317018            5 
 4045000   0.60028565   -8.7910004    552.72051  0.011386908  0.010313267            2 
 4046000   0.60250142   -8.8296414     553.4269  0.011398643  0.010309514            2 
 4047000    0.6182626   -8.8030686    552.78322  0.011382572  0.010305765            4 
 4048000   0.61499159    -8.804279    552.73267  0.011378719  0.010302013            2 
 4049000   0.59304568   -8.7888714    553.02634  0.011381953  0.010298263            3 
 4050000   0.60790516   -8.8250574    552.96013   0.01137778  0.010294511            2 
 4051000   0.59519942   -8.8019662     552.9322  0.011374397   0.01029076            3 
 4052000   0.59300118   -8.8208751    552.28717  0.011358324  0.010287016            4 
 4053000   0.60685321   -8.8223165      553.282  0.011375977  0.010283267            3 
 4054000    0.6021595   -8.8279782    552.30535  0.011353095  0.010279522            3 
 4055000   0.61389999   -8.8167942    553.21419  0.011368972  0.010275777            6 
 4056000   0.59899169   -8.8328289    553.53212  0.011372701  0.010272034            3 
 4057000   0.60133425   -8.8474667    552.51313  0.011348967   0.01026829            1 
 4058000   0.60148649   -8.8128663    551.91368  0.011333861  0.010264547            2 
 4059000   0.61255235    -8.802986    552.26607  0.011338303  0.010260811            3 
 4060000    0.6066532    -8.822705     553.7235  0.011365425  0.010257076            2 
 4061000   0.60212461   -8.8316474    551.43439  0.011315653  0.010253336            4 
 4062000   0.61174726   -8.8032635    551.90206  0.011322461  0.010249602            4 
 4063000   0.59423804   -8.8264429    552.07073  0.011323134  0.010245871            4 
 4064000   0.59918875   -8.8102161     552.5012  0.011329175  0.010242143            3 
 4065000   0.58871197   -8.8179295    553.61115  0.011349142  0.010238411            2 
 4066000   0.59016416   -8.8355966    553.12602  0.011336408  0.010234682            1 
 4067000   0.60507595   -8.8081613     553.2206  0.011335559  0.010230953            3 
 4068000   0.60565096   -8.8224834    553.15457  0.011331419  0.010227227            5 
 4069000   0.60686189   -8.8192139    552.81741   0.01132173  0.010223511            2 
 4070000   0.60218303   -8.8023791    553.04784  0.011323666  0.010219792            1 
 4071000   0.59949049   -8.8286612    553.25313  0.011325087  0.010216071            5 
 4072000   0.60702968   -8.8293605     552.5464  0.011307842  0.010212351            6 
 4073000   0.59288315   -8.7909587    553.03725  0.011315109  0.010208637            2 
 4074000    0.6012678   -8.8273409    551.99462  0.011291004  0.010204923            2 
 4075000   0.59750595   -8.8021969    552.65697  0.011301778  0.010201206            5 
 4076000   0.59451718   -8.8283746      553.596  0.011318204  0.010197494            3 
 4077000   0.60216081   -8.8335305    553.22899  0.011307926  0.010193784            4 
 4078000   0.59935961   -8.8348578    553.09941  0.011302506  0.010190077            3 
 4079000   0.59642135    -8.822943    553.13304  0.011300422  0.010186369            3 
 4080000   0.60001795   -8.8354481    552.87516  0.011292385  0.010182663            5 
 4081000   0.61060934   -8.8227962    552.37522  0.011279409   0.01017896            3 
 4082000   0.59604906   -8.8412752    552.35942  0.011276323  0.010175256            1 
 4083000   0.58406435   -8.8211549    552.34768  0.011273322  0.010171555            2 
 4084000   0.60588882   -8.8186459    554.07897  0.011305888  0.010167857            4 
 4085000   0.60508197   -8.8172607      552.947  0.011280028   0.01016416            5 
 4086000   0.59212372   -8.8192157    552.58954  0.011269978  0.010160468            3 
 4087000   0.59643542   -8.8146613    552.45623  0.011264502  0.010156775            2 
 4088000   0.59660535   -8.8260399    553.75735   0.01128827  0.010153085            2 
 4089000   0.60443637   -8.8257439    551.97945  0.011249275  0.010149393            3 
 4090000   0.60367948   -8.8477707    552.07584  0.011248489  0.010145707            3 
 4091000   0.59232378   -8.8340683    552.04444    0.0112451  0.010142016            3 
 4092000   0.60933651   -8.8255922    551.97863  0.011241012  0.010138328            2 
 4093000   0.59297525   -8.8124469    552.69412  0.011252832  0.010134639            2 
 4094000   0.59602692   -8.8265888     552.3169  0.011242406  0.010130954            2 
 4095000   0.60300288   -8.8179758    552.44602  0.011242288  0.010127266            6 
 4096000   0.60251036   -8.8230971    552.05003  0.011231487  0.010123587            2 
 4097000   0.58848162    -8.823772    552.28458  0.011233516  0.010119909            2 
 4098000    0.6000216   -8.8490674    552.76295  0.011240502  0.010116234            2 
 4099000   0.60409527   -8.8457028    552.66211   0.01123571  0.010112557            1 
 4100000   0.60680347    -8.830323    551.89055  0.011217288  0.010108881            4 
 4101000   0.60095685   -8.8239508    552.35191  0.011223927  0.010105207            5 
 4102000   0.59723876   -8.8246894    552.82817  0.011230866  0.010101535            3 
 4103000   0.61662355   -8.8281992    551.91844  0.011209652  0.010097868            3 
 4104000   0.58502658   -8.8157785    552.79034  0.011224625  0.010094205            2 
 4105000   0.60121054   -8.8416504    552.60996  0.011218229  0.010090539            2 
 4106000   0.60190357   -8.8495945    552.73299  0.011217994  0.010086872            3 
 4107000    0.5804538   -8.8352345    552.31527  0.011206787  0.010083207            5 
 4108000   0.59519848   -8.8191794    553.14089  0.011220807  0.010079545            5 
 4109000   0.58927369   -8.8260036      552.343  0.011201894  0.010075883            3 
 4110000   0.57961557   -8.8603158    551.57213  0.011183539  0.010072223            2 
 4111000   0.58971354   -8.8362434    552.44658  0.011198544  0.010068568            6 
 4112000   0.59378474   -8.8082968    553.30509  0.011213219  0.010064911            2 
 4113000    0.5945871   -8.8236056    553.00237   0.01120436   0.01006126            2 
 4114000   0.58731778   -8.8366981    552.40317  0.011189499  0.010057605            3 
 4115000   0.58713423   -8.8311712    552.76826  0.011194173  0.010053953            2 
 4116000   0.60301743   -8.8464476    551.82641  0.011172384  0.010050301            3 
 4117000   0.59747785   -8.8212631    552.56914  0.011184704  0.010046653            3 
 4118000   0.59821507   -8.8280105    551.67264  0.011163847  0.010043007            3 
 4119000   0.59648037   -8.8395501    552.19908  0.011171787  0.010039361            2 
 4120000   0.60413873   -8.8443369    552.83913  0.011182021  0.010035717            3 
 4121000   0.60800904   -8.8380721    552.71683  0.011176835  0.010032082            4 
 4122000   0.59901775   -8.8523588    552.09492   0.01116155  0.010028443            4 
 4123000   0.59874324   -8.8429172    552.26935  0.011162369  0.010024804            3 
 4124000   0.58785742   -8.8308374    552.49249  0.011164171  0.010021168            3 
 4125000   0.59135133   -8.8285848    553.06021  0.011172933  0.010017533            5 
 4126000   0.58036186   -8.8463181    552.69377  0.011162825  0.010013901            2 
 4127000    0.6017515   -8.8464945    552.04558  0.011147031   0.01001027            4 
 4128000   0.59250873   -8.8341055    553.04264  0.011164459  0.010006644            4 
 4129000   0.60031068   -8.8263648    551.68184  0.011134291  0.010003019            5 
 4130000   0.58436349   -8.8408723    552.02049  0.011138428 0.0099993943            5 
 4131000   0.59927684   -8.8415716    552.38379   0.01114306 0.0099957728            2 
 4132000   0.58419506   -8.8503664    552.32199  0.011139117 0.0099921527            5 
 4133000   0.59688705   -8.8459895    552.62618  0.011142555 0.0099885337            6 
 4134000   0.57472363   -8.8280997    552.83312  0.011144032 0.0099849191            5 
 4135000   0.59844359   -8.8264169    552.06729  0.011125903 0.0099812988            3 
 4136000   0.58907201   -8.8245759     552.2201  0.011126292 0.0099776882            1 
 4137000   0.58208168   -8.8486178    552.29514  0.011125114 0.0099740748            9 
 4138000   0.59458393   -8.8337185    551.80174  0.011112489 0.0099704626            4 
 4139000   0.59194484   -8.8284482    551.76767  0.011109118 0.0099668501            2 
 4140000   0.58111007   -8.8330703    552.16599  0.011114452 0.0099632346            3 
 4141000   0.59048503   -8.8235201    552.39011  0.011116278 0.0099596275            4 
 4142000   0.58738705   -8.8370399    552.40352  0.011113864 0.0099560154            3 
 4143000     0.568474   -8.8480523    552.83135  0.011119787 0.0099524106            3 
 4144000   0.57700293   -8.8370533    552.63754  0.011113207 0.0099488075            5 
 4145000   0.60449125   -8.8592137    552.69606  0.011111702 0.0099452038            5 
 4146000   0.59184836   -8.8477004    552.04191  0.011095874 0.0099416043            3 
 4147000   0.58920342   -8.8306466     551.7119  0.011086567 0.0099380004            5 
 4148000   0.58260214   -8.8379187    552.41369  0.011097993 0.0099344033            7 
 4149000   0.58230524    -8.840572    553.18807  0.011110872 0.0099308095           14 
 4150000   0.59499471   -8.8435795    552.26995  0.011089758 0.0099272155            3 
 4151000   0.59055795   -8.8382567    552.32303  0.011088152  0.009923621            7 
 4152000   0.58760746   -8.8529897    551.94839  0.011077962 0.0099200316            5 
 4153000   0.58983978   -8.8449508    551.75048  0.011071324 0.0099164432            6 
 4154000   0.59074704   -8.8314214    552.44225  0.011082536 0.0099128574            3 
 4155000   0.59460328   -8.8602799    552.53635  0.011081756  0.009909265           10 
 4156000    0.5961242   -8.8549328     551.7228  0.011062777 0.0099056799            4 
 4157000    0.5839497   -8.8261824    552.28995  0.011071485 0.0099020956            5 
 4158000   0.59101902   -8.8501127    551.79986     0.011059 0.0098985142            6 
 4159000   0.59354413   -8.8462142    552.98876  0.011080163 0.0098949359            6 
 4160000   0.58046344   -8.8593015    552.17022  0.011061102 0.0098913595            5 
 4161000   0.58186571    -8.833996    552.35843  0.011062213 0.0098877798            6 
 4162000    0.5809222      -8.8276    552.60694  0.011064531 0.0098842034            2 
 4163000   0.57289143   -8.8330868    552.73919  0.011064521 0.0098806292            2 
 4164000   0.58465024    -8.832467    551.45804  0.011036224 0.0098770626            4 
 4165000   0.58105797   -8.8450925    552.57553  0.011055933 0.0098734973            6 
 4166000   0.59217736   -8.8239041    552.06704  0.011043108 0.0098699286            3 
 4167000   0.58225088   -8.8249073    551.48713   0.01102886  0.009866358            3 
 4168000   0.59967206   -8.8362714    551.59179  0.011028307 0.0098627904            3 
 4169000   0.57683523   -8.8330515    552.35599  0.011040937 0.0098592249           12 
 4170000   0.58514382   -8.8354434    552.64572  0.011044079 0.0098556609            3 
 4171000   0.59843782   -8.8618779    552.29046  0.011034333 0.0098520987            2 
 4172000   0.60712169    -8.867657    551.45531  0.011015007 0.0098485361           10 
 4173000    0.5763119   -8.8411566    551.69788  0.011017212 0.0098449756            6 
 4174000   0.59453071   -8.8272568    552.36302  0.011027851 0.0098414179            5 
 4175000   0.57154694   -8.8521859    551.59826  0.011009945 0.0098378616            7 
 4176000   0.58413713   -8.8602935    551.65929  0.011008527 0.0098343029            2 
 4177000   0.58007493   -8.8572251    551.40752  0.011000868 0.0098307452            5 
 4178000   0.57299414   -8.8457714    551.63336   0.01100274 0.0098271917            9 
 4179000   0.59181558   -8.8357928    552.37791  0.011014954 0.0098236404            3 
 4180000   0.58375586   -8.8583985    551.87096  0.011002212  0.009820092            2 
 4181000   0.58523431   -8.8617403    551.89285  0.011000017 0.0098165448            7 
 4182000   0.58029519   -8.8394664     551.9907  0.010999336 0.0098129995            4 
 4183000   0.57643836   -8.8452482    552.23299  0.011001534 0.0098094507            4 
 4184000   0.58859937   -8.8628874    551.86175   0.01099151 0.0098059099            5 
 4185000   0.58030244   -8.8572616     551.6365  0.010984399 0.0098023695            3 
 4186000   0.58205651   -8.8610203    551.42289  0.010977522 0.0097988308            6 
 4187000   0.56874351   -8.8563138     552.2404  0.010991171  0.009795292            6 
 4188000   0.57414982   -8.8673941    552.03391  0.010984438 0.0097917528            6 
 4189000    0.5730864   -8.8377499    551.72325  0.010975636 0.0097882183           13 
 4190000   0.58925457   -8.8530389      552.153  0.010981563 0.0097846871            5 
 4191000   0.57646484   -8.8593756    551.67768  0.010969492 0.0097811574            6 
 4192000   0.57130934   -8.8381126    551.95335  0.010972355 0.0097776293            6 
 4193000   0.57655669    -8.838699    551.32407  0.010957232 0.0097741021           11 
 4194000   0.57848466    -8.840751    552.72561  0.010982467 0.0097705744           10 
 4195000   0.59420707   -8.8535138    552.06135  0.010966654 0.0097670527            7 
 4196000   0.57290357   -8.8538553    552.14849  0.010965771 0.0097635294            5 
 4197000   0.57775059   -8.8602384    552.49765  0.010970091 0.0097600074            3 
 4198000   0.58158224   -8.8491577    552.97311  0.010976916 0.0097564876            3 
 4199000   0.58037273   -8.8410298    551.54009  0.010945862 0.0097529679            7 
 4200000   0.58198165    -8.867712    551.73182   0.01094706 0.0097494469            6 
 4201000   0.57515461   -8.8469462    552.11135  0.010951983   0.00974593            9 
 4202000   0.57429806   -8.8606312    552.22155  0.010951562 0.0097424115            2 
 4203000   0.58458956   -8.8621672    551.68298  0.010938278 0.0097388983            4 
 4204000   0.57522899   -8.8506545    552.55502  0.010952962 0.0097353908            2 
 4205000   0.57881216   -8.8593103    552.07932   0.01094093 0.0097318809            5 
 4206000    0.5895289   -8.8609291    552.34989  0.010943689 0.0097283712            4 
 4207000   0.59230861   -8.8419697    551.21853  0.010918678 0.0097248676            3 
 4208000   0.58858965    -8.861386    552.20686  0.010935655 0.0097213661            6 
 4209000   0.56829964   -8.8578427    552.13098  0.010931555 0.0097178592            4 
 4210000   0.58377134   -8.8706804    552.12054  0.010928752 0.0097143574            6 
 4211000   0.57585273   -8.8623374    550.72562  0.010898552 0.0097108547            3 
 4212000   0.56959779   -8.8696141    551.72452  0.010915727 0.0097073567            1 
 4213000   0.57896094    -8.851005    550.90292  0.010896885 0.0097038573            7 
 4214000    0.5753547   -8.8375471    551.99688  0.010915933 0.0097003587            3 
 4215000   0.58346104   -8.8650058    551.96445  0.010912702 0.0096968611            3 
 4216000   0.57452169   -8.8684613    551.13124  0.010893644 0.0096933669            4 
 4217000   0.56883513   -8.8564087    551.25085  0.010893424 0.0096898761            6 
 4218000   0.57553573   -8.8647507    551.52056   0.01089617 0.0096863884            3 
 4219000   0.57804991   -8.8561191    551.74895  0.010898099 0.0096828992            3 
 4220000   0.57753734   -8.8536492    552.29652  0.010906329 0.0096794157            3 
 4221000   0.57486027   -8.8576214    550.79794   0.01087416 0.0096759283            5 
 4222000   0.57380069   -8.8678812    552.02764  0.010895856 0.0096724409            4 
 4223000   0.56644959   -8.8618627    552.06928  0.010894097 0.0096689567            7 
 4224000   0.57650191   -8.8550744    551.58933   0.01088205 0.0096654737            5 
 4225000   0.57614971   -8.8732964    551.13772  0.010870566 0.0096619936            7 
 4226000   0.57257937   -8.8637932    551.62527  0.010877608 0.0096585133            8 
 4227000   0.58927119   -8.8753573    551.68082   0.01087613  0.009655033            2 
 4228000   0.58187411   -8.8701038    552.22928  0.010884368 0.0096515603            4 
 4229000   0.57626877   -8.8746598    551.48014  0.010867032 0.0096480834            3 
 4230000   0.58015886   -8.8600605    552.37985  0.010882188 0.0096446148            9 
 4231000   0.57043374   -8.8660897    551.33017  0.010858941 0.0096411396            9 
 4232000      0.56413    -8.864177    551.29725  0.010855727 0.0096376698            6 
 4233000   0.58542355   -8.8723629    551.47081   0.01085658 0.0096341998            7 
 4234000   0.57284725   -8.8723535    551.29862  0.010850626 0.0096307296            4 
 4235000   0.57107876   -8.8631709    550.68032  0.010835898 0.0096272625            5 
 4236000     0.563728    -8.869416    550.73706  0.010834456  0.009623798            7 
 4237000   0.59166808   -8.8555086    552.05937  0.010857906 0.0096203365            5 
 4238000   0.59637859   -8.8612177    551.57315  0.010845783 0.0096168775            4 
 4239000   0.57414512   -8.8631059    551.79032  0.010847494 0.0096134192            2 
 4240000   0.58073323   -8.8554875    552.14236  0.010851854 0.0096099616            7 
 4241000   0.56240421   -8.8667759    552.96701    0.0108655 0.0096065028            3 
 4242000   0.57330951    -8.869228    551.88221  0.010841627 0.0096030517            5 
 4243000   0.56853959   -8.8590109    552.34447  0.010848151 0.0095995994            5 
 4244000   0.56881009   -8.8928353    552.07544  0.010840313  0.009596144            5 
 4245000   0.56775625   -8.8718036    551.30668  0.010822667  0.009592693            5 
 4246000   0.56376973   -8.8695043    552.52074  0.010843946 0.0095892458            4 
 4247000   0.56290978   -8.8680752    551.69671  0.010825224 0.0095858005            7 
 4248000   0.57123375   -8.8826704    550.30376   0.01079535 0.0095823539            6 
 4249000   0.57471103   -8.8599475    552.17772  0.010829562  0.009578912           10 
 4250000   0.56049031   -8.8920144    551.47103  0.010813158 0.0095754694            6 
 4251000   0.57220337   -8.8700652    552.70448  0.010834793 0.0095720257            2 
 4252000    0.5747838   -8.8674767    551.14416  0.010801665   0.00956859            3 
 4253000   0.57767284   -8.8619463    550.80856   0.01079255 0.0095651538            4 
 4254000   0.57212745   -8.8804222    551.62527  0.010806011 0.0095617165            7 
 4255000   0.56409134   -8.8678935    551.08787  0.010792947 0.0095582804            5 
 4256000   0.56358028   -8.8717252    552.32307  0.010814596 0.0095548459            7 
 4257000   0.56094144   -8.8636447    551.42567  0.010794489 0.0095514155            2 
 4258000   0.57644988   -8.8550889    551.33479  0.010790175 0.0095479839            4 
 4259000   0.56437358   -8.8755939    551.05855  0.010782237 0.0095445546            4 
 4260000   0.56852577   -8.8802941    551.84024  0.010794997  0.009541125            4 
 4261000   0.55715973   -8.8717474    552.51923  0.010805743 0.0095376962            7 
 4262000   0.57843967   -8.8587213    551.56984  0.010784644 0.0095342726            3 
 4263000   0.56356554   -8.8559511    552.14678  0.010793392 0.0095308519            4 
 4264000   0.56179135   -8.8752042    550.61227  0.010760871 0.0095274323            4 
 4265000   0.55826301   -8.8867205    551.48981  0.010775494 0.0095240097            3 
 4266000   0.57576548   -8.8764796    552.35051  0.010789782  0.009520587            4 
 4267000   0.57945261   -8.8909037    551.09025  0.010762641 0.0095171612           10 
 4268000   0.57223737   -8.8866687     550.3187  0.010745054 0.0095137379            6 
 4269000   0.55021315   -8.8666205    550.31502  0.010742465 0.0095103188            7 
 4270000   0.57617866   -8.8524663    551.42515  0.010761615 0.0095069031            5 
 4271000   0.57894698   -8.8856457     551.1579  0.010753881 0.0095034912            3 
 4272000   0.56093755   -8.8823051    551.19698  0.010752126 0.0095000775            4 
 4273000   0.54803711   -8.8781406    551.09664  0.010747653 0.0094966644            3 
 4274000   0.56105347   -8.8769596    551.69581   0.01075682 0.0094932576            4 
 4275000   0.57082943   -8.8718665    551.62076  0.010752841 0.0094898488           11 
 4276000   0.55913719    -8.884684     551.0626  0.010739449 0.0094864452            4 
 4277000    0.5661268   -8.8809024    551.87825   0.01075283 0.0094830409            3 
 4278000   0.57339361    -8.886508    551.00097  0.010733228 0.0094796343            3 
 4279000    0.5615642   -8.8652078    551.06953  0.010732054 0.0094762311            3 
 4280000   0.56342553   -8.8710643    550.69095  0.010722176 0.0094728277            4 
 4281000   0.57557197   -8.8700506    551.69417    0.0107392 0.0094694314            2 
 4282000   0.56995809   -8.8825382    551.52402   0.01073338 0.0094660371            5 
 4283000   0.56964363   -8.8785695    551.67385   0.01073379 0.0094626406           11 
 4284000    0.5696391   -8.8760801    551.60308  0.010729907 0.0094592469            5 
 4285000   0.57291118   -8.8836023    550.81038  0.010711987 0.0094558526            5 
 4286000   0.56853194   -8.8696592    550.92165  0.010711651 0.0094524591            3 
 4287000   0.55541908   -8.8937231    552.15773   0.01073318  0.009449069            7 
 4288000   0.56499434   -8.8793621    551.22427  0.010712536 0.0094456785            4 
 4289000   0.55273354   -8.8887122     551.1019  0.010707661 0.0094422875            4 
 4290000   0.57885784   -8.8790298    550.36083   0.01069077 0.0094388982            6 
 4291000   0.57572045   -8.8784084    551.27891  0.010706108 0.0094355152            7 
 4292000   0.57119459   -8.8928114    551.48748  0.010707663 0.0094321287            8 
 4293000   0.56906439    -8.870831     551.2818  0.010701176 0.0094287458            9 
 4294000   0.56629795   -8.9052739    551.78177  0.010708387  0.009425367            8 
 4295000   0.56648612   -8.8907553    550.94736  0.010689704 0.0094219848            9 
 4296000   0.56566738   -8.8858065    550.97478  0.010687748 0.0094186073            9 
 4297000   0.56429739   -8.8721528    551.02369  0.010686209 0.0094152305            4 
 4298000   0.54559849    -8.890695    550.65144  0.010676505 0.0094118508            6 
 4299000    0.5655796   -8.9004141    551.48743  0.010690227 0.0094084773            3 
 4300000   0.57215137   -8.8808777    550.23684  0.010663505 0.0094050998            8 
 4301000   0.57078072    -8.885764    551.76426   0.01069062 0.0094017281            7 
 4302000   0.57683808   -8.8785126    551.78431  0.010688523 0.0093983576            6 
 4303000   0.57286532   -8.8782799    550.73086  0.010665637 0.0093949861            5 
 4304000   0.56749238   -8.8686322    551.23383  0.010672898 0.0093916201            5 
 4305000   0.56738072   -8.8692295    550.94926   0.01066491 0.0093882525            5 
 4306000   0.55426787   -8.8834272    550.88532  0.010661196 0.0093848899            3 
 4307000   0.56511959   -8.8794402    551.02196  0.010661364 0.0093815269            8 
 4308000   0.55339648   -8.8569885    551.69383  0.010671886 0.0093781672            8 
 4309000   0.56894635   -8.8853271    551.14481  0.010658792 0.0093748097            8 
 4310000   0.57067312    -8.871771    550.93557  0.010652273 0.0093714518            9 
 4311000   0.55224659   -8.8678407    551.19236  0.010654766 0.0093680977            6 
 4312000   0.56154658    -8.873276    551.39567  0.010656224 0.0093647409            5 
 4313000   0.55534694   -8.9125996    550.65873  0.010639515 0.0093613859            6 
 4314000   0.57315168   -8.8918665    551.12445  0.010646045 0.0093580312            4 
 4315000   0.56326837   -8.8920701     551.3544  0.010648019 0.0093546801            4 
 4316000   0.56139955   -8.9033631    551.30757  0.010644647 0.0093513306            5 
 4317000   0.55807292   -8.8982929    551.09669  0.010638111 0.0093479811            4 
 4318000   0.55150356   -8.8911635    551.15026  0.010636681 0.0093446315           11 
 4319000   0.55605114   -8.8819718    550.71015  0.010625726 0.0093412829            4 
 4320000   0.55589849   -8.8900919    551.64468  0.010641294  0.009337939            7 
 4321000   0.57569216   -8.8905803    550.35105  0.010613883 0.0093345956            5 
 4322000   0.56191557   -8.8828598     550.5755  0.010615755 0.0093312578            9 
 4323000   0.55962515   -8.9003877    550.42458   0.01061039 0.0093279201            9 
 4324000   0.55882606   -8.9033965    551.05728  0.010620129 0.0093245813            9 
 4325000   0.57515278   -8.9002617    551.61704  0.010628459 0.0093212448            4 
 4326000   0.56226221   -8.8782888    551.19917  0.010617953 0.0093179131            6 
 4327000    0.5577776    -8.874805    551.06228  0.010612863 0.0093145848            7 
 4328000   0.55404432   -8.8733191    550.21967  0.010594187 0.0093112575            6 
 4329000    0.5591465   -8.8885843     550.9297  0.010605407  0.009307933            9 
 4330000   0.55260107   -8.8826366    551.16298  0.010607448 0.0093046057            6 
 4331000   0.55611097   -8.8893743    551.16989  0.010605131 0.0093012816            8 
 4332000   0.56172933   -8.8859622    550.79799  0.010595529 0.0092979554            4 
 4333000   0.57569521   -8.8933484    550.38449  0.010585131 0.0092946337            5 
 4334000   0.55730899   -8.9094915     551.1612  0.010597623 0.0092913135            5 
 4335000   0.55827511   -8.9032744    551.49953  0.010601683 0.0092879921            5 
 4336000   0.55355645    -8.894234    550.30985  0.010576373 0.0092846715            5 
 4337000    0.5658759   -8.8990935    550.21251  0.010572064 0.0092813515            7 
 4338000   0.56732598   -8.8973446     549.9307  0.010564214 0.0092780327           12 
 4339000   0.56283864   -8.9057394    550.77358  0.010577967 0.0092747121            3 
 4340000   0.55485171   -8.8985267     550.5187  0.010570636 0.0092713975            6 
 4341000   0.56732604   -8.8943336    550.13956  0.010560922 0.0092680846            8 
 4342000   0.55856207   -8.8912464    551.49526  0.010584509  0.009264771            7 
 4343000   0.56236851   -8.8672276    550.58459  0.010564598 0.0092614608            5 
 4344000   0.55736626   -8.8983366    550.94252  0.010569032 0.0092581545            8 
 4345000   0.55219473   -8.9138284    551.54739  0.010578201 0.0092548448            5 
 4346000   0.55143974   -8.8815951    550.68741  0.010559277 0.0092515417            5 
 4347000   0.54237565   -8.8696684    551.47798  0.010572003 0.0092482365            5 
 4348000   0.54974353   -8.8991529    550.05217  0.010542245  0.009244935           15 
 4349000   0.55511009   -8.8858713    551.78823  0.010573086 0.0092416346            7 
 4350000   0.54952032   -8.9068171    551.50601  0.010565249 0.0092383351           12 
 4351000   0.56081565   -8.9077263    551.05491  0.010554181 0.0092350372            4 
 4352000   0.55148245   -8.9008839    550.69188  0.010544805 0.0092317407            6 
 4353000    0.5586347   -8.9019423    550.55417  0.010539746 0.0092284435            9 
 4354000   0.54824282   -8.8945448    551.02293  0.010546297 0.0092251492           13 
 4355000   0.55065389   -8.8938212    549.81106  0.010520686 0.0092218557            9 
 4356000   0.55511376   -8.9042172    550.89331  0.010538975 0.0092185679            7 
 4357000   0.54823294   -8.8986726    550.87643  0.010536233  0.009215281            4 
 4358000   0.55001648   -8.8904044    550.21497  0.010521167 0.0092119958            6 
 4359000   0.54023066   -8.9025265    550.36109  0.010521547 0.0092087087            3 
 4360000   0.54963663   -8.9040532     550.3981  0.010519841 0.0092054231            7 
 4361000   0.54358842   -8.8895123    550.39398   0.01051735 0.0092021364            8 
 4362000   0.55996985   -8.8962159    551.28231   0.01053191 0.0091988544            8 
 4363000   0.55586265   -8.8987995    549.94594  0.010503972 0.0091955724           10 
 4364000   0.55741197    -8.906342    550.85071  0.010518842 0.0091922931           11 
 4365000   0.55811812   -8.8905848    550.96927  0.010518696 0.0091890134            9 
 4366000   0.55923882   -8.9035155    550.92335   0.01051541 0.0091857342           11 
 4367000     0.563853   -8.9114267      551.071  0.010515819 0.0091824598            8 
 4368000   0.54921973   -8.8913744    551.57784  0.010523082 0.0091791891            6 
 4369000   0.55749785   -8.9023963    550.35587  0.010497365 0.0091759173           11 
 4370000   0.54824126   -8.8903641    550.83511  0.010504102 0.0091726487            7 
 4371000   0.56568011   -8.9041328    550.21158  0.010489811   0.00916938           12 
 4372000   0.55615465   -8.8971144     550.4389  0.010491745 0.0091661139            8 
 4373000   0.54706928   -8.8997656    550.51892  0.010490871 0.0091628426            8 
 4374000   0.54924549   -8.8982126    549.62809    0.0104715 0.0091595786           11 
 4375000   0.55880643   -8.9211215    550.09141  0.010477932 0.0091563155            9 
 4376000   0.55946104     -8.88305    551.25488  0.010497694  0.009153055            6 
 4377000   0.56983612   -8.9034783     551.0218  0.010490858 0.0091497934           11 
 4378000   0.54681176   -8.8667638    550.67263  0.010481815 0.0091465345            6 
 4379000   0.56463012     -8.90651    549.96944  0.010466039 0.0091432763           11 
 4380000   0.56079717     -8.90404    551.21687  0.010487383  0.009140019            6 
 4381000   0.56007682   -8.9113326    550.42242  0.010469878 0.0091367657           12 
 4382000   0.53773022   -8.8982794    551.07238  0.010479849 0.0091335125            8 
 4383000   0.55396077   -8.9042001    550.87317   0.01047367 0.0091302637            7 
 4384000   0.54630001    -8.903554    550.65254  0.010467087 0.0091270129            5 
 4385000   0.54797388   -8.9090788     550.8132  0.010467754 0.0091237648            9 
 4386000   0.55953808    -8.917747    550.62763  0.010461841 0.0091205206            9 
 4387000   0.54974713   -8.8901812    550.81156   0.01046295 0.0091172741           13 
 4388000   0.55106532   -8.8995431    550.96748  0.010463527 0.0091140335            7 
 4389000   0.55033037   -8.9135687     551.3588  0.010468573 0.0091107972           12 
 4390000   0.55289082   -8.8731441    550.16863  0.010443596  0.009107554            8 
 4391000   0.54953626   -8.8954004    550.60347   0.01044947 0.0091043135            6 
 4392000   0.56322263   -8.9178861    550.90149  0.010452745 0.0091010747            6 
 4393000    0.5456703   -8.9089782    550.08873  0.010434948  0.009097838            9 
 4394000   0.54399071   -8.9221182    550.66595  0.010443521 0.0090945987            6 
 4395000   0.55715551   -8.8935638    549.42543  0.010417623  0.009091361            9 
 4396000   0.53621708   -8.8891348    550.33219  0.010432442 0.0090881274            9 
 4397000   0.54644865   -8.8992797    550.53465  0.010433907 0.0090848952            8 
 4398000   0.55016513   -8.9087026    550.64315   0.01043359 0.0090816612            9 
 4399000   0.54422028   -8.9039396    551.17484   0.01044129  0.009078432            8 
 4400000    0.5424087   -8.8925678    549.88684  0.010414523 0.0090752049            5 
 4401000   0.55416871   -8.8871889    551.15707  0.010436209 0.0090719781            6 
 4402000   0.55230023   -8.9007829    551.08086  0.010432396 0.0090687531           11 
 4403000   0.54893007   -8.9135952    550.25666  0.010414427 0.0090655319           10 
 4404000   0.54860081   -8.9110158    550.43535  0.010415443 0.0090623118           16 
 4405000   0.54034719   -8.9255036     550.2709  0.010409968 0.0090590908           10 
 4406000   0.54460329   -8.8996741    550.09383  0.010404256 0.0090558696            9 
 4407000   0.55563483   -8.9134511    549.85572  0.010397393 0.0090526453           10 
 4408000   0.53837925   -8.9121566    550.19493  0.010401447 0.0090494252           10 
 4409000   0.54255775   -8.9055935    550.71812  0.010408976 0.0090462071           10 
 4410000    0.5443427   -8.9081209    550.24981  0.010397767 0.0090429887            8 
 4411000   0.53837934   -8.9081337    550.07794  0.010392162 0.0090397746           12 
 4412000    0.5304468   -8.9069822     549.7495  0.010383603 0.0090365591           11 
 4413000   0.55217511   -8.9290657    549.38578  0.010374382 0.0090333439            5 
 4414000   0.54739818   -8.9114549    549.72152   0.01037837   0.00903013            8 
 4415000    0.5429072   -8.8962032    549.71309   0.01037586 0.0090269191            8 
 4416000   0.54287959   -8.9100602    551.27466  0.010402979 0.0090237094            4 
 4417000   0.54213182   -8.8972783    550.05117  0.010377541 0.0090205004           11 
 4418000   0.55728294    -8.903334    549.72698  0.010369077 0.0090172945            5 
 4419000   0.53319022   -8.9311297    549.59371  0.010364217 0.0090140898            8 
 4420000    0.5330272   -8.9181262    550.79733  0.010384565 0.0090108889            9 
 4421000   0.55218788   -8.9150512    550.54243  0.010377411 0.0090076903           12 
 4422000   0.55327415   -8.9015194    550.37382  0.010371887 0.0090044898            7 
 4423000   0.54136222   -8.9173102    549.30327  0.010349372 0.0090012918           10 
 4424000   0.54299938   -8.9237525    550.08616   0.01036178 0.0089980962           10 
 4425000    0.5440161    -8.905687    550.59653   0.01036905 0.0089948996           13 
 4426000   0.55393852   -8.9121114    550.68435   0.01036836 0.0089917035            7 
 4427000   0.54153382    -8.916619    550.48469   0.01036226  0.008988514           13 
 4428000   0.54243675   -8.9256926    550.93885  0.010368467 0.0089853234           11 
 4429000   0.55127948   -8.8934864    551.37965  0.010374419 0.0089821346            7 
 4430000    0.5420153   -8.9082938    550.59938    0.0103574 0.0089789473            6 
 4431000   0.54929902   -8.9016267    550.43435  0.010351959 0.0089757604           10 
 4432000   0.54601731   -8.8974266    550.66227  0.010353908 0.0089725759           12 
 4433000   0.55417005   -8.9161367    550.67184  0.010351753 0.0089693939            9 
 4434000   0.54347248    -8.919924    550.10768  0.010338815 0.0089662126           10 
 4435000   0.54375745   -8.9035137     550.0266  0.010334961 0.0089630333            9 
 4436000   0.54631882   -8.9085579    550.69662  0.010345218 0.0089598557            7 
 4437000   0.53517848   -8.9090574    550.18559  0.010333288 0.0089566801            5 
 4438000   0.54953772    -8.910035    550.07537   0.01032889 0.0089535099           11 
 4439000   0.54563113   -8.9064487    549.95471  0.010324298 0.0089503349           12 
 4440000   0.53875361   -8.9179406    550.71179  0.010336182 0.0089471659           10 
 4441000   0.54831765   -8.9233482    549.63506   0.01031365 0.0089439926           10 
 4442000   0.54239897   -8.9375416    550.64999  0.010330369 0.0089408243           16 
 4443000    0.5393271   -8.9209899    549.12191  0.010299383 0.0089376532            7 
 4444000   0.55072562   -8.9363807    550.04394  0.010314355 0.0089344845           11 
 4445000   0.54470967   -8.9028904     550.7161  0.010324636 0.0089313229           10 
 4446000   0.55316608   -8.9016048    549.83718   0.01030584 0.0089281603           11 
 4447000   0.54605538   -8.9205197    550.08263  0.010308122 0.0089250001           10 
 4448000   0.53575414    -8.926861    550.89289  0.010320985 0.0089218393            5 
 4449000   0.53931273   -8.9175177    549.63052   0.01029502 0.0089186783           10 
 4450000   0.54017142   -8.9211688      549.623  0.010292566 0.0089155189           12 
 4451000   0.54583097   -8.9029849    549.79311  0.010293438 0.0089123587           12 
 4452000   0.53006055   -8.9144519    550.31193  0.010300837  0.008909203            8 
 4453000   0.54117807    -8.927848      549.221  0.010278108 0.0089060438           14 
 4454000   0.55066851   -8.9137697     549.5896  0.010282697 0.0089028883           10 
 4455000    0.5321044   -8.9335504    549.70965  0.010282635 0.0088997325           12 
 4456000    0.5398462   -8.9229595    549.97017  0.010285199  0.008896584           12 
 4457000   0.54160164   -8.9126456    549.94575  0.010282435 0.0088934376            8 
 4458000    0.5363624   -8.8983034    550.36971  0.010288054 0.0088902934           11 
 4459000   0.53347465    -8.924425    549.65169  0.010272327 0.0088871489           10 
 4460000   0.53366324   -8.9327676    549.93746  0.010275364 0.0088840038            6 
 4461000   0.54072649   -8.9095126    550.28649   0.01027958 0.0088808626            7 
 4462000   0.54896491   -8.9025925    550.04858  0.010272833 0.0088777217            6 
 4463000   0.52904306   -8.9313256    550.01353  0.010269877  0.008874579           11 
 4464000   0.53880468   -8.9269561    549.71471  0.010261998 0.0088714398            8 
 4465000   0.54280208   -8.9276843    550.48692  0.010274112 0.0088683057            8 
 4466000    0.5358035   -8.9019594    550.78428   0.01027736  0.008865168           12 
 4467000     0.531206   -8.9142875    549.68536  0.010254559 0.0088620323            9 
 4468000   0.54643588   -8.9155001    550.27964  0.010263347 0.0088588992           13 
 4469000   0.53587542   -8.9326901    549.59349  0.010248256 0.0088557665            7 
 4470000   0.53348706   -8.9166794    549.98141  0.010253195 0.0088526351            9 
 4471000   0.53104405   -8.9257922    550.58313  0.010262118 0.0088495084           13 
 4472000   0.52500516   -8.9227259    549.90743  0.010247231 0.0088463815            8 
 4473000   0.54507372   -8.9297314    550.02493   0.01024713  0.008843256            7 
 4474000   0.54004782   -8.9112477    549.79196    0.0102405 0.0088401293            9 
 4475000   0.53735521   -8.9367334    550.36294  0.010248844 0.0088370036            6 
 4476000   0.53547046    -8.918402    550.79879  0.010254669 0.0088338813            6 
 4477000   0.52535449   -8.9201021    549.27129  0.010223946 0.0088307589            9 
 4478000   0.54147372   -8.9326725    550.48339   0.01024422 0.0088276378           10 
 4479000   0.52149678   -8.9346285    550.78785  0.010247597   0.00882452            8 
 4480000   0.54021328   -8.9509058    549.71379  0.010225331 0.0088214017           10 
 4481000   0.52983547   -8.9322292     549.7589  0.010223888 0.0088182873            6 
 4482000    0.5299734    -8.917986    550.46456  0.010234727 0.0088151725           13 
 4483000   0.52718808   -8.9253843    550.35019  0.010230318 0.0088120608           11 
 4484000   0.53874554   -8.9163407    550.77958  0.010236017 0.0088089513            6 
 4485000   0.52160799   -8.9331064    549.40012  0.010208103 0.0088058426           19 
 4486000   0.53203117   -8.9298485    550.07727  0.010218407 0.0088027318            7 
 4487000   0.54004111   -8.9278733    550.35594  0.010221305 0.0087996224           12 
 4488000   0.53373368   -8.9192613    550.33917  0.010218716 0.0087965141            5 
 4489000   0.51976506   -8.9208202    550.26474  0.010215058 0.0087934097           11 
 4490000   0.53949322   -8.9322226     550.4334  0.010215913 0.0087903092            8 
 4491000   0.53554607   -8.9201014     549.2413  0.010191518 0.0087872087           10 
 4492000   0.52431413    -8.926842    549.60885  0.010196068 0.0087841091           11 
 4493000   0.53251617   -8.9282963    550.32154  0.010207017 0.0087810109            8 
 4494000    0.5313556   -8.9497196    549.02972  0.010180791 0.0087779116            9 
 4495000   0.52967452   -8.9296056    550.41428  0.010204195 0.0087748121           11 
 4496000   0.54279527   -8.9379656    549.58689   0.01018659 0.0087717165            8 
 4497000   0.53200377   -8.9332736    550.07041  0.010193285 0.0087686246            8 
 4498000   0.53859222   -8.9338862    549.79748  0.010185962 0.0087655369            8 
 4499000   0.53555227   -8.9129363    549.68789  0.010181668 0.0087624502           10 
 4500000   0.53683971   -8.9238818    549.25113  0.010171317 0.0087593627           12 
 4501000   0.53571399   -8.9388718    550.96786  0.010200842 0.0087562782            7 
 4502000   0.53015553   -8.9469338    550.10913   0.01018268 0.0087531977            9 
 4503000   0.53603127   -8.9419902    549.72448  0.010173301 0.0087501175           13 
 4504000   0.53502947   -8.9320168     549.7273  0.010171094 0.0087470382            7 
 4505000   0.53910419   -8.9154783     549.5072  0.010164765 0.0087439637            6 
 4506000   0.53553977   -8.9363719    550.63251  0.010183321 0.0087408873           12 
 4507000   0.54286064   -8.9290047    549.84946  0.010166583  0.008737815           10 
 4508000   0.53886952   -8.9195312    549.77129  0.010162882 0.0087347427            5 
 4509000   0.52615549   -8.9235657    549.83753  0.010161853 0.0087316715           12 
 4510000   0.52876334   -8.9288873    549.10649  0.010146092 0.0087286006           10 
 4511000   0.53388318   -8.9347246    550.77997  0.010174757 0.0087255293           11 
 4512000   0.52810093   -8.9261365    549.29314  0.010145042 0.0087224587            6 
 4513000   0.52885062   -8.9314483    549.95424  0.010155001 0.0087193888            5 
 4514000   0.52096703   -8.9416553    550.45289  0.010161957 0.0087163212            9 
 4515000   0.52928204   -8.9467201    550.05826  0.010152423 0.0087132555            7 
 4516000   0.52929208    -8.951026    549.74875  0.010144463 0.0087101905            7 
 4517000    0.5286835   -8.9301552    550.39069   0.01015406 0.0087071263           10 
 4518000   0.54523613   -8.9575179    549.61795   0.01013756 0.0087040648            7 
 4519000   0.53112196   -8.9437576     548.9539  0.010123071 0.0087010017            8 
 4520000     0.547541    -8.930924    549.41589  0.010129349 0.0086979398           11 
 4521000   0.51477135   -8.9385691     549.6404  0.010131247 0.0086948774            4 
 4522000   0.52225374   -8.9363679    549.63779  0.010128958 0.0086918197            8 
 4523000   0.51786769   -8.9291418    549.89511   0.01013146 0.0086887622            8 
 4524000   0.53056308   -8.9535694    549.48578   0.01012168 0.0086857073           10 
 4525000   0.53365723   -8.9438397    549.68631  0.010123137 0.0086826528            7 
 4526000   0.52619487   -8.9279569    549.19805   0.01011191 0.0086796017           16 
 4527000   0.51843772   -8.9524552     550.4422  0.010132579 0.0086765494            9 
 4528000   0.51963071   -8.9429553    549.97116  0.010121672 0.0086734993            9 
 4529000   0.52801708   -8.9398221    549.85799  0.010117355 0.0086704502            4 
 4530000   0.54126341   -8.9617749    549.00651  0.010099457 0.0086674019            9 
 4531000   0.53219466   -8.9488233    549.79341  0.010111701 0.0086643553           12 
 4532000    0.5286765   -8.9441706    550.58258  0.010123981 0.0086613104           11 
 4533000   0.52832358   -8.9416967    549.85791  0.010108425 0.0086582667           14 
 4534000   0.52381365   -8.9443593    550.00436  0.010108888 0.0086552239            5 
 4535000   0.52523404   -8.9434798    549.87702  0.010104319 0.0086521799            7 
 4536000   0.52145556   -8.9385817    550.01975  0.010104713 0.0086491361            6 
 4537000   0.52446616   -8.9354623      549.382  0.010090772 0.0086460949            7 
 4538000   0.51918243    -8.952096    549.29414  0.010086935 0.0086430556           14 
 4539000   0.53064868    -8.932222    549.55963  0.010089587 0.0086400164            5 
 4540000   0.52952785   -8.9404739    549.11128  0.010079135  0.008636979           12 
 4541000   0.52257581    -8.952402    549.16974  0.010077988 0.0086339411           11 
 4542000   0.52293104    -8.936387    549.30188  0.010078194 0.0086309058            8 
 4543000   0.51995398   -8.9586009    550.18843  0.010092238 0.0086278732            9 
 4544000   0.52690701   -8.9428001    548.70093  0.010062737 0.0086248461           14 
 4545000    0.5204711   -8.9680173    549.12083  0.010068222 0.0086218132           11 
 4546000   0.52098545   -8.9599356    549.39829  0.010071093 0.0086187824           12 
 4547000   0.53134249   -8.9582315    548.91924  0.010060099 0.0086157505           11 
 4548000   0.52723642   -8.9647751     549.3736  0.010066212 0.0086127222            9 
 4549000    0.5276336   -8.9666071    548.73766   0.01005235 0.0086096968            7 
 4550000   0.51419255   -8.9598745    548.57521  0.010047165  0.008606672           10 
 4551000   0.53416723   -8.9482589     549.6841  0.010065262 0.0086036503            9 
 4552000   0.52343321   -8.9241251    550.00895  0.010068998  0.008600629           10 
 4553000   0.52158378   -8.9563922    549.38429  0.010055353 0.0085976083            9 
 4554000   0.52182049   -8.9538013    549.04054  0.010046855 0.0085945877            8 
 4555000    0.5157738   -8.9397702    549.52083  0.010053436 0.0085915719            7 
 4556000   0.52723111   -8.9601898    549.50584  0.010050955 0.0085885573            8 
 4557000   0.52130261   -8.9391832    548.82171  0.010036239 0.0085855429            8 
 4558000   0.54016803   -8.9508404    549.18896  0.010040752 0.0085825284            7 
 4559000   0.52703587   -8.9422399    549.35405  0.010041567 0.0085795156            7 
 4560000   0.53245536    -8.949745    549.56359  0.010043194 0.0085765063            4 
 4561000   0.51681345     -8.94336    549.37123  0.010037478 0.0085734979            6 
 4562000   0.51647505   -8.9537058     549.5783   0.01003906 0.0085704894            8 
 4563000    0.5274987   -8.9599478    549.11533  0.010028405  0.008567483            7 
 4564000   0.52146866    -8.955196    548.44886  0.010014039 0.0085644759           13 
 4565000   0.51020833    -8.956496    549.10199  0.010023768 0.0085614719            6 
 4566000   0.52006516   -8.9445609    550.06392  0.010039128 0.0085584701            7 
 4567000   0.52836329   -8.9715297    549.36681   0.01002421 0.0085554675            8 
 4568000   0.52774846   -8.9481831    549.28205  0.010020469  0.008552466            6 
 4569000   0.52308569   -8.9401482    549.47914  0.010021871 0.0085494659            6 
 4570000   0.51700673   -8.9481502    549.81268   0.01002576 0.0085464703            6 
 4571000   0.52575717   -8.9486099    549.21577  0.010012685 0.0085434717            8 
 4572000   0.51974563   -8.9440269    549.21443   0.01001047 0.0085404759            7 
 4573000    0.5205192   -8.9519696    549.21317  0.010008258 0.0085374786           13 
 4574000   0.51834265    -8.956773    550.22689  0.010024539 0.0085344857            9 
 4575000   0.51482631   -8.9568155    549.50072  0.010009121 0.0085314946            4 
 4576000   0.53703266   -8.9468163    549.39143  0.010004943 0.0085285045            8 
 4577000   0.52311395   -8.9600945    547.78557 0.0099735192 0.0085255173            7 
 4578000   0.51242211   -8.9485066    549.62689  0.010004858 0.0085225304            9 
 4579000   0.50097541   -8.9536759     549.1297 0.0099936248 0.0085195464            7 
 4580000   0.52552716   -8.9485855    549.49209 0.0099980366 0.0085165617           12 
 4581000   0.51272871   -8.9547633    549.47705 0.0099955805 0.0085135775            5 
 4582000   0.52585739   -8.9497026    548.82523 0.0099815442 0.0085105941            9 
 4583000   0.50995096   -8.9615108    549.17284 0.0099856869 0.0085076155            7 
 4584000   0.51179259   -8.9628958    548.99171 0.0099802158 0.0085046349            4 
 4585000   0.51263974    -8.960362    549.31418 0.0099839001 0.0085016591            9 
 4586000     0.513793   -8.9726794    548.86085 0.0099734854 0.0084986832           10 
 4587000   0.51362224   -8.9627569    547.98159 0.0099553374 0.0084957081           11 
 4588000   0.53005413   -8.9622578     549.5054 0.0099808449 0.0084927336            6 
 4589000   0.52061172   -8.9647547    549.33212 0.0099755234 0.0084897613            8 
 4590000    0.5138508   -8.9800332     549.5758 0.0099777742 0.0084867919           12 
 4591000   0.51825523   -8.9602495    548.78747 0.0099612914 0.0084838202            8 
 4592000   0.52075912   -8.9626405    549.11393 0.0099650467 0.0084808537           11 
 4593000   0.51352457   -8.9565045    548.69258 0.0099552322 0.0084778886            8 
 4594000   0.52901922    -8.960318    549.00739 0.0099587757 0.0084749216            9 
 4595000   0.52983233   -8.9835479    548.75914 0.0099521062 0.0084719569            9 
 4596000   0.51202965   -8.9544648     548.5808 0.0099467073   0.00846899           11 
 4597000   0.50632656   -8.9502556    549.69986 0.0099648297 0.0084660298            5 
 4598000   0.52444485   -8.9652193    549.80082 0.0099644921 0.0084630723            9 
 4599000   0.52677229   -8.9605045    548.57498 0.0099401134 0.0084601147            7 
 4600000   0.50964591   -8.9669559    549.00757 0.0099457893 0.0084571564           10 
 4601000   0.51318612   -8.9587541    548.54879 0.0099353182 0.0084542029            6 
 4602000   0.51788513   -8.9502388    549.20232 0.0099449935 0.0084512498            6 
 4603000   0.52091523   -8.9712539    548.93386 0.0099379728 0.0084482989            6 
 4604000   0.51275843   -8.9653063    548.35449 0.0099253275 0.0084453448            6 
 4605000   0.52066435    -8.963852    549.02431 0.0099352933 0.0084423954            4 
 4606000   0.51620683   -8.9694414    549.38336 0.0099396323 0.0084394441            7 
 4607000   0.51390003   -8.9645772    549.57262 0.0099408983 0.0084364921            7 
 4608000   0.51048848   -8.9652534    548.55248 0.0099202922 0.0084335427            7 
 4609000   0.49937665   -8.9631912     549.2916 0.0099315036 0.0084305967           16 
 4610000   0.51443086   -8.9593366    548.39602 0.0099131602 0.0084276518            6 
 4611000   0.51888138   -8.9637525    549.12876 0.0099242529 0.0084247065           18 
 4612000    0.5245479   -8.9829087    548.68571 0.0099140957 0.0084217635            6 
 4613000   0.51923679    -8.944281    548.78618 0.0099137614 0.0084188254           12 
 4614000   0.50164075   -8.9764474    548.64215 0.0099090116 0.0084158858            5 
 4615000   0.52323192    -8.960729    549.19437 0.0099168358 0.0084129478           10 
 4616000   0.51294975   -8.9636959    548.30259 0.0098985881 0.0084100108            5 
 4617000   0.51112717   -8.9727076    549.03537 0.0099096702 0.0084070738           10 
 4618000   0.52133969    -8.975423    548.84016 0.0099040017 0.0084041394           11 
 4619000   0.52158097   -8.9721128    548.63178 0.0098980981 0.0084012032           10 
 4620000   0.50832957   -8.9730532    548.46606 0.0098929665 0.0083982717           11 
 4621000   0.50885714   -8.9746991    548.91213 0.0098988699 0.0083953385            9 
 4622000   0.51726296   -8.9761926    548.97516 0.0098978646 0.0083924084            8 
 4623000   0.52246312   -8.9537598    548.90173    0.0098944 0.0083894775           10 
 4624000   0.49694012   -8.9465423    549.93341  0.009910853 0.0083865504            9 
 4625000   0.52133577   -8.9718948    549.19848 0.0098954681 0.0083836235           11 
 4626000   0.50318889    -8.964868    549.37902 0.0098965813 0.0083806993           10 
 4627000   0.49736828   -8.9671941    548.08327 0.0098711056 0.0083777758           17 
 4628000   0.51509302   -8.9706788      548.965 0.0098848495 0.0083748504           10 
 4629000   0.50789884   -8.9662781    548.69818 0.0098779106   0.00837193           10 
 4630000    0.5096662   -8.9735632    548.82881 0.0098781283 0.0083690083           11 
 4631000   0.50887264   -8.9638324    548.39832 0.0098682488 0.0083660867            8 
 4632000   0.50777611   -8.9793816    549.69753 0.0098894921 0.0083631678            4 
 4633000   0.51222904    -8.954223    549.22868 0.0098789243 0.0083602514            9 
 4634000   0.51340164   -8.9769817    548.72976 0.0098678205 0.0083573349           14 
 4635000   0.50297051   -8.9601993     549.9941 0.0098884232 0.0083544215           15 
 4636000   0.50870259   -8.9621813    549.29116 0.0098736547 0.0083515077           11 
 4637000   0.50572517   -8.9666897     548.5549 0.0098582939 0.0083485984           10 
 4638000    0.5125628   -8.9610171     548.7495 0.0098596647 0.0083456877            7 
 4639000   0.51361651   -8.9497776    548.45202 0.0098521954 0.0083427795           11 
 4640000    0.5058814   -8.9723392     548.7231 0.0098549407 0.0083398698           15 
 4641000   0.51422383   -8.9712727    548.97468 0.0098573346 0.0083369646           12 
 4642000   0.50476883   -8.9702967    548.87887 0.0098534911  0.008334055           16 
 4643000   0.50476321   -8.9781538     549.1583 0.0098563842 0.0083311501            7 
 4644000   0.51491138   -8.9822924    548.87356 0.0098491523  0.008328248           11 
 4645000   0.50264106     -8.97195    548.25233 0.0098358868 0.0083253467           20 
 4646000    0.4997074   -8.9836212    548.64026 0.0098407278 0.0083224449           13 
 4647000   0.49877657   -8.9586388    548.20095 0.0098307322  0.008319544            9 
 4648000   0.51607125   -8.9736672    548.66425 0.0098369236 0.0083166467            9 
 4649000   0.50348563   -8.9349285    548.73393 0.0098360567 0.0083137503            7 
 4650000   0.51471051   -8.9679962    549.04367 0.0098394922 0.0083108584            9 
 4651000   0.49831747    -8.961144    549.00708 0.0098367211 0.0083079665            7 
 4652000   0.51753327    -8.983997    549.25941 0.0098391268 0.0083050743           10 
 4653000   0.50627935   -8.9685395    548.42289 0.0098220304 0.0083021837            8 
 4654000   0.51896394   -8.9790697      549.502 0.0098392422 0.0082992946           11 
 4655000   0.51021677   -8.9793778    548.65479 0.0098219619 0.0082964067            8 
 4656000   0.51533448   -8.9640729    549.35892 0.0098324549 0.0082935202            9 
 4657000   0.50473996   -8.9723476    548.29316 0.0098112726 0.0082906298           10 
 4658000   0.50208202   -8.9790557    548.71694 0.0098167479 0.0082877454            9 
 4659000   0.49999818   -8.9728505    548.43821 0.0098096553 0.0082848639            9 
 4660000   0.50926947   -8.9803793    548.53825 0.0098093392 0.0082819805           10 
 4661000   0.49791466   -8.9880837    549.31258 0.0098210788  0.008279098           10 
 4662000   0.51268989    -8.986849    548.63948 0.0098069404 0.0082762174           16 
 4663000   0.50568349   -8.9810139    548.89459 0.0098093965  0.008273342           10 
 4664000    0.5053617   -8.9833978    548.36497 0.0097978303 0.0082704653           14 
 4665000   0.49158159   -8.9961553    548.03775 0.0097898848 0.0082675897           15 
 4666000   0.50154262   -8.9828958    549.42575 0.0098125759 0.0082647155           12 
 4667000   0.50315251   -8.9820396    548.03096 0.0097855682 0.0082618426           10 
 4668000   0.49330617   -8.9776776    548.87293 0.0097985028 0.0082589711            9 
 4669000   0.49287818   -8.9854104    548.63967 0.0097922408    0.0082561            6 
 4670000    0.4974814   -8.9881553    547.93675 0.0097776009 0.0082532328            7 
 4671000   0.50903647    -8.978974    549.20655 0.0097981615 0.0082503655            9 
 4672000   0.49662262   -8.9783549    548.58485 0.0097849752 0.0082474985            9 
 4673000   0.50084341   -8.9768525    549.11599 0.0097923531 0.0082446325           12 
 4674000   0.51143708   -8.9649831    548.63738 0.0097817248 0.0082417706           14 
 4675000   0.49601098   -8.9813432    549.00143 0.0097861217 0.0082389082           14 
 4676000   0.50073537   -8.9787211    549.28273 0.0097890421 0.0082360459            8 
 4677000   0.50449718    -8.992392    548.47961 0.0097726394 0.0082331889            8 
 4678000   0.49805024   -8.9772319    548.14013 0.0097645028 0.0082303303           10 
 4679000   0.50757895   -8.9813615    549.08917 0.0097793184 0.0082274752           10 
 4680000   0.51594616   -8.9890337    548.33497 0.0097637994 0.0082246186            5 
 4681000    0.4951728   -8.9796936    548.65988 0.0097674977 0.0082217623            7 
 4682000   0.49924468   -8.9731688    548.45713 0.0097618029  0.008218907            8 
 4683000   0.49615797   -8.9711883    548.70132 0.0097640637 0.0082160556           11 
 4684000   0.50654146   -8.9854852    548.41127 0.0097568189 0.0082132021            7 
 4685000   0.50272851     -8.97557    548.14243 0.0097499543 0.0082103508           11 
 4686000   0.48979085   -8.9959714    548.30695 0.0097507994 0.0082075018            7 
 4687000   0.49557795   -8.9956715    547.97161 0.0097427568 0.0082046519           12 
 4688000   0.50854151   -8.9905106    548.64758 0.0097526945 0.0082018066           11 
 4689000   0.49824592   -8.9921898    548.20309 0.0097427151 0.0081989576            9 
 4690000   0.50243106   -8.9920792    548.08027 0.0097384554 0.0081961096           10 
 4691000   0.49006156   -8.9802045    548.47534 0.0097433976 0.0081932652            9 
 4692000   0.50886747   -8.9916548    548.39759 0.0097399402 0.0081904212            8 
 4693000   0.50224136   -9.0032942    547.57858 0.0097233216 0.0081875764           13 
 4694000   0.51138707   -8.9850711    547.62066 0.0097219973 0.0081847329            7 
 4695000   0.50345815   -8.9792934    548.37162 0.0097332556 0.0081818933            8 
 4696000   0.50351474    -8.982102    548.26021 0.0097292059 0.0081790522           13 
 4697000   0.50099077   -8.9926726    548.15802 0.0097253214 0.0081762117            8 
 4698000   0.49562443   -8.9924898    548.63022 0.0097316274 0.0081733762           14 
 4699000   0.50394813   -8.9844164    547.15539 0.0097034012 0.0081705396            4 
 4700000   0.50062888   -8.9842624    548.64256 0.0097277049 0.0081677046            6 
 4701000   0.50012745    -9.003647    548.52972 0.0097236355 0.0081648726            8 
 4702000   0.51745699   -9.0036242    547.60102 0.0097051081 0.0081620403            7 
 4703000   0.50073286    -8.982353    548.75518 0.0097234953 0.0081592104            7 
 4704000   0.49409179    -8.972004    548.48553 0.0097166513 0.0081563813            7 
 4705000   0.49601161   -8.9907837    548.23095  0.009710077 0.0081535548            5 
 4706000   0.50195245    -8.989369     547.3865 0.0096930603 0.0081507277           10 
 4707000   0.49594919   -8.9872546     547.8688 0.0096995396 0.0081479019            8 
 4708000   0.49182879   -8.9889887    547.37194 0.0096886848  0.008145075            8 
 4709000   0.49658488   -8.9977069    547.68049 0.0096920877 0.0081422519           11 
 4710000   0.50036092   -8.9906872    548.51005 0.0097047072 0.0081394298           11 
 4711000   0.49581049   -8.9955387      547.366   0.00968241 0.0081366086            9 
 4712000    0.4935632   -8.9878298    547.22336 0.0096778325 0.0081337878            7 
 4713000   0.49344448   -8.9980699    548.27234 0.0096943266 0.0081309721            6 
 4714000   0.49431911   -9.0010455    548.40753 0.0096946601 0.0081281544           13 
 4715000   0.52304198    -8.981674    548.32296 0.0096911092 0.0081253402            9 
 4716000    0.5030387   -8.9776622    548.51175 0.0096923902 0.0081225271           11 
 4717000   0.50124859     -9.00108    547.14402 0.0096661723 0.0081197113            9 
 4718000   0.50127293   -8.9951666    547.99253 0.0096791107 0.0081169005           12 
 4719000   0.49198962   -9.0044058    548.54063 0.0096867386 0.0081140892            9 
 4720000   0.50051754   -9.0025519    548.25505 0.0096796442 0.0081112803            5 
 4721000    0.4923097    -8.988707    547.65003 0.0096669143  0.008108472            8 
 4722000   0.50068121   -8.9918302    547.39376 0.0096603444 0.0081056638            6 
 4723000   0.48763245   -8.9962382    548.35982 0.0096753445 0.0081028594           12 
 4724000   0.49735454   -8.9991508    547.87705 0.0096647801 0.0081000553           14 
 4725000   0.50082912   -8.9893827    548.68663 0.0096770129 0.0080972507           17 
 4726000    0.4956375   -9.0068967    548.37932 0.0096695466 0.0080944486            6 
 4727000   0.49153992   -8.9946992    547.87187  0.009658555 0.0080916469            8 
 4728000   0.50504277   -8.9957975    548.11001 0.0096607094 0.0080888494            7 
 4729000   0.49396877   -8.9899529    548.10747 0.0096586219   0.00808605            5 
 4730000   0.49499815   -9.0077068    547.96212 0.0096540191 0.0080832558            8 
 4731000   0.49565463    -9.008027     547.9475 0.0096517208 0.0080804604            6 
 4732000    0.4920851   -9.0049804    548.44143 0.0096583797 0.0080776656            8 
 4733000    0.4871233   -8.9916027      548.223 0.0096524931 0.0080748737            9 
 4734000   0.49490246   -8.9811532    548.15382 0.0096492364 0.0080720802           14 
 4735000   0.49053904   -8.9859284    548.64087 0.0096557704 0.0080692907            6 
 4736000   0.48636649   -8.9870003    547.87974  0.009640339 0.0080665024            9 
 4737000   0.48979641    -9.014127    547.12817 0.0096250822 0.0080637129           13 
 4738000   0.49827543    -9.003398    547.64511 0.0096321428 0.0080609276           23 
 4739000   0.48585095   -8.9903721    548.56927 0.0096463612 0.0080581402            8 
 4740000   0.48692501   -9.0008535    547.76667 0.0096302156 0.0080553543            9 
 4741000   0.50302125   -8.9970539    547.65751 0.0096262657 0.0080525701            5 
 4742000   0.48499282   -8.9994326    548.30631 0.0096356375 0.0080497897            6 
 4743000    0.5013919   -9.0001781    548.41653 0.0096355424 0.0080470085            8 
 4744000   0.49887106   -9.0034388    547.93348 0.0096250261 0.0080442282           12 
 4745000    0.4949382   -8.9934864    547.49468 0.0096152912 0.0080414502            8 
 4746000   0.48976407   -9.0091512    547.92688 0.0096208541 0.0080386731           10 
 4747000   0.48407658   -8.9975466    548.67795 0.0096320123 0.0080358952            8 
 4748000   0.48591215   -9.0005804    547.61632 0.0096113508 0.0080331194            6 
 4749000   0.49668157   -9.0125555    548.13022 0.0096183445 0.0080303459           10 
 4750000   0.49236569   -9.0048763    547.48956   0.00960508 0.0080275708           13 
 4751000   0.49206435   -8.9898696    547.50526 0.0096033338 0.0080247999            9 
 4752000   0.48636991   -8.9990168    547.65814 0.0096039938 0.0080220296           11 
 4753000   0.48788273   -9.0090937    548.72241 0.0096206328  0.008019262           12 
 4754000   0.49175773   -9.0023879    547.65169 0.0095998402  0.008016494           11 
 4755000   0.48115097   -8.9955505    548.31464   0.00960944 0.0080137268           15 
 4756000   0.49346142   -8.9803228    547.65172 0.0095958039 0.0080109593           14 
 4757000   0.49551789   -8.9966753    548.36871  0.009606347  0.008008197           10 
 4758000   0.48336337   -9.0024394    547.13293  0.009582684 0.0080054335            8 
 4759000    0.4852313   -8.9843838    547.70435 0.0095906765 0.0080026732            9 
 4760000   0.50022648   -8.9910242    548.38816  0.009600633 0.0079999144            8 
 4761000   0.48808735   -9.0045506    548.65047 0.0096032079 0.0079971548            7 
 4762000   0.49280714   -9.0162226    547.88569 0.0095878078 0.0079944005            7 
 4763000   0.48890959   -8.9926497    547.50312 0.0095791014 0.0079916451            8 
 4764000    0.4904501   -9.0152293    548.12928 0.0095880437  0.007988889           10 
 4765000   0.49196999   -9.0036187    547.84196 0.0095810066 0.0079861366           12 
 4766000   0.49560897   -9.0126913    548.34682 0.0095878239 0.0079833839           10 
 4767000   0.49137641   -8.9976391    547.66665 0.0095739223 0.0079806338            6 
 4768000   0.49048336    -8.985761     548.6291 0.0095887357  0.007977884            5 
 4769000   0.48127664   -9.0133323    546.94616 0.0095573174 0.0079751338            8 
 4770000   0.48538163    -9.005829    547.45071 0.0095641284 0.0079723852            9 
 4771000   0.49262387   -9.0067057    546.92936 0.0095530175 0.0079696357            9 
 4772000   0.49268021   -9.0068721    547.99166 0.0095695665 0.0079668884           10 
 4773000   0.48880139    -8.995434    546.96959 0.0095497169  0.007964142            7 
 4774000   0.48519002   -9.0103722    548.17162 0.0095686989 0.0079613984            9 
 4775000   0.49595972   -9.0135827    547.88351 0.0095616668 0.0079586552            6 
 4776000    0.4868444   -9.0122866    548.60397 0.0095722357 0.0079559139            9 
 4777000   0.49091238   -8.9920518    548.21008 0.0095633605 0.0079531731           12 
 4778000   0.48536456   -9.0090843    547.92387 0.0095563672 0.0079504361           13 
 4779000   0.48471553    -8.996705    547.94471  0.009554731 0.0079476958            7 
 4780000   0.48826397   -9.0096036    547.04096 0.0095369763 0.0079449629            8 
 4781000   0.49259579    -9.013638    547.41352 0.0095414753 0.0079422263           10 
 4782000   0.48999981   -9.0159536    546.63368 0.0095258902 0.0079394898            7 
 4783000   0.47793782   -8.9971158    547.77252 0.0095437404 0.0079367589            4 
 4784000   0.48156015   -8.9998067    547.21102 0.0095319645 0.0079340273           13 
 4785000   0.48728155   -9.0201263    547.15786 0.0095290467 0.0079312968            9 
 4786000   0.48400925   -9.0045826    547.80303 0.0095382893 0.0079285669           12 
 4787000   0.47815582   -9.0110036    548.10811 0.0095416077 0.0079258394            6 
 4788000   0.48730496   -8.9911933    547.30836 0.0095256955 0.0079231115            7 
 4789000   0.48987386   -9.0177776    547.80513 0.0095323507  0.007920388            7 
 4790000   0.49185696   -8.9987812    547.38516 0.0095230543 0.0079176646            8 
 4791000   0.48480701   -8.9968324    547.55707 0.0095240567 0.0079149432            6 
 4792000    0.4881284   -9.0151562    547.51443 0.0095213277 0.0079122219           10 
 4793000   0.49435907   -9.0148483    547.23955  0.009514562 0.0079095021            6 
 4794000   0.49198403   -9.0129691     547.5066 0.0095172195 0.0079067829            7 
 4795000   0.48549077   -9.0065567    548.29885 0.0095290032 0.0079040651           11 
 4796000   0.47964486   -9.0157539    547.11652 0.0095064728  0.007901348            8 
 4797000   0.48312276   -9.0072339    548.17601 0.0095228964 0.0078986317           10 
 4798000   0.47517836    -9.006254    547.62407 0.0095113253 0.0078959174           10 
 4799000   0.49072336   -8.9969823    547.51517 0.0095074524 0.0078932034           12 
 4800000      0.48722   -9.0099124     547.9446 0.0095129272 0.0078904897            6 
 4801000   0.48478462   -9.0305652    547.18718 0.0094977987 0.0078877781           11 
 4802000   0.48344451   -9.0105374    546.89976 0.0094908329 0.0078850676           10 
 4803000   0.47563256   -9.0174446    547.08241  0.009492026 0.0078823561           13 
 4804000   0.49251665   -9.0087232    547.72204 0.0095011455 0.0078796512           13 
 4805000   0.47926827   -9.0058693    548.23384 0.0095080443 0.0078769452            6 
 4806000    0.4822343   -9.0213304      547.264 0.0094892496 0.0078742402            7 
 4807000   0.49180194   -9.0184182    547.18769 0.0094859525 0.0078715358            7 
 4808000   0.49541312   -9.0105274    547.07425 0.0094820135 0.0078688311            8 
 4809000   0.47758823   -9.0258235    548.69552 0.0095081362 0.0078661306           10 
 4810000   0.48362086   -9.0215698    547.40918 0.0094838735 0.0078634313            5 
 4811000   0.47683708   -9.0227563    547.40579 0.0094818435 0.0078607317           10 
 4812000   0.47910206    -9.013099    547.02331 0.0094732493 0.0078580333            4 
 4813000   0.48198988   -9.0097813    547.80865 0.0094848786 0.0078553347            8 
 4814000   0.48161492   -9.0230706    547.11313 0.0094708684 0.0078526365           10 
 4815000   0.48245079   -9.0280556    547.80422 0.0094808623 0.0078499421            5 
 4816000   0.48257095   -9.0196733    548.14907 0.0094848607 0.0078472473           17 
 4817000   0.48129566   -9.0177035    547.93135 0.0094791251  0.007844556           13 
 4818000   0.48686741   -9.0252271    548.00803 0.0094784839 0.0078418674            6 
 4819000   0.49165503   -9.0099344    547.69909 0.0094711746 0.0078391786            8 
 4820000   0.47389533   -9.0164571    547.70168 0.0094692545 0.0078364911            6 
 4821000    0.4902162   -9.0179659    547.43878  0.009462746 0.0078338034           10 
 4822000   0.48353445   -9.0138383      547.785 0.0094667668 0.0078311139            5 
 4823000   0.48876755   -9.0130239    547.93639 0.0094674198 0.0078284281            9 
 4824000   0.48090885   -9.0214253    547.01293 0.0094495048 0.0078257428           10 
 4825000   0.47693585   -9.0188069    547.29394 0.0094523996 0.0078230583            7 
 4826000   0.46858902   -9.0262373    547.10801 0.0094472304 0.0078203752            6 
 4827000   0.48284275   -9.0320941    546.87536 0.0094412568 0.0078176931           11 
 4828000   0.48719655   -9.0058476    546.23513 0.0094282506  0.007815011            7 
 4829000   0.47858805   -9.0324926     547.0869 0.0094409971  0.007812331           10 
 4830000   0.48117155   -9.0272582    546.93702 0.0094364566 0.0078096538           11 
 4831000   0.46790312   -9.0273989     547.0712 0.0094368177  0.007806974           10 
 4832000    0.4830336   -9.0205213    547.97319 0.0094504206 0.0078042998           10 
 4833000   0.47744652   -9.0233691    547.32275   0.00943725 0.0078016264            9 
 4834000   0.47843137   -9.0355754    547.18953 0.0094330011 0.0077989512            7 
 4835000   0.47633236   -9.0076002    546.40381 0.0094175079 0.0077962784            4 
 4836000   0.47002679   -9.0255926    547.08887 0.0094273655 0.0077936066            5 
 4837000    0.4839849   -9.0313816    547.11923 0.0094259395 0.0077909356           11 
 4838000   0.47252321   -9.0123711     547.6099 0.0094324427 0.0077882658           11 
 4839000   0.47619696   -9.0106586    547.88996 0.0094353166 0.0077855954           11 
 4840000   0.46896837   -9.0254295    545.71844 0.0093959787 0.0077829274            4 
 4841000   0.47580539   -9.0150119    547.07605 0.0094174078 0.0077802629           13 
 4842000   0.47583748   -9.0111605    546.61971  0.009407609 0.0077775955            9 
 4843000   0.48335469   -9.0331695     547.5339 0.0094213968 0.0077749299            5 
 4844000   0.47657191   -9.0343361    547.12609 0.0094124362   0.00777227            7 
 4845000   0.47952729   -9.0305439    547.28402 0.0094132098 0.0077696087           10 
 4846000   0.47993704   -9.0112124    546.51831 0.0093980999   0.00776695           11 
 4847000   0.47027855   -9.0274786    546.99952 0.0094044343 0.0077642933           13 
 4848000   0.46877793    -9.032408    546.89123  0.009400633 0.0077616369           12 
 4849000   0.47657748   -9.0194097    547.88259 0.0094157316 0.0077589802           11 
 4850000   0.47575431   -9.0283832    546.99589 0.0093985548 0.0077563254            8 
 4851000   0.47277528   -9.0278762    548.00694 0.0094139858 0.0077536733            5 
 4852000   0.48276347   -9.0271551    546.88929 0.0093928498 0.0077510205           16 
 4853000   0.47048238   -9.0167778    547.62772 0.0094035944 0.0077483702           13 
 4854000   0.47166531   -9.0197486    547.71338 0.0094031276 0.0077457216            7 
 4855000   0.48410317   -9.0385655    546.95921 0.0093882459 0.0077430737            8 
 4856000    0.4771408   -9.0298233    547.18659 0.0093902146 0.0077404278            8 
 4857000   0.48378904   -9.0216385    546.95696 0.0093843414 0.0077377827            9 
 4858000   0.46670964    -9.022795    546.79694 0.0093796649 0.0077351392            5 
 4859000   0.47158543   -9.0192548    547.42504 0.0093885066 0.0077324968           12 
 4860000   0.47377203   -9.0322522    546.67416 0.0093736995 0.0077298531            7 
 4861000    0.4764931   -9.0433152    548.10875 0.0093963647  0.007727211            4 
 4862000   0.47443952   -9.0325337    546.92569 0.0093741549 0.0077245709            8 
 4863000   0.47289346   -9.0091655    546.94492 0.0093725567  0.007721933            7 
 4864000   0.47386502   -9.0314332    547.04495 0.0093723436 0.0077192965            8 
 4865000   0.47794189   -9.0203718    546.12063 0.0093545843 0.0077166611            9 
 4866000   0.47897058    -9.043467    547.98227 0.0093845437 0.0077140258           10 
 4867000   0.47422458   -9.0250898    547.59628 0.0093760064 0.0077113934            8 
 4868000   0.47184987   -9.0511907    547.35887 0.0093700162   0.00770876           10 
 4869000    0.4740334   -9.0308952    546.51256 0.0093536072 0.0077061286            7 
 4870000   0.48482623   -9.0129533    547.07495 0.0093613098 0.0077035009           11 
 4871000   0.47079839   -9.0397589    547.69047 0.0093699184 0.0077008697           11 
 4872000   0.46959653   -9.0356022    547.31453 0.0093615649 0.0076982399            8 
 4873000   0.47312234   -9.0379426    546.53418 0.0093462989 0.0076956132            8 
 4874000   0.48083884   -9.0457879    547.40291 0.0093592345 0.0076929871            6 
 4875000   0.47125331   -9.0404346    547.32578 0.0093559962 0.0076903626            8 
 4876000   0.47290017   -9.0375972    547.61118 0.0093589551 0.0076877394           11 
 4877000   0.48121728   -9.0474583    546.73425  0.009342052 0.0076851168            8 
 4878000   0.47727298   -9.0297026    546.96418 0.0093440648  0.007682495            5 
 4879000   0.46832084   -9.0443683    547.75998  0.009355742 0.0076798757            8 
 4880000    0.4682342   -9.0349531    546.90693 0.0093392577 0.0076772594            3 
 4881000   0.47409823    -9.033903    547.31375 0.0093442899 0.0076746412            8 
 4882000    0.4650645   -9.0209349    547.47263  0.009345088 0.0076720256           11 
 4883000    0.4770113   -9.0306247    546.96481 0.0093345076 0.0076694098           11 
 4884000   0.47926103   -9.0414734    546.98127 0.0093328773 0.0076667954            8 
 4885000     0.459493   -9.0295919    546.20655 0.0093177507 0.0076641815            9 
 4886000    0.4643477   -9.0588079    546.81783 0.0093262695 0.0076615679            7 
 4887000   0.47817125   -9.0357699    547.01193 0.0093276709 0.0076589564            7 
 4888000   0.47012845   -9.0374992    547.72646 0.0093379443 0.0076563478           11 
 4889000   0.46566264   -9.0510245    547.42165 0.0093308387 0.0076537389            9 
 4890000   0.46054293   -9.0267415    547.63146 0.0093325062  0.007651129           11 
 4891000   0.47965579    -9.032021    547.48421 0.0093280893 0.0076485233            9 
 4892000   0.47159961   -9.0388807    546.36143 0.0093070562 0.0076459172           10 
 4893000   0.47061003   -9.0433742    547.87966 0.0093310114 0.0076433108           12 
 4894000   0.47787886   -9.0333413    546.74495 0.0093097832 0.0076407083           12 
 4895000   0.46036031   -9.0355448    546.96824 0.0093116827 0.0076381048            4 
 4896000   0.46434365    -9.030276    546.98352 0.0093100409 0.0076355022            9 
 4897000   0.45807988   -9.0397317    547.21838 0.0093121363 0.0076329033           11 
 4898000   0.47345441   -9.0485541    545.73957  0.009285075 0.0076303046           14 
 4899000   0.46219078   -9.0307046    546.92281  0.009303307 0.0076277049            4 
 4900000   0.46540082   -9.0494393     547.5392 0.0093118912  0.007625106            8 
 4901000   0.46570265    -9.038618    547.28846 0.0093057277 0.0076225096            8 
 4902000    0.4628136   -9.0314921    546.96672 0.0092983598 0.0076199138           15 
 4903000   0.47352636   -9.0502808    546.58418 0.0092899615 0.0076173203            7 
 4904000   0.46134815   -9.0377827    547.05243 0.0092960241 0.0076147252           17 
 4905000   0.47378912   -9.0243225     547.1069 0.0092950543 0.0076121355           11 
 4906000   0.47955688   -9.0379485    546.61981 0.0092848859  0.007609545            9 
 4907000   0.46444804   -9.0478131    547.40036 0.0092962496  0.007606957            9 
 4908000   0.46884806   -9.0405182    546.96032 0.0092868839 0.0076043699           12 
 4909000   0.47551308   -9.0362945    546.75802  0.009281558  0.007601784            9 
 4910000   0.47300173   -9.0377486     546.5852 0.0092767346 0.0075991989           14 
 4911000   0.46686439   -9.0495836    546.02722 0.0092653774 0.0075966146            6 
 4912000   0.47120483   -9.0482375     547.3529 0.0092859816 0.0075940311            5 
 4913000   0.47805191    -9.029901    547.01364  0.009278337 0.0075914488           12 
 4914000   0.46380833   -9.0373317     547.4609 0.0092840337 0.0075888674           16 
 4915000   0.46370956   -9.0252053    547.30793 0.0092795512 0.0075862897           12 
 4916000    0.4588828   -9.0515106    546.34262 0.0092613002 0.0075837105            9 
 4917000   0.46904186   -9.0421827    547.59263 0.0092806018 0.0075811326            6 
 4918000   0.47481228   -9.0509733    546.70418 0.0092636604 0.0075785548            8 
 4919000   0.47585285   -9.0577465    546.77926 0.0092630491 0.0075759797            5 
 4920000   0.46806822   -9.0481022    546.54497  0.009257198 0.0075734049            5 
 4921000   0.46529241   -9.0524953    547.37503 0.0092693732 0.0075708316            9 
 4922000   0.46085597   -9.0432527     547.6892 0.0092728091 0.0075682596            7 
 4923000   0.46452918   -9.0415389    547.28181 0.0092640296 0.0075656883            7 
 4924000   0.46689421   -9.0361666    547.29347 0.0092623455 0.0075631197            8 
 4925000    0.4612947   -9.0470405    547.73225 0.0092678892  0.007560551            7 
 4926000   0.46255132   -9.0416739    546.75215 0.0092494273 0.0075579829           10 
 4927000   0.45801011   -9.0527106    547.04328 0.0092524742 0.0075554183           10 
 4928000   0.46157797   -9.0363421    546.94079 0.0092488635 0.0075528556           10 
 4929000   0.46217231   -9.0534151    547.04306 0.0092487161 0.0075502929           13 
 4930000   0.46479274    -9.061697    547.27339 0.0092507335  0.007547733           14 
 4931000   0.46462176   -9.0464603    546.50275 0.0092358337 0.0075451724            9 
 4932000   0.47464034   -9.0523761     547.2792 0.0092470803 0.0075426133            8 
 4933000   0.46753567   -9.0389668    546.92235 0.0092391775 0.0075400567           11 
 4934000   0.46575166   -9.0354905    546.93269 0.0092374795 0.0075374985            8 
 4935000   0.46889237   -9.0362544    547.02702 0.0092372007 0.0075349425           10 
 4936000   0.45682136   -9.0445424    546.66654 0.0092292433 0.0075323868           14 
 4937000    0.4576087    -9.036268    546.18712 0.0092192816 0.0075298332            9 
 4938000   0.46707041   -9.0496914    546.11947 0.0092162729 0.0075272781           12 
 4939000   0.46027035   -9.0390432    546.82666  0.009226339 0.0075247228            7 
 4940000   0.44792198   -9.0646524    546.53911 0.0092196206 0.0075221687           15 
 4941000   0.45884901   -9.0638211    546.57684 0.0092183911 0.0075196156           10 
 4942000   0.45664529   -9.0521278    546.38298 0.0092132568 0.0075170634            4 
 4943000   0.46542564   -9.0395136    546.80285 0.0092184713 0.0075145172            8 
 4944000   0.46725673   -9.0516587    546.78533 0.0092163116  0.007511969            9 
 4945000   0.46483244   -9.0531357    547.13171  0.009220285 0.0075094208           11 
 4946000   0.45920132   -9.0647117    547.24615  0.009220349 0.0075068763           12 
 4947000   0.46908735   -9.0483548    546.15127 0.0092000416  0.007504333           14 
 4948000    0.4734518   -9.0572676    546.81162 0.0092093038 0.0075017899           11 
 4949000    0.4652494   -9.0633197    545.79772 0.0091903704 0.0074992502            9 
 4950000   0.46321878    -9.046363      546.733 0.0092042593 0.0074967091            9 
 4951000   0.47659899   -9.0743352      546.269 0.0091945904 0.0074941711            7 
 4952000   0.45473876   -9.0545423    546.23117  0.009192097 0.0074916337           12 
 4953000   0.46750861   -9.0519168    545.88973 0.0091844965 0.0074890962            8 
 4954000   0.45869057   -9.0683937     546.2738  0.009189103 0.0074865606            7 
 4955000   0.46794221   -9.0547822    546.04261 0.0091833604 0.0074840241           10 
 4956000   0.46878412     -9.05497    547.37358 0.0092038871 0.0074814915            7 
 4957000    0.4607363   -9.0512254    546.38904 0.0091854791 0.0074789578           12 
 4958000   0.46366398   -9.0483244    546.23799 0.0091810876 0.0074764252            8 
 4959000   0.45672979   -9.0519296    546.53957 0.0091843042 0.0074738964           10 
 4960000   0.46060516   -9.0587707    545.85385 0.0091709316 0.0074713678            9 
 4961000   0.45160182   -9.0557971    546.87827 0.0091862909 0.0074688394            3 
 4962000   0.46109258   -9.0568816    546.89672 0.0091847494   0.00746631           11 
 4963000   0.46012569   -9.0577506     546.8207 0.0091816224 0.0074637845            7 
 4964000   0.44223567    -9.057801    546.79312 0.0091793097 0.0074612585           10 
 4965000   0.44861736   -9.0538032    546.75839  0.009176878 0.0074587343           17 
 4966000   0.43921915   -9.0546255    546.31123 0.0091675264 0.0074562099           15 
 4967000   0.45244535   -9.0594016    545.65499 0.0091546707 0.0074536868            9 
 4968000   0.45110308   -9.0686031    546.68239 0.0091700615 0.0074511671            8 
 4969000   0.45483699   -9.0601045    546.30711 0.0091619225 0.0074486493            9 
 4970000   0.46587105   -9.0563014    546.95423 0.0091709293 0.0074461304           11 
 4971000   0.46706687   -9.0527818    546.40731 0.0091599161 0.0074436143           11 
 4972000    0.4633475   -9.0578544    546.45542 0.0091588801 0.0074410987           12 
 4973000   0.45710042    -9.053401    546.84543 0.0091635737 0.0074385822            4 
 4974000   0.45492339    -9.055922    546.54109 0.0091566327 0.0074360681            8 
 4975000   0.45235123   -9.0737864    546.46173 0.0091534628 0.0074335555           10 
 4976000   0.47304101   -9.0533006    546.56678 0.0091533826  0.007431045           12 
 4977000   0.45299247   -9.0600285     546.6586 0.0091530808 0.0074285352           13 
 4978000   0.45385148   -9.0625429    546.65523 0.0091511857 0.0074260279           10 
 4979000   0.46326156   -9.0535265    545.92403 0.0091371096 0.0074235184            4 
 4980000   0.45643842   -9.0550942    546.30226 0.0091416042  0.007421009           11 
 4981000   0.45054723   -9.0679553    546.37278 0.0091409487  0.007418502            8 
 4982000   0.45605178   -9.0717254    546.54022 0.0091419146 0.0074159972           12 
 4983000   0.45568534   -9.0728857    546.26349 0.0091354521 0.0074134926           13 
 4984000   0.45002971   -9.0651653    546.81475 0.0091428362 0.0074109884            8 
 4985000   0.45468633   -9.0543249    545.82405 0.0091244408 0.0074084854           12 
 4986000   0.45603234   -9.0620283    547.37774 0.0091485783 0.0074059848           11 
 4987000   0.45236463   -9.0594787     546.6197 0.0091340769 0.0074034837            9 
 4988000   0.45781208   -9.0419788    546.25058  0.009126079 0.0074009838            7 
 4989000   0.45448915   -9.0640222    546.02426 0.0091204694 0.0073984863            4 
 4990000   0.45087253   -9.0670921    546.14602 0.0091206749  0.007395989            4 
 4991000   0.45712129    -9.049507    546.29464 0.0091213291 0.0073934961            5 
 4992000   0.45777385   -9.0827058    546.33113  0.009120111 0.0073910017           13 
 4993000   0.45511735   -9.0710734    546.26367 0.0091171585 0.0073885102           11 
 4994000   0.45185074   -9.0559183    546.92339 0.0091263415   0.00738602            8 
 4995000    0.4437001   -9.0748596    546.52263 0.0091178284 0.0073835288            8 
 4996000   0.46259173   -9.0587101    545.97555  0.009106878 0.0073810366            6 
 4997000   0.44291192   -9.0731694    546.09879 0.0091071108 0.0073785481            9 
 4998000   0.45372333   -9.0568497    546.54346 0.0091127028 0.0073760606           11 
 4999000   0.45359743   -9.0660408    545.84576 0.0090992492 0.0073735732           13 
 5000000   0.46055076   -9.0745315    546.31138 0.0091051897 0.0073710871           10 
 5001000   0.45754691   -9.0643867     547.0714 0.0091160335 0.0073686018            9 
 5002000   0.45001922   -9.0554329     545.7783  0.009092668 0.0073661171           12 
 5003000   0.44898631   -9.0806704    545.68327 0.0090892676 0.0073636326            7 
 5004000   0.44895656   -9.0836697    546.25898 0.0090970387 0.0073611511            2 
 5005000    0.4455544   -9.0631601    546.33498 0.0090964866 0.0073586698            8 
 5006000   0.45275159   -9.0579274    546.19994 0.0090924215   0.00735619            4 
 5007000   0.45376723   -9.0758604    545.90539 0.0090857032 0.0073537127           10 
 5008000   0.44510246   -9.0742826    546.34317 0.0090911737 0.0073512347            9 
 5009000   0.44796996   -9.0749647    547.09887  0.009101931 0.0073487593           12 
 5010000   0.45219754   -9.0746528     545.9321 0.0090807069  0.007346286           12 
 5011000   0.45613309   -9.0645877    545.55937 0.0090726962 0.0073438128           11 
 5012000   0.44697517   -9.0605289    546.01195 0.0090784111 0.0073413417           12 
Loop time of 12482 on 48 procs for 5000000 steps with 4000 atoms

Performance: 69219.448 tau/day, 400.576 timesteps/s
99.4% CPU use with 48 MPI tasks x no OpenMP threads

MPI task timing breakdown:
Section |  min time  |  avg time  |  max time  |%varavg| %total
---------------------------------------------------------------
Pair    | 857.37     | 916.42     | 972.92     | 103.6 |  7.34
Neigh   | 82.353     | 85.963     | 89.133     |  22.1 |  0.69
Comm    | 793.58     | 851.66     | 917.76     | 115.4 |  6.82
Output  | 13.975     | 13.981     | 14.08      |   0.4 |  0.11
Modify  | 10486      | 10504      | 10530      |   8.6 | 84.15
Other   |            | 110.3      |            |       |  0.88

Nlocal:        83.3333 ave          91 max          76 min
Histogram: 2 0 6 3 15 7 10 3 1 1
Nghost:        2223.54 ave        2242 max        2207 min
Histogram: 1 3 6 10 7 8 5 4 2 2
Neighs:        14843.0 ave       16913 max       13373 min
Histogram: 3 4 7 10 9 8 3 3 0 1
FullNghs:      29686.5 ave       32473 max       26937 min
Histogram: 2 0 5 5 14 10 6 4 1 1

Total # of neighbors = 1424951
Ave neighs/atom = 356.23775
Neighbor list builds = 266820
Dangerous builds = 2

#clear
#
#next RN
#
#jump SELF
Total wall time: 3:28:05
