
units lj                  # Use reduced LJ style units
atom_style atomic         # Uncharged point particles
atom_modify map hash      # Needed for indexing of clusters etc
                          # Used to be able to find where atoms are in relation to each other.

lattice fcc 1.0 spacing 1 1 1
Lattice spacing in x,y,z = 1.5874011 1.5874011 1.5874011
region box block 0 10 0 10 0 10 units lattice
create_box 2 box
Created orthogonal box = (0.0000000 0.0000000 0.0000000) to (15.874011 15.874011 15.874011)
  3 by 4 by 4 MPI processor grid
create_atoms 1 box
Created 4000 atoms
  using lattice units in orthogonal box = (0.0000000 0.0000000 0.0000000) to (15.874011 15.874011 15.874011)
  create_atoms CPU = 0.003 seconds
set type 1 type/fraction 2 0.64 78393
Setting atom values ...
  2566 settings made for type/fraction
mass 1 1.0
mass 2 1.0
pair_style lj/cut  3.5
pair_modify tail  yes
pair_coeff 1  1  1.0  1.0   # Intearaction between 1 and 1 set with epsilon = 1 and sigma = 1
pair_coeff 1  2  1.5  0.8
pair_coeff 2  2  0.5  0.88

write_data data.0
System init for write_data ...
Neighbor list info ...
  update every 1 steps, delay 10 steps, check yes
  max neighbors/atom: 2000, page size: 100000
  master list distance cutoff = 3.8
  ghost atom cutoff = 3.8
  binsize = 1.9, bins = 9 9 9
  1 neighbor lists, perpetual/occasional/extra = 1 0 0
  (1) pair lj/cut, perpetual
      attributes: half, newton on
      pair build: half/bin/atomonly/newton
      stencil: half/bin/3d
      bin: standard
WARNING: Not all mixed pair coeffs generated from mixing. Use write_data with 'pair ij' option to store all pair coeffs. (../write_data.cpp:312)


#############################
#   M E L T   S Y S T E M   #
#############################

velocity all create 2.4 8172548 mom yes dist gaussian # Assign velocities
                                                    # Temperature 2.4, random number seed, zero linear momentum
                                                                                # Gaussian distribution

timestep 0.002   # simulation timestep
thermo 1000       # output thermodynamic data every 1000 steps bf 100

# Define a fix  in this case with index 1 applied to all
# particles in the simulation. This fix is for simulations
# in the anisotropic NPT ensemble. Note that we use the MTK
# correction.
fix 1 all npt temp 2.4 2.4 0.1 iso 5.68 5.68 0.5 mtk yes tchain 5 pchain 5 # Use NPT ensemble
                                                                         # Set temperature and pressure and damping
                                                                         # Numbers of thermostats in chain and in barostat
run 10000          # run for 10000 steps
Per MPI rank memory allocation (min/avg/max) = 3.642 | 3.644 | 3.648 Mbytes
Step Temp E_pair E_mol TotEng Press Volume 
       0          2.4   -4.5154638            0  -0.91636384   -3.9779215         4000 
    1000    2.4170459   -4.2008891            0  -0.57622662    5.6957319    3629.6284 
    2000    2.4820773   -4.2089855            0  -0.48680031    5.9500028    3625.7276 
    3000    2.3805603   -4.2162008            0  -0.64625316    5.5204394    3647.0936 
    4000    2.4120786    -4.333232            0  -0.71601863     5.481183    3590.0902 
    5000    2.4304575   -4.2807972            0  -0.63602235    6.0940315    3569.6216 
    6000    2.4032215   -4.1842143            0  -0.58028326    5.6038649    3662.1094 
    7000    2.4254617   -4.2146479            0  -0.57736494    5.5892737    3641.6647 
    8000    2.4861183   -4.2490622            0  -0.52081696    5.6978289    3618.8117 
    9000    2.3546114   -4.2137724            0  -0.68273826    5.7228574    3627.4465 
   10000    2.4081167   -4.2765571            0  -0.66528504    5.5826067    3604.5224 
Loop time of 2.66224 on 48 procs for 10000 steps with 4000 atoms

Performance: 649076.481 tau/day, 3756.230 timesteps/s
99.6% CPU use with 48 MPI tasks x no OpenMP threads

MPI task timing breakdown:
Section |  min time  |  avg time  |  max time  |%varavg| %total
---------------------------------------------------------------
Pair    | 1.2017     | 1.2691     | 1.3458     |   2.5 | 47.67
Neigh   | 0.22016    | 0.22503    | 0.23759    |   0.7 |  8.45
Comm    | 0.81224    | 0.8982     | 1.0045     |   3.9 | 33.74
Output  | 0.00025064 | 0.000256   | 0.00032114 |   0.0 |  0.01
Modify  | 0.21653    | 0.25429    | 0.28465    |   3.6 |  9.55
Other   |            | 0.01533    |            |       |  0.58

Nlocal:        83.3333 ave          98 max          76 min
Histogram: 5 8 9 8 7 7 3 0 0 1
Nghost:        1763.33 ave        1790 max        1734 min
Histogram: 3 1 8 2 5 9 7 8 4 1
Neighs:        10586.7 ave       12684 max        9408 min
Histogram: 3 7 10 10 8 7 0 2 0 1

Total # of neighbors = 508162
Ave neighs/atom = 127.04050
Neighbor list builds = 910
Dangerous builds = 232

# Equilibrate just above the melting temperature to avoid step fn in T

fix 1 all npt temp 1.25 1.25 0.1 iso 5.68 5.68 0.5 mtk yes tchain 5 pchain 5
run 2000
Per MPI rank memory allocation (min/avg/max) = 3.644 | 3.646 | 3.650 Mbytes
Step Temp E_pair E_mol TotEng Press Volume 
   10000    2.4081167   -4.2765571            0  -0.66528504    5.5826067    3604.5224 
   11000    1.2550541   -6.2510109            0   -4.3689004    5.5812934    2763.8064 
   12000    1.2459884   -6.2902556            0   -4.4217403    5.4439651    2753.9398 
Loop time of 0.666148 on 48 procs for 2000 steps with 4000 atoms

Performance: 518803.465 tau/day, 3002.335 timesteps/s
99.6% CPU use with 48 MPI tasks x no OpenMP threads

MPI task timing breakdown:
Section |  min time  |  avg time  |  max time  |%varavg| %total
---------------------------------------------------------------
Pair    | 0.29425    | 0.32682    | 0.35509    |   2.4 | 49.06
Neigh   | 0.040487   | 0.044046   | 0.047551   |   0.7 |  6.61
Comm    | 0.21433    | 0.24675    | 0.28336    |   3.0 | 37.04
Output  | 5.1607e-05 | 5.3046e-05 | 6.7852e-05 |   0.0 |  0.01
Modify  | 0.03993    | 0.043621   | 0.046907   |   0.9 |  6.55
Other   |            | 0.004859   |            |       |  0.73

Nlocal:        83.3333 ave          92 max          76 min
Histogram: 2 4 5 10 9 8 3 0 4 3
Nghost:        2112.19 ave        2126 max        2087 min
Histogram: 1 1 3 2 4 8 7 8 11 3
Neighs:        13876.5 ave       16234 max       12122 min
Histogram: 2 5 6 13 5 8 4 2 1 2

Total # of neighbors = 666074
Ave neighs/atom = 166.51850
Neighbor list builds = 143
Dangerous builds = 13

#############################
# L I N E A R  Q U E N C H  #
#############################

# Define solid atoms. This closely follows ten Wolde  Ruiz-Montero and Frenkel  Faraday Discuss  1996  104  93-110
# Compute components of the per-atom q6 vector
compute q6 all orientorder/atom degrees 1 6 components 6 nnn NULL cutoff 1.3 # compute the Q6 parameter.
                                                                             # Use all neighbours within 1.3 unit cell.

# get number of connections
compute coord_number all coord/atom orientorder q6 0.5

# An atom is solid if it has 8 or more connections (of a possible 14)
variable is_solid atom c_coord_number>=8
group solid dynamic all var is_solid    # Must be dynamic to update
dynamic group solid defined

# do clustering
compute cluster solid cluster/atom 1.3 # Create a cluster where all atoms within are solid and max 1.3 units from another member

# define chunks one chunk per cluster
compute clus_chunks solid chunk/atom c_cluster nchunk every compress yes  # Says which atoms are in which chunk

# count the size of each chunk
compute size_chunks solid property/chunk clus_chunks count


# Find the maximum entry in the vector of chunk sizes
variable max_n equal max(c_size_chunks)


# Thermo style which includes this variable
# thermo_style custom step temp pe vol v_max_n

thermo ${N}  # Print the thermo information every 100 steps
thermo 1000  

# Reset the npt fix at a lower temperature (below freezing)
fix 1  all npt temp  ${temp} ${temp}  0.1  iso  5.68  5.68  0.5  mtk yes tchain  5  pchain  5
fix 1  all npt temp  0.45 ${temp}  0.1  iso  5.68  5.68  0.5  mtk yes tchain  5  pchain  5
fix 1  all npt temp  0.45 0.45  0.1  iso  5.68  5.68  0.5  mtk yes tchain  5  pchain  5

dump dmp2 all dcd ${N} traj.dcd
dump dmp2 all dcd 1000 traj.dcd


compute msd all msd com yes
variable twopoint equal c_msd[4]/6/(step*dt+1.0e-6)
fix 9 all vector 10 c_msd[4]
variable fit equal slope(f_9)/6/(10*dt)
thermo_style custom step temp pe c_msd[4] v_twopoint v_fit v_max_n

fix 1 all npt temp 1.25 ${temp} 0.1 iso 5.68 5.68 0.5 mtk yes tchain 5 pchain 5
fix 1 all npt temp 1.25 0.45 0.1 iso 5.68 5.68 0.5 mtk yes tchain 5 pchain 5
run 2000000 # 5000000  # Run for this many steps
Neighbor list info ...
  update every 1 steps, delay 10 steps, check yes
  max neighbors/atom: 2000, page size: 100000
  master list distance cutoff = 3.8
  ghost atom cutoff = 3.8
  binsize = 1.9, bins = 8 8 8
  4 neighbor lists, perpetual/occasional/extra = 1 3 0
  (1) pair lj/cut, perpetual
      attributes: half, newton on
      pair build: half/bin/atomonly/newton
      stencil: half/bin/3d
      bin: standard
  (2) compute orientorder/atom, occasional
      attributes: full, newton on
      pair build: full/bin/atomonly
      stencil: full/bin/3d
      bin: standard
  (3) compute coord/atom, occasional
      attributes: full, newton on
      pair build: full/bin/atomonly
      stencil: full/bin/3d
      bin: standard
  (4) compute cluster/atom, occasional
      attributes: full, newton on
      pair build: full/bin/atomonly
      stencil: full/bin/3d
      bin: standard
Per MPI rank memory allocation (min/avg/max) = 9.846 | 9.851 | 9.855 Mbytes
Step Temp PotEng c_msd[4] v_twopoint v_fit v_max_n 
   12000    1.2459884   -6.2902556 8.3422041e-31 5.793197e-33 8.3333333e+20            2 
   13000     1.259905   -6.2907531   0.53568755 0.0034338944  0.044936245            1 
   14000    1.2279105   -6.2734582    1.0192129 0.0060667433  0.042163155            1 
   15000    1.2503585   -6.2700465    1.4834004 0.0082411128  0.040335188            2 
   16000    1.2416636   -6.3387709    1.9539312  0.010176725  0.039611316            2 
   17000    1.2216106     -6.30584    2.4463116  0.011991723  0.039723871            5 
   18000    1.2244687   -6.2972204    2.9882392   0.01383444  0.040427882            2 
   19000    1.2402432   -6.2840208    3.4098301  0.014955395  0.040604526            3 
   20000    1.2492936   -6.3575784    3.8975519  0.016239799  0.040459406            2 
   21000    1.2429826   -6.3010682     4.407417   0.01748975  0.040325527            2 
   22000    1.2484418   -6.3366348    4.9693609  0.018823336  0.040654887            5 
   23000    1.2594661   -6.3115533    5.5163089  0.019986626  0.041028779            3 
   24000    1.2359546   -6.3612235    5.9354168  0.020609086  0.041315481            3 
   25000    1.2453798   -6.2966659    6.3548216  0.021182738  0.041191986            3 
   26000     1.275541   -6.3016826    6.8165482   0.02184791  0.040979124            1 
   27000    1.2280053    -6.354773    7.1852238  0.022176616  0.040685882            7 
   28000    1.2547223   -6.3742772    7.6506426  0.022769769    0.0403992            3 
   29000    1.2632834   -6.3164339    8.2654749  0.023751364  0.040288627            2 
   30000    1.2561884   -6.3558366    8.6745376  0.024095937  0.040214698            1 
   31000    1.2140438   -6.2847504     9.194773  0.024717131  0.040179772            3 
   32000    1.2367417   -6.2988281    9.5570344   0.02488811  0.040070003            2 
   33000    1.2302646   -6.2307454     10.09091  0.025482097  0.039926587            3 
   34000    1.2591244   -6.3444085    10.571866  0.025911435  0.039882168            3 
   35000    1.2454687   -6.3653025    11.076965  0.026373726  0.039847498            3 
   36000    1.2408434   -6.3493074    11.627885    0.0269164  0.039863383            3 
   37000    1.2211869   -6.3199653    12.121132  0.027299846  0.039920801            4 
   38000    1.2623856   -6.3329353    12.605032  0.027642615  0.039956514            2 
   39000    1.2490093    -6.318428    12.975403  0.027725219  0.039969534            1 
   40000    1.2278527   -6.3094737    13.334252  0.027779692  0.039906596            2 
   41000    1.2161674   -6.3820007    13.774801  0.027997562  0.039819499            2 
   42000    1.2550845    -6.345769    14.085873  0.027948161  0.039674651            5 
   43000    1.2647343   -6.3340024    14.519457  0.028138483  0.039497067            2 
   44000    1.1916963   -6.3922005    14.840522  0.028107049  0.039305815            1 
   45000    1.2647916   -6.3464546     15.31023  0.028352277  0.039117954            8 
   46000    1.2156195   -6.3452799    15.713746  0.028466931  0.038964288            3 
   47000    1.2169524   -6.3498485    16.287149  0.028877924  0.038847172            6 
   48000    1.2524272   -6.3116714    16.668416  0.028938222  0.038735797            7 
   49000     1.223635   -6.3336964    17.054578  0.029004384  0.038605201            3 
   50000    1.2160277   -6.3841899    17.437559  0.029062598  0.038480475            1 
   51000    1.2322304    -6.322393    17.832349  0.029137825  0.038337456            1 
   52000    1.2281989   -6.3459205    18.226917  0.029209803  0.038197244            3 
   53000     1.237828   -6.3485123    18.538663  0.029148842  0.038059653            3 
   54000    1.2316358   -6.3057072    18.918473  0.029195175   0.03789074            4 
   55000    1.2279479   -6.3558095    19.203247  0.029095828  0.037708522            4 
   56000    1.2194317   -6.3650397    19.560092  0.029107279  0.037536846            4 
   57000    1.2111046   -6.3156506    20.104039   0.02939187  0.037380794            4 
   58000    1.2340896   -6.3245183    20.516256   0.02947738  0.037257393            5 
   59000    1.2462009   -6.4192636    20.858206  0.029460742  0.037130251            3 
   60000    1.2571471   -6.3951104    21.267514  0.029538214   0.03701142            2 
   61000    1.2283791   -6.3863469    21.827267   0.02981867  0.036917744            3 
   62000    1.2164918   -6.3541065     22.15611  0.029779717  0.036819757            2 
   63000    1.2030785   -6.3537674    22.779849  0.030132075  0.036743038            2 
   64000    1.2477846    -6.353302    23.141328  0.030131938  0.036678752            1 
   65000    1.2399506   -6.3891004    23.604405  0.030262058  0.036612065            2 
   66000    1.2508179   -6.3626398    24.053518  0.030370604  0.036564793            3 
   67000    1.2278092   -6.3398881    24.369414  0.030310216   0.03651278            1 
   68000    1.2403368   -6.3964086    24.893932   0.03050727  0.036465009            4 
   69000    1.2157316   -6.3774012    25.334717  0.030597484  0.036425829            3 
   70000    1.2443439   -6.3436648    25.737183  0.030639503  0.036386144            3 
   71000    1.2220899   -6.3602727    26.124924  0.030663056  0.036346034            2 
   72000    1.2016247   -6.3615643    26.454778  0.030618956  0.036303591            2 
   73000    1.2079865   -6.3487504    26.852479  0.030653515  0.036258149            2 
   74000    1.2142804   -6.4041707    27.181067   0.03060931   0.03620672            3 
   75000    1.2128715   -6.3097647     27.74408  0.030826755  0.036161816            1 
   76000    1.2405394   -6.3585918    28.154501  0.030871164  0.036114235            2 
   77000    1.2177806   -6.3939342    28.547641  0.030895715  0.036069646            3 
   78000    1.2275066   -6.4139364    28.971875  0.030952858  0.036038024            4 
   79000    1.2560138   -6.3620744    29.490546  0.031108171  0.036010705            2 
   80000    1.2150609   -6.3942199    29.858307  0.031102403  0.035989472            3 
   81000    1.2364461   -6.3447933    30.362983  0.031237637  0.035967718            3 
   82000    1.2350909   -6.3248631      30.8206  0.031321748  0.035954969            2 
   83000    1.2211511   -6.3354578    31.350253  0.031476158  0.035941167            2 
   84000    1.2329645   -6.3676657    31.656907  0.031405661  0.035936475            7 
   85000    1.2337886   -6.3891799    32.133501  0.031503432  0.035925677            1 
   86000    1.2167179   -6.3665005    32.484358  0.031477091  0.035909045            2 
   87000    1.1902489   -6.3635168     33.08201  0.031687749  0.035902116            2 
   88000    1.2394209    -6.355419     33.40399  0.031632567    0.0358926            2 
   89000    1.2274095   -6.3382455    33.830482  0.031676481  0.035884675            2 
   90000    1.2160854   -6.3804856    34.094321  0.031568816  0.035872516            4 
   91000    1.1997432   -6.4097829    34.740285  0.031813448  0.035861447            2 
   92000    1.1944361    -6.391649    35.133963  0.031824242   0.03585617            2 
   93000    1.2162419   -6.3857693    35.431925  0.031749037   0.03584467            8 
   94000    1.2328495   -6.3920544    36.150015  0.032047885  0.035840048            3 
   95000    1.2434105   -6.3666983    36.608565  0.032112776  0.035848595            3 
   96000    1.2511029   -6.3915101    37.036874  0.032150064  0.035856904            2 
   97000    1.2130132    -6.460737     37.54899  0.032258582  0.035868731            3 
   98000    1.2158629    -6.374624    38.154714  0.032444485  0.035890351            3 
   99000    1.2090263   -6.3698727    38.676452  0.032555936  0.035909521            3 
  100000    1.2108002   -6.4213655    38.947829  0.032456524  0.035925885            2 
  101000     1.207778   -6.4105327    39.347485  0.032464922  0.035942282            2 
  102000    1.2201823   -6.3892695    40.062431  0.032730744  0.035963669            3 
  103000    1.2074688   -6.3915241    40.401347  0.032687174  0.035993004            2 
  104000    1.2109603   -6.4155778    40.620326  0.032548338  0.036013942            2 
  105000    1.1872938   -6.3642447    41.232046  0.032723846  0.036029025            2 
  106000    1.2020545   -6.4511086    41.664807  0.032755352  0.036043472            2 
  107000    1.2007411   -6.3565926    42.272473  0.032922486  0.036064095            2 
  108000     1.234942   -6.4372058    42.601639  0.032871635  0.036085278            5 
  109000    1.2032363   -6.3983137    43.137447  0.032979699  0.036108268            2 
  110000    1.2182401   -6.4301749    43.729442  0.033128365  0.036130997            4 
  111000     1.215439   -6.3923083     43.99402  0.033028543  0.036152811            2 
  112000    1.1785849   -6.4578989    44.218987  0.032901032  0.036169058            3 
  113000    1.2082801   -6.4027943    45.021758  0.033201886  0.036186294            2 
  114000    1.2025768   -6.4478086    45.141709  0.032998325  0.036199764            2 
  115000    1.2002733   -6.4061869    45.567488  0.033019919  0.036209921            2 
  116000    1.2099258   -6.3779719     46.35791  0.033303096  0.036225261            3 
  117000     1.225156   -6.3734826    46.782974  0.033321206  0.036247422            3 
  118000    1.2327356   -6.3786398    47.376615  0.033458061  0.036271196            4 
  119000    1.2217845   -6.3960263    47.809749  0.033480216  0.036301742            2 
  120000    1.2051505   -6.4488805    48.033385  0.033356517  0.036321008            2 
  121000    1.2073872   -6.4446701    48.573585  0.033452882  0.036336605            3 
  122000    1.1997157   -6.4376941    49.164517   0.03358232  0.036361738            1 
  123000    1.1792976   -6.4306036    49.683799   0.03366111  0.036388322            3 
  124000    1.2008819   -6.3724497    50.464175  0.033914096  0.036422167            3 
  125000    1.2026889   -6.4440314    50.571712  0.033714475  0.036450277            2 
  126000    1.2052029   -6.4527306    51.194638  0.033858887  0.036478585            7 
  127000    1.2065378   -6.4004475     51.74358   0.03395248  0.036510835            2 
  128000     1.236697   -6.4320817    52.008479  0.033859687  0.036536833            1 
  129000    1.1872931   -6.4303601     52.56316  0.033955529  0.036561173            5 
  130000    1.1913812    -6.451147    52.963665  0.033951067    0.0365869            2 
  131000    1.1996789     -6.43345    53.543695  0.034060874  0.036612888            1 
  132000    1.1945493   -6.4286052    53.902547  0.034029386  0.036640352            2 
  133000    1.2292468   -6.4409792    54.279081  0.034009449  0.036668546            1 
  134000    1.1849457   -6.4258552    55.024409   0.03421916  0.036696287            2 
  135000    1.1884721   -6.4321667    55.262535  0.034112676  0.036721589            3 
  136000    1.1922952   -6.4667599    55.742657   0.03415604  0.036741415            3 
  137000    1.1934165   -6.3756855    55.973546  0.034047169  0.036756172            2 
  138000    1.2013609   -6.3853918    56.400127  0.034058048  0.036764815            4 
  139000    1.1990375   -6.4480634    56.499394  0.033872538  0.036767019            2 
  140000    1.2149848   -6.4575935    56.993688  0.033924814   0.03677328            2 
  141000    1.1800696   -6.4642793    57.414153  0.033932714  0.036779475            1 
  142000    1.2026703   -6.4156994    57.992293  0.034033035    0.0367847            2 
  143000    1.2332363   -6.4299389    58.575941  0.034135164  0.036789108            2 
  144000    1.2075146   -6.4094214     58.59249  0.033907691  0.036790765            2 
  145000    1.2324846   -6.4202171     58.93137  0.033868604  0.036788638            2 
  146000    1.2073783   -6.4567499    59.122854  0.033745921  0.036776745            4 
  147000    1.2097314   -6.4866353    59.322421   0.03362949  0.036763297            3 
  148000    1.1744391   -6.4124405    59.884817  0.033718928  0.036750597            4 
  149000     1.192073   -6.3961808    60.465747  0.033817532  0.036735512            4 
  150000    1.1841831   -6.4105522    60.851071  0.033806151  0.036725875            2 
  151000    1.1992399   -6.4566171    61.277893  0.033817822  0.036718357            2 
  152000    1.1918573   -6.4164991    61.743969   0.03385086  0.036712286            3 
  153000     1.210998   -6.4340386     62.18133  0.033867827  0.036703254            5 
  154000     1.205541   -6.4377348    62.464136  0.033800939  0.036695799            2 
  155000    1.2129936   -6.4508219    63.076848  0.033912284  0.036687978            3 
  156000    1.1836494   -6.4209923     63.84772  0.034106688  0.036681188            2 
  157000    1.1752764   -6.4667548    63.787979  0.033857738  0.036673851            1 
  158000    1.1925719   -6.4650015    64.088662  0.033802037   0.03666369            5 
  159000    1.1836977   -6.4107193    64.522344  0.033816742  0.036650762            3 
  160000    1.1870645   -6.4241983    65.042628  0.033876369  0.036635446            4 
  161000    1.1777821   -6.4320166    65.324291  0.033811745  0.036621895            4 
  162000    1.1783645   -6.4394274    65.656991  0.033774172  0.036608193            1 
  163000    1.1752534   -6.4242001    65.963174  0.033723504  0.036591862            3 
  164000     1.181482   -6.4821889     66.29964  0.033688841  0.036569787            5 
  165000    1.1856617    -6.432257    66.682502  0.033678031  0.036548094            2 
  166000    1.1788833    -6.461026     66.78407   0.03352614  0.036522987            2 
  167000    1.1872402   -6.4510008    67.423563  0.033644492  0.036498695            9 
  168000    1.1670472   -6.4234492    67.994994  0.033727676  0.036476825            4 
  169000     1.192633   -6.4360282    68.311942   0.03368439  0.036455686            4 
  170000    1.1860024   -6.4694665    68.438294  0.033548183  0.036435521            1 
  171000    1.1845325   -6.4402278    68.914135  0.033583886  0.036414762            4 
  172000    1.1943401   -6.4601037     69.46636  0.033656182  0.036393409            4 
  173000    1.1927237   -6.4311097    69.892917  0.033667108  0.036371918            1 
  174000    1.1916097   -6.4203947    70.312894  0.033674758  0.036351247            3 
  175000    1.1825579   -6.4106286    70.649865  0.033642793  0.036329376            3 
  176000    1.1966949   -6.4451843    70.993895  0.033614533  0.036307502            2 
  177000    1.1864781   -6.4373046    71.639026  0.033728355  0.036289644            3 
  178000    1.1744206   -6.4990224    71.981802  0.033699345  0.036274216            4 
  179000     1.170954   -6.4790461    72.376378  0.033694775  0.036255469            2 
  180000     1.197985   -6.4787602    72.920224  0.033759363  0.036237591            1 
  181000    1.1781258   -6.4540507    73.378625  0.033783897  0.036222131            2 
  182000     1.182478   -6.4798455    73.411128  0.033613154   0.03620425            7 
  183000    1.1659441    -6.476944    74.032383  0.033712378  0.036186093            5 
  184000    1.1773317   -6.4559177    74.479127  0.033731488  0.036168498            2 
  185000    1.1960966   -6.4498925    74.446416  0.033534421  0.036146645            4 
  186000     1.179651   -6.4875145     74.83248  0.033527097  0.036123869            3 
  187000    1.1782166   -6.4777215    75.308379  0.033559883  0.036102047            2 
  188000    1.1976769   -6.4391555    75.920397  0.033652658   0.03608043            5 
  189000    1.2059927   -6.4899212    75.824225  0.033432198  0.036058098            2 
  190000    1.1955264    -6.476455    76.503472  0.033554154  0.036034374            3 
  191000    1.1519365    -6.532473    76.572603   0.03340864  0.036010716            2 
  192000    1.1740776    -6.503832    77.131574  0.033477245   0.03598878            3 
  193000    1.1975442   -6.4746521      77.6267  0.033517573  0.035965828            2 
  194000    1.1700484    -6.480324    78.136268  0.033563689  0.035945689            3 
  195000    1.2121656    -6.458212    78.543053  0.033565407  0.035925132            2 
  196000    1.1724273   -6.4379171    78.804618  0.033505365  0.035903672            7 
  197000    1.1879157   -6.5009204     79.08897  0.033455571  0.035879201            2 
  198000     1.165458   -6.4639503    79.437914  0.033433465   0.03585505            3 
  199000    1.1765321   -6.5046983    79.906125  0.033461526  0.035831309            2 
  200000    1.1810918   -6.4985261    80.077069  0.033365446  0.035806915            3 
  201000    1.1699689   -6.4786354    80.446109   0.03335245  0.035785812            2 
  202000    1.1855275   -6.4760907    80.922649  0.033383931  0.035761332            3 
  203000    1.1904333   -6.4866842    81.106937   0.03329513  0.035738679            2 
  204000    1.1702706   -6.4665764    81.899076  0.033455505  0.035717036            3 
  205000    1.1818207   -6.5083434    82.328224  0.033466758  0.035694917            3 
  206000    1.1979769   -6.4659355    82.599232  0.033413929   0.03567439            2 
  207000     1.152311    -6.479477    82.858262  0.033356788   0.03565182            3 
  208000     1.164736    -6.463019    83.872797  0.033602884  0.035632825            3 
  209000    1.1517472   -6.5049461    83.750195   0.03339322   0.03561294            2 
  210000    1.1694791   -6.4763021    84.625015  0.033581355  0.035593976            5 
  211000    1.1583942   -6.5137468    84.679627   0.03344377  0.035574525            2 
  212000    1.1431184   -6.4815723     85.28937  0.033525696  0.035555232            6 
  213000    1.1603125    -6.550799     85.01324  0.033260266  0.035534396            3 
  214000    1.1497014   -6.4994971    85.668886  0.033360158  0.035510821            2 
  215000    1.1505212   -6.4908836    86.002662  0.033334365  0.035489249            3 
  216000    1.1409583   -6.5217174    86.490226  0.033368143  0.035468597            9 
  217000    1.1786946   -6.5250932    87.096886  0.033447345   0.03544809            3 
  218000    1.1520269   -6.4844492    87.617491  0.033492925   0.03543192            3 
  219000    1.1579188   -6.4770873    88.396398  0.033636377  0.035417531            3 
  220000    1.1469269   -6.5026207    88.434568  0.033497942  0.035403735            4 
  221000    1.1528185   -6.5145765    88.666849  0.033433955  0.035389332            3 
  222000    1.1828853   -6.4818946    89.538868  0.033610686  0.035376051            2 
  223000    1.1891308    -6.532543    89.693486  0.033517745   0.03536063            2 
  224000     1.167014   -6.5196007    90.346991  0.033611232  0.035345753            3 
  225000    1.1651396   -6.5210698    89.989526  0.033329454  0.035330412            2 
  226000    1.1793356    -6.480055    90.423611  0.033342039  0.035313504            2 
  227000    1.1600292   -6.5125111    90.816284  0.033339311  0.035295781            1 
  228000    1.1440801   -6.4826623    91.394704  0.033404497   0.03527556            3 
  229000    1.1622876    -6.534696    91.521398   0.03330473  0.035257055            2 
  230000    1.1337639   -6.5510055    91.680355   0.03321752  0.035238303            2 
  231000    1.1675649   -6.5157507    92.558863  0.033390643  0.035218977            4 
  232000    1.1523403   -6.5094575    92.473813  0.033216168  0.035200812            3 
  233000    1.1874968   -6.5153488    93.249645  0.033351089  0.035183402            4 
  234000    1.1696767   -6.5142052    93.493272  0.033295325   0.03516614            3 
  235000    1.1452586   -6.5008797    93.894927  0.033296073   0.03514859            4 
  236000    1.1646843   -6.5365201    93.947568  0.033173576  0.035130078            5 
  237000    1.1789859   -6.5314177    94.112628  0.033091641  0.035109371            3 
  238000    1.1568239   -6.5635143    94.516214  0.033093912   0.03508831            4 
  239000    1.1611417   -6.5253499    95.072619  0.033149449  0.035067026            3 
  240000    1.1564833   -6.5565198    95.841394  0.033278262  0.035045098            2 
  241000     1.167636   -6.5334659    96.225071  0.033272846  0.035026277            2 
  242000    1.1260964   -6.5044862    96.725303  0.033307611  0.035007984            2 
  243000     1.139086   -6.5606211    96.583806  0.033122019  0.034989801            4 
  244000    1.1687149    -6.457157    97.470509  0.033289108   0.03497097            3 
  245000    1.1868425   -6.5306161    97.312787  0.033099587  0.034953076            2 
  246000    1.1505166   -6.5683543    97.426964  0.033003714  0.034933227            3 
  247000     1.136249   -6.5390342    97.926101  0.033038495  0.034913655            4 
  248000    1.1446393   -6.5870123    98.125775  0.032972371  0.034894534            2 
  249000    1.1508324   -6.5778083    98.617765  0.033004607  0.034873862            4 
  250000    1.1347761   -6.5349578    98.996117  0.032998706  0.034851983            3 
  251000    1.1665796   -6.5544618    99.198612  0.032934466  0.034829192            4 
  252000    1.1812682    -6.521333    99.211572  0.032808059   0.03480679            4 
  253000    1.1412628   -6.5719521    99.861856  0.032892574  0.034785654            3 
  254000    1.1596431   -6.5873636    99.977633  0.032801061  0.034762793            3 
  255000    1.1792695   -6.5331446    101.11411  0.033043826  0.034740926            2 
  256000    1.1291491   -6.5360696    101.24255  0.032956558  0.034719286            2 
  257000    1.1610426   -6.5501911    101.11952  0.032788432  0.034697429            3 
  258000    1.1565445   -6.5662917    101.10835  0.032657736  0.034673882            5 
  259000    1.1395693   -6.5308645    101.99197  0.032815948  0.034647952            2 
  260000    1.1524176   -6.4900999    102.04261  0.032705964  0.034621584            4 
  261000    1.1328457   -6.5360463    102.22316    0.0326383  0.034596162            4 
  262000    1.1372691   -6.5792314    102.14645   0.03248933  0.034568716            2 
  263000    1.1538018    -6.547898    103.06213  0.032655934  0.034543461            2 
  264000    1.1468416   -6.5239053    103.74156  0.032746705   0.03452081            4 
  265000    1.1479114   -6.5537064    103.62541  0.032586605  0.034497584            2 
  266000    1.1607104   -6.5839627    103.83592   0.03253005  0.034473073            6 
  267000    1.1253318   -6.5493593    104.51473  0.032620076  0.034448364            3 
  268000     1.129454   -6.5286849    105.15845  0.032698524  0.034423971            2 
  269000    1.1380873   -6.5413569      104.979  0.032521377  0.034398375            2 
  270000    1.1523777    -6.578281    105.31751  0.032505405  0.034372329            4 
  271000    1.1403996   -6.5465029    105.59102  0.032469563  0.034346849            3 
  272000    1.1377341   -6.5950628    105.26806  0.032251243  0.034318584            1 
  273000    1.1395249   -6.5384452    106.55956  0.032527338  0.034290543            4 
  274000    1.1510867   -6.5642785    106.31212  0.032333369  0.034262193            3 
  275000     1.148181     -6.54251     106.7291  0.032342151  0.034235034            4 
  276000     1.134986   -6.5695337    106.87109  0.032267842  0.034207265            4 
  277000    1.1253957   -6.5981809    107.38125  0.032304827  0.034179317            2 
  278000    1.1327674   -6.5334493    108.12307  0.032410992  0.034152347            4 
  279000      1.14025   -6.5662917    108.31627  0.032352529  0.034125613            5 
  280000    1.1327215   -6.6149276    108.79394  0.032379149  0.034099177            6 
  281000    1.1609131   -6.5771762    108.91484  0.032299774  0.034072848           11 
  282000    1.1382483   -6.6381155    108.94628  0.032194527  0.034047279            2 
  283000     1.125132   -6.5715439     109.4582  0.032231509  0.034021623            4 
  284000    1.1422632   -6.5895857    110.04957  0.032291541  0.033996802            2 
  285000    1.1496583    -6.545227    110.00062  0.032163923  0.033971454            3 
  286000    1.1532668   -6.5833321     110.6094  0.032228847  0.033945127            2 
  287000    1.1132564   -6.5835053    111.23399  0.032297905  0.033919916            3 
  288000    1.1225639    -6.560739    111.63492  0.032301771  0.033894774            4 
  289000    1.1269963    -6.575748     111.3897  0.032119291  0.033871327            4 
  290000    1.1480199   -6.5740838    112.17293  0.032233601  0.033847346            2 
  291000    1.1515785   -6.5756564    112.67127   0.03226554  0.033824572            3 
  292000    1.1788631   -6.5236063    112.95332  0.032235538  0.033802826            4 
  293000    1.1397806   -6.5693775    113.34883  0.032238005  0.033781267            3 
  294000    1.1212515   -6.6192137    113.77576  0.032249365  0.033759354            1 
  295000    1.1303582   -6.6292042    113.74085  0.032130183  0.033736524            2 
  296000    1.1151843   -6.6332742    114.17288  0.032143266  0.033712194            4 
  297000    1.1356879   -6.5869183    114.91331  0.032242793   0.03369004            2 
  298000    1.1513596   -6.6196724    114.81845  0.032108066  0.033669007            3 
  299000    1.1341963   -6.5694702    115.33391  0.032144344  0.033646741            2 
  300000    1.1298991   -6.5872975    115.88812  0.032191145  0.033625685            2 
  301000    1.1439225   -6.6023193    115.99265  0.032113138   0.03360486            3 
  302000    1.1301637   -6.5671025    116.41586  0.032123581  0.033583957            6 
  303000    1.1079323   -6.6146469    116.71259  0.032099173  0.033562944            2 
  304000    1.1242091   -6.5649985    117.13805   0.03211021  0.033541381            1 
  305000    1.1552835   -6.5900498    117.44522  0.032088858  0.033519242            2 
  306000    1.1565679   -6.5563438    117.89598  0.032106747  0.033497562            2 
  307000    1.1492704    -6.588482    118.21483  0.032088716  0.033476763            7 
  308000    1.1002477   -6.6008491    118.33129  0.032016043  0.033455361            2 
  309000    1.1272607   -6.6007914    119.07327  0.032112534  0.033434507            2 
  310000    1.1454511   -6.5932494    119.28305  0.032065335  0.033414029            3 
  311000    1.1189609   -6.6207684    119.87653  0.032121257  0.033393875            4 
  312000    1.1313796   -6.5848084    119.96812  0.032042767  0.033373991            3 
  313000    1.1138878   -6.5891017    120.72421  0.032141696  0.033355269            2 
  314000    1.1263733   -6.5712398    121.62562  0.032278562   0.03333755            2 
  315000    1.1449267   -6.6287459    121.13507  0.032046314  0.033319515            6 
  316000    1.1379066   -6.6365936    121.68416  0.032089704  0.033301588            2 
  317000    1.1284296   -6.5977318     122.0781  0.032092036   0.03328416            2 
  318000    1.1490833   -6.5777831    122.73913  0.032164342  0.033266844            4 
  319000    1.1394959    -6.590574    123.00975  0.032134209  0.033249578            2 
  320000    1.1117778   -6.6186665    122.87536  0.031998791  0.033231461            2 
  321000    1.1062688   -6.5826148    123.88297  0.032160688  0.033213721            2 
  322000    1.1368504   -6.6189153    123.56094   0.03197747  0.033195009            5 
  323000    1.1217478   -6.5941888    123.85872  0.031955294  0.033175538            6 
  324000    1.1282096   -6.6194844    124.00105  0.031893275  0.033156784            5 
  325000    1.1105973   -6.6188465    124.07093  0.031813058  0.033135692            3 
  326000    1.1000348   -6.5978421    124.77359   0.03189509  0.033114559            6 
  327000    1.1238836   -6.6229275    124.87076  0.031822315  0.033094202            2 
  328000    1.0870345   -6.5773658    125.54366  0.031896256  0.033074313            3 
  329000    1.1089833   -6.5941789    125.71518   0.03184275  0.033054944            3 
  330000    1.1146398   -6.6162621    125.86231  0.031783412  0.033037079            4 
  331000    1.1315472   -6.6001933    126.52567  0.031854398  0.033018045            4 
  332000    1.1374565   -6.7049522    126.09592  0.031650583     0.032998            5 
  333000    1.1275582   -6.6501563    126.52102  0.031661918  0.032976797            3 
  334000    1.1309577   -6.6369662    126.76437  0.031627837  0.032955494            4 
  335000    1.1130754   -6.6046385       127.58  0.031736318  0.032934573            2 
  336000    1.1192328   -6.5747388    127.73318  0.031679856  0.032913455            5 
  337000    1.1121375   -6.6598198    126.98334   0.03140043  0.032890672            2 
  338000    1.1111006   -6.6754386     127.3192  0.031390335   0.03286785            5 
  339000    1.1028965   -6.6019347     128.0707  0.031482473  0.032844508            5 
  340000    1.1267599   -6.6414771    127.81485  0.031327168   0.03282118            2 
  341000    1.0878525    -6.639069    128.83095  0.031483614  0.032797784            2 
  342000    1.1205667   -6.5959663     129.2717  0.031498953  0.032774904            2 
  343000    1.1041099   -6.6480692    129.07843  0.031360163  0.032751899            2 
  344000     1.107617   -6.6546925    129.64858  0.031407117  0.032729576            4 
  345000    1.1123273   -6.6797489    130.22683  0.031455755  0.032707645            4 
  346000    1.1480202    -6.660215    130.33776  0.031391561   0.03268585            2 
  347000    1.1339653   -6.6499724    130.88275  0.031431975  0.032663805            3 
  348000    1.1437511   -6.6896483    130.32651  0.031208456  0.032641684            2 
  349000    1.1183116    -6.660005    130.46076   0.03115109  0.032618676            2 
  350000    1.1453528   -6.6473047    131.04308  0.031200733   0.03259528            2 
  351000    1.1143498   -6.6254386    132.04679  0.031350139  0.032572348            4 
  352000    1.0985064   -6.6433025    132.28438  0.031317324  0.032550456            3 
  353000    1.1126412   -6.6169192    132.55386  0.031292225  0.032528408            4 
  354000    1.1072553   -6.6024676    132.77353  0.031255539  0.032505564            4 
  355000    1.1289543   -6.6145631    132.98628  0.031217438  0.032482702            1 
  356000    1.1002426   -6.6544248    133.18329  0.031175864  0.032459448            2 
  357000    1.1036263   -6.6130509    133.86442   0.03124753  0.032437206            4 
  358000    1.1084189   -6.6359642    134.13932  0.031224236  0.032415114            7 
  359000    1.1196182   -6.6497894    133.95958  0.031095539  0.032392289            3 
  360000    1.1001776   -6.6509077    134.39769  0.031110575  0.032369629            5 
  361000    1.1118522   -6.6587157    134.56897  0.031063936  0.032346594            4 
  362000    1.1356656   -6.6115592    135.47418  0.031186505  0.032323582            6 
  363000    1.1112269   -6.6528118     134.9064  0.030970248  0.032299878            3 
  364000     1.084804   -6.6489187    135.24489  0.030962657   0.03227577            2 
  365000    1.0954033   -6.6720991    135.10285    0.0308454  0.032251615            4 
  366000    1.0923573   -6.6654842    135.52285  0.030856751  0.032227176            3 
  367000    1.1038965   -6.6902491    135.97767  0.030875946  0.032201952            2 
  368000    1.0932338   -6.6611483    135.97641   0.03079176  0.032176771            1 
  369000    1.0822522   -6.7006042    136.19891  0.030758562  0.032150988            2 
  370000    1.1092832   -6.6288495    137.04953  0.030867011  0.032127241            4 
  371000    1.1065765   -6.6379696    137.34761  0.030850766  0.032103607            3 
  372000    1.1021115   -6.6346295    138.05154  0.030925524  0.032080178            4 
  373000    1.1114195   -6.6638553    138.25282  0.030887582   0.03205776            3 
  374000     1.105056   -6.6778464    138.31099  0.030817956  0.032034504            3 
  375000    1.0829796    -6.664147     139.2726  0.030949468  0.032011818            3 
  376000    1.1248536    -6.685551    138.90993  0.030786775  0.031988631            5 
  377000    1.1061174   -6.6586067     139.1363  0.030755149  0.031964959            4 
  378000    1.1080704   -6.6408941    139.89576  0.030841216  0.031942005            5 
  379000    1.0973982   -6.6976072    139.61204  0.030697459  0.031919491            6 
  380000    1.0976618   -6.6587525    140.29104   0.03076558  0.031896572            3 
  381000    1.1053098   -6.6672105    140.50327  0.030731249  0.031874272            3 
  382000    1.1026028   -6.6729994    140.99144  0.030757294  0.031853141            6 
  383000    1.1227333   -6.6643076    141.37115  0.030759605  0.031831883            3 
  384000    1.0987131   -6.6720891    142.03364  0.030823272   0.03181159            2 
  385000     1.129419   -6.6831776    142.48691  0.030841323  0.031791723            6 
  386000    1.1100686    -6.631383    143.46353  0.030972265   0.03177338            4 
  387000    1.1038203   -6.7358629    142.96092  0.030784005  0.031755097            5 
  388000    1.0938105    -6.690367    143.72205  0.030868137  0.031736581            4 
  389000    1.1051142   -6.7008863    144.23849  0.030899419  0.031718983            3 
  390000    1.0634621   -6.6955055    144.23037  0.030818455  0.031701426            2 
  391000    1.1083596   -6.6797659    144.31837   0.03075839   0.03168263            6 
  392000    1.1108181    -6.706608    144.57162  0.030733762  0.031663878            3 
  393000    1.0885139   -6.7217796    144.73209  0.030689587  0.031645444            2 
  394000    1.1152599   -6.7130974    144.63732  0.030591651  0.031626426            2 
  395000    1.0948331   -6.6845195    145.94775  0.030790665  0.031607282            3 
  396000    1.0997591   -6.6745159     145.8727  0.030697118  0.031588232            4 
  397000    1.1091507   -6.6936375    145.34092   0.03050817  0.031568104            4 
  398000    1.1115432   -6.7266225    145.83098  0.030534125  0.031547971            3 
  399000    1.1271046   -6.6852844    146.18937  0.030532451  0.031527372            4 
  400000    1.1136908   -6.6836137    146.37369  0.030494518  0.031507495            4 
  401000     1.107766   -6.6686706    147.03841  0.030556611  0.031486976            2 
  402000     1.098735   -6.6813449    146.60168  0.030390067  0.031466174            3 
  403000     1.079474   -6.6677002     147.5304    0.0305067  0.031445135            3 
  404000    1.1030294   -6.7441791    146.80686  0.030281943  0.031423761            2 
  405000    1.1073479   -6.7388061     147.2399  0.030296275  0.031402543            4 
  406000    1.0939532   -6.6769826    148.40275  0.030460334  0.031381224            6 
  407000    1.0764701   -6.6664629    148.80785  0.030468439  0.031360461            4 
  408000    1.1148036   -6.7149962    148.33253  0.030296678  0.031339996            6 
  409000    1.0778189   -6.7154703    148.34052  0.030224231  0.031318658            2 
  410000     1.102389   -6.7165997     148.3634  0.030155163  0.031296372            6 
  411000    1.0893795   -6.6932225    149.36041  0.030283944  0.031274575            3 
  412000    1.0977744   -6.7623765    148.75658  0.030088306  0.031252808            3 
  413000    1.1092911   -6.7474405    149.04713  0.030074079   0.03123024            4 
  414000    1.0883905   -6.6968189    149.99535  0.030192301  0.031206444            4 
  415000    1.0674153   -6.7189262    149.91202  0.030102815  0.031183741            4 
  416000    1.1108048   -6.7110865    149.99471  0.030047016  0.031160359            5 
  417000    1.0836407   -6.6929083    150.17185  0.030010362  0.031137263            5 
  418000    1.0805603   -6.7547175    150.38669  0.029981397  0.031113731            3 
  419000    1.0930127   -6.7216047    151.10754  0.030053211  0.031090094            2 
  420000    1.1061553   -6.6672747    151.57783  0.030074966  0.031067241            5 
  421000    1.0919859   -6.7715641    151.00016  0.029889185  0.031043858            3 
  422000    1.0585416   -6.7437217    151.93868  0.030003688   0.03102018            2 
  423000    1.1025601   -6.7346518      151.895  0.029924152  0.030997691            5 
  424000    1.1013014    -6.752254      152.176  0.029908804   0.03097522            7 
  425000    1.0799699   -6.6796456    153.29957  0.030058738  0.030953522            2 
  426000    1.0729208   -6.7413926    153.50231  0.030027838  0.030932217            6 
  427000     1.085464   -6.7260543    153.52111  0.029961184  0.030910814            4 
  428000    1.0572665    -6.731174    153.86341  0.029957829  0.030889142            3 
  429000    1.0977628   -6.6976718    153.77738  0.029871285  0.030866927            3 
  430000    1.0851342   -6.7028906    154.08809  0.029862032  0.030845211            2 
  431000    1.0853337   -6.7549104    154.32262  0.029838094  0.030823156            2 
  432000    1.0958969   -6.7246411     154.6404  0.029830324   0.03080171            6 
  433000    1.0649975   -6.7530458    154.56672  0.029747252  0.030779305            3 
  434000    1.0800944   -6.7534061    154.92564  0.029747627  0.030756396            2 
  435000    1.0862242   -6.7315494    155.59023  0.029806557  0.030734471            2 
  436000    1.0843138   -6.7658992    155.37613  0.029697273  0.030712455            4 
  437000    1.0717998    -6.765261     155.4526  0.029643898  0.030689157            4 
  438000    1.0594583   -6.7285515    156.18179  0.029714952  0.030667122            4 
  439000    1.0828899   -6.7730121    155.86453  0.029587041  0.030644243            3 
  440000    1.0842673   -6.7106762    157.13912  0.029761196  0.030621819            5 
  441000    1.0580488   -6.7151207    157.21764  0.029708549  0.030599429            2 
  442000    1.0959629   -6.7796579    156.85779  0.029573489  0.030577518            2 
  443000    1.0878709   -6.7279966    158.17441  0.029754403  0.030555837            5 
  444000    1.0719029   -6.7048925    158.35892   0.02972202  0.030535556            2 
  445000    1.0810344   -6.7593239    158.13468  0.029613235  0.030514954            3 
  446000    1.0735076   -6.7239689    158.85374  0.029681193  0.030494384            3 
  447000    1.0605882    -6.708723    159.22564  0.029684124  0.030473514            6 
  448000    1.0795248   -6.7205661    158.94458  0.029565584  0.030451745            3 
  449000     1.078499   -6.7500898    158.85514  0.029483137  0.030430872            5 
  450000    1.0903324   -6.7654452     159.7263  0.029578945  0.030409473            4 
  451000    1.0807793   -6.7736824    159.96576  0.029557606  0.030388212            4 
  452000     1.095654   -6.7905847    160.36875   0.02956651  0.030367075           12 
  453000    1.0926853   -6.7242794    160.64448  0.029551964  0.030346084            2 
  454000    1.0873885   -6.7701038    160.80223  0.029515829  0.030325377            3 
  455000    1.0803816   -6.7509194    161.04732  0.029495846  0.030304885            3 
  456000     1.045662   -6.6743382    162.25597  0.029652041  0.030284792            1 
  457000    1.0630353    -6.702007    161.74084  0.029493225  0.030264714            4 
  458000    1.0913465   -6.7205127    161.85213  0.029449077  0.030243811            5 
  459000     1.050054   -6.7432804    162.24403  0.029456069  0.030222979            6 
  460000    1.0854211   -6.7749864    162.05762  0.029358265  0.030202597            4 
  461000    1.0693333   -6.7864395    162.24397  0.029328266  0.030181531            2 
  462000    1.0647472   -6.7812559    162.58967   0.02932714  0.030160332            3 
  463000    1.0812052   -6.7450266    162.96534  0.029331415  0.030139215            3 
  464000    1.0807024   -6.7792512    163.10207  0.029292756  0.030118289            5 
  465000    1.0645681   -6.7650814    163.49178  0.029299602  0.030097446            6 
  466000    1.0233505    -6.747307    164.34935  0.029390085  0.030077462            5 
  467000    1.0538243   -6.7808755    164.58537  0.029369266  0.030057433            4 
  468000    1.0678422   -6.7677695    164.18205  0.029234695   0.03003684            3 
  469000    1.0777214   -6.7731143    164.73915  0.029271348  0.030016889            4 
  470000    1.0588692   -6.7617992    165.01363  0.029257736  0.029997487            7 
  471000    1.0634919   -6.7600951    165.57423  0.029294804  0.029977449            2 
  472000    1.0611188    -6.759948    166.14308   0.02933317  0.029957392            2 
  473000    1.0569662   -6.7748322    166.37027  0.029311182  0.029937462            3 
  474000    1.0624045    -6.808971    165.97708  0.029180218  0.029918338            3 
  475000    1.0645297    -6.774534     166.3052  0.029176351  0.029898974            3 
  476000    1.0596151   -6.7891344    166.47127  0.029144129   0.02987979            5 
  477000    1.0635907   -6.8102956    166.95644  0.029167792  0.029860937            3 
  478000    1.0817744   -6.7613845    167.53477  0.029207595  0.029841822            3 
  479000    1.0446744   -6.7350421    168.14546  0.029252864  0.029822748            3 
  480000    1.0688487   -6.7547899    168.61916  0.029274159   0.02980417            2 
  481000    1.0566104    -6.765162     168.5044  0.029193417  0.029785843            4 
  482000     1.059081   -6.7628927    168.43358  0.029120606   0.02976717            2 
  483000    1.0487164     -6.74401    168.64912  0.029097501  0.029748705            3 
  484000    1.0766927   -6.7708887    169.64571  0.029208972   0.02973042            4 
  485000     1.057914   -6.7664689    169.87396  0.029187966  0.029712689            8 
  486000    1.0396208   -6.7495486    169.95995  0.029142653  0.029695311            5 
  487000    1.0563044    -6.786395    170.01597  0.029092397  0.029677044            4 
  488000    1.0476166   -6.7581848    170.97745  0.029196968  0.029658439            4 
  489000    1.0650364   -6.8487268     170.0231  0.028974626   0.02963949            4 
  490000    1.0561534   -6.8147577    170.90489  0.029065457  0.029621378            4 
  491000    1.0719913   -6.7768009    170.97065  0.029017422   0.02960368            2 
  492000    1.0429807   -6.7742081    171.23109  0.029002557  0.029585029            2 
  493000     1.058347   -6.7746271    171.57402  0.029001694  0.029566919            4 
  494000    1.0610761    -6.807988    171.86857  0.028992673   0.02954836            2 
  495000    1.0560329   -6.7779063    172.01025  0.028957955  0.029529646            3 
  496000    1.0425638    -6.781255    171.89185  0.028879678  0.029511052            4 
  497000    1.0498318   -6.7399659    172.85414   0.02898292   0.02949268            4 
  498000    1.0426788   -6.8167637    172.63867  0.028888667  0.029473976            3 
  499000    1.0374883   -6.7657118    173.05043  0.028899537  0.029455195            5 
  500000    1.0481803   -6.7865113    173.08647  0.028847745  0.029435903           10 
  501000    1.0274401   -6.8252168    173.02236  0.028779501  0.029416131            7 
  502000    1.0343606   -6.8072891    172.84098  0.028692062  0.029396511            3 
  503000    1.0707769   -6.8213944    173.25911  0.028704293  0.029376642            5 
  504000     1.068603   -6.7950151     173.6356   0.02870959  0.029356969            9 
  505000    1.0377221   -6.7860693    173.77329   0.02867546  0.029336478            3 
  506000    1.0620404   -6.8426056    173.00574  0.028492381  0.029316057            8 
  507000    1.0534659   -6.7933997    174.10909  0.028617535  0.029295534            2 
  508000    1.0562622   -6.7999981    174.19168  0.028574751  0.029275622            3 
  509000    1.0558847    -6.833417    174.76574  0.028612596   0.02925529            3 
  510000     1.015132    -6.801964    174.67054  0.028540939  0.029234881            3 
  511000    1.0705885   -6.8015208    174.72352  0.028493725  0.029214137            3 
  512000    1.0482872   -6.8096525     175.2783  0.028528368  0.029193279            3 
  513000    1.0652955    -6.791008    175.03512  0.028433255  0.029172737            2 
  514000    1.0436905   -6.8045331    175.34885  0.028428803  0.029152036            4 
  515000    1.0683484    -6.816239    176.06228  0.028489042  0.029131733            3 
  516000     1.048881   -6.7954231    176.01798  0.028426676  0.029111939            4 
  517000    1.0392197   -6.8183218    175.95636   0.02836176  0.029092067            7 
  518000    1.0387469   -6.8144217    176.52242  0.028398072  0.029072042            3 
  519000    1.0414032    -6.812347     176.6159  0.028358365  0.029052089            3 
  520000    1.0676386   -6.8498231    176.62532   0.02830534  0.029031815            3 
  521000    1.0442876   -6.8172262    176.97286    0.0283066  0.029011879            3 
  522000    1.0645757   -6.8413726     177.6012  0.028352682  0.028992304            4 
  523000    1.0496395   -6.8215183    178.38093  0.028422711  0.028972907            3 
  524000    1.0402391   -6.8626203    178.18168  0.028336781    0.0289533            5 
  525000    1.0396075    -6.764393    178.86449  0.028391188   0.02893396            2 
  526000    1.0303868   -6.7969752    179.11578  0.028377024  0.028914747            4 
  527000    1.0169738   -6.8143202    179.66625  0.028410222  0.028895143            7 
  528000    1.0484447   -6.8548044    179.60012  0.028345979  0.028875599            8 
  529000    1.0386914   -6.8121495    179.47501  0.028272686  0.028856017            2 
  530000    1.0413418   -6.8374152    179.01204  0.028146547  0.028835973            7 
  531000     1.036751   -6.8549895    179.74516  0.028208595  0.028816093            3 
  532000    1.0416059   -6.8307798    180.18543  0.028224535  0.028796132            5 
  533000    1.0631656   -6.8326949    180.25544  0.028182527  0.028776483            2 
  534000    1.0603417   -6.8299014      180.643  0.028190231  0.028756899            5 
  535000    1.0412927   -6.7996816    180.86358  0.028171898  0.028737179            6 
  536000    1.0241833   -6.8342069      181.068  0.028151119  0.028717957            3 
  537000    1.0341412   -6.8404176    181.26903  0.028129893  0.028698461            4 
  538000    1.0322162   -6.8300775    181.59872  0.028128674  0.028678485            4 
  539000    1.0318325    -6.802092     181.7996  0.028107545   0.02865895            3 
  540000    1.0262399   -6.9003581    181.23154  0.027967831  0.028639147            4 
  541000     1.054308   -6.8216857    181.93811  0.028024971  0.028619135            3 
  542000    1.0295532   -6.8660067    181.87365  0.027963353  0.028599265            4 
  543000    1.0565796   -6.8165956    182.21177  0.027963746  0.028579348            4 
  544000    1.0154113   -6.8349939    182.48321  0.027953924  0.028559693            3 
  545000    1.0308632   -6.8451903    183.02505  0.027985481   0.02854018            3 
  546000     1.061055   -6.8233627    183.38976   0.02798989  0.028521035            4 
  547000     1.039066   -6.8182163     183.6513  0.027978565  0.028501866           10 
  548000    1.0431732   -6.8527909    183.44531  0.027896184  0.028482088            3 
  549000      1.05241   -6.8818257    183.98698  0.027927593  0.028462843            5 
  550000    1.0253845   -6.8465883    184.09634  0.027893385  0.028443769            3 
  551000    1.0367788   -6.8409545    184.42808  0.027892934  0.028424235            7 
  552000    1.0197747   -6.8797735    183.90968  0.027764142  0.028404353            5 
  553000    1.0337122   -6.8617295    183.87325  0.027708446  0.028384381            6 
  554000     1.010749    -6.830236    184.84316  0.027804327  0.028364666            2 
  555000    1.0146199   -6.9010695    185.00083  0.027777902  0.028344582            3 
  556000    1.0396339   -6.8838039    185.42346  0.027791287  0.028324961            4 
  557000    1.0513223   -6.8773368    185.96564  0.027822507  0.028305637            8 
  558000    1.0319506   -6.8704688    186.02697  0.027781805  0.028286401            4 
  559000    1.0146478   -6.8302961    186.07042  0.027738584  0.028267244            4 
  560000    1.0116183   -6.8850631    185.96647  0.027673582  0.028248185            4 
  561000    1.0092414   -6.8417684    187.14825  0.027799799  0.028228512            7 
  562000    1.0695478   -6.8771214    186.03253  0.027584895  0.028208532            2 
  563000    1.0308161   -6.8906199    186.17473  0.027556946   0.02818821            3 
  564000    1.0183069   -6.8892377    186.77063  0.027596133   0.02816807            3 
  565000    1.0245522    -6.878328    187.16241  0.027605076  0.028147844            6 
  566000    1.0267158   -6.8761623    186.89309   0.02751665  0.028127565            5 
  567000     1.006448   -6.8764259    187.39152  0.027541376  0.028107174            2 
  568000    1.0172434   -6.9423543    186.98433  0.027433147  0.028086861            5 
  569000    1.0178995   -6.8454602    188.54383  0.027613332  0.028066958            5 
  570000    1.0166802     -6.91709    187.89378   0.02746985  0.028046639            8 
  571000    1.0351618   -6.8746891    189.14288  0.027604039  0.028026853            4 
  572000    1.0134874   -6.8964317    188.23103  0.027422936  0.028007824            8 
  573000    1.0390945   -6.8781022    189.02827  0.027491022  0.027988557            2 
  574000     1.017839   -6.8662132    189.40706  0.027498122   0.02796904            7 
  575000    1.0220098   -6.8678072    189.42722   0.02745322  0.027950175            3 
  576000    1.0557533   -6.8820027    189.62909  0.027434765  0.027931144            9 
  577000    1.0380221   -6.8629569    189.65299  0.027390669  0.027912028            2 
  578000    1.0398919   -6.8972931    190.31769  0.027439113  0.027893061           11 
  579000     1.003266   -6.9175094    189.96669  0.027341205  0.027873938            5 
  580000    1.0069601    -6.924937    189.67678  0.027252411  0.027854503            7 
  581000    1.0115223   -6.9220736    190.48002  0.027320715  0.027834925            6 
  582000     1.016707   -6.8642629    190.68633  0.027303312  0.027815953            2 
  583000    1.0189405   -6.8630988    191.11474  0.027317716  0.027797405            4 
  584000     1.027054   -6.8576122    191.54629  0.027332519  0.027778263            2 
  585000    1.0092569   -6.8616385    191.95998  0.027344727  0.027759498            4 
  586000    1.0126218   -6.8757285    191.25687  0.027198076  0.027740527            3 
  587000    1.0373734   -6.9147331    191.62408  0.027203873  0.027721248            5 
  588000    1.0098838   -6.8592279    192.57893  0.027292932  0.027702246            4 
  589000    1.0091154   -6.8504431    192.76146  0.027272419  0.027683109            2 
  590000    1.0137211   -6.8700232    192.77041   0.02722746  0.027664691            4 
  591000    1.0006918   -6.8820098    192.14498    0.0270932  0.027645601            3 
  592000    1.0572393   -6.9455691    192.22907  0.027059272  0.027626322            5 
  593000    1.0327797   -6.9284763     192.9865  0.027120082   0.02760671            6 
  594000    1.0191982    -6.903395    192.87892  0.027059332  0.027587038            3 
  595000    1.0367164   -6.8874086    193.30824  0.027073983   0.02756729            3 
  596000    1.0212368   -6.9019465    193.45025  0.027048413  0.027547811            5 
  597000    1.0001204   -6.9197334    193.27705   0.02697893   0.02752781            5 
  598000    1.0302748   -6.8979993    193.51506  0.026966981   0.02750788            2 
  599000    1.0250759   -6.8872651    194.31841  0.027033725  0.027488586            3 
  600000    1.0054487   -6.9038782    194.37181  0.026996085  0.027469538            4 
  601000    1.0208802   -6.9118163     194.5267  0.026972643  0.027450191            7 
  602000    1.0264771   -6.9360768    194.19672  0.026882159  0.027430654            7 
  603000    1.0407287   -6.8852464     195.2503  0.026983181  0.027410938            4 
  604000   0.99727299   -6.8862273    195.34033  0.026950928  0.027391634            4 
  605000   0.99884826   -6.9116453    195.67317  0.026952227  0.027372588            5 
  606000    1.0067266   -6.9653232    194.88096  0.026798812  0.027352939            3 
  607000    1.0043482    -6.929928    195.03404  0.026775678  0.027333365            3 
  608000    1.0116082   -6.9060119    196.06745   0.02687328   0.02731396            4 
  609000    1.0189152   -6.9270263    195.65209  0.026772316  0.027293967            2 
  610000    1.0034925   -6.9390547    195.89381   0.02676145  0.027274226            2 
  611000    1.0179524   -6.9469532    196.73895  0.026832917  0.027254322            5 
  612000    1.0282054   -6.8945213    195.96694  0.026683952  0.027234622            6 
  613000    1.0361368   -6.9539727    196.20387  0.026672631  0.027214738            4 
  614000   0.99597001    -6.900192    197.05481  0.026744681  0.027194902            4 
  615000    1.0105472   -6.9435196    196.90339  0.026680676  0.027175059            3 
  616000    1.0086773   -6.9503488    196.69782  0.026609554  0.027155413           11 
  617000    1.0269891   -6.9353341    197.09165  0.026619618  0.027135556            4 
  618000    1.0169235   -6.9493862     197.1122  0.026579315  0.027115667            7 
  619000    1.0154697   -6.9663424     197.4659  0.026583993  0.027095697            5 
  620000    1.0053567   -6.9488457    197.70464  0.026573205  0.027075842            5 
  621000   0.98754713   -6.9437689    197.85448  0.026550521  0.027055662           15 
  622000     1.005582   -6.9291284    198.03983  0.026532667  0.027035452            2 
  623000    1.0071577   -6.9273444    198.08582  0.026496231  0.027015225            4 
  624000    1.0000574   -6.9230218    197.79344  0.026414723  0.026994999            4 
  625000   0.98800975   -6.9336983    198.63786  0.026485048  0.026974516            3 
  626000    1.0112523   -6.9702876    197.97581  0.026354607  0.026954028            5 
  627000    1.0242861   -6.9807344    198.16559  0.026337798  0.026933375            3 
  628000    1.0237431   -6.9744203    198.18378  0.026298272  0.026912671            3 
  629000    1.0177188   -6.9181656     199.1751  0.026387798  0.026892157            3 
  630000   0.97564193   -6.9315374    198.48823  0.026255057  0.026871372            5 
  631000   0.99586098   -6.9200389    198.71632  0.026243571  0.026850798            4 
  632000   0.98812484   -6.9802635    199.41401  0.026294042  0.026829708            3 
  633000   0.99820526   -6.9581952    199.58704  0.026275282  0.026808569            9 
  634000   0.99205701   -6.9648302    199.41057  0.026210643   0.02678752            3 
  635000    1.0010622   -6.9452173    200.25019  0.026279552  0.026767183            3 
  636000    1.0101971   -6.9230986    200.61579  0.026286137  0.026747248            6 
  637000    1.0004163    -6.980892    199.99557  0.026163732  0.026727019            3 
  638000   0.99567415   -6.9712757    200.24236  0.026154958  0.026706765            5 
  639000    1.0088797   -6.9737267    200.49614  0.026147123  0.026686375           11 
  640000    1.0026993   -6.9502171    200.76347  0.026141077    0.0266661            6 
  641000   0.99395676   -6.9773803    200.63196  0.026083198  0.026645396            4 
  642000   0.99346537   -6.9384721     201.3134  0.026131023  0.026624917            4 
  643000    1.0035126   -6.9343452    201.87035  0.026162565  0.026604444            6 
  644000   0.98876355   -6.9300785    201.59286  0.026086032  0.026584165            6 
  645000    1.0025904   -6.9675355    201.30613  0.026008544  0.026563832            5 
  646000   0.99145518   -6.9523019    201.34865  0.025973768  0.026543478            5 
  647000   0.97828062   -7.0134759    201.14721  0.025907678  0.026522829            5 
  648000   0.98650238   -6.9633763    201.49631  0.025912592  0.026502099            4 
  649000    1.0041369   -6.9856732    201.49338  0.025872288  0.026481598            7 
  650000    1.0081264   -6.9430642    202.11552  0.025912246  0.026460777            6 
  651000    0.9786736   -6.9822674    202.15714  0.025877771  0.026440302            8 
  652000   0.98982604   -6.9823438    202.93729  0.025937793  0.026419949            7 
  653000      1.00008   -6.9484364    202.51903  0.025844695  0.026399736            3 
  654000   0.98707203   -7.0055254    202.43618  0.025794621  0.026379115            7 
  655000    1.0000832   -6.9661465     203.0457  0.025832787  0.026358225            2 
  656000   0.98815898   -6.9359413    204.21003  0.025941315  0.026337797            4 
  657000    1.0045229   -6.9673486    203.55297  0.025818489  0.026317548           13 
  658000   0.97921221   -6.9770561    203.75376  0.025804681  0.026297471            4 
  659000   0.96450363   -6.9573502    203.98016  0.025794153  0.026277189            8 
  660000   0.98013505    -6.917401    205.07673  0.025893527  0.026257054            6 
  661000    1.0206626   -6.9568386    204.58407  0.025792243  0.026237284            3 
  662000   0.97971531   -6.9642175    204.71128  0.025769295  0.026217209            3 
  663000   0.98241772   -7.0032921    204.66703  0.025724866  0.026196949            6 
  664000   0.98593782   -6.9862431    204.92839  0.025718924  0.026176666            5 
  665000   0.98792956   -6.9638434    204.99331  0.025688385  0.026156912            8 
  666000   0.99970468   -6.9713636    205.12105  0.025665797  0.026136992            4 
  667000   0.98707564   -7.0131442    205.16852  0.025633248  0.026116895            6 
  668000   0.98650737   -6.9959306    205.42044  0.025626302  0.026097007           13 
  669000   0.97518433   -6.9605538    206.54969  0.025728661  0.026077169            2 
  670000    1.0042408   -6.9949653    206.22517  0.025649897  0.026057222           10 
  671000   0.99449357   -6.9965382    206.26005  0.025616002  0.026037387            4 
  672000   0.98214573   -6.9728234    206.60584  0.025620764  0.026017196            3 
  673000   0.98680695   -6.9714634    206.94831    0.0256251  0.025997376            4 
  674000   0.98629195   -7.0033332    206.06031  0.025477289  0.025977395            3 
  675000    1.0147729   -6.9808647    206.86687   0.02553912   0.02595747            4 
  676000   0.97522871   -6.9698141    207.08735   0.02552852  0.025937734            6 
  677000   0.97720662   -7.0296547    206.61953  0.025433227  0.025917887            3 
  678000   0.98885719   -7.0449641    206.99327  0.025441651  0.025898002            4 
  679000   0.97884217   -7.0221085    207.33351  0.025445939  0.025878498            4 
  680000   0.99041161   -6.9845828    207.93777   0.02548257  0.025858927            4 
  681000   0.98099533    -7.005411    207.67313  0.025412767   0.02583928            7 
  682000   0.96949734   -6.9907511     207.7549  0.025385496  0.025819534            3 
  683000   0.97890606   -6.9907396    208.02726  0.025381559  0.025800177           12 
  684000   0.98280682   -7.0240572    208.13989  0.025358173  0.025780471            5 
  685000     0.969013    -6.987962    208.50269  0.025365291  0.025761059            3 
  686000   0.97750294   -6.9597403    209.19494  0.025412408  0.025741819            5 
  687000   0.97358656   -7.0327384    208.22604  0.025257889  0.025722299            5 
  688000   0.96941381     -7.03872    208.84228  0.025295818  0.025702528            4 
  689000    1.0125518   -7.0320642    208.90536  0.025266735  0.025682676            7 
  690000   0.98646769   -7.0186698    209.57329  0.025310783  0.025663041            5 
  691000   0.98249111   -6.9966527     209.8875  0.025312048  0.025643716            7 
  692000   0.95815304    -7.029344    209.97248  0.025285703  0.025624715            2 
  693000   0.96998518   -7.0078664    210.33414  0.025292706  0.025605551            3 
  694000   0.96859892   -7.0646916    210.01438  0.025217866  0.025586666            6 
  695000   0.97471609   -7.0107455    210.75201  0.025270025  0.025567688            6 
  696000   0.97357186   -7.0522822    210.85585   0.02524615  0.025549123            5 
  697000   0.95420828   -7.0253262    211.36167  0.025270405  0.025530517            4 
  698000    0.9676892   -7.0406374    211.42454  0.025241707  0.025512082            3 
  699000   0.96766409   -6.9746052    211.86817  0.025258484  0.025493872            6 
  700000   0.96112952   -6.9504525     212.2355  0.025266131  0.025475468            4 
  701000   0.98076472   -6.9634297     213.3604  0.025363813  0.025457645            3 
  702000   0.98693448    -7.013594     212.3506  0.025207811  0.025439763            7 
  703000   0.96938179   -7.0496277    212.61832  0.025203689  0.025421634           12 
  704000   0.97177054   -7.0394744    212.11876  0.025108754  0.025403279            7 
  705000   0.96889589   -6.9938871    213.20656  0.025201721  0.025384958            4 
  706000   0.97396283   -7.0578093     213.5032  0.025201038  0.025366882            4 
  707000   0.98099079   -6.9999674    213.42439  0.025156104  0.025349035            5 
  708000   0.97752915   -7.0465421    213.74623  0.025158455  0.025330941            5 
  709000   0.99732282   -7.0393832    213.71374  0.025119152  0.025312539            8 
  710000   0.96734758   -7.0576659     213.6643  0.025077969  0.025294554            5 
  711000   0.95946704   -7.0467319    213.26701  0.024996133  0.025276617            3 
  712000   0.97384521   -7.0249059    213.96854  0.025043135  0.025258536           15 
  713000    0.9573758   -7.0388296     214.6686  0.025089832   0.02524054            4 
  714000   0.97170904   -7.0399906    214.59803  0.025046455   0.02522263            6 
  715000   0.97084945   -7.0283952    214.80659  0.025035734  0.025204672            4 
  716000   0.96243749     -7.04429    214.35619  0.024948346  0.025186792            2 
  717000   0.98213326   -7.0487388    214.62332  0.024944597  0.025168971            4 
  718000   0.95488833   -7.0517153    215.14125  0.024969969  0.025150998            5 
  719000   0.97165175   -7.0585375    215.17442  0.024939084  0.025133113            7 
  720000   0.94519735   -7.0613552    214.95317  0.024878839  0.025114958            7 
  721000   0.96831448   -7.0649077     215.0916  0.024860333  0.025096812            3 
  722000   0.94114862   -7.0507861    215.57073  0.024881201  0.025078483           10 
  723000   0.98281027   -7.0489705    215.08759  0.024791101  0.025060204            7 
  724000   0.94169503   -7.0986146    215.58076  0.024813624  0.025042081            4 
  725000   0.96498967   -7.0707167    216.65249  0.024902586  0.025024454            3 
  726000   0.98691097   -7.0767771    215.98644  0.024791832   0.02500663            4 
  727000   0.98473646   -7.0765172    216.37662  0.024802455  0.024988634            8 
  728000   0.98678191   -7.1135115    216.09784  0.024736475   0.02497063            3 
  729000   0.96418645   -7.0357615    216.79254  0.024781955  0.024953002            3 
  730000   0.96991584    -7.075337    217.50911  0.024829808  0.024935661            4 
  731000   0.94149793   -7.0378193    217.64067  0.024810837  0.024918263            8 
  732000   0.96964949   -7.0311562    217.78075  0.024792891  0.024900922            4 
  733000   0.95042669   -7.0431685    217.98808  0.024782638  0.024883609            3 
  734000   0.96459607   -7.0366737    218.38412  0.024793837  0.024866128            3 
  735000   0.94657146    -7.090604    217.33841  0.024641543  0.024848498            6 
  736000   0.97062738    -7.075207    218.07141  0.024691056  0.024830992            6 
  737000   0.95076346   -7.0394115     218.7352   0.02473261  0.024813384            7 
  738000   0.98467232   -7.0557293    218.36294  0.024657062   0.02479578            3 
  739000   0.96583589   -7.0397198    219.04489  0.024700597  0.024778212            4 
  740000   0.96399916   -7.0573727    218.62476  0.024619906  0.024760918            9 
  741000   0.94139249   -7.0253674    218.12115  0.024530043   0.02474332            3 
  742000   0.94148436   -7.0507446    218.86067  0.024580039  0.024725768            8 
  743000   0.95837576   -7.0705736     218.5837  0.024515892   0.02470793            4 
  744000   0.94624895   -7.0884708    218.39641  0.024461964  0.024690192            5 
  745000   0.94627913   -7.0850705    218.68879  0.024461834  0.024672281            5 
  746000   0.99261299   -7.0464044    218.89654   0.02445225  0.024654591            7 
  747000   0.96590023   -7.0570492    219.58968  0.024496841  0.024636601            3 
  748000   0.96021058    -7.103243     219.9273  0.024501704   0.02461885            4 
  749000   0.95206621   -7.0590676    220.62637   0.02454677  0.024601303            6 
  750000   0.95199917   -7.0899117     220.2098  0.024467755  0.024583551            4 
  751000    0.9565832   -7.0770947    220.19933  0.024434014  0.024565776            6 
  752000   0.94318847   -7.0803694    220.09302   0.02438974  0.024548225            3 
  753000   0.94516769   -7.0746851    220.06835  0.024354621  0.024530665            8 
  754000   0.95381107   -7.0928939    220.33442  0.024351726  0.024512868            4 
  755000    0.9721812   -7.0838546    220.22778  0.024307702  0.024495071            4 
  756000   0.96715391   -7.0967634    220.69266  0.024326792  0.024477224            6 
  757000   0.95290206   -7.0961552    220.92723  0.024320479  0.024459451            6 
  758000   0.94715236   -7.0867592    221.12572  0.024310215    0.0244416            6 
  759000    0.9728262   -7.1120549    221.25212  0.024292064  0.024424031            5 
  760000   0.94146603   -7.0673593    221.70436  0.024309689  0.024406864            3 
  761000    0.9549526   -7.1005157    221.71251  0.024278637  0.024389647            7 
  762000   0.96990041   -7.1138763    221.87433  0.024264472  0.024372251            5 
  763000   0.93728983   -7.0699424     222.1059  0.024257962  0.024354846            4 
  764000   0.94549783   -7.1148118    222.06615  0.024221875  0.024337509           11 
  765000   0.94062761   -7.0805391    222.03373   0.02418668  0.024320256            5 
  766000   0.94929392   -7.0942308    222.45586   0.02420103  0.024302769            3 
  767000   0.94314277    -7.131436    221.56121  0.024072274  0.024285167            3 
  768000   0.94774026   -7.0813255    222.53772  0.024146888  0.024267694            8 
  769000    0.9429409   -7.1113888    222.38196  0.024098609  0.024250176           10 
  770000   0.95661198   -7.1161646    222.83551  0.024116397   0.02423275            4 
  771000   0.94259269   -7.1452056    222.10917  0.024006612  0.024214946            2 
  772000   0.94936761   -7.1107086    223.27607  0.024101475  0.024197332            8 
  773000   0.94559909   -7.1333554    223.06809  0.024047875  0.024179512            3 
  774000   0.95080867   -7.1498222    223.27415  0.024038992  0.024161586            6 
  775000   0.93613685      -7.1178    222.88645  0.023966284   0.02414374            5 
  776000   0.94449606   -7.1311573    223.47294  0.023998382  0.024126029            4 
  777000   0.92975445   -7.1221797     223.3031  0.023949281   0.02410852            7 
  778000   0.92936973   -7.0969523    223.87789  0.023980066  0.024091006            3 
  779000   0.93241893   -7.1098704     224.1024  0.023973299  0.024073398            7 
  780000    0.9344345   -7.0846975    224.10829  0.023943193  0.024056324            8 
  781000   0.94138868    -7.101747    224.28356  0.023931237  0.024038922            8 
  782000    0.9529994   -7.0959758    224.44625  0.023917972   0.02402152            7 
  783000   0.96525813   -7.0969031     224.4752  0.023890506  0.024004224            7 
  784000   0.95578698   -7.1265002    224.80662  0.023895261  0.023986786           11 
  785000   0.91729782   -7.1006502    225.47639  0.023935923  0.023969393            6 
  786000   0.92095905   -7.1341653    224.91135  0.023845563  0.023952238            5 
  787000   0.94028093   -7.1093913    224.65124  0.023787721  0.023934636            7 
  788000   0.93818737   -7.1055295    225.62358  0.023860361  0.023917261            5 
  789000   0.92194546   -7.1005575    226.70071  0.023943886  0.023900064            7 
  790000   0.93674257   -7.1078915    225.89525  0.023828613  0.023883003            5 
  791000    0.9519213   -7.1186486    226.17542  0.023828005  0.023865774            3 
  792000   0.92817774   -7.1320505      226.271  0.023807975  0.023848679           12 
  793000   0.92884074   -7.1292443    226.47605  0.023799501  0.023831574            6 
  794000   0.92489327   -7.1509202    225.81623  0.023700277  0.023814242            2 
  795000   0.92882012   -7.1201431    226.53576  0.023745887  0.023796845           13 
  796000   0.94250197   -7.1622109    225.92345  0.023651952  0.023779389           12 
  797000   0.94905224   -7.1336392    225.71231    0.0236002  0.023761942            7 
  798000   0.91798433    -7.092367    227.07114  0.023712525  0.023744652            3 
  799000   0.95015273   -7.1066269    227.19463  0.023695727  0.023727631            8 
  800000   0.93124653   -7.1377419    226.53595  0.023597495  0.023710428           13 
  801000   0.95672665   -7.0978864    226.71611  0.023586777  0.023693409           14 
  802000   0.94849305   -7.1623003    227.11622  0.023598943  0.023676357            5 
  803000   0.90582547   -7.1598156    227.02723  0.023560318  0.023659099            4 
  804000   0.93458555   -7.1547529     228.0751  0.023639625  0.023641947            8 
  805000   0.92220395   -7.1386961    227.30983  0.023531038  0.023624634            4 
  806000   0.92904025   -7.2002119    226.79982  0.023449113  0.023607061           15 
  807000   0.92851004   -7.2059485    226.89095  0.023429466  0.023589464            4 
  808000   0.94880889   -7.1636596    227.31278  0.023443974  0.023571812            6 
  809000   0.93045088   -7.1509056    228.27625  0.023514241  0.023554355            4 
  810000   0.92304212   -7.1185133    228.71865  0.023530726  0.023537328            6 
  811000   0.93054371   -7.1395587    228.34218  0.023463027  0.023520227            8 
  812000    0.9319377   -7.1594989    228.29545  0.023429336  0.023503063           12 
  813000   0.92503332   -7.1283568    228.91246  0.023463762  0.023485829            6 
  814000    0.9192506   -7.1598083    228.22103  0.023364151  0.023468615            4 
  815000   0.93704214   -7.1411629    229.09902  0.023425258  0.023451216            7 
  816000   0.93156722   -7.1298842    228.87982  0.023374165  0.023434032            5 
  817000   0.94062751   -7.1486116    228.90242   0.02334786  0.023417135            5 
  818000   0.94447356   -7.1483734    229.35195  0.023365113  0.023400133            6 
  819000   0.90758365   -7.1401721    228.77639  0.023278021  0.023382845           15 
  820000    0.9172403   -7.1320202    229.19443  0.023292117  0.023365527            5 
  821000   0.90517177   -7.1643699     229.1739  0.023261662  0.023348072            3 
  822000   0.92819457   -7.1828582     228.7902  0.023194465   0.02333042            8 
  823000   0.91245558    -7.174123    228.86929   0.02317429  0.023312717           13 
  824000   0.91565114    -7.154212    229.09305  0.023168796  0.023295149            5 
  825000    0.9244366   -7.1559016    229.81982  0.023214124  0.023277768            4 
  826000   0.93000026   -7.1513699    230.14276    0.0232186  0.023260286            4 
  827000   0.92536734   -7.1765975    229.26057   0.02310163   0.02324264            8 
  828000   0.91331623   -7.1693389    230.40471  0.023188879  0.023225006            6 
  829000   0.93609008   -7.1774846    229.83894  0.023104035  0.023207366           10 
  830000   0.93550235   -7.1742242    230.30204  0.023122695  0.023189666            4 
  831000   0.93377908   -7.1987109    229.79106  0.023043629  0.023171877            7 
  832000   0.92114902   -7.2017369    229.95443  0.023032295  0.023154006            4 
  833000   0.91686367   -7.1987235     229.6962  0.022978812  0.023136052            5 
  834000   0.93191333   -7.1654494    229.30969  0.022912638  0.023118139            5 
  835000   0.92072682   -7.1861884    230.05346  0.022959427   0.02310001            7 
  836000   0.91152197   -7.1934681    229.63555  0.022890306   0.02308188            8 
  837000   0.93058111   -7.1802675    230.24862  0.022923996   0.02306378            4 
  838000   0.92326158   -7.2041564    229.53144  0.022825322  0.023045686            5 
  839000    0.9119675   -7.1559189     230.3344  0.022877871  0.023027638           13 
  840000   0.94003948   -7.1892575    230.46504  0.022863596  0.023009745            7 
  841000   0.92074508   -7.1748806    230.12352  0.022802569  0.022991647            4 
  842000   0.93062925   -7.2038225    230.06416  0.022769612  0.022973604            7 
  843000   0.89772414   -7.1872375    230.72916   0.02280834  0.022955559            4 
  844000   0.91385609   -7.2177324    230.95911  0.022804019  0.022937489            2 
  845000   0.92817164   -7.1884961    231.13529  0.022794408  0.022919668           13 
  846000   0.90036933    -7.215529    231.32201  0.022785856  0.022901795            2 
  847000   0.92010293   -7.1871009    231.68475  0.022794643  0.022883973            5 
  848000   0.91457072     -7.20762    231.64366  0.022763725  0.022866197            8 
  849000   0.94349153   -7.1804308    231.89743   0.02276182  0.022848444            3 
  850000   0.91714812    -7.197293    231.28613  0.022675111  0.022830466            5 
  851000   0.89368719   -7.2024793    232.10419  0.022728573  0.022812352           10 
  852000   0.91239495   -7.2303737     231.2467  0.022618027   0.02279421            5 
  853000   0.93581671   -7.2266371    231.24207  0.022591058  0.022776118            4 
  854000   0.89820787   -7.2128114    231.25103  0.022565479  0.022757952           18 
  855000   0.91027305   -7.2452284    231.52206  0.022565503  0.022739573            5 
  856000   0.91486514   -7.2371323    231.69829  0.022556297  0.022721209            5 
  857000   0.90942444    -7.209688     231.8862   0.02254825   0.02270317            8 
  858000   0.92340994   -7.2305559    231.52439  0.022486829   0.02268498            9 
  859000   0.92340482   -7.2280413    231.88181  0.022495325  0.022666933           10 
  860000    0.9136477   -7.2324045    231.97339  0.022478041   0.02264883            5 
  861000   0.92076893   -7.2225574    231.55021  0.022410976   0.02263058            9 
  862000   0.91835958   -7.1977566    232.40703   0.02246781  0.022612676            6 
  863000    0.8965012   -7.2002675    232.61844   0.02246219  0.022594758           10 
  864000   0.92307726   -7.2377072    232.37002  0.022412232  0.022576972            6 
  865000   0.92131317   -7.2230322    232.99623  0.022446651  0.022558958            7 
  866000   0.89295116   -7.2214979    233.00854  0.022421915  0.022540991            6 
  867000   0.90310537   -7.1780958    233.26431  0.022420637   0.02252326            4 
  868000   0.93209051   -7.2310984    232.79034  0.022349303  0.022505546           13 
  869000   0.92414502   -7.2549101    233.14158  0.022357267  0.022487728            8 
  870000   0.90764461   -7.2268663    233.40927   0.02235721  0.022469916            9 
  871000   0.93217897   -7.2291308     232.7554  0.022268982  0.022452117            6 
  872000   0.89096308   -7.2036505    234.00018  0.022362403  0.022434346            9 
  873000   0.91915192   -7.2231615    233.80234  0.022317902   0.02241667           12 
  874000   0.90151825   -7.2302697    233.97677  0.022308997  0.022398787            8 
  875000   0.90829839    -7.208393    233.92481  0.022278554  0.022380861            3 
  876000   0.91434292    -7.216896    233.96609  0.022257048  0.022363087           10 
  877000   0.90618357   -7.2266265    234.28398  0.022261876   0.02234544           22 
  878000   0.89411725   -7.2445437    233.94088  0.022203956  0.022327673           10 
  879000   0.89007221   -7.2506036    233.94226  0.022178827  0.022309671            8 
  880000   0.90928214   -7.2202556    234.49015  0.022205506  0.022291811           12 
  881000   0.90197996   -7.2410301    234.07138  0.022140691  0.022274182            9 
  882000   0.88933721    -7.228526    234.52601  0.022158542  0.022256496            6 
  883000   0.90392353   -7.2810859    233.96339   0.02208035   0.02223873            7 
  884000    0.8879693   -7.2772033    234.26262   0.02208358  0.022220803            5 
  885000   0.89002231    -7.262929    234.24356  0.022056832  0.022202988            5 
  886000   0.90490258   -7.2450677     234.7565  0.022080182  0.022185392            6 
  887000    0.9036431   -7.2322628    235.29189  0.022105589  0.022167759            3 
  888000   0.90974263    -7.247808    234.85312  0.022039519  0.022150121           18 
  889000   0.90220561   -7.2596437    234.75844  0.022005853  0.022132346            3 
  890000   0.88232116   -7.2553749    234.84235  0.021988984  0.022114593            6 
  891000   0.89848569   -7.2546813    234.68193  0.021949301  0.022096791            7 
  892000   0.89959329   -7.2659646    234.68892  0.021925348  0.022078894           13 
  893000   0.90717927   -7.2565583     235.1832  0.021946921  0.022060894           16 
  894000   0.90417204   -7.2963286    234.25003  0.021835386  0.022042902            9 
  895000   0.91188224   -7.2151638    235.86368  0.021961236  0.022025207            5 
  896000   0.89318531   -7.2328003    236.22606  0.021970429  0.022007571            5 
  897000   0.90982119    -7.259695    235.60386  0.021888133  0.021989901            8 
  898000   0.87272186   -7.2294414    235.90048  0.021891284  0.021972125            7 
  899000   0.89846761   -7.2385573    236.04123  0.021879981  0.021954354            4 
  900000   0.86855003   -7.2467081    236.15568  0.021866267   0.02193653            6 
  901000   0.88778053   -7.2431158    235.74323   0.02180385   0.02191875            6 
  902000   0.89993717   -7.2333193    236.18531   0.02182052  0.021901111           10 
  903000   0.89846296   -7.2020889     236.6344    0.0218378  0.021883509            6 
  904000   0.87565418   -7.2355237       237.01  0.021848267  0.021866002            7 
  905000   0.87523559   -7.2448019    236.80875  0.021805594  0.021848493            6 
  906000   0.88303682   -7.2346664    236.60681  0.021762951  0.021831037            6 
  907000   0.88550846   -7.2299778    236.93421  0.021769038  0.021813497            5 
  908000   0.87328342   -7.2661115    236.88896   0.02174091  0.021796031           12 
  909000   0.87796657   -7.2466155    236.65686  0.021695715  0.021778449            7 
  910000   0.88889542   -7.2824613    237.21685  0.021723154   0.02176088           11 
  911000   0.90338429   -7.2636594    236.66244  0.021648595  0.021743159            7 
  912000   0.88941754   -7.2562318    237.17085  0.021671313  0.021725551            7 
  913000   0.90174366   -7.2406693    237.76839  0.021702117  0.021708113            3 
  914000    0.8777192   -7.2294021    237.21957  0.021628334  0.021690628            4 
  915000   0.89328333   -7.2685667    237.32365  0.021614176  0.021673196            4 
  916000   0.89588603   -7.2721343    237.13527  0.021573442  0.021655561           10 
  917000   0.88666565   -7.2376324    238.06381  0.021634297  0.021638007            2 
  918000   0.86870281   -7.2550103    237.49275  0.021558891  0.021620366            7 
  919000   0.88339463   -7.2919702    237.62676  0.021547585  0.021602911            6 
  920000   0.88070926   -7.2504517    238.05471  0.021562927  0.021585386            9 
  921000   0.88924886   -7.2578287    237.43486  0.021483429  0.021567842            4 
  922000   0.88666778   -7.2624782    238.06732  0.021517292  0.021550264            5 
  923000   0.87586862   -7.2709667    237.57439  0.021449475  0.021532922            9 
  924000   0.87890195   -7.3182498    237.39816  0.021410368   0.02151537           13 
  925000   0.89298929   -7.3072692    238.53705  0.021489825  0.021497912            4 
  926000   0.87716734   -7.3119683    237.79211  0.021399578  0.021480452            6 
  927000   0.88570347   -7.3009535    238.71762  0.021459692  0.021462821           22 
  928000   0.89413927   -7.2590238    238.59107  0.021425204  0.021445344            6 
  929000   0.87334529   -7.2935973    238.88352  0.021428375  0.021427954            9 
  930000   0.87378934   -7.2900197    238.46157  0.021367524   0.02141046           10 
  931000    0.8771962    -7.262979     238.7137  0.021367141  0.021392846            6 
  932000   0.87723569   -7.2925997    238.05313  0.021285151  0.021375282            6 
  933000   0.88312665   -7.3325375    238.00208  0.021257778  0.021357562            6 
  934000   0.88310597   -7.3186863    238.48518  0.021278121  0.021339936            5 
  935000   0.88298894   -7.3107627    238.52315  0.021258748  0.021322496           11 
  936000   0.88643674   -7.3246857    238.25273  0.021211959  0.021304927           10 
  937000   0.88595366   -7.3137345    239.15225  0.021269322  0.021287506            6 
  938000   0.87239041   -7.2990328    239.20384   0.02125123  0.021270095            3 
  939000   0.87222985   -7.2804169    239.16583  0.021225225  0.021252606            5 
  940000   0.88580437   -7.2822349    239.39808  0.021223234  0.021235199            3 
  941000   0.86654726   -7.2912439    238.71034  0.021139775  0.021217758            7 
  942000   0.88490194   -7.2846281     239.7041  0.021205246  0.021200391            9 
  943000   0.88571263   -7.2774372    239.22903  0.021140777  0.021183062           12 
  944000   0.87468378   -7.3020838     239.7723   0.02116634  0.021165734            8 
  945000   0.88221618   -7.3026122    239.97851  0.021162126  0.021148485            6 
  946000   0.89652185   -7.3152679    239.95331  0.021137536  0.021131274            5 
  947000   0.88420669   -7.3073915    239.63283  0.021087014  0.021113896            5 
  948000   0.89333525   -7.3220049    239.43995  0.021047815  0.021096653           11 
  949000   0.86930405   -7.3693755    239.46168  0.021027544  0.021079338            7 
  950000   0.87635551   -7.3048012    240.20001  0.021070176   0.02106207            9 
  951000   0.88912342   -7.3326584    240.10954  0.021040093  0.021044862            4 
  952000     0.887573   -7.3540964    240.43025  0.021046066  0.021027557            6 
  953000   0.87074143   -7.3469782    240.08492  0.020993784  0.021010191           15 
  954000   0.86238452   -7.3321012    240.39064  0.020998484  0.020992897            7 
  955000   0.87128546    -7.321746     240.5029  0.020986291  0.020975611           12 
  956000   0.88277278   -7.3218979    240.85539  0.020995065  0.020958467            7 
  957000   0.85663349   -7.3513297    239.65875  0.020868926  0.020941091            5 
  958000   0.88342532   -7.3358912    240.49022  0.020919469  0.020923671            6 
  959000   0.88943255   -7.3705344    240.11701  0.020865225  0.020906321            9 
  960000   0.88342252   -7.3404782    240.61983  0.020887138  0.020888846           13 
  961000   0.86252883   -7.3289085    240.23809  0.020832301  0.020871409            8 
  962000   0.87487719   -7.3147299    240.81349  0.020860489  0.020853941            7 
  963000   0.87369285   -7.3649329    239.90224  0.020759973  0.020836467           11 
  964000   0.87014746   -7.3689416    240.33372  0.020775736  0.020818895           11 
  965000    0.8592461    -7.376233    240.43793  0.020763206   0.02080124            8 
  966000   0.86310952   -7.3916324    240.13041  0.020715183  0.020783681           25 
  967000   0.86746205   -7.3578207    240.60988  0.020735081  0.020766308            8 
  968000   0.86662594   -7.3386832    241.57437  0.020796692  0.020749152           16 
  969000    0.8641533   -7.3567285     241.3162  0.020753027  0.020732052           12 
  970000   0.88111847   -7.3276686    241.66649  0.020761726  0.020714861            8 
  971000   0.87619768   -7.3629514    241.34372  0.020712643  0.020697768            8 
  972000   0.84421851   -7.3392524    241.56224  0.020710069  0.020680559            8 
  973000   0.87497448   -7.3621258    241.20428  0.020658126  0.020663589            9 
  974000   0.87579059   -7.3508488     241.6185  0.020672356  0.020646552            9 
  975000   0.85410363   -7.3382612    241.38521  0.020631215  0.020629456            6 
  976000   0.86570446   -7.3433878     242.0616  0.020667828  0.020612407           13 
  977000   0.86165544   -7.3881623    241.24963  0.020577417  0.020595384           16 
  978000    0.8671159    -7.365853    242.07579  0.020626771  0.020578272            9 
  979000   0.85769234   -7.3609959    241.45483  0.020552846  0.020561186            6 
  980000   0.88388254   -7.3295933    241.99082   0.02057745  0.020544154           12 
  981000     0.870424    -7.345621    241.68981  0.020530905   0.02052715            5 
  982000   0.85951868   -7.3808296    241.80635  0.020519887  0.020509883            6 
  983000   0.86926669   -7.3943108    240.95076   0.02042648  0.020492562           11 
  984000   0.85233913   -7.3693171    241.58138  0.020459128  0.020475262            7 
  985000   0.86323532   -7.3469842    242.40099  0.020507698  0.020458076            3 
  986000   0.87079551   -7.3935478    241.95674  0.020449353     0.020441           19 
  987000   0.84729093   -7.3552386    242.31997  0.020459302   0.02042384           15 
  988000   0.85778439   -7.3900472    241.84343    0.0203984  0.020406698            6 
  989000   0.86110649   -7.4011926    242.21876    0.0204094   0.02038946            8 
  990000   0.84565824   -7.3697307    241.98467   0.02036908  0.020372264           12 
  991000   0.83430624   -7.3518738    241.84056  0.020336407  0.020355116            7 
  992000   0.83940065   -7.3676257    243.01876  0.020414883   0.02033823            4 
  993000   0.85185845   -7.3544924    242.98374  0.020391384  0.020321378            7 
  994000   0.85475195   -7.3535594    243.05318  0.020376692  0.020304612            4 
  995000   0.85519113   -7.3693594     243.4967  0.020393359  0.020287915            8 
  996000   0.85408642   -7.3323186    243.57895  0.020379765  0.020271341            8 
  997000    0.8717371   -7.3505077    243.69555  0.020369069  0.020254779            8 
  998000   0.83220286   -7.3814304    243.16473  0.020304336  0.020238206            8 
  999000   0.87555141   -7.3675757    244.06216  0.020358872  0.020221629           21 
 1000000   0.87596719   -7.3733487    243.20642  0.020267202  0.020204986            8 
 1001000   0.84467519   -7.3928357    243.67557  0.020286011   0.02018829           12 
 1002000   0.84405061   -7.3321239    244.33889  0.020320932  0.020171667            6 
 1003000   0.84764723   -7.3559827    244.02482  0.020274578  0.020155151            6 
 1004000    0.8431253   -7.3535429     244.6286  0.020304499  0.020138479            4 
 1005000   0.86026584    -7.373568    244.46173  0.020270459  0.020121895            9 
 1006000   0.84384847   -7.3606565    243.97927  0.020210344  0.020105232            5 
 1007000   0.87136149   -7.3959098    243.86804  0.020181069  0.020088412            7 
 1008000   0.84066502   -7.3913582    243.86994  0.020161206  0.020071554            5 
 1009000   0.85486834   -7.4042409    243.66711  0.020124472  0.020054673           12 
 1010000   0.84018898   -7.4051375     243.0193  0.020051097  0.020037728            8 
 1011000   0.82811236   -7.4041997    243.61225   0.02008014  0.020020887           16 
 1012000   0.84623734   -7.4132016    243.85804  0.020080537  0.020004016           10 
 1013000   0.85023588   -7.3972965    244.20546  0.020089294  0.019987084            4 
 1014000   0.84102088   -7.3725354    244.49372  0.020093172  0.019970195            5 
 1015000   0.85306018   -7.4263601    243.63645  0.020002992  0.019953274            6 
 1016000   0.84187608   -7.3890787    244.12156  0.020023094  0.019936439           28 
 1017000   0.82780034   -7.3971255    243.68462  0.019967602  0.019919687           11 
 1018000    0.8559188    -7.414023    243.52843  0.019935202  0.019902906           15 
 1019000    0.8469305   -7.4172397    243.53424  0.019916114  0.019886093           24 
 1020000   0.84518035    -7.415666    244.16066  0.019947766  0.019869372           35 
 1021000   0.83087246   -7.4234322    243.98693  0.019914049  0.019852683           32 
 1022000   0.85463434    -7.400894    244.50406   0.01993673  0.019835951            9 
 1023000   0.86354935   -7.4133714    243.16668  0.019808299  0.019819189            6 
 1024000   0.86725811   -7.4131353    244.23368  0.019875788  0.019802414           16 
 1025000   0.82725863   -7.4188054    244.26504  0.019858946  0.019785676            8 
 1026000   0.83435947   -7.4179243     244.2583  0.019839043  0.019768831           11 
 1027000   0.84145551   -7.4348448    244.17464  0.019812937  0.019752033           19 
 1028000   0.85857413   -7.4638014     243.6604  0.019751978  0.019735024           13 
 1029000   0.84214008   -7.4182438    244.65812  0.019813582  0.019718147           23 
 1030000   0.85158398   -7.4344382    244.21883  0.019758805  0.019701311           28 
 1031000   0.86198176   -7.4128241    244.55059  0.019766456  0.019684497            6 
 1032000   0.83164478   -7.4331796    244.43549  0.019738008  0.019667708           12 
 1033000   0.82898735   -7.4416143    244.23637  0.019702837  0.019650724            8 
 1034000   0.82343396   -7.4201796    244.26905  0.019686416  0.019633892           13 
 1035000   0.84533978   -7.4577596    244.50266  0.019686205  0.019617134            9 
 1036000   0.85241758   -7.4441247    245.84128  0.019774878  0.019600526            8 
 1037000   0.84853147   -7.4228393    245.18204  0.019702832   0.01958393            9 
 1038000   0.82292181    -7.430164    244.98334  0.019667898  0.019567189            5 
 1039000   0.83571225   -7.4553496    244.72923  0.019628587  0.019550502            9 
 1040000   0.84486815   -7.4367203    245.60025  0.019679507  0.019533815            9 
 1041000   0.84344756   -7.4134839    245.63641  0.019663497  0.019517197           13 
 1042000   0.83171056   -7.4325073    245.03304  0.019596372  0.019500481            8 
 1043000   0.82466691   -7.4584537     245.1713  0.019588631  0.019483819           15 
 1044000   0.82787923   -7.4660826    245.02891  0.019558501  0.019467262           16 
 1045000   0.83812937   -7.4702409    245.31561  0.019562648   0.01945074           11 
 1046000   0.82310146   -7.4777227     244.9875  0.019517806  0.019434153           40 
 1047000    0.8378635   -7.4426078    245.72743  0.019558057  0.019417525            9 
 1048000   0.84033342   -7.4619656    245.59988  0.019529252  0.019400971           20 
 1049000   0.84991088   -7.4529569    245.76417  0.019523687  0.019384381           12 
 1050000    0.8598265    -7.449371    245.68503  0.019498812  0.019367936           16 
 1051000   0.84570942    -7.436555    246.26403  0.019526168  0.019351519            7 
 1052000   0.84409478   -7.4538541    245.95586  0.019483195  0.019335218           10 
 1053000   0.83053927   -7.4448743    245.90328  0.019460532  0.019318959            6 
 1054000   0.81555167   -7.4456816    245.88134  0.019440333  0.019302606            7 
 1055000   0.83538499   -7.4514353    246.34472  0.019458509   0.01928629           13 
 1056000    0.8369882   -7.5032344    245.56436  0.019378501  0.019269926           10 
 1057000   0.84260539   -7.4729608    246.12665  0.019404498  0.019253554           12 
 1058000   0.82964243   -7.4452509    246.92585  0.019449106  0.019237247            7 
 1059000   0.83418916   -7.4414849    245.74875  0.019338114  0.019220897            6 
 1060000   0.83467642   -7.4671971    246.28235   0.01936182  0.019204481           10 
 1061000   0.84100549   -7.4462277    246.52666   0.01936276  0.019188213           14 
 1062000   0.83547374   -7.4659824    246.36118  0.019331543  0.019172017            6 
 1063000   0.86258117   -7.4377739    246.31104  0.019309426  0.019155774            7 
 1064000   0.83376582   -7.4261897    247.01407   0.01934634  0.019139641           12 
 1065000   0.81621008   -7.4523392    246.66103   0.01930055  0.019123615            7 
 1066000   0.81620062   -7.4416563    246.61657  0.019278969   0.01910748           17 
 1067000   0.82787785   -7.4873987    246.88591  0.019281936  0.019091372           16 
 1068000    0.8253998   -7.4648158    246.82719    0.0192593  0.019075299           12 
 1069000   0.82506491   -7.4911535    246.63492  0.019226296  0.019059142           15 
 1070000   0.84388041   -7.4659014    246.44957  0.019193892  0.019043057            6 
 1071000   0.83671785   -7.4756471    247.00612  0.019219275  0.019026986           17 
 1072000   0.83641163   -7.4605394    247.51589  0.019240974  0.019010871           27 
 1073000   0.84336647   -7.4714781    247.03132  0.019185409  0.018994676           10 
 1074000   0.83825078   -7.4693841     246.9411  0.019160545  0.018978567            9 
 1075000   0.80948206   -7.4685675     246.9236  0.019141364   0.01896239            9 
 1076000   0.82328637   -7.5115036    246.46791  0.019088283  0.018946136            8 
 1077000   0.82101582   -7.4800912    246.65401  0.019084959  0.018929834           18 
 1078000   0.82203285   -7.4748094    248.05329  0.019175424   0.01891355            9 
 1079000   0.82954904   -7.4686481    246.82989  0.019063168  0.018897445            7 
 1080000   0.81521888    -7.457646     247.1266  0.019068411  0.018881385            5 
 1081000   0.82518886   -7.5026042    246.52277  0.019004223  0.018865327            7 
 1082000   0.80805665   -7.5097554     246.9619  0.019020479  0.018849144           27 
 1083000   0.83757661   -7.4805084    247.34435  0.019032344  0.018832961            8 
 1084000   0.80318964   -7.4946041    247.54461  0.019030182  0.018816784           13 
 1085000   0.82332364   -7.4996666    247.68713  0.019023589   0.01880056           20 
 1086000   0.83998348   -7.5187314    247.29238  0.018975781   0.01878443           10 
 1087000   0.81834336   -7.4817435     247.5414  0.018977415  0.018768254           15 
 1088000   0.81826259   -7.5101958    246.78147  0.018901767  0.018752116           10 
 1089000   0.80126322   -7.4589128    247.20102  0.018916516  0.018735959            8 
 1090000   0.82697486   -7.4928687     247.1169  0.018892729  0.018719773            7 
 1091000   0.81155052   -7.4818955    247.52629  0.018906683  0.018703633           14 
 1092000   0.81964565   -7.4976407     247.6115  0.018895872  0.018687529            8 
 1093000   0.81738825   -7.4695896    247.76906  0.018890596  0.018671431           17 
 1094000   0.81634297   -7.5087779    247.76137  0.018872743  0.018655324            9 
 1095000   0.82530907   -7.4992074    247.50287  0.018835835  0.018639172           12 
 1096000   0.81291001   -7.4658655    247.54532  0.018821876  0.018623132            8 
 1097000   0.82041977    -7.489963    247.76065  0.018821077  0.018607065           15 
 1098000   0.81644621   -7.4950765    247.01081  0.018747026  0.018590976            7 
 1099000   0.79390383   -7.5292663    247.65827  0.018779062  0.018574927            5 
 1100000   0.78478692   -7.5350431    247.00716  0.018712663  0.018558707            9 
 1101000   0.82357246   -7.5024629    248.00105  0.018770894   0.01854251            9 
 1102000   0.79650792     -7.47881    248.39186  0.018783413  0.018526421            9 
 1103000    0.8072461   -7.5079565    247.53937  0.018701978  0.018510273           12 
 1104000   0.81827641   -7.5337884    247.59183  0.018688997  0.018494144           10 
 1105000   0.80343142   -7.5611415    247.13901  0.018637935  0.018477878           15 
 1106000   0.81491702   -7.5383246    247.56991  0.018653549   0.01846174           19 
 1107000   0.80877747   -7.5555471    247.32517  0.018618276  0.018445551           41 
 1108000    0.8110297    -7.553935    247.79066  0.018636482  0.018429304           34 
 1109000   0.82037577   -7.5335082     247.1677  0.018572866  0.018413035           34 
 1110000   0.79707892   -7.5369976    247.01632  0.018544769  0.018396949           20 
 1111000   0.81476904   -7.5420109    248.11186  0.018610251  0.018380806           16 
 1112000   0.80567291   -7.5579724    247.79322  0.018569636  0.018364682           31 
 1113000   0.81255499    -7.551226    247.57432  0.018536562  0.018348494           31 
 1114000   0.82147801    -7.547746    247.62875  0.018523994  0.018332362           19 
 1115000   0.82397926    -7.539624    247.39829  0.018490156  0.018316112           21 
 1116000   0.79448595   -7.5660911     247.8272  0.018505615  0.018299822           26 
 1117000   0.81399058   -7.5394945    247.68213  0.018478225  0.018283657           17 
 1118000   0.82144963   -7.5354907    247.91565  0.018479104  0.018267533            9 
 1119000   0.82215868   -7.5398688    248.30591  0.018491652  0.018251519           17 
 1120000   0.79849527   -7.5327047    248.04835  0.018455978  0.018235459           16 
 1121000   0.79126016   -7.5409555    247.93926  0.018431405  0.018219372           13 
 1122000   0.80109455   -7.5580599     247.1976  0.018359893  0.018203283           13 
 1123000   0.80433716   -7.5628701    247.90085  0.018395729  0.018187082           12 
 1124000   0.78959709   -7.5721835    247.70415   0.01836478   0.01817086           21 
 1125000   0.81414836   -7.5522268    247.51257  0.018334264  0.018154805           31 
 1126000   0.80975516   -7.5699388    247.40057  0.018309693  0.018138728            7 
 1127000   0.79769922    -7.558241    248.12653  0.018347126  0.018122761           17 
 1128000   0.81552812   -7.5190591    248.26305  0.018340947  0.018106868            5 
 1129000   0.82495179   -7.5594397    247.86216  0.018295111  0.018090899            6 
 1130000   0.80266952   -7.5425603    247.38892   0.01824402  0.018074805            8 
 1131000   0.79154536   -7.5516296     247.6436  0.018246655   0.01805869           19 
 1132000   0.81507143   -7.5422575    248.00764  0.018257335  0.018042555           23 
 1133000   0.78464368   -7.5801421    247.33454  0.018191714  0.018026416           28 
 1134000   0.79583892   -7.5704379    247.35099  0.018176881  0.018010208           60 
 1135000   0.80460397   -7.5882975    247.71618  0.018187678  0.017994002           27 
 1136000    0.7957533    -7.585596    247.44838  0.018152023  0.017977825           13 
 1137000   0.79089755    -7.559774    247.74551  0.018157835  0.017961651           13 
 1138000   0.80181503   -7.5709723    248.24102  0.018178165  0.017945533           24 
 1139000   0.79974697   -7.5668205    247.53488  0.018110541  0.017929461           11 
 1140000   0.80135606   -7.5558234    248.30768  0.018151146  0.017913346           28 
 1141000   0.78859065   -7.5765808    247.05501  0.018043749  0.017897279           25 
 1142000   0.80028822   -7.5695044    247.21187  0.018039395  0.017881156            9 
 1143000   0.78880004   -7.5792077     247.6327  0.018054294  0.017865041           24 
 1144000   0.79338943   -7.5550392    247.91126  0.018058804  0.017848907           22 
 1145000   0.81825337   -7.5820904    247.54226  0.018016176  0.017832817           13 
 1146000   0.80228575   -7.5777729    247.36613  0.017987647  0.017816654           16 
 1147000   0.80011553   -7.5849598    247.57559  0.017987183  0.017800529           27 
 1148000   0.80658765   -7.5588417    248.09011  0.018008864  0.017784459           32 
 1149000   0.79214661   -7.5831669    248.31347   0.01800939  0.017768383           24 
 1150000   0.80492611   -7.6006186    248.31046  0.017993512  0.017752268           24 
 1151000   0.79880931   -7.5984471    247.54116  0.017922181  0.017736085           41 
 1152000   0.78816479   -7.5619684    247.89318  0.017932088  0.017719981           41 
 1153000   0.79220811   -7.5838988    247.65435  0.017899274  0.017703875           23 
 1154000   0.79603356   -7.6016936    247.58452   0.01787872  0.017687813           41 
 1155000    0.8145051   -7.6016382    247.75833  0.017875782  0.017671755           24 
 1156000   0.78506236   -7.5958856    247.45327  0.017838327  0.017655733           31 
 1157000   0.78365284   -7.5625902    247.79772  0.017847718  0.017639697           38 
 1158000   0.80507042   -7.5887871    247.72538    0.0178271  0.017623697           31 
 1159000   0.80926075   -7.5940561    247.84512  0.017820328  0.017607615           36 
 1160000   0.78897525   -7.5943207    247.72634  0.017796432  0.017591562           30 
 1161000   0.77351507   -7.6174563    247.75127  0.017782894  0.017575544           27 
 1162000   0.78670849   -7.5910228    247.60267  0.017756933  0.017559528           18 
 1163000    0.7881791   -7.5745954    247.69319   0.01774815  0.017543486           19 
 1164000   0.79984756   -7.5985044    248.20378  0.017769458  0.017527502           11 
 1165000   0.78275557   -7.6171383    247.87811  0.017730909  0.017511549           19 
 1166000   0.78465847    -7.595642    247.88146  0.017715942  0.017495604           34 
 1167000   0.79825094   -7.6032147    248.29074  0.017729987  0.017479717           13 
 1168000   0.78241045   -7.6208656    247.53605  0.017660963  0.017463725           24 
 1169000   0.77958063   -7.6213492      248.036  0.017681494  0.017447766           18 
 1170000    0.7897448   -7.5491259    247.99191  0.017663241  0.017431909           24 
 1171000   0.77700176   -7.5960889    247.94865  0.017645079  0.017416111           23 
 1172000   0.77104959   -7.6039223    247.77987  0.017618022  0.017400241           19 
 1173000   0.79241984   -7.6242062    247.97686  0.017616998  0.017384388           40 
 1174000   0.78116643   -7.6134155    248.23483  0.017620303  0.017368613           38 
 1175000   0.78377038   -7.6036608    248.31672  0.017611115  0.017352764           43 
 1176000    0.7787067   -7.6142174    247.81862  0.017560843  0.017336943           15 
 1177000   0.78558387   -7.5985009    248.22871  0.017574958  0.017321132           18 
 1178000   0.76503464   -7.6409214    247.96067  0.017541077  0.017305265           22 
 1179000   0.78185025   -7.5906963    248.18272  0.017541894   0.01728942           13 
 1180000   0.78350518   -7.6177423    248.04252  0.017517127  0.017273707           16 
 1181000   0.78666861   -7.5747634    248.98062  0.017568489  0.017257981           16 
 1182000   0.79242574    -7.614767    248.28797  0.017504792  0.017242217            9 
 1183000   0.79056042   -7.6190086     248.5487  0.017508361   0.01722642           17 
 1184000   0.77415181   -7.6485204    248.06952  0.017459848  0.017210571           27 
 1185000   0.78423429     -7.62977    248.31071  0.017462075  0.017194757           12 
 1186000    0.7812047   -7.6249659    248.26191  0.017443923   0.01717893           35 
 1187000   0.77569103   -7.6236083     248.2051  0.017425239  0.017163146           17 
 1188000   0.77196831   -7.6192744    248.16821  0.017407983  0.017147325           11 
 1189000   0.78819544   -7.6386355    248.41457  0.017410609  0.017131491            9 
 1190000   0.77641616   -7.6206139    247.96931  0.017364797  0.017115616           19 
 1191000   0.78580775   -7.6429482    247.69482  0.017331012  0.017099822           14 
 1192000   0.78777454   -7.6670422    247.20495  0.017282225  0.017083956           12 
 1193000   0.77069973   -7.6289504    247.76047  0.017306543  0.017068119           24 
 1194000    0.7839196   -7.6324281    247.86942  0.017299653  0.017052264            8 
 1195000   0.75848008   -7.5957864     248.6824  0.017341869  0.017036459           13 
 1196000   0.78460205    -7.623338    248.25668  0.017297706  0.017020721           14 
 1197000   0.77936395   -7.6368422    247.48127  0.017229272  0.017005011           12 
 1198000   0.77285689   -7.5936938    248.41052   0.01727953  0.016989283           10 
 1199000   0.76710177   -7.6382173    247.45246  0.017198531  0.016973527           14 
 1200000   0.78543701   -7.6141258    248.52372  0.017258592  0.016957874           20 
 1201000    0.7629433   -7.6340313    247.12565  0.017147214  0.016942145            8 
 1202000   0.80204954   -7.6221575    247.83478  0.017182112  0.016926399           18 
 1203000   0.78690992   -7.6468976    248.21807   0.01719438  0.016910644           22 
 1204000   0.77568099   -7.6370102    248.03446  0.017167391  0.016894882           16 
 1205000   0.80051533   -7.6385607    247.63466  0.017125495  0.016879121           17 
 1206000   0.77865197   -7.6449098    247.71636   0.01711694  0.016863351           16 
 1207000   0.75457642   -7.6796469    248.31267  0.017143929  0.016847538           14 
 1208000   0.76684564    -7.678347    247.56682  0.017078285  0.016831761           17 
 1209000   0.75635105   -7.6506715    247.30356  0.017046013  0.016815992           14 
 1210000   0.78869303   -7.6602356     247.4013  0.017038657  0.016800205           11 
 1211000   0.76215617    -7.658884    248.01027  0.017066492  0.016784465           19 
 1212000   0.78396359   -7.6927391    247.18821  0.016995889  0.016768731           12 
 1213000   0.78018062   -7.6984895    247.24704  0.016985919  0.016752936           18 
 1214000   0.76290894   -7.6903151     247.5379  0.016991893  0.016737149           22 
 1215000   0.75680664   -7.6671681    248.16584  0.017020977  0.016721447           14 
 1216000   0.78228505   -7.6833106    247.52651  0.016963165  0.016705763           15 
 1217000   0.78171122   -7.6727479    248.08109  0.016987201  0.016690049           19 
 1218000    0.7744633   -7.6907951    248.00032  0.016967729  0.016674456           24 
 1219000   0.77408564   -7.6690436     248.1502  0.016964055  0.016658872           24 
 1220000   0.76761616   -7.6930863    247.66666  0.016917121  0.016643305           20 
 1221000   0.77895849    -7.677155    248.39515  0.016952986  0.016627754           28 
 1222000   0.74989064   -7.6821009    247.99588  0.016911885  0.016612224           18 
 1223000   0.76126899   -7.6644184    248.03174    0.0169005   0.01659669           22 
 1224000   0.75763322   -7.6952881      247.468  0.016848311  0.016581186           27 
 1225000   0.74081679   -7.6592845     248.2037  0.016884605  0.016565772           16 
 1226000   0.75961495   -7.6877274    248.34343  0.016880331  0.016550322           37 
 1227000    0.7558398   -7.6323463    249.15393   0.01692162   0.01653489           16 
 1228000   0.78042924   -7.6562201    248.48267  0.016862288  0.016519533           37 
 1229000   0.76961284   -7.6925888    248.20989  0.016830071  0.016504184           14 
 1230000   0.75147249    -7.687123    247.73151  0.016783978  0.016488773           33 
 1231000   0.77698303   -7.7086586    248.09339  0.016794841  0.016473412           10 
 1232000   0.75857851   -7.6792804    248.58296  0.016814323  0.016458006           19 
 1233000   0.76572012    -7.679623    248.42819  0.016790226  0.016442658           21 
 1234000   0.76187846   -7.7000833    247.74425  0.016730433   0.01642738           19 
 1235000   0.76514685   -7.7029354    248.47679  0.016766315  0.016412047           18 
 1236000   0.76886602   -7.6776741    248.09416  0.016726952  0.016396745           23 
 1237000   0.75993703   -7.6849761    248.67803  0.016752764  0.016381397           46 
 1238000   0.75195804   -7.7089841    248.17841  0.016705601  0.016366163           24 
 1239000   0.75264707   -7.6982525    248.26317  0.016697819  0.016350849           39 
 1240000   0.75641824   -7.7165925    247.99579  0.016666384   0.01633556           19 
 1241000   0.75468484   -7.6938021    248.52314  0.016688365  0.016320274           78 
 1242000   0.74339761   -7.7363415    248.84103  0.016696258  0.016305039           33 
 1243000   0.77057421   -7.6966255    248.73056   0.01667542  0.016289783           59 
 1244000   0.75909079   -7.7522651    248.57092  0.016651321  0.016274547           51 
 1245000   0.75386027   -7.6884101    248.30897  0.016620413  0.016259352           17 
 1246000   0.74769238    -7.679629    248.86843  0.016644491  0.016244212           33 
 1247000   0.74526804    -7.699162    248.83052   0.01662861   0.01622903           34 
 1248000   0.75632159   -7.6762075    248.82992  0.016615246  0.016213838           37 
 1249000   0.74381578   -7.7084711    247.94103  0.016542636  0.016198635           30 
 1250000   0.76025406   -7.7144349    248.58403  0.016572268  0.016183423           23 
 1251000   0.74900748   -7.6834255    247.94428  0.016516406  0.016168278           22 
 1252000   0.76037425   -7.7045943    248.14194   0.01651637  0.016153123           21 
 1253000   0.74388543   -7.7127889    247.83586  0.016482832  0.016138038           22 
 1254000   0.74714453   -7.7197128    247.87141   0.01647205  0.016122953           15 
 1255000   0.74525592    -7.713795    247.99113  0.016466875  0.016107865           18 
 1256000   0.73557003   -7.7410911     248.0619  0.016458459  0.016092783           15 
 1257000   0.74947039    -7.726119    247.97015  0.016439284  0.016077703           24 
 1258000   0.73990484   -7.7109781    248.13386   0.01643706  0.016062617           21 
 1259000   0.76329949   -7.7138444    248.89044  0.016474083  0.016047514           18 
 1260000    0.7435829   -7.7328009    248.36233   0.01642608  0.016032466           21 
 1261000   0.75624538   -7.7299863    248.71941  0.016436652  0.016017365           24 
 1262000    0.7410454   -7.7348439    247.93484   0.01637182  0.016002223           35 
 1263000   0.74170918    -7.716967    248.51989  0.016397459  0.015987164           44 
 1264000   0.74672488   -7.7378581    247.98734  0.016349377  0.015972069           26 
 1265000   0.74589996   -7.7205408    247.50828  0.016304893  0.015956963           27 
 1266000   0.75825959   -7.7296359    248.45758  0.016354501  0.015941794           18 
 1267000   0.74943019   -7.7535048    247.42092   0.01627341   0.01592668           22 
 1268000   0.74775949   -7.7416049    248.35745  0.016322125  0.015911612           28 
 1269000   0.73512308   -7.7583999    247.85655  0.016276369  0.015896574           51 
 1270000    0.7475365   -7.7342676    248.62213  0.016313788  0.015881562           36 
 1271000    0.7564584   -7.7398719    248.13905   0.01626928  0.015866538           32 
 1272000   0.73542899   -7.7356116     248.7637  0.016297412  0.015851565           43 
 1273000   0.71896434   -7.7298244    248.41294  0.016261648  0.015836646           88 
 1274000   0.75560652   -7.7424988    248.40562  0.016248405  0.015821698           41 
 1275000   0.72572574    -7.717583    248.86793  0.016265878  0.015806817           16 
 1276000   0.75531881   -7.7194268    248.35141  0.016219397  0.015791902           30 
 1277000   0.75284972   -7.7269151    248.30571  0.016203714  0.015777037           30 
 1278000   0.73791651   -7.7550405    248.31564  0.016191682  0.015762122           25 
 1279000   0.73793254   -7.7205655    248.31661  0.016179086  0.015747269           32 
 1280000   0.74704636   -7.7836149    248.37188  0.016170044  0.015732349           42 
 1281000   0.72132855   -7.7917377    247.63046   0.01610919   0.01571746           48 
 1282000   0.74425551   -7.7700312    247.88864  0.016113406  0.015702628           35 
 1283000   0.72588244   -7.7593988    248.49878  0.016140477  0.015687818           32 
 1284000    0.7338522   -7.7403149    248.85014   0.01615071  0.015673034           39 
 1285000   0.73328511   -7.7531949    248.71647  0.016129473  0.015658225           19 
 1286000   0.74485427   -7.7583731    248.83835  0.016124828  0.015643486           75 
 1287000   0.74056562   -7.7661915    248.76865  0.016107786  0.015628723           45 
 1288000   0.72812039   -7.7710492    248.43378  0.016073614  0.015613954           38 
 1289000   0.74951106   -7.7606318    247.98175  0.016031921  0.015599259           71 
 1290000   0.73121075   -7.7534703    248.69798  0.016065761  0.015584578           20 
 1291000   0.73681139   -7.7607502    248.41359  0.016034959  0.015569922           69 
 1292000   0.74002854   -7.7688133    248.40963  0.016022293  0.015555315           58 
 1293000   0.73268318   -7.7774616    248.96242  0.016045529  0.015540735           61 
 1294000   0.73334951   -7.7542908    248.87818  0.016027703  0.015526122           36 
 1295000   0.72766898   -7.7953233    248.12905   0.01596712  0.015511514           89 
 1296000    0.7369828   -7.7557561    248.97928   0.01600947  0.015496931           34 
 1297000   0.73129128   -7.7874058    248.51311  0.015967175  0.015482331           93 
 1298000   0.73488144   -7.7982032    248.59494  0.015960127  0.015467765           83 
 1299000   0.74136136   -7.7500977    249.21839  0.015987836  0.015453246           38 
 1300000   0.74104052   -7.7660757    249.21301  0.015975193  0.015438772           24 
 1301000    0.7372392   -7.7690184    249.12241   0.01595711  0.015424281           27 
 1302000   0.73280501   -7.7933685    248.65449  0.015914906  0.015409765           63 
 1303000   0.73013271   -7.7794058    248.06071  0.015864716  0.015395205           21 
 1304000    0.7284868   -7.8297292    248.08084  0.015853837  0.015380629           27 
 1305000    0.7400592   -7.7747909    248.52476  0.015870036  0.015366101           24 
 1306000   0.73100601   -7.7550906    248.72981  0.015870968  0.015351617           29 
 1307000    0.7347095   -7.7846872    248.11209   0.01581944  0.015337163           47 
 1308000   0.72916108    -7.815502    247.74439  0.015783919  0.015322683           46 
 1309000   0.73961768   -7.7800725    248.71045  0.015833362  0.015308178           38 
 1310000   0.72345052   -7.7957052    249.02381  0.015841209  0.015293744           44 
 1311000   0.71269555    -7.807888    248.53577  0.015798104  0.015279338           37 
 1312000   0.73725627   -7.8074879    248.37651  0.015775947  0.015264862           40 
 1313000    0.7372378    -7.792806    248.71545  0.015785444  0.015250393           49 
 1314000   0.73344588   -7.7963795    248.79645  0.015778568  0.015235951           33 
 1315000   0.72901561   -7.7895029    249.14749  0.015788815  0.015221558           50 
 1316000    0.7212772   -7.7718764     248.4748   0.01573422  0.015207189           48 
 1317000    0.7359499   -7.8100871    248.86004  0.015746649   0.01519282           61 
 1318000   0.73533993   -7.7932138     248.6091  0.015718835  0.015178484           65 
 1319000   0.71225599   -7.7796799    248.70597  0.015713038  0.015164144          134 
 1320000   0.73112815   -7.8352839    247.59114  0.015630754   0.01514976           81 
 1321000   0.73495347   -7.8183733    247.78968  0.015631446  0.015135381           49 
 1322000   0.73517598   -7.8066001    248.83519  0.015685526  0.015121084           30 
 1323000    0.7273908   -7.8026103    248.23595  0.015635925   0.01510677           38 
 1324000   0.72626778   -7.7965242    248.52686  0.015642426  0.015092497           60 
 1325000   0.72976652   -7.7787715    248.71772  0.015642624  0.015078184           39 
 1326000   0.73200288   -7.8060229    248.86971  0.015640379  0.015063916           45 
 1327000   0.73078242   -7.8123169    248.31895  0.015594006  0.015049649           33 
 1328000   0.72236759   -7.8234008    247.89328  0.015555552  0.015035336           28 
 1329000   0.71878623   -7.8335455    248.18358  0.015562051  0.015021036           54 
 1330000   0.73041739   -7.8029658    248.60459  0.015576729  0.015006799           57 
 1331000   0.73430797   -7.8104158    248.41321  0.015553043  0.014992579           36 
 1332000   0.72704182     -7.81002    248.36114  0.015538109  0.014978368           73 
 1333000   0.72372247   -7.8182482     248.6928  0.015547187  0.014964161           74 
 1334000     0.723563   -7.8334424    248.44276  0.015519913  0.014949971           63 
 1335000   0.71327805   -7.8439805    247.89561  0.015474133  0.014935773           38 
 1336000   0.71688937   -7.8297212    247.77863  0.015455254  0.014921599           78 
 1337000   0.71906639   -7.8581738     248.1291  0.015465538  0.014907437           95 
 1338000   0.71743276   -7.8471654    247.72632  0.015428894  0.014893267          106 
 1339000   0.71665325   -7.8238633    248.19569  0.015446583  0.014879136           37 
 1340000   0.71648282   -7.8157327    248.70795  0.015466912  0.014865019           58 
 1341000   0.72009226   -7.8498172    248.24276   0.01542647  0.014850896          120 
 1342000   0.72633445   -7.8572971    248.38785  0.015423985  0.014836738          141 
 1343000   0.71462201    -7.864749    248.44359  0.015415959  0.014822608          116 
 1344000   0.70468965   -7.8728727    247.97917  0.015375692  0.014808492          122 
 1345000    0.7310997   -7.8758197     248.4939  0.015396152  0.014794364          148 
 1346000   0.70985345   -7.8521415    248.16151  0.015364135   0.01478026          178 
 1347000   0.71487756   -7.8652161    247.68821  0.015323448  0.014766145           94 
 1348000   0.71193427   -7.8649711    248.00373  0.015331585  0.014752047           80 
 1349000   0.72500604   -7.8655677    247.73404   0.01530356  0.014737939           92 
 1350000   0.70817021   -7.8728126    247.69114  0.015289576  0.014723834          149 
 1351000   0.71718469   -7.8884638    248.04138  0.015299863  0.014709741          151 
 1352000   0.69657367   -7.8819905    248.10776  0.015292638  0.014695653          165 
 1353000   0.72116309   -7.8672204    247.91452  0.015269433  0.014681575          233 
 1354000   0.69907617   -7.8811023    247.65906  0.015242434  0.014667465          125 
 1355000   0.70475927   -7.8919912    247.47092  0.015219613  0.014653373          119 
 1356000   0.70980738   -7.8780646    247.69811  0.015222352  0.014639329          132 
 1357000   0.71168777   -7.8751484    248.00392  0.015229914  0.014625269          309 
 1358000   0.71263679   -7.8632032     247.7069  0.015200473  0.014611249          123 
 1359000   0.70764651   -7.8890613    247.54265  0.015179216  0.014597239          122 
 1360000   0.70144399   -7.8737404    248.09558  0.015201935  0.014583191          118 
 1361000   0.71352931   -7.8797816     247.5872  0.015159637  0.014569146          103 
 1362000     0.698968   -7.8867484    247.49268  0.015142724  0.014555153          176 
 1363000    0.7115077   -7.8736866    247.59777  0.015138039  0.014541199          113 
 1364000   0.70794084   -7.8704592    247.95566  0.015148806  0.014527239          110 
 1365000   0.71006072   -7.8633778    248.02877  0.015142172  0.014513306          368 
 1366000   0.69853718   -7.8818293    247.16867  0.015078616  0.014499355          179 
 1367000    0.6981863   -7.8642225    247.83993  0.015108506  0.014485414          126 
 1368000   0.71190974   -7.8538807    247.48348  0.015075748  0.014471471          121 
 1369000   0.70210118   -7.8967057      247.917  0.015091125  0.014457556          121 
 1370000   0.70561839   -7.8948788    247.41824  0.015049771  0.014443619          198 
 1371000   0.69284881   -7.8803884    247.88119  0.015066933  0.014429768          306 
 1372000    0.7064401   -7.9026751    247.62571  0.015040434  0.014415843          193 
 1373000   0.69532725   -7.9043334    247.46189  0.015019537  0.014401947          165 
 1374000   0.69802731   -7.9105794    247.74463  0.015025754  0.014388084          233 
 1375000   0.70943268   -7.9239583    247.80321  0.015018376  0.014374227          152 
 1376000   0.70347786   -7.8906739     247.8013  0.015007346  0.014360411          131 
 1377000   0.72130992   -7.9225419    247.53138  0.014980113  0.014346629          279 
 1378000   0.70949748   -7.8885676    247.87593  0.014990078  0.014332856          158 
 1379000   0.71445359   -7.9218894    247.09288  0.014931888  0.014319068          251 
 1380000   0.70191497   -7.9081448     247.4227  0.014940984  0.014305279          245 
 1381000   0.69231253   -7.9271591    247.68032  0.014945711  0.014291503          237 
 1382000    0.6979509    -7.932979    247.21981  0.014907128  0.014277724          194 
 1383000   0.69810396   -7.8896539    247.51052  0.014913866  0.014263989          207 
 1384000    0.6868427   -7.9138381    247.52091  0.014903716  0.014250276          354 
 1385000   0.70487783   -7.9124579    247.54252  0.014894255  0.014236599          121 
 1386000   0.71741947   -7.9152907    247.63735   0.01488921  0.014222928          192 
 1387000   0.69653617   -7.9217102    247.37603  0.014862775  0.014209217          156 
 1388000   0.70201712   -7.9109704     247.2151  0.014842405  0.014195519          173 
 1389000   0.69648083   -7.9320984    247.52635  0.014850393  0.014181822          150 
 1390000   0.69685269    -7.924532    247.50506  0.014838433  0.014168133          270 
 1391000   0.69691323    -7.923563    247.19382  0.014809119  0.014154451          197 
 1392000   0.69301253   -7.9334118    247.60054  0.014822829  0.014140747          295 
 1393000   0.68158606   -7.9113643      246.946  0.014773032  0.014127077          365 
 1394000   0.69681463   -7.9402449    247.48792   0.01479483  0.014113436          298 
 1395000   0.70211762   -7.9166884    247.29676  0.014772806  0.014099776          192 
 1396000    0.6824168    -7.903924    247.47219  0.014772695   0.01408615          233 
 1397000   0.68637713   -7.9629499    246.89361  0.014727607  0.014072532          144 
 1398000   0.70128751   -7.9015306      247.681  0.014764008  0.014058902          246 
 1399000    0.6840328   -7.9369566    247.00905  0.014713429  0.014045307          269 
 1400000   0.70806693   -7.9331181    247.39042   0.01472562  0.014031687          232 
 1401000   0.68652394   -7.9534535    246.63499  0.014670175    0.0140181          201 
 1402000   0.70491466   -7.9488774    247.18132  0.014692185  0.014004504          173 
 1403000   0.69905753   -7.9692387     247.1614   0.01468053  0.013990897          149 
 1404000   0.69343787   -7.9630156    246.14952  0.014610014  0.013977311          294 
 1405000   0.70366082   -7.9674059    246.89046  0.014643562  0.013963762          377 
 1406000   0.68512392   -7.9478312    247.04679  0.014642413  0.013950275          214 
 1407000   0.69182386   -7.9298046    247.12226  0.014636476  0.013936719          407 
 1408000   0.69129111   -7.9389924    246.77296  0.014605407  0.013923218          213 
 1409000   0.68029898   -7.9332908    246.72121  0.014591981  0.013909714          254 
 1410000    0.6954214   -7.9300366    246.78455  0.014585375  0.013896246          252 
 1411000    0.6880446   -7.9218076    247.23898  0.014601877  0.013882793          314 
 1412000   0.69226839   -7.9627524    246.68055  0.014558578  0.013869347          362 
 1413000   0.69222732    -7.936799      247.056  0.014570417  0.013855923          241 
 1414000   0.69183051   -7.9486554    246.71534  0.014540036  0.013842462          216 
 1415000   0.68957696   -7.9682197    246.43946  0.014513514  0.013829031          169 
 1416000   0.70099087   -7.9407513    246.70844  0.014519094  0.013815598          126 
 1417000   0.68616729   -7.9552313    246.79471  0.014513921   0.01380221          363 
 1418000   0.69831459   -7.9591213    246.77387  0.014502461  0.013788849          205 
 1419000    0.6858239   -7.9389318    247.21381  0.014518077  0.013775485          199 
 1420000   0.68825916   -7.9562316    246.63792  0.014474056  0.013762136          171 
 1421000   0.67911097   -7.9486212    246.46901  0.014453965  0.013748803          204 
 1422000   0.70042707   -7.9671901     246.6689  0.014455514  0.013735449          288 
 1423000    0.6882074   -7.9665604    246.95559  0.014462145  0.013722125          213 
 1424000   0.70920461   -7.9582448    247.47757  0.014482535  0.013708801          222 
 1425000   0.68952873   -7.9505209    246.34811  0.014406322  0.013695494          349 
 1426000   0.67815444   -7.9316424    246.38979  0.014398655  0.013682196          435 
 1427000   0.68868575   -7.9621515    246.87979   0.01441718  0.013668938          189 
 1428000    0.6886715   -7.9596107    246.84562   0.01440509  0.013655689          268 
 1429000   0.68302101   -7.9621548    247.04801  0.014406812  0.013642458          428 
 1430000   0.67511688    -7.964665     246.2719  0.014351509  0.013629224          443 
 1431000   0.67852921   -7.9594319    246.55617  0.014358035  0.013616056          479 
 1432000   0.68030972   -7.9642402    247.17115  0.014383796  0.013602882          406 
 1433000   0.67794089   -7.9562624    247.34871  0.014384084  0.013589745          546 
 1434000   0.66714223    -7.961826    246.91066  0.014348597  0.013576586          409 
 1435000   0.68285208   -7.9546955    246.68129  0.014325278  0.013563442          239 
 1436000   0.67005667   -7.9506671    246.63419  0.014312569  0.013550341          416 
 1437000   0.68681385    -7.986917    246.56701  0.014298713  0.013537222          345 
 1438000   0.68196266   -7.9765737    247.25098  0.014328406  0.013524109          379 
 1439000   0.67086649   -7.9637758    246.83246  0.014294212  0.013511015          365 
 1440000   0.66244227    -7.956011    246.56289  0.014268686  0.013497948          458 
 1441000   0.67264367   -7.9866661    246.74339  0.014269222  0.013484888          263 
 1442000   0.66875099   -7.9751415    246.73853  0.014259046  0.013471838          322 
 1443000   0.67265381   -7.9603663    246.61565  0.014242068  0.013458774          458 
 1444000   0.68320806    -7.970489    247.27446  0.014270225  0.013445778          451 
 1445000   0.68473329   -7.9674354     247.2434  0.014258558  0.013432806          501 
 1446000   0.67761706    -7.970225    246.49544  0.014205593  0.013419855          500 
 1447000   0.67261674   -7.9646723    246.45688  0.014193554  0.013406868          412 
 1448000   0.68169403    -7.973699    246.74934  0.014200583  0.013393888          422 
 1449000   0.66346767   -7.9733188    246.42526  0.014172145  0.013380933          479 
 1450000   0.66912293   -7.9676007    246.54926  0.014169498  0.013367967          482 
 1451000   0.66735964     -7.96084    246.83625  0.014176215  0.013355018          429 
 1452000     0.655577    -7.999662    246.07127  0.014122548  0.013342076          308 
 1453000   0.67736377   -8.0017666    246.73636  0.014150973  0.013329122          523 
 1454000   0.67896044   -7.9888452    246.66515  0.014137159  0.013316146          294 
 1455000   0.68423588   -8.0180708    246.19326  0.014100416   0.01330322          248 
 1456000    0.6592518   -7.9887905    246.41248  0.014103278  0.013290317          276 
 1457000    0.6809423   -7.9941912    246.02571  0.014071477  0.013277423          518 
 1458000   0.67834612   -7.9977037    245.98398  0.014059441  0.013264516          541 
 1459000   0.67174012   -8.0087252    246.78327  0.014095457   0.01325164          303 
 1460000   0.66152775   -8.0192156    246.36817   0.01406211  0.013238799          490 
 1461000   0.66586854   -8.0068511    246.00222  0.014031612   0.01322597          578 
 1462000   0.67492971   -8.0188936    246.01666  0.014022838   0.01321313          538 
 1463000   0.65822147   -7.9953476    246.83093  0.014059634  0.013200309          503 
 1464000   0.64443933   -8.0140292    246.03521  0.014004737  0.013187513          644 
 1465000   0.68457238   -7.9971865    246.72333  0.014034319  0.013174724          345 
 1466000   0.68038019   -7.9959268    246.75334  0.014026452  0.013161986          550 
 1467000   0.66950655   -8.0285478    246.46879  0.014000726  0.013149209          579 
 1468000   0.66348297   -8.0098701    245.93788  0.013961051  0.013136437          300 
 1469000   0.67804604   -8.0282061    246.33584  0.013974123  0.013123685          625 
 1470000   0.66968077   -8.0161252    245.62516  0.013924329  0.013110936          578 
 1471000   0.67513108   -8.0357602    245.83965  0.013927014  0.013098187          509 
 1472000    0.6801233   -8.0176158    246.18323  0.013937003  0.013085458          655 
 1473000   0.66784242   -8.0289507      246.103  0.013923003  0.013072754          615 
 1474000   0.66106481   -8.0000819    246.54063  0.013938299  0.013060053          203 
 1475000   0.66633642   -8.0224933    246.57429  0.013930751  0.013047384          609 
 1476000   0.66628743     -8.04184    245.70771  0.013872386  0.013034698          590 
 1477000   0.67029701   -8.0173992    246.28859  0.013895768  0.013022019          553 
 1478000   0.67045704   -8.0332902    245.73182  0.013854974  0.013009365          587 
 1479000   0.65773434   -8.0023563    245.95323  0.013858081   0.01299674          506 
 1480000   0.65819766   -8.0266894    246.63538  0.013887127  0.012984132          572 
 1481000   0.67576564   -8.0273756    245.84653  0.013833363  0.012971513          359 
 1482000   0.66980188   -8.0388265    246.19869  0.013843831  0.012958919          593 
 1483000   0.65366476   -8.0453273    245.60655  0.013801222  0.012946316          538 
 1484000   0.67848563   -8.0453772    246.29516   0.01383059  0.012933728          533 
 1485000   0.66596639   -8.0398638      246.285  0.013820707  0.012921157          326 
 1486000   0.64980644   -8.0577884    245.80944  0.013784737  0.012908604          633 
 1487000   0.66054553   -8.0361915    246.22202  0.013798589  0.012896045          558 
 1488000   0.65925185   -8.0114879    245.91215  0.013771962  0.012883553          636 
 1489000    0.6482564   -8.0385915    246.05234  0.013770559  0.012871037          582 
 1490000   0.67035535   -8.0270132    245.66748  0.013739792  0.012858517          594 
 1491000   0.64901332   -8.0306752    246.22833  0.013761923  0.012846011          569 
 1492000   0.64749962   -8.0552031    245.84275  0.013731163  0.012833522          642 
 1493000   0.65323166   -8.0511191    246.04303  0.013733145  0.012821031          715 
 1494000   0.65539341   -8.0321666    245.73082  0.013706539  0.012808574          606 
 1495000   0.66457271   -8.0479471    245.58656  0.013689329  0.012796136          634 
 1496000   0.65416855   -8.0459403    245.76163   0.01368993  0.012783722          573 
 1497000   0.65405673   -8.0325519    246.09669  0.013699437  0.012771335          626 
 1498000   0.64932239   -8.0374653    245.85661  0.013676936  0.012758987          565 
 1499000   0.65272153   -8.0256064    246.27151  0.013690878   0.01274663          315 
 1500000   0.66375466   -8.0471848    245.94634  0.013663686  0.012734297          641 
 1501000   0.66407588   -8.0322909    246.50443  0.013685567   0.01272193          642 
 1502000   0.64538392   -8.0640714    245.52982  0.013622382   0.01270957          625 
 1503000   0.64317984   -8.0483834    245.42461  0.013607486  0.012697249          705 
 1504000   0.65031013   -8.0535012    245.88238  0.013623802   0.01268496          666 
 1505000   0.64879852   -8.0478183    245.86727  0.013613913  0.012672688          665 
 1506000   0.65116318   -8.0430262    245.67193  0.013594064  0.012660396          718 
 1507000   0.64987597   -8.0694012    245.57348  0.013579599  0.012648149          617 
 1508000   0.64913495   -8.0408677    245.96385  0.013592167  0.012635894          641 
 1509000   0.63606986    -8.051655    245.36785  0.013550246   0.01262366          823 
 1510000   0.65650779   -8.0625518    245.75428  0.013562598   0.01261142          769 
 1511000   0.64024335   -8.0598673    245.78478  0.013555304  0.012599209          723 
 1512000   0.65784449   -8.0473375    246.06896  0.013562002  0.012587011          698 
 1513000   0.65227897    -8.056505    245.66297  0.013530677  0.012574836          626 
 1514000    0.6502244   -8.0562401     245.9789  0.013539129  0.012562668          715 
 1515000   0.63947876   -8.0488903     245.5198   0.01350494  0.012550511          598 
 1516000   0.64474063   -8.0618729    244.96285  0.013465416  0.012538351          702 
 1517000   0.64276167   -8.0361149    245.96607   0.01351165   0.01252623          639 
 1518000   0.64692466   -8.0283243    245.56929  0.013480967  0.012514118          585 
 1519000   0.64088128   -8.0475794     245.5584  0.013471495  0.012502014          589 
 1520000   0.65329818   -8.0764395    245.75468  0.013473393  0.012489919          623 
 1521000   0.64337517   -8.0512973    245.59611  0.013455846  0.012477853          737 
 1522000   0.65466743   -8.0589304    245.96265  0.013467074  0.012465797          629 
 1523000   0.65123753   -8.0752499    245.50431  0.013433153  0.012453744          620 
 1524000   0.63589373   -8.0559282    245.85065  0.013443277  0.012441688          583 
 1525000   0.64441779   -8.0708407     245.6797   0.01342512  0.012429656          684 
 1526000   0.64349787   -8.0563317    245.72172  0.013418617  0.012417652          716 
 1527000   0.66413782   -8.0516814    245.62147  0.013404359  0.012405646          725 
 1528000   0.63381645   -8.0710607    245.22277  0.013373842  0.012393664          681 
 1529000   0.63619947   -8.0741814     245.2318  0.013365587   0.01238168          662 
 1530000   0.64934572    -8.082299    244.96249  0.013342183  0.012369727          745 
 1531000   0.64209229   -8.0393977    246.06242  0.013393339  0.012357801          595 
 1532000    0.6193838   -8.0714993    245.66191   0.01336281  0.012345852          606 
 1533000   0.64296727   -8.0546293    245.50483  0.013345555  0.012333914          672 
 1534000   0.63886992   -8.0759805    245.55408  0.013339531  0.012322003          630 
 1535000   0.63813823   -8.0680799    245.03739   0.01330279  0.012310086          754 
 1536000   0.64872244   -8.0770127    245.16858  0.013301247  0.012298189          638 
 1537000   0.64429539   -8.0577694    245.59262  0.013315583  0.012286315          633 
 1538000   0.62490486   -8.0779237    245.51785  0.013302874  0.012274426          773 
 1539000   0.64459385   -8.0809413    245.21563  0.013277866  0.012262552          677 
 1540000    0.6429105    -8.079069    245.45695  0.013282302  0.012250696          725 
 1541000   0.63288828   -8.0651226    245.64122  0.013283648  0.012238848          682 
 1542000   0.64619981   -8.0694768    245.38735  0.013261314  0.012227032          738 
 1543000   0.63309851   -8.0958432    244.93775  0.013228437  0.012215226          674 
 1544000   0.63298131   -8.0763259    245.60035  0.013255632  0.012203417          713 
 1545000   0.63365485   -8.0849578    245.03379  0.013216493  0.012191628          630 
 1546000   0.64158772   -8.1017464    244.85878  0.013198511  0.012179836          689 
 1547000    0.6274691   -8.0783646     245.1492  0.013205624  0.012168044          702 
 1548000   0.63859516   -8.0942181    245.52766  0.013217466  0.012156286          682 
 1549000    0.6262964   -8.0764905    245.69712   0.01321805  0.012144547          676 
 1550000   0.63936945   -8.0810467    246.12978  0.013232784  0.012132831          747 
 1551000   0.64234008   -8.0940256    245.44881  0.013187664  0.012121109          742 
 1552000   0.64505089   -8.0785001    245.93276  0.013205152  0.012109413          685 
 1553000   0.63992282   -8.1097938    245.20566  0.013157633  0.012097734          653 
 1554000   0.62078705   -8.1074743    245.04884  0.013140757   0.01208606          724 
 1555000   0.63262851   -8.1022931    245.63272  0.013163597  0.012074374          660 
 1556000    0.6223122   -8.1147518    245.46237  0.013146014  0.012062725          738 
 1557000   0.62833022   -8.1170776    245.45459  0.013137154  0.012051067          748 
 1558000   0.62125629   -8.1068182    244.95819  0.013102171  0.012039419          622 
 1559000   0.64568258    -8.127412    245.00012  0.013096008  0.012027796          731 
 1560000   0.62039625   -8.1055378    245.38061  0.013107938  0.012016192          784 
 1561000     0.646479   -8.0647135    245.56361  0.013109311  0.012004614          690 
 1562000    0.6207761   -8.0883253    244.97787  0.013069669  0.011993037          747 
 1563000   0.62881736   -8.0897545    245.17882  0.013072021  0.011981482          598 
 1564000   0.63717034   -8.0920341    245.48667  0.013080066  0.011969952          638 
 1565000   0.63166957   -8.1101572    245.12683  0.013052547   0.01195842          705 
 1566000   0.63707893   -8.1119802    245.08602   0.01304204   0.01194689          689 
 1567000    0.6136207   -8.1023841    244.76368  0.013016575  0.011935388          674 
 1568000    0.6359601   -8.0967183    244.99975   0.01302082  0.011923886          716 
 1569000   0.62665863    -8.111677    245.11253  0.013018511  0.011912396          734 
 1570000   0.62628825   -8.1104968    244.51253  0.012978372  0.011900907          746 
 1571000   0.62630373   -8.1183866    245.35035  0.013014553  0.011889445          737 
 1572000    0.6195526   -8.1065189    245.14368  0.012995318  0.011877987          658 
 1573000   0.62208884   -8.0969881    245.09268  0.012984355  0.011866552          730 
 1574000   0.62623123   -8.0950987    245.46535  0.012995836  0.011855155          774 
 1575000   0.61796442   -8.1169077    244.81777  0.012953321  0.011843739          773 
 1576000   0.62413896   -8.1100826    245.28308  0.012969706  0.011832336          742 
 1577000   0.62320059     -8.11395    245.15598  0.012954765  0.011820952          699 
 1578000   0.62520205   -8.1015586    245.19024  0.012948365  0.011809581          764 
 1579000   0.62852874   -8.1163362    244.86972  0.012923249  0.011798217          735 
 1580000   0.62147798   -8.1062002    245.36495   0.01294119  0.011786885          729 
 1581000   0.62332677   -8.1374779    244.69171  0.012897518  0.011775543          700 
 1582000   0.61931561   -8.1161533    245.11745  0.012911791  0.011764221          749 
 1583000   0.62878976   -8.1111236    245.42621  0.012919889  0.011752933          662 
 1584000   0.61682356   -8.1301886    245.26021  0.012902999  0.011741647          734 
 1585000   0.60680814   -8.1228083    245.27917  0.012895855  0.011730362          756 
 1586000   0.62087632   -8.1295018    245.17243  0.012882116  0.011719117          719 
 1587000    0.6253667   -8.1115427    244.87516  0.012858389  0.011707863          713 
 1588000   0.63407832   -8.1144676    245.08495  0.012861301  0.011696638          681 
 1589000   0.61808026   -8.1008712     244.8993  0.012843471  0.011685432          734 
 1590000   0.62021572   -8.1328619    244.54539  0.012816844  0.011674221          702 
 1591000   0.63097236   -8.1220852    245.23592  0.012844957   0.01166301          704 
 1592000   0.61765443   -8.1076798    245.09742  0.012829639  0.011651827          786 
 1593000   0.61802562   -8.1414828    244.96477  0.012814646  0.011640646          717 
 1594000   0.61524184   -8.1341516    244.48509  0.012781529   0.01162947          755 
 1595000   0.60503001   -8.1281608     244.5706  0.012777983  0.011618296          694 
 1596000   0.60932303   -8.1349656    244.22559  0.012751963  0.011607122          714 
 1597000   0.59798319   -8.1157509    244.96263  0.012782438  0.011595976          759 
 1598000   0.60878731   -8.1263016    244.67112  0.012759237  0.011584825          697 
 1599000   0.60453717   -8.1283933     244.3757  0.012735861  0.011573711          732 
 1600000   0.61306788   -8.1215014    244.54894  0.012736924  0.011562614          745 
 1601000   0.60537472   -8.1188165     245.0768  0.012756444  0.011551537          771 
 1602000   0.61678411    -8.145037    244.60661  0.012724023  0.011540472          706 
 1603000   0.61800711   -8.1464614    244.86985   0.01272977   0.01152941          739 
 1604000   0.62045444   -8.1390085    244.35955  0.012695322  0.011518388          696 
 1605000    0.6092949   -8.1487681    244.57268  0.012698478  0.011507366          835 
 1606000   0.60651947   -8.1378282    245.12499  0.012719229  0.011496346          742 
 1607000    0.6097319   -8.1480009    244.72329  0.012690484  0.011485339          779 
 1608000   0.61170107   -8.1497135    244.61295  0.012676873  0.011474348          695 
 1609000   0.61467282   -8.1335182    244.71211  0.012674131  0.011463346          707 
 1610000   0.60676668    -8.147676    244.56777  0.012658787  0.011452375          729 
 1611000   0.60820134   -8.1404538    243.88669  0.012615699   0.01144139          694 
 1612000   0.59921949   -8.1361564    244.51467  0.012640337  0.011430429          671 
 1613000   0.62291229   -8.1509604    244.74949  0.012644632  0.011419506          690 
 1614000   0.60868617   -8.1606429    244.45669   0.01262168  0.011408577          738 
 1615000   0.59618602   -8.1239086    245.25439  0.012655025   0.01139766          733 
 1616000   0.60779974   -8.1481154     244.9904  0.012633581   0.01138675          703 
 1617000   0.61176451   -8.1394006    244.58306  0.012604775  0.011375867          609 
 1618000   0.60377075   -8.1522759    244.49441  0.012592419  0.011364985          658 
 1619000   0.61150371   -8.1368245    244.53826  0.012586898  0.011354132          668 
 1620000   0.60763174   -8.1547052    244.76677  0.012590883  0.011343273          791 
 1621000    0.5996415   -8.1396369      244.085  0.012548067   0.01133245          781 
 1622000   0.61073151    -8.150196     244.1777  0.012545093  0.011321638          727 
 1623000   0.59367536    -8.151752    244.80515  0.012569581  0.011310831          733 
 1624000   0.59906455   -8.1504667    244.75123  0.012559074   0.01130004          699 
 1625000   0.61855934   -8.1363273     244.6703  0.012547195  0.011289273          729 
 1626000    0.6028502   -8.1263122    244.69048  0.012540513  0.011278517          696 
 1627000   0.59497459   -8.1267537    244.65535  0.012531006  0.011267751          751 
 1628000   0.59856068   -8.1486473    244.45873  0.012513244  0.011256997          692 
 1629000   0.60331182   -8.1492756    244.39403  0.012502252  0.011246243          652 
 1630000   0.60306011   -8.1601382    244.40133  0.012494955  0.011235516          724 
 1631000   0.58857098   -8.1740977    244.31257  0.012482759  0.011224783          773 
 1632000   0.61058273   -8.1505884    244.49431  0.012484391  0.011214062          684 
 1633000   0.59412553   -8.1559742    244.50541  0.012477312  0.011203369          771 
 1634000   0.59055867   -8.1525521    244.43284  0.012465975  0.011192683          759 
 1635000   0.61090254   -8.1365981    244.74044  0.012474029  0.011182027          698 
 1636000   0.60780254   -8.1616691      244.252  0.012441524  0.011171386          738 
 1637000   0.59438649   -8.1603791    244.72394  0.012457948  0.011160751          739 
 1638000   0.61025624   -8.1592099     244.1751  0.012422421  0.011150137          808 
 1639000   0.60835379   -8.1667895    244.24818  0.012418557  0.011139527          757 
 1640000   0.59872123   -8.1647993    244.73621  0.012435783   0.01112892          730 
 1641000   0.61187051    -8.150392    244.58307  0.012420428  0.011118349          760 
 1642000   0.60287418   -8.1510132    244.08311   0.01238749  0.011107758          660 
 1643000    0.5991809   -8.1598335     244.1307  0.012382365  0.011097177          784 
 1644000    0.6131338   -8.1626151    244.59149   0.01239819  0.011086623          712 
 1645000    0.5978579   -8.1613889    244.18269  0.012369944  0.011076079          730 
 1646000    0.6026897   -8.1789298      244.368   0.01237181  0.011065559          744 
 1647000   0.60249768   -8.1557463    244.46592  0.012369253   0.01105504          827 
 1648000   0.59847171   -8.1716882    244.26387  0.012351531  0.011044528          773 
 1649000   0.59545075   -8.1668225    244.54991  0.012358496  0.011034046          756 
 1650000   0.60372938   -8.1863323    244.47968  0.012347458  0.011023556          757 
 1651000   0.59000834   -8.1817271    244.48711  0.012340355   0.01101308          688 
 1652000   0.58865649   -8.1775442    244.46077  0.012331556  0.011002623          701 
 1653000   0.59521047   -8.1701781    244.43732  0.012322914  0.010992161          800 
 1654000    0.5936473   -8.1756241    244.36786  0.012311964  0.010981726          784 
 1655000   0.58726001   -8.1599194    244.02499   0.01228726  0.010971294          662 
 1656000   0.58096512   -8.1864728    243.58808  0.012257854  0.010960872          691 
 1657000   0.59504845   -8.1627009    244.28632  0.012285572  0.010950462          665 
 1658000   0.60076862   -8.1705426    244.37403  0.012282571  0.010940074          767 
 1659000   0.58269233   -8.1558958    244.54081  0.012283545  0.010929698          668 
 1660000   0.58701673   -8.1714471    244.45904   0.01227204  0.010919325          689 
 1661000   0.60035567   -8.1649922     244.2567    0.0122545  0.010908959          725 
 1662000   0.58572692   -8.2048042    244.20481  0.012244525  0.010898611          690 
 1663000   0.58910278   -8.1661173    244.46271  0.012250086  0.010888282          688 
 1664000   0.57939886   -8.1750627    244.88267  0.012263756  0.010877961          796 
 1665000   0.58627562   -8.1939454    244.20551  0.012222498  0.010867649          694 
 1666000   0.59954188   -8.1751351    244.69491  0.012239641  0.010857348          749 
 1667000   0.58265128   -8.1982853    244.35061  0.012215087   0.01084707          701 
 1668000   0.58588563    -8.195458    244.14736   0.01219761  0.010836788          691 
 1669000   0.58164443   -8.1791539    243.84386  0.012175148  0.010826524          771 
 1670000   0.59367125   -8.1861197    244.68923  0.012210041  0.010816269          698 
 1671000   0.59820965   -8.1703691    244.18753  0.012177715  0.010806024          775 
 1672000   0.58686652   -8.1821276    244.00617  0.012161392  0.010795802          711 
 1673000   0.58544606   -8.2054609    243.82687  0.012145192  0.010785568          766 
 1674000   0.56651653    -8.204195    243.95834  0.012144481   0.01077534          699 
 1675000   0.58649126   -8.2044018    243.41001  0.012109951  0.010765131          699 
 1676000   0.58566679    -8.209588    244.12655  0.012138353  0.010754929          700 
 1677000   0.57554983   -8.2128108     244.0953  0.012129562  0.010744742          786 
 1678000   0.58120884    -8.193204    243.91237  0.012113248  0.010734574          716 
 1679000   0.58919714   -8.1937059    243.87572  0.012104215  0.010724421          714 
 1680000   0.57692658   -8.1950912    243.80378  0.012093442  0.010714283          767 
 1681000   0.58675237   -8.1855825    244.00385  0.012096166  0.010704144          716 
 1682000   0.56934167   -8.1938618    243.94422   0.01208602  0.010694023          767 
 1683000   0.59023561   -8.2009699    244.09433  0.012086271  0.010683901          716 
 1684000   0.59029596   -8.2017485    243.89298   0.01206913  0.010673808          747 
 1685000   0.58653822    -8.189059    243.69261  0.012052058  0.010663727          710 
 1686000   0.58536377   -8.2019317    243.88339  0.012054339  0.010653645          697 
 1687000   0.56426576   -8.2024335    243.84505    0.0120453  0.010643571          708 
 1688000   0.57204663   -8.1993416    243.83473  0.012037655  0.010633515          703 
 1689000   0.59539047   -8.2037594    244.01452  0.012039398  0.010623482          696 
 1690000   0.56962829   -8.1910608    243.92168  0.012027696  0.010613462          735 
 1691000   0.57275164   -8.1924052    244.00726  0.012024801   0.01060344          739 
 1692000   0.57467874   -8.1931279    243.83073  0.012008999  0.010593438          718 
 1693000   0.57715205   -8.1981355    244.00117  0.012010296  0.010583442          841 
 1694000   0.56987654   -8.1870168     243.6818  0.011987495  0.010573458          746 
 1695000   0.57220552   -8.1911188    244.31175  0.012011394  0.010563474          709 
 1696000   0.58195225   -8.2139119    243.59401  0.011969045    0.0105535          733 
 1697000     0.574856   -8.2162102    243.94792  0.011979372  0.010543541          731 
 1698000   0.56473329   -8.2173161    243.87933   0.01196895  0.010533596          784 
 1699000   0.58045654   -8.2201439    243.64058  0.011950195   0.01052367          745 
 1700000   0.57070914   -8.2075853    243.92221  0.011956971  0.010513746          706 
 1701000   0.57395155   -8.2085896     243.7276  0.011940407  0.010503835          650 
 1702000   0.58750187   -8.2262726    244.01481  0.011947454  0.010493924          746 
 1703000   0.57165812   -8.2143751     243.8362  0.011931699  0.010484037          699 
 1704000   0.59084982    -8.221291    243.24596  0.011895831  0.010474145          787 
 1705000   0.56222746   -8.2253444    243.88583  0.011920128   0.01046428          811 
 1706000   0.57518017   -8.1944944    243.63126  0.011900706   0.01045442          714 
 1707000     0.561853   -8.2098062    243.74446  0.011899261  0.010444565          801 
 1708000   0.56596173   -8.2385257    243.74869  0.011892501  0.010434737          757 
 1709000   0.55991875   -8.2045182    244.12887   0.01190408  0.010424912          730 
 1710000   0.57571979   -8.2230071    243.66796  0.011874657  0.010415097          774 
 1711000   0.56373568   -8.2151049    243.98689   0.01188325  0.010405287          667 
 1712000   0.55999447   -8.2305801    243.47369  0.011851328    0.0103955          714 
 1713000   0.56562116   -8.2302214    243.50341  0.011845856  0.010385715          739 
 1714000   0.54679548   -8.2183665    243.57582  0.011842465  0.010375941          742 
 1715000   0.57271666   -8.2366655    243.31743  0.011823004  0.010366189          653 
 1716000   0.56453331    -8.235709     244.1309  0.011855619  0.010356448          710 
 1717000   0.57474093   -8.2136439    243.52166  0.011819145   0.01034671          723 
 1718000   0.56870785    -8.218344    243.43937  0.011808273  0.010336986          692 
 1719000   0.56573002   -8.2548755    243.28995  0.011794161  0.010327276          748 
 1720000   0.56639561   -8.2060587    243.27713  0.011786683  0.010317573          635 
 1721000   0.56128135   -8.2273667    243.34278  0.011783013   0.01030789          734 
 1722000   0.57615801   -8.2300077    243.47357    0.0117825   0.01029822          662 
 1723000   0.56714346   -8.2274331    243.58503  0.011781052  0.010288541          738 
 1724000   0.55728735   -8.2138221     243.8745  0.011788211  0.010278895          736 
 1725000   0.56263605   -8.2256353    243.66442  0.011771228  0.010269276          761 
 1726000   0.56708754    -8.219564    243.68863  0.011765577  0.010259661          814 
 1727000    0.5668692   -8.2363459    243.57039  0.011753059  0.010250064          706 
 1728000   0.55585551   -8.2376448    243.72526  0.011753726  0.010240483          735 
 1729000   0.55813608    -8.210117    244.05956   0.01176304  0.010230909          653 
 1730000   0.56525266   -8.2304784    243.28785  0.011719068  0.010221328          666 
 1731000   0.56088465   -8.2076461    243.61225  0.011727915  0.010211761          757 
 1732000    0.5683982   -8.2402482    243.17261  0.011699991  0.010202216          728 
 1733000   0.56486022   -8.2167245    243.14542  0.011691932  0.010192668          682 
 1734000   0.55425763   -8.2293482    243.39304   0.01169709  0.010183129          696 
 1735000   0.57159859   -8.2235503    243.81982  0.011710847  0.010173616          731 
 1736000   0.57100382   -8.2077677    243.10559  0.011669815  0.010164108          743 
 1737000   0.54569044   -8.2281246    243.49217  0.011681643  0.010154608          655 
 1738000   0.55234745   -8.2502742    243.28413  0.011664947  0.010145115          760 
 1739000   0.56886042   -8.2348382    243.65385  0.011675956  0.010135615          802 
 1740000   0.55468737   -8.2337162    243.17279  0.011646206  0.010126146          812 
 1741000   0.55500509   -8.2368251    243.20286  0.011640956  0.010116686          824 
 1742000   0.56776732   -8.2177523    243.46128  0.011646636  0.010107227          758 
 1743000   0.55767718   -8.2196776    243.29964  0.011632226  0.010097786          757 
 1744000   0.55941622   -8.2270945    243.32387  0.011626714   0.01008835          740 
 1745000   0.56032555   -8.2403124    243.34641  0.011621128  0.010078936          843 
 1746000   0.55111255   -8.2428576    243.45858  0.011619825  0.010069537          745 
 1747000   0.54652036   -8.2331308    243.76024  0.011627563  0.010060136          680 
 1748000    0.5449371   -8.2581795     243.0943  0.011589164  0.010050753          737 
 1749000   0.55593645   -8.2292971     243.5368  0.011603621  0.010041373          711 
 1750000   0.55830281   -8.2484651    243.38318  0.011589675  0.010032003          773 
 1751000   0.54764884   -8.2337482    243.41551  0.011584595  0.010022639          692 
 1752000   0.55347176   -8.2497166    243.16035  0.011565846  0.010013293          703 
 1753000   0.53675222   -8.2353608    242.92345  0.011547987  0.010003969          704 
 1754000   0.55875489   -8.2532512    242.85945  0.011538362 0.0099946596          695 
 1755000   0.55258782   -8.2441667    242.95198  0.011536181 0.0099853451          737 
 1756000   0.55244396    -8.229835    243.19534  0.011541161 0.0099760366          739 
 1757000    0.5480195    -8.246534    243.07025  0.011528659 0.0099667342          788 
 1758000   0.56142644    -8.251119    243.03941   0.01152064  0.009957452          781 
 1759000   0.54833026   -8.2487601    243.19771  0.011521589 0.0099481837          713 
 1760000   0.54706145   -8.2717023    243.36799  0.011523106 0.0099389353          766 
 1761000   0.54402028   -8.2560469    243.10944  0.011504327 0.0099296914          840 
 1762000   0.54645537   -8.2390508    243.45711  0.011514241 0.0099204655          760 
 1763000   0.55355827   -8.2508173    242.99125  0.011485689 0.0099112486          796 
 1764000   0.56376687   -8.2573117    243.10842  0.011484714 0.0099020362          716 
 1765000   0.53213113   -8.2619352    242.54204  0.011451466 0.0098928482          791 
 1766000   0.53395441   -8.2576534    243.27876  0.011479745 0.0098836713          721 
 1767000    0.5415826   -8.2711397    243.09566  0.011464613 0.0098744881          736 
 1768000   0.54758582   -8.2669953    243.17578  0.011461905 0.0098653335          791 
 1769000   0.54002539   -8.2497874    243.31607  0.011462035 0.0098561931          789 
 1770000   0.53913386   -8.2635764    243.04487  0.011442791 0.0098470534          800 
 1771000   0.55291026   -8.2402584    243.22818  0.011444955 0.0098379285          748 
 1772000   0.55212756    -8.255783    243.36509  0.011444935 0.0098288052          785 
 1773000   0.53931848   -8.2507354    243.33932  0.011437268  0.009819701          771 
 1774000   0.55082024   -8.2562652      242.849  0.011407789  0.009810606          734 
 1775000    0.5507263   -8.2519396    243.31514  0.011423246 0.0098015189          746 
 1776000   0.55774278   -8.2570556    243.66906  0.011433421 0.0097924496          808 
 1777000   0.54789989   -8.2707909    243.27157  0.011408346 0.0097833899          808 
 1778000    0.5508421   -8.2599773    242.91765  0.011385341 0.0097743299          702 
 1779000   0.54956228   -8.2603072     242.9911  0.011382382 0.0097652991          728 
 1780000    0.5529268   -8.2644598    242.77012  0.011365642  0.009756265          776 
 1781000   0.54325923   -8.2544866    242.88529  0.011364649 0.0097472265          695 
 1782000   0.54220799   -8.2643867    242.80692  0.011354607 0.0097381935          745 
 1783000   0.53891615    -8.268284    243.14362  0.011363976 0.0097291899          699 
 1784000    0.5362511   -8.2710344    243.10018  0.011355576  0.009720199          633 
 1785000   0.54056487   -8.2564885    242.90198  0.011339962 0.0097112117          679 
 1786000   0.54960767   -8.2728256    242.41817  0.011311038 0.0097022251          772 
 1787000   0.55078556   -8.2864391    242.81885  0.011323393  0.009693256          809 
 1788000   0.54500279   -8.2699935    242.69873  0.011311462 0.0096842948          797 
 1789000   0.52920929    -8.284772    242.57094  0.011299187 0.0096753363          823 
 1790000   0.54289765   -8.2543081    242.91582   0.01130893 0.0096664011          691 
 1791000   0.54097895   -8.2855218    242.56798  0.011286431 0.0096574831          771 
 1792000   0.53519375   -8.2638899    242.90511   0.01129581 0.0096485715          787 
 1793000   0.53421884   -8.2704562    242.97083  0.011292565 0.0096396607          728 
 1794000   0.54563142   -8.2649422     242.9014  0.011283045 0.0096307695          775 
 1795000   0.54581386   -8.2809559    242.51513  0.011258827 0.0096218838          698 
 1796000   0.53750723    -8.276914    242.85097  0.011268141 0.0096130126          789 
 1797000   0.53956702   -8.2795429    243.26399  0.011281024 0.0096041511          697 
 1798000   0.54917414   -8.2703407    243.00537  0.011262763  0.009595311          727 
 1799000   0.53794931   -8.2894312    243.21005  0.011265983 0.0095864761          771 
 1800000   0.53844836   -8.2735722    242.49657  0.011226693 0.0095776482          743 
 1801000   0.52362259   -8.2670153    242.81298    0.0112351 0.0095688303          726 
 1802000   0.54635435    -8.268755    242.90659  0.011233194 0.0095600236          768 
 1803000   0.54797063   -8.2551997    242.88292   0.01122587  0.009551228          652 
 1804000   0.53624527   -8.2697462    242.68829  0.011210657 0.0095424502          788 
 1805000   0.52356315   -8.2851807    242.45251   0.01119356 0.0095336638          783 
 1806000   0.53604012   -8.2757965    243.23948  0.011223675 0.0095248977          746 
 1807000   0.52399653   -8.2877796    242.46468  0.011181732 0.0095161393          712 
 1808000   0.52186067   -8.2887454    242.91983  0.011196526 0.0095073938          823 
 1809000   0.52579372   -8.2790407    242.73935  0.011182023 0.0094986634          805 
 1810000   0.53437712   -8.2832185    242.93346  0.011184782 0.0094899427          756 
 1811000   0.53351603   -8.2916707    243.08854  0.011185742 0.0094812294          765 
 1812000   0.53404599   -8.2760933    242.67383  0.011160496 0.0094725178          753 
 1813000   0.53335896   -8.2972429    242.87998  0.011163816 0.0094638247          782 
 1814000   0.53646086   -8.2835705    242.67336   0.01114817  0.009455141          794 
 1815000    0.5258697   -8.2797758    242.38799  0.011128925 0.0094464717          764 
 1816000   0.51865046   -8.2661252    242.83503  0.011143311 0.0094378097          791 
 1817000   0.52119043   -8.2722991    243.23038   0.01115531 0.0094291656          813 
 1818000   0.54177367   -8.2821252    243.14212  0.011145128 0.0094205343          812 
 1819000   0.53436614   -8.2769468    242.31851  0.011101269 0.0094118942          727 
 1820000   0.52080809   -8.2760469    242.71176  0.011113176 0.0094032643          708 
 1821000   0.54016496   -8.2816287    242.90971  0.011116132 0.0093946621          832 
 1822000   0.52193604   -8.2790532    242.91164  0.011110119  0.009386058          768 
 1823000   0.52881804   -8.2803069    242.95046  0.011105799 0.0093774619          805 
 1824000   0.52725881   -8.2986581    243.03515   0.01110358 0.0093688774          863 
 1825000   0.52601824   -8.2897932     242.6523  0.011080014 0.0093603054          733 
 1826000   0.52871172   -8.2909532    242.59356  0.011071265 0.0093517371          789 
 1827000   0.51304944   -8.2925387    242.73915  0.011071846 0.0093431751          775 
 1828000   0.51739544   -8.3149004    242.80048  0.011068585 0.0093346235          757 
 1829000    0.5212525   -8.2896712    242.42868  0.011045593 0.0093260753          794 
 1830000   0.51986421     -8.27781     242.7505  0.011054212 0.0093175554          776 
 1831000   0.52159634    -8.281262    242.83222  0.011051894 0.0093090461          768 
 1832000   0.52937148   -8.2788677    242.34225  0.011023574 0.0093005301          783 
 1833000   0.51436655   -8.2958668    243.06796  0.011050553 0.0092920312          760 
 1834000   0.51471769   -8.2923001    242.45529  0.011016689 0.0092835376          797 
 1835000   0.52002836   -8.2820026    242.53198  0.011014168 0.0092750586          798 
 1836000   0.52672775    -8.298003    242.59529  0.011011043 0.0092665987          849 
 1837000   0.51557113   -8.3059774    242.71297  0.011010387 0.0092581443          792 
 1838000   0.51369274   -8.3032735    242.43184  0.010991651 0.0092496922          820 
 1839000   0.51466552   -8.3090064    242.56517  0.010991715 0.0092412554          813 
 1840000   0.52033277   -8.2981007    242.82288  0.010997413 0.0092328252          745 
 1841000    0.5314568   -8.2956349    242.70397  0.010986057 0.0092244045          787 
 1842000   0.51191765   -8.2989517    242.64153  0.010977268 0.0092159973          778 
 1843000    0.5326814   -8.2935047    242.26648  0.010954353 0.0092075992          758 
 1844000   0.52353254   -8.3128362    242.66516   0.01096643 0.0091992112          775 
 1845000   0.51908809   -8.3112158    242.71562  0.010962765 0.0091908237          797 
 1846000   0.52100694   -8.2980846    242.39374  0.010942296 0.0091824487          771 
 1847000   0.51364749   -8.3071148    242.23817  0.010929352 0.0091740849          705 
 1848000   0.51958314    -8.311671     242.0203  0.010913614 0.0091657281          764 
 1849000   0.51530463   -8.3031282    242.37957  0.010923903 0.0091573853          796 
 1850000   0.51992897   -8.3129046     242.0895  0.010904932 0.0091490459          839 
 1851000   0.50890219   -8.3037896    242.64591  0.010924091 0.0091407136          739 
 1852000   0.50973223   -8.3163457    242.37425  0.010905969 0.0091323989          746 
 1853000   0.51429564   -8.3097512     242.7234  0.010915785 0.0091240917          792 
 1854000   0.52923752   -8.3136112    242.11723  0.010882652 0.0091157868          739 
 1855000   0.50942691   -8.3042754     242.0682  0.010874582 0.0091074889          745 
 1856000   0.50738019   -8.2880985    242.28075  0.010878266  0.009099213          728 
 1857000   0.51067891   -8.3164512    242.38664   0.01087716 0.0090909459          793 
 1858000   0.51271819   -8.3144583    242.39359  0.010871618  0.009082695          784 
 1859000   0.50569719   -8.3020649    242.58464  0.010874334 0.0090744508          742 
 1860000   0.51366184   -8.2999119    242.59332  0.010868876 0.0090662139          766 
 1861000   0.50552303   -8.3159793    242.91121  0.010877271 0.0090579829          725 
 1862000   0.50347484   -8.3062918    242.42207  0.010849538  0.009049764          815 
 1863000   0.52187342   -8.3164135    242.48031  0.010846319 0.0090415563          730 
 1864000   0.50465004   -8.2997132    242.11674  0.010824246 0.0090333575          810 
 1865000   0.50851716   -8.3186295    242.14258  0.010819597 0.0090251653          805 
 1866000   0.50719157   -8.3160961    242.17637  0.010815307 0.0090169851          804 
 1867000   0.50672392   -8.3313262    242.17642  0.010809517 0.0090088011          766 
 1868000    0.5062534   -8.3233719    242.07606  0.010799253 0.0090006401          768 
 1869000   0.51024009   -8.3141732    242.53959  0.010814143 0.0089925057          758 
 1870000   0.52066429   -8.3269753    242.20528  0.010793462 0.0089843628          774 
 1871000   0.51551517   -8.3140643    242.17974  0.010786555 0.0089762341          757 
 1872000    0.5035615   -8.3194535     242.5274   0.01079627 0.0089681172          820 
 1873000   0.51989377   -8.3197613    242.32937  0.010781695 0.0089600061          717 
 1874000   0.49586638   -8.3273445    242.03371  0.010762794 0.0089519038          708 
 1875000    0.4907496   -8.3134432    242.17782  0.010763459 0.0089438131          808 
 1876000   0.49955847    -8.340108    242.70937  0.010781333 0.0089357242          815 
 1877000   0.50069569   -8.3154312      242.082  0.010747736  0.008927659          774 
 1878000   0.49763653   -8.3249432    242.18413  0.010746545  0.008919587          742 
 1879000   0.49647704   -8.3213851    242.25108  0.010743795 0.0089115249          772 
 1880000   0.49567341   -8.3181719    242.57658  0.010752508 0.0089034745          745 
 1881000   0.49702857   -8.3336172    242.18438  0.010729416 0.0088954317          842 
 1882000   0.50409914   -8.3245019    242.29144  0.010728456  0.008887408          810 
 1883000   0.50974256   -8.3241214    241.92191  0.010706404 0.0088793808          773 
 1884000   0.49630801    -8.353828     242.6358  0.010732298 0.0088713691          809 
 1885000   0.49636855   -8.3108308    242.42423  0.010717252 0.0088633633          865 
 1886000   0.49940734   -8.3219462    242.61183  0.010719858 0.0088553704          788 
 1887000   0.50456602   -8.3209561    242.25679  0.010698498 0.0088473808          852 
 1888000   0.49853429   -8.3413345    242.06906  0.010684545 0.0088394034          785 
 1889000   0.49489674   -8.3240045    242.33028  0.010690413 0.0088314388          819 
 1890000   0.49652429    -8.326235    242.14895  0.010676761 0.0088234808          750 
 1891000   0.50194574   -8.3315607    241.75326  0.010653678 0.0088155262          804 
 1892000   0.49422454   -8.3237598    242.24803  0.010669839 0.0088075784          854 
 1893000    0.5053529   -8.3130361    242.23723  0.010663728 0.0087996417          805 
 1894000   0.49028392    -8.352261    241.96133  0.010645958 0.0087917244          830 
 1895000   0.49503904   -8.3288597    241.87134  0.010636383 0.0087838163          869 
 1896000   0.48929284   -8.3468578    241.70762  0.010623577 0.0087759028          849 
 1897000   0.48831035   -8.3396925    242.28727   0.01064344 0.0087680081          826 
 1898000    0.5021117   -8.3462449    241.85134  0.010618692 0.0087601224          825 
 1899000   0.49716107   -8.3419375    241.73333  0.010607922 0.0087522425          826 
 1900000   0.49261236   -8.3466669    241.91093  0.010610129 0.0087443792          799 
 1901000   0.48692582   -8.3453599    241.96343  0.010606848 0.0087365193          794 
 1902000   0.49373613   -8.3400021    241.98028   0.01060201 0.0087286673          803 
 1903000   0.49493388   -8.3451761    241.38003  0.010570154 0.0087208322          815 
 1904000   0.49250697   -8.3231706    241.98645  0.010591143 0.0087130002          758 
 1905000   0.50140165   -8.3418741    241.67786  0.010572085 0.0087051716          848 
 1906000   0.49439788   -8.3403352    242.12759  0.010586201 0.0086973589          873 
 1907000   0.48284522   -8.3446417    241.89625  0.010570541 0.0086895494          777 
 1908000   0.50142958   -8.3453379    241.75444  0.010558807 0.0086817512          797 
 1909000   0.49505976   -8.3502172    241.73163   0.01055228 0.0086739622          838 
 1910000   0.48393376   -8.3555541    241.60835  0.010541376 0.0086661763          783 
 1911000   0.49079845   -8.3445409    242.16665  0.010560206 0.0086584082          828 
 1912000   0.48584968   -8.3474867    242.10805  0.010552129 0.0086506503          799 
 1913000   0.48690553    -8.341491    242.11119   0.01054675 0.0086429019          798 
 1914000   0.48749564   -8.3342782    241.83507  0.010529217 0.0086351628          779 
 1915000   0.49511161   -8.3538747    241.44728  0.010506844 0.0086274316          768 
 1916000   0.48921833   -8.3590285    241.58759  0.010507463 0.0086197085          738 
 1917000    0.4778442   -8.3578046    241.21377  0.010485731 0.0086119917          853 
 1918000   0.49238031   -8.3497141    241.43139   0.01048972 0.0086042825          822 
 1919000   0.47996523   -8.3455732    242.01799  0.010509727 0.0085965846          797 
 1920000    0.4787379   -8.3534143    241.70946  0.010490862 0.0085888937          784 
 1921000   0.48825106   -8.3373358    241.47388  0.010475181 0.0085812137          803 
 1922000   0.48310934   -8.3495944    241.87012  0.010486911 0.0085735463          798 
 1923000   0.48460413   -8.3665748    241.83793  0.010480063 0.0085658884          844 
 1924000   0.49042343   -8.3472477    242.20154  0.010490365 0.0085582368          770 
 1925000    0.4707453   -8.3518674    241.66466  0.010461673 0.0085505922          783 
 1926000   0.48299216   -8.3719744    241.62926   0.01045471 0.0085429645          825 
 1927000   0.48755018   -8.3734088    241.62207  0.010448974 0.0085353334          821 
 1928000   0.47901161   -8.3409183    241.49815  0.010438198 0.0085277218          803 
 1929000   0.48209016   -8.3645077    241.94837  0.010452237 0.0085201131          773 
 1930000   0.48083407     -8.36695    241.58852  0.010431283 0.0085125224          760 
 1931000   0.47269511   -8.3546875    241.80357  0.010435162  0.008504937          812 
 1932000   0.47751498   -8.3527003    242.01749  0.010438988 0.0084973593          806 
 1933000   0.48748697   -8.3578936      241.808  0.010424556 0.0084897881          779 
 1934000   0.47836701   -8.3647954    241.74224  0.010416332 0.0084822282          744 
 1935000   0.48942797   -8.3691021    241.62038  0.010405701 0.0084746869          750 
 1936000   0.47672721   -8.3678387    241.58225  0.010398685 0.0084671558          864 
 1937000   0.47651622   -8.3660765    241.52464  0.010390838 0.0084596191          786 
 1938000   0.48417329   -8.3727952    241.87279  0.010400447 0.0084521032          809 
 1939000   0.48405878   -8.3562467    241.49767  0.010378961 0.0084445952          797 
 1940000   0.48298923   -8.3677468    241.71463  0.010382931 0.0084370816          811 
 1941000   0.48561633    -8.365895    241.65539  0.010375038 0.0084295885          777 
 1942000   0.48210596   -8.3479439    241.27824  0.010353512 0.0084221023          837 
 1943000   0.46945847   -8.3649048    241.67046  0.010365005 0.0084146224          800 
 1944000   0.47052345   -8.3615506    241.98869  0.010373315 0.0084071533          805 
 1945000   0.48164767   -8.3587862    241.83746  0.010361502 0.0083996872          799 
 1946000   0.47274929   -8.3629288    241.46317  0.010340149 0.0083922401          814 
 1947000   0.47781303   -8.3702371     241.7547  0.010347316 0.0083847913          851 
 1948000   0.47774612   -8.3637309    241.52413  0.010332141  0.008377361          833 
 1949000   0.47019033   -8.3677611    241.08878  0.010308226 0.0083699384          767 
 1950000   0.47110329   -8.3598289    241.44976  0.010318366 0.0083625255          816 
 1951000   0.47910001   -8.3772118    241.57241  0.010318316 0.0083551164          838 
 1952000   0.47332228    -8.371227    241.66695  0.010317066 0.0083477177          814 
 1953000   0.46126763   -8.3760988    241.68676  0.010312629   0.00834033          854 
 1954000   0.45594308   -8.3564369    241.33489  0.010292344  0.008332949          782 
 1955000   0.46476797   -8.3620559    241.35687  0.010288017 0.0083255804          817 
 1956000   0.46843798   -8.3705053    241.70896  0.010297757 0.0083182209          788 
 1957000   0.46612296   -8.3728926    241.71757  0.010292862 0.0083108697          831 
 1958000   0.46385355   -8.3623365    241.35797    0.0102723 0.0083035275          851 
 1959000   0.45275426    -8.372859    241.72464  0.010282654 0.0082961921          837 
 1960000   0.46299619   -8.3788541    241.57038   0.01027085 0.0082888613          831 
 1961000   0.47802673   -8.3721477    241.21356  0.010250449 0.0082815365          885 
 1962000   0.47042292    -8.377446    241.16543   0.01024318 0.0082742195          918 
 1963000   0.47305311   -8.3746251     241.6654  0.010259187 0.0082669101          814 
 1964000   0.46929944   -8.3736993    241.50237  0.010247045 0.0082596117          881 
 1965000   0.46217725   -8.3728147    241.20171   0.01022908 0.0082523173          822 
 1966000   0.46844606   -8.3811956    241.45142  0.010234462  0.008245038          842 
 1967000    0.4712133    -8.371817    241.70559  0.010240027 0.0082377602          853 
 1968000   0.47592433   -8.3845959    241.51683   0.01022683 0.0082304946          819 
 1969000   0.47473364   -8.3747627    241.54565  0.010222857 0.0082232397          824 
 1970000   0.45463495    -8.381026    241.30418  0.010207453 0.0082159938          812 
 1971000   0.47080331   -8.3879358    241.81272  0.010223775 0.0082087558          881 
 1972000   0.47287878   -8.3755682    241.92252   0.01022323 0.0082015188          786 
 1973000   0.46574097    -8.384802    241.91192  0.010217601 0.0081942948          762 
 1974000   0.46132989   -8.3927299    241.64028  0.010200957 0.0081870793          792 
 1975000   0.45826738    -8.394519    241.40366  0.010185809 0.0081798706          819 
 1976000   0.45856781   -8.3751244    241.24252  0.010173858 0.0081726711          812 
 1977000    0.4539079   -8.3938242    241.43324  0.010176751 0.0081654871          800 
 1978000   0.47168077   -8.3920263    241.64127   0.01018037 0.0081583066          809 
 1979000   0.46494719   -8.3810771    241.46526  0.010167814  0.008151127          858 
 1980000   0.45864081   -8.4018341    241.64574  0.010170275 0.0081439699          891 
 1981000   0.45726317   -8.3941241    241.04603  0.010139914 0.0081368088          880 
 1982000    0.4671545   -8.4017087    240.98239  0.010132122 0.0081296609          836 
 1983000   0.46841244     -8.38423    241.30545  0.010140589 0.0081225194          832 
 1984000   0.44398112   -8.3923353    241.58484  0.010147213 0.0081153804          860 
 1985000    0.4549302   -8.3785068    241.35296  0.010132366  0.008108252          833 
 1986000   0.45393644    -8.379765    241.35891  0.010127514  0.008101137          818 
 1987000   0.45136828   -8.3858957    241.40253  0.010124247 0.0080940252          752 
 1988000   0.46064019   -8.4001208     241.3017  0.010114927 0.0080869195          857 
 1989000   0.44744537   -8.4008733      241.467  0.010116767 0.0080798268          869 
 1990000   0.45013638   -8.3931002    241.38528  0.010108262 0.0080727449          829 
 1991000    0.4516734   -8.3899363    241.64898  0.010114222 0.0080656748          830 
 1992000   0.45880768   -8.3923761    241.43461  0.010100176 0.0080586162          839 
 1993000   0.46112791   -8.3931695    241.51503  0.010098471 0.0080515568          850 
 1994000   0.46023644   -8.3890718    241.54312   0.01009458  0.008044507          839 
 1995000   0.46538818   -8.4025037     240.9556  0.010064979 0.0080374649          899 
 1996000   0.45977113   -8.3942502    241.39355  0.010078221 0.0080304329          738 
 1997000   0.45463113   -8.3848576    241.16336  0.010063569 0.0080234093          847 
 1998000   0.45508608   -8.3994046     241.2703  0.010062992 0.0080163914          825 
 1999000   0.44757969    -8.397097    241.27633  0.010058209 0.0080093898          889 
 2000000    0.4510958    -8.396259    241.37022  0.010057092 0.0080023905          808 
 2001000   0.44489521    -8.395826    241.26985  0.010047887 0.0079953978          793 
 2002000    0.4521181   -8.3906919    241.59206  0.010056279 0.0079884182          882 
 2003000   0.44764995   -8.3997024    241.32615  0.010040196 0.0079814469          860 
 2004000    0.4438339   -8.4031956    241.45435  0.010040517 0.0079744808          818 
 2005000   0.45082168   -8.3869409    241.35628  0.010031433  0.007967522          847 
 2006000   0.45387814   -8.4018632    241.26855  0.010022788 0.0079605593          852 
 2007000   0.45713609   -8.4079368    241.33743  0.010020654 0.0079536141          845 
 2008000   0.45291686   -8.4067892    241.42025  0.010019101 0.0079466748          742 
 2009000   0.44894343   -8.3995937    241.44342  0.010015075 0.0079397479          813 
 2010000   0.45852628   -8.4044428    240.94231 0.0099893165 0.0079328281          836 
 2011000   0.45079441   -8.4152819    241.07301 0.0099897652 0.0079259161          841 
 2012000   0.45726599   -8.4105541     241.7624  0.010013353 0.0079190131          900 
Loop time of 5244.29 on 48 procs for 2000000 steps with 4000 atoms

Performance: 65900.228 tau/day, 381.367 timesteps/s
99.4% CPU use with 48 MPI tasks x no OpenMP threads

MPI task timing breakdown:
Section |  min time  |  avg time  |  max time  |%varavg| %total
---------------------------------------------------------------
Pair    | 379.2      | 403.48     | 435.81     |  65.0 |  7.69
Neigh   | 37.326     | 38.451     | 39.827     |   8.6 |  0.73
Comm    | 323.14     | 356        | 382.96     |  70.1 |  6.79
Output  | 5.3018     | 5.3038     | 5.3531     |   0.3 |  0.10
Modify  | 4384.5     | 4394.5     | 4405.5     |   8.1 | 83.80
Other   |            | 46.54      |            |       |  0.89

Nlocal:        83.3333 ave          92 max          78 min
Histogram: 5 4 13 3 7 7 4 4 0 1
Nghost:        2415.02 ave        2436 max        2400 min
Histogram: 5 7 6 8 3 5 5 4 4 1
Neighs:        16779.6 ave       18913 max       14610 min
Histogram: 5 2 5 4 8 2 11 5 1 5
FullNghs:      33559.0 ave       37220 max       31240 min
Histogram: 2 8 11 4 10 4 4 4 0 1

Total # of neighbors = 1610834
Ave neighs/atom = 402.70850
Neighbor list builds = 106597
Dangerous builds = 0

#clear
#
#next RN
#
#jump SELF
Total wall time: 1:27:27
