
units lj                  # Use reduced LJ style units
atom_style atomic         # Uncharged point particles
atom_modify map hash      # Needed for indexing of clusters etc
                          # Used to be able to find where atoms are in relation to each other.

lattice fcc 1.0 spacing 1 1 1
Lattice spacing in x,y,z = 1.5874011 1.5874011 1.5874011
region box block 0 10 0 10 0 10 units lattice
create_box 2 box
Created orthogonal box = (0.0000000 0.0000000 0.0000000) to (15.874011 15.874011 15.874011)
  3 by 4 by 4 MPI processor grid
create_atoms 1 box
Created 4000 atoms
  using lattice units in orthogonal box = (0.0000000 0.0000000 0.0000000) to (15.874011 15.874011 15.874011)
  create_atoms CPU = 0.003 seconds
set type 1 type/fraction 2 0.61 78393
Setting atom values ...
  2454 settings made for type/fraction
mass 1 1.0
mass 2 1.0
pair_style lj/cut  3.5
pair_modify tail  yes
pair_coeff 1  1  1.0  1.0   # Intearaction between 1 and 1 set with epsilon = 1 and sigma = 1
pair_coeff 1  2  1.5  0.8
pair_coeff 2  2  0.5  0.88

write_data data.0
System init for write_data ...
Neighbor list info ...
  update every 1 steps, delay 10 steps, check yes
  max neighbors/atom: 2000, page size: 100000
  master list distance cutoff = 3.8
  ghost atom cutoff = 3.8
  binsize = 1.9, bins = 9 9 9
  1 neighbor lists, perpetual/occasional/extra = 1 0 0
  (1) pair lj/cut, perpetual
      attributes: half, newton on
      pair build: half/bin/atomonly/newton
      stencil: half/bin/3d
      bin: standard
WARNING: Not all mixed pair coeffs generated from mixing. Use write_data with 'pair ij' option to store all pair coeffs. (../write_data.cpp:312)


#############################
#   M E L T   S Y S T E M   #
#############################

velocity all create 2.4 3143649 mom yes dist gaussian # Assign velocities
                                                    # Temperature 2.4, random number seed, zero linear momentum
                                                                                # Gaussian distribution

timestep 0.002   # simulation timestep
thermo 1000       # output thermodynamic data every 1000 steps bf 100

# Define a fix  in this case with index 1 applied to all
# particles in the simulation. This fix is for simulations
# in the anisotropic NPT ensemble. Note that we use the MTK
# correction.
fix 1 all npt temp 2.4 2.4 0.1 iso 5.68 5.68 0.5 mtk yes tchain 5 pchain 5 # Use NPT ensemble
                                                                         # Set temperature and pressure and damping
                                                                         # Numbers of thermostats in chain and in barostat
run 10000          # run for 10000 steps
Per MPI rank memory allocation (min/avg/max) = 3.642 | 3.644 | 3.648 Mbytes
Step Temp E_pair E_mol TotEng Press Volume 
       0          2.4   -4.6675525            0   -1.0684525   -4.0420614         4000 
    1000    2.4098121   -4.4306709            0  -0.81685646    5.7845222    3604.2177 
    2000    2.3874413   -4.3758561            0  -0.79558949    5.5556864    3638.9217 
    3000    2.4179578   -4.5289193            0  -0.90288932    5.7134532    3555.6887 
    4000    2.4009595   -4.3432954            0  -0.74275647    5.8059761    3636.7822 
    5000     2.434527   -4.3990119            0  -0.74813434    5.9293391    3599.9674 
    6000     2.402767   -4.4053424            0  -0.80209295    5.7154114    3615.0076 
    7000    2.3746803   -4.3349116            0  -0.77378169    5.4213194    3674.6084 
    8000    2.4604528   -4.4350413            0  -0.74528469    5.8728371    3597.9427 
    9000    2.3418061   -4.4384123            0  -0.92658134    5.3069449    3624.8517 
   10000    2.4427266   -4.3929738            0  -0.72979994    5.7708538    3626.8722 
Loop time of 2.60265 on 48 procs for 10000 steps with 4000 atoms

Performance: 663938.071 tau/day, 3842.234 timesteps/s
99.6% CPU use with 48 MPI tasks x no OpenMP threads

MPI task timing breakdown:
Section |  min time  |  avg time  |  max time  |%varavg| %total
---------------------------------------------------------------
Pair    | 1.2101     | 1.265      | 1.3492     |   2.4 | 48.61
Neigh   | 0.21894    | 0.22301    | 0.22978    |   0.5 |  8.57
Comm    | 0.78469    | 0.86575    | 0.92481    |   3.4 | 33.26
Output  | 0.00024219 | 0.00024542 | 0.00030386 |   0.0 |  0.01
Modify  | 0.20534    | 0.23324    | 0.26631    |   3.8 |  8.96
Other   |            | 0.01539    |            |       |  0.59

Nlocal:        83.3333 ave          98 max          74 min
Histogram: 2 6 9 10 5 11 2 2 0 1
Nghost:        1751.92 ave        1783 max        1723 min
Histogram: 3 3 9 5 5 3 8 8 2 2
Neighs:        10533.2 ave       12707 max        9301 min
Histogram: 6 7 5 9 7 10 2 1 0 1

Total # of neighbors = 505596
Ave neighs/atom = 126.39900
Neighbor list builds = 905
Dangerous builds = 190

# Equilibrate just above the melting temperature to avoid step fn in T

fix 1 all npt temp 1.25 1.25 0.1 iso 5.68 5.68 0.5 mtk yes tchain 5 pchain 5
run 2000
Per MPI rank memory allocation (min/avg/max) = 3.644 | 3.646 | 3.650 Mbytes
Step Temp E_pair E_mol TotEng Press Volume 
   10000    2.4427266   -4.3929738            0  -0.72979994    5.7708538    3626.8722 
   11000    1.2309641   -6.3751706            0    -4.529186    5.8301171    2784.1702 
   12000    1.2393605   -6.5164573            0   -4.6578813    5.7544624    2747.9194 
Loop time of 0.728434 on 48 procs for 2000 steps with 4000 atoms

Performance: 474442.400 tau/day, 2745.616 timesteps/s
99.4% CPU use with 48 MPI tasks x no OpenMP threads

MPI task timing breakdown:
Section |  min time  |  avg time  |  max time  |%varavg| %total
---------------------------------------------------------------
Pair    | 0.29766    | 0.32095    | 0.34947    |   2.3 | 44.06
Neigh   | 0.041046   | 0.043425   | 0.04599    |   0.5 |  5.96
Comm    | 0.2282     | 0.26011    | 0.31991    |   3.4 | 35.71
Output  | 5.2305e-05 | 5.3835e-05 | 7.0235e-05 |   0.0 |  0.01
Modify  | 0.0437     | 0.099092   | 0.10304    |   2.6 | 13.60
Other   |            | 0.004804   |            |       |  0.66

Nlocal:        83.3333 ave          91 max          75 min
Histogram: 2 0 4 10 4 13 7 1 4 3
Nghost:        2125.56 ave        2147 max        2099 min
Histogram: 2 0 3 6 6 10 9 7 3 2
Neighs:        13904.7 ave       15810 max       12167 min
Histogram: 2 3 6 5 11 7 6 5 2 1

Total # of neighbors = 667424
Ave neighs/atom = 166.85600
Neighbor list builds = 143
Dangerous builds = 9

#############################
# L I N E A R  Q U E N C H  #
#############################

# Define solid atoms. This closely follows ten Wolde  Ruiz-Montero and Frenkel  Faraday Discuss  1996  104  93-110
# Compute components of the per-atom q6 vector
compute q6 all orientorder/atom degrees 1 6 components 6 nnn NULL cutoff 1.3 # compute the Q6 parameter.
                                                                             # Use all neighbours within 1.3 unit cell.

# get number of connections
compute coord_number all coord/atom orientorder q6 0.5

# An atom is solid if it has 8 or more connections (of a possible 14)
variable is_solid atom c_coord_number>=8
group solid dynamic all var is_solid    # Must be dynamic to update
dynamic group solid defined

# do clustering
compute cluster solid cluster/atom 1.3 # Create a cluster where all atoms within are solid and max 1.3 units from another member

# define chunks one chunk per cluster
compute clus_chunks solid chunk/atom c_cluster nchunk every compress yes  # Says which atoms are in which chunk

# count the size of each chunk
compute size_chunks solid property/chunk clus_chunks count


# Find the maximum entry in the vector of chunk sizes
variable max_n equal max(c_size_chunks)


# Thermo style which includes this variable
# thermo_style custom step temp pe vol v_max_n

thermo ${N}  # Print the thermo information every 100 steps
thermo 1000  

# Reset the npt fix at a lower temperature (below freezing)
fix 1  all npt temp  ${temp} ${temp}  0.1  iso  5.68  5.68  0.5  mtk yes tchain  5  pchain  5
fix 1  all npt temp  0.45 ${temp}  0.1  iso  5.68  5.68  0.5  mtk yes tchain  5  pchain  5
fix 1  all npt temp  0.45 0.45  0.1  iso  5.68  5.68  0.5  mtk yes tchain  5  pchain  5

dump dmp2 all dcd ${N} traj.dcd
dump dmp2 all dcd 1000 traj.dcd


compute msd all msd com yes
variable twopoint equal c_msd[4]/6/(step*dt+1.0e-6)
fix 9 all vector 10 c_msd[4]
variable fit equal slope(f_9)/6/(10*dt)
thermo_style custom step temp pe c_msd[4] v_twopoint v_fit v_max_n

fix 1 all npt temp 1.25 ${temp} 0.1 iso 5.68 5.68 0.5 mtk yes tchain 5 pchain 5
fix 1 all npt temp 1.25 0.45 0.1 iso 5.68 5.68 0.5 mtk yes tchain 5 pchain 5
run 5000000 # 5000000  # Run for this many steps
Neighbor list info ...
  update every 1 steps, delay 10 steps, check yes
  max neighbors/atom: 2000, page size: 100000
  master list distance cutoff = 3.8
  ghost atom cutoff = 3.8
  binsize = 1.9, bins = 8 8 8
  4 neighbor lists, perpetual/occasional/extra = 1 3 0
  (1) pair lj/cut, perpetual
      attributes: half, newton on
      pair build: half/bin/atomonly/newton
      stencil: half/bin/3d
      bin: standard
  (2) compute orientorder/atom, occasional
      attributes: full, newton on
      pair build: full/bin/atomonly
      stencil: full/bin/3d
      bin: standard
  (3) compute coord/atom, occasional
      attributes: full, newton on
      pair build: full/bin/atomonly
      stencil: full/bin/3d
      bin: standard
  (4) compute cluster/atom, occasional
      attributes: full, newton on
      pair build: full/bin/atomonly
      stencil: full/bin/3d
      bin: standard
Per MPI rank memory allocation (min/avg/max) = 9.848 | 9.854 | 9.858 Mbytes
Step Temp PotEng c_msd[4] v_twopoint v_fit v_max_n 
   12000    1.2393605   -6.5164573 3.9443045e-34 2.7391003e-36 8.3333333e+20            2 
   13000    1.2664385   -6.5541678   0.51547365 0.0033043181   0.04257863            3 
   14000    1.2365739   -6.5600066   0.95899292  0.005708291   0.03883825            2 
   15000    1.2785821    -6.547044    1.3933632 0.0077409067  0.038092823            2 
   16000    1.2563921   -6.5246433    1.8051414 0.0094017777  0.036937754            1 
   17000    1.2640079   -6.5941907    2.2853996  0.011202939  0.036933699            2 
   18000    1.2260503    -6.514084    2.8150308   0.01303255   0.03763665            2 
   19000    1.2663638   -6.5694896     3.303447  0.014488802  0.038317745            2 
   20000    1.2686305   -6.5196397    3.7240878  0.015517032  0.038510012            5 
   21000    1.2526017   -6.4964335    4.1478385  0.016459676  0.038496062            1 
   22000    1.2625778   -6.5124541     4.613841   0.01747667  0.038453316            4 
   23000    1.2214261   -6.5868785    5.1230729  0.018561858  0.038467344            4 
   24000    1.2474433   -6.5435569    5.4570504  0.018948091  0.038344138            3 
   25000    1.2569889   -6.5499716    5.8850006  0.019616668  0.038020019            1 
   26000    1.2366583   -6.5875522    6.2137472  0.019915856  0.037651182            4 
   27000    1.2060161   -6.5300737    6.6596297  0.020554412  0.037327486            3 
   28000    1.2608253   -6.5845091    7.1400193  0.021250057  0.037148476            3 
   29000    1.2252267   -6.6021628    7.5899652  0.021810244  0.036967444            1 
   30000     1.259342   -6.5663942    7.9746156   0.02215171  0.036821781            2 
   31000    1.2632176   -6.5329738    8.4055425  0.022595544   0.03669381            2 
   32000    1.2490949   -6.5918679    8.8376109  0.023014611  0.036561684            2 
   33000    1.2602441   -6.5792538    9.3444047  0.023596981  0.036531192            3 
   34000     1.254144   -6.5520084    9.7740959  0.023956117  0.036527879            4 
   35000    1.2283427   -6.5511215    10.327261  0.024588717  0.036576753            2 
   36000    1.2486417   -6.5615851    10.738733  0.024858179  0.036627206            3 
   37000    1.2448584   -6.5664659    11.200651   0.02522669  0.036709229            2 
   38000    1.2269055   -6.5391366    11.619177  0.025480652  0.036769656            1 
   39000    1.2215767   -6.5773065    12.123185  0.025904242  0.036813593            3 
   40000    1.2662674   -6.5653288    12.708839  0.026476748  0.036898005            2 
   41000    1.2229004   -6.5669466     13.08709  0.026599776  0.036992692            5 
   42000    1.2611519   -6.5719159    13.346396  0.026480943  0.037013702            3 
   43000    1.2142812   -6.5478864    13.836822  0.026815545  0.037006481            3 
   44000    1.2575148   -6.5702882    14.271992  0.027030287  0.036987842            2 
   45000    1.2454796   -6.5463349    14.602929   0.02704246  0.036956933            5 
   46000    1.2469047    -6.577064    15.025057  0.027219307  0.036886898            2 
   47000    1.2400815   -6.5411406    15.470475  0.027429919  0.036834225            4 
   48000    1.2206316   -6.5504732    15.862843  0.027539658  0.036766002            2 
   49000    1.2357953   -6.5878994    16.335405    0.0277813  0.036719092            3 
   50000    1.2274444   -6.5342895    16.854982  0.028091637  0.036686117            2 
   51000    1.2245475   -6.5331124    17.228684  0.028151444  0.036663145            4 
   52000    1.2153351    -6.543769    17.678809  0.028331424  0.036646621            2 
   53000    1.2355434   -6.5474599    17.941713   0.02821024  0.036596747            3 
   54000    1.2591155   -6.6135364    18.352801  0.028322223  0.036540355            2 
   55000     1.232887    -6.555826    18.874593  0.028597868  0.036493154            1 
   56000    1.2403235   -6.5550157    19.327026  0.028760454  0.036460637            2 
   57000    1.2418231   -6.5448735    19.787367  0.028928899  0.036447995            2 
   58000    1.2246771   -6.5635521    20.211789  0.029039926  0.036426651            2 
   59000    1.2469992   -6.5821639    20.623824  0.029129695  0.036414029            1 
   60000    1.2285736   -6.5543181    20.995294   0.02916013   0.03639163            2 
   61000    1.2745741   -6.5576145    21.524685  0.029405308  0.036360519            2 
   62000    1.2106716   -6.5774615    21.944514  0.029495314  0.036352029            1 
   63000    1.2297148   -6.5403338    22.426888  0.029665196  0.036343432            4 
   64000    1.2305181   -6.5606066    22.948261  0.029880548     0.036342            2 
   65000    1.2132768   -6.5647281      23.4936      0.03012  0.036359666            2 
   66000    1.2348175   -6.5299868    24.136696  0.030475626  0.036402035            2 
   67000    1.2300172   -6.5508323    24.476381  0.030443259  0.036453725            1 
   68000    1.2681502   -6.5701506    24.846876  0.030449603   0.03648417            2 
   69000     1.246065   -6.5512145     25.20861   0.03044518  0.036500825            3 
   70000    1.2247175   -6.5736644    25.658199  0.030545474  0.036500194            3 
   71000    1.2352848   -6.6196553     25.94888  0.030456431  0.036502296            3 
   72000    1.2633763   -6.6050285    26.286788  0.030424523  0.036497119            3 
   73000    1.2045732   -6.5482767    27.145713  0.030988257  0.036509603            4 
   74000    1.2421954   -6.6304437    27.386412  0.030840554   0.03652894            4 
   75000    1.2184059   -6.5929311    27.884868  0.030983187  0.036544839            6 
   76000    1.2321868   -6.5671894    28.225269   0.03094876  0.036550598            2 
   77000    1.2459892   -6.5946683    28.683558  0.031042811  0.036549504            2 
   78000    1.2311119   -6.5876617    29.291163  0.031293977  0.036560218            2 
   79000    1.2659914   -6.5792717     29.72259  0.031352943  0.036581297            2 
   80000    1.2279155   -6.5660092    30.209908  0.031468654  0.036604364            2 
   81000    1.2149717   -6.5537856    30.654785  0.031537844  0.036627793            2 
   82000    1.2932629   -6.6000974    31.055274  0.031560237  0.036649375            3 
   83000    1.2470568   -6.5972412    31.477223  0.031603637   0.03666301            1 
   84000    1.2575866   -6.5473413     32.06317    0.0318087  0.036678662            1 
   85000    1.2157525   -6.6153633    32.455563   0.03181918  0.036704329            2 
   86000    1.2534941   -6.6238134    32.784983  0.031768394  0.036723197            3 
   87000    1.2516301   -6.5935024    33.045032  0.031652329   0.03673334            2 
   88000    1.2295425   -6.5649515    33.709696  0.031922061    0.0367416            1 
   89000    1.2519487   -6.6304834    34.037766  0.031870568  0.036753947            2 
   90000    1.2608412   -6.6039801    34.562277  0.032002108   0.03676184            2 
   91000    1.2431985   -6.5875534    35.057274  0.032103731  0.036772481            1 
   92000    1.2322789   -6.5749333    35.558365  0.032208664  0.036780543            3 
   93000    1.2278215   -6.5265882    36.024819  0.032280303  0.036791271            2 
   94000    1.2299766   -6.5891107    36.159541   0.03205633  0.036792127            1 
   95000    1.2300953   -6.6056897    36.671704  0.032168162  0.036788105            1 
   96000    1.2375761   -6.5683536    37.308866  0.032386168   0.03679131            3 
   97000    1.2316951   -6.6036166    37.659127  0.032353202  0.036796128            3 
   98000    1.2279813   -6.5574036    38.269998  0.032542515  0.036803673            2 
   99000    1.2404723    -6.620136     38.71722  0.032590253  0.036813287            2 
  100000    1.2499219   -6.5930187    39.170588  0.032642157  0.036826535            3 
  101000    1.2017374   -6.5819182    39.876834  0.032901678  0.036855364            2 
  102000     1.209944   -6.5774825      40.0927  0.032755473  0.036878043            4 
  103000    1.2432505   -6.5763049    40.520896  0.032783896  0.036894694            2 
  104000    1.2236913   -6.5674836    40.932372  0.032798375  0.036904399            2 
  105000    1.2299377   -6.5592844    41.192138  0.032692173  0.036901234            3 
  106000    1.2117535   -6.5993965    41.454748  0.032590211  0.036893953            2 
  107000    1.2638292   -6.6210411    41.889485  0.032624209  0.036883063            3 
  108000    1.2206096   -6.5747669    42.279493  0.032623065  0.036871962            1 
  109000    1.2426255    -6.582731    42.597082  0.032566576  0.036854247            1 
  110000    1.2367277   -6.5705775    42.824296  0.032442648  0.036829615            3 
  111000    1.2239482   -6.6235613    43.078225  0.032341009  0.036801277            2 
  112000    1.2016515   -6.6004335    43.583221  0.032427992   0.03676696            6 
  113000    1.1998847   -6.5922351    43.886715  0.032364834  0.036731578            3 
  114000    1.2467973   -6.5806312     44.30779  0.032388735   0.03669674            2 
  115000    1.2234471   -6.5881382    44.806614  0.032468561    0.0366602            1 
  116000    1.2410876    -6.597257    45.296625  0.032540679  0.036633041            3 
  117000    1.2186627   -6.6283612    45.688258  0.032541494  0.036606646            2 
  118000    1.2301255   -6.5817972    46.388215  0.032760039  0.036585333            1 
  119000    1.2726618   -6.6252825    46.494961  0.032559496  0.036564002            5 
  120000    1.2423672   -6.5871315     47.05978  0.032680403  0.036541399            2 
  121000    1.2128638   -6.5451922    47.333343  0.032598721  0.036519573            3 
  122000    1.2203189   -6.5835047    47.902323  0.032720166  0.036488868            1 
  123000    1.2276458   -6.5643074    48.188679  0.032648156  0.036465601            5 
  124000    1.2389006   -6.6027278    48.634517  0.032684487  0.036441771            2 
  125000    1.2715943   -6.5898161    49.046127  0.032697418   0.03641993            1 
  126000    1.2535404   -6.5775895    49.541003  0.032765214  0.036399516            3 
  127000    1.2066689   -6.5781029    49.664937  0.032588541  0.036378086            3 
  128000    1.2244014   -6.6122579    50.302771    0.0327492  0.036355034            1 
  129000    1.2219143   -6.6138069    50.741633  0.032778833  0.036327786            2 
  130000    1.2139848   -6.6123364    51.042173  0.032719341  0.036308106            4 
  131000     1.221661   -6.5802519    51.632691  0.032845223  0.036287656            1 
  132000    1.2232451   -6.6025791    51.865933  0.032743645  0.036270412            3 
  133000    1.2169402   -6.5960767    52.415429  0.032841748  0.036252232            2 
  134000    1.2236231   -6.5193943    53.080344  0.033010164  0.036236137            2 
  135000    1.2229904    -6.577925    53.220923  0.032852422  0.036224191            3 
  136000    1.2276821   -6.6219544    53.660333  0.032880106  0.036210724            3 
  137000    1.2236109    -6.579171    53.993231  0.032842598  0.036196281            1 
  138000    1.2120146   -6.6197846    54.459387  0.032886103  0.036178706            3 
  139000    1.2367073   -6.5445611    55.067465  0.033014068  0.036160044            2 
  140000    1.2237827   -6.5774668    55.214391  0.032865709  0.036142654            2 
  141000    1.2274717   -6.6342324    55.553029  0.032832759  0.036122635            1 
  142000    1.2014206   -6.6006381    56.105511  0.032925769  0.036101248            3 
  143000    1.2217287   -6.5920811    56.380951  0.032856032  0.036078867            3 
  144000    1.2175854   -6.6365899    56.458374   0.03267267  0.036054523            2 
  145000    1.2225248   -6.6345958    57.067165  0.032797221  0.036030579            3 
  146000    1.2291117   -6.5599656    57.577204  0.032863701  0.036006399            4 
  147000    1.2344375   -6.5976819    57.888581  0.032816656  0.035980192            4 
  148000    1.2497655   -6.6292673    58.170603  0.032753718  0.035957942            2 
  149000    1.2504682   -6.6163894    58.569008  0.032756716  0.035929629            6 
  150000    1.2520657   -6.5646884    59.168315  0.032871286  0.035904798            3 
  151000    1.2299194   -6.6211808     59.40052  0.032781744  0.035879009            2 
  152000    1.2398561   -6.6668778    59.234864  0.032475254   0.03585157            2 
  153000    1.2238355   -6.6087408    60.064924    0.0327151  0.035825315            2 
  154000    1.2186476     -6.60526    60.557625  0.032769277  0.035796765            3 
  155000    1.2384395   -6.6323292    60.786158   0.03268073  0.035767573            2 
  156000    1.2509875   -6.5969932    60.974048  0.032571606  0.035736751            2 
  157000    1.1818065   -6.5944167    61.271011  0.032521768  0.035706359            2 
  158000    1.2416436   -6.6210044    61.635926    0.0325084  0.035673124            5 
  159000    1.2230587   -6.6020659    62.234637  0.032617734  0.035642668            1 
  160000    1.2044553   -6.6064591    62.566582  0.032586761  0.035612851            4 
  161000    1.2136618   -6.6335626    63.153779  0.032688292  0.035582882            4 
  162000    1.2307934   -6.6093467    63.758293  0.032797476   0.03555605            2 
  163000    1.2434562   -6.6438205    63.716217  0.032574753  0.035525816            3 
  164000    1.2239502    -6.551166    64.047778  0.032544603  0.035493704            2 
  165000    1.2305445   -6.6204284    64.352175  0.032501098    0.0354606            3 
  166000    1.2219823   -6.6000515     64.79501  0.032527616  0.035431061            2 
  167000    1.2523549   -6.5720417    65.471568  0.032670443  0.035402149            2 
  168000     1.263531   -6.6145386    65.978316  0.032727339  0.035381088            5 
  169000    1.2388455   -6.6256545    66.231092  0.032658329  0.035356603            3 
  170000    1.2023643   -6.6292009    66.559264   0.03262709  0.035329114            2 
  171000    1.2294074   -6.5909543    66.889678  0.032597309  0.035301371            2 
  172000    1.1998924   -6.6038657    67.444913  0.032676799  0.035272635            4 
  173000    1.2145902   -6.6129736      67.7439  0.032631936  0.035249131            2 
  174000    1.2328212   -6.5853496    68.608214   0.03285834  0.035227194            3 
  175000    1.2236686   -6.5992661    68.942077   0.03282956  0.035209999            2 
  176000    1.2146985   -6.5857877    69.379676  0.032850225  0.035192887            2 
  177000    1.1835474   -6.6116026    69.612102  0.032774059  0.035178015            2 
  178000    1.2340285   -6.6076688     69.89685  0.032723244  0.035159061            1 
  179000    1.2433166   -6.6129232    70.455908  0.032800702  0.035140585            3 
  180000    1.2070035   -6.6239212    70.861799  0.032806388  0.035124519            3 
  181000    1.2167629   -6.6384711    71.240399  0.032799447  0.035112157            2 
  182000    1.2185309   -6.6127394    71.602208  0.032784894  0.035096542            6 
  183000    1.2338148   -6.6082111    72.374559  0.032957449  0.035084259            5 
  184000    1.2172625   -6.5986372     72.49254  0.032831766    0.0350729            4 
  185000    1.2009245   -6.6037472    73.108485   0.03293175  0.035062649            2 
  186000    1.2215593   -6.6470385    73.649102  0.032996909  0.035053592            4 
  187000      1.20927   -6.6213902    74.016154  0.032984026  0.035044813            4 
  188000     1.200292   -6.5989264    74.884551  0.033193506  0.035038358            4 
  189000    1.2316168   -6.6466857    74.975498   0.03305798  0.035032159            2 
  190000    1.2041716   -6.6251444    75.294102  0.033023729  0.035023298            3 
  191000    1.2181767   -6.6267979    75.679924  0.033019164  0.035014573            2 
  192000    1.2366431   -6.6487935    76.129935  0.033042506  0.035004095            2 
  193000    1.2257453   -6.6360727     76.74417  0.033136515  0.034994567            2 
  194000    1.2353401    -6.605921    76.701438  0.032947353  0.034984786            2 
  195000    1.2224962   -6.6539802    76.741906  0.032795686  0.034971355            2 
  196000     1.213165   -6.6360264    77.448092  0.032928611  0.034960476            1 
  197000     1.251349   -6.6139602    77.713035  0.032873534  0.034946725            1 
  198000     1.243778   -6.6421447     78.31402  0.032960446  0.034934029            2 
  199000    1.2011586   -6.5995905    78.567751  0.032901068  0.034921781            3 
  200000    1.2068087   -6.5972541    78.993912   0.03291413  0.034909742            4 
  201000    1.2294901    -6.644721     79.35971  0.032902036  0.034897235            3 
  202000    1.2168468   -6.6007647    80.025812  0.033013949    0.0348847            2 
  203000    1.2101506   -6.6062642    80.188616  0.032918151  0.034870822            1 
  204000    1.2102363   -6.6338817    80.324794  0.032812416  0.034857405            3 
  205000    1.2123841   -6.6215097    81.018144  0.032934205  0.034844121            4 
  206000    1.2118744   -6.6383651    81.108011  0.032810684  0.034832161            3 
  207000    1.2093264   -6.6450841    81.536739  0.032824774  0.034819085            2 
  208000    1.1985226   -6.6127183    82.007935  0.032855743  0.034805252            4 
  209000     1.201662   -6.6248628    82.258127  0.032798296  0.034791146            5 
  210000     1.239432   -6.5909954     82.62281  0.032786829  0.034776574            4 
  211000    1.2425518   -6.6325297    82.758588  0.032685066  0.034762462            2 
  212000    1.2129851   -6.6594763    83.525604  0.032832392  0.034749712            4 
  213000    1.2098193    -6.627852    84.216754  0.032948652  0.034738905            2 
  214000    1.2082434   -6.6001183    85.087085    0.0331336  0.034730556            5 
  215000    1.2184789    -6.582183    85.824265  0.033265219  0.034723525            5 
  216000    1.2250811   -6.6074472    85.803601  0.033103241  0.034717849            3 
  217000     1.216836   -6.6211543    86.534707  0.033231454  0.034713005            4 
  218000    1.2077782   -6.6185302      87.0028  0.033257951  0.034709458            1 
  219000    1.2051854   -6.6743511    87.044996  0.033122144  0.034707568            5 
  220000    1.2459603   -6.6606501    87.468093  0.033131853   0.03470252            1 
  221000    1.2099484   -6.6689965    87.906631  0.033147297  0.034698747            4 
  222000    1.2261768   -6.6357803    88.486985  0.033215835   0.03469497            2 
  223000    1.2255919   -6.6415327    88.391993  0.033031387  0.034689549            2 
  224000    1.2397867   -6.6520901    88.875991  0.033063985  0.034683399            2 
  225000    1.1786387   -6.6791133    89.345243  0.033090831   0.03467734            2 
  226000    1.2264433    -6.676505     89.49655  0.033000203  0.034671234            2 
  227000    1.2559506   -6.6088673    90.264462  0.033136734  0.034666864            2 
  228000    1.2230048   -6.6415958    90.692962  0.033148012  0.034661819            4 
  229000    1.2237296   -6.5899883    91.034852  0.033127675   0.03465488            2 
  230000    1.2155681   -6.6627933    90.894576  0.032932817  0.034646999            7 
  231000    1.2127512   -6.6662421    91.459594  0.032994081  0.034635637            5 
  232000    1.2210075   -6.6799907    91.827239  0.032983922  0.034626081            2 
  233000    1.2134673   -6.6536172    92.480981  0.033076173  0.034618234            6 
  234000    1.2065587   -6.6613487    93.013672  0.033124527   0.03461321            2 
  235000    1.1990463   -6.6694602    93.161441  0.033035972  0.034607682            2 
  236000    1.2091931   -6.6617665    93.868203  0.033145552  0.034603976            3 
  237000    1.2236188   -6.5849009     94.34681  0.033173984  0.034600543            4 
  238000    1.1962511   -6.5881653    94.715947  0.033163847  0.034596603            2 
  239000    1.2360525   -6.6422805    94.859366  0.033075093  0.034590777            2 
  240000    1.2517253   -6.6337284    96.039454  0.033347032  0.034587446            3 
  241000    1.1928877   -6.6261706    96.333111  0.033310204  0.034582626            2 
  242000    1.1956732   -6.6335661    96.134948  0.033104321   0.03457815            2 
  243000    1.2141644   -6.6544412    96.929362  0.033240522  0.034574613            3 
  244000    1.2265486    -6.627603    97.372421  0.033255608  0.034570219            3 
  245000    1.2204714   -6.6178561    97.973077  0.033324176  0.034566105            3 
  246000    1.2016672   -6.6525843     97.97582  0.033189641  0.034563139            4 
  247000    1.1914827   -6.6070668    98.895669   0.03336561  0.034558849            3 
  248000    1.2380483   -6.6636844    98.555902  0.033116902  0.034555317            4 
  249000     1.207744   -6.6280673    99.229683  0.033209399  0.034551036            3 
  250000    1.1856071   -6.6732778    99.396533  0.033132177  0.034546408            3 
  251000    1.2312519   -6.6744989    99.715673  0.033106133  0.034542695            3 
  252000    1.2249015   -6.6700272    100.39818  0.033200455  0.034537658            2 
  253000    1.2218786   -6.6660198     100.3674  0.033059092  0.034532433            1 
  254000    1.2293497   -6.6757433    101.00261   0.03313734  0.034526165            2 
  255000    1.2238008   -6.6488679       101.09  0.033035948    0.0345201            1 
  256000     1.203527   -6.6270763     101.8844  0.033165495  0.034514582            4 
  257000    1.1972305   -6.6431298    102.31491  0.033176042  0.034508686            3 
  258000    1.2090953   -6.5984985    102.67783  0.033164673  0.034502436            6 
  259000    1.2077157   -6.6720106    102.96543   0.03312916  0.034496266            2 
  260000    1.1992178   -6.6336002    103.44391    0.0331551  0.034489995            3 
  261000    1.2208918    -6.663808    103.61653  0.033083182  0.034483679            5 
  262000    1.2001826   -6.6511337    104.08402  0.033105603  0.034475116            2 
  263000    1.1889917   -6.6073182     104.6486  0.033158618  0.034468452            2 
  264000    1.1961185    -6.614179    105.05839  0.033162371  0.034461698            5 
  265000    1.1713383   -6.7015383    105.11624  0.033055421   0.03445505            2 
  266000    1.2060958   -6.6240452    105.80533  0.033147034  0.034449576            1 
  267000    1.2310409   -6.6705219     106.0977  0.033114137  0.034445013            1 
  268000     1.217652   -6.6772248    106.28643  0.033049263  0.034440844            5 
  269000    1.2255438   -6.6589911    106.96755  0.033137407  0.034435425            2 
  270000    1.2349265   -6.6614714    107.14316  0.033068877   0.03442938            2 
  271000    1.2115969   -6.6304969    107.30785  0.032997493  0.034420412            2 
  272000    1.1893827   -6.6539834    107.72688  0.033004559  0.034411524            1 
  273000    1.2134586   -6.6615706    108.02177  0.032973679  0.034404304            2 
  274000    1.2021452   -6.6753161    108.36594   0.03295801  0.034396563            2 
  275000    1.2138959   -6.6690399    109.14045  0.033072865  0.034389233            4 
  276000    1.2254346   -6.6504674    109.19922  0.032970778   0.03438195            2 
  277000    1.2036574    -6.652854    109.80691   0.03303457  0.034374329            2 
  278000    1.1822676   -6.6491774    110.43317  0.033103469  0.034367372            2 
  279000    1.2128274   -6.6293886    110.58882  0.033031308   0.03436045            2 
  280000    1.2022073   -6.6323436    111.35573  0.033141587  0.034353296            3 
  281000    1.1893198   -6.6698111    111.42743  0.033044908  0.034345445            4 
  282000    1.2039628   -6.7070174    111.39877  0.032919257   0.03433752            2 
  283000    1.2215091   -6.6228026    112.27961  0.033062311  0.034329908            6 
  284000    1.2063907   -6.6565358    112.78708    0.0330948   0.03432354            6 
  285000    1.1797999   -6.6846626    112.95003  0.033026325    0.0343171            2 
  286000    1.2033126   -6.6610762    113.51959  0.033076803  0.034309222            2 
  287000    1.1870247   -6.6679102    113.93735  0.033082855  0.034303144            5 
  288000    1.2057993   -6.6666761    114.03243  0.032995496  0.034297245            1 
  289000    1.2311882   -6.7167284    114.47853  0.033009957  0.034292361            3 
  290000    1.1971108   -6.6576899    115.42691  0.033168653  0.034288026            3 
  291000    1.1916871   -6.6165684    116.19178  0.033273705  0.034284652            2 
  292000    1.1821634   -6.6645798    116.73306  0.033314228  0.034282221            2 
  293000    1.2142121   -6.6890952    116.78483  0.033215253  0.034279951            3 
  294000    1.2292742   -6.6644391    117.36368  0.033266349  0.034278127            7 
  295000    1.2299363   -6.6362211    118.15027  0.033375784  0.034276868            2 
  296000    1.2136201   -6.6595402    118.40161  0.033333787  0.034276438            3 
  297000    1.2201881   -6.6591063    118.53748  0.033259675  0.034276626           10 
  298000    1.1960466   -6.6298245    119.26444  0.033351354  0.034275253            3 
  299000    1.1925667   -6.6574474    119.24109  0.033233304  0.034274576            2 
  300000    1.2108418   -6.7122863    119.82121  0.033283669  0.034273452            5 
  301000     1.212941   -6.7025086    119.94129  0.033206336  0.034272478            2 
  302000     1.222854   -6.6397139    121.22342  0.033450171  0.034273309            5 
  303000    1.1871969   -6.6588371    121.29382  0.033359137  0.034274141            2 
  304000    1.1913761   -6.6722883    121.80376  0.033389189  0.034274799            1 
  305000    1.1947696   -6.6474378    122.02702  0.033340717  0.034273733            2 
  306000    1.1926267   -6.6481941    122.65415  0.033402547  0.034273395            4 
  307000    1.1815514   -6.6528194    122.80311  0.033334177  0.034273017            2 
  308000    1.1805606   -6.6476635    123.32486  0.033367115  0.034272315            2 
  309000    1.2000043   -6.7008251    123.32027  0.033257894  0.034271221            5 
  310000    1.1827349   -6.6951434    123.98081  0.033328174  0.034269351            2 
  311000    1.2132705   -6.6764544     124.1367  0.033262781   0.03426565            7 
  312000     1.187554    -6.667548    124.86108  0.033349649  0.034263673            4 
  313000     1.205111   -6.6713418    124.90498  0.033254788  0.034261517            1 
  314000    1.2103789   -6.7004868    125.49132  0.033304491  0.034260016            2 
  315000    1.1895172   -6.7126229    125.35861  0.033163654   0.03425757            2 
  316000    1.2143179   -6.6989813    125.91122  0.033204434  0.034253214            4 
  317000    1.2020517   -6.6598571    126.11219   0.03315252  0.034247154            3 
  318000    1.2193289   -6.7206748    126.35149  0.033110977  0.034242411            1 
  319000    1.1816575   -6.6981505    126.83872  0.033134463   0.03423687            3 
  320000    1.2172542   -6.6762309    127.76787  0.033272884  0.034233083            2 
  321000    1.2128036   -6.7108291    127.70227  0.033152198   0.03422918            6 
  322000    1.2210427   -6.6413153    128.42258  0.033235657  0.034226197            6 
  323000    1.1923692   -6.6817584    128.72569  0.033210963  0.034223583            2 
  324000    1.1961975    -6.711635    128.79882  0.033127269  0.034220007            1 
  325000    1.1951601   -6.6594502    129.46534   0.03319624  0.034216147            2 
  326000    1.2052922    -6.685931    130.41993  0.033338428  0.034214466            3 
  327000    1.2015228   -6.6697733    131.34754  0.033472869  0.034213541            2 
  328000    1.1643268   -6.6534906    131.92565  0.033517695  0.034213439            2 
  329000    1.2184662   -6.7005385    132.16857  0.033477347  0.034212915            3 
  330000     1.215906   -6.6821893    132.15568  0.033372647  0.034213857            3 
  331000    1.2111338   -6.6909626    132.70429  0.033409941  0.034213445            2 
  332000    1.2070619   -6.6931799    133.25733  0.033448125  0.034212091            3 
  333000    1.1787691   -6.6652712    133.83394  0.033491976  0.034212182            3 
  334000    1.1979914   -6.7092334    133.94587  0.033419629  0.034211805            2 
  335000    1.1965012   -6.7034577    134.51898  0.033462432  0.034211935            3 
  336000     1.220098   -6.6903379    135.06601  0.033498513  0.034212096            2 
  337000    1.1845656   -6.6669017    135.23669  0.033441318  0.034212166            2 
  338000    1.1652398   -6.6342009     135.6888  0.033453847  0.034212027            2 
  339000    1.1780442   -6.6468258      136.368  0.033522123  0.034211683            3 
  340000    1.1930882   -6.6790006     136.5263   0.03346233  0.034210458            2 
  341000    1.2042137    -6.707316    136.48426  0.033353925  0.034209054            2 
  342000    1.1783112   -6.6747794     136.8635  0.033348805  0.034207661            3 
  343000    1.2084647   -6.6922924    137.58947  0.033427958  0.034206511            3 
  344000     1.216243    -6.672315    138.01032  0.033432732  0.034205771            1 
  345000    1.2009145    -6.677029    138.32401  0.033411598  0.034205718            3 
  346000    1.1960037   -6.6648489    138.84868  0.033441398  0.034205469            3 
  347000    1.2137409   -6.7164628    139.47219  0.033494762  0.034205225            4 
  348000    1.1710052   -6.7028592    139.34276  0.033367518  0.034205028            4 
  349000    1.1951427   -6.7355618    139.86684  0.033397049  0.034204158            6 
  350000    1.1961347   -6.7023349    140.64509  0.033486926  0.034202591            3 
  351000    1.1901624   -6.6444224     141.5081  0.033596416  0.034203476            2 
  352000    1.1927359   -6.6874847    141.33639  0.033460319  0.034204694            3 
  353000    1.2275615   -6.6863296    141.82304  0.033480415  0.034204745            1 
  354000    1.1921087   -6.6773036    141.95908  0.033417862  0.034204295            2 
  355000    1.1831352   -6.6770574    142.27572  0.033398057  0.034204024            5 
  356000    1.2221852   -6.6565357    142.49155  0.033354763  0.034202982            2 
  357000    1.1705747   -6.7255254    142.55481  0.033276099  0.034200232            2 
  358000    1.1929343    -6.672941    142.70111  0.033217203  0.034196764            2 
  359000    1.1796639   -6.6991643    143.16175  0.033231603  0.034193231            4 
  360000    1.1893114   -6.6816797    144.10917  0.033358603  0.034190388            3 
  361000     1.203092   -6.7218995    144.28653   0.03330714  0.034187164            2 
  362000    1.1941119   -6.6826361    144.88106  0.033351994  0.034184382            4 
  363000    1.1835426    -6.704637    145.61268  0.033428071  0.034183132            3 
  364000    1.1917355   -6.7156805    145.75891  0.033369714  0.034181313            2 
  365000    1.2015505   -6.7299252     145.6998  0.033264794  0.034178155            2 
  366000    1.2235849   -6.6605925     146.6214  0.033383744  0.034176969            3 
  367000     1.163211   -6.7026215     146.2508  0.033208628  0.034173948            4 
  368000    1.1624259   -6.6820455    146.81903  0.033247063  0.034170907            3 
  369000    1.1837079   -6.6953087    147.37211  0.033281868  0.034167223            4 
  370000    1.2007295   -6.6996798    147.53129  0.033227768  0.034164421            4 
  371000    1.2055025   -6.6936447     148.3314  0.033317924  0.034161171            2 
  372000    1.1985261   -6.6968256    148.51027  0.033268429  0.034158005            4 
  373000    1.1811197   -6.6845879    149.37891  0.033373303   0.03415479            1 
  374000    1.1841852   -6.6867173    149.52492  0.033316605  0.034151849            3 
  375000    1.1938055   -6.7180817    149.55249  0.033233888  0.034148246            5 
  376000    1.2102248   -6.6901478    150.43352  0.033340763  0.034144623            4 
  377000    1.1671286    -6.691606     150.5314  0.033273962  0.034140908            3 
  378000     1.193291   -6.7152414    150.98671  0.033286312  0.034136838            4 
  379000    1.1785825   -6.7078696    151.86712  0.033392067  0.034134429            4 
  380000    1.1534548   -6.7184273    151.56975  0.033238981  0.034130771            2 
  381000    1.2061114   -6.7181638     151.9115  0.033226487  0.034127257            2 
  382000    1.1815761   -6.7444238    152.21411  0.033205521  0.034123345            2 
  383000    1.2020833   -6.7269396    152.82077  0.033250821  0.034119525            4 
  384000    1.2036801   -6.7023571    153.47715  0.033306673  0.034116576            3 
  385000    1.1828713   -6.7093291    154.17666  0.033371572  0.034114642            2 
  386000    1.1755351   -6.7177611      154.214  0.033293178   0.03411206            3 
  387000    1.1694971   -6.7229239     154.4769  0.033263759  0.034108779            4 
  388000    1.1842751   -6.6818588     155.1244  0.033317095  0.034104773            6 
  389000    1.2014638    -6.708728    155.58967   0.03333112  0.034101581            4 
  390000    1.1912568   -6.6941083    155.84343  0.033299877  0.034098388            3 
  391000    1.1886203   -6.6627335    156.23009   0.03329712  0.034095504            3 
  392000    1.2223586   -6.6894482    156.95275  0.033365805  0.034092446            5 
  393000    1.1953429   -6.7309619     156.2411  0.033130004  0.034089837            3 
  394000     1.188006   -6.7237823    157.01216  0.033209002  0.034087365            1 
  395000    1.1700275   -6.7204295     157.7523  0.033281075  0.034084351            2 
  396000    1.1937444    -6.692584    157.98774  0.033246578  0.034081019            3 
  397000    1.1951239   -6.6904752    158.11832  0.033190244  0.034076892            2 
  398000    1.1531871    -6.659335     158.7747  0.033244284  0.034072548            1 
  399000    1.2011261   -6.6862286    159.02501  0.033213244  0.034069006            3 
  400000    1.2009493   -6.6905134    158.84878  0.033093496  0.034063745            1 
  401000    1.1997846   -6.6996966    159.43764  0.033133341  0.034059037            2 
  402000    1.2150402   -6.7061598    160.29194  0.033228014  0.034054568            2 
  403000    1.1960549   -6.7472978    160.51452  0.033191588  0.034050162            2 
  404000    1.1809895   -6.7323674    160.25318  0.033055524  0.034045671            3 
  405000    1.1831469   -6.6742993    161.18079  0.033164772  0.034041384            3 
  406000    1.1930512    -6.736223    161.00241  0.033046471  0.034036983            3 
  407000    1.1868477   -6.7226319    162.35386  0.033241985  0.034032856            2 
  408000    1.1881917   -6.7060213    162.86679  0.033265276  0.034029488            2 
  409000    1.1959144   -6.7019261    163.35806  0.033284039  0.034027024            3 
  410000     1.188156    -6.693276    163.83695  0.033300194  0.034024321            2 
  411000    1.1954627   -6.6584201    164.09357  0.033271202  0.034021161            5 
  412000    1.1650933   -6.7558573    163.71431  0.033113736  0.034017219            2 
  413000    1.2011024   -6.7520433    163.97063  0.033085276  0.034012996            3 
  414000    1.1601576   -6.7303022     165.0293  0.033218458  0.034009493            1 
  415000    1.2072956   -6.7344976    165.78216  0.033289589  0.034006581            3 
  416000     1.166755    -6.716871    165.33481  0.033119955  0.034003847            3 
  417000    1.2185454   -6.7079175    166.00948  0.033175355  0.034000244            3 
  418000    1.1732063   -6.7215121    166.44164  0.033182145  0.033995719            2 
  419000     1.182021   -6.7159148    166.23447  0.033061748  0.033991843            3 
  420000    1.1807245   -6.7068605    166.92003  0.033119054  0.033986831            1 
  421000    1.1981979   -6.7267743    166.41615  0.032940648  0.033981565            4 
  422000    1.1889292   -6.7031257    166.75124  0.032928759  0.033975138            6 
  423000    1.1760317   -6.7033745    167.95275  0.033087619  0.033968375            6 
  424000     1.160965   -6.7605222    168.05657  0.033029986  0.033962591            3 
  425000    1.1578456   -6.6674456    168.73424  0.033085145  0.033957019            4 
  426000    1.1948855    -6.715642    169.17574  0.033093845  0.033951565            1 
  427000    1.1883865   -6.7205132    169.01852   0.03298566  0.033946381            4 
  428000    1.2006237   -6.6825932     170.0238  0.033104323   0.03394163            5 
  429000    1.1873033   -6.7164244    169.87436  0.032998128  0.033936933            2 
  430000    1.2098611   -6.7455947    169.98995  0.032943788  0.033931133            2 
  431000    1.1698255   -6.7254661    170.55459  0.032976526  0.033925072            2 
  432000    1.2004684   -6.7351915     170.7101  0.032930188  0.033919995            4 
  433000    1.1701184   -6.7195884    171.51712  0.033009453  0.033914295            3 
  434000     1.182513   -6.7564549    171.76744  0.032981459  0.033908738            2 
  435000    1.1776013   -6.7212666    171.91691  0.032934274  0.033903243            3 
  436000    1.1906809   -6.7427661    172.19564   0.03291201  0.033897497            2 
  437000    1.2254889   -6.7163275    173.35167  0.033057145  0.033892053            4 
  438000    1.1715287   -6.7135106    173.75024  0.033057504  0.033887025            2 
  439000    1.1787328   -6.7279563    173.84133  0.032999494  0.033881845            2 
  440000    1.2104471   -6.7303846    174.08789  0.032971192  0.033876928            2 
  441000    1.1703809   -6.7129438    174.40355  0.032956074  0.033871881            4 
  442000    1.1715618   -6.7521347    174.61231  0.032920872  0.033866754            4 
  443000    1.1809153   -6.7234342    175.25783  0.032967989  0.033859774            5 
  444000    1.2040774   -6.6866584     175.4875  0.032936843  0.033853205            2 
  445000    1.1418392   -6.7669283    175.16206  0.032801884  0.033846132            4 
  446000     1.192487   -6.7180647    176.11269  0.032905958  0.033838841            3 
  447000    1.1581174   -6.7239505    175.83682  0.032780913  0.033832194            3 
  448000    1.1852239   -6.7469392    176.80673  0.032888157  0.033824996            3 
  449000    1.1631181   -6.7236266    177.00894  0.032852439  0.033816944            1 
  450000    1.1871668   -6.7488114    176.96512  0.032771319  0.033809506            2 
  451000    1.1866539   -6.7259798    177.62972  0.032821455  0.033801843            4 
  452000    1.1618447   -6.6680984    178.56699  0.032921643  0.033794108            3 
  453000    1.1878866   -6.7508085    178.16021  0.032774137  0.033787219            7 
  454000    1.1691689   -6.7147029    178.73944  0.032808268  0.033780159            1 
  455000    1.1546138   -6.7188282     179.6719  0.032906942  0.033773107            1 
  456000    1.1774394   -6.6800429    179.80667  0.032859406  0.033765773            2 
  457000    1.1669366   -6.7382527    179.47573  0.032727157  0.033757967            4 
  458000    1.1981733   -6.6944617    180.12413  0.032773677  0.033750581            5 
  459000    1.1874297   -6.7364194    180.38487  0.032749614  0.033742917            2 
  460000    1.2013257   -6.6938666    181.15741  0.032818371  0.033735985            3 
  461000    1.2033213   -6.7060834    181.12284  0.032740932  0.033728432            2 
  462000    1.2029114   -6.7259622    181.96389   0.03282177  0.033721298            2 
  463000    1.1740607   -6.7248938    181.93721  0.032746078  0.033714446            1 
  464000    1.1770842   -6.7118856    182.94815  0.032857067  0.033707952            4 
  465000    1.1663544   -6.7150107    182.89395  0.032776693  0.033701039            1 
  466000    1.1720427   -6.7167009    183.03436  0.032731467  0.033693754            3 
  467000    1.1570499   -6.7489538    183.16123  0.032684016  0.033685907            4 
  468000    1.1984084   -6.7740869    183.27999  0.032635326  0.033677718            4 
  469000    1.1810234   -6.7228773    184.60615  0.032801377  0.033670176            4 
  470000    1.1678708   -6.7388981    184.59122  0.032728939  0.033662806            4 
  471000    1.2164897   -6.7138735    185.05859  0.032742143  0.033655588            2 
  472000    1.1555361   -6.7135505    185.88848  0.032819293  0.033648199            3 
  473000    1.1950347   -6.7049709    186.20464   0.03280561  0.033641191            2 
  474000    1.1625585   -6.7225417    186.08033  0.032714544  0.033633486            2 
  475000     1.147518   -6.7465707    186.53538  0.032725505  0.033625755            3 
  476000    1.1827082   -6.7763987    185.98944  0.032561176   0.03361767            3 
  477000    1.1509295   -6.7322748    186.92517  0.032656388  0.033609065            1 
  478000    1.1971833   -6.7425104    187.45007  0.032679579  0.033601458            3 
  479000    1.1440233   -6.7156966    187.81843   0.03267544  0.033593746            2 
  480000    1.1610474   -6.7042926    188.69937  0.032760307  0.033586353            3 
  481000    1.1671193   -6.7353048    188.82489  0.032713946  0.033579044            4 
  482000    1.1391612    -6.767533    188.97378  0.032671816  0.033571256            4 
  483000     1.152364   -6.6870976    189.24258  0.032650549  0.033563733            4 
  484000    1.1625724    -6.729408    189.80477  0.032679885  0.033556517            1 
  485000    1.1659616   -6.7695755    189.60538  0.032578244  0.033548543            3 
  486000    1.1592584    -6.697905    190.47258  0.032659907  0.033540839            5 
  487000    1.1680657    -6.764986    190.08943   0.03252728  0.033532468            2 
  488000    1.1655272   -6.7258385    190.31275  0.032498762  0.033524267            2 
  489000    1.1690326   -6.7298616    191.26532  0.032594635  0.033515597            4 
  490000    1.1725118   -6.7732897    191.25381  0.032526159  0.033506886            5 
  491000    1.1869899   -6.7501096    191.35096  0.032476402  0.033498108            2 
  492000    1.1784044   -6.7928202    191.73723  0.032475819  0.033489466            5 
  493000    1.1846742    -6.691367    192.69112  0.032571183  0.033481041            1 
  494000    1.1930557   -6.6971577    192.82688  0.032528151  0.033472763            3 
  495000    1.1921875   -6.7508115    192.41087  0.032392403   0.03346383            2 
  496000    1.1715792   -6.6957138    193.26683  0.032470905  0.033454315            5 
  497000    1.1408623   -6.7296944    193.40481  0.032428707  0.033445029            2 
  498000    1.1806134   -6.7582358    193.95824  0.032456198   0.03343609            5 
  499000    1.1885887    -6.722396    194.15365  0.032423788  0.033427169            3 
  500000    1.1683264    -6.742266    194.64691  0.032441151  0.033417856            3 
  501000    1.1709582   -6.7541933    194.32175  0.032322314   0.03340858            6 
  502000    1.1772628   -6.7645811    194.29039  0.032252721  0.033398912            1 
  503000    1.1836598   -6.7479987    196.07325  0.032483972  0.033389757            3 
  504000    1.1678907   -6.7587457    195.64925  0.032349412  0.033380303            4 
  505000    1.1412469   -6.7969634     195.4229  0.032248004  0.033370049            3 
  506000    1.1820799   -6.7425649    196.08258  0.032292916  0.033359312            4 
  507000    1.1735386   -6.7504252    196.54382  0.032305033  0.033349578            2 
  508000     1.188194   -6.7268251    197.00704  0.032317428  0.033339386            2 
  509000    1.1676317   -6.7632334    197.15878  0.032278778   0.03332878            3 
  510000     1.164239   -6.7241012    197.50389  0.032271877  0.033318508            4 
  511000    1.1779343   -6.7532218     197.4537  0.032200538  0.033308456            2 
  512000    1.1498215    -6.755476    197.91427  0.032212608  0.033298298            2 
  513000     1.189481   -6.7835361     197.2031  0.032034292  0.033288115            2 
  514000    1.1545281    -6.757721    198.40831  0.032167365  0.033277262            4 
  515000    1.1850593   -6.7684556    198.67154  0.032147498  0.033266223            2 
  516000      1.19561   -6.8184002    198.69991  0.032089778  0.033255089            2 
  517000    1.1614241   -6.7986719    199.17007  0.032103492   0.03324363            3 
  518000    1.1952869   -6.8100545    198.87409  0.031993902  0.033232226            2 
  519000    1.1379837   -6.7488947    200.50858  0.032194699  0.033221433            4 
  520000    1.1804158   -6.7820195    199.87956  0.032031981  0.033211208            4 
  521000    1.1576225   -6.7331516    201.52174  0.032233164  0.033200352            3 
  522000    1.1999497   -6.7450208    201.48871  0.032166141  0.033190112            5 
  523000    1.1557576   -6.7261105    201.62397   0.03212619  0.033179707            7 
  524000    1.1522968   -6.7333441    202.63256   0.03222528  0.033169652            2 
  525000    1.1851271   -6.7380875    203.03004  0.032226991  0.033159637            3 
  526000    1.1769992   -6.7607724    202.44247  0.032072635  0.033149869            2 
  527000    1.1783075   -6.7222212    202.99015   0.03209838  0.033139669            5 
  528000    1.1707887   -6.7587426    202.81256  0.032009558  0.033129956            2 
  529000    1.1834009   -6.7961815     204.1448  0.032158917  0.033120043            2 
  530000    1.1584581   -6.7863275    204.07119  0.032086664  0.033110068            3 
  531000    1.1684499   -6.7704483    204.80421  0.032141276  0.033100733            5 
  532000    1.1724588   -6.7556052     205.4267  0.032178368  0.033091164            4 
  533000    1.1657564   -6.7486856    205.13521  0.032072423  0.033081487            2 
  534000    1.1736817   -6.7299205    205.68574  0.032098274  0.033071437            4 
  535000    1.1645816   -6.7526956    206.72682  0.032200439  0.033061773            2 
  536000    1.1895593   -6.7566993    207.01952  0.032185871  0.033052386            3 
  537000    1.1534075   -6.7513634    206.46527  0.032039925  0.033042921            3 
  538000    1.1884828   -6.7791112    206.87297  0.032043521  0.033033264            2 
  539000    1.1771034   -6.7199671    208.12052  0.032176951  0.033023554            3 
  540000     1.143816   -6.7901587    207.61328  0.032039086  0.033014149            2 
  541000    1.1499504   -6.7032802    207.96455  0.032033972  0.033004224            1 
  542000     1.175604    -6.717208    208.52395  0.032060878  0.032994346            2 
  543000    1.1847341   -6.7815077    208.80984  0.032045709  0.032984668            3 
  544000    1.1780499    -6.827836    208.66668  0.031964872  0.032974713            1 
  545000    1.1814852   -6.7740485    209.09079  0.031971068  0.032965251            2 
  546000     1.170636   -6.7899763    209.63293  0.031995258  0.032955938            2 
  547000    1.1905275   -6.7362776    210.92126  0.032133037   0.03294662            4 
  548000    1.1970665    -6.776595    210.77274  0.032051815  0.032937603            4 
  549000     1.150439   -6.7533124     211.0685  0.032038328  0.032928008            2 
  550000    1.1469434    -6.747051    212.12881  0.032140729   0.03291878            3 
  551000    1.1478641    -6.813812    211.37212  0.031967955  0.032909656            1 
  552000    1.1570394   -6.7440108    212.26503  0.032044842  0.032899977            2 
  553000     1.125667   -6.7790987     212.3347  0.031997393  0.032890472            2 
  554000    1.1680062   -6.7511885    212.93643  0.032030149  0.032881386            3 
  555000    1.1775257   -6.7665112     213.7229  0.032090526  0.032872803            7 
  556000    1.1695914   -6.7552684    214.47945    0.0321462   0.03286436            3 
  557000    1.1887183   -6.7910899    214.52978  0.032096018  0.032856337            4 
  558000    1.2141607   -6.7699025    214.94778  0.032100924  0.032848569            3 
  559000    1.1725057   -6.7405541    215.73355  0.032160636  0.032840738            3 
  560000    1.1533059   -6.7635696    215.96645  0.032137865   0.03283267            3 
  561000    1.1762401   -6.7857187    216.26505  0.032124933  0.032824266            2 
  562000    1.1881744   -6.7794462    216.14777   0.03205038  0.032816222            5 
  563000    1.1804752   -6.7911235     216.6402  0.032066341  0.032808888            4 
  564000    1.1496326   -6.7767417     216.6992  0.032018203  0.032801407            3 
  565000     1.149563   -6.7780072    216.81669  0.031978863   0.03279388            4 
  566000    1.1928751   -6.7667573    217.13601  0.031969377  0.032785944            2 
  567000    1.1504217   -6.7787566    217.42925  0.031956092  0.032777825            4 
  568000    1.1452217   -6.7631911    218.59727  0.032071196  0.032769563            2 
  569000    1.1638782   -6.8295089     218.1234  0.031945431   0.03276177            4 
  570000    1.1356703   -6.7952613    218.60406  0.031959658  0.032753412            5 
  571000    1.1427454   -6.7781491    218.91482  0.031949039    0.0327452            3 
  572000    1.1803313   -6.7617011    219.15369  0.031927985  0.032736683            4 
  573000     1.170049   -6.7778771    219.81233  0.031968053  0.032728178            2 
  574000    1.1663883   -6.7772262    219.67933   0.03189305  0.032719625            3 
  575000    1.1519332    -6.746214    220.06075  0.031892863  0.032710984            3 
  576000    1.1428484   -6.7922093    220.34745  0.031878971  0.032702661            4 
  577000    1.1624478   -6.8044148    220.40587  0.031832159  0.032693925            3 
  578000    1.1536451   -6.8028281    221.08211  0.031874583  0.032684965            6 
  579000    1.1672379   -6.7622923    221.71188  0.031910173  0.032676553            5 
  580000    1.1551055   -6.7363933    223.24048  0.032074782  0.032668714            2 
  581000    1.1637182   -6.7647377    222.18606   0.03186834  0.032660791            3 
  582000    1.1419473   -6.8047781    222.74924  0.031894221  0.032652397            4 
  583000     1.153916   -6.7724351    223.38935  0.031931011  0.032643868            3 
  584000    1.1529804   -6.7487767    223.40804  0.031879001  0.032635571            4 
  585000    1.1693393   -6.7908389     223.6225  0.031855057  0.032627955            2 
  586000    1.1647364   -6.8469702    223.74853  0.031818619  0.032619724            4 
  587000    1.1464189   -6.7448152    224.90213  0.031928185  0.032611661            2 
  588000    1.1571764   -6.7475785    225.44345  0.031950603  0.032604067            3 
  589000    1.1509534   -6.7775374    225.75671  0.031940677  0.032596804            5 
  590000     1.176238   -6.7825484    226.03156  0.031925362  0.032589436            3 
  591000     1.177598   -6.7345489    227.08576  0.032019989   0.03258231            2 
  592000    1.1275438   -6.7804324    226.96051  0.031948269  0.032575606            2 
  593000    1.1575959   -6.8151995    227.24006  0.031933679  0.032568391            3 
  594000    1.1652352   -6.7897364    227.51253  0.031918144  0.032560967            2 
  595000    1.1427304   -6.7817377    228.16547  0.031955949  0.032553256            4 
  596000    1.1316375   -6.7757766    228.35387  0.031928673  0.032546034            4 
  597000    1.1827866   -6.8020441    228.06758  0.031835229  0.032538828            4 
  598000     1.169945    -6.771004    228.90311  0.031898427  0.032532057            1 
  599000    1.1506881   -6.7533782     230.4138  0.032055342  0.032524789            2 
  600000    1.1544804     -6.77691    229.31453   0.03184924  0.032517604            2 
  601000    1.1337637   -6.7808346    229.70294  0.031850102  0.032510024            6 
  602000    1.1535524   -6.7930204    230.84267  0.031954965    0.0325026            4 
  603000    1.1774031   -6.8009426    230.85507  0.031903685  0.032495688            3 
  604000    1.1585495   -6.7544731    231.05919  0.031879027  0.032489027            1 
  605000    1.1721308   -6.7573037    232.21384  0.031985377  0.032482532            2 
  606000    1.1638761   -6.7677875    232.13106  0.031921213  0.032476007            4 
  607000    1.1676089   -6.8062504    232.04257  0.031856476  0.032469433            6 
  608000    1.1706791   -6.7700143    232.62809  0.031884333  0.032462468            2 
  609000    1.1441337   -6.7817741    233.61417  0.031966908  0.032456198            3 
  610000    1.1451535   -6.7991396    233.27569  0.031868264  0.032449522            3 
  611000    1.1234584   -6.7820046    233.82721  0.031891327  0.032442852            4 
  612000    1.1823012   -6.7959263    233.16731  0.031749361  0.032436216            2 
  613000    1.1512156   -6.7610239    234.86799  0.031928765  0.032429271           10 
  614000    1.1564082   -6.7654948    234.65102  0.031847316  0.032422021            2 
  615000    1.1589622   -6.7761783    235.30152  0.031883675  0.032414926            3 
  616000    1.1460852   -6.8383511    234.13613   0.03167426  0.032407831            6 
  617000     1.168714   -6.8055673    234.92353  0.031729272  0.032400648            1 
  618000    1.1675585   -6.8027594    235.29673  0.031728254  0.032393439            2 
  619000     1.128987   -6.8040385    236.76903  0.031875206  0.032386779            3 
  620000    1.1623819   -6.7930618    237.86564  0.031971188  0.032380348            2 
  621000    1.1472958   -6.8024045    237.39961  0.031857167  0.032374038            6 
  622000    1.1492025   -6.7970656    237.22524  0.031782588  0.032366706            5 
  623000    1.1499816   -6.7510701    237.66172  0.031789957  0.032359559            7 
  624000    1.1595337   -6.8234276    237.55144  0.031724285   0.03235196            2 
  625000    1.1448809   -6.8371469    238.08509  0.031744679  0.032344318            5 
  626000    1.1679043   -6.8067395    238.31521  0.031724602  0.032336938            2 
  627000    1.1319438   -6.7953875    238.89882  0.031751571  0.032329513            4 
  628000    1.1366608    -6.839513    238.96859   0.03171027   0.03232267            3 
  629000    1.1541116   -6.7889026    239.87228  0.031779582  0.032315492            3 
  630000    1.1756659   -6.7891171    240.50186  0.031812415  0.032308852            2 
  631000    1.1441383   -6.7716193    240.65521  0.031782252  0.032302188            2 
  632000    1.1432801   -6.8663144    239.19075  0.031538864  0.032294817            3 
  633000    1.1523015   -6.7874522      240.762  0.031695892  0.032287424            1 
  634000    1.1351807    -6.793812    240.99824  0.031676951  0.032280034            4 
  635000    1.1441816   -6.8295943    240.71071  0.031589332  0.032272753            1 
  636000    1.1586305   -6.7860995    241.17945  0.031601081  0.032264862            5 
  637000    1.1578164   -6.8100394    242.15521  0.031679122  0.032257195            3 
  638000     1.140465   -6.7114882    242.95997  0.031734584  0.032249692            3 
  639000    1.1490487   -6.7451963      242.438  0.031616849  0.032242538            2 
  640000     1.146209   -6.8088113    241.98037  0.031507861  0.032234658            2 
  641000    1.1402257   -6.8428499    242.52068  0.031528949   0.03222622            6 
  642000    1.1474504    -6.811287    243.87389  0.031655489  0.032218348            4 
  643000    1.1507599   -6.7865923    243.75921  0.031591396  0.032210738            2 
  644000     1.150654   -6.8018085    244.61589  0.031653195  0.032202645            2 
  645000    1.1399036   -6.7891085    243.66716  0.031481545  0.032194704            5 
  646000    1.1614625   -6.8072624    243.31664  0.031387595  0.032186295            2 
  647000    1.1376028   -6.8243667    243.40513   0.03135048  0.032177438            3 
  648000    1.1406325     -6.80646    244.44289  0.031435557  0.032168289            2 
  649000    1.1558858   -6.8515728    244.54648  0.031400421   0.03215956            2 
  650000    1.1547114   -6.7748561    245.31996  0.031451277  0.032150991            2 
  651000    1.1368225   -6.7558449     246.6949  0.031578968  0.032143092            3 
  652000    1.1712978   -6.8569574      245.766  0.031411809  0.032135386            5 
  653000    1.1788713   -6.8202316    246.19664  0.031418663   0.03212744            2 
  654000    1.1591639   -6.7771387    247.69991   0.03156217  0.032120393            3 
  655000     1.167626   -6.8559641    247.05457  0.031431879  0.032112959            3 
  656000    1.1365648   -6.8133881    247.92247  0.031494216  0.032105603            2 
  657000    1.1458038   -6.8468233      248.237  0.031486174  0.032098275            5 
  658000    1.1547683   -6.8106169    249.32449  0.031576049  0.032091132            3 
  659000    1.1356731   -6.8291539    248.60374  0.031436993  0.032083408            2 
  660000    1.1323766   -6.8115205    248.41347  0.031365337  0.032075543            4 
  661000    1.1322143   -6.8381808    248.44361  0.031321686  0.032067265            2 
  662000    1.1777858   -6.8208403      249.069  0.031353097  0.032059085            2 
  663000    1.1600571   -6.8190811    249.01412  0.031298909  0.032050879            2 
  664000    1.1525492   -6.8477196    249.41312  0.031301847  0.032042376            3 
  665000    1.1482895   -6.7891694    249.24265  0.031233415  0.032033666            5 
  666000    1.1339291   -6.8049308    250.01299  0.031282907  0.032024698            2 
  667000    1.1384751   -6.8361277    250.48993  0.031295594  0.032015902            3 
  668000    1.1583738   -6.8245563    249.95354  0.031181829  0.032006796            2 
  669000    1.1651927   -6.8301361    250.91439  0.031254906  0.031997587            4 
  670000    1.1225165   -6.7734344    251.48808  0.031279612  0.031988595            3 
  671000    1.1313351   -6.8095321    251.69654  0.031258885  0.031979733            3 
  672000    1.1559126   -6.7545915    252.39387  0.031298843  0.031970675            3 
  673000    1.1547388   -6.8286309    252.27269  0.031237331  0.031961863            2 
  674000    1.1633707   -6.8019663    252.82109  0.031258789  0.031952781            4 
  675000    1.1454502    -6.787433     253.2881  0.031270135  0.031943718            3 
  676000    1.1189062   -6.8396881    252.20642  0.031090535  0.031934419            2 
  677000    1.1603298   -6.8394344    253.57217  0.031212724  0.031924841            3 
  678000    1.1417524   -6.8253629    253.13519  0.031112979  0.031915434            3 
  679000    1.1636429   -6.8155005     254.0097  0.031174484  0.031906125            2 
  680000    1.1440754   -6.8330187    253.47714  0.031063374  0.031897007            3 
  681000    1.1381593   -6.8187719    254.44595  0.031136314    0.0318879            5 
  682000    1.1524209   -6.7666578    254.81893  0.031136233  0.031878432            5 
  683000    1.1295667   -6.7888802    255.07055  0.031121345  0.031869313            4 
  684000    1.1272976   -6.7927911    254.62112  0.031021092  0.031859647            5 
  685000    1.1478988   -6.8117495    255.06801  0.031030171   0.03184995            1 
  686000     1.136633   -6.8388594    255.14406  0.030994176  0.031839869            3 
  687000    1.1534804   -6.8282202     256.0516  0.031059146  0.031830457            2 
  688000    1.1333059    -6.854636    256.46635  0.031064238  0.031821336            1 
  689000    1.1501219   -6.8113076     257.0508   0.03108984  0.031812371            4 
  690000    1.1533844   -6.8249484    257.29235  0.031073955   0.03180347            4 
  691000    1.1316905   -6.8270364    258.59037  0.031185524  0.031794765            5 
  692000    1.1365663   -6.8309191    258.17219    0.0310901  0.031786136            3 
  693000    1.1628754   -6.8425918     257.7156  0.030990332  0.031777602            4 
  694000    1.1498355   -6.7812003    259.01409  0.031101595  0.031768656            4 
  695000    1.1333105   -6.8544704    258.07608  0.030944374   0.03175971            4 
  696000    1.1436106   -6.8178171    258.62433  0.030965557  0.031750026            4 
  697000    1.1113777   -6.8031505    258.94949  0.030960007  0.031740219            2 
  698000    1.1298019   -6.8579356    259.01518  0.030923493  0.031730466            2 
  699000    1.1484211    -6.862153    259.32767  0.030916508  0.031720755            1 
  700000     1.124448   -6.8265866     259.9245  0.030943392  0.031711494            2 
  701000    1.1673201    -6.843909    260.34995  0.030949828  0.031702269            4 
  702000    1.1272792   -6.7937419    260.74758  0.030952942  0.031692695            5 
  703000    1.1486165   -6.8141678    260.98993   0.03093764  0.031683145            6 
  704000    1.1270462   -6.8273057    260.78789  0.030869779  0.031673553            3 
  705000    1.1405052   -6.8436513    261.31043  0.030887758  0.031663889            6 
  706000    1.1317447   -6.9002912    260.98267   0.03080532  0.031654266            3 
  707000    1.1339128   -6.8193734    262.70414  0.030964656  0.031644744            3 
  708000    1.1334767   -6.8490875    262.57056  0.030905198  0.031635184            3 
  709000    1.1394877   -6.8310311    262.54904  0.030859078  0.031625438           10 
  710000    1.1343709   -6.8378508    262.44526  0.030803435  0.031615789            4 
  711000    1.1380895   -6.8050454    263.14892  0.030842583  0.031606188            4 
  712000    1.1335905   -6.8250384    263.70659  0.030864535  0.031596892            2 
  713000     1.129194   -6.8707053    263.39746  0.030785117  0.031587102            3 
  714000    1.1618753   -6.8563023    264.78605  0.030904068  0.031577753            3 
  715000    1.1251918   -6.8582391    265.00982  0.030886925  0.031568674            2 
  716000    1.1260316   -6.8512151    264.01522  0.030728029  0.031559223            6 
  717000    1.1353696   -6.7970386    264.83949  0.030780973  0.031550101            5 
  718000    1.1452888   -6.8066547    265.89802  0.030860959  0.031541309            2 
  719000     1.137632   -6.8040661    266.54157  0.030892625  0.031532795            4 
  720000    1.1615151   -6.7976876    267.68689  0.030982279  0.031523987            2 
  721000    1.1113553   -6.8565383    267.27878  0.030892138  0.031515113            2 
  722000    1.1174525   -6.8227025    267.72785  0.030901183  0.031506485            3 
  723000    1.1256673   -6.8246919    267.74022  0.030859869  0.031497906            1 
  724000    1.1328602   -6.8268298    267.11906  0.030745748  0.031489254            5 
  725000    1.1311823   -6.8662706    268.14639  0.030821425  0.031480443            3 
  726000    1.1328181   -6.8157401    269.63554  0.030949902  0.031471675            3 
  727000    1.1225378   -6.8174154    268.99459   0.03083386  0.031463003            2 
  728000    1.1290433   -6.9212361    268.85529   0.03077556  0.031454044            2 
  729000    1.1353242   -6.8427844    269.09404  0.030760635   0.03144508            3 
  730000    1.1367699   -6.8488232    269.97224  0.030818749  0.031436643            2 
  731000    1.1406048   -6.8563834    269.87559  0.030765571  0.031428122            1 
  732000    1.1306581   -6.8219486    270.50756  0.030795487  0.031419695            3 
  733000    1.1201968   -6.8363864    271.98765  0.030921743  0.031411549            1 
  734000    1.1410222   -6.7909713    273.26104  0.031024187   0.03140398            2 
  735000    1.1446378   -6.8282066    272.60256   0.03090732  0.031396539            3 
  736000    1.1238431   -6.8898417    272.10815  0.030809346   0.03138836            5 
  737000    1.1261649   -6.8336435     273.7068  0.030948304  0.031380669            2 
  738000    1.1340608   -6.8518295    273.04017  0.030831094   0.03137309            2 
  739000    1.1508746   -6.7529353    274.80956    0.0309889  0.031365806            3 
  740000    1.1359713   -6.8340711    273.91129  0.030845866  0.031358494            6 
  741000    1.1388256   -6.8618709    273.87242  0.030799867  0.031350957            3 
  742000    1.1315487   -6.8390773     274.9522  0.030879627  0.031343127            2 
  743000    1.1442292   -6.8539456    274.97736  0.030840888  0.031335078            3 
  744000    1.1408995   -6.8437226    274.18574  0.030710769  0.031326874            4 
  745000    1.1393649   -6.8483329    275.38687    0.0308039  0.031318602            2 
  746000    1.1343564   -6.8624903     275.5116  0.030776542  0.031310342            2 
  747000    1.1511224   -6.8354226    275.86487  0.030774752  0.031302234            8 
  748000    1.1357419   -6.7994314    277.46674   0.03091207  0.031294811            2 
  749000    1.1117518   -6.8321919    277.03615  0.030822892  0.031287555            2 
  750000    1.1363881   -6.8871006    276.92043  0.030768936  0.031280115            3 
  751000    1.1267965    -6.843179     277.4284  0.030784332  0.031272592            3 
  752000    1.1290035   -6.8547513    278.53932  0.030866502  0.031265531            2 
  753000    1.1401862   -6.8681409    277.69522  0.030732096  0.031258273            1 
  754000    1.1458846   -6.8518114    277.03069  0.030617893  0.031250536            2 
  755000    1.1167161   -6.8783544    278.55712  0.030745819  0.031242696            5 
  756000    1.1309483   -6.8475509    279.21336  0.030777486  0.031235027            3 
  757000    1.1568754   -6.8602038      279.496  0.030767944  0.031227191            4 
  758000    1.1217198   -6.8175702    278.77392  0.030647968  0.031219312            5 
  759000    1.1383884   -6.7891298    280.88171  0.030839011  0.031211449            2 
  760000    1.1461691   -6.8684939    279.73384   0.03067257  0.031203678            2 
  761000    1.1272749   -6.8947357    279.80188  0.030639715  0.031195962            6 
  762000    1.1513927   -6.8862963    280.15312  0.030637918  0.031188095            2 
  763000    1.1213226    -6.860706    281.79259  0.030776823  0.031181053            4 
  764000    1.1409869   -6.8324987    282.35362  0.030797733   0.03117396            5 
  765000    1.1285557    -6.869696    282.64605  0.030789331  0.031167012            3 
  766000    1.1419064   -6.8678401    282.42814  0.030725428  0.031160029            5 
  767000    1.1262982   -6.8172448    283.66496  0.030819748  0.031153513            2 
  768000    1.1532215   -6.8601574      284.451  0.030864909  0.031147388            3 
  769000    1.1527862   -6.8494972     285.1837  0.030904172  0.031141383            2 
  770000    1.1296274   -6.8160405    285.10492  0.030855511  0.031135115            4 
  771000    1.1297762   -6.8633632    285.23717  0.030829785   0.03112888            5 
  772000    1.1464992   -6.8548618     285.1714   0.03078275   0.03112265            4 
  773000    1.1436963   -6.9021873    285.28256  0.030754912  0.031116087            6 
  774000    1.1344975    -6.909851    285.17648  0.030703755  0.031109674            2 
  775000    1.1299235   -6.8885251      285.832  0.030734624   0.03110292            4 
  776000     1.134843   -6.8743646    285.88582  0.030700796  0.031096371            5 
  777000    1.1235195   -6.8807607    286.91861  0.030772052  0.031090009            5 
  778000    1.1506643   -6.8519607    286.76124  0.030715642  0.031083327            5 
  779000    1.1177148   -6.8525633    287.95135  0.030803525  0.031076643            4 
  780000    1.1297972   -6.8633092    287.60545  0.030727078  0.031070443            3 
  781000     1.105385   -6.8622237    288.23127   0.03075451  0.031063785            2 
  782000    1.1597386   -6.8573917    288.87169  0.030783428    0.0310574            2 
  783000    1.1263774   -6.8534436    288.79402  0.030735847  0.031051016            2 
  784000    1.1017967   -6.8113874     290.0782  0.030833142  0.031044604            8 
  785000    1.1285931   -6.8709434    288.70053  0.030647615  0.031038045            2 
  786000    1.1082357   -6.8619969    289.30421  0.030672626  0.031031509            3 
  787000    1.1305696   -6.8400547    290.47133  0.030757236   0.03102481            8 
  788000    1.1310345    -6.812283    290.69015  0.030741344  0.031018511            1 
  789000    1.1511302   -6.8610766    290.39792  0.030671516  0.031012309            2 
  790000    1.1422542   -6.8466628    290.97804  0.030693886  0.031005977            4 
  791000    1.1186628   -6.8762533    290.80281  0.030636622  0.030999306            3 
  792000    1.1346819   -6.9313424    290.14302  0.030528516  0.030992504            3 
  793000    1.1185828   -6.8518384     290.5975  0.030537778  0.030985631            3 
  794000    1.1309421    -6.826182    291.80261  0.030625798  0.030978812            3 
  795000    1.1154713   -6.8235912    292.14513   0.03062318  0.030972008            4 
  796000     1.133988   -6.8976221    291.81455  0.030550099  0.030965165            5 
  797000    1.1273227   -6.8745191    292.28931  0.030561408  0.030958467            4 
  798000    1.1197607   -6.8653022    293.22504  0.030620827     0.030952            4 
  799000    1.1069721   -6.8653572    293.42488  0.030603346  0.030945522            1 
  800000    1.1435238   -6.8212175    294.99249  0.030728384   0.03093919            4 
  801000    1.1057719   -6.8730904    295.40168  0.030732592  0.030932663            2 
  802000    1.0870998   -6.8654526    295.05488  0.030658238  0.030926258            4 
  803000    1.1364785   -6.8851285    294.34253  0.030546132  0.030919723            3 
  804000    1.1496033   -6.8684537    296.08249  0.030688483  0.030913392            5 
  805000     1.118971   -6.8488723    296.88886  0.030733837  0.030907289            3 
  806000    1.1034617   -6.8328335    296.70047  0.030676227  0.030901532            2 
  807000    1.1507258   -6.8845649     295.8951   0.03055505  0.030895871            2 
  808000    1.1316272    -6.864818    297.11811  0.030643369  0.030890175            1 
  809000    1.1375936   -6.8538442    297.09589  0.030603203  0.030884365            3 
  810000    1.1119038    -6.886665    297.75142  0.030632862  0.030878444            4 
  811000    1.1257024   -6.9094995    296.92305  0.030509972  0.030872586            9 
  812000    1.1065227   -6.8990904    297.92563  0.030575291  0.030866426            7 
  813000    1.1468612   -6.8543322    299.70293  0.030719857   0.03086065            3 
  814000    1.1257353   -6.8705649    299.73878  0.030685788  0.030855109            4 
  815000    1.1209567   -6.8826778    299.88946  0.030663544  0.030849251            4 
  816000    1.1121716   -6.8510659    299.58143  0.030594509  0.030843526            4 
  817000    1.1133112   -6.8692752    299.29777  0.030528128  0.030837529            3 
  818000    1.1288488   -6.8431698     300.1608  0.030578729  0.030831235            4 
  819000    1.1137917   -6.8501516    300.50611  0.030576527  0.030825525            3 
  820000    1.1228151   -6.8766037    300.64859  0.030553719  0.030819649            3 
  821000    1.1363013   -6.8687225    301.57972  0.030611015  0.030813551           10 
  822000     1.150912   -6.8839151    301.66711  0.030582634  0.030807262            4 
  823000    1.1450172    -6.906311    300.92303  0.030470133  0.030801139            6 
  824000    1.1068825   -6.8768321    302.60146  0.030602899  0.030795337            3 
  825000    1.1274811   -6.9433846    301.63887  0.030468573   0.03078924            3 
  826000    1.1316739   -6.8998778     302.2278  0.030491102  0.030783121            2 
  827000    1.1197051   -6.8891644    303.15721  0.030547885  0.030777144            3 
  828000    1.1325073   -6.9527295    300.73606  0.030267317  0.030770756            3 
  829000    1.1367187   -6.9163598     302.5496  0.030413108  0.030763783            3 
  830000    1.1121009     -6.87422    302.01893  0.030323185  0.030756727            4 
  831000    1.1191722   -6.8767373    303.51581  0.030436804  0.030749681            1 
  832000    1.0997818   -6.8759513    303.73534   0.03042221  0.030742804            3 
  833000    1.1080218    -6.879988    303.49301  0.030361445  0.030735979            2 
  834000    1.1290138   -6.8922423    303.27044  0.030302802  0.030728932            3 
  835000    1.1050568    -6.913475     304.3598  0.030375229  0.030722151            3 
  836000    1.1120514   -6.8755201    304.18693  0.030321664  0.030714602            3 
  837000    1.1261358   -6.8677696    305.74067  0.030440131  0.030707646            2 
  838000    1.1404472   -6.9288926    304.23713  0.030254289   0.03070047            2 
  839000    1.1198015   -6.8724677    305.45967  0.030339657  0.030693422            2 
  840000    1.0989049   -6.8804003    305.40924  0.030298536  0.030686203            4 
  841000    1.1086791   -6.9241176    305.06394  0.030228294  0.030679006            5 
  842000    1.1269321   -6.9067267    306.04876  0.030289861  0.030671829            3 
  843000     1.120256   -6.9041235    307.26109  0.030373773  0.030664748            2 
  844000    1.1119825   -6.9033098    306.57059  0.030269608  0.030657789            3 
  845000     1.119786   -6.8945607    307.18055   0.03029394  0.030650766            2 
  846000    1.1093598   -6.9362656    306.35178  0.030176496  0.030643544            6 
  847000    1.1381754   -6.9352957     306.2473  0.030130589  0.030636298            2 
  848000    1.1364309   -6.9172816    308.43187  0.030309736  0.030629156            6 
  849000    1.1438508   -6.9054048    308.46389  0.030277178  0.030622125            6 
  850000    1.1157457   -6.9301313    308.59558  0.030254468  0.030615202            3 
  851000    1.1308762    -6.911106    308.32566  0.030192485  0.030608107            2 
  852000    1.1105433   -6.9270445    308.94669   0.03021779  0.030601356            4 
  853000    1.0848237   -6.8900594    309.83876  0.030269515  0.030594626            4 
  854000    1.1335667   -6.9231238    309.89708  0.030239762  0.030588297            3 
  855000    1.1257295   -6.9025929    310.21487  0.030235367  0.030582249            2 
  856000      1.13907   -6.8850505    312.32521  0.030405492   0.03057587            2 
  857000    1.1218978   -6.8666546    312.11101  0.030349184  0.030569485            6 
  858000    1.0961321   -6.8606117    311.96304   0.03029944  0.030563168            2 
  859000    1.1150459   -6.8972301    311.76495  0.030244951  0.030556714            4 
  860000    1.1120302   -6.9259616    311.05604  0.030141089  0.030549804            3 
  861000    1.1025463   -6.9109629    311.65793  0.030164337   0.03054302            6 
  862000    1.1241726   -6.8713294     312.8513  0.030244712  0.030536498            5 
  863000    1.1010163    -6.956196    311.54862  0.030083876  0.030529582            2 
  864000    1.1089816   -6.8729946    312.96604  0.030185768  0.030522465            4 
  865000    1.1192241   -6.9349205    313.65458  0.030217204  0.030515164            1 
  866000    1.0830416   -6.8573848    313.72255  0.030188852  0.030508535            3 
  867000    1.1209536   -6.8545737    314.06052  0.030186517  0.030501553            2 
  868000    1.1122014   -6.8582107    314.87246   0.03022969  0.030494383            3 
  869000    1.0954386   -6.8987417    315.07114  0.030213956  0.030487164            2 
  870000    1.1087405   -6.8639598    314.83722  0.030156821  0.030479969            2 
  871000    1.0982892   -6.8846478    313.80298  0.030023247  0.030472845            3 
  872000    1.1296446    -6.918925    314.55113  0.030060314  0.030465693            3 
  873000    1.1182132   -6.9380646    315.41812  0.030108641  0.030458159            8 
  874000    1.1110532   -6.8922005    314.31219  0.029968745  0.030450556            4 
  875000    1.1261327   -6.8894436    315.54223  0.030051641  0.030443317            2 
  876000    1.1028498   -6.9379761    315.41344  0.030005084   0.03043584            2 
  877000    1.0887901   -6.9232204    316.23207  0.030048658  0.030428473            5 
  878000    1.1090226   -6.8861493    316.33801  0.030024489  0.030421062            5 
  879000    1.1209045   -6.9263426    315.13932   0.02987669  0.030413266            6 
  880000    1.1188176   -6.9159728    316.37709  0.029959952  0.030405556            3 
  881000    1.1157425   -6.9081356    316.08657  0.029898465  0.030397999            5 
  882000    1.1156274   -6.8934911    316.93112  0.029944362  0.030390238            8 
  883000    1.1324028   -6.9378083    317.12768  0.029928999  0.030382445            3 
  884000    1.0823805    -6.904999    317.36662  0.029917668  0.030374477            2 
  885000    1.0858364   -6.9263014    317.90733  0.029934777  0.030367038            5 
  886000    1.1020665   -6.9219095    318.10359   0.02991945  0.030359633            2 
  887000    1.1103035   -6.8962137    317.91859  0.029868338  0.030352087            4 
  888000    1.0924635    -6.914648    317.62001  0.029806683  0.030344342            2 
  889000    1.1171147   -6.8839447    319.16328  0.029917818  0.030336715            4 
  890000     1.135185   -6.9333447    318.83474   0.02985344  0.030329198            3 
  891000    1.1018985   -6.8912959    319.66707  0.029897781  0.030321608            1 
  892000    1.1105347   -6.9380241    319.17149  0.029817964  0.030314038            2 
  893000    1.1097775   -6.9187712    320.44843  0.029903735  0.030306582            1 
  894000    1.1044661   -6.8917307     321.1517   0.02993584  0.030299305            1 
  895000    1.1070692   -6.9463207    319.95483  0.029790953  0.030291731            4 
  896000    1.1346554   -6.9012613    320.72561  0.029829391  0.030284131            4 
  897000    1.0807376   -6.9246857    321.58339  0.029875826  0.030276537            2 
  898000    1.0986846   -6.9148938    321.60956  0.029844985  0.030268874            6 
  899000    1.0901099   -6.9242953    322.54289  0.029898303  0.030261161            5 
  900000    1.1057644    -6.936346    321.01152  0.029723288  0.030253189            1 
  901000    1.1374528   -6.9116851    322.75621  0.029851666  0.030245341            2 
  902000    1.1030204   -6.9446198    322.07629  0.029755755  0.030237645            7 
  903000    1.1259409   -6.9628729    322.06516  0.029721775  0.030230109            3 
  904000    1.1149303   -6.9465131    323.57663  0.029828229  0.030222565            1 
  905000    1.1039496   -6.9035902    323.49393  0.029787654  0.030215006            3 
  906000    1.1087967   -6.9485838    322.83101  0.029693802  0.030207377            7 
  907000    1.1017258   -6.9137448    323.76996  0.029747332  0.030199788            2 
  908000    1.1179223   -6.9316679    324.71149  0.029800981  0.030191996            8 
  909000    1.0944503   -6.8995068    324.66097  0.029763566  0.030184278            4 
  910000    1.1139909   -6.9323178    324.18304  0.029687092  0.030176656            3 
  911000    1.1122538   -6.9048697    325.32365  0.029758841  0.030168693            4 
  912000    1.0906199   -6.9184902    325.80253  0.029769968  0.030160871            5 
  913000    1.1275933   -6.9820955    324.19897  0.029590997  0.030152948            5 
  914000    1.1134981   -6.8967113     327.2251  0.029834528  0.030145064            5 
  915000    1.0801799   -6.8726828    326.68724  0.029752937    0.0301373            2 
  916000    1.1111566   -6.9843198    326.35354  0.029690096  0.030129451            1 
  917000    1.0875464   -6.8966661    327.64019  0.029774645   0.03012142            8 
  918000    1.1175663   -6.9050077    327.59897  0.029738469  0.030113556            3 
  919000    1.0920602   -6.8942861    327.52235  0.029699161  0.030105925            2 
  920000    1.0956113   -6.9184896     327.3624  0.029652392  0.030098349            5 
  921000    1.1103001   -6.9095691    328.07512  0.029684684  0.030090766            4 
  922000    1.1170227   -6.9156465    328.21556  0.029665181  0.030082949            5 
  923000    1.1205958   -6.9419109     328.3822  0.029648086  0.030075564            2 
  924000    1.0896331   -6.9210388    329.76078   0.02974033  0.030067796            2 
  925000    1.0941016   -6.9396521    328.99855  0.029639509  0.030060171            5 
  926000    1.1240959   -6.9094034    330.28935  0.029723663  0.030052703            3 
  927000    1.1094796   -6.9134324    330.20389  0.029683917  0.030045268            3 
  928000    1.1183245   -6.9283641    330.24062  0.029655228  0.030037682            1 
  929000    1.0998447   -6.9630245    328.58023  0.029474366   0.03003008            5 
  930000    1.0988753   -6.9057499    330.62893  0.029626248  0.030022689            4 
  931000    1.1079873   -6.9393645    330.96017  0.029624075  0.030015195            6 
  932000    1.0893043    -6.936538    331.30788   0.02962338  0.030007689            2 
  933000    1.0900878   -6.9241874    330.97604   0.02956199   0.03000019            4 
  934000    1.1307907   -6.9561424     330.5127  0.029488999  0.029992651            4 
  935000    1.1061187   -6.9760113    329.80126  0.029394052  0.029984921            3 
  936000    1.1200584   -6.9303512     332.4322  0.029596884  0.029977166            5 
  937000    1.0964436   -6.8931396    333.13728  0.029628004  0.029969731            4 
  938000    1.0806554   -6.9231673     332.5417  0.029543506  0.029962527            4 
  939000    1.0896323   -6.9971727    331.62249  0.029430466  0.029955094            3 
  940000    1.1001624   -6.9674729    332.93475  0.029515492  0.029947392            2 
  941000    1.1246268   -6.9039733    334.13139  0.029590099  0.029939963            4 
  942000    1.1174569   -6.9432472    333.61999  0.029513446  0.029932643            3 
  943000    1.1171863   -6.9274538    334.73119  0.029580345  0.029925342            3 
  944000    1.0742492    -6.937522    334.84291  0.029558873  0.029917954            4 
  945000    1.0954972   -6.8764701    335.32342  0.029569967  0.029910621            4 
  946000    1.0854332   -6.9412206     335.0119  0.029511266   0.02990338            4 
  947000    1.0991522   -6.9796635    335.62303  0.029533882   0.02989577            4 
  948000    1.0889802   -6.9293545    336.36905  0.029568306  0.029888505            4 
  949000    1.0934173    -6.888616    338.06197  0.029685807  0.029881332            2 
  950000     1.094972   -6.9090556    337.50178  0.029605419  0.029874103            3 
  951000    1.1076996   -6.9389561    336.82815   0.02951526  0.029867069            3 
  952000    1.0898421   -6.9138267    337.59585  0.029551458  0.029859771            3 
  953000     1.084777   -6.9258587    338.60198  0.029608428  0.029852662            2 
  954000     1.097046   -6.9333538    338.23718  0.029545526   0.02984565            4 
  955000    1.0989421   -6.9251691    338.18508  0.029510042  0.029838562            4 
  956000    1.1033404    -7.000842    337.28411  0.029400637  0.029831437            3 
  957000    1.0912641   -6.9669363    338.05502  0.029437044  0.029824261            4 
  958000    1.1111023   -6.9187303    338.67405  0.029460165  0.029817018            1 
  959000     1.085544    -6.940784    338.05619  0.029375755  0.029809582            3 
  960000    1.1046434   -6.9241173    338.85102  0.029414151  0.029802422            4 
  961000    1.0821809   -6.9114123    340.17539  0.029498386    0.0297952            3 
  962000    1.1157857   -7.0009159    338.52991  0.029325183  0.029787616            2 
  963000    1.0886809   -6.9791511    339.22828  0.029355165  0.029779853            2 
  964000    1.0876196   -6.9933666    338.79494  0.029287252  0.029771933            2 
  965000     1.123527    -6.980736    339.62013  0.029328163  0.029763824            3 
  966000    1.1041318   -6.8995227    340.94808  0.029412361  0.029756202            5 
  967000    1.0812601   -6.9720561    340.26833  0.029323365  0.029748452            3 
  968000     1.079736   -6.9396209    340.76157  0.029335534  0.029740445            3 
  969000    1.1080799   -6.9356549    340.54342    0.0292865  0.029732468            4 
  970000    1.0984481   -6.9441034    341.04392  0.029299306   0.02972455            6 
  971000    1.1197834   -6.9389078    341.82359  0.029336044   0.02971674            1 
  972000    1.0896612   -6.9302054     342.8984  0.029398011  0.029709121            2 
  973000     1.084193   -6.9844758    341.52944  0.029250552  0.029701246            3 
  974000    1.0818884   -6.9586744    342.15572  0.029274103  0.029693274            3 
  975000    1.0915766   -6.9084851    342.53045  0.029276107  0.029685543            4 
  976000    1.1379792   -6.9253673    343.22853  0.029305714  0.029677767            7 
  977000    1.0975252   -6.9598235     343.0905  0.029263946   0.02966994            2 
  978000    1.0999047   -6.9224361    343.26211  0.029248646  0.029662174            4 
  979000    1.1031657    -6.957003     342.7302  0.029173493  0.029654289            9 
  980000    1.0798535   -6.9200162    344.02306  0.029253661  0.029646384            4 
  981000    1.1044326   -6.9474599    343.31948  0.029164074  0.029638491            1 
  982000    1.0979729   -6.9513767    342.27435  0.029045685  0.029630396            4 
  983000    1.0919741    -6.986544    343.90248  0.029154161  0.029622271            4 
  984000    1.0999164   -6.9848329    344.41514  0.029167948   0.02961444            2 
  985000    1.0861307   -6.9957756    344.42185  0.029138904    0.0296066            4 
  986000     1.090807   -6.9441353     345.9847  0.029241438  0.029598851            4 
  987000     1.073884   -6.9440767    345.35819  0.029158915  0.029591172            7 
  988000    1.0921179   -6.9689459    345.97712  0.029181606  0.029583516            5 
  989000    1.0976168   -6.9842565    347.25007  0.029259359  0.029575837            2 
  990000    1.0881691   -6.9930064    346.99478  0.029208315  0.029568041            2 
  991000    1.1130652   -6.9872403    345.80072  0.029078433  0.029560364            4 
  992000    1.0906123   -6.9529645    347.08016  0.029156599   0.02955223            5 
  993000    1.0810734   -6.9737553    346.98904  0.029119591  0.029544443            5 
  994000     1.056878   -6.9799668    346.22697  0.029026406  0.029536496            3 
  995000    1.0653375   -6.9859439    347.15283  0.029074777  0.029528139            2 
  996000    1.0761128   -6.9920736    346.75842  0.029012585  0.029519958            5 
  997000    1.1076036   -6.8889639    348.82788  0.029156459  0.029511758            3 
  998000    1.0771102   -6.9917918     347.5715  0.029022336  0.029503593            3 
  999000    1.1195732   -6.9400928    347.78817  0.029011359  0.029495501            2 
 1000000    1.1045448   -6.9598508    347.65258  0.028971048  0.029487436            2 
 1001000    1.0925801   -6.9641796    347.52506   0.02893149  0.029479308            3 
 1002000    1.0850006   -6.9451036      348.152  0.028954757  0.029471287            2 
 1003000     1.086412   -6.9918025    348.31767  0.028939654  0.029462998            3 
 1004000    1.1004002   -6.9505004    349.03987  0.028970773  0.029454475            4 
 1005000    1.0829799   -6.9926652    348.97208  0.028936325  0.029446053            6 
 1006000    1.1022472   -6.9246819    351.47493  0.029114888  0.029437942            2 
 1007000     1.085521    -6.970717    350.23719  0.028983548  0.029429647            3 
 1008000    1.0999863   -6.9515749    350.40004  0.028968258  0.029421547            2 
 1009000    1.0874435    -6.955026    350.37492  0.028937473  0.029413648            4 
 1010000    1.0849462   -6.9439011    351.91626  0.029035995  0.029405341            3 
 1011000    1.0873596   -6.9746584    351.14751  0.028943909  0.029397054            3 
 1012000    1.1132153   -6.9676825    351.96619  0.028982723  0.029388771            4 
 1013000    1.0781296   -6.9492713    351.46577  0.028912946  0.029380385            4 
 1014000     1.087463   -6.9422243    351.82536  0.028913984  0.029372082            5 
 1015000    1.0992012   -6.9587736    352.81658  0.028966879  0.029363934            3 
 1016000    1.0744018   -6.9851337    351.68355  0.028845436  0.029355742            2 
 1017000     1.091836   -6.9736657      351.998  0.028842839  0.029347262            2 
 1018000    1.0861577   -6.9599282    353.93428  0.028973009  0.029338867            4 
 1019000    1.1156966   -6.9504594    353.90365  0.028942071  0.029330769            3 
 1020000     1.087534   -6.9267081    353.99512   0.02892117  0.029322579            2 
 1021000    1.0928145   -6.9356765    353.09602   0.02881946  0.029314524            8 
 1022000    1.0773689   -6.9170226    354.34054  0.028892738  0.029306833            7 
 1023000    1.0972875   -6.9558197    355.06409  0.028923435  0.029299039            2 
 1024000    1.0949504   -6.9489495    353.42664  0.028761934  0.029291083            4 
 1025000    1.0660927   -6.9240818    355.20951  0.028878822  0.029283144            6 
 1026000    1.0985206   -6.9287911    354.98572  0.028832498  0.029274945            4 
 1027000    1.1121922   -6.9555782    355.35335  0.028834254  0.029266821            3 
 1028000    1.0883994   -6.9585047    355.61525  0.028827436  0.029258452            5 
 1029000    1.1105856   -6.9582299      355.474  0.028787982  0.029250223            5 
 1030000    1.1160545   -6.9810678    356.08516  0.028809479  0.029241776            3 
 1031000    1.0777631   -6.9674851    355.61002  0.028743131  0.029233504            6 
 1032000    1.0839417   -7.0221956    355.36455  0.028695458  0.029224878            3 
 1033000    1.1158362   -7.0047856    355.99449  0.028718497  0.029216288            5 
 1034000    1.1047509   -6.9445794    356.73373  0.028750301  0.029207867            3 
 1035000    1.1062159   -6.9697715    356.30363  0.028687893   0.02919952            3 
 1036000    1.1096684    -6.977526    357.38739  0.028747377  0.029190906            2 
 1037000    1.0957457   -7.0018576    356.02641  0.028610287  0.029182139            3 
 1038000    1.0706617   -6.9696278    357.26678  0.028682304  0.029173472            2 
 1039000    1.0957598   -6.9876366    356.61331  0.028602287  0.029164856            3 
 1040000    1.0709021   -6.9849445    357.69105  0.028661142   0.02915603            4 
 1041000    1.0897402   -6.9843735    359.06283  0.028743422  0.029147503            7 
 1042000    1.0896608   -6.9828333    359.71448  0.028767952  0.029139269            5 
 1043000    1.0861144   -6.9774821    360.04321  0.028766635  0.029131291            2 
 1044000    1.1088737   -7.0167761    359.69424  0.028711226  0.029123303            3 
 1045000    1.0845315   -6.9721388    359.97561  0.028706189  0.029115369            2 
 1046000    1.0928106   -6.9777757    360.42769  0.028714762  0.029107281            3 
 1047000     1.096888   -6.9803337    360.06707  0.028658633  0.029099385            4 
 1048000    1.0888998   -7.0094658    361.03905  0.028708576  0.029091523            7 
 1049000    1.0584772   -6.9760295    361.16831  0.028691477  0.029083443            3 
 1050000    1.0881657   -6.9706337    361.48804  0.028689527    0.0290753            8 
 1051000    1.1051068   -6.9610436    361.03813  0.028626556  0.029067383            5 
 1052000    1.0758072   -6.9591687    361.07062  0.028601919  0.029059105            2 
 1053000    1.0704794   -6.9760134    361.62581  0.028618693  0.029050896            2 
 1054000    1.0807716   -7.0124437    361.69683  0.028597156  0.029042626            3 
 1055000    1.0609108   -6.9972176    362.29259  0.028617108  0.029034546            5 
 1056000    1.0971543   -6.9874631    362.88267  0.028636575  0.029026331            3 
 1057000    1.0613533    -6.974975    363.40703  0.028650822  0.029018342            2 
 1058000    1.0715107   -6.9895977    362.69687  0.028567807  0.029010257            6 
 1059000    1.0839367   -7.0308923    363.12252  0.028574325  0.029002307            3 
 1060000    1.0813994   -6.9694478    363.70197  0.028592922  0.028994231            4 
 1061000    1.0713965   -7.0046808    362.79651  0.028494857  0.028985958            3 
 1062000    1.0724443   -6.9815676    364.11877   0.02857178  0.028977836            4 
 1063000    1.0872515   -6.9953697    365.17601  0.028627784  0.028969976            4 
 1064000    1.0695671   -6.9715095    365.07727  0.028593145  0.028962054            3 
 1065000    1.0733488   -7.0347367    363.43957  0.028438151  0.028954022            5 
 1066000    1.0994314    -6.983636    365.67097  0.028585911  0.028945914            6 
 1067000    1.0803922   -7.0452797    364.31294  0.028453057  0.028937649            4 
 1068000    1.0932413   -6.9562983    365.82906  0.028544715  0.028929682            5 
 1069000    1.1035838   -6.9684245    365.85637  0.028520141  0.028921823            9 
 1070000    1.0910078   -7.0143758      366.143   0.02851581  0.028913538            5 
 1071000    1.0935633   -7.0030174    366.04233  0.028481352  0.028905019            2 
 1072000    1.0767224   -6.9908441    366.70731  0.028506476  0.028896864            2 
 1073000    1.0757021    -6.969585    366.70676  0.028479866  0.028888429            3 
 1074000    1.0848486   -6.9788617     366.5049  0.028437686   0.02888034            4 
 1075000    1.0670466   -6.9705475    367.17561  0.028463226  0.028871962            2 
 1076000    1.0830078   -6.9685611    366.52419  0.028386322  0.028863598            6 
 1077000    1.0676466   -7.0307505    366.98509  0.028395627  0.028855141            4 
 1078000    1.0496026   -7.0086701    367.13641  0.028380984  0.028846611            5 
 1079000    1.0928553   -7.0106484     367.8337  0.028408534  0.028838457            3 
 1080000    1.0774086   -7.0153582    367.50034  0.028356508  0.028830248            2 
 1081000    1.0896083   -7.0023375    368.35264  0.028395979  0.028822145            5 
 1082000    1.0772183   -7.0270982    369.40494  0.028450781  0.028814131            3 
 1083000    1.0585256   -6.9888486    368.41055  0.028347995  0.028805892            1 
 1084000    1.0773919   -7.0172831    369.42533  0.028399856  0.028797718            5 
 1085000    1.0777003   -7.0164468     368.5763  0.028308471  0.028789446            4 
 1086000    1.0762573   -7.0082722    369.11422  0.028323682  0.028781143            5 
 1087000       1.0744   -6.9766196    370.07211   0.02837106  0.028772974            3 
 1088000    1.0672641    -7.054134    369.01395  0.028263936  0.028764789            2 
 1089000    1.0810447   -7.0233179     370.2198  0.028330257  0.028756505            2 
 1090000    1.0903745   -7.0007233    371.01671  0.028365192  0.028748262            2 
 1091000    1.0949369    -6.990785    371.45087  0.028372355  0.028740317            4 
 1092000    1.0672454   -6.9486473     371.6444  0.028361142  0.028732306            4 
 1093000     1.067125    -6.976578     372.0135  0.028363335  0.028724274            1 
 1094000    1.0768243   -6.9780693    372.32174  0.028360888  0.028716241            3 
 1095000    1.0947515    -7.015022    371.71295  0.028288657  0.028707926            2 
 1096000    1.0767371   -6.9684316    372.08832  0.028291387  0.028699784            2 
 1097000    1.0511877   -6.9940807    372.42867  0.028291451  0.028691391            2 
 1098000    1.0821356   -6.9840547    372.19773  0.028248158  0.028683002            1 
 1099000     1.078965   -7.0499331    371.71049  0.028185509  0.028674608            7 
 1100000    1.0664295   -7.0079998     371.5375   0.02814678  0.028665996            2 
 1101000     1.080351   -7.0187838    371.75061  0.028137346  0.028657365            2 
 1102000    1.0420392   -7.0226648    371.12942  0.028064838  0.028648598            6 
 1103000     1.079846   -6.9697012    372.93391  0.028175726  0.028639961            5 
 1104000     1.068015   -7.0251688    372.89977  0.028147628  0.028631361            2 
 1105000    1.0777729   -6.9874086    373.04255  0.028132922  0.028622756            5 
 1106000    1.0625488   -7.0066814    373.60323  0.028149731  0.028614126            5 
 1107000     1.071892   -7.0268709    373.24061  0.028097004   0.02860557            6 
 1108000    1.0975133   -7.0291922    373.84517  0.028117116  0.028597092            3 
 1109000    1.1006581   -6.9988947    375.20214  0.028193729  0.028588569            2 
 1110000      1.07833   -7.0165211    374.40868  0.028108759  0.028580058            2 
 1111000    1.0607328   -7.0482493    373.47416  0.028013363   0.02857155            4 
 1112000    1.0744166   -6.9741181    376.83983  0.028240395   0.02856287            2 
 1113000    1.0571455   -7.0197072    374.56867  0.028044974  0.028554465            2 
 1114000    1.0900319   -7.0295598    375.08088  0.028058115  0.028545997            3 
 1115000    1.0876572   -7.0156864    375.00888   0.02802757  0.028537345            4 
 1116000    1.0824021   -6.9983091    376.30946  0.028099571  0.028528943            4 
 1117000    1.0669709    -7.032348     375.1552  0.027988302  0.028520509            5 
 1118000    1.0715164   -7.0056481    376.34865  0.028052225  0.028511804            1 
 1119000    1.0816344    -7.010676     376.4531  0.028034935  0.028503126            2 
 1120000    1.0631031   -6.9747595    376.52717  0.028015414  0.028494699            2 
 1121000    1.0876284   -7.0194226    375.90438  0.027944126  0.028486031            3 
 1122000    1.0806439   -7.0065928    376.27495  0.027946743  0.028477604            2 
 1123000    1.0685001    -7.040408    377.43389  0.028007858  0.028468723            5 
 1124000    1.0834042   -7.0600373    376.22866  0.027893584  0.028460032            7 
 1125000    1.0778408   -7.0267042     376.4676  0.027886489  0.028451259            5 
 1126000    1.0460275   -7.0287234    377.87608  0.027965962  0.028442634            3 
 1127000    1.0488042   -7.0220581    378.39563  0.027979565  0.028433856            4 
 1128000    1.0866437       -7.026     376.7671  0.027834449  0.028425196            7 
 1129000    1.0699747   -7.0438048    378.85903  0.027964204  0.028416445            6 
 1130000    1.0747314   -7.0418255    378.51998  0.027914453  0.028407766            4 
 1131000    1.0880693   -7.0399935    377.92319  0.027845799  0.028399007            3 
 1132000    1.0742344   -7.0155872    378.43899  0.027859172  0.028390378            5 
 1133000    1.0672803   -7.0259926    378.74015  0.027856733  0.028381595            8 
 1134000    1.0901649   -7.0292905    379.42305  0.027882352  0.028372607            2 
 1135000    1.0858143   -7.0487382    378.32499  0.027777165   0.02836385            3 
 1136000    1.0634773   -7.0281509    379.68518  0.027852492  0.028355215            2 
 1137000    1.0846322   -7.0722488    378.45607  0.027737912  0.028346335            5 
 1138000    1.0724131   -7.0470296    379.38143    0.0277813  0.028337396            3 
 1139000    1.0676555   -7.0428658    380.42818  0.027833493   0.02832836            3 
 1140000    1.0569086   -7.0479138    380.18597  0.027791372  0.028319478            1 
 1141000    1.0706773   -7.0235886    379.85521  0.027742858  0.028310497            5 
 1142000    1.0817707   -7.0432241    380.09651  0.027736173  0.028301318            3 
 1143000    1.0782165   -7.0590883    380.14776  0.027715643  0.028292106            8 
 1144000    1.0953788    -6.990245    380.29299  0.027701995  0.028282843            7 
 1145000    1.0713266   -7.0562397    381.21177   0.02774467  0.028273741            2 
 1146000    1.0632303   -7.0024123    382.59317  0.027820911  0.028264794            4 
 1147000     1.081431   -7.0341003    382.81117  0.027812494  0.028255928            5 
 1148000    1.0854834   -7.0540638    381.72958  0.027709755   0.02824712            5 
 1149000    1.0596763   -7.0317701    382.49142  0.027740892  0.028238214           10 
 1150000    1.0763464   -7.0327757     383.0678  0.027758537  0.028229363            5 
 1151000     1.038127   -7.0612452    381.98662  0.027656141  0.028220399            6 
 1152000    1.0774026   -7.0376938    383.18271  0.027718657  0.028211502            2 
 1153000    1.0464201   -7.0006587    383.54516  0.027720812   0.02820264            6 
 1154000    1.0687962    -7.031019    383.27298  0.027677136  0.028193824           14 
 1155000      1.05531   -7.0244516      383.304  0.027655411  0.028184893            7 
 1156000    1.0698331   -7.0216123     382.7421  0.027590982  0.028175623            4 
 1157000    1.0753302   -6.9878589    383.80327  0.027643566  0.028166481            4 
 1158000    1.0677154   -7.0461313     383.5253  0.027599691  0.028157321            4 
 1159000    1.0782408    -7.048181    383.94162  0.027605811   0.02814797            4 
 1160000    1.0378808   -7.0020731    384.81226  0.027644559  0.028138793            4 
 1161000    1.0727877   -7.0287787    384.35676  0.027588054   0.02812975            4 
 1162000    1.0753072   -7.0391962    383.57662  0.027508363  0.028120623            5 
 1163000    1.0567339   -7.0405759     383.9655  0.027512575  0.028111452            2 
 1164000    1.0457219    -7.021387    385.23876  0.027580094  0.028102316            3 
 1165000    1.0421996   -7.0354084    385.32457  0.027562558  0.028093343            2 
 1166000    1.0845887   -7.0857786    385.08429  0.027521748  0.028084404            5 
 1167000    1.0856271   -7.0382528    385.70237    0.0275423  0.028075522            5 
 1168000    1.0665805    -7.051791    386.30849  0.027561964   0.02806675            2 
 1169000    1.0792803   -7.0298204    387.01408  0.027588686  0.028057802            4 
 1170000    1.0770162   -7.0373019    385.95627  0.027489763  0.028048991            1 
 1171000    1.0652838   -7.0199676    387.06359  0.027545089   0.02803994            2 
 1172000    1.0781656   -7.0383672    387.40821   0.02754609  0.028030965            2 
 1173000    1.0629582   -7.0353134    387.65887  0.027540414   0.02802218            2 
 1174000    1.0781382   -7.0274337    386.89002  0.027462381  0.028013112            4 
 1175000    1.0560683   -7.0632613    387.40081  0.027475235  0.028004139            3 
 1176000    1.0532811   -7.0630548    386.90713  0.027416888  0.027995133            4 
 1177000    1.0506784   -7.0145043    388.93764  0.027537357  0.027986303            6 
 1178000    1.0505209   -7.0469872    388.50605   0.02748345  0.027977585            2 
 1179000    1.0728471   -7.0421183     389.0298  0.027497158   0.02796869            5 
 1180000    1.0683455   -7.0003321    389.50127  0.027507152  0.027960097            3 
 1181000    1.0643353   -7.0702089    389.01041  0.027449225  0.027951272            5 
 1182000    1.0703131   -7.0346223    390.18157  0.027508571  0.027942439            2 
 1183000    1.0633316   -7.0460465    389.51103  0.027438083  0.027933597            4 
 1184000    1.0445492    -7.055007    389.77748  0.027433663  0.027924916            7 
 1185000    1.0494289   -7.0381623    391.24992  0.027514059  0.027916245            4 
 1186000    1.0786278   -7.0578366    390.60086  0.027445254  0.027907579            9 
 1187000    1.0894954   -7.0252155    391.05689  0.027454148    0.0278987            4 
 1188000    1.0607622   -7.0722541    390.35724  0.027381962  0.027889978            3 
 1189000    1.0743098   -7.0067975    392.56479  0.027513652  0.027881344            3 
 1190000    1.0546618   -7.0155611    391.87782  0.027442425  0.027872825            4 
 1191000    1.0859753   -7.0577156    390.81034  0.027344692   0.02786423            5 
 1192000    1.0922596   -7.0499381    391.57275  0.027375052  0.027855545            6 
 1193000    1.0626932   -7.0186942    393.31768  0.027473993  0.027846911            2 
 1194000    1.0752108    -7.083712    391.65063  0.027334634  0.027838347            3 
 1195000    1.0559389   -7.0904476    391.16179   0.02727767  0.027829673            8 
 1196000     1.073363   -7.0362799    394.09747  0.027459411  0.027821206            2 
 1197000    1.0689962   -7.0443521    393.48964  0.027394155  0.027812928            4 
 1198000    1.0745249   -7.0247518    395.43706  0.027506751  0.027804749            5 
 1199000     1.049584   -7.0226302    395.62522  0.027496888  0.027796409            2 
 1200000    1.0478689   -7.0533047    394.30996  0.027382636  0.027788218            3 
 1201000    1.0764683   -7.0415915    395.63537  0.027451802  0.027779988            5 
 1202000    1.0596104   -7.0749708    395.34143  0.027408585  0.027771458            5 
 1203000    1.0527905   -7.0256336     395.8749  0.027422756   0.02776319            2 
 1204000    1.0310756   -7.0827351    394.29678  0.027290752  0.027754926            5 
 1205000     1.063363   -7.0254603    397.20058   0.02746892  0.027746529            6 
 1206000    1.0548248   -7.0506574    395.67666  0.027340841  0.027738201            4 
 1207000    1.0647361    -7.036422    396.79298  0.027395263  0.027729822            4 
 1208000    1.0679911   -7.0687685    396.61688  0.027360436  0.027721405            2 
 1209000    1.0630794   -7.0411485    397.34505  0.027387996  0.027712983            3 
 1210000     1.055159   -7.0384584    396.67884  0.027319479  0.027704655            5 
 1211000    1.0706214   -6.9931653    398.71833  0.027437265   0.02769641            2 
 1212000    1.0623343   -7.0344426    397.11505   0.02730439  0.027688059            3 
 1213000    1.0480322   -7.0789665    397.55331  0.027311989  0.027679737            4 
 1214000    1.0541769   -7.0457849    397.38782  0.027278132  0.027671471            4 
 1215000    1.0480656   -7.0595299    397.27342  0.027247834  0.027663004            2 
 1216000    1.0442921   -7.0712804    397.80009  0.027261519  0.027654442            4 
 1217000    1.0363267   -7.0489972     397.9234  0.027247563  0.027645927            5 
 1218000    1.0720957   -7.0527441    398.52851  0.027266592  0.027637465            5 
 1219000    1.0682633   -7.0788716    398.99401  0.027276047  0.027629119            5 
 1220000    1.0684031   -7.0026495    400.81457  0.027378045  0.027621072            3 
 1221000    1.0673788    -7.102925    400.71461    0.0273488  0.027612807            4 
 1222000    1.0473768   -7.0299064    399.27987  0.027228578  0.027604434            5 
 1223000    1.0489015   -7.0590746    399.08201  0.027192833  0.027596001            2 
 1224000    1.0637077   -7.0725522    399.07061   0.02716984  0.027587667            3 
 1225000     1.043014   -7.0822244    399.75875  0.027194473  0.027579046            2 
 1226000    1.0339725    -7.024218    401.12115  0.027264896  0.027570752            4 
 1227000    1.0555149   -7.0404435    399.78806  0.027152137  0.027562411            2 
 1228000    1.0424354   -7.0695192    400.27623  0.027163154   0.02755389            5 
 1229000    1.0700525   -7.0852671    400.12943  0.027131098   0.02754541            4 
 1230000    1.0681221   -7.0628892    401.01168  0.027168813  0.027536985           12 
 1231000     1.040624   -7.0760766    400.85601  0.027136204  0.027528559            5 
 1232000    1.0550985   -7.0687518    401.43194  0.027153135   0.02752007            2 
 1233000    1.0370998   -7.0319198    402.57757  0.027208541  0.027511699            2 
 1234000    1.0725303   -7.0596844    401.41218  0.027107792   0.02750332            2 
 1235000    1.0595522   -7.0148468    404.46799  0.027292037  0.027494929            1 
 1236000    1.0632772   -7.0388785    402.47658  0.027135692  0.027486624            9 
 1237000    1.0469977   -7.0543135    402.22256  0.027096642  0.027478203            3 
 1238000    1.0789621    -7.069347    402.58834  0.027099377  0.027469688            2 
 1239000    1.0458554   -7.0884232    402.24175  0.027054194  0.027461332            3 
 1240000    1.0473307   -7.0898374    401.01637  0.026950025  0.027452839            3 
 1241000    1.0727075   -7.0852669    403.00596   0.02706191  0.027444199            6 
 1242000     1.062736   -7.1025527    403.67033  0.027084698  0.027435472            3 
 1243000    1.0521573   -7.0799714    401.80395  0.026937782  0.027426914            3 
 1244000    1.0458052   -7.0923151    402.68027   0.02697483  0.027418285            2 
 1245000    1.0397041   -7.0788447    403.11031  0.026981948  0.027409598            4 
 1246000    1.0582662     -7.10252     403.2691  0.026970914  0.027400851            3 
 1247000    1.0501653   -7.0838453    403.06883  0.026935901   0.02739241            6 
 1248000    1.0553572   -7.1096454    402.94996  0.026906381   0.02738376            6 
 1249000    1.0456547   -7.0763734    404.35105   0.02697832  0.027375086            8 
 1250000    1.0584892   -7.0826915    403.72784  0.026915189  0.027366274            2 
 1251000    1.0008481   -7.1012683     403.3232   0.02686672  0.027357345            5 
 1252000    1.0379402   -7.0801536    404.11666  0.026898074  0.027348576            6 
 1253000    1.0569466   -7.0920975    403.39128  0.026828364   0.02733976            2 
 1254000    1.0542961    -7.087504     403.1318  0.026789726  0.027330918           11 
 1255000    1.0653668   -7.0631687    405.54376  0.026928537  0.027322213            6 
 1256000    1.0251374   -7.0595092    405.01243  0.026871844  0.027313427            5 
 1257000    1.0817036   -7.1247413    403.74192  0.026766237  0.027304511            5 
 1258000    1.0555499   -7.0684206    405.22035  0.026842896  0.027295687            4 
 1259000    1.0328137   -7.1065153    404.15975  0.026751373  0.027286857            3 
 1260000    1.0329723   -7.0804774    405.52979  0.026820753  0.027278054            5 
 1261000    1.0403217   -7.0806815    406.45409  0.026860566  0.027269144            4 
 1262000    1.0379489   -7.0941067    405.66615  0.026787252  0.027260333            4 
 1263000    1.0108075   -7.0773542    405.59308  0.026761222  0.027251507           10 
 1264000    1.0414432   -7.0777052    405.04372  0.026703832   0.02724245            4 
 1265000     1.028665   -7.0707467    405.73292  0.026728124  0.027233587            7 
 1266000    1.0725047   -7.0441402    406.61881  0.026765324   0.02722487            2 
 1267000    1.0469609   -7.0312457    407.24487  0.026785377  0.027216137            3 
 1268000    1.0372741   -7.1208772    406.35529  0.026705789   0.02720729            5 
 1269000    1.0601689   -7.0578134    408.83963  0.026847887    0.0271984            3 
 1270000    1.0460253   -7.0817979    408.82657   0.02682589  0.027189594            5 
 1271000    1.0648905   -7.0846574    407.66775  0.026728806  0.027180809            3 
 1272000    1.0486507   -7.0748345     408.1726  0.026740867  0.027172109            3 
 1273000    1.0589285   -7.0574689    408.57171  0.026745988  0.027163596            8 
 1274000    1.0551968   -7.0791735    407.91495  0.026682035  0.027154892            3 
 1275000    1.0159767   -7.0668018    409.10267  0.026738736  0.027146112            3 
 1276000    1.0319991   -7.0206367    410.14597  0.026785918  0.027137392            2 
 1277000    1.0530597   -7.0896214     408.4539  0.026654523  0.027128905            2 
 1278000     1.042983   -7.0678205    408.02009  0.026605379  0.027120188            3 
 1279000    1.0508309    -7.065385    408.69599  0.026628615  0.027111506            3 
 1280000    1.0483866    -7.101055    409.09371  0.026633705  0.027102582            2 
 1281000    1.0362605   -7.0668834     407.9629  0.026539351  0.027093756            4 
 1282000    1.0588549   -7.1252419    408.81486  0.026574029   0.02708486            2 
 1283000    1.0367428   -7.0905839    409.89219  0.026623291  0.027075985            6 
 1284000    1.0443679    -7.066476    410.43802  0.026637981  0.027067179            4 
 1285000     1.053756   -7.1349678    409.39935  0.026549893  0.027058489            4 
 1286000    1.0582478   -7.0845876     409.8426   0.02655797   0.02704978            2 
 1287000     1.055864   -7.0766202    410.88778   0.02660501   0.02704122            3 
 1288000    1.0562296    -7.096919    411.63551  0.026632732  0.027032576            2 
 1289000     1.072655   -7.0688976    413.53627  0.026734954  0.027024006            3 
 1290000      1.08008   -7.0361088    413.86257  0.026735308  0.027015426            5 
 1291000    1.0511698   -7.0588622    412.45863  0.026623976  0.027006878            6 
 1292000    1.0482919   -7.0749173    412.70719  0.026619401    0.0269983            4 
 1293000    1.0604524   -7.1181475     412.9764  0.026616164  0.026989642            4 
 1294000    1.0513291   -7.0989869    413.79326    0.0266482   0.02698102            4 
 1295000    1.0242167   -7.0800366     413.7126  0.026622432  0.026972545            4 
 1296000    1.0411885   -7.1028933    413.01866   0.02655727  0.026963971            5 
 1297000    1.0581465   -7.0870689    413.73911  0.026583083  0.026955569            7 
 1298000    1.0487379    -7.096441    413.31874  0.026535615  0.026947002            2 
 1299000    1.0521431   -7.0860655    413.47332  0.026525104   0.02693824            8 
 1300000    1.0611578   -7.0925275    413.06222  0.026478347  0.026929563            6 
 1301000    1.0521594   -7.1203534    413.71622  0.026499886   0.02692091            3 
 1302000     1.045313   -7.1172307    413.44026   0.02646187  0.026912169            5 
 1303000    1.0614379    -7.134834    412.81148  0.026401348  0.026903545            4 
 1304000    1.0256924   -7.0880636    414.85672  0.026511805  0.026894879            9 
 1305000     1.045696   -7.0945769    414.96188  0.026498205  0.026886241            6 
 1306000    1.0290995   -7.1192328    413.98602  0.026415647  0.026877628            5 
 1307000    1.0299376   -7.1052699    415.37799  0.026484187  0.026868937            3 
 1308000    1.0416632   -7.0592048    416.36155  0.026526602  0.026860229            4 
 1309000    1.0451928   -7.1087751    415.14494  0.026428886  0.026851694            4 
 1310000    1.0118927   -7.1132103    414.47751  0.026366254  0.026843048            2 
 1311000    1.0527363   -7.0570243    416.40135  0.026468431  0.026834209            2 
 1312000    1.0234843   -7.0572067    416.62622  0.026462539  0.026825442            4 
 1313000    1.0721227    -7.072889    416.84834  0.026456482  0.026816728            3 
 1314000    1.0255511   -7.0416248    417.35406  0.026468421  0.026808131            7 
 1315000    1.0239109    -7.110944    416.27142  0.026379685  0.026799259            4 
 1316000    1.0530362    -7.102857    416.17491  0.026353528  0.026790445            8 
 1317000    1.0388813   -7.1307651    416.32725  0.026343157  0.026781724            6 
 1318000    1.0659987   -7.1021874    417.11859  0.026373204  0.026772866            5 
 1319000    1.0425882   -7.1143938    417.60089   0.02638368  0.026764284            4 
 1320000    1.0527011   -7.0924375    418.34477  0.026410655  0.026755698            2 
 1321000    1.0196924   -7.1425554    417.94005  0.026365131  0.026747069            4 
 1322000    1.0402398   -7.1040365    417.43092  0.026313094  0.026738222            3 
 1323000    1.0446805   -7.0656151    417.86033  0.026320252  0.026729602            6 
 1324000    1.0391446   -7.0945487    418.18476  0.026320793  0.026720803            3 
 1325000    1.0450222   -7.1235134    418.42897  0.026316287  0.026712084            4 
 1326000    1.0772396   -7.1558151    417.53799  0.026240447  0.026703271            5 
 1327000    1.0130098   -7.1365812    418.39735  0.026274639   0.02669448            4 
 1328000    1.0222276   -7.0744522    419.81448   0.02634378   0.02668599            4 
 1329000    1.0485122   -7.0699662    419.12821  0.026280926  0.026677518            4 
 1330000    1.0363361   -7.0843679    420.30584  0.026334952  0.026669006            3 
 1331000      1.07226   -7.0949905    419.09023  0.026239058  0.026660341            3 
 1332000    1.0437946   -7.1234915    418.80518  0.026201525  0.026651555            5 
 1333000     1.025319   -7.0882092     419.1875   0.02620577  0.026642662            3 
 1334000    1.0341235   -7.1052117    418.87922  0.026166868  0.026633815            3 
 1335000    1.0410119   -7.1063175    420.07665  0.026222013  0.026625057            3 
 1336000    1.0483991    -7.124339    418.22461  0.026086864  0.026616104            4 
 1337000    1.0414921   -7.0924171    418.41467  0.026079199  0.026607136            5 
 1338000    1.0259974   -7.1179057    419.48313  0.026126254  0.026598267            8 
 1339000     1.045933   -7.0860469    422.06475   0.02626741  0.026589433            4 
 1340000    1.0363101   -7.1062566    421.27348  0.026198599  0.026580664            4 
 1341000    1.0402805   -7.1022535     420.3616  0.026122397    0.0265718            3 
 1342000    1.0264486   -7.0653217    422.05711  0.026208216   0.02656301            6 
 1343000    1.0336602   -7.1081282    421.95751  0.026182521  0.026554402            3 
 1344000    1.0034292   -7.1210188    420.66903  0.026083149  0.026545657            2 
 1345000    1.0220182   -7.1132327    421.77082  0.026132021  0.026537021            4 
 1346000    1.0607577   -7.0915922    422.09917  0.026132935  0.026528559            4 
 1347000      1.01128   -7.1327617    422.65124  0.026147689  0.026519748            4 
 1348000     1.031885   -7.1309895    422.57014  0.026123278  0.026511042            4 
 1349000    1.0435671   -7.1368298    422.15109  0.026078026  0.026502237            2 
 1350000    1.0318366    -7.137564    422.25992  0.026065427  0.026493529            4 
 1351000    1.0230343   -7.1684519    422.40857  0.026055303  0.026484684            3 
 1352000    1.0412892   -7.0890894    423.83989  0.026124254  0.026475787            4 
 1353000    1.0427444   -7.0927076    424.71452  0.026158815   0.02646715            3 
 1354000    1.0375783   -7.0848503    424.60482  0.026132744  0.026458506            3 
 1355000    1.0382839   -7.1239518    424.15208  0.026085614  0.026449954            3 
 1356000    1.0249992   -7.1318772    424.60427  0.026094166   0.02644133            3 
 1357000    1.0381032    -7.108003    426.05095  0.026163778  0.026432812            2 
 1358000    1.0256648   -7.0971579    425.55513  0.026114085  0.026424318            4 
 1359000    1.0514316    -7.064971    425.96937  0.026120271  0.026415893            4 
 1360000    1.0623383   -7.0960098    426.01803  0.026104046  0.026407307            4 
 1361000    1.0364272   -7.1144533    425.47051  0.026051342  0.026398629            3 
 1362000    1.0245069   -7.0934382     425.4308  0.026029785  0.026390029            3 
 1363000    1.0306778   -7.1188157    424.47229  0.025952084  0.026381324            3 
 1364000    1.0329471   -7.1564042    426.19544  0.026038334  0.026372633            5 
 1365000    1.0258961   -7.1390486    425.07821  0.025951051  0.026364035            2 
 1366000    1.0296179   -7.0980739    426.99891  0.026049226  0.026355428            3 
 1367000    1.0368588   -7.1333206    426.78106   0.02601689  0.026346808            2 
 1368000     1.011189    -7.132813    426.52768  0.025982437  0.026338195            3 
 1369000    1.0559531   -7.0818926    427.91962  0.026048187  0.026329643            6 
 1370000    1.0354877   -7.1154405    427.21733  0.025986456  0.026321129            9 
 1371000    1.0448519    -7.105593    426.85506  0.025945481  0.026312469            2 
 1372000    1.0162313   -7.1240138     426.5885   0.02591038  0.026303789            7 
 1373000    1.0052547   -7.1389815    426.07253  0.025860192  0.026295002            5 
 1374000    1.0258928   -7.1302594    425.25374  0.025791712  0.026286085            4 
 1375000    1.0403742    -7.116466    427.04836  0.025881719  0.026277214            2 
 1376000    1.0270334   -7.1627743    426.39781  0.025823511   0.02626847            3 
 1377000    1.0588788   -7.1397108    426.84205  0.025831642  0.026259494            4 
 1378000    1.0297452   -7.0932474    427.78775  0.025870086  0.026250548            5 
 1379000    1.0221551   -7.1203876    428.20355  0.025876453  0.026241728            3 
 1380000    1.0202176   -7.1494692    427.32255  0.025804502  0.026232798            3 
 1381000    1.0232668   -7.1778437    425.56059  0.025679495  0.026223771            2 
 1382000    1.0263252   -7.1594968     427.8764  0.025800555  0.026214852            3 
 1383000    1.0161242   -7.1219924    427.00962  0.025729671  0.026205922            3 
 1384000    1.0127267   -7.1137257    428.86719  0.025822928  0.026197102            3 
 1385000    1.0110572   -7.1344919    428.70685  0.025794636   0.02618838            5 
 1386000      1.02075   -7.1222876    429.14879  0.025802597  0.026179622            5 
 1387000    1.0224487   -7.1144331    428.90943  0.025769612  0.026170773            3 
 1388000    1.0616101   -7.1551375    428.34397  0.025717097  0.026162033            3 
 1389000    1.0558087   -7.1652197    428.46663  0.025705941   0.02615318            6 
 1390000    1.0369392   -7.1445542    428.81826  0.025708529  0.026144417            8 
 1391000     1.039537   -7.1627679    429.45229  0.025728031  0.026135574            6 
 1392000     1.045959   -7.1307543    431.50474   0.02583242  0.026126965            4 
 1393000    1.0115471   -7.1289904    431.99117  0.025842975  0.026118466            6 
 1394000    1.0160545   -7.0844025    430.49439  0.025734959  0.026109892            4 
 1395000    1.0352289   -7.1740939    429.73963  0.025671423   0.02610113            5 
 1396000    1.0322897   -7.1205014    431.69724  0.025769892  0.026092434            4 
 1397000    1.0379558   -7.1173765    432.37051  0.025791608  0.026083855            5 
 1398000    1.0060807   -7.0997534    433.66418  0.025850273  0.026075529            5 
 1399000    1.0220884   -7.1142201    431.34813  0.025693837  0.026067184            6 
 1400000    1.0422797   -7.1247079    432.25848  0.025729672  0.026058646            4 
 1401000    1.0053235   -7.1555672    431.51643  0.025667168  0.026050058            3 
 1402000     1.035234   -7.1430578    432.37708  0.025700017  0.026041488            2 
 1403000     1.038161   -7.1070164    431.91454  0.025654226  0.026033036            3 
 1404000    1.0264281   -7.1134685    433.59729  0.025735831  0.026024639            2 
 1405000    1.0309973   -7.1004824    432.85277  0.025673355  0.026016228            2 
 1406000    1.0319268   -7.1408602    433.40177  0.025687635  0.026007868            3 
 1407000    1.0252515   -7.1265523     434.4937   0.02573405  0.025999464            2 
 1408000    1.0193865   -7.1523456    434.01417  0.025687392   0.02599111            2 
 1409000    1.0114149   -7.1313934    433.18726  0.025620254  0.025982656            2 
 1410000     1.047665   -7.1044232    434.90411  0.025703553  0.025974347            3 
 1411000    1.0364903   -7.1069591     435.1058  0.025697248  0.025966104            5 
 1412000    1.0310494    -7.166335    434.03996  0.025616145  0.025957744            3 
 1413000    1.0110568    -7.182408    433.62254  0.025573398  0.025949231            3 
 1414000    1.0266657   -7.1361918    436.07907  0.025700086  0.025940594            3 
 1415000    1.0357247   -7.1779292     432.7446  0.025485548  0.025932099            5 
 1416000    1.0244157   -7.1503603    434.15157  0.025550352  0.025923304            1 
 1417000    1.0486921   -7.1549931    435.18296  0.025592976  0.025914632            6 
 1418000    1.0365603   -7.0971421    436.69094  0.025663549  0.025906176            7 
 1419000    1.0607092   -7.1475304    434.56997  0.025520905  0.025897554            3 
 1420000    1.0329678   -7.1305431    435.30131  0.025545852  0.025888928            6 
 1421000    1.0172293   -7.1120348    434.79967  0.025498456  0.025880159            8 
 1422000    1.0196165   -7.1355939    434.49388  0.025462604  0.025871524            9 
 1423000    1.0534293   -7.0910299    436.14293  0.025541282  0.025862981            3 
 1424000    1.0166792   -7.1548013     435.9431  0.025511651  0.025854393            5 
 1425000    1.0411997   -7.1378061       435.57   0.02547193  0.025845593            4 
 1426000    1.0276662   -7.1362124    436.90992   0.02553237  0.025836897            6 
 1427000    1.0197441   -7.1466416    436.84531  0.025510705  0.025828322            4 
 1428000    1.0047921   -7.1722233    436.55679  0.025476003  0.025819704            5 
 1429000    1.0206029   -7.1437761    436.27838  0.025441939  0.025811047            2 
 1430000    1.0280147   -7.1921041    436.45649  0.025434528  0.025802431            3 
 1431000     1.028509   -7.1762636    437.53967  0.025479832  0.025793713            5 
 1432000    1.0087217   -7.1762811    436.82155  0.025420248  0.025784895            4 
 1433000    1.0172627   -7.1450216    436.91447  0.025407913   0.02577631            3 
 1434000    1.0329676   -7.2124823    435.64746  0.025316566  0.025767526            5 
 1435000    1.0071242   -7.1765697    437.34156  0.025397303  0.025758816           10 
 1436000    1.0198251    -7.160014     437.2613  0.025374959  0.025750081            3 
 1437000    1.0367468   -7.1623851    437.34707  0.025362275  0.025741358            3 
 1438000    1.0365046   -7.1608447    437.23958  0.025338409  0.025732703            6 
 1439000    1.0051523   -7.1665789    437.78698    0.0253525  0.025724104            4 
 1440000     1.001634   -7.1571854    438.33945  0.025366866  0.025715432            2 
 1441000    1.0152502   -7.1522094    438.60182  0.025364436  0.025706815            3 
 1442000    1.0215462    -7.205424    437.64078  0.025291307  0.025698134            6 
 1443000    1.0354262   -7.1508387    440.06862  0.025413988   0.02568952            4 
 1444000    1.0146141   -7.1632343    439.67021  0.025373396  0.025680992           14 
 1445000    1.0292157   -7.1727287    438.94986  0.025314294   0.02567251            6 
 1446000    1.0427491   -7.1744584    439.81595    0.0253467  0.025663963            3 
 1447000    1.0161114   -7.1622596    439.63156  0.025318565  0.025655401            5 
 1448000    1.0161199   -7.1824746    438.83922   0.02525548  0.025646897            4 
 1449000   0.99646673   -7.1472453     441.4023  0.025385456  0.025638531            5 
 1450000    1.0213342   -7.1433352    440.92203  0.025340347  0.025630258            4 
 1451000    1.0185452   -7.1960426    442.43838  0.025409969  0.025621917            2 
 1452000    1.0137283   -7.1371567    442.55668  0.025399259  0.025613523            3 
 1453000    1.0356226   -7.1463313    441.74123   0.02533501  0.025605259            2 
 1454000     1.023371   -7.1544638    441.99245  0.025331983  0.025596845            3 
 1455000    1.0199066   -7.1101566    442.05447  0.025318126  0.025588523            5 
 1456000    1.0083026     -7.12618     442.6885  0.025337025  0.025580235            2 
 1457000   0.99931793   -7.1251837    442.77227  0.025324427  0.025571836            3 
 1458000   0.98792769   -7.1551131     442.9272  0.025315912   0.02556342            3 
 1459000    1.0102148   -7.1577381    443.22147  0.025315369   0.02555496            8 
 1460000    1.0087342   -7.1852097    441.92204  0.025223861  0.025546497            4 
 1461000    1.0075678   -7.1925651    442.60883   0.02524577  0.025538113            8 
 1462000    1.0075093   -7.1915293    443.58075    0.0252839  0.025529769           10 
 1463000   0.98409399    -7.139123    443.59756  0.025267576  0.025521476            8 
 1464000    1.0155034   -7.2340932     442.9572  0.025213866  0.025513249            5 
 1465000    1.0036579   -7.1457718    443.53429  0.025229482    0.0255049            5 
 1466000    1.0247865   -7.1787729    442.85008  0.025173379   0.02549659            2 
 1467000    1.0133624   -7.1399799    443.86504  0.025213874  0.025488319            7 
 1468000    1.0222639   -7.1435208    444.91091  0.025256069  0.025480031            4 
 1469000   0.99773203   -7.1861526    444.73179  0.025228715  0.025471676            5 
 1470000    1.0101282   -7.2319321    442.32962  0.025075375  0.025463316            8 
 1471000    1.0194335    -7.177188    444.10908  0.025159137  0.025455043            4 
 1472000   0.99678078   -7.1844948    444.82589  0.025182625  0.025446944            3 
 1473000    1.0162465   -7.1850385    444.04908  0.025121582  0.025438938            3 
 1474000    1.0238981   -7.1407975    448.10716  0.025333964  0.025430926            6 
 1475000    1.0019669   -7.1735542    445.81389  0.025187225  0.025422865            9 
 1476000    1.0119929   -7.1742626     445.7126  0.025164442  0.025414797            5 
 1477000    1.0062982   -7.1609149    446.46468  0.025189837  0.025406603            3 
 1478000    1.0000431   -7.2103178    446.57023  0.025178746  0.025398449            7 
 1479000    1.0112916   -7.1515372     446.4447  0.025154648  0.025390304            8 
 1480000    1.0143251   -7.1969611    445.96248    0.0251105  0.025382242            5 
 1481000    1.0168678   -7.1562505    446.33862   0.02511471  0.025374223            8 
 1482000     1.019005   -7.1722133    446.55678   0.02511003  0.025366094            2 
 1483000    1.0137916   -7.1887163    446.22322  0.025074355  0.025357885            2 
 1484000    1.0131978   -7.2139063    446.12767  0.025052093  0.025349641            6 
 1485000    1.0180443   -7.1874548    447.36348  0.025104573  0.025341483            5 
 1486000    1.0097661   -7.1760503    448.70905  0.025163136  0.025333335            4 
 1487000    1.0038061   -7.2053032    448.15826  0.025115348  0.025325333            4 
 1488000     1.019512   -7.1985426    448.39986  0.025111999  0.025317128            2 
 1489000   0.97914464   -7.1748704    449.21373  0.025140683     0.025309            5 
 1490000    1.0256994   -7.1570884    451.09844  0.025229219  0.025301079            5 
 1491000     1.038881   -7.1739561     448.6875  0.025077549  0.025293139            6 
 1492000    1.0165535    -7.182467    447.78851  0.025010529  0.025285175            2 
 1493000    1.0135056   -7.1777328    448.68226  0.025043662  0.025277128            7 
 1494000    1.0091134   -7.1748233    451.34116   0.02517521  0.025269101            2 
 1495000     1.010313   -7.1773489    451.60837  0.025173265  0.025261161            2 
 1496000    1.0028347   -7.2118111    450.08779  0.025071735  0.025253218            4 
 1497000     1.000904   -7.1727046    450.86965  0.025098511  0.025245288           11 
 1498000   0.98637914   -7.1123038     452.7594  0.025186882  0.025237462            6 
 1499000    1.0062593   -7.2106656    450.69701  0.025055426  0.025229553            5 
 1500000    1.0225366   -7.1977399    450.84789  0.025047105   0.02522163            3 
 1501000    1.0036872   -7.1662648     450.8895  0.025032728  0.025213599            8 
 1502000   0.99889746   -7.1796228    451.89093  0.025071623  0.025205554            5 
 1503000    1.0335647   -7.2278466    451.18809  0.025015973  0.025197524           11 
 1504000   0.99823209   -7.1458302    451.59447  0.025021857  0.025189656            5 
 1505000   0.99803741   -7.2096132    452.28062  0.025043224   0.02518186            3 
 1506000    1.0209924   -7.2038425    450.94706  0.024952803  0.025173949            2 
 1507000    1.0140989   -7.2229943    451.49687  0.024966648  0.025165918            5 
 1508000    1.0255106   -7.1773554    453.22779  0.025045744  0.025157905            2 
 1509000     1.031774   -7.1850409    452.36977  0.024981763  0.025150028            4 
 1510000   0.99923025   -7.2035691    452.28609  0.024960601  0.025142167           19 
 1511000    1.0173284   -7.1951533    452.45368  0.024953325  0.025134275            3 
 1512000     1.008695    -7.184568    452.96744  0.024965136  0.025126543            2 
 1513000    1.0000621   -7.1704961    453.10405  0.024956161  0.025118737            9 
 1514000    1.0097317   -7.1919855    454.07441  0.024993087  0.025111029            3 
 1515000    1.0057966   -7.1699616    454.39748  0.024994361  0.025103204           12 
 1516000   0.99766828   -7.2013311    453.54114  0.024930801  0.025095371            3 
 1517000    1.0043583   -7.2063433    452.71533  0.024869003  0.025087507            4 
 1518000    1.0206051   -7.1816005     454.8609  0.024970405  0.025079629            3 
 1519000   0.99671308   -7.2003287    454.57071  0.024938046  0.025071842            4 
 1520000     1.010895   -7.2181377    454.93254  0.024941477  0.025064047            5 
 1521000    1.0306713    -7.149753    456.36511  0.025003567  0.025056188            3 
 1522000    1.0052292   -7.1863856    455.92246  0.024962903  0.025048489            5 
 1523000   0.98604835    -7.142159    455.14183  0.024903799  0.025040691            7 
 1524000    1.0076264    -7.189467    456.81855  0.024979142  0.025032914            3 
 1525000   0.99397716   -7.1516675    455.06822  0.024867116  0.025025118            4 
 1526000   0.99586736   -7.1924082    454.43422  0.024816198  0.025017137            5 
 1527000    1.0378302   -7.1974955     455.4166  0.024853558  0.025009213            3 
 1528000   0.99920465   -7.1924698    456.35779  0.024888623    0.0250014            5 
 1529000    1.0126004   -7.1907915    454.51026  0.024771652  0.024993477            7 
 1530000    1.0308049   -7.2263653    455.23487  0.024794927  0.024985632            4 
 1531000    1.0024383   -7.1617931    457.01805  0.024875792  0.024977879            4 
 1532000    1.0209921   -7.1803647    456.86044  0.024850981  0.024970272            3 
 1533000    1.0034889   -7.1794818    456.71558  0.024826896  0.024962512            3 
 1534000    1.0089187   -7.1779309    457.64845  0.024861389  0.024954788            6 
 1535000   0.99700152   -7.1895683     458.7804  0.024906645  0.024947136            4 
 1536000    1.0197919   -7.1707362    457.94926  0.024845338  0.024939551            4 
 1537000   0.99871439   -7.1741094    457.41583  0.024800251  0.024931927            3 
 1538000    1.0179598   -7.1860544    458.87772  0.024863335  0.024924389            6 
 1539000    1.0100784   -7.2420326    457.99257  0.024799251   0.02491676            7 
 1540000    1.0124669   -7.2168428    458.10934  0.024789466  0.024909136           10 
 1541000     1.006359   -7.2161064    458.49185  0.024794065   0.02490153            5 
 1542000    1.0073817   -7.2427466    457.87044  0.024744403  0.024893882            3 
 1543000    1.0123146   -7.2276617    457.90542  0.024730256  0.024886131            6 
 1544000     1.009995   -7.1738208    460.96057  0.024879133  0.024878474            4 
 1545000    1.0114051     -7.18724    458.80921  0.024746991  0.024870767            5 
 1546000    1.0232834   -7.1994786    458.34486  0.024705954  0.024862964            3 
 1547000   0.99294009   -7.1778242     460.3454  0.024797748   0.02485539            7 
 1548000    1.0169567   -7.2131928    460.01656  0.024764026  0.024847749            9 
 1549000   0.98500655   -7.2371516    458.68571  0.024676442  0.024840092            7 
 1550000    1.0166403   -7.2259531     460.5566  0.024761107  0.024832296           11 
 1551000     1.015075   -7.2048331    460.78865  0.024757611  0.024824621            3 
 1552000   0.99019814    -7.168691    463.02913  0.024861959   0.02481714            3 
 1553000   0.97709061   -7.2203889    458.13631  0.024583404  0.024809574            2 
 1554000   0.98473604   -7.2025346    461.05319  0.024724002  0.024801894            2 
 1555000     1.013124    -7.164138     461.1559  0.024713606  0.024794332            4 
 1556000    1.0042001    -7.187027    462.00661  0.024743284  0.024786822            6 
 1557000   0.99251323   -7.1858733    463.21292  0.024791957   0.02477932            6 
 1558000    1.0147396   -7.1996146    461.78113  0.024699461  0.024771797            4 
 1559000    0.9944387   -7.2208246    461.30741  0.024658296  0.024764173            3 
 1560000   0.98199665   -7.1727902    463.21294  0.024744281  0.024756712            3 
 1561000    1.0236376    -7.205172    462.27623  0.024678423  0.024749192            3 
 1562000    1.0177808    -7.203308      463.098  0.024706466  0.024741668            6 
 1563000   0.99289446   -7.2257361    462.76294  0.024672795   0.02473411           10 
 1564000    1.0099612   -7.1727801    464.06842  0.024726578  0.024726583            2 
 1565000   0.99011699    -7.159028    465.08282  0.024764793  0.024719223            5 
 1566000    1.0088921   -7.2085408    465.03869  0.024746631  0.024711818           13 
 1567000    1.0119625   -7.2199191    463.08116  0.024626737  0.024704331            8 
 1568000   0.99954469   -7.2395675    462.39084  0.024574343  0.024696685            5 
 1569000   0.99813048   -7.1753314    463.91405  0.024639582  0.024689036            3 
 1570000    1.0254233     -7.21019    463.74834  0.024615092  0.024681497            4 
 1571000   0.97883537   -7.2236003     464.6518  0.024647348  0.024673999            3 
 1572000    1.0040077   -7.2053597    463.88109  0.024590813  0.024666507            9 
 1573000   0.99898931   -7.2034567    463.90703  0.024576554  0.024658963            4 
 1574000    1.0270028   -7.2137344    465.24074  0.024631551  0.024651373            2 
 1575000   0.97690699   -7.2127279    464.09414  0.024555246  0.024643827            5 
 1576000   0.99627144   -7.2207915    464.24828  0.024547815  0.024636275            1 
 1577000   0.98956155   -7.2151357     463.8257  0.024509918    0.0246286            9 
 1578000    1.0084177   -7.2064878    465.05609  0.024559363  0.024620847            6 
 1579000   0.99665233   -7.1869152    464.71589  0.024525855  0.024613116            5 
 1580000    1.0293024   -7.2337025    463.67631  0.024455502  0.024605394            5 
 1581000    1.0052802   -7.2564039    463.43993  0.024427574  0.024597579            4 
 1582000     0.988805   -7.1965051    464.42452  0.024463997  0.024589688            4 
 1583000    1.0057712   -7.2359141    463.56455  0.024403272  0.024581949            7 
 1584000   0.99892216   -7.2540187    464.57989  0.024441282  0.024574097            5 
 1585000    0.9887227   -7.2488855    464.07344  0.024399235  0.024566211            7 
 1586000    1.0031423   -7.2793015    464.57548  0.024410229   0.02455835            3 
 1587000   0.99218902   -7.3053737    462.81947   0.02430264  0.024550457            3 
 1588000   0.99746577   -7.2672443    464.93845  0.024398533   0.02454254            6 
 1589000   0.98187286   -7.2309353    465.56145  0.024415851  0.024534685            4 
 1590000     1.006625   -7.2411881    466.57046  0.024453378  0.024526861            3 
 1591000   0.98465768   -7.2354125    466.15801  0.024416405  0.024519144            6 
 1592000   0.98543892   -7.2603322    464.83372  0.024331748  0.024511352            6 
 1593000    1.0100009    -7.225689    465.92886  0.024373763  0.024503514            9 
 1594000   0.99775657   -7.1961659    465.14637  0.024317564  0.024495713            5 
 1595000    1.0224778   -7.2041993    467.20492   0.02440987  0.024487991            3 
 1596000    1.0013502   -7.2083538    468.08968  0.024440773   0.02448026            3 
 1597000   0.98926242   -7.2228853    466.77927   0.02435709  0.024472466            5 
 1598000   0.98984519   -7.2220894    466.14996   0.02430903  0.024464584            5 
 1599000   0.98414624   -7.2542476    465.36116  0.024252718  0.024456608            5 
 1600000   0.99201509   -7.2696151    465.15847  0.024227004  0.024448646            3 
 1601000    1.0116842   -7.2187677    467.93855  0.024356577  0.024440802            5 
 1602000   0.97867452   -7.1995811    466.90692  0.024287709  0.024432985            4 
 1603000   0.97091846   -7.2252902    468.15492  0.024337436  0.024425234            6 
 1604000     1.013869   -7.2555404    467.18742  0.024271998   0.02441733            7 
 1605000    1.0233455   -7.2196216    468.21886  0.024310429  0.024409424            5 
 1606000   0.98036656   -7.2648014    466.76341   0.02421977   0.02440152            4 
 1607000   0.99706663   -7.2820963    467.81157  0.024259053  0.024393561            9 
 1608000   0.98211099   -7.2379159    467.93622  0.024250426  0.024385691           11 
 1609000   0.99691094   -7.2687028    467.35702  0.024205356  0.024377778            4 
 1610000   0.98069716   -7.2567138    467.22335  0.024183403  0.024369836            8 
 1611000   0.99207219   -7.2451247    468.65314  0.024242352  0.024361818            4 
 1612000   0.99939682   -7.2543193    468.24926  0.024206434  0.024353905            3 
 1613000    1.0168102   -7.2403354    469.29705   0.02424556   0.02434601            9 
 1614000   0.98520713   -7.2322409    468.15379  0.024171509  0.024338184            4 
 1615000    0.9897268   -7.2349732    468.99495  0.024199946  0.024330374            4 
 1616000    1.0107503   -7.1815083    470.26075  0.024250245  0.024322586            3 
 1617000   0.98189315     -7.25571    468.29658  0.024134023  0.024314849            4 
 1618000    1.0040237   -7.2579269    469.34491    0.0241731  0.024307055            7 
 1619000   0.99528652   -7.2241277    469.53154  0.024167775  0.024299208           13 
 1620000   0.98613965   -7.2706378    468.96654  0.024123793  0.024291352            3 
 1621000   0.98200851   -7.2232868    469.04401  0.024112894  0.024283561            4 
 1622000   0.98288815   -7.2190398    470.49362  0.024172504  0.024275812            4 
 1623000   0.95496377   -7.2669265    468.98547  0.024080174  0.024268057            7 
 1624000   0.99947821   -7.2320812    470.12095  0.024123612  0.024260291            6 
 1625000    1.0068548   -7.2336436    470.81513  0.024144366  0.024252521           14 
 1626000   0.98359155   -7.2614657    471.75037  0.024177448  0.024244711            5 
 1627000   0.99061594   -7.2124093      471.916  0.024171071  0.024236944            4 
 1628000   0.99392242   -7.2035093    471.90185    0.0241555  0.024229184            6 
 1629000   0.98793098   -7.2014459    473.27233   0.02421078  0.024221453            3 
 1630000   0.97560071   -7.2248766    470.96755  0.024078095  0.024213729            5 
 1631000    1.0149876   -7.2524026    471.19759  0.024075086  0.024205946            4 
 1632000   0.98066032   -7.2420555    469.83428  0.023990721  0.024198005            3 
 1633000   0.99454149   -7.2514925    471.08151  0.024039677  0.024190212            5 
 1634000   0.99354092   -7.2282796     471.7435  0.024058726  0.024182328            4 
 1635000   0.99693202   -7.2383263    471.40303  0.024026658   0.02417448            6 
 1636000    1.0020946   -7.2431534    472.26235  0.024055743  0.024166783            4 
 1637000    1.0040827    -7.219069    471.32953  0.023993562  0.024158998            6 
 1638000   0.97669973   -7.2735448    472.75963   0.02405167  0.024151135            3 
 1639000   0.98510638   -7.2164746    472.38602     0.024018  0.024143443            3 
 1640000   0.99194219    -7.234101     471.4941  0.023958033   0.02413573            2 
 1641000   0.98524556   -7.2495256    472.50241  0.023994638  0.024127951            7 
 1642000   0.99835556   -7.2369653    473.44561  0.024027893  0.024120169            6 
 1643000   0.99234046   -7.2806375    472.56627  0.023968668  0.024112468           13 
 1644000   0.99387509   -7.2529435    472.42165  0.023946759   0.02410461            7 
 1645000   0.99569837    -7.266196    472.93946  0.023958432  0.024096762            4 
 1646000   0.98258851   -7.2655599    473.99818  0.023997478  0.024088911            6 
 1647000   0.98849239   -7.2566406    473.53672  0.023959559  0.024081117            5 
 1648000   0.99219923   -7.2711137    472.12662  0.023873717  0.024073253            5 
 1649000   0.98705814   -7.2856157    474.33962  0.023971075  0.024065346            5 
 1650000   0.97460785   -7.2590694    474.22019  0.023950515  0.024057461            8 
 1651000   0.97903329   -7.2312472    474.17674  0.023933815  0.024049583            4 
 1652000   0.98858818   -7.2320166    475.12691  0.023967257  0.024041739            7 
 1653000   0.98218887   -7.2366568    474.48096  0.023920194  0.024033951            7 
 1654000   0.97633616   -7.2498851    474.17715  0.023890425  0.024026094           16 
 1655000   0.99384868   -7.2506626    474.13779  0.023874008   0.02401812            7 
 1656000   0.98550709   -7.3118947    473.11074  0.023807908  0.024010178            4 
 1657000   0.97274061   -7.2633621    475.05951  0.023891546  0.024002251            4 
 1658000   0.97881709   -7.2494461    474.09021  0.023828418  0.023994368            3 
 1659000   0.98234023   -7.2034191    476.01161  0.023910569  0.023986624            6 
 1660000   0.98369986   -7.2429126    474.83748  0.023837223  0.023978754           11 
 1661000   0.97810334   -7.2745667     473.1701  0.023739218  0.023970802            3 
 1662000    1.0133428   -7.2622317     475.2942  0.023831438  0.023962801            9 
 1663000   0.99303162   -7.2447628    474.28014  0.023766293  0.023954787            3 
 1664000   0.99559989   -7.3116826    473.72992  0.023724455  0.023946753            6 
 1665000   0.97950335   -7.2738325    474.63112  0.023755311  0.023938563            8 
 1666000   0.98547162    -7.252755    475.59539  0.023789285  0.023930357            5 
 1667000   0.98882046    -7.235766    476.29916  0.023810196  0.023922396            4 
 1668000   0.98129369    -7.249261    475.40368  0.023751183  0.023914368            4 
 1669000   0.98869699   -7.2592566    474.32196  0.023682942   0.02390623            7 
 1670000   0.96526296   -7.2318807    474.68645  0.023686948  0.023898123            4 
 1671000   0.97840932   -7.2557584    475.32373  0.023704554  0.023890187           10 
 1672000    1.0229584   -7.2791906    473.95897  0.023622357  0.023881995            3 
 1673000   0.98142975   -7.2598114    475.67095  0.023693512  0.023873802            8 
 1674000   0.96452852   -7.2548871    475.44426  0.023668073  0.023865723            5 
 1675000    1.0021356   -7.2772968    475.14866  0.023639237  0.023857524            5 
 1676000   0.95724407   -7.3015664    474.42142  0.023588973  0.023849388            3 
 1677000   0.99141778   -7.2573393    475.29476  0.023618304   0.02384123            3 
 1678000   0.96817946   -7.2059445     476.4554  0.023661869  0.023833207           10 
 1679000   0.98449516   -7.2650932    476.13279  0.023631765  0.023825184            9 
 1680000   0.98288001   -7.2733243    475.54938  0.023588759  0.023817235            4 
 1681000    1.0036472   -7.2946671    477.01586  0.023647425  0.023809149            3 
 1682000    1.0037313   -7.2672185    477.57916  0.023661274  0.023801108            5 
 1683000   0.99843275   -7.2707601    477.76266  0.023656301  0.023793116            5 
 1684000   0.96154125   -7.2750451    478.14984  0.023661413  0.023785204            7 
 1685000   0.99254299   -7.2978137    477.15646  0.023598242  0.023777183            4 
 1686000   0.99774228   -7.2637222    478.69164  0.023660124  0.023769165            2 
 1687000    0.9688113   -7.2827309    477.47521  0.023586011  0.023761246            8 
 1688000   0.99424232   -7.2424928     478.9112   0.02364293  0.023753254            7 
 1689000   0.99855111    -7.270031     478.2663  0.023597114  0.023745422            6 
 1690000   0.98111348   -7.2998228    476.82541  0.023512101  0.023737536            5 
 1691000   0.97223296   -7.2244215    480.63499  0.023685935  0.023729639            4 
 1692000     0.967596   -7.2630037    479.60401  0.023621159  0.023721794           10 
 1693000   0.98904799   -7.2568622    478.42519  0.023549183  0.023713969            6 
 1694000   0.97763291   -7.2284509    480.06062  0.023615733  0.023706203            5 
 1695000   0.98921799   -7.2719029    480.80248  0.023638274  0.023698379            6 
 1696000    1.0066123   -7.2524615    480.55241  0.023612048  0.023690426            3 
 1697000   0.98528768   -7.2897729    480.94508  0.023617417  0.023682523            7 
 1698000   0.97185921   -7.2875308    479.70577  0.023542686  0.023674574            3 
 1699000   0.96103814   -7.2955059    479.76738  0.023531851  0.023666607            5 
 1700000   0.99724147   -7.2582816    480.51367  0.023554591   0.02365861            9 
 1701000   0.97541731   -7.2939428    479.15054  0.023473964  0.023650671            3 
 1702000   0.99568236   -7.2738278     480.2726   0.02351511  0.023642721            4 
 1703000   0.97273754   -7.3049318    480.55203  0.023514975  0.023634823            2 
 1704000    1.0077465   -7.2527805    480.62669  0.023504826  0.023627027            4 
 1705000   0.99115905    -7.283525    481.39132  0.023528413  0.023619148            4 
 1706000    1.0008869   -7.2620008    479.79623  0.023436705  0.023611135            7 
 1707000   0.99209125   -7.2643363    480.33775  0.023449412  0.023603177            5 
 1708000   0.96953229   -7.2924721    480.75771  0.023456172  0.023595204            5 
 1709000   0.96676423   -7.2621355    482.00486   0.02350326  0.023587163            5 
 1710000   0.96956529   -7.3349914    479.10867  0.023348376  0.023579202            4 
 1711000   0.97463503   -7.3527522    480.12169  0.023384068  0.023571155           11 
 1712000   0.98889749   -7.3303624    480.56898  0.023392182  0.023563168            3 
 1713000   0.97973433   -7.3136786    480.31088   0.02336597  0.023555123            4 
 1714000   0.98159158   -7.2833391    481.15282  0.023393272  0.023547231            3 
 1715000   0.98471964   -7.2694416    482.28568  0.023434678  0.023539448            4 
 1716000   0.96379473   -7.2817771    483.36357  0.023473367  0.023531744            3 
 1717000   0.97949435    -7.237307    483.41385  0.023462136  0.023524076            5 
 1718000   0.96475507   -7.2963662    482.30398  0.023394644  0.023516391            5 
 1719000   0.98684542   -7.2819799    482.81309  0.023405715  0.023508803            8 
 1720000   0.98082128   -7.2788612    484.87723  0.023492114   0.02350112           10 
 1721000   0.95503615   -7.3385226    482.76868  0.023376364  0.023493481            5 
 1722000   0.98125716   -7.2859341    484.56576  0.023449756  0.023485856            8 
 1723000   0.97240856   -7.3316203    483.34338  0.023377025  0.023478154            6 
 1724000   0.99181337   -7.2681893    484.86733  0.023437129  0.023470495            6 
 1725000   0.96401477   -7.3148497    485.28385  0.023443664  0.023463016            3 
 1726000   0.97648656   -7.2605022    485.75226  0.023452697  0.023455407            4 
 1727000   0.96430638   -7.2790207    486.59746  0.023479901  0.023447717            6 
 1728000   0.98290179    -7.283093    485.05017  0.023391694  0.023440061            9 
 1729000   0.97174534   -7.3287315    485.05668  0.023378479   0.02343235            3 
 1730000   0.97507014   -7.3090564    485.53569  0.023388039  0.023424676            6 
 1731000   0.97540719   -7.2794497     485.7785  0.023386217  0.023416966            3 
 1732000    0.9623089   -7.3077177    483.70271   0.02327284  0.023409283            3 
 1733000    1.0040158   -7.3016937    483.75257  0.023261809  0.023401518            5 
 1734000   0.95662319   -7.3117773     485.0682   0.02331162    0.0233937            4 
 1735000   0.98988115   -7.2887321    485.31241  0.023309914  0.023385909            6 
 1736000   0.96311874    -7.275778    485.59702  0.023310149  0.023378213            4 
 1737000   0.98030677   -7.3029505    485.33202  0.023284015  0.023370554            2 
 1738000   0.95219841   -7.3038544    483.92967  0.023203379  0.023362783            7 
 1739000    0.9826442   -7.3488351    483.43563  0.023166361  0.023355029            6 
 1740000   0.95528364     -7.31374    485.53924  0.023253795   0.02334724            7 
 1741000   0.96530172   -7.2617667    487.17417  0.023318695  0.023339584            5 
 1742000   0.97737053   -7.3115868     485.5229  0.023226316  0.023331953            6 
 1743000   0.97954759   -7.3267955    486.37804  0.023253875  0.023324232            4 
 1744000   0.96936749   -7.3394637     487.3862  0.023288713  0.023316458            3 
 1745000   0.97543595   -7.2611325    486.04037  0.023211097  0.023308718            8 
 1746000   0.98684741   -7.3131659    487.30984  0.023258393  0.023301015            5 
 1747000   0.95217399   -7.3278924      487.352   0.02324709  0.023293245            5 
 1748000   0.97305909    -7.302327    487.28155  0.023230432  0.023285563           11 
 1749000   0.98130534   -7.2646425    487.99301  0.023251049  0.023277903            6 
 1750000   0.97023086   -7.2826772    487.49751  0.023214167  0.023270274            5 
 1751000   0.96695845   -7.2941054    487.86232  0.023218272   0.02326267            7 
 1752000   0.96420337   -7.3188532    487.26631   0.02317667   0.02325488            8 
 1753000   0.96772016   -7.3243816    486.53701   0.02312878  0.023247061            4 
 1754000    0.9567382    -7.292601    488.64817  0.023215896   0.02323936            5 
 1755000   0.96853333   -7.2833188     487.1016  0.023129231  0.023231682            4 
 1756000   0.97772637   -7.3002635    487.76007  0.023147308  0.023224105            8 
 1757000    1.0040073   -7.2753297    489.21048  0.023202925   0.02321655            4 
 1758000   0.97666542   -7.2551053    488.98648  0.023179109   0.02320899            5 
 1759000   0.98368772   -7.3036442    488.26146  0.023131584  0.023201465           11 
 1760000   0.97177574   -7.2733587    489.68261  0.023185729  0.023194018            7 
 1761000   0.98355446   -7.3255638    489.84472  0.023180235  0.023186459            3 
 1762000   0.97611232   -7.3023143    488.56952  0.023106769  0.023178906            3 
 1763000   0.96225178   -7.2975261    489.65319  0.023144885  0.023171407           12 
 1764000   0.98748233   -7.3114472    489.36004  0.023117916  0.023163831            7 
 1765000   0.98147677    -7.329426    489.40635  0.023107004  0.023156232            3 
 1766000    0.9762178   -7.2817541     490.1864  0.023130729  0.023148616            6 
 1767000   0.97271048   -7.2925219      491.216  0.023166195  0.023141003            4 
 1768000   0.96687845   -7.2801441    491.23568   0.02315402  0.023133484            3 
 1769000   0.97515866    -7.291176    491.53073   0.02315483  0.023125999            6 
 1770000   0.96191669   -7.2935453    491.81067  0.023154928  0.023118455            5 
 1771000   0.95839405   -7.2909556    489.40253   0.02302854  0.023110854            4 
 1772000   0.97874415    -7.310949     491.4361  0.023111179   0.02310319            3 
 1773000   0.96561751   -7.3265807    488.80484  0.022974471  0.023095564            3 
 1774000   0.96890908   -7.2821822    491.50777   0.02308849  0.023088027            7 
 1775000   0.97766007   -7.2455223    492.43235   0.02311889  0.023080575            4 
 1776000   0.96891321   -7.3151363    490.89444  0.023033711  0.023073059            6 
 1777000   0.97519216    -7.346997    491.00087   0.02302574  0.023065461            4 
 1778000   0.97918698   -7.2991665    490.76639  0.023001799  0.023057884            5 
 1779000   0.95066413   -7.2976188    491.93099  0.023043423  0.023050268            4 
 1780000   0.97780281   -7.3072245    490.26628  0.022952541  0.023042723            3 
 1781000    0.9532304   -7.3342378    492.11178  0.023026005  0.023035171            4 
 1782000   0.99538373   -7.2992683    491.56189  0.022987368  0.023027575            5 
 1783000    0.9516687   -7.3369607    491.95886  0.022993029  0.023020001            5 
 1784000   0.97097973   -7.3402248    492.59314  0.023009769   0.02301243            4 
 1785000   0.96020514   -7.3363645    491.84293  0.022961855  0.023004876            3 
 1786000   0.93386734   -7.2785704    494.19331  0.023058665  0.022997447            6 
 1787000    0.9679998   -7.3090355    493.87064  0.023030715  0.022989969           11 
 1788000   0.95795016   -7.2920705    495.34745  0.023086663  0.022982584            6 
 1789000   0.95692939   -7.2873052     493.7636  0.022999982  0.022975182            7 
 1790000   0.95812877   -7.3047387    493.42866  0.022971539  0.022967785            8 
 1791000   0.98004273     -7.38354    493.12185  0.022944438   0.02296031            8 
 1792000   0.98300171   -7.3807604    491.71038  0.022865996   0.02295281            4 
 1793000   0.97718745   -7.3197011    493.16636  0.022920913  0.022945286            5 
 1794000   0.96164171    -7.368193    493.73731  0.022934658  0.022937872            4 
 1795000   0.97177144   -7.3634302    491.75947  0.022830059  0.022930416            5 
 1796000   0.98491825   -7.3649006    493.18053  0.022883284  0.022922977            6 
 1797000   0.95782524   -7.2915114    494.95063  0.022952636  0.022915532            8 
 1798000   0.94975908   -7.3230461    494.59869  0.022923558  0.022908252            3 
 1799000   0.97251791   -7.3547015    494.46034  0.022904407  0.022900883            5 
 1800000    0.9596155   -7.3580924    494.83753  0.022909145  0.022893403            4 
 1801000   0.96094688   -7.3489112    494.68554  0.022889392  0.022885906            6 
 1802000    1.0022424   -7.3187763    493.86394  0.022838695  0.022878381            4 
 1803000   0.95340158   -7.3547273    494.55593  0.022858011  0.022870944            4 
 1804000   0.96634237   -7.3729263    494.57203  0.022846084  0.022863476            6 
 1805000   0.95244411   -7.3010194    495.91484  0.022895422  0.022855982            5 
 1806000   0.96039555   -7.3699154    494.76416  0.022829649  0.022848515            6 
 1807000   0.95817839   -7.2992435      495.996  0.022873824    0.0228411            4 
 1808000   0.95516355   -7.2863406    496.36004  0.022877952  0.022833788            8 
 1809000    0.9627263   -7.3685012    495.90055  0.022844138  0.022826342            6 
 1810000   0.97852149   -7.3062453    498.03669  0.022929866  0.022818969            7 
 1811000   0.97144396   -7.3337304    495.91719  0.022819676   0.02281156            9 
 1812000   0.99915229   -7.3177048    496.52804  0.022835175  0.022804236            5 
 1813000   0.97746884   -7.3495951    496.29831   0.02281202   0.02279689            3 
 1814000   0.97411709   -7.2866584    497.79785  0.022868332  0.022789508            8 
 1815000   0.97842513   -7.3204993    496.80438  0.022810118  0.022782194            8 
 1816000   0.95878451   -7.3450064    496.85317  0.022799797  0.022774823           17 
 1817000   0.95198609   -7.2899835    498.95959  0.022883856  0.022767493            5 
 1818000   0.96131235   -7.2824295    497.09636  0.022785862  0.022760173            4 
 1819000   0.97765964   -7.3398259    496.90424  0.022764533  0.022752852            7 
 1820000   0.97437853    -7.297788    498.09122  0.022806374  0.022745568            4 
 1821000   0.95706519   -7.3433177    497.79735  0.022780402  0.022738154            7 
 1822000   0.96857918   -7.3106959    497.63759  0.022760592  0.022730774            4 
 1823000   0.96337537   -7.3241374     498.4373  0.022784664  0.022723365            5 
 1824000   0.94627341   -7.3211201    497.14981   0.02271335  0.022715957            4 
 1825000   0.97455315   -7.3114569    498.79175  0.022775879  0.022708624            4 
 1826000   0.96767773   -7.3460685     498.0973  0.022731713  0.022701259            3 
 1827000   0.94548756   -7.3707076    496.50357  0.022646578  0.022693865            9 
 1828000   0.96173294   -7.3742512    497.55791  0.022682254  0.022686403            4 
 1829000   0.94596234   -7.3632501    498.34448   0.02270569   0.02267911            4 
 1830000   0.93392622   -7.3293975    499.49487  0.022745668  0.022671788            6 
 1831000   0.97179375   -7.3639383    497.14605  0.022626345  0.022664411            7 
 1832000   0.95628476    -7.352027    498.79926  0.022689195   0.02265709            7 
 1833000   0.93429429   -7.3297041     499.6363  0.022714871  0.022649858           10 
 1834000     0.951369   -7.3483755    499.36289  0.022690062  0.022642519            5 
 1835000   0.94906602   -7.3683954    498.90762  0.022657022  0.022635255           10 
 1836000    0.9655915   -7.3203071       501.42  0.022758715  0.022627937            4 
 1837000   0.93825482   -7.3368878    499.46547   0.02265766  0.022620592           10 
 1838000   0.95467204   -7.3619192    499.84213  0.022662411  0.022613199            3 
 1839000   0.98815139   -7.3533642    499.23662  0.022622649   0.02260591            9 
 1840000   0.94896703   -7.3478296    499.97706  0.022643889  0.022598648            6 
 1841000    0.9434625   -7.3600633    499.38854  0.022604949  0.022591299            8 
 1842000   0.96902698   -7.3527333    499.64686  0.022604364  0.022583918            5 
 1843000   0.94913887   -7.3415598    500.11979  0.022613483  0.022576601            4 
 1844000   0.94852797   -7.3285625    500.37625   0.02261281  0.022569252            4 
 1845000   0.94632516   -7.3293456    500.47081  0.022604824  0.022561888            9 
 1846000   0.95252312    -7.373419    499.71858  0.022558621  0.022554508            6 
 1847000   0.97096684   -7.3656672     499.7531  0.022547965  0.022547145            2 
 1848000   0.96526045   -7.3491896    500.96247  0.022590299  0.022539754            7 
 1849000   0.94430645   -7.3395905    500.82583  0.022571923  0.022532384            4 
 1850000    0.9523366   -7.3754137    500.21508  0.022532211  0.022525005            6 
 1851000   0.93992786   -7.3471804    500.71227  0.022542422  0.022517572            3 
 1852000   0.94624695    -7.374511    500.96935  0.022541817  0.022510096            7 
 1853000    0.9651685    -7.373587    501.51098  0.022554011  0.022502675            6 
 1854000   0.94531965   -7.3346239    501.06028  0.022521588  0.022495193           12 
 1855000   0.93920256   -7.3950625    499.59901  0.022443801  0.022487803            4 
 1856000   0.96761103   -7.3631168    501.15977  0.022501786  0.022480386            6 
 1857000   0.94668201   -7.3456829    500.64077  0.022466378  0.022472961            5 
 1858000   0.95926086   -7.3652058    500.53818  0.022449685   0.02246558            3 
 1859000   0.95236213   -7.3436659    501.82937  0.022495489  0.022458208            8 
 1860000   0.93624592   -7.3314253    504.18624  0.022588989  0.022450857           14 
 1861000   0.96131483   -7.3513767    502.44332  0.022498805  0.022443463            4 
 1862000   0.94151996   -7.3366596    501.24876   0.02243326  0.022436068            4 
 1863000   0.95423202   -7.3226787    501.63704  0.022438586  0.022428658            4 
 1864000   0.95454963   -7.4016171     501.5512  0.022422711  0.022421227            5 
 1865000   0.93065684   -7.3729552    500.36953  0.022357888  0.022413755            7 
 1866000    0.9500056   -7.4267215    501.13853  0.022380249  0.022406307           13 
 1867000   0.94914353   -7.3498354    502.20129  0.022415698  0.022398911            3 
 1868000   0.94189652   -7.3367361    502.29697  0.022407966  0.022391559           13 
 1869000   0.94488605    -7.318388    503.57758  0.022453076  0.022384285            5 
 1870000   0.94199435   -7.3676088    502.57671  0.022396467  0.022377028            4 
 1871000   0.95801527   -7.3546531    501.74118  0.022347282  0.022369622            8 
 1872000   0.95581763   -7.3763635    502.44522  0.022366685  0.022362224            4 
 1873000   0.95929474   -7.3472336    503.29154  0.022392398  0.022354863            5 
 1874000   0.94191032     -7.31419    503.75455  0.022401038  0.022347548           12 
 1875000    0.9721433   -7.3103496    504.57277  0.022425456  0.022340205            7 
 1876000   0.93372016   -7.3222547    504.54146  0.022412112  0.022332949            7 
 1877000   0.94900724   -7.3540016    503.07956  0.022335267   0.02232566            4 
 1878000   0.96305973   -7.3689225    502.76134  0.022309254  0.022318311            5 
 1879000   0.94266835   -7.3462824    504.34825   0.02236776  0.022310959            7 
 1880000     0.974071   -7.3752067    504.15501  0.022347297  0.022303686            7 
 1881000   0.94988479   -7.3853767    504.69822  0.022359482  0.022296348            5 
 1882000   0.95885764   -7.3895157    504.09305  0.022320805  0.022288934           19 
 1883000    0.9458824   -7.3862141    503.37211  0.022277045  0.022281604            8 
 1884000   0.93676454   -7.3279005    506.29948  0.022394704  0.022274361           13 
 1885000   0.93117557   -7.3644701    503.69539  0.022267701  0.022267105            4 
 1886000   0.95821285   -7.3424827    505.65325  0.022342402  0.022259865            4 
 1887000   0.96067662   -7.3350373    506.74335  0.022378703  0.022252606           11 
 1888000   0.95197253   -7.3404258    504.68831  0.022276144  0.022245275            7 
 1889000   0.95524527   -7.3629047    505.33791  0.022293008  0.022237996            9 
 1890000   0.95462293   -7.3644817    505.07786  0.022269747  0.022230614            5 
 1891000   0.97287899   -7.3671763    506.12117  0.022303947   0.02222337            5 
 1892000   0.95999815   -7.3051028    508.86353  0.022412946  0.022216183           14 
 1893000   0.96250835   -7.3614739    506.35355  0.022290612     0.022209            6 
 1894000   0.94466386   -7.3440395    506.58426  0.022288994  0.022201727            4 
 1895000   0.94785024   -7.3523788    506.32046  0.022265632  0.022194481            3 
 1896000   0.94793908    -7.370561    505.86744  0.022233977  0.022187254            8 
 1897000   0.95626248   -7.3674777     506.9017   0.02226769  0.022179978            3 
 1898000   0.94963541   -7.3445488    507.66116  0.022289303  0.022172767            5 
 1899000   0.94025715   -7.3501828    506.80126  0.022239831  0.022165516            7 
 1900000   0.92555774   -7.3895361    506.91877   0.02223328  0.022158286            4 
 1901000   0.96911971   -7.4011188    505.84206  0.022174385  0.022151028            4 
 1902000   0.95419944   -7.3643057    507.31284  0.022227166  0.022143706            4 
 1903000   0.91901081   -7.3941859    506.38928  0.022175043  0.022136405            5 
 1904000   0.94677936   -7.3876177    505.67293  0.022132044  0.022129169            7 
 1905000   0.95825425   -7.3715778    507.34118  0.022193402  0.022121961            5 
 1906000   0.93079423   -7.3533394    507.73122  0.022198812  0.022114791            8 
 1907000   0.92944981   -7.3919745    506.92626  0.022151995  0.022107493            5 
 1908000   0.94254031   -7.3723771    507.25878  0.022154908  0.022100138            4 
 1909000   0.96806221   -7.3817224    508.08862  0.022179528  0.022092834           18 
 1910000    0.9481311   -7.4128035    507.08379  0.022124075  0.022085587            6 
 1911000   0.94853216    -7.387701    507.81196  0.022144251  0.022078401            7 
 1912000   0.92879171   -7.4385461     505.9271  0.022050518  0.022071147            8 
 1913000    0.9482017   -7.3794056    507.42611  0.022104291  0.022063864           10 
 1914000   0.93648375   -7.3648616     510.0318  0.022206191  0.022056626            5 
 1915000   0.94989496    -7.405789    507.19104  0.022070977   0.02204935            4 
 1916000    0.9405119   -7.3594323    509.87706  0.022176281  0.022042096            7 
 1917000   0.94768842   -7.3950637    508.11109  0.022087945  0.022035016            4 
 1918000   0.94846363   -7.3813534    511.01414  0.022202561  0.022027899            2 
 1919000   0.93260891   -7.3511413    510.85879  0.022184245  0.022020845            6 
 1920000   0.93710459   -7.3417698    509.88138  0.022130268   0.02201376            7 
 1921000   0.93267034   -7.3986404    509.56626  0.022105078  0.022006657           11 
 1922000   0.94598013     -7.35642    509.06322  0.022071767  0.021999557            6 
 1923000    0.9704355   -7.3908118    509.91209  0.022097074  0.021992428            3 
 1924000   0.93450515   -7.3988346    510.41248  0.022107263  0.021985308            6 
 1925000   0.95936313   -7.3968133    509.74288  0.022066792  0.021978125            2 
 1926000   0.93518044   -7.3827725    508.80102  0.022014582  0.021970869            5 
 1927000   0.93162826   -7.3917799    509.11922  0.022016918  0.021963673           12 
 1928000   0.95178801   -7.4080466    509.61953  0.022027123  0.021956483            8 
 1929000   0.95947468   -7.4313259    508.62048  0.021972545  0.021949302            7 
 1930000   0.93267864   -7.4102799    510.58595  0.022046026  0.021942085            6 
 1931000    0.9333409   -7.4201942    509.04425  0.021968076  0.021934885            8 
 1932000    0.9427152   -7.4209615    509.47829  0.021975427   0.02192766            5 
 1933000   0.95949064   -7.4415011    509.05525  0.021945821  0.021920467            5 
 1934000   0.93487881    -7.397934     510.6054  0.022001267  0.021913184            9 
 1935000   0.93008269    -7.394737    510.68039  0.021993126  0.021905967           10 
 1936000   0.93088385   -7.4136616      509.931  0.021949509  0.021898696            4 
 1937000   0.94460001   -7.3844958     510.2643  0.021952517  0.021891522            4 
 1938000   0.94874957   -7.4311212    510.20638  0.021938699  0.021884276            7 
 1939000   0.96132785   -7.4177824     511.1208  0.021966684  0.021876999            6 
 1940000   0.94456791   -7.4042153      511.265  0.021961555  0.021869732            8 
 1941000   0.94964326   -7.3596086    512.34129  0.021996449  0.021862419            4 
 1942000   0.92656563   -7.4032652    510.98713  0.021927014  0.021855207            7 
 1943000     0.940454   -7.3678451    511.03034  0.021917582  0.021848033            5 
 1944000   0.93638012   -7.3895081    512.05448  0.021950209  0.021840908           11 
 1945000   0.92988686   -7.4085042    511.12116  0.021898936  0.021833709            4 
 1946000   0.93373585   -7.3635834    512.76357  0.021958015  0.021826522            5 
 1947000   0.94178564   -7.3910975    511.50821  0.021893007   0.02181943            7 
 1948000   0.94542278   -7.3933206    511.70924  0.021890368  0.021812338            8 
 1949000   0.93997598    -7.444615    511.11449  0.021853706  0.021805208            6 
 1950000   0.93732632   -7.3946997    512.49511    0.0219015   0.02179805            6 
 1951000   0.93298568   -7.3753978    511.55217  0.021849999   0.02179085            6 
 1952000   0.94927917   -7.4197672    511.70645  0.021845391  0.021783681            8 
 1953000   0.96928524    -7.359426    512.61505  0.021872975  0.021776513            3 
 1954000   0.94697987   -7.3783041    512.59334  0.021860856  0.021769436            2 
 1955000   0.93104352   -7.4083139    511.74346  0.021813447  0.021762315            4 
 1956000   0.94426075   -7.4072334    512.69413  0.021842797  0.021755189            5 
 1957000   0.94677657   -7.4219262    512.37194  0.021817916  0.021747947            4 
 1958000   0.94381282   -7.4260517    512.83703  0.021826567  0.021740725            6 
 1959000   0.93725726   -7.4478559    512.78684  0.021813291  0.021733436            6 
 1960000   0.93221643   -7.4004513    513.04716   0.02181323  0.021726124           10 
 1961000   0.91581455   -7.4114729      512.059  0.021760114  0.021718891            6 
 1962000   0.93355768   -7.4392074    511.42322  0.021722019  0.021711539            9 
 1963000   0.93679825   -7.4477027    511.04714  0.021694988  0.021704233            4 
 1964000   0.93349716   -7.4226137    513.31779  0.021780286  0.021696849            7 
 1965000   0.93879641   -7.4305209     513.5201  0.021777782  0.021689541            9 
 1966000   0.93017634   -7.4009882    513.35876  0.021759866  0.021682256            7 
 1967000   0.94788461   -7.4110292    511.61257  0.021674825   0.02167498            2 
 1968000   0.93839553   -7.4069114     513.7039  0.021752367  0.021667775           11 
 1969000   0.95117605   -7.4411612    513.66059  0.021739487  0.021660589            5 
 1970000   0.92262856   -7.4082827    513.95742  0.021741008   0.02165337            9 
 1971000   0.91561065    -7.411529    513.17361  0.021696838  0.021646159            3 
 1972000   0.92258426   -7.4506543    512.43888  0.021654787   0.02163885            5 
 1973000     0.920381   -7.4475141    512.05177  0.021627461  0.021631443            6 
 1974000    0.9162345   -7.4150443    512.71548  0.021644524  0.021624148            4 
 1975000   0.91705539   -7.4549392    512.95383  0.021643622  0.021616824            3 
 1976000   0.94397162   -7.4105187    513.05365  0.021636878  0.021609558            8 
 1977000   0.95247989   -7.4371558    514.11472  0.021670659  0.021602357            4 
 1978000   0.94102979   -7.4063222    515.15108  0.021703365  0.021595234            9 
 1979000   0.91955755   -7.3677246    517.31406  0.021783479  0.021588165            4 
 1980000   0.95052168   -7.4014061    515.51478   0.02169675  0.021581111            3 
 1981000   0.93694301   -7.3703311    515.18869   0.02167208  0.021574049            4 
 1982000   0.96098975   -7.4084436    515.71316  0.021683197     0.021567            2 
 1983000   0.94596687    -7.439031    515.17629  0.021649701   0.02155992            4 
 1984000   0.94553591   -7.4157931    516.29152  0.021685632  0.021552853            7 
 1985000   0.95267348   -7.4108452    515.84996   0.02165617  0.021545716            5 
 1986000   0.91450012   -7.4133414     516.1869  0.021659403  0.021538605            4 
 1987000   0.93593068   -7.4357254    515.35512  0.021613619  0.021531432            3 
 1988000   0.92535118   -7.4016201    516.63592  0.021656435  0.021524386            8 
 1989000   0.91413127   -7.4073479    517.55184  0.021683922  0.021517331            3 
 1990000   0.92193574   -7.3966916    515.91155  0.021604336  0.021510314            8 
 1991000   0.92814508   -7.4070459    515.72943  0.021585863  0.021503308            6 
 1992000   0.91801535   -7.4310705    516.04387  0.021588181  0.021496193           10 
 1993000   0.92873483   -7.4056016    516.36265  0.021590678  0.021489095            6 
 1994000   0.95110746   -7.4386766    516.60306  0.021589897  0.021482003            6 
 1995000   0.92574775   -7.4398248    515.86333  0.021548176  0.021474885            7 
 1996000   0.92758354   -7.4128609    516.16287  0.021549886  0.021467773            7 
 1997000   0.94301538   -7.4110492    517.82152  0.021608309  0.021460733            6 
 1998000   0.91818243    -7.375464     519.0251  0.021647694  0.021453737            2 
 1999000   0.93592793   -7.4400193    515.88762  0.021506071  0.021446629            5 
 2000000    0.9583886   -7.3889396    517.57043  0.021565435   0.02143955            2 
 2001000   0.92278971   -7.4134831    516.58281  0.021513527  0.021432527           13 
 2002000   0.93018981   -7.4112627    517.69941  0.021549259    0.0214254           10 
 2003000   0.91043843   -7.3974336    518.51127  0.021572278  0.021418285            4 
 2004000   0.93033737   -7.4532418    515.56405  0.021438958  0.021411184            8 
 2005000   0.92791282   -7.4181775    518.74131  0.021560321   0.02140407            5 
 2006000   0.93427287   -7.4293481    517.67487   0.02150527  0.021397038            4 
 2007000   0.96000463   -7.4009413     518.9062  0.021545682  0.021390018            3 
 2008000   0.89584082   -7.4267667    519.37339  0.021554341  0.021382949            6 
 2009000   0.93078484   -7.4047347    520.30135  0.021582103  0.021375889           13 
 2010000   0.92734294   -7.4303683    517.54859  0.021457238  0.021368802            6 
 2011000   0.94901306   -7.4263566    518.42468  0.021482873  0.021361755            5 
 2012000   0.94902486    -7.423134    519.56494  0.021519422  0.021354706            4 
 2013000   0.91740666   -7.4359828    517.42191  0.021420016  0.021347608            6 
 2014000    0.9329851   -7.4389189    519.33736  0.021488636  0.021340465            5 
 2015000   0.92155463    -7.419443    518.34698  0.021437013  0.021333365            3 
 2016000   0.95172751   -7.4408396    517.57636  0.021394525  0.021326264           10 
 2017000   0.93676958   -7.4151152    519.86044  0.021478286  0.021319132            8 
 2018000    0.9184794    -7.449215    519.90159  0.021469342  0.021312025           14 
 2019000   0.91851693   -7.4518717    518.51038  0.021401287  0.021304858            6 
 2020000    0.9424359    -7.469259    517.68213  0.021356524  0.021297687           13 
 2021000   0.95546219   -7.4034101    520.63147  0.021467568  0.021290591            8 
 2022000   0.93378544   -7.4120527    518.13618  0.021354112  0.021283559            4 
 2023000   0.92151436   -7.4172503    519.63282  0.021405208  0.021276506           11 
 2024000   0.93138528   -7.4523445    518.26112  0.021338155  0.021269376            6 
 2025000    0.9382109   -7.4200466    518.70578  0.021345917  0.021262214            4 
 2026000   0.92537967   -7.4490701    518.83126  0.021340542  0.021255015            4 
 2027000   0.92590326   -7.4371045    519.27106  0.021348095    0.0212479            4 
 2028000   0.93005354   -7.4581954    518.83752  0.021319753  0.021240772            8 
 2029000   0.92327051   -7.4684853    519.28635   0.02132768  0.021233663            5 
 2030000   0.92725237   -7.4160509    519.48548  0.021325348  0.021226598            9 
 2031000   0.93124376   -7.4468737    520.12665  0.021341156  0.021219479            6 
 2032000    0.9319668   -7.4076884    520.78936  0.021357832  0.021212373            2 
 2033000   0.90795543   -7.4221061    520.69801  0.021343582  0.021205249            9 
 2034000   0.90984347   -7.4123624    521.93751   0.02138387  0.021198128            6 
 2035000   0.91069511   -7.4774191    517.67227  0.021198701  0.021190966            5 
 2036000   0.93496769   -7.4413726    520.91908   0.02132118  0.021183864            9 
 2037000   0.92111974   -7.4029978    520.91011  0.021310347  0.021176759            9 
 2038000   0.94099746   -7.4319604    520.15709  0.021269099  0.021169634            6 
 2039000   0.91670539   -7.4684599    520.53016  0.021273915  0.021162363            6 
 2040000   0.93581488   -7.4713536    518.77988  0.021191988  0.021155095            5 
 2041000   0.91033475   -7.4600695    520.53861  0.021253414  0.021147797            9 
 2042000   0.91352934   -7.4559012    519.38862  0.021196075  0.021140552            6 
 2043000   0.92834422   -7.4491065    519.00236  0.021169945  0.021133332            8 
 2044000   0.94712296   -7.4450779    520.48978  0.021220229  0.021126094            4 
 2045000   0.90361622   -7.5001718    519.42917  0.021166633  0.021118781            9 
 2046000   0.94124208    -7.436918     520.5146  0.021200497  0.021111542            4 
 2047000   0.91657676   -7.4461504    520.13499  0.021174686  0.021104346            3 
 2048000   0.92453046   -7.4246234    521.15241  0.021205746  0.021097209            5 
 2049000   0.90708183   -7.4193227    521.42908  0.021206649  0.021090051            4 
 2050000   0.93762052   -7.4590969    520.45733  0.021156802  0.021082926            6 
 2051000   0.92651715   -7.4476246    521.33276  0.021182056   0.02107578            4 
 2052000   0.95135963   -7.4749823    520.17045  0.021124531  0.021068607            4 
 2053000   0.91600365   -7.4480501    521.44215  0.021165861  0.021061424           12 
 2054000    0.9274923   -7.4397049    520.02913  0.021098228  0.021054247            8 
 2055000   0.90633542   -7.4315307    522.08023  0.021171137  0.021047231            3 
 2056000   0.92720224    -7.439847    520.75434  0.021107099  0.021040177            5 
 2057000   0.92398511   -7.4159702    523.18551   0.02119533  0.021033137            9 
 2058000   0.90681992   -7.4625722    521.91766  0.021133692  0.021026048            2 
 2059000   0.92179992   -7.4393497    522.86936  0.021161946   0.02101897            6 
 2060000   0.91417989   -7.4416162    522.63669  0.021142261  0.021011915            6 
 2061000   0.91815549   -7.4537447    520.58811  0.021049172  0.021004763            3 
 2062000   0.93388309   -7.4460443     521.3819  0.021071044  0.020997683            5 
 2063000   0.94232271   -7.4354762    523.91997  0.021163353  0.020990583            3 
 2064000   0.90929232   -7.4469543    521.51155   0.02105586  0.020983493            7 
 2065000   0.91577564   -7.4353368    522.90457  0.021101879  0.020976414           10 
 2066000   0.93224536   -7.4304651    524.58469  0.021159434  0.020969339            5 
 2067000   0.92176746    -7.427184    523.80444  0.021117741  0.020962288            5 
 2068000   0.91020352   -7.4542958    523.80957  0.021107736  0.020955263            5 
 2069000   0.90744869   -7.4457958    522.34743  0.021038643  0.020948187            7 
 2070000   0.89063182   -7.4910109    522.44166  0.021032273  0.020941146            8 
 2071000    0.9271311   -7.4240908    523.42009  0.021061488  0.020934075            5 
 2072000   0.91680664   -7.4481595     523.4049  0.021050712   0.02092702            5 
 2073000   0.91693354   -7.4382661    523.07935   0.02102747  0.020919941            8 
 2074000   0.91753458   -7.4726025    523.35792  0.021028525  0.020912856            9 
 2075000   0.93149594   -7.4423145    523.88258  0.021039461  0.020905814            4 
 2076000   0.92640982   -7.4668312    523.57927  0.021017151   0.02089872            5 
 2077000   0.90937278   -7.4562356    523.87892  0.021019055  0.020891583            8 
 2078000   0.91675699   -7.4331399    523.51972  0.020994535   0.02088444           11 
 2079000   0.91421686   -7.4750483    523.78625   0.02099512   0.02087733            6 
 2080000   0.92111934   -7.4900094    524.10039  0.020997612   0.02087023            8 
 2081000   0.91990169   -7.4675742    522.87552  0.020938472  0.020863094            4 
 2082000   0.90698419   -7.4452434    523.75138  0.020963472  0.020855908            9 
 2083000   0.93436704   -7.4968422    521.91995  0.020880139  0.020848749            8 
 2084000    0.9108847   -7.4726289    523.59838  0.020937235  0.020841603           11 
 2085000   0.91786813   -7.4831784    522.90816  0.020899607  0.020834431           24 
 2086000   0.90917239   -7.4801087    522.55322  0.020875408  0.020827307           14 
 2087000   0.91493746   -7.4383224    525.16677  0.020969764   0.02082016            3 
 2088000   0.92123796    -7.482319     524.6554  0.020939312  0.020813008            4 
 2089000   0.93650395   -7.4662299    523.80907  0.020895527  0.020805908           18 
 2090000   0.94228297   -7.4350284    524.73329   0.02092238  0.020798759            9 
 2091000   0.92110726   -7.5009144    523.56609  0.020865857  0.020791586            6 
 2092000   0.89847457   -7.4562925    525.19469  0.020920757  0.020784437            8 
 2093000   0.92996365   -7.4587241    524.39135  0.020878777  0.020777257            5 
 2094000   0.91610865   -7.4508611     524.5787  0.020876262  0.020770083           16 
 2095000   0.94549402   -7.4607922    524.20201  0.020851313  0.020762925            4 
 2096000   0.93456446   -7.4927406    523.57415  0.020816402  0.020755767            6 
 2097000   0.91534603   -7.5093684    523.00725  0.020783947   0.02074854            3 
 2098000   0.93363862   -7.4648266    525.43117   0.02087032  0.020741424            5 
 2099000   0.91902491   -7.4285901    525.78024  0.020874235  0.020734284            6 
 2100000    0.9146017   -7.4735215    524.52134  0.020814339  0.020727144            8 
 2101000   0.88912196   -7.4683712    523.58873  0.020767441  0.020719971            2 
 2102000   0.91964758   -7.4754096    523.31936  0.020746882  0.020712817            4 
 2103000   0.90870978   -7.4852997    523.61763  0.020748836  0.020705633            6 
 2104000    0.9376465   -7.4725391    525.05514   0.02079591  0.020698444           12 
 2105000   0.90674826   -7.4713869    523.53736  0.020725944  0.020691283           11 
 2106000   0.91046739   -7.4766105    524.29356  0.020746026   0.02068411            8 
 2107000   0.90991676    -7.501682    524.32531  0.020737435  0.020676931           22 
 2108000   0.92243259   -7.5130645    524.10087  0.020718725  0.020669714            5 
 2109000   0.91000274   -7.4750041    524.28704  0.020716257  0.020662487            8 
 2110000   0.90363161   -7.4555901     524.1803  0.020702223  0.020655394            4 
 2111000   0.90318069   -7.4806251    525.30067  0.020736644  0.020648293            7 
 2112000   0.91329189   -7.4821825    525.10439  0.020719081  0.020641102            8 
 2113000   0.91479145   -7.5013082    526.50068  0.020764343   0.02063401            7 
 2114000   0.90450509   -7.5086025    524.48229  0.020674956  0.020626804            9 
 2115000   0.89176698    -7.497068    526.35895  0.020739123  0.020619655            6 
 2116000    0.9075263   -7.4882439    525.73494  0.020704747  0.020612462           11 
 2117000     0.909553   -7.4568607    526.35795  0.020719491  0.020605304            5 
 2118000   0.88267936   -7.5367138    524.09094  0.020620512  0.020598099            5 
 2119000   0.92334395   -7.4827782    525.12541  0.020651463  0.020590854           12 
 2120000   0.90199059   -7.4854586    525.37761  0.020651636  0.020583677            8 
 2121000   0.90446452   -7.4955096    524.97123  0.020625932  0.020576473           27 
 2122000   0.92609403   -7.4842795     524.7967  0.020609358  0.020569264            9 
 2123000   0.92576261   -7.4473977    526.84186  0.020679929  0.020562167            5 
 2124000    0.9024815   -7.4856521    526.22414  0.020645957  0.020555066           10 
 2125000   0.91035723   -7.4909543    526.40396  0.020643293  0.020547904            5 
 2126000    0.8883286   -7.4647425    528.05633  0.020698351  0.020540783            4 
 2127000   0.91430429   -7.4047029    528.78794  0.020717283  0.020533713            4 
 2128000   0.92143151   -7.4733961    525.84638  0.020592355  0.020526692           14 
 2129000   0.90250136   -7.5268157    525.41292  0.020565716  0.020519528            5 
 2130000   0.92197316   -7.5059404    525.76379  0.020569788  0.020512305            7 
 2131000   0.91720077     -7.51958    525.08851  0.020533729   0.02050512            3 
 2132000   0.91078279   -7.4650565    528.16849  0.020644485  0.020497928            6 
 2133000   0.91741032   -7.4831838    526.96461  0.020587772   0.02049084           15 
 2134000   0.90767542   -7.4907907    527.90873  0.020614993    0.0204837            4 
 2135000   0.89979895   -7.5060655    525.75009  0.020521081  0.020476552            7 
 2136000   0.92662561   -7.5165485    527.06484  0.020562767  0.020469448           10 
 2137000   0.93358734   -7.4784834    527.28059  0.020561558  0.020462323           20 
 2138000   0.90767238   -7.4510183    528.79327  0.020610901  0.020455243           13 
 2139000    0.8974952   -7.5028127    527.48066  0.020550127  0.020448103           14 
 2140000   0.91414296   -7.4889694    526.59969  0.020506219  0.020440997           15 
 2141000   0.90058542   -7.5067297    527.62226  0.020536442  0.020433817            7 
 2142000    0.9003517   -7.4941001    528.21065  0.020549745  0.020426642           25 
 2143000   0.90061307   -7.4965621    527.50416  0.020512683  0.020419513           18 
 2144000   0.91234635   -7.5118898    526.53793   0.02046556  0.020412304           10 
 2145000    0.9308381   -7.4881103    528.08796  0.020516238  0.020405161           15 
 2146000   0.90688109   -7.4782835    528.11796  0.020507843  0.020397997            4 
 2147000   0.89953183   -7.4941043    527.84958  0.020487874  0.020390864            3 
 2148000   0.90542093   -7.4886627    528.06473  0.020486683  0.020383735           15 
 2149000   0.90199434   -7.5040646    526.59062  0.020419987  0.020376577            5 
 2150000     0.923417   -7.5063626    528.11051    0.0204694  0.020369455            7 
 2151000   0.90676657   -7.5256587     528.0657  0.020458147  0.020362255            6 
 2152000   0.93183443   -7.5071211    528.33014  0.020458881  0.020355111            6 
 2153000   0.89953249     -7.51037    528.29819  0.020448142  0.020347971            5 
 2154000    0.9101496   -7.5207687    528.28147  0.020438002  0.020340811            7 
 2155000   0.86917614   -7.4729697     530.0043  0.020495139  0.020333668            9 
 2156000   0.92626603    -7.495626    528.74057  0.020436788  0.020326544            9 
 2157000   0.91492827   -7.4795518    531.02382  0.020515524   0.02031943            8 
 2158000   0.90645356   -7.4851521    529.60999  0.020451421  0.020312395           17 
 2159000   0.90899362   -7.4554413    529.95669   0.02045533  0.020305392            4 
 2160000   0.90462604   -7.4690412    529.44079  0.020425956  0.020298318            4 
 2161000   0.90013822   -7.4954008    529.90843  0.020434537  0.020291233            8 
 2162000   0.91491636   -7.4979693    529.96517  0.020427273  0.020284158            7 
 2163000   0.89319769   -7.5521451    528.27287   0.02035263  0.020277036            5 
 2164000   0.91669744   -7.5236257    527.99338  0.020332462  0.020269914            7 
 2165000   0.91984574   -7.5349274    529.08672  0.020365155  0.020262793            5 
 2166000   0.90625289   -7.5244817    529.02558    0.0203534  0.020255683            5 
 2167000   0.89243167   -7.5261073     529.9791  0.020380676  0.020248581            6 
 2168000   0.90595119   -7.5017486       531.71  0.020437808  0.020241484            4 
 2169000   0.94389667   -7.4995273    531.65168  0.020426144   0.02023449            6 
 2170000   0.89237152   -7.5518304      529.686  0.020341244  0.020227454            6 
 2171000    0.9077954   -7.5162887    531.29232  0.020393533  0.020220343            5 
 2172000   0.91913565   -7.5104329    529.66047  0.020321534  0.020213267            9 
 2173000   0.89391566   -7.4893397    530.94189  0.020361324  0.020206221            6 
 2174000   0.91299094   -7.4681893    530.12848  0.020320779  0.020199233            5 
 2175000   0.90933767    -7.485453    530.79972  0.020337154  0.020192306            5 
 2176000   0.91046669    -7.479693    530.64171  0.020321757  0.020185328            3 
 2177000   0.87655191   -7.4575091    531.73693  0.020354346  0.020178361            5 
 2178000   0.91663079   -7.4851455    531.73143   0.02034479  0.020171446            4 
 2179000   0.90510129   -7.5053884    532.26546  0.020355877  0.020164434            9 
 2180000   0.89195134   -7.5464756    529.82908  0.020253405  0.020157383            5 
 2181000   0.88783346   -7.4739634    532.61574  0.020350594  0.020150379           10 
 2182000   0.91537951   -7.4991205    532.90205  0.020352202  0.020143454            6 
 2183000   0.88668741   -7.5058975    531.96973  0.020307289  0.020136499           12 
 2184000   0.90443728   -7.5209976    530.65046  0.020247652  0.020129486            3 
 2185000   0.90276573   -7.5269433    531.90678    0.0202863   0.02012245            6 
 2186000   0.86482247   -7.5276881    531.59981  0.020265317  0.020115448            4 
 2187000    0.8934908   -7.6022655    530.73961  0.020223274  0.020108479           11 
 2188000   0.88538211   -7.5301071     530.3899  0.020200712   0.02010144            5 
 2189000   0.89878816   -7.5252506    532.58626  0.020275097  0.020094448            6 
 2190000   0.89073024   -7.5224004    532.43829  0.020260209  0.020087517            8 
 2191000   0.89803174   -7.5403456    533.22747  0.020280978  0.020080594            6 
 2192000    0.8979612   -7.5355141    532.75459  0.020253748    0.0200737            7 
 2193000   0.88615932   -7.5139169    533.55924  0.020275089  0.020066755            4 
 2194000   0.88861228   -7.5235882    531.37364  0.020182833  0.020059874            7 
 2195000   0.91250562    -7.543317    532.01393  0.020197947  0.020052922            5 
 2196000   0.91211726    -7.538029    532.35844  0.020201823  0.020045949            8 
 2197000   0.85778974   -7.5274886     533.8575  0.020249488  0.020039066            6 
 2198000   0.90850661    -7.533694    532.55152  0.020190761  0.020032155            8 
 2199000   0.88693677   -7.5546063    533.48028  0.020216776  0.020025184           13 
 2200000   0.91377991   -7.5426775    532.43751  0.020168088  0.020018213           11 
 2201000   0.90366444    -7.543983    532.30996  0.020154095  0.020011294            5 
 2202000   0.88767536   -7.5205359     532.8361  0.020164854  0.020004335           10 
 2203000   0.90856992   -7.4954774    534.18149  0.020206593  0.019997408            5 
 2204000   0.87737741   -7.5201381    533.83334  0.020184261  0.019990549            3 
 2205000   0.91341499   -7.5154877    534.50484  0.020200485   0.01998369            4 
 2206000   0.88698958   -7.5164761    533.58808  0.020156697  0.019976825            8 
 2207000   0.88443434   -7.5013182    533.68719  0.020151306   0.01996991           19 
 2208000   0.87401202   -7.4812548     533.9586  0.020152423  0.019963041            7 
 2209000   0.92819631   -7.4897704    534.62995  0.020168627  0.019956136           13 
 2210000   0.89930186   -7.5176368     534.2341  0.020144574  0.019949238           13 
 2211000   0.89705513   -7.5191703    534.67881  0.020152224  0.019942359            7 
 2212000   0.90261792   -7.5306018    533.18993  0.020087023  0.019935445            5 
 2213000   0.92044629   -7.5098006    534.85383  0.020140602  0.019928555            7 
 2214000   0.90151239   -7.5549661    532.21789   0.02003229   0.01992158            7 
 2215000   0.87167351   -7.5553858    533.49703   0.02007137  0.019914616            6 
 2216000   0.89119502   -7.5300429    535.02727  0.020119858  0.019907664            6 
 2217000   0.90124702   -7.5442664    533.92188  0.020069233  0.019900734            7 
 2218000   0.89270167   -7.5182562    532.44295  0.020004619  0.019893769            8 
 2219000   0.89889694    -7.543756    534.68152  0.020079673  0.019886702            8 
 2220000   0.89382316   -7.5477196    533.21466  0.020015565  0.019879665            5 
 2221000   0.90496593   -7.5042231    534.91631    0.0200704  0.019872671            6 
 2222000   0.89490215   -7.5301562    534.88574  0.020060221  0.019865723            7 
 2223000   0.89756912    -7.568372    533.79314  0.020010239  0.019858752           12 
 2224000   0.90906092   -7.5360762    533.43378  0.019987776  0.019851695           10 
 2225000   0.90167606   -7.5364063    535.42567  0.020053396   0.01984465            8 
 2226000   0.89121075   -7.5314613    534.49021  0.020009367  0.019837622           21 
 2227000   0.88555006   -7.5120672    535.49356  0.020037927  0.019830663            9 
 2228000    0.8871355   -7.5767337    532.27648  0.019908606  0.019823681           12 
 2229000   0.89869237   -7.5596576    534.15899  0.019970053  0.019816714           10 
 2230000   0.87338675   -7.5745704    532.82025  0.019911071  0.019809708           14 
 2231000   0.88071944   -7.5634771    534.11254  0.019950416  0.019802674            8 
 2232000   0.90248063   -7.5340429    535.11444  0.019978885  0.019795719           14 
 2233000   0.88663776    -7.542842    534.03989  0.019929836  0.019788749            8 
 2234000   0.88795648   -7.5900941    534.75566  0.019947615  0.019781832           11 
 2235000   0.87785462   -7.5529591    535.01594  0.019948394  0.019774842            6 
 2236000    0.8747476   -7.5519847     534.3409  0.019914315  0.019767827            3 
 2237000    0.9121054   -7.5252635    535.68354  0.019955429  0.019760875           11 
 2238000   0.88796414   -7.5132686    536.03742  0.019959689  0.019753967            8 
 2239000   0.88633328   -7.5317112    536.09223  0.019952815  0.019747082            4 
 2240000   0.88779347   -7.5573961    534.72141   0.01989291  0.019740205            7 
 2241000   0.89671783   -7.5512478    535.59371   0.01991647  0.019733265            9 
 2242000   0.87757319   -7.5446858    535.13526  0.019890546   0.01972633            8 
 2243000   0.89249538   -7.5595797    535.41825  0.019892192  0.019719358           16 
 2244000   0.89020674    -7.539907    537.24084  0.019951012  0.019712437            7 
 2245000   0.90513103   -7.5316818    536.00385  0.019896208  0.019705541            5 
 2246000   0.88685203   -7.5308487    536.29634  0.019898202  0.019698602            3 
 2247000   0.89755098   -7.5491388    535.20401  0.019848836  0.019691714            6 
 2248000   0.90044311   -7.5817653    536.97853  0.019905788  0.019684807            8 
 2249000   0.88437687   -7.5358329    536.18378  0.019867489  0.019677914            3 
 2250000   0.90959163   -7.5277324    537.33227  0.019901195  0.019671061            4 
 2251000    0.8895372   -7.5392174    536.11169  0.019847168  0.019664173            5 
 2252000   0.89056253   -7.5396355     534.8978  0.019793436  0.019657278            3 
 2253000   0.90963309   -7.5630735    536.46089  0.019842465  0.019650341            5 
 2254000   0.89018381   -7.5774833    534.48718  0.019760691  0.019643388           17 
 2255000   0.90600968   -7.5214035    536.59557  0.019829844  0.019636429            5 
 2256000   0.89759819   -7.5353793    536.09561  0.019802586  0.019629509            6 
 2257000   0.89193681    -7.537487    536.42688  0.019806043  0.019622575            8 
 2258000   0.89643489   -7.5516442    535.64648   0.01976847  0.019615575           10 
 2259000   0.89274757   -7.5544787    536.49615  0.019791063  0.019608591            6 
 2260000   0.89007443   -7.5699681    535.13076   0.01973196  0.019601666            6 
 2261000   0.90219253   -7.5503113     535.9621  0.019753874  0.019594749           13 
 2262000   0.87712359   -7.5271131    537.36253  0.019796733  0.019587858           10 
 2263000   0.90303333   -7.5510981    535.37761  0.019714892  0.019580957            8 
 2264000   0.85894532   -7.5750116    535.38573  0.019706483  0.019573997            7 
 2265000    0.8770747   -7.5670744    536.04449  0.019722019  0.019567014            8 
 2266000    0.8825056   -7.5885868    534.87924  0.019670463  0.019559997            6 
 2267000   0.89550781   -7.5852045    535.16818  0.019672408  0.019552981            8 
 2268000   0.88893437   -7.5564756    536.79329  0.019723445  0.019546044            6 
 2269000   0.87926086   -7.5323424    537.34233  0.019734917  0.019539194            5 
 2270000   0.89539579   -7.5727614     537.6324  0.019736872  0.019532339            3 
 2271000   0.87784179   -7.5541423    536.63078  0.019691427   0.01952546            5 
 2272000   0.89702571   -7.5294155    537.42163  0.019711768  0.019518595            6 
 2273000   0.89198774   -7.5395825    537.31501  0.019699186  0.019511743            3 
 2274000   0.89813966   -7.5453802    537.62105  0.019701739  0.019504889            4 
 2275000   0.90150096   -7.5434533    536.84718  0.019664732  0.019498028            7 
 2276000   0.88086184   -7.5259998    538.38307  0.019712327  0.019491158            5 
 2277000    0.8855971   -7.5592442    536.93158  0.019650548  0.019484283           10 
 2278000   0.89913802   -7.5620204    536.66642  0.019632222   0.01947736            9 
 2279000   0.89066619   -7.5786564    536.87487   0.01963123  0.019470377           10 
 2280000   0.89561418   -7.5852621    535.18033  0.019560684  0.019463339           11 
 2281000   0.89053575   -7.5861645    536.28252  0.019592376  0.019456322           22 
 2282000   0.87913065   -7.5715119    537.72594  0.019636501  0.019449356           12 
 2283000   0.88714348   -7.5591752     536.7718  0.019593072  0.019442434            3 
 2284000   0.87001156   -7.5518131    537.74862  0.019620134    0.0194355            5 
 2285000   0.89962202   -7.5715462    535.89243  0.019543852  0.019428555            4 
 2286000   0.89385471   -7.5568985    537.85353  0.019606792  0.019421636            4 
 2287000   0.89631117   -7.5454871    538.57714  0.019624586  0.019414752            5 
 2288000   0.88279669   -7.5675975    537.03832  0.019559962  0.019407837            9 
 2289000   0.89173765   -7.5723864    537.27498  0.019560033  0.019400859            9 
 2290000   0.87571907   -7.5865823    537.02963  0.019542563  0.019393915            8 
 2291000   0.88868849   -7.5912794    537.03734  0.019534313  0.019386954            6 
 2292000   0.87654175   -7.5790073     537.5433  0.019544186  0.019379972           11 
 2293000   0.86283962   -7.5527614    538.96197  0.019587221  0.019373068            7 
 2294000   0.88228263   -7.5952989    538.00958  0.019544085  0.019366144            4 
 2295000   0.89635286   -7.5728315    537.94599   0.01953326  0.019359239            9 
 2296000   0.89372048   -7.5312895    538.05776  0.019528809   0.01935229            5 
 2297000   0.87485457   -7.5622744    538.54914  0.019538134  0.019345389           12 
 2298000    0.8885961   -7.5486329    539.00514  0.019546169  0.019338543            5 
 2299000   0.89265426   -7.5374304    537.83376  0.019495206  0.019331635            6 
 2300000   0.88958474   -7.5458906     539.5513   0.01954896  0.019324772            9 
 2301000   0.87311393   -7.5464697    538.48729   0.01950193  0.019317973           11 
 2302000   0.88416146   -7.5614043    539.10149  0.019515692  0.019311095            3 
 2303000   0.87845138   -7.6063046    537.88239  0.019463106  0.019304191           14 
 2304000    0.8833652   -7.5767303    540.54359  0.019550911  0.019297301            4 
 2305000   0.89549326   -7.5910227    538.78535  0.019478863  0.019290485            5 
 2306000   0.88977574   -7.5626865    539.48078  0.019495547  0.019283687            5 
 2307000   0.89769425   -7.5630132    540.13145    0.0195106  0.019276866            9 
 2308000   0.87731875   -7.5386786    539.36258  0.019474385  0.019270091           10 
 2309000   0.87490908   -7.5525247    540.49295  0.019506747  0.019263285           19 
 2310000   0.87947721   -7.5754419    539.16335  0.019450337  0.019256477            4 
 2311000   0.90378099   -7.5525838    539.69503  0.019461093  0.019249655           12 
 2312000   0.87446679   -7.5767913    540.56202  0.019483925  0.019242874            8 
 2313000   0.88836725   -7.5865845    540.33037  0.019467156  0.019236084           10 
 2314000   0.86435756   -7.5545228    538.68061  0.019399331  0.019229298            7 
 2315000   0.87826628   -7.5625348    539.66391  0.019426347  0.019222463            9 
 2316000    0.8993435   -7.5847786    539.78504  0.019422317  0.019215639            9 
 2317000   0.86195322    -7.580493    539.78087  0.019413785  0.019208786            3 
 2318000    0.8762502   -7.5786714    539.35835   0.01939022  0.019201957           12 
 2319000   0.87845897   -7.5998266    539.53976  0.019388377  0.019195107           18 
 2320000   0.89242049   -7.5406438    541.38005  0.019446123  0.019188242            4 
 2321000   0.88121735   -7.5638539    539.94336  0.019386161  0.019181451            7 
 2322000   0.88992301   -7.5883473    541.04403  0.019417314  0.019174644            5 
 2323000   0.88578928   -7.5602087    542.00613  0.019443468  0.019167885           18 
 2324000   0.87762133   -7.5677615    541.26018  0.019408354  0.019161092           23 
 2325000    0.8744882   -7.5816229    541.11794  0.019394908   0.01915428            6 
 2326000   0.88274196   -7.5587274    540.72613  0.019372533  0.019147554           17 
 2327000   0.88613793   -7.5897752    541.35469  0.019386717  0.019140727            9 
 2328000   0.87819468   -7.5696746    541.05261  0.019367576  0.019133951           19 
 2329000   0.88595591   -7.5949752    541.17135  0.019363509  0.019127146           12 
 2330000   0.86868892   -7.5766929    540.79153  0.019341614  0.019120363           14 
 2331000   0.88683347   -7.6002818    540.46304  0.019321573  0.019113566            9 
 2332000   0.86712334   -7.5899081    540.75036  0.019323555  0.019106826           36 
 2333000   0.87340025   -7.5711077    542.77796  0.019387697  0.019100059           11 
 2334000   0.87849487   -7.5852385    542.30289  0.019362428  0.019093318            4 
 2335000    0.8747224   -7.6039861    541.98425  0.019342764  0.019086541           13 
 2336000   0.89048591   -7.6150202    540.86854  0.019294683  0.019079725            7 
 2337000   0.87262389   -7.5983676    540.13602  0.019260306  0.019072952            6 
 2338000   0.87362239    -7.609991    541.38004  0.019296409  0.019066184            8 
 2339000   0.87843634   -7.6065565    540.11301  0.019243017  0.019059427            6 
 2340000   0.86594532   -7.6109596    542.31532  0.019313224  0.019052662            5 
 2341000   0.88048152   -7.6181454    541.69824  0.019283007   0.01904591            5 
 2342000   0.86598914   -7.6258584    542.38426  0.019299184  0.019039175           12 
 2343000   0.86358513   -7.6029132    542.32325  0.019288777  0.019032489           12 
 2344000   0.87523556   -7.6124409    540.67208  0.019221846  0.019025747           13 
 2345000   0.88410196   -7.6089118    542.01488  0.019261368  0.019019028           12 
 2346000   0.89405414   -7.6117272    540.93897  0.019214939  0.019012286           11 
 2347000   0.86287759   -7.6029656    542.17997  0.019250815  0.019005547           17 
 2348000   0.87448339   -7.6415197    541.54205  0.019219976  0.018998864            9 
 2349000   0.86245978   -7.6078699    542.84827  0.019258134  0.018992177            6 
 2350000   0.87455828   -7.6561947    542.92719  0.019252737  0.018985469            7 
 2351000   0.87723742   -7.6020475    543.18532  0.019253698  0.018978799           14 
 2352000   0.89061601   -7.6105289    541.68417  0.019192325  0.018972164           10 
 2353000   0.88687689   -7.6172677    543.64466    0.0192536  0.018965469            9 
 2354000   0.88359956   -7.6123439    542.40641  0.019201586  0.018958751            6 
 2355000   0.85882598   -7.6501091    542.25142  0.019187948  0.018952033            9 
 2356000   0.87514015   -7.6111916    543.08569  0.019209313  0.018945402            8 
 2357000   0.87148212   -7.6113961    543.17865   0.01920445   0.01893881            4 
 2358000   0.88695655   -7.6150281    544.05329  0.019227216  0.018932205            5 
 2359000   0.86592844   -7.6206404    542.74318  0.019172784  0.018925547            9 
 2360000   0.86920786   -7.6204346    543.52675  0.019192329  0.018918884            8 
 2361000   0.87633733   -7.6118037    543.04775  0.019167293  0.018912222            9 
 2362000   0.87089612   -7.6186442    543.50534  0.019175322  0.018905619            9 
 2363000   0.87120945    -7.628789     544.0815  0.019187526  0.018898971            8 
 2364000   0.89044346   -7.6197418    544.50079   0.01919419  0.018892362            4 
 2365000   0.89090223   -7.6111156    543.35947  0.019145859   0.01888576            8 
 2366000    0.8951965   -7.6173306    545.25641  0.019204579  0.018879129            6 
 2367000   0.88208491   -7.6535379    542.21876  0.019089521  0.018872455            6 
 2368000   0.87115498    -7.618476    543.38223  0.019122404  0.018865728            4 
 2369000   0.85349787   -7.6245946     544.4579   0.01915217  0.018859046           10 
 2370000   0.86191216   -7.6436292    543.67936  0.019116715  0.018852346            5 
 2371000   0.86059981   -7.6055951    545.18935  0.019161723  0.018845706            7 
 2372000   0.89510723   -7.5827264    545.68013  0.019170887  0.018839107            4 
 2373000   0.85916949   -7.6093497    543.16123  0.019074351  0.018832508            6 
 2374000   0.88040569   -7.6167335    544.75462  0.019122249  0.018825883            5 
 2375000   0.87285885   -7.6528548    544.46709  0.019104108  0.018819234           10 
 2376000    0.8762951   -7.6191736    544.01006  0.019080039  0.018812603            8 
 2377000   0.86500898   -7.6571065    544.94099  0.019104648  0.018805988           10 
 2378000   0.87843794   -7.6342719    543.88483  0.019059603  0.018799336           10 
 2379000   0.86956184   -7.6281026    544.47429   0.01907224  0.018792714           14 
 2380000    0.8677325   -7.6577379    544.88281   0.01907853  0.018786082           12 
 2381000   0.89203635   -7.6392468    544.03873  0.019040975  0.018779418           17 
 2382000   0.87792846   -7.6517425    544.00115  0.019031666  0.018772726           20 
 2383000   0.87413988   -7.6375764    544.99764  0.019058527  0.018766086           11 
 2384000    0.8607667   -7.5944278    544.81963   0.01904431  0.018759472            7 
 2385000   0.87876359   -7.6717159    544.02031  0.019008396  0.018752856            6 
 2386000   0.86303318   -7.6263925     545.5275   0.01905307  0.018746251           16 
 2387000   0.86843413   -7.6239259    544.22622  0.018999658   0.01873961            8 
 2388000   0.86330997   -7.6472239    544.32875   0.01899528  0.018732958           10 
 2389000   0.86809137   -7.6454106    544.53913  0.018994667  0.018726322           10 
 2390000     0.860148   -7.6284879    544.11946  0.018972087  0.018719722           11 
 2391000   0.86145451    -7.645994     544.3564   0.01897241  0.018713091           12 
 2392000   0.87405175   -7.6347645    544.15535  0.018957475  0.018706428           10 
 2393000   0.86703503   -7.6764954      543.988  0.018943725  0.018699748            7 
 2394000   0.86304456   -7.6654715    545.41209  0.018985383  0.018693106            9 
 2395000   0.86961658   -7.6654839    543.51484  0.018911442  0.018686432           11 
 2396000   0.84280161   -7.6847959    544.57022  0.018940255  0.018679817            7 
 2397000    0.8651972   -7.6424829     543.7586  0.018904137  0.018673193           10 
 2398000   0.85788878   -7.6168278    546.13313  0.018978771  0.018666574            8 
 2399000   0.87912518   -7.6568264    544.47888  0.018913397  0.018659991           17 
 2400000   0.86519136   -7.6228059     545.9513  0.018956642  0.018653377            8 
 2401000   0.88466642   -7.6569048    545.35153   0.01892793   0.01864676            9 
 2402000   0.86012573   -7.6206031    546.46944  0.018958834  0.018640162           12 
 2403000   0.86898852   -7.6590462    545.45403  0.018915731  0.018633575            9 
 2404000   0.87207684   -7.6567314    544.12806  0.018861899  0.018626938           15 
 2405000   0.85822037   -7.6544909    543.99631  0.018849491  0.018620303            7 
 2406000    0.8647897   -7.6385879    543.73711  0.018832679  0.018613702            9 
 2407000   0.86636102   -7.6735169    544.90219  0.018865192  0.018607051            8 
 2408000   0.86117725    -7.620942    546.39732  0.018909099  0.018600431           12 
 2409000    0.8628949   -7.6638726    544.98319  0.018852331  0.018593825            9 
 2410000   0.87475213   -7.6310197    544.69632  0.018834589   0.01858717            9 
 2411000   0.86235965   -7.6109429    546.67502  0.018895169  0.018580557           20 
 2412000   0.87029322   -7.6847029    544.97174  0.018828488  0.018573953            6 
 2413000   0.84980659   -7.6596883    546.20912  0.018863418  0.018567302            7 
 2414000   0.85137295   -7.6160785    546.68361  0.018871983  0.018560666            7 
 2415000   0.87986092   -7.6879628    545.21637  0.018813539   0.01855405           24 
 2416000   0.86698223    -7.666423    545.85263  0.018827698  0.018547472           15 
 2417000   0.86252652   -7.6513476    546.68676  0.018848668  0.018540892            9 
 2418000     0.853691   -7.6598818    546.20592  0.018824301  0.018534292           19 
 2419000   0.87212246   -7.6662298    545.07207  0.018777459  0.018527703           18 
 2420000   0.85833158   -7.6402956    546.47636  0.018818057  0.018521103           11 
 2421000    0.8815128   -7.6922177    545.20528  0.018766532   0.01851445            7 
 2422000   0.88720535   -7.6598977    546.04571    0.0187877  0.018507832           11 
 2423000   0.85649632   -7.6859513     544.9737  0.018743077  0.018501217           17 
 2424000   0.85769311   -7.6670214    546.45825  0.018786381  0.018494593           15 
 2425000   0.85030534   -7.6693974    546.61107  0.018783886  0.018487972           31 
 2426000   0.85189015   -7.6869812     546.3304  0.018766502  0.018481299           12 
 2427000   0.86884353   -7.7179831    544.85827  0.018708222  0.018474632            6 
 2428000   0.86683454    -7.681355    546.34524  0.018751553  0.018467981            7 
 2429000   0.85797277   -7.6809222    544.28496  0.018673149  0.018461318           25 
 2430000   0.86615033   -7.6902368    545.97707  0.018723494  0.018454685           33 
 2431000   0.85755499   -7.6695779    547.32198  0.018761894  0.018448049            6 
 2432000   0.87208469   -7.6758525    546.99574  0.018743001  0.018441433           13 
 2433000   0.86123241   -7.6880399    546.20524  0.018708222  0.018434822           16 
 2434000   0.86487944   -7.6680472    545.66244  0.018681951  0.018428159           14 
 2435000   0.87694835    -7.701345    546.18836  0.018692278  0.018421491           24 
 2436000   0.88029234   -7.6663058    546.81128  0.018705914  0.018414843           29 
 2437000   0.86204915   -7.6737407    545.76226  0.018662367  0.018408196            7 
 2438000   0.85903418   -7.6781083    547.35774  0.018709247  0.018401558           13 
 2439000   0.86084114   -7.6789815    547.73293  0.018714395  0.018394961            7 
 2440000   0.86702053   -7.6257563    547.48579  0.018698285  0.018388376           17 
 2441000   0.86069225   -7.6363086    547.32924  0.018685281  0.018381858           17 
 2442000   0.84850589   -7.6466071    547.63655  0.018688116   0.01837538            9 
 2443000   0.85773005   -7.6400505    548.09836  0.018696219    0.0183689           12 
 2444000   0.86395868   -7.6047318    548.76561  0.018711321   0.01836244            5 
 2445000   0.86784614    -7.641722    547.47326   0.01865962  0.018355938           14 
 2446000   0.87709644   -7.6474625    548.79247  0.018696936  0.018349402           15 
 2447000   0.86250262   -7.6574994     546.7958  0.018621298  0.018342856            9 
 2448000   0.86284192   -7.6562542    547.34784  0.018632484  0.018336294            4 
 2449000   0.86036039   -7.6580251    548.08694  0.018650025  0.018329734            6 
 2450000   0.87483068   -7.6537096    547.60831  0.018626133  0.018323175           12 
 2451000   0.85034175   -7.6755789    547.57299  0.018617333  0.018316617            9 
 2452000   0.87937087   -7.6849141    547.26079   0.01859913  0.018310021           13 
 2453000   0.87093288   -7.6681517    547.45148  0.018598026  0.018303416           10 
 2454000   0.86864267   -7.6658114    546.67555  0.018564098  0.018296814            7 
 2455000   0.83997361   -7.6554455    546.92804  0.018565107  0.018290186           11 
 2456000   0.86393883   -7.6810069     547.1096  0.018563708   0.01828354           18 
 2457000   0.84976766   -7.6688609    546.83208   0.01854674  0.018276914            8 
 2458000   0.84657968   -7.6629365    546.36739   0.01852344  0.018270288           14 
 2459000   0.86417549   -7.7133909    547.45644  0.018552814   0.01826371           16 
 2460000   0.85075836    -7.648261    548.31754  0.018574442  0.018257134           13 
 2461000   0.85223704   -7.6543282    548.19695  0.018562811  0.018250577           14 
 2462000   0.85304805    -7.690083    546.07566  0.018483471  0.018243991           21 
 2463000   0.85456283   -7.6609094    547.99276   0.01854083  0.018237384            9 
 2464000   0.85048983   -7.6805189      547.414  0.018513731   0.01823084           18 
 2465000   0.86508217   -7.6609974    548.94697  0.018558045  0.018224283            6 
 2466000   0.86480965   -7.6764673    548.23996  0.018526628  0.018217752            9 
 2467000   0.86547995   -7.6680723    549.41168  0.018558698  0.018211193            8 
 2468000   0.84842163   -7.6884873    549.20957  0.018544354  0.018204615            7 
 2469000   0.86734129     -7.67597    548.27354   0.01850525  0.018198072            7 
 2470000   0.84938623   -7.7089566    547.26145  0.018463612  0.018191478            7 
 2471000   0.86820998   -7.6698081    549.12044  0.018518833  0.018184926            7 
 2472000   0.86042269   -7.6950061    547.46356  0.018455487  0.018178405            9 
 2473000   0.86384675   -7.6666485    547.61241   0.01845304  0.018171851           15 
 2474000   0.86665893   -7.6393912     548.2952   0.01846858    0.0181653           10 
 2475000    0.8533776   -7.6300275    549.32653  0.018495843  0.018158795           13 
 2476000   0.86342636   -7.6362962    548.43352  0.018458317  0.018152239           10 
 2477000   0.85913215   -7.6433982    548.84069  0.018464564  0.018145718           11 
 2478000   0.85450535   -7.6742589    548.71653  0.018452937  0.018139172           10 
 2479000   0.85741459   -7.6827399    548.73389  0.018446077  0.018132642           10 
 2480000   0.85256771   -7.6729918    547.05466  0.018382213  0.018126107            4 
 2481000   0.85625326   -7.6942876    547.84697  0.018401416  0.018119546           15 
 2482000    0.8604609   -7.6619549    548.20737  0.018406103     0.018113           11 
 2483000   0.84591829   -7.6475487    549.53378  0.018443207  0.018106464           14 
 2484000   0.86177033   -7.6429875    549.04328  0.018419326  0.018099948            8 
 2485000   0.85030305   -7.6643232    548.92828  0.018408058  0.018093423            4 
 2486000   0.84302475   -7.6784568    548.10816  0.018373162  0.018086879            7 
 2487000   0.86256639   -7.6401311    546.96586  0.018327498  0.018080342            5 
 2488000   0.86661153   -7.6299329    550.11276  0.018425535  0.018073808           12 
 2489000   0.85847071   -7.6879981    546.80634  0.018307431  0.018067259           24 
 2490000   0.85783703   -7.6653573    549.22241  0.018380937  0.018060703           10 
 2491000   0.84215987   -7.6821804    548.91621  0.018363315  0.018054167            6 
 2492000   0.87005576   -7.6294084    548.22425  0.018332807  0.018047647            7 
 2493000   0.85364232    -7.675495    548.19488  0.018324471  0.018041097            7 
 2494000   0.84306734   -7.6635509    548.19994  0.018317293  0.018034569            3 
 2495000   0.83771295   -7.6785028     548.8693  0.018332308  0.018028042            7 
 2496000    0.8529939   -7.6584715    549.32758  0.018340264  0.018021483           11 
 2497000   0.83328345   -7.6851965    548.95909  0.018320621  0.018014951            7 
 2498000   0.84609901   -7.6567937    549.68306  0.018337439  0.018008407            9 
 2499000   0.84384463   -7.6548043    548.07125  0.018276352   0.01800188            8 
 2500000   0.84997904   -7.6543972    549.20336  0.018306779   0.01799537            9 
 2501000   0.85911476    -7.674085    550.98459   0.01835881  0.017988825           18 
 2502000   0.85735679   -7.6520639    550.39767  0.018331924  0.017982331            9 
 2503000   0.84832761   -7.6485021    550.32834  0.018322291  0.017975848            7 
 2504000   0.86184038   -7.7068425    548.33834  0.018248747  0.017969314           11 
 2505000   0.85639052   -7.6729029    548.69014  0.018253165  0.017962784           10 
 2506000   0.83931519   -7.6975939    549.07117  0.018258552  0.017956238           14 
 2507000   0.85390344   -7.6817735    549.28797  0.018258475  0.017949661            9 
 2508000   0.85195443   -7.6938831    548.05632  0.018210271   0.01794309            6 
 2509000   0.85987344   -7.7065947    548.80712   0.01822795  0.017936526           10 
 2510000   0.86388113   -7.6810863    548.58322  0.018213254  0.017929953           12 
 2511000    0.8387985   -7.6780173    549.13366  0.018224269  0.017923403            8 
 2512000   0.84794588   -7.6684791    549.60425  0.018232625  0.017916864            8 
 2513000   0.85724995   -7.6836376    549.65186  0.018226949  0.017910317           13 
 2514000   0.84831735   -7.7136487    547.42119  0.018145757  0.017903756            9 
 2515000   0.87133283    -7.676104    549.49804  0.018207357  0.017897186            9 
 2516000   0.84205885   -7.7165923    548.57266  0.018169471  0.017890609           11 
 2517000   0.85940326   -7.7012681    549.83885  0.018204173  0.017884027           12 
 2518000   0.86380526   -7.7235213    549.38561  0.018181944  0.017877448           10 
 2519000   0.85347524   -7.7347154    549.13146  0.018166318  0.017870847           18 
 2520000   0.85052447    -7.701585    549.17554  0.018160567  0.017864269           14 
 2521000   0.83544578    -7.727752    548.63994  0.018135659  0.017857701           10 
 2522000    0.8539822   -7.7136594    548.12311   0.01811139  0.017851153            7 
 2523000   0.85261859   -7.7369482    547.21669  0.018074273  0.017844576            8 
 2524000   0.83530998   -7.6952499    549.31086  0.018136254  0.017838022           11 
 2525000   0.84679975   -7.7111493    549.09838  0.018122059  0.017831491            6 
 2526000   0.83119917   -7.6892416    550.15608  0.018149778  0.017824996            6 
 2527000   0.86698341   -7.6900698     548.7069  0.018094806  0.017818523           13 
 2528000   0.85198221   -7.6854838    550.85514  0.018158463  0.017812045           10 
 2529000   0.84672993   -7.6611701    551.17314  0.018161761  0.017805611            5 
 2530000   0.84046812    -7.693793    550.65312  0.018137455  0.017799164            6 
 2531000   0.85400224   -7.6848484    549.44006  0.018090348   0.01779268            7 
 2532000   0.83835271   -7.6764087    550.35845   0.01811343  0.017786211            6 
 2533000   0.83733719    -7.698589    549.94429  0.018092653  0.017779694            3 
 2534000   0.85369616   -7.6596987    551.53293  0.018137757  0.017773203            7 
 2535000   0.84519174   -7.7008221    549.79114  0.018073345  0.017766688           14 
 2536000   0.85069063   -7.7020838    550.06602   0.01807525  0.017760195            5 
 2537000   0.84504683   -7.7085682    549.30395  0.018043094  0.017753701           14 
 2538000   0.84448529   -7.6947363    549.15035  0.018030941  0.017747196            8 
 2539000   0.84271921   -7.7258194    550.71878  0.018075318   0.01774072           15 
 2540000   0.84318575   -7.6916767    549.38527  0.018024451  0.017734213           11 
 2541000   0.84058588   -7.6696825    550.02684  0.018038398  0.017727682            5 
 2542000   0.84083871   -7.7247974     549.6311  0.018018329  0.017721181            9 
 2543000   0.82281497   -7.6928497    550.46585  0.018038598  0.017714633           14 
 2544000    0.8534121   -7.6906719    550.44764  0.018030911  0.017708128           14 
 2545000    0.8295131   -7.7087621    550.03753  0.018010397  0.017701605           15 
 2546000   0.84273767    -7.695176     549.6082  0.017989271  0.017695094            8 
 2547000    0.8582231   -7.6960389    549.95946    0.0179937   0.01768858            7 
 2548000   0.82165335   -7.7182522    550.87703  0.018016648  0.017682079            8 
 2549000   0.84054834   -7.7082616    548.90518  0.017945115  0.017675544            9 
 2550000   0.84941783   -7.7228219    548.97258   0.01794028  0.017668966            7 
 2551000   0.84259563   -7.7539228    549.72974  0.017957982  0.017662373           10 
 2552000   0.83419452   -7.7121865    550.28118  0.017968952  0.017655839           11 
 2553000   0.83432694   -7.6799292    550.74828   0.01797716  0.017649297           11 
 2554000   0.83776496   -7.6875547    550.07361  0.017948108  0.017642777           13 
 2555000   0.82654996   -7.7072314    549.99635  0.017938563   0.01763622           17 
 2556000    0.8286341   -7.7409464    550.80177  0.017957804  0.017629644           12 
 2557000   0.83023992     -7.71559    549.31954  0.017902475  0.017623066           16 
 2558000   0.84108105     -7.72354    549.03052  0.017886061  0.017616509           22 
 2559000   0.82153291    -7.709341    550.51957  0.017927562  0.017609921           21 
 2560000   0.87042471   -7.7213648    550.83379  0.017930788  0.017603342           22 
 2561000   0.84809313    -7.745547    548.65264  0.017852813   0.01759674           20 
 2562000   0.84127504   -7.7555325    549.76354  0.017881978  0.017590132           10 
 2563000   0.84700656   -7.7294693    550.05654  0.017884528  0.017583517           19 
 2564000   0.83668774   -7.7704696    548.86227  0.017838737  0.017576921           20 
 2565000   0.85555718   -7.7169473      549.241  0.017844087  0.017570312            8 
 2566000   0.83856129   -7.7164609    550.41688  0.017875321  0.017563699           25 
 2567000   0.82939978    -7.740935    548.45375  0.017804628  0.017557083           25 
 2568000   0.83966279   -7.7272637    548.89854  0.017812128  0.017550455           18 
 2569000   0.83043559   -7.7144905    549.72376  0.017831963  0.017543819            7 
 2570000   0.85126603   -7.7323939    549.43537  0.017815673  0.017537207            8 
 2571000   0.82832901   -7.7141317    548.99502  0.017794471  0.017530616           21 
 2572000   0.85047846   -7.7221152    549.28693   0.01779701  0.017524035            7 
 2573000    0.8332497    -7.753654    548.90374  0.017777683  0.017517479            8 
 2574000   0.84630841   -7.7511702    548.39426  0.017754282  0.017510891           11 
 2575000   0.84246128   -7.7461439    549.75197  0.017791326  0.017504341           19 
 2576000   0.85159214   -7.7310963    549.05207  0.017761778  0.017497771           14 
 2577000   0.82760753   -7.7350614    550.36459  0.017797329   0.01749114           24 
 2578000    0.8248416   -7.7636169    548.21482  0.017720934  0.017484503           29 
 2579000   0.83561964   -7.7231222    548.40474    0.0177202  0.017477885           22 
 2580000   0.82863068   -7.7348956    549.95102  0.017763276  0.017471314           36 
 2581000   0.85345901   -7.7212922    548.41476  0.017706792  0.017464737           18 
 2582000   0.84414338   -7.7252268    549.82015  0.017745293  0.017458198           44 
 2583000   0.84089444   -7.7470733    549.05847  0.017713849  0.017451629           28 
 2584000   0.84747524   -7.7405387    549.00494  0.017705268  0.017445061           15 
 2585000   0.83842959   -7.7449676      549.686  0.017720374  0.017438488           22 
 2586000   0.84246502   -7.7557127    550.89592  0.017752511  0.017431941           26 
 2587000   0.82875679   -7.7609119    549.90213  0.017713636  0.017425402           10 
 2588000   0.84105934   -7.7149222    549.61071  0.017697408  0.017418883           32 
 2589000   0.82543752   -7.7630322    549.62293  0.017690966  0.017412384           19 
 2590000    0.8297042   -7.7527514    551.26921  0.017737105  0.017405866           21 
 2591000   0.85743671   -7.7353889    550.63709  0.017709928  0.017399345           14 
 2592000   0.83895955   -7.7509911    550.61791  0.017702479  0.017392823           11 
 2593000   0.84307177   -7.7291818    550.96299  0.017706742  0.017386333           11 
 2594000   0.83220637   -7.7448098    551.02008   0.01770175  0.017379824           21 
 2595000   0.82518295   -7.7350906    551.49094  0.017710049  0.017373324           17 
 2596000   0.82503181   -7.7386768    550.18547  0.017661321  0.017366831           10 
 2597000   0.85473042   -7.7285142    551.75149  0.017704771  0.017360348           21 
 2598000    0.8318632   -7.7548607    551.34681  0.017684976  0.017353865           18 
 2599000    0.8330397   -7.7075055     551.3487  0.017678232  0.017347425           17 
 2600000   0.84181384   -7.7486215    551.82534   0.01768671  0.017340964           11 
 2601000   0.81070026   -7.7199968    550.79105  0.017646772  0.017334498            7 
 2602000   0.83922668   -7.7011266    551.87117  0.017674583   0.01732806           16 
 2603000   0.80652287   -7.7407152    551.80522  0.017665681   0.01732163           13 
 2604000      0.83637   -7.7288371    551.36836  0.017644917  0.017315173           13 
 2605000   0.84410997   -7.7316944    550.41751  0.017607726  0.017308714           18 
 2606000   0.84159924   -7.7202719    553.13334  0.017687815   0.01730228           25 
 2607000   0.83694807   -7.7347459    551.81029  0.017638738  0.017295876           11 
 2608000   0.84123729   -7.7344816    552.44265  0.017652181  0.017289444           14 
 2609000   0.84551423     -7.75304     552.4249  0.017644848  0.017282984           12 
 2610000   0.81658379   -7.7447688    553.71357  0.017679233   0.01727657           29 
 2611000   0.83053063   -7.7256361    551.80194   0.01761145  0.017270108           29 
 2612000   0.84458404   -7.7511495    552.63225  0.017631197  0.017263666           11 
 2613000   0.84616587   -7.7386624    550.70335  0.017562934  0.017257216           18 
 2614000   0.84926116    -7.756651    552.03502  0.017598668  0.017250786           21 
 2615000   0.83446211   -7.7661841    550.77943  0.017551926  0.017244312           11 
 2616000   0.83303932   -7.7816745    553.18752  0.017621926  0.017237806           43 
 2617000   0.82217268   -7.7617253    551.79682  0.017570909  0.017231348           14 
 2618000   0.84892576   -7.7403956    551.88884  0.017567126  0.017224883           18 
 2619000   0.84192335   -7.7823916    549.56297  0.017486412  0.017218386           18 
 2620000   0.81875335   -7.7492009    551.84873  0.017552441  0.017211939            7 
 2621000   0.81606144   -7.7770254    549.53279   0.01747211  0.017205486           11 
 2622000   0.82847875   -7.7666129     551.2424  0.017519781  0.017199008           21 
 2623000   0.83182236   -7.7319757    550.50798  0.017489769  0.017192538            9 
 2624000   0.83500867   -7.7897826    550.57881  0.017485353  0.017186063           14 
 2625000   0.84231936   -7.7469971    551.98162  0.017523226  0.017179622            6 
 2626000   0.82867132   -7.7739609    551.47375  0.017500436  0.017173156            6 
 2627000    0.8244472   -7.7205002    553.22342  0.017549277  0.017166726           33 
 2628000   0.82977981    -7.729284    551.58602  0.017490678  0.017160313           20 
 2629000   0.83714936   -7.7437638    550.82721  0.017459972  0.017153893           19 
 2630000   0.82548441   -7.7469372    553.08097  0.017524745  0.017147467           29 
 2631000   0.82103298   -7.7468548    551.30762  0.017461916  0.017141057            7 
 2632000   0.83838537    -7.751565    551.52542  0.017462178  0.017134594           14 
 2633000   0.83344828   -7.7304958    552.22724  0.017477758  0.017128137            6 
 2634000   0.83055946   -7.7500145     552.4975  0.017479673  0.017121729            6 
 2635000   0.82577321   -7.7404858    552.27475  0.017465995   0.01711534           16 
 2636000   0.84256021   -7.7210715    550.68435   0.01740909   0.01710893           16 
 2637000    0.8390272   -7.7596897     551.4085  0.017425373  0.017102501           13 
 2638000   0.83173423   -7.7735832    552.08394  0.017440104  0.017096029            7 
 2639000    0.8379735   -7.7725021    551.21464  0.017406045  0.017089603           10 
 2640000   0.82627278   -7.7565161    552.54915  0.017441577  0.017083157           15 
 2641000   0.83366787   -7.7710782    551.70344  0.017408287  0.017076673           12 
 2642000   0.81886052   -7.7520702    553.54433  0.017459763  0.017070204           14 
 2643000   0.85521245   -7.7740867    552.23488   0.01741187  0.017063743           21 
 2644000   0.83011406   -7.8096174    549.54417  0.017320479  0.017057266           10 
 2645000   0.82012213   -7.8013782     551.7298  0.017382792  0.017050788           20 
 2646000   0.81348501   -7.7915737    551.34375  0.017364064  0.017044304           25 
 2647000   0.82782022   -7.8001414    549.76592   0.01730783  0.017037809           18 
 2648000   0.83762968   -7.8122316    550.32946  0.017319029  0.017031325           28 
 2649000   0.82628788   -7.7930349    551.59213  0.017352212  0.017024852           12 
 2650000   0.81424047   -7.7900136    551.71865  0.017349643  0.017018334           16 
 2651000   0.82138807   -7.7912742    550.72883  0.017311984  0.017011859           40 
 2652000   0.80581739   -7.7824569    551.60198  0.017332893   0.01700536           21 
 2653000   0.83915021   -7.7739915    551.70631  0.017329637  0.016998863           15 
 2654000   0.82582957   -7.7850956     552.3896  0.017344562  0.016992409           15 
 2655000   0.81716815   -7.8178156    552.08632   0.01732851   0.01698593           24 
 2656000   0.81232582   -7.8021223    551.53517  0.017304693  0.016979463           12 
 2657000   0.82627574   -7.7926008    550.50522  0.017265877  0.016972996           13 
 2658000   0.80212518   -7.7941492    551.38371  0.017286924  0.016966512           22 
 2659000   0.83187961   -7.7800374    551.47779  0.017283371   0.01696004           14 
 2660000   0.81532255   -7.7689449    552.00514  0.017293394  0.016953575            9 
 2661000   0.81233664   -7.7825965    551.14404  0.017259929  0.016947114           12 
 2662000    0.8248088   -7.7963509    552.45827  0.017294587  0.016940644            9 
 2663000   0.82130604   -7.7902265    551.61341  0.017261654  0.016934179           19 
 2664000   0.81515591   -7.7874747    551.58677  0.017254341  0.016927717            4 
 2665000   0.82150535    -7.786598    551.81316  0.017254946  0.016921251           16 
 2666000   0.81325653   -7.8027065     551.2373  0.017230473  0.016914788           14 
 2667000    0.8148121   -7.7797516     553.4837  0.017294204  0.016908305            7 
 2668000   0.80968961   -7.8090704     551.4125  0.017223029  0.016901848           10 
 2669000    0.8306104      -7.7947     550.5707  0.017190293  0.016895396           12 
 2670000   0.85680335   -7.8004112    552.15925  0.017233435  0.016888983           20 
 2671000   0.82869131   -7.7906038     551.9192  0.017219493  0.016882585           26 
 2672000   0.81592227   -7.7789832    552.99253  0.017246523  0.016876159           14 
 2673000   0.82750875   -7.8082825    552.36022  0.017220358  0.016869728           12 
 2674000   0.82932642   -7.7823317    551.45737  0.017185782  0.016863304           18 
 2675000   0.80769217    -7.771255    551.17764  0.017170643  0.016856874            7 
 2676000   0.82339709   -7.7800378     552.0872  0.017192551  0.016850442           11 
 2677000   0.81774089   -7.8168684    551.10713   0.01715562  0.016844006           22 
 2678000   0.83596367    -7.775511    550.54147  0.017131612  0.016837583           10 
 2679000   0.83862506   -7.7739268    554.08136  0.017235329  0.016831176           11 
 2680000   0.80544767   -7.7910771    552.48948  0.017179399  0.016824761            5 
 2681000    0.8270403   -7.7838189    553.41528  0.017201768  0.016818393           13 
 2682000    0.8189054   -7.7527785    553.23831  0.017189856  0.016812039           13 
 2683000   0.81857873   -7.7644002    552.54747  0.017161991  0.016805673            9 
 2684000   0.82820785   -7.7691911    552.94022  0.017167791  0.016799345           11 
 2685000   0.82154637   -7.7842121    551.17503  0.017106612  0.016792985           18 
 2686000   0.82048998   -7.7831685    553.45359  0.017170935  0.016786603            5 
 2687000   0.80853064   -7.7770959    552.60014  0.017138077  0.016780212           14 
 2688000   0.81201553   -7.7723419    552.06973  0.017115257  0.016773839           12 
 2689000   0.83372188   -7.7789998    551.62797  0.017095202  0.016767483           23 
 2690000   0.80524306   -7.7826345    552.74583  0.017123477  0.016761111           31 
 2691000     0.825927   -7.7859372    552.24008  0.017101452  0.016754732           11 
 2692000   0.80313175   -7.8065845    551.68767  0.017077999  0.016748355           11 
 2693000   0.80624969   -7.7694783    553.52931  0.017128645  0.016741976            8 
 2694000   0.83678797    -7.766948    552.83839  0.017100915  0.016735609            8 
 2695000   0.83545353   -7.7831152    553.18413  0.017105261  0.016729247           16 
 2696000   0.81890072   -7.8071149    551.97338  0.017061492  0.016722866           14 
 2697000   0.83583061   -7.7831999    552.66764  0.017076617  0.016716458           25 
 2698000   0.82238822   -7.7885003    552.57223  0.017067341  0.016710071            6 
 2699000    0.8060984    -7.781507    553.75305  0.017097476   0.01670369            7 
 2700000    0.8071603   -7.7712787    552.75619  0.017060376    0.0166973            9 
 2701000   0.82448134   -7.7719649     553.8891  0.017089013  0.016690921            9 
 2702000   0.82992489   -7.7937306      553.645   0.01707516  0.016684547           12 
 2703000   0.81445965   -7.8105028    552.07377  0.017020402  0.016678179           12 
 2704000   0.82884034   -7.8019416    551.33366  0.016991299  0.016671803           15 
 2705000   0.82575264   -7.8184341    552.40529  0.017018031  0.016665387           12 
 2706000   0.80853336    -7.808516    552.44346  0.017012918  0.016659009           11 
 2707000   0.83482195   -7.7992226     552.1358  0.016997162  0.016652645            7 
 2708000   0.82083231    -7.797123     551.9141  0.016984063  0.016646295           19 
 2709000   0.82975327   -7.7933909    552.45717  0.016994499  0.016639907           10 
 2710000   0.81406741   -7.8283545    551.60784  0.016962111  0.016633515            9 
 2711000   0.82900368   -7.7780589    553.45567  0.017012654  0.016627136           15 
 2712000   0.82442707   -7.7710666    552.97592   0.01699164  0.016620766            8 
 2713000   0.82190576   -7.8067236    552.17781  0.016960862  0.016614401           18 
 2714000   0.82002652   -7.7815994    552.26353  0.016957244  0.016608032           12 
 2715000   0.81427394    -7.825739    551.06158  0.016914106   0.01660167            8 
 2716000   0.80195025   -7.7914071    552.25922  0.016944625  0.016595298           10 
 2717000   0.83057458   -7.7983101    553.78077  0.016985056  0.016588961           21 
 2718000   0.81113297   -7.7978578     552.2312  0.016931298  0.016582603            6 
 2719000   0.82189254     -7.80827    551.64675  0.016907158  0.016576205            8 
 2720000   0.80979985    -7.831376    551.10501  0.016884345  0.016569784           19 
 2721000   0.81805154   -7.7868359    553.20815   0.01694255  0.016563398           10 
 2722000    0.8196644   -7.7764186    552.73577  0.016921864  0.016557032           18 
 2723000   0.83232892   -7.8135827    551.67342  0.016883138  0.016550637           12 
 2724000    0.8183141   -7.8339741    551.74462  0.016879118  0.016544236           13 
 2725000   0.83485159   -7.8053519    551.70135  0.016871601  0.016537867            6 
 2726000   0.81386186   -7.8249486    553.04074  0.016906357  0.016531493            7 
 2727000   0.80625493   -7.8215607    552.21557  0.016874941  0.016525108           16 
 2728000   0.82000175   -7.7911651    553.55209  0.016909582  0.016518747           17 
 2729000   0.81788267   -7.8010733    553.30404  0.016895812   0.01651241           14 
 2730000   0.82747353   -7.8028047    552.34603  0.016860379  0.016506057           14 
 2731000   0.79721398   -7.7818393    551.48512  0.016827936  0.016499708           17 
 2732000   0.81081787   -7.7951624    554.25308  0.016906207  0.016493381           23 
 2733000   0.80285922   -7.8311022    552.09035  0.016834076  0.016487033            9 
 2734000   0.81145488   -7.7834076    552.98177  0.016855089  0.016480653           11 
 2735000   0.81972251   -7.8333297    552.70723  0.016840561  0.016474289           17 
 2736000   0.82432159   -7.8410088    551.65289  0.016802293  0.016467899           14 
 2737000   0.80742988   -7.8135541    551.90854  0.016803938  0.016461511           15 
 2738000   0.80525835   -7.8005913    552.25479  0.016808339  0.016455132           13 
 2739000   0.81607591   -7.8230502    552.59028   0.01681241  0.016448721           10 
 2740000   0.81449048   -7.8477764    552.78051  0.016812059  0.016442326           18 
 2741000   0.81410587   -7.8529161    551.59098  0.016769761  0.016435937            5 
 2742000   0.80998333   -7.8469609    552.34988  0.016786709  0.016429534           17 
 2743000   0.80613361   -7.8273945      552.971  0.016799459  0.016423127           21 
 2744000   0.80668879   -7.8314705    551.14099  0.016737761  0.016416711           11 
 2745000   0.78313261   -7.8329876    553.39762  0.016800171  0.016410314           10 
 2746000   0.80357541   -7.8506613    550.77266  0.016714392  0.016403908           11 
 2747000   0.81668201   -7.8213861    550.87446  0.016711396  0.016397505           12 
 2748000   0.80147168   -7.8290977     551.6581  0.016729079  0.016391113            5 
 2749000   0.79440584   -7.8271377    551.72623  0.016725059  0.016384725           10 
 2750000   0.81262508    -7.821013    553.48794  0.016772362  0.016378332           13 
 2751000   0.80601471   -7.8433471    552.14308  0.016725526  0.016371945           16 
 2752000   0.82491926   -7.8069873    551.91796  0.016712632  0.016365571           12 
 2753000   0.81425741   -7.8508387     551.8739  0.016705228  0.016359194            7 
 2754000   0.81101796   -7.8297289     552.7146  0.016724601  0.016352795           17 
 2755000   0.79736642    -7.844056    551.14431  0.016671032  0.016346408           17 
 2756000   0.82976278   -7.8507838    551.10955  0.016663932  0.016340017           16 
 2757000   0.81225229   -7.8276075    551.44639  0.016668069  0.016333625           12 
 2758000   0.81041804   -7.8529627    551.31519  0.016658061  0.016327233           15 
 2759000   0.81563391   -7.8573849    551.26759  0.016650586  0.016320833           36 
 2760000   0.81364442   -7.8481437    552.10002  0.016669687  0.016314427           12 
 2761000   0.81868886   -7.8527391    549.95828  0.016599006  0.016308021           20 
 2762000   0.81606285   -7.8549207    550.25438   0.01660193  0.016301585           15 
 2763000   0.78836884   -7.8553987    550.59846  0.016606299  0.016295164           23 
 2764000   0.80363992   -7.8636176    550.63128  0.016601281  0.016288754           23 
 2765000   0.80578772   -7.8448258    552.17633  0.016641842  0.016282333           38 
 2766000   0.80618526   -7.8810086    551.37772  0.016611766  0.016275881           21 
 2767000   0.79162464   -7.8712111    551.13568  0.016598472  0.016269448           54 
 2768000   0.81499188   -7.8969041    550.04623  0.016559677  0.016262993           50 
 2769000   0.81736193   -7.8798453    551.03292  0.016583391  0.016256534           31 
 2770000   0.80275022   -7.8490083    550.57083  0.016563503  0.016250079           49 
 2771000   0.79704243   -7.8781506    550.61337  0.016558804  0.016243634           44 
 2772000   0.81512432    -7.850614    550.35229  0.016544982   0.01623722           93 
 2773000   0.81649397   -7.8703367    550.20963  0.016534729  0.016230796           37 
 2774000   0.79280529   -7.8604892    550.17168  0.016527628  0.016224358           48 
 2775000   0.79851866   -7.8389027    550.58531  0.016534093  0.016217948           84 
 2776000   0.80680133   -7.8455971    551.21079  0.016546914   0.01621151           68 
 2777000   0.80283143   -7.8099663     551.6504  0.016554147  0.016205096           66 
 2778000   0.82311722   -7.8846053     549.9231  0.016496373  0.016198709           79 
 2779000   0.81158378   -7.8514269    550.86846  0.016518786  0.016192315          116 
 2780000     0.798478   -7.8520218    551.56031  0.016533582  0.016185899          103 
 2781000   0.78614357    -7.804014    552.97819  0.016570124   0.01617952           59 
 2782000   0.81223677    -7.856272    551.50498  0.016520039  0.016173158           44 
 2783000   0.80522794   -7.8383149    552.78974  0.016552573  0.016166799           48 
 2784000   0.81660851   -7.8452963    551.40216  0.016505094  0.016160437           54 
 2785000   0.78456909    -7.858811    551.10145  0.016490169   0.01615406          119 
 2786000   0.82160757   -7.8421413    552.25571  0.016518776  0.016147684          137 
 2787000   0.80538415   -7.8713028    550.82441  0.016470052  0.016141346          138 
 2788000    0.7904208   -7.8709864    551.60769  0.016487557  0.016135001           88 
 2789000   0.80636173   -7.8579207    551.44148  0.016476679  0.016128633           47 
 2790000   0.81665347   -7.8508017    552.39965  0.016499392  0.016122266          129 
 2791000   0.80379166   -7.8413617    553.03487  0.016512447  0.016115903          137 
 2792000   0.81959882   -7.8378932    551.62288  0.016464389  0.016109564          153 
 2793000    0.8013117   -7.8405805    551.18815  0.016445523  0.016103239          135 
 2794000   0.80433749   -7.8746264    551.35499  0.016444613  0.016096892          137 
 2795000    0.7872748   -7.8672495    551.66691   0.01644803  0.016090548          143 
 2796000   0.80454007   -7.8574512    551.53197  0.016438125  0.016084204          126 
 2797000   0.81444766   -7.8640514    552.72358  0.016467751  0.016077862           95 
 2798000   0.81895021   -7.8666686    551.34633  0.016420846  0.016071517          132 
 2799000   0.80480085   -7.8671831    552.08218  0.016436888  0.016065171           66 
 2800000   0.80232186   -7.8963667    550.67111  0.016389021   0.01605882           54 
 2801000   0.80541833   -7.9109223    550.30079  0.016372152  0.016052455           75 
 2802000   0.82095729   -7.8706959    551.20948  0.016393335  0.016046095          115 
 2803000   0.80433891   -7.8826112    550.89548  0.016378151  0.016039762          151 
 2804000   0.79190566    -7.865019    552.35989  0.016415831  0.016033435           75 
 2805000   0.78694885   -7.8635032    551.83736  0.016394455  0.016027134          127 
 2806000   0.81851051   -7.8585954    551.72021  0.016385133  0.016020833          173 
 2807000   0.79972571   -7.8431215    552.38028  0.016398892  0.016014538          183 
 2808000    0.8003019    -7.842469     552.7088  0.016402802  0.016008255          188 
 2809000   0.80271899   -7.8769374    552.76618  0.016398664  0.016001982          202 
 2810000   0.81146769   -7.8647675    551.42642  0.016353097   0.01599569          157 
 2811000   0.80142155    -7.845038     552.8547  0.016389621  0.015989441           87 
 2812000   0.79574168   -7.8565221    551.63312  0.016347591  0.015983207           80 
 2813000    0.8085188   -7.8510386    552.24695  0.016359964   0.01597695          190 
 2814000   0.79222894   -7.8456766    554.68146  0.016426246  0.015970701           84 
 2815000   0.78525177    -7.868214    552.35058  0.016351408  0.015964426           62 
 2816000     0.823256   -7.8254465     552.0561  0.016336887  0.015958156           91 
 2817000   0.79109784    -7.917991    551.94983  0.016327944  0.015951892           98 
 2818000   0.81114963   -7.8870541    552.37977  0.016334864  0.015945568          137 
 2819000   0.79506883   -7.9064531    551.37988  0.016299512  0.015939254          130 
 2820000   0.80299122   -7.9094034    551.57549  0.016299512  0.015932931           74 
 2821000   0.79893631   -7.8717371    552.50623  0.016321229  0.015926645          158 
 2822000    0.8185806   -7.8901523    552.47737  0.016314593  0.015920352          144 
 2823000   0.79833397   -7.8967725    551.90762  0.016291995   0.01591405           39 
 2824000   0.81360496    -7.886286    553.05706  0.016320144  0.015907788          122 
 2825000    0.7930284   -7.8656009    553.73184  0.016334273  0.015901532           81 
 2826000   0.79551547   -7.8610017    552.46422  0.016291113  0.015895284          106 
 2827000   0.80690558   -7.8413463    553.37165  0.016312099  0.015889058           93 
 2828000    0.7907169   -7.8547944    553.77962  0.016318353  0.015882851           80 
 2829000   0.80847813   -7.8551998    554.30202  0.016327973  0.015876638           76 
 2830000   0.79555546   -7.8570701    554.03838   0.01631444  0.015870441           76 
 2831000   0.77240143   -7.8514944    554.02527  0.016308291  0.015864237           83 
 2832000   0.80854791   -7.8925224    552.76874  0.016265559  0.015858001           76 
 2833000   0.79294403   -7.9056921     552.5678  0.016253906  0.015851766          105 
 2834000   0.78928656   -7.8909123    552.39361  0.016243049  0.015845524           68 
 2835000   0.79504911   -7.9064428    553.57963  0.016272182  0.015839259           65 
 2836000    0.7867365   -7.9201911    552.20678  0.016226104  0.015833013           70 
 2837000   0.81707236   -7.8752674    552.06316  0.016216166   0.01582676          127 
 2838000   0.80861783   -7.9028673    552.72595  0.016229914  0.015820508          215 
 2839000     0.792054   -7.9148963    552.08491  0.016205381  0.015814242          169 
 2840000   0.79388954   -7.9215869    551.21707   0.01617421  0.015807959          118 
 2841000   0.80414286   -7.9264181    552.83155  0.016215873  0.015801687          129 
 2842000   0.78468861   -7.9168349    552.69922  0.016206287  0.015795409          200 
 2843000   0.79323171   -7.9161988    551.98801   0.01617974   0.01578915          146 
 2844000    0.8037537   -7.9314355    550.79792   0.01613918  0.015782892          120 
 2845000   0.79119473   -7.9191059    552.38367  0.016179955  0.015776638          258 
 2846000   0.78944122   -7.9112956    553.13917  0.016196392  0.015770363          148 
 2847000   0.79271932   -7.9327448     551.2137  0.016134343  0.015764069          116 
 2848000   0.80227189   -7.9161672    551.92944  0.016149621   0.01575782          133 
 2849000   0.78757397   -7.8736594    552.68045  0.016165919  0.015751585          271 
 2850000   0.77626867   -7.8904424    552.29215  0.016148893   0.01574537          290 
 2851000   0.81041319   -7.8868585    553.23158  0.016170688  0.015739142          150 
 2852000   0.77328108   -7.9137602    551.82222  0.016123838  0.015732901          396 
 2853000   0.79062057    -7.919858    551.38134  0.016105309  0.015726626          198 
 2854000   0.79384603   -7.9410655    552.24478  0.016124877  0.015720372          264 
 2855000   0.79745643   -7.9403689    552.48329  0.016126191  0.015714097          345 
 2856000   0.78208192   -7.9497207    552.62202  0.016124592  0.015707818          243 
 2857000   0.78115335   -7.9439989    551.78681  0.016094587  0.015701547          199 
 2858000   0.79195761   -7.9379441    552.82532  0.016119236  0.015695278          243 
 2859000   0.78317873   -7.9492797    551.10406  0.016063427  0.015689006           99 
 2860000   0.79728913   -7.9807232     551.4238  0.016067127  0.015682703          274 
 2861000   0.78661117   -7.9333963    550.76478  0.016042316  0.015676417          329 
 2862000   0.79213595   -7.9620583    551.62392  0.016061726  0.015670108          310 
 2863000   0.80792313   -7.9287376    552.30775   0.01607602   0.01566383          295 
 2864000   0.78042246    -7.930894    551.62441  0.016050524   0.01565757          355 
 2865000   0.79449658   -7.9564057    551.17373  0.016031813   0.01565129          299 
 2866000   0.79211447   -7.9592403    552.79444  0.016073344  0.015645034          330 
 2867000   0.78300667   -7.9797709      550.961  0.016014446  0.015638755          354 
 2868000   0.82303918   -7.9474991    552.08707  0.016041581  0.015632472          300 
 2869000    0.8049419   -7.9638805    551.19913  0.016010199  0.015626175          391 
 2870000   0.79954847   -7.9789157    550.08781  0.015972352  0.015619868          441 
 2871000   0.76743013   -7.9873017    549.91967  0.015961908  0.015613532          343 
 2872000   0.76990067   -7.9740185    550.92353  0.015985479  0.015607206          326 
 2873000   0.79524604   -7.9704722     552.4581  0.016024426  0.015600913          333 
 2874000   0.81538817   -7.9683896    549.49368  0.015932895  0.015594626          400 
 2875000   0.80391096   -7.9521396    552.02149  0.016000623  0.015588333          383 
 2876000   0.80007852    -7.965765    551.51279   0.01598032  0.015582038          444 
 2877000   0.79120681   -7.9777303    549.33671  0.015911734  0.015575718          537 
 2878000   0.78314905   -7.9477343    551.84998  0.015978978  0.015569422          368 
 2879000   0.79332584   -7.9699138    551.84291  0.015973223  0.015563144          469 
 2880000   0.78465163   -7.9887411    550.82035  0.015938089  0.015556871          522 
 2881000   0.79213029    -7.979982    550.81262  0.015932333  0.015550561          502 
 2882000   0.79566113   -7.9621441    549.79245  0.015897307  0.015544254          527 
 2883000   0.77481369    -7.956553    550.97807  0.015926063  0.015537983          389 
 2884000   0.77771952   -8.0173952    550.35656  0.015902582  0.015531705          524 
 2885000   0.79636078   -7.9929719    550.03663  0.015887829  0.015525417          478 
 2886000    0.7920664   -7.9923753    551.32598  0.015919554   0.01551913          604 
 2887000   0.79773392   -7.9534851    550.62952  0.015893936  0.015512852          595 
 2888000   0.78243246   -7.9702565    550.44738  0.015883177  0.015506588          545 
 2889000   0.77879002    -7.987957    550.91446  0.015891152  0.015500294          620 
 2890000   0.78224392   -8.0078306    550.70801    0.0158797  0.015494009          523 
 2891000     0.780854   -7.9804389    550.82905  0.015877697  0.015487731          507 
 2892000   0.77699215    -7.972461    549.33045  0.015829024  0.015481458          532 
 2893000   0.78262099   -8.0128343    549.92103  0.015840564  0.015475172          572 
 2894000    0.7920984   -7.9683202    550.56229  0.015853556  0.015468882          564 
 2895000   0.78782275    -7.991385    550.62193  0.015849797  0.015462579          544 
 2896000   0.78159412    -7.979856    549.75954  0.015819508  0.015456287          652 
 2897000   0.77830722   -8.0118725    549.75151  0.015813816  0.015450002          543 
 2898000   0.77943675   -8.0148467    550.58916  0.015832446  0.015443704          573 
 2899000   0.79537379   -7.9748915    550.16524  0.015814799  0.015437416          496 
 2900000   0.79013029   -8.0261156    549.76815  0.015797935   0.01543112          669 
 2901000   0.77498414   -8.0067112    550.13641  0.015803068  0.015424825          674 
 2902000   0.79056609    -7.998382    552.03586  0.015852167  0.015418535          581 
 2903000   0.78926598    -8.023718    549.85628  0.015784139  0.015412249          662 
 2904000   0.78285663   -8.0001599    549.88617  0.015779562  0.015405958          599 
 2905000   0.78138186   -7.9891826    550.66786  0.015796554  0.015399671          723 
 2906000   0.77972494   -8.0426833    550.72306  0.015792701  0.015393376          628 
 2907000   0.78954153   -8.0437397     550.2628  0.015774074  0.015387079          762 
 2908000   0.78432458   -8.0111252    549.65551  0.015751247   0.01538077          724 
 2909000   0.78057974   -8.0097343    549.68851  0.015746778  0.015374457          720 
 2910000   0.77848473   -7.9920927    548.78676  0.015715543  0.015368126          706 
 2911000   0.78605668   -8.0127605    549.46566  0.015729579  0.015361809          774 
 2912000   0.79595237   -8.0231363    549.57992  0.015727447  0.015355492          724 
 2913000    0.7976979   -8.0461591    549.95873  0.015732885   0.01534915          818 
 2914000   0.77461869   -7.9860353    549.09936   0.01570291  0.015342846          966 
 2915000   0.77826153   -8.0281478    549.81788  0.015718064  0.015336515          857 
 2916000   0.77255146   -8.0442948    549.10517  0.015692306  0.015330178          852 
 2917000   0.77761616   -8.0239674    550.40629  0.015724097  0.015323855          853 
 2918000   0.80532529   -8.0385992    548.33059   0.01565943  0.015317524          865 
 2919000    0.7726477    -8.051364    548.66131  0.015663507  0.015311207          811 
 2920000   0.79147307   -7.9974855     549.8346  0.015691627  0.015304898          802 
 2921000   0.79495507   -8.0491466    549.27285  0.015670229  0.015298612          843 
 2922000   0.78430552   -8.0294832    550.55394  0.015701401   0.01529233          857 
 2923000   0.78230015   -8.0152437    549.35742  0.015661918  0.015286051          838 
 2924000   0.79789625   -8.0396631    549.02174  0.015646994  0.015279774          849 
 2925000   0.78087847   -8.0332357    549.20956  0.015646996  0.015273493          846 
 2926000   0.77006695   -8.0547192     549.2727  0.015643447  0.015267193          877 
 2927000    0.7861569   -8.0456668    549.11454  0.015633599  0.015260906          894 
 2928000   0.77662068   -8.0483847    548.72589  0.015617199  0.015254613          894 
 2929000   0.77934681   -8.0281227    550.09971  0.015650953  0.015248341          812 
 2930000   0.78352378   -8.0444981    550.40203   0.01565421  0.015242039          949 
 2931000   0.79459927   -8.0469855    550.42657  0.015649567  0.015235759          966 
 2932000   0.78652485   -8.0476709    549.51063  0.015618197  0.015229494          923 
 2933000   0.77574734   -8.0508259    549.81434  0.015621501  0.015223217          980 
 2934000   0.78420996   -8.0757409    549.62623  0.015610834  0.015216934          901 
 2935000   0.77702674   -8.0828092    548.78265  0.015581563  0.015210656         1007 
 2936000   0.78627928   -8.0583586    549.18009  0.015587536  0.015204384         1040 
 2937000   0.79054138    -8.040445    548.68859  0.015568284  0.015198116         1080 
 2938000   0.79183213   -8.0618034    549.71941  0.015592223  0.015191862         1001 
 2939000   0.79279496   -8.0519162    550.60196  0.015611942  0.015185637         1042 
 2940000   0.78022799    -8.063015    548.74444  0.015553981  0.015179408         1068 
 2941000   0.78120814   -8.0697049     548.6783  0.015546818  0.015173169         1092 
 2942000   0.79001131   -8.0890228    548.13892  0.015526255  0.015166915         1121 
 2943000   0.78930043      -8.0618    549.36887  0.015555807  0.015160652         1068 
 2944000   0.77333982   -8.0540845    548.55231  0.015527409  0.015154385         1141 
 2945000   0.78464826   -8.1013396    547.84941  0.015502247  0.015148103         1150 
 2946000    0.7816526   -8.0792993    548.09801  0.015504017  0.015141812         1270 
 2947000   0.78259434   -8.0500712    550.57145  0.015568698  0.015135556         1160 
 2948000   0.79529266   -8.0995349    548.60098  0.015507716  0.015129285         1204 
 2949000   0.78570519   -8.0727366    548.08826  0.015487969  0.015123016         1304 
 2950000    0.7914008    -8.129411    548.00227   0.01548029  0.015116729         1398 
 2951000   0.76989694   -8.0822615    548.71741  0.015495239  0.015110448         1289 
 2952000   0.78733796   -8.1000333    548.44193  0.015482214  0.015104168         1356 
 2953000   0.76699374   -8.0936457    547.05558  0.015437848   0.01509788         1312 
 2954000   0.78000175   -8.0987632    548.14344  0.015463311  0.015091603         1368 
 2955000   0.79143033   -8.1017429    547.70854  0.015445813  0.015085324         1505 
 2956000    0.7625187   -8.1373454    548.00033  0.015448814  0.015079005         1506 
 2957000   0.77808493   -8.1276477    547.91783  0.015441265  0.015072712         1562 
 2958000   0.77232853   -8.1520752    546.75479  0.015403279  0.015066403         1643 
 2959000   0.77526977   -8.1307829    547.50343  0.015419157  0.015060075         1638 
 2960000   0.78841268   -8.1526746    547.34387  0.015409456  0.015053757         1763 
 2961000   0.78026808   -8.1013459    547.66685  0.015413341  0.015047442         1663 
 2962000   0.76815729   -8.1350088    546.23299  0.015367797  0.015041137         1736 
 2963000   0.76860643   -8.1623446    547.18814  0.015389474   0.01503481         1675 
 2964000    0.7886393   -8.1498118    547.17054  0.015383787  0.015028482         1785 
 2965000   0.76813927   -8.1547293    546.86487  0.015370008  0.015022164         1725 
 2966000   0.77719757   -8.1515531    545.44367  0.015324895  0.015015844         1814 
 2967000   0.76543765   -8.1519785    548.41076  0.015403066  0.015009525         1860 
 2968000   0.79087107   -8.1721503     546.1506  0.015334417  0.015003195         1895 
 2969000   0.78359403   -8.1751664    546.85185  0.015348935  0.014996849         1898 
 2970000   0.74540494   -8.1783018    545.89505  0.015316921  0.014990498         1948 
 2971000   0.78478434    -8.179939    546.47055  0.015327907  0.014984138         1860 
 2972000   0.76440798   -8.1998599    545.49936  0.015295518  0.014977767         1921 
 2973000   0.78100285    -8.187207    545.86621  0.015300656   0.01497143         1925 
 2974000   0.76224487   -8.1778954    546.77795  0.015321059  0.014965065         1870 
 2975000   0.77569101   -8.2130036    545.29146   0.01527427  0.014958709         1786 
 2976000   0.77663854   -8.1998264    546.86801  0.015313284   0.01495235         1889 
 2977000   0.75789154   -8.1784596     546.7989  0.015306206  0.014945989         1896 
 2978000   0.78145136    -8.200876    546.03845  0.015279786  0.014939631         1949 
 2979000   0.76856227   -8.1850456    547.02247  0.015302184  0.014933275         1915 
 2980000   0.76497109   -8.1922595    546.98405  0.015295975  0.014926924         1863 
 2981000   0.77737737   -8.1807692    546.23521   0.01526991  0.014920568         1913 
 2982000   0.77405921   -8.2281241    545.51011  0.015244526   0.01491423         2048 
 2983000   0.77067909   -8.1771453    546.21717  0.015259168   0.01490786         2010 
 2984000   0.78164606   -8.1920157    545.04948  0.015221444  0.014901505         2095 
 2985000   0.77343506   -8.2155946    546.49929   0.01525682  0.014895155         1959 
 2986000   0.77014398   -8.2233035    545.47118  0.015223018   0.01488878         2153 
 2987000   0.77176882   -8.1957488    545.12903  0.015208376    0.0148824         2037 
 2988000   0.76388341   -8.2043599    545.20884  0.015205512  0.014876038         2034 
 2989000   0.77326698   -8.2133606    545.33286  0.015203882  0.014869666         2033 
 2990000   0.78723067   -8.2197702     544.0581  0.015163269  0.014863286         2083 
 2991000   0.77254481   -8.2174924    545.07622  0.015186566  0.014856913         2067 
 2992000   0.79568234    -8.212653    544.73438  0.015171969  0.014850542         2112 
 2993000     0.758346   -8.2234055    544.79797  0.015168671  0.014844176         2128 
 2994000   0.77125311   -8.2163282    545.84924  0.015192865  0.014837805         2088 
 2995000   0.75567801   -8.2113026    545.28295  0.015172035  0.014831423         2077 
 2996000   0.76834615   -8.2206642    543.77064  0.015124907  0.014825048         2099 
 2997000   0.77603177   -8.2345518    544.23948  0.015132896  0.014818676         2132 
 2998000   0.76933233   -8.2286258    544.30412  0.015129645  0.014812296         2175 
 2999000   0.77762814   -8.2298254    543.10678   0.01509133  0.014805909         2107 
 3000000   0.76737753   -8.2261826    544.87182  0.015135328  0.014799529         2146 
 3001000   0.77259104   -8.2557879    543.50058  0.015092208  0.014793138         2255 
 3002000   0.77524582   -8.2401354     545.2504  0.015135754  0.014786739         2213 
 3003000   0.77465197   -8.2775472    544.52564  0.015110602  0.014780349         2245 
 3004000   0.78402454   -8.2440393    543.51647  0.015077576  0.014773952         2224 
 3005000   0.78948014   -8.2474399    544.44413  0.015098284  0.014767552         2279 
 3006000   0.76594902   -8.2505694    544.70063  0.015100372  0.014761154         2294 
 3007000   0.77485315   -8.2779553    543.64698  0.015066151  0.014754743         2323 
 3008000   0.77583859   -8.2470528    545.16772  0.015103272  0.014748345         2272 
 3009000   0.77573935   -8.2516009    544.23201  0.015072339  0.014741938         2377 
 3010000   0.78750861   -8.2418334    545.14543   0.01509262  0.014735557         2435 
 3011000   0.76881885   -8.2959943    544.35603   0.01506576  0.014729152         2513 
 3012000   0.76184246   -8.2794755     543.3746  0.015033605   0.01472274         2461 
 3013000   0.78225851   -8.2907247    542.65445  0.015008697  0.014716313         2547 
 3014000   0.76417377   -8.2996793    542.04766   0.01498694  0.014709882         2544 
 3015000   0.77077531   -8.2734511    543.52854    0.0150229   0.01470345         2587 
 3016000   0.76960508   -8.2947974    541.96841  0.014974812   0.01469702         2618 
 3017000   0.75515852    -8.305533    542.87766  0.014994963   0.01469059         2571 
 3018000   0.77155474   -8.3181128    542.82671  0.014988588  0.014684148         2602 
 3019000    0.7718774   -8.2908848    542.64569  0.014978627  0.014677713         2657 
 3020000   0.77058641   -8.2920769    542.77343  0.014977192  0.014671273         2666 
 3021000   0.75258135   -8.3278609     541.2382  0.014929885  0.014664825         2691 
 3022000   0.77245034   -8.3012344    543.03491   0.01497449  0.014658374         2655 
 3023000    0.7576698   -8.3459017    541.62637  0.014930708  0.014651929         2762 
 3024000   0.76471953   -8.3203387    542.49768  0.014949782  0.014645478         2707 
 3025000   0.76180642   -8.3375806    541.41623  0.014915048  0.014639018         2858 
 3026000   0.79266423   -8.3284429    541.90792  0.014923659  0.014632576         2700 
 3027000   0.77763169   -8.3055316    540.84864  0.014889567   0.01462613         2731 
 3028000   0.77226066   -8.3160914    541.34412  0.014898286  0.014619686         2773 
 3029000   0.76462683   -8.3153396    541.25638  0.014890953  0.014613224         2902 
 3030000   0.75559511   -8.3296123    541.68589  0.014897852  0.014606767         2949 
 3031000    0.7761842   -8.3673189    540.65351  0.014864553  0.014600294         2988 
 3032000   0.77056065   -8.3515721    541.14904  0.014873269  0.014593832         2857 
 3033000   0.76042303   -8.3433322    540.72151  0.014856619  0.014587368         2983 
 3034000   0.76298124   -8.3502095    543.29393  0.014922378  0.014580915         2957 
 3035000   0.76329085   -8.3372234    541.70183  0.014873746   0.01457447         2886 
 3036000   0.75772711   -8.3606726    541.28899  0.014857515  0.014568017         2955 
 3037000   0.75975287   -8.3432519    540.81589  0.014839641  0.014561556         3004 
 3038000   0.75853882   -8.3352976    540.56818  0.014827962    0.0145551         2984 
 3039000   0.77121026   -8.3639432    540.48342  0.014820759  0.014548648         3122 
 3040000    0.7654205    -8.368866    540.57551  0.014818408  0.014542196         3055 
 3041000   0.74758922   -8.3647621    541.51692  0.014839332  0.014535746         3017 
 3042000   0.76828499   -8.3369374    541.01016  0.014820572  0.014529303         2957 
 3043000   0.75746207    -8.349157    539.83369  0.014783484  0.014522852         3002 
 3044000   0.76000485   -8.3578283    539.78516  0.014777298  0.014516394         3124 
 3045000    0.7766835   -8.3502559     540.4053  0.014789417  0.014509932         3137 
 3046000    0.7278308   -8.3820371    540.16804  0.014778071  0.014503466         3163 
 3047000   0.76463764   -8.3743158     540.7116  0.014788087  0.014497016         3079 
 3048000   0.75680965   -8.3608976    540.72594  0.014783627  0.014490562         3101 
 3049000   0.74887168   -8.3629094    539.79296  0.014753279  0.014484119         3123 
 3050000   0.76811225   -8.3828347    541.06465  0.014783187  0.014477676         3113 
 3051000   0.74741544   -8.3700756    540.36806  0.014759315  0.014471238         3158 
 3052000   0.75213878   -8.4013025    540.52343  0.014758722  0.014464792         3077 
 3053000     0.762045   -8.3944858    539.51905  0.014726472  0.014458353         3135 
 3054000    0.7509932   -8.3965605    540.46022  0.014747332   0.01445192         3095 
 3055000   0.74933486   -8.3646742    540.47506  0.014742909  0.014445492         3176 
 3056000   0.77278459   -8.4083461    539.13138  0.014701445  0.014439065         3216 
 3057000    0.7711517   -8.3860991    539.41662  0.014704411   0.01443262         3205 
 3058000   0.77179174   -8.4065237    540.49148  0.014728894  0.014426181         3208 
 3059000   0.77326835   -8.3527105    540.79678  0.014732396  0.014419756         3113 
 3060000   0.74749206   -8.3880646    540.12446  0.014709272  0.014413336         3154 
 3061000    0.7704462   -8.3911693    540.09981  0.014703795  0.014406911         3259 
 3062000   0.76946525   -8.4014855    539.56806  0.014684522  0.014400497         3208 
 3063000   0.74681068   -8.4016845    539.97844  0.014690892   0.01439406         3172 
 3064000   0.75120409   -8.3663824    540.74867  0.014707046  0.014387634         3143 
 3065000   0.77690105   -8.4058421    539.11059   0.01465771  0.014381206         3224 
 3066000   0.74234805   -8.4075492    540.08388  0.014679383  0.014374783         3332 
 3067000   0.76535739   -8.4034468    539.95574  0.014671116  0.014368353         3218 
 3068000   0.75648535   -8.3776337    540.53119  0.014681964  0.014361938         3386 
 3069000     0.768944   -8.3810342    540.42798  0.014674378  0.014355525         3243 
 3070000   0.75627958    -8.398117    540.07171  0.014659927  0.014349118         3305 
 3071000   0.76725581   -8.4013488    539.56687  0.014641454    0.0143427         3272 
 3072000   0.76941183   -8.3814584     539.4504  0.014633529  0.014336274         3296 
 3073000   0.76652444   -8.4219874    539.87933  0.014640398  0.014329861         3370 
 3074000   0.76809658   -8.3985641    540.07166   0.01464085  0.014323451         3302 
 3075000   0.75816931   -8.4221384    538.38711  0.014590437  0.014317038         3311 
 3076000   0.76492344   -8.4039346    539.11027  0.014605285  0.014310632         3241 
 3077000   0.73989423   -8.3964389    539.26168  0.014604639  0.014304232         3379 
 3078000   0.76834475   -8.4001645    539.43969  0.014604713   0.01429783         3307 
 3079000   0.75954633   -8.4262999    539.72879  0.014607795   0.01429143         3264 
 3080000   0.74508673   -8.4158271      539.421  0.014594724  0.014285041         3276 
 3081000   0.75318962   -8.3976607    540.19285  0.014610864   0.01427865         3349 
 3082000   0.75613902   -8.3980746    539.48592  0.014587008  0.014272262         3259 
 3083000   0.74959933   -8.4079569    538.63321  0.014559228  0.014265872         3314 
 3084000   0.75475428   -8.4543965    538.76347  0.014558027  0.014259486         3297 
 3085000   0.75332775    -8.426243    539.56332  0.014574914  0.014253103         3324 
 3086000   0.74883354   -8.4284026      538.961  0.014553926  0.014246717         3331 
 3087000   0.77620649   -8.3963392    539.40216  0.014561121  0.014240337         3239 
 3088000   0.76346448   -8.4317105    539.67186  0.014563684  0.014233966         3325 
 3089000    0.7445351   -8.4091844    540.06736  0.014569638  0.014227591         3365 
 3090000   0.76519977   -8.4203814    539.15393  0.014540289   0.01422122         3386 
 3091000   0.76186461   -8.4256539    538.60921    0.0145209  0.014214842         3396 
 3092000   0.74905086   -8.4320041    539.22137  0.014532702  0.014208457         3366 
 3093000   0.73551935   -8.4401041    539.19338  0.014527249  0.014202076         3378 
 3094000    0.7535313   -8.4332087    539.37005  0.014527312  0.014195711         3275 
 3095000   0.74058305   -8.4319963    539.47068  0.014525328  0.014189342         3401 
 3096000   0.75238353   -8.4476637    539.27547  0.014515382  0.014182981         3403 
 3097000   0.76320505   -8.4284562    538.53618  0.014490802  0.014176607         3402 
 3098000   0.75816754   -8.4177316    538.86559  0.014494986  0.014170249         3288 
 3099000   0.75260204   -8.4252171    539.54713  0.014508635  0.014163892         3362 
 3100000   0.74070364   -8.4493054    538.35346  0.014471867  0.014157518         3460 
 3101000   0.76061708   -8.4315143    539.69334  0.014503207  0.014151165         3307 
 3102000   0.75385739   -8.4042509    538.92435  0.014477873  0.014144802         3343 
 3103000   0.74914861   -8.4338358    539.03267  0.014476116  0.014138448         3304 
 3104000   0.74342628   -8.4255579    537.44161  0.014428737  0.014132099         3334 
 3105000   0.74250854   -8.4328849    538.10879  0.014441997  0.014125736         3380 
 3106000   0.75012673   -8.4353699    538.84107  0.014456994  0.014119379         3417 
 3107000   0.75591007   -8.4093897      539.229  0.014462745  0.014113013         3374 
 3108000   0.76814565   -8.4147571    539.34863    0.0144613  0.014106662         3318 
 3109000   0.74444991   -8.4208923    537.61322  0.014410132  0.014100314         3421 
 3110000   0.76077035   -8.4633569    537.94842  0.014414481  0.014093961         3424 
 3111000   0.76044472   -8.4464365    538.75882  0.014431555  0.014087621         3399 
 3112000   0.76587008   -8.4294359    539.70336  0.014452211  0.014081269         3405 
 3113000   0.74531262   -8.4562912    538.42278  0.014413288  0.014074931         3453 
 3114000   0.75722216   -8.4694131    537.72755  0.014390054  0.014068586         3442 
 3115000   0.76453632   -8.4510557    538.85072  0.014415482  0.014062248         3313 
 3116000   0.75012899   -8.4428232     537.3161  0.014369815  0.014055902         3388 
 3117000   0.76198964   -8.4607252    538.14671  0.014387411   0.01404956         3429 
 3118000   0.75030554   -8.4497246    538.81309  0.014400606  0.014043229         3417 
 3119000   0.74552888   -8.4477939    539.23344   0.01440722    0.0140369         3354 
 3120000   0.75602107   -8.4542479    537.02298  0.014343562  0.014030577         3419 
 3121000   0.77640897   -8.4684886    537.27072  0.014345582  0.014024248         3441 
 3122000   0.75401924   -8.4456671    537.72015  0.014352983   0.01401793         3479 
 3123000   0.73648949   -8.4502934    538.26293   0.01436287  0.014011607         3452 
 3124000   0.75258193   -8.4607354    537.47876  0.014337355  0.014005295         3441 
 3125000   0.76119937   -8.4598066    537.45371  0.014332099  0.013998974         3454 
 3126000   0.75107308   -8.4624155    537.30735  0.014323612  0.013992662         3439 
 3127000     0.755219     -8.44602    537.78745  0.014331826  0.013986346         3444 
 3128000   0.75167722   -8.4600706    538.35672   0.01434241  0.013980042         3404 
 3129000   0.76490732   -8.4734114    538.25207   0.01433504  0.013973748         3350 
 3130000   0.74524863   -8.4509434    538.76044  0.014343995  0.013967447         3322 
 3131000   0.78724674   -8.4685407    537.83568    0.0143148  0.013961153         3373 
 3132000   0.76053582   -8.4582217    537.07107  0.014289886  0.013954862         3439 
 3133000   0.76073805   -8.4635179    537.80598  0.014304872  0.013948566         3449 
 3134000   0.74562785   -8.4432936    538.40153  0.014316144  0.013942282         3421 
 3135000   0.74757294   -8.4396989    538.80488  0.014322299  0.013935997         3406 
 3136000   0.72572337   -8.4928904     536.2532  0.014249925  0.013929711         3490 
 3137000   0.75497538   -8.4691888    538.00097  0.014291812  0.013923422         3433 
 3138000   0.74269197   -8.4291936    537.46838  0.014273114   0.01391713         3389 
 3139000   0.75490568   -8.4477663    537.65459   0.01427351  0.013910852         3427 
 3140000   0.74180921   -8.4776875    538.00249  0.014278198  0.013904581         3472 
 3141000    0.7539965   -8.4591641    537.47585   0.01425968  0.013898304         3415 
 3142000   0.75307714     -8.46563    537.42596  0.014253818  0.013892038         3488 
 3143000   0.77265456   -8.4470016     539.1441  0.014294838  0.013885776         3517 
 3144000   0.75433968   -8.4640934    537.93703  0.014258297  0.013879517         3483 
 3145000   0.74871517   -8.4890911    536.70461  0.014221108  0.013873252         3564 
 3146000   0.74965431   -8.4540183    538.20451  0.014256318  0.013866986         3469 
 3147000    0.7589934   -8.4654117    537.44184  0.014231592  0.013860733         3469 
 3148000   0.75169712   -8.4594222    537.80486  0.014236681  0.013854479         3489 
 3149000   0.75371037   -8.4422361    539.08876  0.014266136  0.013848231         3453 
 3150000   0.75453935   -8.4533231    537.76336  0.014226544  0.013841976         3528 
 3151000   0.74442571   -8.4639979     537.9871  0.014227946   0.01383573         3438 
 3152000   0.74770421   -8.4887577    537.40267  0.014207981  0.013829475         3394 
 3153000    0.7462718   -8.4575326    538.54353  0.014233628  0.013823234         3469 
 3154000   0.74533099   -8.4896926     537.0861  0.014190607  0.013816987         3570 
 3155000   0.75000468   -8.4740556    537.95801  0.014209139  0.013810753         3480 
 3156000   0.75094654   -8.4739733    539.07415  0.014234108  0.013804518         3532 
 3157000   0.74777591   -8.4581509    538.26726  0.014208301  0.013798296         3538 
 3158000   0.73748176   -8.4838107    537.55662  0.014185049  0.013792068         3470 
 3159000   0.75002159   -8.4692071    536.87968  0.014162701  0.013785838         3500 
 3160000   0.72507182   -8.4876159    537.24404  0.014167828  0.013779611         3473 
 3161000   0.74676432   -8.4918597    537.16486  0.014161259  0.013773385         3548 
 3162000   0.74384035   -8.4815691    537.85298  0.014174915  0.013767165         3465 
 3163000   0.76029465   -8.4795474    537.63859  0.014164785  0.013760954         3476 
 3164000   0.75103024   -8.4878926     536.6799  0.014135058  0.013754738         3537 
 3165000   0.73903401   -8.4701194    537.93354    0.0141636  0.013748527         3411 
 3166000    0.7443557   -8.4744041    537.36888  0.014144264  0.013742319         3535 
 3167000   0.74613907   -8.4833098    537.76445  0.014150207  0.013736113         3524 
 3168000   0.75408746   -8.4849047    537.37937  0.014135611  0.013729916         3505 
 3169000   0.74707871   -8.4753804    538.30933  0.014155604  0.013723717         3493 
 3170000   0.74077276   -8.4986116    536.31118  0.014098611  0.013717525         3476 
 3171000   0.75833294   -8.4970104    536.92271  0.014110236  0.013711337         3497 
 3172000   0.75966007    -8.491947     537.0657  0.014109545   0.01370515         3500 
 3173000   0.74661346   -8.4829681    536.25065  0.014083692   0.01369897         3542 
 3174000   0.73205105   -8.4913927    537.47821  0.014111484  0.013692793         3442 
 3175000   0.76523231   -8.5133562    536.95258  0.014093244  0.013686609         3513 
 3176000   0.74604919   -8.4861961    537.87604  0.014113036  0.013680426         3574 
 3177000    0.7313128    -8.503805    537.56725  0.014100494  0.013674245         3551 
 3178000   0.73933306   -8.4817234    538.19601  0.014112545  0.013668061         3478 
 3179000   0.74495607   -8.4967102    537.02126  0.014077311  0.013661891         3567 
 3180000   0.73679531   -8.4769712    537.56132  0.014087037  0.013655722         3425 
 3181000   0.74724411   -8.4755968    537.62178  0.014084192  0.013649556         3427 
 3182000   0.74486777   -8.4682694    536.61903  0.014053505  0.013643399         3494 
 3183000   0.73376624   -8.4831732    537.17739  0.014063708  0.013637245         3518 
 3184000   0.72796686   -8.4850117    537.01207  0.014054964  0.013631087         3548 
 3185000   0.73834364   -8.4921986    536.48749  0.014036826  0.013624932         3519 
 3186000   0.73023959   -8.4828654    538.30233  0.014079889  0.013618772         3541 
 3187000   0.73647422   -8.5144059    536.94699  0.014040032  0.013612619         3543 
 3188000   0.74196682   -8.4911139    537.29448  0.014044711  0.013606467         3531 
 3189000   0.72386877   -8.4963968    536.05769  0.014007988  0.013600329         3553 
 3190000   0.74063156   -8.4753293    538.38422  0.014064374  0.013594194         3545 
 3191000   0.74153083   -8.5054304    536.50942  0.014011005  0.013588058         3556 
 3192000    0.7474246    -8.498851      536.856  0.014015664  0.013581923         3544 
 3193000   0.73552094   -8.5033569    537.37279  0.014024762  0.013575793         3560 
 3194000   0.74199458    -8.488211    536.58336  0.013999775  0.013569658         3555 
 3195000   0.74850802   -8.5114313    535.84644  0.013976172  0.013563526         3572 
 3196000   0.72015653   -8.5136679    535.73954  0.013969012  0.013557404         3545 
 3197000   0.75777361   -8.5082212    536.96297  0.013996532  0.013551278         3513 
 3198000   0.74123352   -8.4961429    536.62325  0.013983303  0.013545165         3559 
 3199000    0.7182605   -8.4852107     537.0029  0.013988822  0.013539059         3495 
 3200000   0.74289397   -8.4906588    536.36383  0.013967808  0.013532945         3553 
 3201000   0.72340765   -8.5037776    536.46344  0.013966038  0.013526838         3576 
 3202000   0.74123231   -8.4779952    537.71678  0.013994295  0.013520734         3497 
 3203000   0.75209285   -8.5118119    536.75114  0.013964802  0.013514641         3522 
 3204000   0.74918262   -8.4787706    538.14704   0.01399675  0.013508548         3540 
 3205000   0.72486322   -8.4926692    536.36745  0.013946112  0.013502458         3522 
 3206000   0.72857411   -8.5034235    536.22514  0.013938063  0.013496361         3603 
 3207000   0.74233901   -8.5287859        536.8  0.013948654  0.013490263         3527 
 3208000   0.73448476   -8.5000333    537.15336  0.013953485  0.013484171         3485 
 3209000   0.73597988   -8.5129422    535.60792  0.013909004  0.013478094         3542 
 3210000   0.73993986   -8.5019403     536.2747  0.013921981  0.013472013         3572 
 3211000   0.73807331   -8.5249122    535.61016  0.013900399  0.013465933         3559 
 3212000   0.73515703   -8.5010481    537.29111  0.013939682  0.013459849         3530 
 3213000   0.75318952   -8.5227574    536.64653  0.013918626  0.013453777         3476 
 3214000   0.73639431   -8.5000805    536.57614   0.01391247  0.013447707         3510 
 3215000   0.73044809   -8.4978435    537.47313  0.013931393  0.013441646         3531 
 3216000   0.73838198   -8.5007822     537.1528   0.01391876  0.013435571         3476 
 3217000   0.71921076   -8.4915909    537.27637  0.013917635  0.013429505         3525 
 3218000   0.73588731   -8.5015156    535.85797  0.013876579  0.013423432         3522 
 3219000   0.73200248   -8.4937259    536.72004  0.013894585   0.01341737         3545 
 3220000   0.72321381   -8.4948582    536.02743  0.013872346  0.013411315         3506 
 3221000   0.73221087   -8.5176895      536.817  0.013888466   0.01340527         3498 
 3222000   0.73322884   -8.5215482      537.698  0.013906942  0.013399222         3505 
 3223000   0.74544368   -8.5103196    535.93375  0.013857011  0.013393173         3490 
 3224000   0.74855856   -8.5153651     536.3407  0.013863231  0.013387127         3408 
 3225000   0.73542277   -8.4957406     536.0851  0.013852328  0.013381084         3453 
 3226000   0.71214264   -8.5274642    537.43163  0.013882818  0.013375044         3470 
 3227000   0.75025682   -8.4984446    536.14291  0.013845236  0.013369011         3456 
 3228000   0.72869749   -8.5196129    536.66983   0.01385455  0.013362974         3537 
 3229000   0.73379386   -8.4844336    536.15395  0.013836945  0.013356942         3500 
 3230000   0.72178026   -8.4856673    536.41951  0.013839513  0.013350913         3505 
 3231000   0.72841561   -8.5142445    535.89628  0.013821734  0.013344877         3573 
 3232000   0.74091813   -8.5103373     535.9617  0.013819144  0.013338859         3459 
 3233000   0.73100456   -8.5321315    535.62186  0.013806111  0.013332837         3457 
 3234000   0.72074879   -8.5185156     536.4322  0.013822722  0.013326816         3438 
 3235000    0.7464394   -8.5273556    535.95876  0.013806254    0.0133208         3535 
 3236000   0.75738678    -8.505172    536.23788  0.013809175  0.013314789         3454 
 3237000    0.7235362   -8.5190726    536.57383  0.013813557  0.013308791         3484 
 3238000   0.74705292   -8.5284604    536.05734  0.013795999  0.013302786         3461 
 3239000   0.73865031   -8.5207106    536.17269  0.013794707  0.013296791         3498 
 3240000   0.73967404   -8.5040317     536.2096  0.013791399  0.013290796         3603 
 3241000   0.73516393   -8.5207897    537.01984  0.013807977  0.013284803         3475 
 3242000   0.73358116   -8.5358574    535.09627  0.013754274  0.013278807         3505 
 3243000   0.74479492   -8.5236191    536.05703  0.013774721  0.013272814         3480 
 3244000   0.74924313   -8.5110573    535.82642   0.01376455  0.013266824         3543 
 3245000   0.71590794   -8.5176271    537.19021  0.013795332  0.013260833         3587 
 3246000   0.73943647   -8.5283595    536.08977   0.01376283  0.013254848         3574 
 3247000   0.72877898   -8.5356514    535.83027  0.013751932  0.013248859         3539 
 3248000    0.7396993   -8.5249902    535.67366   0.01374368  0.013242881         3512 
 3249000   0.71047172   -8.5036109    535.42463  0.013733062  0.013236903         3538 
 3250000   0.73720499   -8.5378977    536.94431  0.013767803  0.013230931         3539 
 3251000   0.72634508   -8.5368633    536.07366   0.01374125  0.013224968         3519 
 3252000   0.73784951   -8.5132644    537.61701  0.013776574  0.013219001         3481 
 3253000   0.74712043     -8.52491    535.61622  0.013721083  0.013213043         3530 
 3254000   0.73572799   -8.5185124    536.96522  0.013751414  0.013207079         3532 
 3255000   0.73677517   -8.5270504     536.0894  0.013724767  0.013201122         3536 
 3256000    0.7445877    -8.542843    536.13979  0.013721841   0.01319517         3534 
 3257000    0.7345788   -8.5354406    535.76635  0.013708074  0.013189219         3501 
 3258000   0.74450688   -8.5138855     534.7878  0.013678837  0.013183273         3509 
 3259000   0.73433185   -8.5273414    536.29377  0.013713148  0.013177325         3516 
 3260000   0.72762121   -8.5218235    536.53894  0.013715208  0.013171389         3526 
 3261000    0.7289152   -8.5455447     534.9579    0.0136706  0.013165444         3530 
 3262000   0.72751221   -8.5420081    535.70168   0.01368541  0.013159512         3545 
 3263000   0.73787638   -8.4976878    535.30049   0.01367097  0.013153582         3539 
 3264000   0.71761703   -8.5225525    536.48606   0.01369705  0.013147655         3545 
 3265000   0.73022091   -8.5464558    536.23415  0.013686425   0.01314173         3570 
 3266000    0.7208959   -8.5311304    536.93069  0.013700007  0.013135816         3533 
 3267000      0.73492   -8.5149075    535.17364  0.013650996  0.013129903         3544 
 3268000   0.72078693      -8.5334    535.63199  0.013658507  0.013123988         3547 
 3269000   0.73891765   -8.5241711    536.20587  0.013668958  0.013118079         3570 
 3270000   0.73670987     -8.53616    536.37858  0.013669179  0.013112164         3523 
 3271000    0.7209637    -8.518574    535.12498  0.013633063  0.013106248         3533 
 3272000   0.72267613   -8.5100233    537.06411  0.013678283  0.013100354         3454 
 3273000   0.74054876   -8.5216414    535.33122  0.013629983  0.013094452         3489 
 3274000   0.72594483   -8.5401821    535.09652  0.013619846  0.013088556         3600 
 3275000    0.7213037   -8.5399811    535.02709  0.013613921  0.013082666         3575 
 3276000   0.73595564   -8.5413565    535.04255  0.013610159  0.013076776         3492 
 3277000   0.73588254   -8.5350003    535.65036  0.013621462  0.013070894         3495 
 3278000    0.7309639   -8.5326117     535.8732  0.013622971  0.013065005         3539 
 3279000   0.72225778   -8.5506971    535.19459   0.01360157   0.01305912         3500 
 3280000   0.71225461   -8.5551733    535.42489  0.013603275   0.01305324         3517 
 3281000   0.71488468   -8.5301281    535.64429  0.013604701  0.013047364         3493 
 3282000   0.72511649   -8.5635183    536.02807    0.0136103  0.013041489         3532 
 3283000   0.73339722   -8.5333289    535.98287  0.013605007  0.013035627         3537 
 3284000   0.74172699   -8.5418619    535.18123  0.013580522  0.013029752         3467 
 3285000   0.73206542   -8.5152726    535.36995  0.013581176  0.013023901         3533 
 3286000   0.73449201   -8.5282152    535.50971  0.013580587  0.013018044         3520 
 3287000   0.72890174   -8.5463548    536.59368  0.013603937  0.013012193         3506 
 3288000   0.72061669   -8.5393257    535.88915  0.013581943  0.013006338         3517 
 3289000   0.73455792   -8.5347233    536.66145  0.013597381  0.013000495         3525 
 3290000   0.73226038   -8.5343685    535.48261  0.013563389  0.012994649         3541 
 3291000   0.73050116   -8.5168929    536.89388  0.013595004   0.01298881         3472 
 3292000    0.7116505    -8.534098    536.55498  0.013582295   0.01298297         3483 
 3293000   0.71037022   -8.5253179     535.4786  0.013550931  0.012977131         3487 
 3294000   0.73344047   -8.5468955    534.25911  0.013515966  0.012971305         3548 
 3295000   0.72827759   -8.5358488    536.18008  0.013560447  0.012965483         3488 
 3296000   0.72701517   -8.5446895    536.03033  0.013552547  0.012959662         3514 
 3297000   0.72707463    -8.546901    536.61547  0.013563226  0.012953837         3504 
 3298000   0.72889085   -8.5416462    535.13469  0.013521697  0.012948009         3521 
 3299000   0.74937073   -8.5494729    535.61816  0.013529811  0.012942181         3578 
 3300000   0.71919439   -8.5205545    535.58261  0.013524813  0.012936364         3518 
 3301000   0.73108717   -8.5322571    536.03079  0.013532031  0.012930555         3538 
 3302000   0.72517154   -8.5435014    536.00709  0.013527334  0.012924747         3548 
 3303000   0.72762055   -8.5516105    535.22074    0.0135034  0.012918938         3482 
 3304000   0.71035196   -8.5250543    534.49686  0.013481055  0.012913133         3505 
 3305000   0.71543362   -8.5420044    535.80903  0.013510061  0.012907338         3506 
 3306000   0.72933834   -8.5464487    535.91806  0.013508723  0.012901538         3627 
 3307000   0.71328544   -8.5296422    535.95991  0.013505693  0.012895754         3486 
 3308000   0.72183501   -8.5324259    535.51551  0.013490415  0.012889962         3513 
 3309000   0.73323199   -8.5649687    534.42354  0.013458838  0.012884178         3509 
 3310000   0.72372519   -8.5429772    535.01064  0.013469553  0.012878396         3563 
 3311000   0.71559016   -8.5315914    536.54359  0.013504067  0.012872606         3489 
 3312000   0.72193083   -8.5331036    535.74123  0.013479802  0.012866828         3467 
 3313000   0.73007091    -8.549305     534.9504  0.013455841  0.012861052         3503 
 3314000   0.73422918   -8.5502461    534.53883  0.013441431  0.012855278         3522 
 3315000   0.73192756   -8.5323023    535.53644  0.013462454  0.012849505         3485 
 3316000    0.7067396   -8.5618906    535.60711  0.013460171   0.01284374         3491 
 3317000   0.71822449   -8.5666239    534.22034  0.013421273  0.012837967         3508 
 3318000   0.73475041   -8.5315607    535.75987  0.013455894  0.012832205         3420 
 3319000   0.72446968   -8.5184592    536.50128  0.013470455  0.012826448         3466 
 3320000    0.7254816   -8.5275055    535.32547  0.013436884  0.012820692         3528 
 3321000   0.71502832   -8.5473813    535.99881  0.013449734  0.012814941         3568 
 3322000   0.71493589   -8.5563182    535.18798  0.013425346  0.012809192         3552 
 3323000   0.71422779   -8.5339683    535.92117  0.013439692  0.012803439         3514 
 3324000   0.72717857   -8.5237635    536.27563  0.013444535  0.012797702         3572 
 3325000   0.72397907   -8.5320401    535.82022  0.013429078  0.012791968         3530 
 3326000   0.71007636   -8.5582472    535.56145  0.013418557  0.012786234         3585 
 3327000    0.7222273   -8.5475956     535.1865  0.013405132  0.012780502         3547 
 3328000   0.72240557    -8.528263    535.54996  0.013410205  0.012774774         3531 
 3329000   0.71632145   -8.5389439    534.45964  0.013378884  0.012769043         3518 
 3330000   0.72103204   -8.5637823    534.78607  0.013383035  0.012763317         3575 
 3331000   0.72486991   -8.5425473    535.13032  0.013387629  0.012757588         3560 
 3332000   0.71576015   -8.5216728    535.68456  0.013397473  0.012751869         3554 
 3333000   0.71792126   -8.5369057    534.98364  0.013375929  0.012746155         3528 
 3334000   0.72761632   -8.5426299     536.2298  0.013403065  0.012740446         3524 
 3335000   0.71392945   -8.5586926    534.98328  0.013367898  0.012734734         3536 
 3336000   0.72969201   -8.5694986    535.43169  0.013375092  0.012729024         3536 
 3337000   0.71798161    -8.532073    535.09026  0.013362558  0.012723323         3509 
 3338000   0.72618477   -8.5609967    534.44381  0.013342416  0.012717617         3563 
 3339000   0.71632357   -8.5128921    535.38539  0.013361919   0.01271192         3523 
 3340000   0.71300734   -8.5374192    536.21033  0.013378501  0.012706232         3552 
 3341000   0.72852501   -8.5731084    535.26106   0.01335082  0.012700541         3542 
 3342000   0.72843285   -8.5576224    535.19702  0.013345228  0.012694849         3600 
 3343000   0.69395054   -8.5480949     535.3304  0.013344561  0.012689163         3568 
 3344000    0.7253189   -8.5480232     534.8074  0.013327537  0.012683481         3576 
 3345000   0.71362669   -8.5613624    534.95611  0.013327257  0.012677795         3561 
 3346000   0.72383715   -8.5308636    535.72285   0.01334237  0.012672113         3496 
 3347000   0.71719257   -8.5545782    536.06947  0.013347014  0.012666434         3558 
 3348000   0.71874355   -8.5501649    535.25975  0.013322873  0.012660757         3503 
 3349000   0.71179211   -8.5435239    535.98343  0.013336902  0.012655084         3536 
 3350000   0.71444488   -8.5698363    534.92092   0.01330649  0.012649414         3568 
 3351000   0.72035485   -8.5634038    535.47952  0.013316411  0.012643754         3562 
 3352000   0.70208045   -8.5636073    535.37569  0.013309857  0.012638095         3480 
 3353000   0.72336146   -8.5324392    534.85422  0.013292927  0.012632447         3587 
 3354000   0.70865786   -8.5436625    535.72044  0.013310486  0.012626796         3525 
 3355000   0.70611652   -8.5484492    535.79895  0.013308469  0.012621145         3544 
 3356000   0.73065564   -8.5424766    534.92953  0.013282914  0.012615497         3557 
 3357000   0.71804366   -8.5601453    534.67501  0.013272639  0.012609847         3555 
 3358000    0.7122219   -8.5423299    536.14604  0.013305192  0.012604205         3549 
 3359000   0.72349514   -8.5384589    535.67629  0.013289578   0.01259857         3503 
 3360000   0.71439834   -8.5468484    534.94681   0.01326753  0.012592936         3581 
 3361000    0.6985933   -8.5503652    536.31424  0.013297487  0.012587303         3566 
 3362000   0.72133327    -8.549003    533.76826  0.013230425  0.012581674         3539 
 3363000   0.70303209   -8.5574117    534.63362  0.013247934  0.012576049         3563 
 3364000   0.72507825    -8.544341    535.09283  0.013255371  0.012570422         3528 
 3365000   0.72143713   -8.5644193    535.17835   0.01325355  0.012564808         3510 
 3366000   0.70710753   -8.5186985    536.08863  0.013272149  0.012559194         3504 
 3367000   0.71340499   -8.5601039    534.21581  0.013221854  0.012553586         3545 
 3368000   0.72251156   -8.5546592    534.91692  0.013235276  0.012547975         3531 
 3369000   0.68872909   -8.5517279    534.73541  0.013226858  0.012542364         3576 
 3370000    0.7060038   -8.5683627     534.9761  0.013228885  0.012536752         3493 
 3371000   0.70354455   -8.5469424    535.98805  0.013249976  0.012531143         3555 
 3372000   0.73112528   -8.5270578    536.20914  0.013251511  0.012525547         3524 
 3373000     0.718086   -8.5582178    534.80677  0.013212935   0.01251995         3576 
 3374000   0.71545351   -8.5489138     534.3571  0.013197913  0.012514347         3543 
 3375000   0.70255692   -8.5598455    535.45504  0.013221112  0.012508763         3497 
 3376000   0.71458483   -8.5723911    534.41622  0.013191554  0.012503171         3577 
 3377000   0.69691064   -8.5406155    535.45205  0.013213208  0.012497583         3471 
 3378000   0.71798402    -8.569545    535.29082  0.013205319  0.012492001         3556 
 3379000   0.71300426   -8.5549652    533.85873  0.013166093  0.012486428         3545 
 3380000   0.70309319   -8.5745609    535.02484  0.013190948  0.012480847         3593 
 3381000   0.71506588   -8.5633877    535.54879   0.01319996  0.012475269         3504 
 3382000   0.70844142   -8.5684641    534.81381  0.013177947  0.012469697         3571 
 3383000   0.70507649    -8.587326     534.2098  0.013159173  0.012464121         3639 
 3384000     0.714101   -8.5495167    534.79195  0.013169621  0.012458551         3546 
 3385000   0.70934275   -8.5747182    534.92401  0.013168981  0.012452989         3502 
 3386000   0.70723559   -8.5668478    535.57764  0.013181178  0.012447426         3575 
 3387000   0.69926166   -8.5658573    534.93587  0.013161497  0.012441866         3508 
 3388000    0.7159466   -8.5821305    534.85861  0.013155712  0.012436313         3488 
 3389000   0.70167406   -8.5627623     534.7027  0.013147996  0.012430758         3593 
 3390000   0.69297038   -8.5733043    533.72122  0.013119991  0.012425216         3608 
 3391000   0.71754763   -8.5433698    534.74798  0.013141354  0.012419667         3558 
 3392000   0.70714348   -8.5610223    534.70967  0.013136539  0.012414131         3585 
 3393000   0.70886946   -8.5825254    534.95283  0.013138639  0.012408587         3597 
 3394000   0.70705625    -8.550195    534.85464  0.013132357  0.012403055         3586 
 3395000   0.71565727   -8.5509307    535.01047  0.013132314   0.01239753         3571 
 3396000   0.71077296   -8.5669442    534.59277  0.013118197  0.012391998         3542 
 3397000    0.7141647   -8.5702655     535.0277  0.013125005  0.012386477         3562 
 3398000   0.72453453   -8.5878812     534.1112  0.013098666  0.012380958         3623 
 3399000   0.71155785   -8.5445595     535.7084  0.013133971  0.012375442         3625 
 3400000   0.70720045   -8.5651792    536.11641  0.013140108  0.012369936         3534 
 3401000   0.70249317   -8.5623949    535.18006  0.013113301  0.012364427         3571 
 3402000    0.7091137   -8.5615241    534.66063  0.013096723  0.012358923         3594 
 3403000    0.7227387   -8.5814362    535.42811  0.013111669  0.012353422         3555 
 3404000   0.70815752   -8.5582983    534.56215  0.013086617  0.012347922         3517 
 3405000   0.72258938   -8.5565144    534.77301  0.013087935   0.01234242         3596 
 3406000   0.70765411   -8.5520193    535.13951  0.013093059  0.012336928         3577 
 3407000   0.70744758   -8.5663362    535.27546  0.013092541  0.012331429         3638 
 3408000   0.70254442   -8.5668801    535.19554  0.013086745  0.012325943         3599 
 3409000   0.70645243   -8.5905857    534.92378  0.013076263  0.012320456         3489 
 3410000   0.71306594   -8.5534609    535.36178  0.013083133  0.012314973         3529 
 3411000   0.70694566   -8.5539947    535.43983  0.013081204    0.0123095         3567 
 3412000   0.70631671   -8.5697127    534.45257  0.013053257  0.012304026         3564 
 3413000   0.70210777   -8.5536893    534.88072  0.013059887  0.012298546         3549 
 3414000    0.6910647   -8.5557648    534.96125  0.013058027  0.012293072         3489 
 3415000   0.70368865   -8.5824875    535.73345  0.013073047    0.0122876         3469 
 3416000   0.70348227   -8.5863926     535.1784  0.013055679  0.012282134         3539 
 3417000   0.72059409   -8.5627012    533.78788  0.013017946  0.012276666         3435 
 3418000   0.71094452   -8.5786684      534.357  0.013028014  0.012271198         3559 
 3419000   0.70824513   -8.5660555     535.1705  0.013044031  0.012265737         3502 
 3420000   0.70778326   -8.5755145    534.99764  0.013036005  0.012260271         3556 
 3421000   0.69856085   -8.5700254    534.86367  0.013028931  0.012254818         3537 
 3422000   0.70057717   -8.5648408    535.32222   0.01303629  0.012249368         3555 
 3423000   0.68246904    -8.600528    534.50255  0.013012527  0.012243918         3492 
 3424000   0.69332091   -8.5784435    534.02444   0.01299709  0.012238474         3551 
 3425000   0.70803826   -8.5687388    534.93419   0.01301543  0.012233033         3520 
 3426000   0.71368142   -8.5662597    534.39068  0.012998411  0.012227591         3537 
 3427000   0.70724923   -8.5685378    533.95398  0.012983999  0.012222151         3560 
 3428000    0.7036533   -8.5437591    536.43405  0.013040501   0.01221672         3503 
 3429000    0.6975681   -8.5624879    534.90718  0.012999591  0.012211292         3547 
 3430000   0.69033169     -8.57192    534.26836  0.012980281  0.012205859         3536 
 3431000   0.71151842   -8.5874802    535.41368  0.013004315  0.012200437         3568 
 3432000   0.69504948   -8.5453842    535.21422  0.012995683  0.012195017         3489 
 3433000   0.71273293   -8.5514449    536.04529  0.013012071    0.0121896         3533 
 3434000    0.7029562    -8.564116    534.86655  0.012979677  0.012184191         3533 
 3435000   0.71525532   -8.5841139    534.08513  0.012956941  0.012178782         3593 
 3436000   0.71576463   -8.5860281    535.40239  0.012985118  0.012173377         3537 
 3437000   0.68932093   -8.5719706    535.84917  0.012992173  0.012167969         3448 
 3438000   0.71407919   -8.5761003    534.81559  0.012963341  0.012162568         3587 
 3439000   0.68914413   -8.5784215    534.41809  0.012949939  0.012157173         3479 
 3440000   0.70310512   -8.5856405    534.50991  0.012948399  0.012151774         3521 
 3441000   0.69801928   -8.5726017    535.23695  0.012962243  0.012146383         3493 
 3442000   0.69868247   -8.5728031    534.95098  0.012951554  0.012140995         3534 
 3443000   0.69087897    -8.581987    534.56357  0.012938415  0.012135606         3515 
 3444000   0.71003823   -8.5855181    534.37316  0.012930051  0.012130227         3598 
 3445000   0.68860577   -8.5818335    535.31744   0.01294914  0.012124849         3542 
 3446000   0.70680262   -8.5901038    534.60243  0.012928091  0.012119471         3545 
 3447000   0.70258144   -8.5650342    534.17235  0.012913943   0.01211409         3596 
 3448000   0.71022919   -8.5661043    534.82424  0.012925953  0.012108714         3505 
 3449000   0.70712431   -8.5747023    535.26056  0.012932748  0.012103344         3591 
 3450000   0.70675293   -8.5647789    535.45479  0.012933691   0.01209798         3568 
 3451000   0.70537847   -8.5585016    534.05702   0.01289619  0.012092622         3561 
 3452000   0.67681022   -8.5579003    534.74976  0.012909177  0.012087262         3573 
 3453000    0.7047633   -8.5824679    533.23296  0.012868833  0.012081906         3583 
 3454000   0.69668891   -8.5834333    535.03901  0.012908681  0.012076558         3491 
 3455000   0.67963381   -8.5952828    534.45414  0.012890838  0.012071212         3531 
 3456000   0.69223535   -8.5823652    533.66442  0.012868066  0.012065861         3551 
 3457000     0.700703   -8.5899799    534.72177  0.012889831  0.012060512         3532 
 3458000   0.69426875   -8.5832817    534.12129  0.012871633  0.012055164         3547 
 3459000   0.70211799   -8.5740764    535.00211  0.012889132  0.012049824         3553 
 3460000   0.68710686   -8.6125521    534.89224  0.012882761  0.012044482         3584 
 3461000   0.71228122   -8.5515935    534.98799  0.012881344  0.012039146         3530 
 3462000   0.70253331   -8.5935845    534.81477  0.012873454  0.012033816         3557 
 3463000   0.70428448   -8.5755608    534.53796  0.012863075  0.012028484         3548 
 3464000   0.70295404   -8.5800732    534.85766  0.012867053  0.012023156         3549 
 3465000   0.68915758   -8.5727592    535.42009  0.012876866  0.012017829         3510 
 3466000   0.68808046   -8.5482954    534.49382   0.01285088  0.012012507         3533 
 3467000   0.68970413   -8.5929012    533.99565    0.0128352  0.012007185         3554 
 3468000   0.70333142   -8.5787109     534.4911  0.012843404  0.012001866         3525 
 3469000   0.68969779   -8.5904061    534.11119  0.012830575  0.011996545         3564 
 3470000   0.70940498   -8.5756036    534.24063  0.012829986  0.011991223         3529 
 3471000   0.69882153   -8.5723218    534.71257  0.012837621  0.011985918         3550 
 3472000   0.70692492   -8.5726427    533.73672  0.012810501  0.011980607         3635 
 3473000   0.69183374   -8.5850939    534.18151  0.012817485  0.011975302         3566 
 3474000   0.69532923   -8.6003605    534.01688  0.012809847  0.011969997         3585 
 3475000   0.69486661   -8.5745212    533.66225  0.012797656  0.011964698         3532 
 3476000   0.71055922   -8.5850346    534.24208  0.012807875    0.0119594         3596 
 3477000   0.69393534   -8.5857888     534.2909  0.012805361  0.011954108         3474 
 3478000   0.70083365   -8.5869888    533.82618  0.012790545  0.011948816         3549 
 3479000   0.69385654   -8.5801886    534.47462  0.012802401  0.011943526         3465 
 3480000   0.69160765   -8.5999962     533.3005  0.012770606  0.011938239         3601 
 3481000   0.68475087   -8.5952592    533.35775  0.012768308   0.01193296         3590 
 3482000   0.71331273   -8.5816174     534.6822  0.012796338   0.01192768         3577 
 3483000   0.69143152   -8.6049707    533.83039  0.012772284  0.011922401         3549 
 3484000   0.67946472   -8.5830401    534.47497  0.012784036   0.01191713         3433 
 3485000   0.69769464    -8.585143    535.21395  0.012798038  0.011911857         3510 
 3486000   0.68335189   -8.5621658    534.83178  0.012785231  0.011906586         3606 
 3487000   0.68724016   -8.5881422    533.83954  0.012757852  0.011901317         3569 
 3488000    0.6730884   -8.5869196     533.8512  0.012754473  0.011896051         3586 
 3489000    0.6785455   -8.5921008    534.76222  0.012772576  0.011890792         3638 
 3490000   0.69982056   -8.5914225    534.12821  0.012753778  0.011885538         3588 
 3491000   0.69760255   -8.6064301    535.15362  0.012774602  0.011880286         3627 
 3492000   0.68861389   -8.5934861    534.05835  0.012744806  0.011875036         3548 
 3493000   0.71688373   -8.5965138    533.92727   0.01273803  0.011869793         3593 
 3494000   0.67462193   -8.5704112    533.62157  0.012727093  0.011864544         3541 
 3495000   0.68162837   -8.5979092    534.24115  0.012738225  0.011859294         3617 
 3496000   0.71048621   -8.5978773    534.49546  0.012740643   0.01185405         3629 
 3497000   0.69805558   -8.5905024    533.69923  0.012718026  0.011848807         3596 
 3498000   0.69545871   -8.5793014     533.6486  0.012713184   0.01184357         3605 
 3499000   0.69458373   -8.5832278     534.9938  0.012741588  0.011838334         3596 
 3500000   0.69653192   -8.5832646    532.70213  0.012683384  0.011833098         3604 
 3501000   0.69655788   -8.5875847    533.77434  0.012705283  0.011827875         3619 
 3502000   0.68705273   -8.5999226    533.63544  0.012698349  0.011822641         3631 
 3503000   0.69539447   -8.5976588    533.71095  0.012696521   0.01181742         3595 
 3504000   0.69374264   -8.6191239    533.16919  0.012680013  0.011812203         3677 
 3505000   0.69348311   -8.6020232     534.3385  0.012704196  0.011806992         3606 
 3506000   0.69735887   -8.6048268    533.96006  0.012691578  0.011801774         3661 
 3507000   0.69349655   -8.5789384    534.36797  0.012697652  0.011796565         3547 
 3508000   0.66983348   -8.6023468    534.43523   0.01269563  0.011791357         3621 
 3509000   0.68192676   -8.5763166    533.94113  0.012680278  0.011786144         3635 
 3510000   0.69588823    -8.596842    533.42578   0.01266443  0.011780939         3581 
 3511000   0.68503257   -8.6058525    533.04847  0.012651867  0.011775738         3601 
 3512000   0.69303013   -8.6138629    533.09743  0.012649426  0.011770531         3603 
 3513000   0.70318443   -8.5676707    533.54199  0.012656371  0.011765332         3523 
 3514000   0.70026088   -8.5964082    534.03712  0.012664512   0.01176014         3607 
 3515000   0.70625489   -8.5855765    534.92127   0.01268187  0.011754949         3615 
 3516000     0.695597   -8.5934806    533.36965  0.012641488  0.011749763         3611 
 3517000   0.69740799   -8.6141444    533.57284  0.012642708   0.01174458         3583 
 3518000   0.69657497   -8.6148766    533.36632  0.012634222  0.011739398         3553 
 3519000   0.69401691   -8.5906577    534.13605   0.01264886  0.011734225         3518 
 3520000   0.69654158   -8.6013948    532.96799  0.012617613  0.011729051         3581 
 3521000   0.68724645   -8.6046703    533.90363  0.012636174  0.011723884         3590 
 3522000   0.68107174   -8.5858272    533.13424  0.012614382   0.01171871         3582 
 3523000   0.70156277    -8.595865    533.88219  0.012628493  0.011713546         3586 
 3524000   0.69891753   -8.6032502    533.54601   0.01261696  0.011708387         3544 
 3525000   0.69791233   -8.5830195    534.64551  0.012639374  0.011703228         3545 
 3526000   0.68976848   -8.6017867    533.30993  0.012604224  0.011698067         3539 
 3527000   0.68612495   -8.6034759    533.44338  0.012603804  0.011692907         3585 
 3528000   0.69585832   -8.6141526    534.31528  0.012620826  0.011687752         3587 
 3529000   0.68787741   -8.5960788    533.78667  0.012604767  0.011682602         3606 
 3530000   0.68165519   -8.6080749    534.68194  0.012622331  0.011677458         3596 
 3531000   0.69362208   -8.5958812    533.85297  0.012599192  0.011672315         3577 
 3532000   0.69045386   -8.5807052    533.64576  0.012590736  0.011667175         3627 
 3533000   0.68509588    -8.609474    533.56568  0.012585284  0.011662044         3601 
 3534000   0.68973804   -8.5996217    533.48213  0.012579752  0.011656902         3591 
 3535000   0.69592381   -8.6075788    533.14997  0.012568363  0.011651769         3621 
 3536000   0.68215697   -8.5981081    534.02486  0.012585427  0.011646633         3568 
 3537000   0.67880388   -8.6162858    533.14299  0.012561092  0.011641507         3525 
 3538000   0.67641887   -8.6029162    532.76424  0.012548621  0.011636384         3583 
 3539000   0.68576508   -8.5831026    533.32644  0.012558313  0.011631259         3605 
 3540000   0.66290578    -8.610216    533.25683  0.012553127  0.011626137         3571 
 3541000   0.67947819   -8.6145983    534.05738  0.012568422  0.011621016         3538 
 3542000    0.6924101   -8.6126793    533.46357  0.012550903  0.011615906         3557 
 3543000   0.68785944   -8.6232735    532.80477  0.012531865  0.011610797         3582 
 3544000    0.6893944    -8.597377    533.81795  0.012552153  0.011605691         3563 
 3545000   0.68653801   -8.5960491      534.625  0.012567583  0.011600589         3577 
 3546000   0.69374324   -8.5956426    534.98662  0.012572538   0.01159549         3518 
 3547000   0.68713786   -8.6101407    534.07932  0.012547677  0.011590389         3503 
 3548000   0.69550827   -8.6110323    533.89838   0.01253989  0.011585295         3513 
 3549000   0.69800655   -8.6294132    533.48912  0.012526747  0.011580199         3612 
 3550000   0.68195258    -8.583479     534.8811  0.012555894   0.01157511         3598 
 3551000   0.68923005   -8.5998735    533.49208  0.012519762  0.011570018         3568 
 3552000   0.68913281   -8.5962403    533.14818  0.012508169  0.011564929         3578 
 3553000   0.67767969   -8.6038586    534.02434  0.012525198  0.011559841         3592 
 3554000   0.67834634   -8.6051213    533.72085  0.012514558  0.011554759         3566 
 3555000   0.69481687   -8.6011027     532.8949  0.012491676  0.011549679         3599 
 3556000   0.68251987    -8.607145    533.10282  0.012493036  0.011544607         3530 
 3557000   0.68712937    -8.592811    534.38781  0.012519628  0.011539534         3590 
 3558000   0.67889778   -8.6213123    533.28488  0.012490277  0.011534459         3551 
 3559000   0.68124851   -8.6217258    533.23558  0.012485613  0.011529388         3634 
 3560000   0.67353833   -8.6069505    533.66526  0.012492164  0.011524325         3655 
 3561000   0.68453786   -8.6049477    533.73309  0.012490244  0.011519259         3602 
 3562000   0.70156189   -8.5998229    533.32492  0.012477188  0.011514206         3553 
 3563000   0.68697448   -8.5914597    533.88144  0.012486702  0.011509149         3552 
 3564000   0.67071131   -8.6028037    533.26192  0.012468713  0.011504091         3614 
 3565000   0.69264545   -8.6048464      533.046  0.012460168  0.011499039         3620 
 3566000   0.68795363   -8.5903633    534.57215  0.012492339  0.011493989         3595 
 3567000   0.68472213   -8.5958005    533.65852  0.012467492  0.011488941         3612 
 3568000    0.6819176   -8.6017085    533.28344  0.012455237  0.011483895         3579 
 3569000   0.69342303    -8.609086    532.87346  0.012442175  0.011478856         3563 
 3570000   0.68485474   -8.6074557    534.13984   0.01246825  0.011473819         3577 
 3571000   0.67676379   -8.6188224    533.55132  0.012451025   0.01146879         3613 
 3572000   0.67625537   -8.6017711    534.03825  0.012458899  0.011463749         3542 
 3573000   0.68587576   -8.6320717    533.72544  0.012448116  0.011458724         3598 
 3574000   0.67565814   -8.6120327    534.06514  0.012452554  0.011453694         3592 
 3575000   0.69260032   -8.6054384    533.34711  0.012432334  0.011448673         3555 
 3576000   0.68372104   -8.6145236    533.06897  0.012422375   0.01144365         3595 
 3577000    0.6794609   -8.6118378    533.32012  0.012424754  0.011438623         3545 
 3578000   0.69565605   -8.6143424    534.03675  0.012437972  0.011433609         3615 
 3579000   0.67071908   -8.6367276    532.55116  0.012399906  0.011428591         3567 
 3580000   0.66900483   -8.6145699     533.8791  0.012427353  0.011423575         3613 
 3581000   0.67145414   -8.6075769    532.84218  0.012399753  0.011418569         3580 
 3582000   0.68061134   -8.6054736    533.01453  0.012400301  0.011413566         3550 
 3583000   0.70612437   -8.6316781    533.43843  0.012406699  0.011408575         3600 
 3584000   0.67555715   -8.6099161    533.28286   0.01239962  0.011403578         3620 
 3585000   0.67474582   -8.5931167     533.1741  0.012393633  0.011398584         3568 
 3586000   0.68288732   -8.6064626    534.10305  0.012411765  0.011393592         3638 
 3587000   0.68657028   -8.5984827    533.26855  0.012388917  0.011388607         3641 
 3588000   0.67569993   -8.6245468    534.08097  0.012404333  0.011383621         3681 
 3589000   0.67594854    -8.613961    533.56619  0.012388924   0.01137864         3593 
 3590000    0.6875104   -8.6223249    531.85961  0.012345859  0.011373661         3563 
 3591000   0.68802663   -8.6272062    532.14918  0.012349141  0.011368683         3623 
 3592000   0.67901359    -8.608263    533.15655  0.012369074  0.011363712         3668 
 3593000   0.67015966   -8.6153571     533.4491  0.012372416  0.011358739         3621 
 3594000   0.68001624   -8.5876109    534.46507  0.012392531  0.011353767         3547 
 3595000   0.67517952   -8.6257705    532.98458  0.012354766  0.011348798         3565 
 3596000   0.67782135    -8.614104    533.26033   0.01235772  0.011343834         3619 
 3597000   0.66428727    -8.626806    532.66901  0.012340585  0.011338869         3602 
 3598000   0.68614255   -8.6189902    532.80559  0.012340319  0.011333904         3592 
 3599000   0.66984152   -8.5991854     533.8302  0.012360614  0.011328946         3599 
 3600000   0.67477211   -8.6391573    532.52614  0.012326994  0.011323995         3595 
 3601000   0.68324136   -8.6064476    533.89975  0.012355358  0.011319043         3611 
 3602000   0.67620176   -8.6191427    533.19774  0.012335687  0.011314094         3593 
 3603000    0.6756182    -8.587577    532.51926  0.012316571  0.011309148         3599 
 3604000   0.67835882   -8.6015347    534.41936  0.012357088  0.011304207         3622 
 3605000   0.66846384   -8.6149297    534.32031  0.012351371  0.011299263         3635 
 3606000   0.68243562   -8.6258546    532.90389  0.012315213  0.011294321         3643 
 3607000   0.67906163   -8.6392166    532.78483  0.012309048  0.011289388         3603 
 3608000   0.66899915   -8.6339889    532.88272  0.012307897  0.011284456         3622 
 3609000   0.68183774   -8.6118084    533.00509  0.012307312  0.011279527         3573 
 3610000    0.6581922   -8.6032367    532.86268  0.012300616  0.011274587         3600 
 3611000   0.67181828   -8.6398848    532.67016  0.012292766  0.011269658         3628 
 3612000   0.67400804   -8.6118982    533.15036  0.012300442   0.01126473         3625 
 3613000   0.67135904   -8.6242997    532.85279  0.012290174  0.011259804         3631 
 3614000   0.67560193   -8.6386434    533.46992  0.012301003  0.011254883         3645 
 3615000    0.6749202   -8.6384014    533.70925  0.012303118  0.011249969         3630 
 3616000   0.67022152   -8.6197465    533.00105  0.012283394  0.011245046         3609 
 3617000   0.69247055   -8.6470682    532.91543  0.012278026  0.011240134         3608 
 3618000   0.67691643   -8.6322322    533.78409   0.01229464  0.011235229         3651 
 3619000   0.67964921    -8.630201    533.71981  0.012289763   0.01123032         3599 
 3620000    0.6731064   -8.5874457    534.05997  0.012294198  0.011225422         3508 
 3621000   0.66449564    -8.606526    533.09088    0.0122685  0.011220525         3580 
 3622000   0.67370917   -8.6402496    532.74345   0.01225712  0.011215634         3588 
 3623000   0.65868902   -8.6230035    533.71712  0.012276132  0.011210738         3609 
 3624000   0.66344034   -8.6216766    532.45477  0.012243717  0.011205846         3586 
 3625000   0.67506001   -8.6299209    532.82765  0.012248912  0.011200956         3637 
 3626000   0.67206923   -8.6328233     533.3031   0.01225646  0.011196068         3553 
 3627000   0.68306295    -8.633507    531.41812  0.012209772  0.011191187         3640 
 3628000   0.67097574    -8.626071    532.77042  0.012237468  0.011186305         3542 
 3629000   0.68525024   -8.6255619     533.5459  0.012251904  0.011181429         3558 
 3630000   0.67458729   -8.6357886     532.7169  0.012229497  0.011176549         3599 
 3631000   0.67572452   -8.6180591    532.45296  0.012220072   0.01117167         3547 
 3632000   0.67865235   -8.6341385    532.94669  0.012228035  0.011166798         3607 
 3633000   0.66059003   -8.6160782    532.97829  0.012225394  0.011161929         3556 
 3634000   0.69224393   -8.6286262    532.10915  0.012202099  0.011157063         3569 
 3635000   0.67705035   -8.6359165    532.18635  0.012200512  0.011152198         3668 
 3636000   0.66730329    -8.635644    532.67312  0.012208313  0.011147333         3587 
 3637000   0.65656568   -8.6471253     532.6285  0.012203934  0.011142471         3555 
 3638000   0.66007776   -8.6211955    533.12437  0.012211938  0.011137615         3619 
 3639000   0.67909502   -8.6453928    534.08355  0.012230548  0.011132762         3656 
 3640000   0.66617005   -8.6015743    533.19738    0.0122069  0.011127915         3581 
 3641000   0.68657035   -8.6285063    532.95084  0.012197904  0.011123072         3634 
 3642000   0.66076975    -8.607338    533.39711  0.012204766  0.011118232         3601 
 3643000   0.67177328   -8.6446487    532.45931  0.012179964  0.011113388         3647 
 3644000   0.66851063   -8.6289738     532.2108  0.012170939  0.011108546         3641 
 3645000   0.66998372   -8.6335141      533.049  0.012186763  0.011103711         3612 
 3646000   0.66449347   -8.6249875    533.03495  0.012183099  0.011098872         3623 
 3647000   0.66199399   -8.6372283    532.65184  0.012171005  0.011094032         3590 
 3648000   0.65695413   -8.6482814     533.2521   0.01218138  0.011089202         3602 
 3649000   0.66598803   -8.6253292    532.88898  0.012169749  0.011084371         3590 
 3650000    0.6701811   -8.6229596    533.05427  0.012170189  0.011079551         3615 
 3651000   0.66169017   -8.6533108     532.8087   0.01216125  0.011074732         3684 
 3652000    0.6764034   -8.6093029    533.10838  0.012164759  0.011069914         3598 
 3653000   0.67100774    -8.650578    531.97092   0.01213548  0.011065102         3590 
 3654000   0.66708394   -8.6403396    531.66941  0.012125283  0.011060288         3634 
 3655000   0.68365013   -8.6186119    532.93433  0.012150806   0.01105548         3593 
 3656000   0.66982999   -8.6325017    532.39068   0.01213509  0.011050673         3618 
 3657000   0.64781661   -8.6480288    533.15948  0.012149291  0.011045866         3641 
 3658000   0.67700975   -8.6452694    532.06023  0.012120927  0.011041062         3618 
 3659000   0.64376159   -8.6174133    532.30766   0.01212325  0.011036266         3599 
 3660000   0.66722146   -8.6489933    533.64561  0.012150401   0.01103147         3640 
 3661000    0.6626575   -8.6283756    533.20653  0.012137088  0.011026671         3572 
 3662000   0.66118437   -8.6280418    532.79729  0.012124461  0.011021879         3592 
 3663000   0.65401456   -8.6446362    532.45066  0.012113265   0.01101709         3574 
 3664000   0.66860266   -8.6532542    532.91264  0.012120466  0.011012296         3641 
 3665000   0.66317775   -8.6446185    532.08787  0.012098406  0.011007515         3659 
 3666000   0.66649234   -8.6322921    532.39001  0.012101973  0.011002734         3561 
 3667000   0.67110336   -8.6564703    532.78226  0.012107587  0.010997957         3630 
 3668000   0.65751177     -8.64741    532.22921  0.012091721  0.010993183         3579 
 3669000   0.67088681   -8.6212555     532.4754  0.012094018  0.010988408         3616 
 3670000   0.66079239    -8.652969    532.73758  0.012096675  0.010983638         3649 
 3671000   0.65845519   -8.6459818    533.31471  0.012106481  0.010978869         3635 
 3672000   0.66745177   -8.6396146    532.45267  0.012083621  0.010974106         3631 
 3673000    0.6726293   -8.6442223    532.84754   0.01208929  0.010969342         3628 
 3674000   0.65326052   -8.6243929    533.17483  0.012093423  0.010964582         3571 
 3675000   0.65100032   -8.6481976    532.77051  0.012080964  0.010959828         3650 
 3676000   0.66923415   -8.6403117    532.53528  0.012072345  0.010955074         3591 
 3677000   0.66694647   -8.6356812    533.15043  0.012083003  0.010950323         3612 
 3678000   0.66455052   -8.6609453    532.16416  0.012057372  0.010945571         3608 
 3679000   0.64920359    -8.625187     533.0892  0.012075048  0.010940823         3633 
 3680000   0.67681074   -8.6407509    532.15506  0.012050613  0.010936079         3622 
 3681000   0.67179984   -8.6566077    532.61906  0.012057843  0.010931338         3661 
 3682000   0.66944425   -8.6292408    531.99794  0.012040511  0.010926596         3550 
 3683000   0.65523778   -8.6669407    532.13118  0.012040257  0.010921856         3627 
 3684000   0.68302129    -8.637264    532.16804  0.012037822  0.010917119         3614 
 3685000   0.67088807   -8.6382575    531.77988  0.012025777  0.010912387         3589 
 3686000   0.65049066   -8.6486391    532.12045  0.012030214  0.010907659         3575 
 3687000   0.65771303   -8.6416909    532.40738  0.012033437  0.010902928         3612 
 3688000   0.65595628      -8.6546    532.77771  0.012038542  0.010898202         3630 
 3689000   0.66190429   -8.6492185    532.91565  0.012038395  0.010893475         3656 
 3690000   0.66093126   -8.6580068    533.60583  0.012050719  0.010888753         3598 
 3691000   0.66986544   -8.6622306    532.95934  0.012032858  0.010884039         3647 
 3692000   0.64833876   -8.6382029    531.62142    0.0119994  0.010879322         3653 
 3693000   0.65441941   -8.6513807    532.87935  0.012024536  0.010874608         3633 
 3694000   0.65365263   -8.6506927    533.37615  0.012032488  0.010869899         3605 
 3695000   0.64024518   -8.6492072      533.273  0.012026906  0.010865195         3614 
 3696000   0.65979349   -8.6360153    532.69683  0.012010661   0.01086049         3608 
 3697000   0.65102486   -8.6471823     533.4794  0.012025052  0.010855782         3617 
 3698000   0.64935882   -8.6413039    532.36515  0.011996691   0.01085108         3578 
 3699000   0.66163772    -8.623929    531.81517  0.011981057  0.010846385         3598 
 3700000   0.65229107   -8.6412784    533.48823  0.012015501  0.010841694         3625 
 3701000   0.66151297   -8.6493555    532.87158  0.011998369     0.010837         3668 
 3702000   0.65725922   -8.6620367    532.24312  0.011980981  0.010832311         3661 
 3703000   0.66233352   -8.6649832    532.51168   0.01198379  0.010827631         3662 
 3704000   0.66208154   -8.6356103    532.93569  0.011990094  0.010822949         3648 
 3705000   0.64583654   -8.6628148    531.63308  0.011957559   0.01081827         3669 
 3706000   0.66082432   -8.6462974    532.14437  0.011965829  0.010813597         3636 
 3707000   0.67019143   -8.6359224    532.82091   0.01197781  0.010808922         3595 
 3708000   0.64650858    -8.654269    532.40346  0.011965198  0.010804247         3671 
 3709000   0.64932139   -8.6626977    532.19053  0.011957188  0.010799577         3620 
 3710000   0.65874572   -8.6694406    531.26554  0.011933188  0.010794913         3641 
 3711000   0.66421525   -8.6458461    532.29617  0.011953116  0.010790248         3636 
 3712000   0.66091403   -8.6526484    532.39466  0.011952107  0.010785585         3681 
 3713000   0.66273522   -8.6254761     532.9736  0.011961882  0.010780927         3651 
 3714000   0.66178756   -8.6546866    531.86682  0.011933827  0.010776274         3576 
 3715000   0.64085888   -8.6657309    532.50838  0.011945006  0.010771623         3637 
 3716000   0.64611136   -8.6546709     532.3553  0.011938359  0.010766969         3573 
 3717000   0.65390641   -8.6482822     531.3477  0.011912557  0.010762321         3637 
 3718000   0.66355745   -8.6599701    532.34108  0.011931618  0.010757674         3641 
 3719000   0.67133581   -8.6628092    531.97533  0.011920214  0.010753033         3660 
 3720000   0.67142174   -8.6584283    532.02717  0.011918171  0.010748396         3643 
 3721000   0.65819338   -8.6593528    532.44878  0.011924411  0.010743767         3686 
 3722000   0.66304635   -8.6454248    531.71997  0.011904889  0.010739133         3665 
 3723000    0.6583746   -8.6580649    531.68087  0.011900816  0.010734498         3625 
 3724000   0.64944541    -8.656345    532.40612   0.01191385  0.010729874         3641 
 3725000   0.65991392   -8.6733305    532.16937  0.011905355   0.01072525         3672 
 3726000   0.65486495   -8.6543941    532.39119  0.011907121  0.010720622         3656 
 3727000   0.65298463    -8.654263    532.71858  0.011911246  0.010715998         3627 
 3728000   0.64392932   -8.6634871    531.38075  0.011878146  0.010711378         3585 
 3729000   0.67699784   -8.6660338    531.20497  0.011871033  0.010706762         3619 
 3730000   0.66882637   -8.6583999     533.4861  0.011918814  0.010702149         3606 
 3731000   0.65437618   -8.6607006    532.50663  0.011893742  0.010697541         3626 
 3732000   0.65766583   -8.6600783    531.87494   0.01187645  0.010692933         3543 
 3733000   0.65438597   -8.6464081    531.28749  0.011860155   0.01068833         3591 
 3734000   0.66189489   -8.6536031    531.86383  0.011869841  0.010683727         3606 
 3735000    0.6682605   -8.6639393    532.07318  0.011871334  0.010679123         3603 
 3736000   0.65350028   -8.6555563    532.78448  0.011884022  0.010674525         3651 
 3737000   0.67303776   -8.6609562    532.37262  0.011871658  0.010669926         3607 
 3738000   0.64542742   -8.6625026    533.39938  0.011891372  0.010665333         3580 
 3739000   0.66483906    -8.654039    533.26221  0.011885134  0.010660738         3614 
 3740000   0.66824707   -8.6535681     533.0956  0.011878244  0.010656152         3641 
 3741000   0.66877964   -8.6623366    532.26079  0.011856473   0.01065157         3596 
 3742000   0.65778904   -8.6610125    532.46692  0.011857895  0.010646991         3711 
 3743000   0.65244546   -8.6624264    531.95665  0.011843366  0.010642407         3652 
 3744000   0.64942294   -8.6640684    531.03935  0.011819786  0.010637831         3676 
 3745000   0.66435006   -8.6661622    531.85656  0.011834815  0.010633252         3592 
 3746000   0.66425879   -8.6779942      531.679  0.011827705  0.010628681         3654 
 3747000   0.65094538   -8.6769651    532.44655  0.011841619  0.010624106         3689 
 3748000    0.6740963   -8.6498879    532.46417  0.011838851   0.01061954         3618 
 3749000   0.65682862   -8.6714236    531.90691  0.011823306  0.010614975         3635 
 3750000   0.66324532   -8.6666871    531.57065  0.011812681  0.010610411         3601 
 3751000   0.66660315   -8.6632588    531.24881  0.011802382  0.010605848         3613 
 3752000   0.65703352   -8.6475657    532.98498  0.011837797   0.01060129         3600 
 3753000    0.6577277   -8.6918869    531.60563  0.011804015  0.010596737         3662 
 3754000   0.65821047   -8.6688039    532.13339  0.011812586   0.01059218         3679 
 3755000   0.65575777   -8.6586657    531.79653  0.011801965   0.01058763         3636 
 3756000   0.65043853   -8.6485724    531.99364  0.011803196  0.010583082         3571 
 3757000   0.63370452   -8.6822088    531.91752  0.011798366  0.010578534         3614 
 3758000   0.66214147   -8.6712202    531.92759  0.011795449  0.010573988         3638 
 3759000   0.64025701   -8.6862124    532.16188  0.011797505  0.010569447         3695 
 3760000   0.64865293   -8.6477833    531.99968  0.011790773  0.010564909         3617 
 3761000   0.64384612   -8.6905514    532.18799   0.01179181  0.010560371         3649 
 3762000    0.6593172   -8.6715198    532.55573  0.011796822  0.010555838         3661 
 3763000   0.64321682   -8.6960591    531.13276  0.011762175    0.0105513         3653 
 3764000   0.65933527   -8.6686952    531.63366  0.011770139  0.010546768         3619 
 3765000   0.63661108   -8.6679588    531.92593  0.011773482  0.010542241         3636 
 3766000   0.66063899   -8.6590755    532.22496  0.011776973  0.010537715         3620 
 3767000   0.65444404   -8.6750726    531.61909  0.011760444   0.01053319         3636 
 3768000   0.65474977   -8.6436029    533.99726  0.011809918  0.010528671         3651 
 3769000   0.65352918   -8.6459369    532.91282  0.011782808  0.010524159         3651 
 3770000   0.64936716   -8.6469795    532.07006  0.011761053  0.010519644         3653 
 3771000    0.6594387   -8.6469316    532.10417  0.011758688  0.010515137         3612 
 3772000   0.64999586   -8.6599112    531.36792  0.011739305  0.010510624         3679 
 3773000    0.6555966   -8.6773102    530.62477   0.01171978  0.010506114         3652 
 3774000   0.63841407   -8.6730091    532.17569  0.011750921  0.010501609         3629 
 3775000   0.63361678   -8.6623296    531.71539  0.011737647  0.010497106         3635 
 3776000   0.64781622   -8.6860439    531.25288  0.011724331  0.010492606         3639 
 3777000   0.65243321    -8.647644    532.44683  0.011747569   0.01048811         3678 
 3778000   0.64944485   -8.6898211    530.80277  0.011708196  0.010483612         3655 
 3779000   0.64358545   -8.6764553    532.65508  0.011745944   0.01047912         3608 
 3780000   0.64249182   -8.6762789    532.46155   0.01173857  0.010474629         3613 
 3781000   0.64395692   -8.6602802    532.02025  0.011725739   0.01047014         3589 
 3782000   0.65115091   -8.6737847    531.58801  0.011713115  0.010465655         3625 
 3783000      0.64257   -8.6757287    531.82309  0.011715197  0.010461167         3613 
 3784000   0.63725394   -8.6546695    530.88907  0.011691532  0.010456684         3657 
 3785000   0.65481145   -8.6815607    531.59323  0.011703946   0.01045221         3662 
 3786000   0.66008232   -8.6644652    532.21249  0.011714485  0.010447734         3598 
 3787000   0.64438898   -8.6546881    531.79941  0.011702302   0.01044326         3644 
 3788000   0.63872226   -8.6626429    530.93801  0.011680262  0.010438788         3618 
 3789000   0.66203405   -8.6787461    531.17516  0.011682395  0.010434321         3675 
 3790000   0.64771117   -8.6887289     532.5956  0.011710545  0.010429855         3620 
 3791000   0.64311083   -8.6637729     531.8194  0.011690394  0.010425392         3679 
 3792000   0.63309457   -8.6621371    531.80777  0.011687055  0.010420929         3658 
 3793000   0.63999586   -8.6750635    531.40902  0.011675213  0.010416473         3671 
 3794000   0.65982778   -8.6755408     532.6069  0.011698447  0.010412021         3619 
 3795000   0.63030864   -8.6723796    531.97468  0.011681482  0.010407568         3620 
 3796000    0.6475773   -8.6735267    531.55884  0.011669276  0.010403114         3668 
 3797000   0.64202099   -8.6782567    531.64163  0.011668019  0.010398663         3634 
 3798000    0.6437928   -8.7009649    531.42793  0.011660258  0.010394219         3634 
 3799000   0.65019372   -8.6827132    531.49984  0.011658766  0.010389776         3659 
 3800000   0.64940987    -8.686433    530.45981  0.011632891  0.010385332         3658 
 3801000   0.65083853   -8.6877645    531.56888  0.011654145  0.010380895         3688 
 3802000   0.63553136   -8.6722032    531.51577  0.011649916  0.010376466         3668 
 3803000   0.65659022    -8.678486    531.60736   0.01164886  0.010372038         3647 
 3804000   0.63643977   -8.6764408    532.26489  0.011660202  0.010367605         3593 
 3805000   0.65621195   -8.6725976    532.00266  0.011651394  0.010363181         3656 
 3806000   0.65815229   -8.6903202    531.31213  0.011633214  0.010358754         3643 
 3807000   0.64712211   -8.6620787    530.78631  0.011618648   0.01035433         3682 
 3808000   0.62903356   -8.6742613    531.00392  0.011620359  0.010349911         3663 
 3809000    0.6310842   -8.6795693    531.20868  0.011621788  0.010345491         3664 
 3810000   0.65513056   -8.6700592    532.16768  0.011639713  0.010341073         3659 
 3811000   0.63199107    -8.690457    531.50233   0.01162211  0.010336658         3634 
 3812000   0.64886284   -8.6870727    531.81404  0.011625875  0.010332246         3685 
 3813000   0.63940055   -8.6681077    531.28315  0.011611224  0.010327838         3692 
 3814000   0.64292972   -8.6816177    531.96848  0.011623153  0.010323433         3620 
 3815000   0.63577058   -8.6824039    531.92043  0.011619057  0.010319026         3584 
 3816000   0.64242368   -8.6779148    531.10295   0.01159816  0.010314625         3675 
 3817000    0.6279922   -8.6878286    531.87347  0.011611944  0.010310226         3639 
 3818000   0.65653242   -8.6799524     532.4698  0.011621918  0.010305829         3637 
 3819000    0.6438233   -8.6882092    530.26615   0.01157079  0.010301437         3610 
 3820000   0.66025924   -8.6911123    530.53714  0.011573672  0.010297044         3684 
 3821000   0.64111039   -8.6926735    531.21611  0.011585451  0.010292652         3647 
 3822000   0.64958454   -8.6773069    531.74115  0.011593868  0.010288266         3624 
 3823000   0.62768902   -8.6908345    532.03243  0.011597184  0.010283888         3674 
 3824000   0.64863817   -8.6883224    530.77976  0.011566853  0.010279506         3663 
 3825000   0.63351105   -8.6775068    531.85655  0.011587289  0.010275131         3626 
 3826000   0.63648443   -8.7091206    531.77907  0.011582572   0.01027075         3643 
 3827000   0.63237266   -8.6891852    531.85231  0.011581141  0.010266376         3640 
 3828000   0.64084999   -8.6750907    531.83429  0.011577723  0.010262004         3658 
 3829000   0.63757296   -8.6993689    530.61798  0.011548228   0.01025763         3672 
 3830000   0.64976051   -8.7090579     530.7559  0.011548214  0.010253263         3655 
 3831000   0.64535887   -8.6921311    532.05485  0.011573454  0.010248894         3636 
 3832000   0.64809809   -8.7018936    531.40273  0.011556253  0.010244531         3654 
 3833000    0.6297152   -8.6958122    532.48171  0.011576696  0.010240172         3658 
 3834000   0.63328398   -8.6940669    531.57758  0.011554025  0.010235815         3639 
 3835000   0.63344427   -8.6668149    531.75211  0.011554805  0.010231462         3644 
 3836000   0.63546657   -8.6871393    531.79447  0.011552713  0.010227105         3595 
 3837000   0.63224524   -8.6746989    532.32805   0.01156129  0.010222757         3615 
 3838000   0.62739339   -8.6804006    530.71368  0.011523226  0.010218408         3602 
 3839000    0.6473707   -8.6803147    530.78789  0.011521835  0.010214067         3604 
 3840000   0.63386775    -8.723712     530.3883  0.011510163  0.010209717         3683 
 3841000    0.6279879   -8.6793723    531.27985  0.011526509   0.01020537         3629 
 3842000   0.63482122   -8.6850296    530.81039  0.011513326  0.010201027         3667 
 3843000   0.65537323   -8.6917292    531.53294  0.011525998   0.01019669         3655 
 3844000   0.64319404   -8.7032134    532.24885   0.01153852  0.010192348         3666 
 3845000   0.63340078   -8.6913125     531.3004  0.011514963  0.010188007         3628 
 3846000   0.64025069   -8.6996972    531.26397   0.01151118  0.010183674         3646 
 3847000   0.61098172    -8.688062    531.83204  0.011520493  0.010179341         3638 
 3848000   0.64439417   -8.7008977     530.5531  0.011489802  0.010175007         3680 
 3849000   0.64923558   -8.7168941    530.99238  0.011496328   0.01017068         3658 
 3850000   0.64049364   -8.6958643     531.1338  0.011496403  0.010166352         3708 
 3851000   0.62171928   -8.6878886    531.89444  0.011509877  0.010162029         3630 
 3852000   0.63754039   -8.7088135    530.71975  0.011481476  0.010157712         3678 
 3853000   0.63023139   -8.6976276    530.94498  0.011483367  0.010153392         3647 
 3854000   0.63618367   -8.6891115    532.33226  0.011510384  0.010149074         3657 
 3855000   0.63261633   -8.6922752    531.10141  0.011480791  0.010144763         3706 
 3856000   0.63508955   -8.6896971    531.05158  0.011476737  0.010140452         3640 
 3857000   0.63756282   -8.6961253     531.5612  0.011484772  0.010136142         3678 
 3858000   0.63381193   -8.6926228    531.33665  0.011476945  0.010131834         3672 
 3859000   0.63051548   -8.7000842    530.61511   0.01145839  0.010127527         3610 
 3860000   0.63503514   -8.6743638    531.14044  0.011466763  0.010123221         3622 
 3861000   0.62986208   -8.7051856    531.33702  0.011468035  0.010118926         3647 
 3862000   0.62881139   -8.6910088    532.34589  0.011486835  0.010114633         3659 
 3863000   0.63172133   -8.7027646    530.90043   0.01145268  0.010110338         3662 
 3864000   0.63866104    -8.679102    532.08667  0.011475299  0.010106051         3665 
 3865000    0.6354762   -8.7191044     530.3268  0.011434385  0.010101761         3661 
 3866000   0.62538005   -8.6863029    531.47803  0.011456243  0.010097475         3649 
 3867000   0.63521581    -8.699526    530.76123  0.011437834   0.01009319         3634 
 3868000   0.62692091   -8.7052264    530.99395   0.01143989  0.010088908         3625 
 3869000   0.64079582   -8.6850266    531.67135  0.011451524  0.010084631         3644 
 3870000   0.62988708    -8.680315     532.0161  0.011455988  0.010080356         3698 
 3871000   0.63273121   -8.6834574    531.54823  0.011442957  0.010076084         3668 
 3872000   0.63252412   -8.7088189    531.41532  0.011437141  0.010071816         3623 
 3873000   0.63122054   -8.6998644    531.45147  0.011434966  0.010067542         3651 
 3874000   0.63246181   -8.7059488    530.76799  0.011417312  0.010063275         3656 
 3875000   0.64322304   -8.6838745    531.42413  0.011428476  0.010059011         3677 
 3876000   0.63407205   -8.7027493    530.89809  0.011414218  0.010054752         3679 
 3877000   0.63161791   -8.7253182    530.21243  0.011396536  0.010050484         3648 
 3878000   0.63111119   -8.6942772    530.31366  0.011395772  0.010046222         3673 
 3879000   0.63140577   -8.7354725    530.18667  0.011390106  0.010041961         3633 
 3880000    0.6310636   -8.7086283    531.78598   0.01142152  0.010037703         3642 
 3881000   0.63889512   -8.7053341    531.42596  0.011410847   0.01003345         3640 
 3882000   0.63386204   -8.6990287    531.42948  0.011407983  0.010029199         3677 
 3883000   0.62349013   -8.7138272    530.08622  0.011376217  0.010024945         3646 
 3884000   0.63354221   -8.6788682     530.9404  0.011391615  0.010020701         3649 
 3885000   0.62330185   -8.7071068    531.14207  0.011393009  0.010016461         3649 
 3886000   0.62116919   -8.6956233    531.19666  0.011391248  0.010012224         3610 
 3887000   0.62883401   -8.7145261    530.20898  0.011367142  0.010007986         3636 
 3888000   0.64672969   -8.7184391    531.07145  0.011382704   0.01000375         3651 
 3889000   0.63131458   -8.6995252     530.6755  0.011371293 0.0099995163         3588 
 3890000   0.61167332   -8.7154724    530.63768   0.01136756 0.0099952848         3607 
 3891000     0.623612   -8.7084671    530.23711  0.011356059 0.0099910553         3670 
 3892000   0.63169375   -8.7037033    530.71248   0.01136332 0.0099868258         3644 
 3893000   0.63079734   -8.7139599    531.66168  0.011380719    0.0099826         3597 
 3894000   0.63070596   -8.7103083    530.79322  0.011359211 0.0099783773         3677 
 3895000   0.62636287   -8.6945524    530.22494  0.011344136  0.009974153         3643 
 3896000   0.62497824   -8.7061447    531.14266  0.011360854 0.0099699373         3634 
 3897000   0.62326185   -8.6957749    530.88102  0.011352344 0.0099657203         3629 
 3898000   0.61418992   -8.7097936    531.63203  0.011365487 0.0099615076         3665 
 3899000   0.63831378   -8.6980979     530.9742  0.011348512 0.0099572961         3629 
 3900000   0.63090462   -8.7017262    530.56846  0.011336933 0.0099530834         3622 
 3901000   0.64005494   -8.7161395    531.17656  0.011347017 0.0099488755         3662 
 3902000   0.61598265   -8.7017715    531.18862  0.011344366  0.009944675         3654 
 3903000   0.62447105   -8.7173686    531.31088   0.01134407 0.0099404762         3672 
 3904000   0.62595724   -8.7282005    531.71614  0.011349815 0.0099362747         3702 
 3905000   0.62060898   -8.7053456        530.7  0.011325224 0.0099320788         3689 
 3906000   0.63708961   -8.7068472    531.52441  0.011339913 0.0099278799         3694 
 3907000    0.6342019   -8.6973555    530.85504  0.011322734 0.0099236866         3633 
 3908000   0.62335947   -8.7207423    531.13066  0.011325713 0.0099194976         3649 
 3909000   0.60116915   -8.7046318    530.91469  0.011318212 0.0099153109         3679 
 3910000   0.61983797   -8.7032698     530.2913  0.011302031 0.0099111257         3651 
 3911000   0.63771004   -8.7035215    529.79135  0.011288489 0.0099069424         3659 
 3912000   0.62911587   -8.7043454    531.41075    0.0113201  0.009902759         3636 
 3913000   0.62680287   -8.7223847    530.98082  0.011308051 0.0098985821         3667 
 3914000   0.62455535   -8.7178968    529.73296  0.011278593 0.0098944029         3694 
 3915000   0.61145701   -8.7265838    530.31864  0.011288179 0.0098902283         3616 
 3916000   0.61679901   -8.6969287    530.41348  0.011287314 0.0098860592         3626 
 3917000   0.61930009   -8.7188398    530.51687  0.011286632 0.0098818892         3672 
 3918000   0.62740855   -8.7124528    531.39212  0.011302368  0.009877718         3631 
 3919000   0.64024465   -8.7072203     531.1277  0.011293861 0.0098735519         3619 
 3920000   0.62350803   -8.7227439    531.01659  0.011288618 0.0098693901         3690 
 3921000   0.62384333   -8.7043865    531.82604  0.011302942 0.0098652319         3644 
 3922000   0.61908727    -8.687037    530.35151   0.01126873 0.0098610741         3669 
 3923000    0.6112179   -8.7148709    530.36173  0.011266075 0.0098569187         3713 
 3924000   0.62196278   -8.7282442    530.49462  0.011266026 0.0098527605         3677 
 3925000   0.61721745   -8.7250431    530.96511  0.011273145  0.009848607         3612 
 3926000    0.6410413   -8.7056255    531.57833  0.011283289 0.0098444569         3681 
 3927000   0.61365627   -8.7021144    531.11414  0.011270566 0.0098403101         3641 
 3928000   0.62247871   -8.6980506    530.73446  0.011259641 0.0098361603         3702 
 3929000   0.62795692   -8.7207117    530.40505  0.011249789 0.0098320181         3633 
 3930000   0.62197526    -8.717338    530.95144  0.011258512 0.0098278779         3635 
 3931000   0.62183684   -8.7222131    531.19853  0.011260886 0.0098237392         3637 
 3932000   0.60754927   -8.7068987    531.59807   0.01126649 0.0098196032         3662 
 3933000   0.61536042   -8.7319297    531.42148  0.011259884 0.0098154712         3681 
 3934000   0.62421155   -8.7109022    530.48117  0.011237103  0.009811335         3665 
 3935000    0.6219084   -8.7123108    530.47104  0.011234033 0.0098072049         3644 
 3936000   0.61168377   -8.7229169     530.6522  0.011235014  0.009803076         3648 
 3937000   0.63179732   -8.7221941    530.76894  0.011234632 0.0097989534         3617 
 3938000   0.63300423   -8.6920229    531.17477  0.011240367 0.0097948316         3635 
 3939000   0.61142687   -8.7296595    529.77508  0.011207901 0.0097907111         3636 
 3940000   0.62159313   -8.7335587    530.37699  0.011217787 0.0097865908         3730 
 3941000   0.60782473   -8.7219983     531.2697  0.011233818 0.0097824752         3665 
 3942000   0.62235555   -8.7230597      531.075  0.011226852 0.0097783621         3671 
 3943000   0.62246519   -8.7158995    531.12508  0.011225063 0.0097742517         3624 
 3944000    0.6279917    -8.715269    531.67714  0.011233881 0.0097701455         3670 
 3945000   0.61140126   -8.7178403    530.88205  0.011214238 0.0097660422         3626 
 3946000   0.61480394    -8.725429    531.56337  0.011225785 0.0097619402         3654 
 3947000   0.62020537   -8.6941944    530.76892  0.011206168 0.0097578393         3668 
 3948000    0.6224404   -8.7252511    530.54059  0.011198509 0.0097537424         3650 
 3949000   0.61608102    -8.707945    530.76183  0.011200342 0.0097496502         3654 
 3950000   0.62444029   -8.7048817    531.21796   0.01120713 0.0097455554         3649 
 3951000   0.61897014   -8.7058567    531.20013  0.011203917 0.0097414632         3637 
 3952000   0.61644935   -8.7212875    529.75536  0.011170617 0.0097373741         3698 
 3953000   0.61249364   -8.7136613    530.54942  0.011184531 0.0097332822         3673 
 3954000   0.61334569   -8.7158256    530.96328  0.011190425  0.009729194         3681 
 3955000   0.62346231   -8.7224696    530.67498  0.011181521 0.0097251087         3648 
 3956000   0.62356678   -8.7116368     530.4797  0.011174581 0.0097210292         3641 
 3957000   0.61083685   -8.7167755     530.5252  0.011172715 0.0097169481         3595 
 3958000    0.6210262    -8.695436    531.14702  0.011182984 0.0097128709         3603 
 3959000   0.61111007   -8.6866498    530.19331  0.011160085 0.0097087936         3670 
 3960000   0.62866359   -8.7277563    530.37521  0.011161095 0.0097047207         3674 
 3961000   0.61631983   -8.7317484    530.66699  0.011164415 0.0097006476         3606 
 3962000    0.6115642   -8.7401755    530.19719  0.011151716 0.0096965799         3620 
 3963000   0.62133357   -8.7409567    530.00239  0.011144806 0.0096925129         3646 
 3964000   0.63108703   -8.7109689    530.63513  0.011155296 0.0096884533         3616 
 3965000   0.61038593   -8.7184859    530.78783  0.011155692 0.0096843904         3667 
 3966000   0.61922012   -8.7227882    530.88018   0.01115482 0.0096803316         3631 
 3967000    0.5984592   -8.7376688    530.67405  0.011147678 0.0096762736         3604 
 3968000   0.61975486   -8.7447148    530.70252  0.011145466 0.0096722178         3645 
 3969000   0.61938286   -8.7141364    530.70561  0.011142723 0.0096681683         3613 
 3970000   0.60644436   -8.7389205    529.56885  0.011116055 0.0096641224         3660 
 3971000   0.60702411   -8.7348791    529.88103  0.011119807 0.0096600705         3595 
 3972000   0.63328349   -8.7375047    530.61655  0.011132439 0.0096560225         3651 
 3973000   0.61556338   -8.7355163    529.52488  0.011106739  0.009651976         3631 
 3974000    0.6064085   -8.7154623    529.60399  0.011105603 0.0096479319         3654 
 3975000   0.61035572   -8.7444194    529.67481  0.011104294 0.0096438937         3636 
 3976000    0.6148992   -8.7169493    529.86624  0.011105513  0.009639852         3635 
 3977000   0.62281167   -8.7321271    530.37296  0.011113338 0.0096358145         3643 
 3978000   0.60757932   -8.7209754    530.20805   0.01110709 0.0096317829         3658 
 3979000   0.61028655   -8.7424822    529.66795  0.011092987   0.00962775         3669 
 3980000   0.61140878   -8.7383021    529.73351  0.011091573 0.0096237189         3689 
 3981000   0.61571804   -8.7336396     531.2015  0.011119516 0.0096196912         3627 
 3982000   0.62126204   -8.7308849     530.3672  0.011099263 0.0096156666         3656 
 3983000   0.62149372   -8.7256918    530.29089   0.01109488 0.0096116433         3657 
 3984000   0.60987804   -8.7203454      530.638  0.011099356 0.0096076221         3621 
 3985000   0.60013934   -8.7244078    530.15999  0.011086575 0.0096036027         3636 
 3986000   0.61636396   -8.7389189    530.30565  0.011086838 0.0095995868         3628 
 3987000    0.6121985   -8.7442062    529.11067  0.011059081  0.009595572         3662 
 3988000   0.62546479   -8.7250867    529.57911  0.011066096 0.0095915615         3650 
 3989000   0.60149928    -8.716955    530.33068  0.011079023  0.009587547         3643 
 3990000   0.61497183    -8.737102    529.18793   0.01105238 0.0095835378         3633 
 3991000   0.60371267   -8.7381182    529.59144  0.011058036 0.0095795314         3609 
 3992000   0.60623483   -8.7260504    530.17695  0.011067488 0.0095755274         3646 
 3993000   0.61683998   -8.7367141    530.25593  0.011066365 0.0095715244         3641 
 3994000   0.60945129   -8.7360717     529.9868  0.011057979  0.009567525         3680 
 3995000   0.61699339   -8.7408117    530.33293  0.011062431 0.0095635265         3632 
 3996000    0.6092199   -8.7122718    529.72854  0.011047058 0.0095595299         3622 
 3997000   0.61351594   -8.7165526    530.03515  0.011050687 0.0095555363         3613 
 3998000   0.61477367   -8.7266726    529.02814  0.011026933 0.0095515465         3688 
 3999000   0.62101483   -8.7162632    530.03698  0.011045198 0.0095475615         3643 
 4000000   0.60076501   -8.7349569    530.12428  0.011044256 0.0095435793         3627 
 4001000   0.61546613   -8.7442421    530.39916  0.011047221 0.0095395961         3634 
 4002000   0.61138189   -8.7474741    530.31445  0.011042696 0.0095356133         3647 
 4003000   0.60993804   -8.7426003    529.44879  0.011021917 0.0095316367         3674 
 4004000   0.62046906   -8.7231874    529.68317  0.011024042 0.0095276582         3661 
 4005000   0.59748289   -8.7258083    530.04495  0.011028817 0.0095236882         3644 
 4006000   0.61139034   -8.7424313     530.3514  0.011032439 0.0095197186         3613 
 4007000   0.60807548    -8.729199    529.76435  0.011017477 0.0095157531         3609 
 4008000   0.60562603   -8.7289258    530.83156  0.011036917 0.0095117856         3622 
 4009000   0.61881869   -8.7378589    530.06224  0.011018173 0.0095078223         3651 
 4010000   0.60585145   -8.7372348    529.93863  0.011012856 0.0095038587         3663 
 4011000   0.62040382   -8.7236138    530.72305  0.011026408 0.0094998962         3632 
 4012000   0.61785378   -8.7214796    530.85853  0.011026473 0.0094959352         3670 
 4013000   0.58483298   -8.7425795    530.01791  0.011006269 0.0094919721         3644 
 4014000    0.6170927   -8.7254506    530.49188  0.011013367 0.0094880165         3630 
 4015000   0.61732112   -8.7564432     530.1192  0.011002889 0.0094840615         3670 
 4016000   0.60077578     -8.74041    529.78106  0.010993133 0.0094801075         3649 
 4017000   0.61235302    -8.749664    530.35677  0.011002339 0.0094761548         3662 
 4018000   0.60008036   -8.7576188    530.05199   0.01099328 0.0094722062         3666 
 4019000   0.59696548   -8.7208256     530.0004  0.010989475  0.009468259         3647 
 4020000   0.61239612   -8.7426399    530.22355  0.010991367 0.0094643182         3678 
 4021000   0.60615548   -8.7236612    528.95629   0.01096237 0.0094603759         3626 
 4022000   0.59935788   -8.7431498    529.11432  0.010962919 0.0094564328         3630 
 4023000   0.61441667   -8.7383581    529.21703  0.010962321 0.0094524948         3628 
 4024000   0.60188111   -8.7472959    529.21896  0.010959637 0.0094485608         3660 
 4025000    0.6185895   -8.7448553    529.36049  0.010959845 0.0094446291         3645 
 4026000   0.61181393   -8.7351101    529.74636  0.010965109  0.009440698         3648 
 4027000   0.59903431   -8.7420722     530.5331  0.010978667 0.0094367714         3646 
 4028000   0.59890568   -8.7469287    530.44302  0.010974078 0.0094328455         3655 
 4029000   0.60041843   -8.7370903    529.40146  0.010949811  0.009428923         3711 
 4030000   0.60923395   -8.7535813    529.88884  0.010957172 0.0094250044         3625 
 4031000   0.59892329   -8.7386886    530.17202  0.010960308 0.0094210868         3666 
 4032000   0.60521012   -8.7403356    530.52345  0.010964853 0.0094171699         3612 
 4033000   0.61496554   -8.7460675    529.17696  0.010934312  0.009413253         3646 
 4034000   0.60807236   -8.7486556    530.53802  0.010959718 0.0094093411         3706 
 4035000   0.60425185   -8.7430738    529.87605   0.01094333 0.0094054264         3641 
 4036000   0.60793243   -8.7339091    529.94694  0.010942082 0.0094015168         3657 
 4037000   0.60904457   -8.7422886    529.70644  0.010934408 0.0093976121         3637 
 4038000   0.59237386   -8.7408663    530.84076  0.010955109 0.0093937082         3610 
 4039000   0.60296439   -8.7403655    530.70485  0.010949592 0.0093898064         3662 
 4040000   0.60235631   -8.7338032    530.08647  0.010934127 0.0093859072         3601 
 4041000   0.62142751   -8.7351212     529.3852   0.01091696 0.0093820078         3620 
 4042000   0.60767001   -8.7416257    529.18544   0.01091014 0.0093781121         3688 
 4043000   0.61042839   -8.7514981    529.81198  0.010920356 0.0093742206         3677 
 4044000   0.59965851   -8.7437677    529.84978  0.010918434 0.0093703302         3675 
 4045000   0.60547981   -8.7364103    530.89724  0.010937314 0.0093664396         3643 
 4046000   0.60997464   -8.7460929    529.65666   0.01090906 0.0093625519         3634 
 4047000   0.58676159   -8.7629969    530.09737  0.010915439 0.0093586644         3619 
 4048000   0.60086189   -8.7438562     529.9343  0.010909385 0.0093547812         3649 
 4049000   0.59993516   -8.7388558     531.0646  0.010929954 0.0093509024         3649 
 4050000    0.6081883   -8.7270232     529.8995  0.010903282 0.0093470227         3664 
 4051000   0.60231792   -8.7341569    529.57959   0.01089401 0.0093431423         3639 
 4052000   0.61100483   -8.7478786    529.77779  0.010895397 0.0093392651         3652 
 4053000   0.60425259   -8.7194339    530.22971  0.010902001  0.009335395         3649 
 4054000   0.61839055   -8.7356554    530.28489  0.010900446 0.0093315245         3689 
 4055000   0.61210179   -8.7674799    528.78026  0.010866836 0.0093276526         3687 
 4056000   0.61108406    -8.747835    529.79288  0.010884962 0.0093237861         3641 
 4057000   0.59897324   -8.7442911     529.4938  0.010876136 0.0093199194         3679 
 4058000   0.60335067   -8.7293775    529.20267  0.010867477 0.0093160571         3638 
 4059000   0.60929119   -8.7347745    531.38352  0.010909574 0.0093122009         3658 
 4060000   0.61279657   -8.7277373     529.8651   0.01087572 0.0093083431         3649 
 4061000   0.59145932    -8.752593    529.09192  0.010857176 0.0093044894         3654 
 4062000    0.5986504   -8.7184594    530.14163  0.010876039 0.0093006364         3632 
 4063000   0.59221627   -8.7581117    530.58874  0.010882532 0.0092967868         3684 
 4064000   0.61054677   -8.7595366       530.18  0.010871473 0.0092929391         3669 
 4065000   0.61350593   -8.7528661    529.29621  0.010850681 0.0092890921         3631 
 4066000   0.60580187   -8.7506612    529.91951  0.010860787 0.0092852437         3661 
 4067000   0.58993246   -8.7474258    529.83765  0.010856439 0.0092814003         3665 
 4068000   0.61023906    -8.748371    529.11826  0.010839034 0.0092775596         3675 
 4069000    0.5872177   -8.7518097    529.66349  0.010847536 0.0092737209         3644 
 4070000   0.59882561   -8.7642381    529.86207  0.010848937 0.0092698822         3657 
 4071000   0.61267857   -8.7461203    530.40082    0.0108573 0.0092660475         3642 
 4072000   0.60564158   -8.7630979    529.14956  0.010829027 0.0092622126         3685 
 4073000   0.59269068   -8.7694501    529.81431  0.010839969 0.0092583808         3639 
 4074000   0.60097672   -8.7798065    529.37731  0.010828369 0.0092545473         3657 
 4075000    0.6019907   -8.7512801     529.7114  0.010832544 0.0092507212         3658 
 4076000   0.60443318   -8.7571207    530.31432  0.010842213 0.0092468944         3610 
 4077000   0.60382602   -8.7596486    529.28697  0.010818555 0.0092430729         3662 
 4078000   0.60513854   -8.7579177    529.60928  0.010822488 0.0092392501         3638 
 4079000   0.60031017   -8.7680044    528.92329   0.01080582 0.0092354331         3653 
 4080000   0.60118962   -8.7466208    530.66733  0.010838794  0.009231614         3673 
 4081000   0.59373692   -8.7456417    529.95768  0.010821647 0.0092277977         3671 
 4082000   0.60330026   -8.7701116    529.20271  0.010803583 0.0092239814         3672 
 4083000   0.59664405   -8.7728897    528.90757  0.010794913 0.0092201676         3680 
 4084000   0.59051025   -8.7713618    528.60767  0.010786151 0.0092163543         3629 
 4085000   0.60944611   -8.7413637    529.40893  0.010799856 0.0092125504         3681 
 4086000   0.59231987   -8.7484204    528.98141  0.010788493 0.0092087461         3646 
 4087000   0.59971616   -8.7740439    528.97049  0.010785631 0.0092049367         3649 
 4088000    0.5978545   -8.7712315    530.54367  0.010815062 0.0092011371         3678 
 4089000   0.59858369   -8.7625128    528.78322  0.010776539 0.0091973379         3612 
 4090000   0.59330101   -8.7619257    528.87938  0.010775863 0.0091935363         3639 
 4091000   0.60924697   -8.7651633    529.59098  0.010787725 0.0091897392         3687 
 4092000   0.59926016   -8.7535217    528.95309  0.010772098 0.0091859475         3630 
 4093000   0.61063737   -8.7654209    530.40354  0.010798997 0.0091821585         3633 
 4094000   0.60172206   -8.7479008    529.87147  0.010785529 0.0091783684         3657 
 4095000   0.58881094   -8.7727302    529.97501  0.010785002 0.0091745804         3677 
 4096000   0.59329055   -8.7593374    529.16134  0.010765815 0.0091707927         3701 
 4097000   0.59090054   -8.7422841    528.94093  0.010758704 0.0091670095         3677 
 4098000   0.59809718   -8.7713945    529.09886   0.01075929  0.009163226         3657 
 4099000   0.59809954   -8.7696723    528.53262  0.010745154 0.0091594467         3667 
 4100000   0.58895598   -8.7389739    529.84758   0.01076926 0.0091556718         3694 
 4101000   0.59431463   -8.7436355    529.72014  0.010764044 0.0091518958         3666 
 4102000   0.59269348   -8.7592475    529.81206  0.010763287 0.0091481224         3667 
 4103000   0.59254335   -8.7570041    529.45234  0.010753358 0.0091443527         3626 
 4104000   0.60971705   -8.7559778    529.45564  0.010750805 0.0091405829         3663 
 4105000   0.59674344   -8.7542481    530.27215  0.010764762 0.0091368162         3667 
 4106000   0.59926523   -8.7494788    529.97331  0.010756075 0.0091330527         3586 
 4107000   0.59896909   -8.7789698    529.44218  0.010742679 0.0091292899         3708 
 4108000   0.60247416    -8.764275    529.07459  0.010732607 0.0091255305         3663 
 4109000   0.58999362   -8.7540189    529.79769   0.01074466   0.00912177         3614 
 4110000   0.59503855    -8.771304    528.52873  0.010716316 0.0091180105         3676 
 4111000   0.59310111   -8.7448079    530.40117  0.010751666 0.0091142548         3629 
 4112000   0.58939669   -8.7555625     529.6742  0.010734318 0.0091105036         3638 
 4113000   0.59179878   -8.7741685    528.85867  0.010715185 0.0091067535         3674 
 4114000   0.58272749   -8.7771386    529.40295  0.010723605 0.0091030045         3645 
 4115000   0.59243293   -8.7800273    529.67156  0.010726439 0.0090992592         3652 
 4116000   0.59616836   -8.7508847    529.27016  0.010715706 0.0090955199         3683 
 4117000   0.60544865   -8.7561521    528.84503  0.010704498 0.0090917738         3637 
 4118000   0.59479552   -8.7646081    529.65708  0.010718332 0.0090880308         3596 
 4119000   0.59115796   -8.7587057    530.14733  0.010725648 0.0090842867         3634 
 4120000   0.59746834   -8.7528311    529.90527  0.010718149 0.0090805477         3659 
 4121000   0.59081894   -8.7490825     529.2935  0.010703177 0.0090768112         3627 
 4122000   0.59341175   -8.7600955    528.07515  0.010675949 0.0090730777         3629 
 4123000   0.59171446   -8.7693851    528.12896  0.010674447  0.009069347         3613 
 4124000   0.59839909    -8.769433    528.88832  0.010687203 0.0090656165         3658 
 4125000   0.58942258   -8.7636222    529.26017  0.010692125 0.0090618888         3687 
 4126000   0.60971262   -8.7612616    529.40126  0.010692383 0.0090581651         3652 
 4127000   0.59532058   -8.7820405    528.54965  0.010672596 0.0090544388         3580 
 4128000   0.59416022   -8.7589611    528.07302  0.010660389 0.0090507155         3643 
 4129000   0.58523928   -8.7687329    528.75245   0.01067152 0.0090469958         3649 
 4130000    0.5988428   -8.7538558    529.74474  0.010688958 0.0090432785         3643 
 4131000   0.58390714   -8.7706779    529.69458  0.010685358 0.0090395636         3638 
 4132000      0.59412   -8.7465623    529.03175  0.010669404 0.0090358489         3657 
 4133000   0.60242892   -8.7706131    527.95551  0.010645123 0.0090321365         3648 
 4134000   0.58384716   -8.7647635    528.42535  0.010652019 0.0090284291         3634 
 4135000   0.58740458   -8.7538291    529.39449  0.010668974 0.0090247226         3634 
 4136000   0.59073154   -8.7517685      529.391  0.010666324 0.0090210214         3627 
 4137000   0.58441485   -8.7602602      528.996  0.010655789 0.0090173224         3631 
 4138000   0.59255807   -8.7732795    528.45739  0.010642367 0.0090136217         3644 
 4139000   0.60156039   -8.7621563    528.12217  0.010633047 0.0090099234         3708 
 4140000   0.58959274   -8.7757103    528.03306  0.010628685 0.0090062223         3659 
 4141000   0.59726031   -8.7781363    528.78719  0.010641294 0.0090025303         3683 
 4142000   0.59780099   -8.7728392    530.23031  0.010667759 0.0089988395         3634 
 4143000   0.58563609   -8.7679943    527.79458  0.010616192  0.008995148         3658 
 4144000   0.59589683   -8.7695354    528.70119  0.010631861 0.0089914555         3679 
 4145000   0.59581183   -8.7718376    528.51644  0.010625582 0.0089877632         3643 
 4146000   0.59143307   -8.7659962    528.35526  0.010619779 0.0089840763         3658 
 4147000   0.59506952   -8.7610056     528.8544  0.010627249 0.0089803961         3652 
 4148000    0.5770614   -8.7630801    529.42253    0.0106361 0.0089767156         3642 
 4149000   0.59002104   -8.7514408    529.04119  0.010625877  0.008973039         3631 
 4150000   0.60276982   -8.7789702    527.82816  0.010598959 0.0089693632         3659 
 4151000   0.59410973   -8.7443634    528.87155  0.010617352 0.0089656902         3580 
 4152000   0.58123644   -8.7831699    529.24437  0.010622278 0.0089620146         3670 
 4153000   0.58520508   -8.7620919    529.74575  0.010629781 0.0089583441         3675 
 4154000   0.58171016     -8.74884    529.25049  0.010617286 0.0089546751         3650 
 4155000   0.57549494   -8.7767606    528.14084  0.010592476 0.0089510082         3693 
 4156000   0.59503745   -8.7788073    529.33234  0.010613818 0.0089473447         3702 
 4157000   0.58717655   -8.7598696    529.10224  0.010606652 0.0089436816         3628 
 4158000   0.59247525   -8.7634144    528.91772  0.010600403 0.0089400222         3681 
 4159000   0.59728818   -8.7688402    528.58201  0.010591128 0.0089363638         3675 
 4160000   0.59685958   -8.7693127    529.06882  0.010598334 0.0089327073         3683 
 4161000   0.56692198   -8.7819463      528.571  0.010585817 0.0089290529         3653 
 4162000   0.59331167    -8.766407    529.13928  0.010594652 0.0089254001         3593 
 4163000    0.5888882   -8.7815868    528.09651  0.010571233 0.0089217484         3650 
 4164000   0.57964815   -8.7450879     528.9454  0.010585683 0.0089181011         3671 
 4165000   0.59684024    -8.754184    529.95231  0.010603287  0.008914457         3648 
 4166000   0.57618114   -8.7599441    529.11921  0.010584078 0.0089108129         3628 
 4167000   0.58106272    -8.766328    528.45272  0.010568209 0.0089071704         3670 
 4168000   0.58305338   -8.7721164    529.10184  0.010578652 0.0089035312         3667 
 4169000    0.5960323   -8.7839608    528.81928  0.010570466 0.0088998879         3695 
 4170000   0.57993127   -8.7526423    528.27706  0.010557095 0.0088962503         3637 
 4171000   0.59365491   -8.7689535     528.1006  0.010551039 0.0088926126         3676 
 4172000   0.59267957   -8.7644914    528.91566   0.01056479 0.0088889833         3680 
 4173000   0.58524915   -8.7762866    528.81553  0.010560259 0.0088853522         3665 
 4174000   0.59555169    -8.791456    529.21147  0.010565634 0.0088817244         3706 
 4175000   0.58447975   -8.7968289    528.79055  0.010554702 0.0088780952         3669 
 4176000   0.58585567   -8.7813627    528.74867  0.010551338 0.0088744676         3665 
 4177000   0.58036237   -8.7759394    528.55944  0.010545037 0.0088708457         3597 
 4178000   0.58218511   -8.7711295    529.53354  0.010561942 0.0088672229         3656 
 4179000   0.58231907   -8.7986894    528.71615  0.010543115 0.0088636037         3676 
 4180000   0.59007372   -8.7838018     527.7196  0.010520726 0.0088599841         3674 
 4181000   0.58621302   -8.7945891    529.20021   0.01054772 0.0088563688         3675 
 4182000   0.58947629   -8.7771421    528.63947  0.010534024 0.0088527532         3718 
 4183000   0.57599455    -8.767667    529.68399  0.010552315 0.0088491395         3682 
 4184000   0.57832714   -8.7706222    528.50458  0.010526302 0.0088455266         3685 
 4185000    0.5840579   -8.7901246    528.33188  0.010520348  0.008841917         3649 
 4186000   0.58572686   -8.7727349    528.71706  0.010525503 0.0088383108         3663 
 4187000   0.59609927   -8.7963124    529.17426  0.010532089  0.008834707         3645 
 4188000     0.575676   -8.7683787    528.93858  0.010524884 0.0088311024         3643 
 4189000   0.57934803   -8.7685927    528.65828  0.010516796 0.0088275023         3676 
 4190000   0.57564321   -8.7725286    529.59507  0.010532917 0.0088239031         3637 
 4191000   0.59388627   -8.7903498    528.10696  0.010500814 0.0088203036         3647 
 4192000    0.5792018   -8.7849005    527.79633  0.010492134 0.0088167085         3679 
 4193000    0.5850534   -8.7872378    528.29303  0.010499504 0.0088131138         3660 
 4194000   0.58854034   -8.7784393    527.69787  0.010485175 0.0088095237         3694 
 4195000   0.58846473   -8.7831338    527.93487  0.010487383 0.0088059338         3673 
 4196000    0.5821081    -8.790095    527.73131  0.010480841 0.0088023446         3626 
 4197000   0.57491928   -8.7649262    528.76097  0.010498788 0.0087987586         3672 
 4198000   0.56495699   -8.7892393    528.85232  0.010498101 0.0087951743         3643 
 4199000   0.57705452   -8.7784001    529.37376  0.010505949 0.0087915894         3689 
 4200000   0.57377172   -8.7737924    529.07714  0.010497562 0.0087880089         3633 
 4201000   0.57756711   -8.7866183    528.60856  0.010485769 0.0087844297         3624 
 4202000   0.57921877   -8.7922182    529.00086  0.010491053 0.0087808513         3673 
 4203000   0.58813774    -8.801328    527.98364  0.010468388 0.0087772777         3705 
 4204000   0.57601223   -8.7819801    528.70222  0.010480142  0.008773704         3642 
 4205000   0.57354548   -8.7920945    528.57554  0.010475139 0.0087701347         3654 
 4206000   0.57047955   -8.7854756    528.32297  0.010467645 0.0087665688         3690 
 4207000   0.56690836   -8.7662425    527.66532   0.01045213 0.0087630004         3645 
 4208000   0.56629511   -8.7746133    528.48311  0.010465841 0.0087594384         3677 
 4209000   0.57476027    -8.794174    528.66007  0.010466858 0.0087558755         3654 
 4210000   0.57431282   -8.7789386    528.31204  0.010457483 0.0087523135         3648 
 4211000   0.56088008   -8.7861411    528.04826  0.010449779 0.0087487547         3638 
 4212000   0.58663722    -8.765309    529.07397  0.010467592 0.0087452025         3682 
 4213000   0.56661296   -8.7816157    527.64377  0.010436818 0.0087416511         3675 
 4214000   0.57207965   -8.7793856    528.20701   0.01044548  0.008738102         3708 
 4215000   0.58542135   -8.7974252    527.90177  0.010436967 0.0087345529         3700 
 4216000   0.56794042   -8.7845625    528.43355  0.010445002 0.0087310062         3662 
 4217000   0.58835211   -8.7805968    527.66854  0.010427408 0.0087274607         3699 
 4218000   0.56776335    -8.796783    527.80723  0.010427676 0.0087239149         3661 
 4219000   0.58229279   -8.7874793    528.93528  0.010447485  0.008720373         3669 
 4220000   0.57378737   -8.7834872    529.10911  0.010448442 0.0087168317         3715 
 4221000   0.57589532   -8.7709638    529.31158  0.010449964 0.0087132928         3654 
 4222000   0.57129381   -8.7964011    528.76959  0.010436791 0.0087097575         3716 
 4223000    0.5711062   -8.8041071    528.41338  0.010427291 0.0087062241         3691 
 4224000    0.5675882   -8.8125569    528.75404  0.010431543 0.0087026903         3738 
 4225000   0.57474386   -8.7946943     529.0298  0.010434513 0.0086991556         3667 
 4226000   0.57506099   -8.7903722    528.04905  0.010412704 0.0086956268         3641 
 4227000   0.57360064   -8.7866664     528.3879  0.010416921    0.0086921         3668 
 4228000   0.58561949   -8.7967569    528.41022  0.010414897 0.0086885774         3688 
 4229000   0.56717374   -8.7960259    528.24162  0.010409112 0.0086850547         3680 
 4230000   0.57477503   -8.7973707    528.38246  0.010409426  0.008681533         3675 
 4231000   0.57413119   -8.7839992    528.34132  0.010406155 0.0086780154         3627 
 4232000   0.57678933    -8.782702     529.0538  0.010417726 0.0086744974         3694 
 4233000   0.58429305   -8.7949536    528.29307  0.010400289 0.0086709843         3711 
 4234000   0.57279087   -8.7826455    529.07495  0.010413221 0.0086674736         3646 
 4235000   0.57349348   -8.7929789    527.61525   0.01038204 0.0086639625         3666 
 4236000   0.56957335   -8.8004621    528.20694  0.010391229 0.0086604552         3663 
 4237000   0.56556507   -8.7958468    528.55904  0.010395701 0.0086569482         3660 
 4238000   0.57713714   -8.7702914    528.96559  0.010401242  0.008653443         3672 
 4239000   0.56809002   -8.7901106    528.78773  0.010395292 0.0086499385         3675 
 4240000   0.56293518   -8.8063994    528.38818  0.010384988 0.0086464365         3681 
 4241000   0.58498298   -8.7794041    528.35735  0.010381933 0.0086429372         3696 
 4242000   0.58069431   -8.7785627    528.37253  0.010379784 0.0086394388         3677 
 4243000   0.56847239   -8.7958148    528.71395  0.010384043 0.0086359428         3666 
 4244000   0.56870494   -8.7952804    528.13432  0.010370215 0.0086324517         3676 
 4245000   0.58386674   -8.7852649    528.41142  0.010373212 0.0086289584         3671 
 4246000   0.57140775   -8.7835557    528.39137  0.010370376 0.0086254673         3662 
 4247000   0.54620742   -8.7832891    528.58717  0.010371776 0.0086219775         3682 
 4248000   0.57850256   -8.8234056    528.27886  0.010363286 0.0086184917         3732 
 4249000   0.56644966   -8.7758388    528.05025  0.010356363 0.0086150061         3652 
 4250000   0.58009077   -8.7939611     528.4105   0.01036099 0.0086115241         3625 
 4251000   0.57413102    -8.797549    527.52085  0.010341113  0.008608044         3669 
 4252000    0.5636144   -8.8017197    528.70963  0.010361979 0.0086045651         3674 
 4253000   0.56501643   -8.7944261    528.06589  0.010346929 0.0086010876         3643 
 4254000   0.57712529   -8.7948418    528.37067  0.010350468 0.0085976171         3679 
 4255000    0.5852798   -8.7876111    528.41168  0.010348838 0.0085941419         3648 
 4256000   0.57425382   -8.7946413    527.63944  0.010331286 0.0085906721         3667 
 4257000   0.57133536   -8.8109852    527.44025   0.01032496 0.0085871998         3685 
 4258000   0.58078498   -8.7915966    528.55547  0.010344361   0.00858373         3705 
 4259000   0.58006266   -8.7836315    528.65351  0.010343851 0.0085802633         3668 
 4260000    0.5653898   -8.7929837    528.48509  0.010338128 0.0085767972         3664 
 4261000   0.56227757   -8.7868673     527.9501  0.010325239 0.0085733366         3649 
 4262000   0.56335466   -8.7954097     527.4104  0.010312263 0.0085698761         3664 
 4263000   0.56966471   -8.7914831    527.45203  0.010310658 0.0085664143         3613 
 4264000   0.56703289   -8.7996121    528.16192  0.010322114 0.0085629552         3672 
 4265000   0.55862984   -8.7925958    528.03987  0.010317309 0.0085595016         3679 
 4266000   0.55659567   -8.7957382    528.68358  0.010327465  0.008556046         3641 
 4267000   0.58037302   -8.7820763    528.56846  0.010322796 0.0085525949         3649 
 4268000   0.56061429   -8.8124632    527.37139  0.010297005 0.0085491425         3669 
 4269000   0.57726324   -8.8028514    527.65896  0.010300206 0.0085456927         3670 
 4270000   0.55826451   -8.7843062    527.23836  0.010289585 0.0085422471         3710 
 4271000   0.56602954   -8.7907995    527.35452  0.010289443 0.0085388016         3641 
 4272000   0.56896168   -8.7707344    528.32892  0.010306042 0.0085353601         3720 
 4273000   0.56512967   -8.8021915    528.71382  0.010311136 0.0085319195         3618 
 4274000   0.57400545   -8.8142194    528.37519  0.010302121  0.008528484         3661 
 4275000   0.55258018   -8.8040386    528.14832  0.010295289 0.0085250446         3649 
 4276000   0.56385773   -8.7904615    528.92073  0.010307934 0.0085216087         3677 
 4277000   0.56422689   -8.8104694    526.88874  0.010265933 0.0085181756         3664 
 4278000   0.57277952   -8.8119951    527.95063  0.010284218 0.0085147439         3657 
 4279000   0.57357802   -8.8061349    527.07592   0.01026478 0.0085113149         3691 
 4280000   0.55706014   -8.8140639    528.25906  0.010285418 0.0085078854         3652 
 4281000   0.56584826   -8.7934017    527.78589  0.010273805 0.0085044591         3656 
 4282000   0.56318659   -8.7988796    527.82667  0.010272199 0.0085010364         3684 
 4283000   0.55084133   -8.7825551    527.43067  0.010262096 0.0084976126         3649 
 4284000   0.55492284   -8.7864161    528.07215  0.010272178 0.0084941938         3612 
 4285000   0.56391971   -8.7943812    527.90277  0.010266487 0.0084907744         3682 
 4286000   0.56659725   -8.8002748    528.51296  0.010275956 0.0084873571         3660 
 4287000   0.56997752   -8.7828598    527.81806  0.010260051  0.008483944         3644 
 4288000   0.57223571   -8.8087227    528.01712  0.010261527 0.0084805331         3674 
 4289000   0.56628889    -8.800091    526.87662  0.010236975 0.0084771239         3631 
 4290000   0.56608568   -8.8092041    527.59807  0.010248603 0.0084737178         3682 
 4291000   0.56891417   -8.8112065    528.52051  0.010264129 0.0084703112         3686 
 4292000   0.57131443   -8.7952252    528.05177  0.010252636 0.0084669064         3656 
 4293000   0.56800125   -8.8118019    528.52789   0.01025949 0.0084635024         3674 
 4294000   0.56981311   -8.7975962    527.60454  0.010239181 0.0084600979         3661 
 4295000   0.56671616   -8.8061205    528.69049  0.010257867 0.0084566974         3687 
 4296000   0.57152613   -8.8261889     528.1888  0.010245748 0.0084532991         3659 
 4297000   0.55341761   -8.8020454    528.38567  0.010247182 0.0084499043         3675 
 4298000   0.56294204   -8.7977848     528.3123  0.010243375 0.0084465101         3648 
 4299000   0.55529436   -8.7940803    528.30781  0.010240905 0.0084431191         3647 
 4300000   0.57936092   -8.7941337    527.80852  0.010228847 0.0084397291         3703 
 4301000   0.54824383   -8.8067935    527.77176  0.010225757  0.008436341         3688 
 4302000   0.56867675   -8.8031102    529.01625  0.010247487 0.0084329555         3696 
 4303000   0.57270686   -8.7976783    527.89073  0.010223308 0.0084295713         3650 
 4304000   0.54429852   -8.8100664    527.67442  0.010216744  0.008426189         3684 
 4305000   0.56714179   -8.8070222    528.52966  0.010230927 0.0084228071         3692 
 4306000   0.57138159   -8.8080143    527.90112  0.010216386 0.0084194261         3637 
 4307000   0.57959163   -8.8231254    527.17656  0.010199995 0.0084160484         3712 
 4308000   0.55829025   -8.8277372    527.15255  0.010197163 0.0084126718         3693 
 4309000   0.56934235   -8.8189678    527.18984  0.010195518 0.0084092988         3679 
 4310000   0.55476578   -8.8142592    527.62664  0.010201598 0.0084059273         3703 
 4311000    0.5685766   -8.7700916    528.12313  0.010208829 0.0084025589         3702 
 4312000   0.54842322   -8.8114234    527.35912  0.010191696 0.0083991913         3680 
 4313000   0.56089223   -8.7993914    528.21845  0.010205936 0.0083958214         3720 
 4314000   0.57302144   -8.8283666    527.72091   0.01019396 0.0083924547         3670 
 4315000   0.55096121    -8.801397    527.31897  0.010183835 0.0083890946         3747 
 4316000   0.55751971   -8.7945818    527.13238  0.010177873 0.0083857311         3701 
 4317000   0.56982664   -8.8054101    528.01405  0.010192534 0.0083823693         3705 
 4318000   0.56015739   -8.8180429    527.75116    0.0101851 0.0083790114         3640 
 4319000   0.54371547   -8.8153847    527.49453  0.010177791 0.0083756523         3672 
 4320000    0.5693671   -8.8191203    528.92848  0.010203096 0.0083722972         3654 
 4321000   0.56576457   -8.8011519    528.25192  0.010187686 0.0083689435         3659 
 4322000   0.56741844   -8.8358229    527.50036  0.010170838 0.0083655942         3681 
 4323000   0.56566504   -8.8077524    527.89229  0.010176041 0.0083622444         3682 
 4324000   0.56701398   -8.7998316    526.86017  0.010153796 0.0083588972         3703 
 4325000   0.55981885   -8.8085099    527.42388   0.01016231 0.0083555533         3687 
 4326000   0.55987331   -8.8193304    528.70245   0.01018459 0.0083522097         3663 
 4327000   0.55292853    -8.809738    528.80816  0.010184272 0.0083488692         3656 
 4328000   0.55977329   -8.7933981    527.67403  0.010160082 0.0083455305         3685 
 4329000   0.55256752   -8.8112362    528.32493  0.010170265  0.008342191         3678 
 4330000   0.56802043   -8.7930462    527.41525  0.010150409 0.0083388545         3706 
 4331000   0.56427751   -8.8142102    528.17386  0.010162662 0.0083355197         3748 
 4332000   0.55094054   -8.8004908    527.86358  0.010154347 0.0083321854         3680 
 4333000    0.5511811   -8.8141381    527.91675  0.010153026 0.0083288559         3665 
 4334000   0.55887572   -8.7875249    528.21831  0.010156482 0.0083255284         3680 
 4335000   0.54598728   -8.8165208    527.69188  0.010144019 0.0083222018         3687 
 4336000   0.56316959   -8.7991655    527.05101  0.010129363 0.0083188741         3700 
 4337000   0.55611912   -8.8171275    527.35483  0.010132865 0.0083155506         3668 
 4338000   0.54797596   -8.8082902    527.96915   0.01014233 0.0083122306         3707 
 4339000   0.54303367   -8.7929885    527.59529  0.010132813 0.0083089084         3688 
 4340000   0.56442449   -8.8212044     528.3983  0.010145897 0.0083055914         3680 
 4341000   0.55469889   -8.8035038    527.39953  0.010124386 0.0083022748         3694 
 4342000    0.5539926   -8.8318471    527.17491  0.010117744 0.0082989589         3664 
 4343000   0.56064597   -8.8306104    526.85445  0.010109265 0.0082956426         3656 
 4344000   0.55941588    -8.811737    526.69277  0.010103836 0.0082923319         3710 
 4345000   0.56421978   -8.8215451    527.87822  0.010124247 0.0082890221         3663 
 4346000   0.54602449   -8.8208829    527.85481  0.010121468  0.008285714         3678 
 4347000   0.55631292   -8.8194856    527.44011   0.01011119 0.0082824069         3695 
 4348000    0.5484779   -8.8274964    527.84672  0.010116657 0.0082790993         3673 
 4349000   0.55287123   -8.7998893     528.1473  0.010120091 0.0082757964         3673 
 4350000   0.55913859   -8.8196286     528.7245  0.010128822  0.008272495         3652 
 4351000   0.55121881   -8.8326199    526.55077  0.010084861 0.0082691938         3697 
 4352000   0.57016933   -8.8196874    527.47547   0.01010025 0.0082658922         3616 
 4353000   0.55832849   -8.8215561    527.24237  0.010093468 0.0082625932         3665 
 4354000   0.56217707   -8.8066064    527.98295  0.010105324 0.0082592971         3692 
 4355000   0.54905397   -8.8133864    527.46108  0.010093017 0.0082559998         3661 
 4356000   0.55285462   -8.8224557    527.37994  0.010089148 0.0082527075         3676 
 4357000   0.55926193   -8.8162933    527.87854  0.010096369 0.0082494205         3667 
 4358000   0.54662326    -8.834553    527.96389  0.010095684 0.0082461337         3686 
 4359000    0.5506621   -8.8246018     527.1021  0.010076893 0.0082428447         3670 
 4360000   0.55061156   -8.8015024    526.71685  0.010067218 0.0082395609         3655 
 4361000   0.54726122   -8.8059593    528.08547  0.010091062 0.0082362796         3686 
 4362000   0.54463956   -8.8067321    528.20578  0.010091047 0.0082329962         3661 
 4363000   0.55239191   -8.8244397    527.38779  0.010073111 0.0082297151         3668 
 4364000   0.55716324   -8.8082008    527.03044  0.010063979 0.0082264403         3658 
 4365000    0.5659213   -8.8231834    527.24515  0.010065772 0.0082231642         3674 
 4366000   0.54977666   -8.8241665    527.40505  0.010066519 0.0082198876         3672 
 4367000   0.55417752   -8.8168708    527.11674  0.010058712 0.0082166104         3678 
 4368000   0.55246599   -8.8233025    528.00575   0.01007337 0.0082133371         3670 
 4369000   0.55565485   -8.8392976    527.32234  0.010058029 0.0082100668         3724 
 4370000   0.55175283   -8.8118213    527.43919  0.010057956 0.0082068016         3703 
 4371000   0.55992984   -8.8299595    527.72995  0.010061198 0.0082035389         3689 
 4372000   0.55151204   -8.8275416    527.55702    0.0100556 0.0082002753         3734 
 4373000   0.55221077   -8.8153669    528.23239  0.010066171 0.0081970133         3686 
 4374000   0.54927326   -8.8194849    527.68076   0.01005336 0.0081937534         3696 
 4375000   0.54919684   -8.8306085    527.32125  0.010044214 0.0081904925         3706 
 4376000   0.54795784   -8.8248134     527.8201  0.010051419 0.0081872329         3715 
 4377000   0.56133485   -8.8355215    527.15488  0.010036457 0.0081839752         3659 
 4378000   0.55452417   -8.8324559     527.1029  0.010033175 0.0081807174         3689 
 4379000   0.54538752   -8.8380987    527.47026  0.010037875 0.0081774624         3647 
 4380000    0.5406076   -8.8266222    527.56718  0.010037427 0.0081742089         3730 
 4381000   0.54846236   -8.8257402     527.1775  0.010027724 0.0081709592         3679 
 4382000   0.56205495   -8.8072636    527.29832  0.010027733 0.0081677089         3690 
 4383000   0.54835384   -8.8304505    527.84073  0.010035758  0.008164462         3718 
 4384000   0.54009041   -8.8379893    527.42549  0.010025576 0.0081612155         3726 
 4385000   0.54731726    -8.840141    526.81938  0.010011771 0.0081579713         3670 
 4386000   0.56126268   -8.8221667     527.3669  0.010019891  0.008154731         3678 
 4387000   0.54455313   -8.8490733    526.71762  0.010005274 0.0081514875         3714 
 4388000   0.55671093   -8.8312558    526.79196  0.010004405 0.0081482497         3677 
 4389000   0.56101753   -8.8414799    527.40739  0.010013811 0.0081450166         3657 
 4390000   0.54838404   -8.8034981    527.43082  0.010011975 0.0081417803         3629 
 4391000   0.54455283   -8.8354133    527.11716  0.010003742 0.0081385485         3705 
 4392000   0.53310061   -8.8196614    527.54856  0.010009649 0.0081353164         3688 
 4393000   0.55474045   -8.8317337     527.6796  0.010009857 0.0081320885         3673 
 4394000   0.55070987   -8.8289754    528.21114  0.010017659 0.0081288614         3595 
 4395000   0.56657099   -8.8379831    526.11934 0.0099757174 0.0081256359         3694 
 4396000    0.5563627   -8.8162265    527.01008 0.0099903337 0.0081224131         3706 
 4397000   0.54227917   -8.8108756    528.15057  0.010009676 0.0081191929         3714 
 4398000   0.54457617   -8.8345433    527.05134 0.0099865723 0.0081159739         3666 
 4399000   0.54868259   -8.8322894    526.92513 0.0099819113 0.0081127541         3648 
 4400000   0.54089865   -8.8060269    527.85474 0.0099972489 0.0081095377         3681 
 4401000   0.54891665   -8.8282574    527.06752 0.0099800712 0.0081063218         3684 
 4402000   0.55364064   -8.8380782    527.28537  0.009981928 0.0081031097         3667 
 4403000   0.54627944   -8.8432335    527.78231 0.0099890664 0.0080998998         3691 
 4404000   0.55508335   -8.8260148    527.23561 0.0099764534 0.0080966905         3694 
 4405000   0.55131266   -8.8202294    526.97827 0.0099693203 0.0080934841         3670 
 4406000    0.5497596   -8.8491133    527.68369 0.0099803997 0.0080902773         3729 
 4407000   0.54695464    -8.836478    527.41483  0.009973051 0.0080870717         3704 
 4408000   0.54601471   -8.8230557    527.69908 0.0099761624 0.0080838682         3681 
 4409000   0.54792353   -8.8308194    527.84209 0.0099766026 0.0080806681         3689 
 4410000   0.55083543    -8.842778     526.8551 0.0099556897 0.0080774703         3710 
 4411000   0.56131815   -8.8232847    527.13142 0.0099586531  0.008074276         3725 
 4412000   0.53753781   -8.8243061    526.67188 0.0099477161 0.0080710807         3675 
 4413000   0.54322855   -8.8189426    527.77311 0.0099662571 0.0080678893         3641 
 4414000   0.53680623   -8.8467288    527.33793 0.0099557834 0.0080646959         3687 
 4415000   0.54202316   -8.8442564    527.17858 0.0099505206  0.008061504         3692 
 4416000   0.55305478   -8.8327994    527.23816 0.0099493917  0.008058315         3655 
 4417000   0.54484769   -8.8548171    527.65451 0.0099549941 0.0080551294         3727 
 4418000   0.54945813   -8.8424279    527.30668 0.0099461801 0.0080519424         3669 
 4419000   0.54914608   -8.8265641    526.95947 0.0099373816 0.0080487574         3685 
 4420000   0.55180732   -8.8309432    527.46207 0.0099446091 0.0080455758         3694 
 4421000   0.53537638   -8.8274623    527.77108 0.0099481845  0.008042397         3675 
 4422000   0.53758207   -8.8332474     528.1386 0.0099528607 0.0080392183         3702 
 4423000   0.53355099   -8.8422817    527.15167 0.0099320159 0.0080360409         3685 
 4424000   0.53731131   -8.8472836    526.36098 0.0099148767 0.0080328645         3686 
 4425000   0.54207027   -8.8261049    526.83854 0.0099216297 0.0080296914         3688 
 4426000   0.54533427   -8.8284817    527.83561  0.009938161 0.0080265188         3710 
 4427000   0.53128143   -8.8375513    527.15151 0.0099230388  0.008023347         3688 
 4428000   0.53649909    -8.826953    527.51501 0.0099276387 0.0080201801         3648 
 4429000    0.5371408   -8.8154702    526.46717 0.0099056816 0.0080170113         3668 
 4430000   0.54284716   -8.8392116    527.19225 0.0099170853 0.0080138456         3725 
 4431000   0.54962962   -8.8399294    527.78613 0.0099260161  0.008010682         3665 
 4432000   0.53771959   -8.8348066    527.09954 0.0099108668 0.0080075199         3684 
 4433000   0.54035725   -8.8276157    526.79003 0.0099028128 0.0080043582         3660 
 4434000   0.53732838   -8.8436108    526.40803 0.0098934001 0.0080011986         3700 
 4435000   0.54243175   -8.8283697    527.15299  0.009905167 0.0079980408         3660 
 4436000   0.54030336   -8.8389939     527.3335 0.0099063252 0.0079948824         3680 
 4437000   0.54749823   -8.8588375     526.4551 0.0098875949 0.0079917279         3688 
 4438000    0.5483258   -8.8472415    526.28226 0.0098821215  0.007988575         3676 
 4439000   0.53767411   -8.8414838    527.05228 0.0098943509  0.007985426         3735 
 4440000   0.54484117   -8.8476621    527.43816 0.0098993649 0.0079822779         3699 
 4441000   0.55183814   -8.8531992    527.16495 0.0098920092   0.00797913         3663 
 4442000   0.55923872   -8.8574752    526.87172 0.0098842811 0.0079759812         3686 
 4443000   0.54913538   -8.8542747    527.36169 0.0098912463 0.0079728362         3638 
 4444000   0.52875613   -8.8552539     527.8537 0.0098982467 0.0079696919         3699 
 4445000   0.54795059   -8.8600519    525.99298 0.0098611357 0.0079665462         3705 
 4446000   0.53434889   -8.8376911    526.52402 0.0098688713 0.0079634062         3705 
 4447000   0.55432928   -8.8444632    526.63713 0.0098687716 0.0079602689         3656 
 4448000   0.54591489   -8.8440372    527.21916 0.0098774572 0.0079571313         3711 
 4449000   0.54961835   -8.8382739    527.18172 0.0098745359 0.0079539931         3637 
 4450000   0.54162404   -8.8315685    527.03733  0.009869613 0.0079508601         3702 
 4451000   0.53860269   -8.8202851     527.0489 0.0098676122 0.0079477281         3660 
 4452000   0.54767184    -8.836954    526.18496 0.0098492243 0.0079445974         3689 
 4453000   0.54507056   -8.8532329    526.65559 0.0098558198 0.0079414696         3677 
 4454000   0.53223426   -8.8512829     526.9083 0.0098583352 0.0079383421         3662 
 4455000   0.54478318   -8.8381883    527.44647 0.0098661892  0.007935221         3740 
 4456000   0.53184893   -8.8448524     526.9368 0.0098544435 0.0079320937         3688 
 4457000   0.55805375   -8.8505066    526.73747 0.0098485056 0.0079289722         3677 
 4458000   0.53914859   -8.8476512    527.04971  0.009852133 0.0079258556         3682 
 4459000   0.53061795   -8.8537781    526.53039  0.009840218 0.0079227364         3651 
 4460000   0.53541945   -8.8399311    526.47431 0.0098369639 0.0079196207         3692 
 4461000   0.54182332   -8.8543848    526.34471 0.0098323379 0.0079165059         3687 
 4462000   0.52906337   -8.8541633    526.48803  0.009832811 0.0079133952         3725 
 4463000   0.53424255   -8.8417004    526.97952 0.0098397848 0.0079102871         3697 
 4464000   0.54191232   -8.8689488    526.63899 0.0098312237 0.0079071786         3723 
 4465000    0.5284849   -8.8336557    526.68161 0.0098298172 0.0079040695         3667 
 4466000   0.53959136   -8.8727503    526.91674 0.0098320037 0.0079009612         3677 
 4467000   0.54195983   -8.8591935    526.57633 0.0098234522 0.0078978568         3708 
 4468000   0.54133212   -8.8439636    526.62726 0.0098222034 0.0078947527         3699 
 4469000   0.53232598   -8.8462884    526.56047 0.0098187601 0.0078916547         3712 
 4470000   0.52762711    -8.848137    527.00119 0.0098247798  0.007888555         3682 
 4471000   0.53693767   -8.8394513    526.57392 0.0098146187 0.0078854533         3703 
 4472000   0.54298947   -8.8391515    527.27306  0.009825452 0.0078823565         3692 
 4473000   0.54002043   -8.8338394    527.44592 0.0098264758 0.0078792629         3681 
 4474000   0.52894241     -8.83679    527.19706 0.0098196442 0.0078761713         3704 
 4475000    0.5307591   -8.8468883    526.13953 0.0097977566 0.0078730805         3648 
 4476000   0.53131099   -8.8526815    526.31539 0.0097988418  0.007869989         3675 
 4477000   0.51429978   -8.8541639    526.38872  0.009798018 0.0078668989         3642 
 4478000   0.53484797    -8.856469    527.70216 0.0098202725 0.0078638099         3713 
 4479000   0.54270238   -8.8443134    526.63886 0.0097982968 0.0078607227         3670 
 4480000   0.52138798   -8.8311346    527.84566 0.0098185577 0.0078576371         3722 
 4481000   0.54024732   -8.8500446    527.19279 0.0098042251 0.0078545527         3664 
 4482000   0.53337747   -8.8456277    526.35575 0.0097864745 0.0078514698         3700 
 4483000    0.5373407   -8.8527644    526.71967 0.0097910565  0.007848389         3638 
 4484000   0.53624834   -8.8430185    526.59555 0.0097865661 0.0078453085         3681 
 4485000   0.54421288   -8.8471958    526.63772 0.0097851676 0.0078422308         3694 
 4486000   0.54558831   -8.8626354    526.60781 0.0097824308 0.0078391549         3685 
 4487000   0.53259583   -8.8570092    525.70907  0.009763559 0.0078360826         3674 
 4488000   0.52932922     -8.85449    526.82811 0.0097821619 0.0078330111         3670 
 4489000   0.52442078   -8.8587011    526.70065 0.0097776166 0.0078299385         3713 
 4490000   0.52271427   -8.8552635    527.86219 0.0097969968 0.0078268702         3661 
 4491000   0.53403788   -8.8551262    526.82357 0.0097755431 0.0078238057         3692 
 4492000   0.53764011   -8.8522008    526.29516 0.0097635642 0.0078207378         3675 
 4493000   0.51865721   -8.8424081    525.98489 0.0097556363 0.0078176738         3694 
 4494000   0.54470155   -8.8521994    526.65503 0.0097658921 0.0078146124         3694 
 4495000   0.52930933   -8.8611522    527.08913 0.0097717674 0.0078115522         3673 
 4496000   0.52896477   -8.8415325    527.17942 0.0097712673 0.0078084949         3676 
 4497000   0.53875274   -8.8432262    526.50391 0.0097565768 0.0078054368         3644 
 4498000   0.53250696   -8.8408917    526.94316 0.0097625455 0.0078023823         3700 
 4499000   0.52791899   -8.8510396    526.55659 0.0097532154 0.0077993265         3703 
 4500000   0.53220318   -8.8466328    526.09278  0.009742459 0.0077962707         3726 
 4501000   0.54128801   -8.8527012    526.09938 0.0097404166 0.0077932191         3674 
 4502000   0.52713651    -8.850408    526.71634 0.0097496732 0.0077901694         3705 
 4503000   0.52856612   -8.8393208    526.27805 0.0097393968 0.0077871218         3660 
 4504000   0.52522174   -8.8579699    526.43897 0.0097402118 0.0077840746         3699 
 4505000   0.52703358   -8.8576116    526.35253 0.0097364508 0.0077810321         3691 
 4506000   0.53493443    -8.844395    526.95285 0.0097453922 0.0077779856         3706 
 4507000   0.53003196   -8.8436601    526.67048 0.0097380091 0.0077749443         3713 
 4508000   0.52594247   -8.8514943    526.84512 0.0097390771 0.0077719048         3681 
 4509000    0.5314185    -8.853849    526.47535 0.0097300833 0.0077688672         3668 
 4510000   0.54270637   -8.8529508    526.97204 0.0097371036 0.0077658296         3634 
 4511000   0.53615345   -8.8553159    526.63511 0.0097287208 0.0077627936         3702 
 4512000    0.5438447   -8.8679169    526.54433 0.0097248879 0.0077597585         3663 
 4513000    0.5444154   -8.8702715    526.51398 0.0097221726 0.0077567271         3684 
 4514000   0.52886161   -8.8655066    526.80324 0.0097253589 0.0077536956         3700 
 4515000    0.5342182   -8.8566427    527.30299 0.0097324288 0.0077506675         3695 
 4516000   0.52413549   -8.8639533     526.4501 0.0097145353 0.0077476404         3714 
 4517000   0.52764446    -8.839493    526.28705 0.0097093765 0.0077446159         3706 
 4518000   0.52536314   -8.8684892    525.53113 0.0096932848 0.0077415901         3727 
 4519000   0.52686107   -8.8445646     526.3705 0.0097066184 0.0077385669         3677 
 4520000   0.53101021   -8.8638495    525.09266 0.0096809119 0.0077355458         3693 
 4521000   0.52468712   -8.8651414    525.70574 0.0096900711  0.007732525         3695 
 4522000   0.52134238   -8.8517745    526.38047 0.0097003625 0.0077295072         3684 
 4523000   0.53468434   -8.8506865    526.42165 0.0096989766  0.007726489         3691 
 4524000   0.52531206   -8.8582107    527.58603 0.0097182808 0.0077234756         3677 
 4525000    0.5281299   -8.8551041    525.71743 0.0096817206 0.0077204613         3659 
 4526000   0.52389048   -8.8551182    526.38205 0.0096918186 0.0077174512         3674 
 4527000   0.53849718    -8.860987    526.97276 0.0097005514 0.0077144399         3675 
 4528000   0.52065696   -8.8749988     526.3867 0.0096876234 0.0077114327         3713 
 4529000   0.52226855   -8.8796873    526.00369 0.0096784369 0.0077084255         3680 
 4530000   0.51173637   -8.8685969    525.13207 0.0096602663 0.0077054185         3705 
 4531000   0.53003848   -8.8630922     526.9918  0.009692338 0.0077024127         3716 
 4532000   0.53122084   -8.8584783    526.51485 0.0096814294 0.0076994133         3659 
 4533000   0.51335913   -8.8571833    527.02699 0.0096887085  0.007696413         3630 
 4534000   0.51798435   -8.8619109    526.47807 0.0096764828 0.0076934159         3676 
 4535000   0.51440341     -8.85537    525.90562 0.0096638299 0.0076904175         3686 
 4536000   0.53373374   -8.8615638    526.58814 0.0096742383 0.0076874241         3697 
 4537000   0.52724603   -8.8726735    526.61652 0.0096726274  0.007684431         3655 
 4538000   0.51890421   -8.8674804    526.58435  0.009669905 0.0076814378         3688 
 4539000   0.52002676   -8.8802496    525.82821 0.0096538923 0.0076784479         3690 
 4540000   0.52253688   -8.8603173    527.43217 0.0096812073 0.0076754573         3631 
 4541000   0.51746096   -8.8605205    526.39815 0.0096600996 0.0076724699         3704 
 4542000   0.52204052   -8.8739784     525.6184 0.0096436666 0.0076694855         3706 
 4543000   0.52135192   -8.8697108    526.95272 0.0096660196  0.007666502         3638 
 4544000    0.5252211   -8.8617774     525.9926 0.0096462845 0.0076635192         3690 
 4545000   0.51840421   -8.8598639    527.25578 0.0096673227 0.0076605369         3673 
 4546000   0.52525349   -8.8672717    525.97917 0.0096417945 0.0076575578         3669 
 4547000   0.52103166   -8.8459878    526.28095 0.0096452047 0.0076545798         3696 
 4548000   0.51441242   -8.8578944    525.84052  0.009635014  0.007651602         3681 
 4549000   0.52735852   -8.8577321    526.64368  0.009647609 0.0076486297         3677 
 4550000   0.52451678   -8.8675801    526.62857 0.0096452118 0.0076456561         3680 
 4551000   0.52306316   -8.8702532    527.11246 0.0096519531 0.0076426797         3693 
 4552000    0.5313572    -8.864063    526.57144 0.0096399283 0.0076397082         3684 
 4553000   0.51922378   -8.8687585    525.85466 0.0096246917 0.0076367392         3691 
 4554000   0.52650409   -8.8685787    525.17813 0.0096101986 0.0076337713         3695 
 4555000   0.52797111   -8.8617382    526.42009 0.0096308103 0.0076308038         3692 
 4556000   0.52727532   -8.8816659    526.65685  0.009633027  0.007627836         3704 
 4557000   0.51828261   -8.8541623     525.9833 0.0096185958 0.0076248755         3686 
 4558000   0.52015521   -8.8597472    526.44137 0.0096248605 0.0076219144         3688 
 4559000   0.51938144   -8.8860306    526.74763 0.0096283474 0.0076189543         3690 
 4560000   0.51026802   -8.8600637    526.02894 0.0096131019 0.0076159954         3673 
 4561000   0.51777962    -8.878598    527.19503 0.0096322998 0.0076130388         3706 
 4562000   0.52640611    -8.877238    526.24293 0.0096127965 0.0076100822         3685 
 4563000   0.50686023   -8.8875618    525.91246 0.0096046544 0.0076071281         3698 
 4564000   0.51224745   -8.8432629    527.59049 0.0096331889  0.007604176         3688 
 4565000   0.51229815   -8.8820069     526.2134 0.0096059401 0.0076012237         3679 
 4566000   0.52763538   -8.8780502    526.06086 0.0096010523 0.0075982729         3729 
 4567000   0.51232556   -8.8818577    526.04602 0.0095986793 0.0075953248         3746 
 4568000   0.51511249   -8.8896164    525.39035 0.0095846168 0.0075923781         3706 
 4569000   0.52431694   -8.8732862    525.32821 0.0095813856 0.0075894319         3718 
 4570000   0.51849014   -8.8566848    526.30587 0.0095971165 0.0075864891         3672 
 4571000   0.51051735   -8.8557248    525.97879 0.0095890539 0.0075835454         3692 
 4572000   0.51252931   -8.8625072    526.04714 0.0095882024 0.0075806048         3723 
 4573000   0.51862261   -8.8548242    526.55519  0.009595364 0.0075776645         3719 
 4574000   0.52001459   -8.8914057    525.70652 0.0095778043 0.0075747274         3693 
 4575000   0.51753653   -8.8568547    525.87973 0.0095788658 0.0075717917         3689 
 4576000    0.5120841   -8.8831101    525.74527 0.0095743238 0.0075688561         3764 
 4577000   0.53297535   -8.8674369     526.3858  0.009583894 0.0075659214         3733 
 4578000   0.52491115   -8.8801439    526.07621 0.0095761652  0.007562991         3684 
 4579000   0.51405882   -8.8577778     526.0571  0.009573726  0.007560063         3692 
 4580000   0.50722939   -8.8782866    526.08085 0.0095720678 0.0075571359         3733 
 4581000   0.52358865   -8.8804625    525.99274 0.0095683755 0.0075542099         3744 
 4582000    0.5196854   -8.8589259    525.86279 0.0095639239 0.0075512858         3762 
 4583000   0.51218316    -8.860156    526.60315  0.009575299 0.0075483644         3686 
 4584000   0.52229083   -8.8719379    525.88416 0.0095601395 0.0075454448         3728 
 4585000   0.52055544    -8.867544    525.71185 0.0095549228 0.0075425255         3716 
 4586000   0.51883006   -8.8939054    525.88536 0.0095559921 0.0075396075         3719 
 4587000   0.50891053   -8.8802933    526.18108 0.0095592814 0.0075366903         3746 
 4588000   0.51311037   -8.8740452    526.18208  0.009557216 0.0075337741         3731 
 4589000   0.52341576   -8.8760411    526.35121 0.0095582045 0.0075308603         3695 
 4590000   0.51979165   -8.8643111    526.04592 0.0095505794 0.0075279482         3736 
 4591000   0.51694801   -8.8855832     526.0624 0.0095487984  0.007525037         3695 
 4592000   0.51828283   -8.8726278    526.87331 0.0095614349 0.0075221277         3757 
 4593000   0.51521538   -8.8748404     525.9327 0.0095422872 0.0075192214         3751 
 4594000   0.51248985   -8.8678612    526.83079 0.0095565011  0.007516315         3681 
 4595000   0.51795008   -8.8755424    525.95631 0.0095385621 0.0075134127         3718 
 4596000   0.50860077   -8.8816178    526.72109 0.0095503534 0.0075105101         3762 
 4597000   0.51852788   -8.8809469      525.657 0.0095289863 0.0075076087         3662 
 4598000   0.50238883   -8.8691492    527.12107 0.0095534483 0.0075047095         3682 
 4599000    0.5151015   -8.8833989    525.62599 0.0095242805 0.0075018099         3712 
 4600000   0.51400346      -8.8739    526.36462 0.0095355909 0.0074989128         3736 
 4601000   0.52229656   -8.8779744    525.90561 0.0095252048 0.0074960152         3736 
 4602000    0.5206903   -8.8812339    525.65737 0.0095186399  0.007493121         3765 
 4603000   0.52098708   -8.8793384    527.00518 0.0095409728 0.0074902291         3722 
 4604000   0.51265402   -8.8949346    525.98463 0.0095204285 0.0074873382         3718 
 4605000   0.51372041   -8.8909778    525.56749 0.0095108123 0.0074844459         3731 
 4606000    0.5173437   -8.8641148    525.96212 0.0095158872 0.0074815574         3706 
 4607000   0.50512939   -8.8696656    525.99744 0.0095144606 0.0074786716         3698 
 4608000   0.51439834   -8.8598156    525.76315 0.0095081588 0.0074757836         3702 
 4609000   0.51600335   -8.9044168    525.59268 0.0095030137 0.0074728989         3714 
 4610000   0.51839902    -8.869822    526.32693  0.009514225 0.0074700164         3701 
 4611000   0.51502206   -8.8815898    526.18092 0.0095095229 0.0074671335         3720 
 4612000   0.52156349   -8.8911867     525.7873 0.0095003487 0.0074642532         3720 
 4613000   0.52914748   -8.8828087    526.23547 0.0095063855 0.0074613744         3687 
 4614000   0.52215539   -8.8764921    525.07393 0.0094833466 0.0074584975         3718 
 4615000    0.5250858   -8.8838059    525.96716 0.0094974207 0.0074556206         3718 
 4616000    0.5138511   -8.8883318     526.2844 0.0095010904 0.0074527458         3744 
 4617000   0.51498427   -8.8877883    525.85227 0.0094912329 0.0074498705         3742 
 4618000   0.49967241   -8.8865491    526.70057 0.0095044855 0.0074469995         3739 
 4619000    0.5095222   -8.8691545    526.53093 0.0094993672 0.0074441307         3733 
 4620000   0.51592653   -8.8649087    525.34228 0.0094758709 0.0074412635         3710 
 4621000   0.52019214   -8.8793236     526.1052 0.0094875784 0.0074383966         3715 
 4622000   0.51765019    -8.870292    526.16169 0.0094865442 0.0074355292         3749 
 4623000   0.51815868    -8.890198    526.53157 0.0094911596 0.0074326664         3731 
 4624000   0.51567152     -8.89007    526.32637 0.0094854088 0.0074298059         3682 
 4625000   0.51605697   -8.8959586    525.12812  0.009461768 0.0074269452         3712 
 4626000   0.52371208   -8.8911941    525.28794 0.0094626017 0.0074240863         3731 
 4627000   0.50902369    -8.898059     525.9867 0.0094731414 0.0074212299         3708 
 4628000   0.52187155   -8.8889456    525.93551 0.0094701727  0.007418373         3724 
 4629000   0.51262482   -8.8854761    526.03627 0.0094699408  0.007415519         3711 
 4630000   0.50397538   -8.8689374    526.15333 0.0094700023 0.0074126651         3719 
 4631000   0.50724439   -8.8862434    525.37032 0.0094538674 0.0074098135         3739 
 4632000   0.50492791   -8.8817541     526.2977 0.0094685107 0.0074069642         3728 
 4633000   0.51122361   -8.8877085    525.77788  0.009457117 0.0074041145         3735 
 4634000   0.51395081   -8.8945128    526.15118 0.0094617892 0.0074012654         3719 
 4635000   0.49285932   -8.8930183    526.37058 0.0094636925 0.0073984191         3697 
 4636000   0.50759949   -8.8863567    525.39573 0.0094441281 0.0073955736         3723 
 4637000   0.50201954   -8.9054279    525.65675 0.0094467822 0.0073927282         3726 
 4638000   0.51396072   -8.8908802    525.19327 0.0094364179 0.0073898875         3689 
 4639000   0.50556679    -8.890454    525.54689 0.0094407359 0.0073870454         3708 
 4640000   0.52238205   -8.8831649    525.70416 0.0094415258 0.0073842044         3742 
 4641000   0.50976699    -8.887691    525.35425 0.0094332085 0.0073813683         3766 
 4642000   0.51128119   -8.8847564     525.8002 0.0094391821 0.0073785338         3770 
 4643000   0.51536117   -8.9021626    525.72086 0.0094357252 0.0073756997         3734 
 4644000   0.51068096    -8.895356    525.25784 0.0094253847 0.0073728641         3719 
 4645000   0.50707819   -8.8826655    526.08934 0.0094382731 0.0073700332         3728 
 4646000   0.50707606   -8.8911284    525.46941 0.0094251222  0.007367201         3738 
 4647000   0.50180966   -8.8863989    525.56489 0.0094248061 0.0073643722         3710 
 4648000     0.506779   -8.9071629    525.54205 0.0094223689 0.0073615464         3721 
 4649000   0.51069262    -8.884139    526.10173 0.0094303745 0.0073587197         3698 
 4650000   0.50602637   -8.8972248     526.0596 0.0094275914 0.0073558955         3712 
 4651000   0.50224749   -8.9062704    525.08477 0.0094080981 0.0073530711         3714 
 4652000   0.49424778   -8.8845276    525.47436 0.0094130546 0.0073502504         3705 
 4653000   0.51082435   -8.9069223     526.0748 0.0094217852 0.0073474311         3713 
 4654000   0.51002769   -8.9122238    525.39038 0.0094075057 0.0073446112         3737 
 4655000   0.50983903   -8.8968051    526.20209  0.009420016  0.007341793         3729 
 4656000   0.50836771   -8.8788642    526.34252 0.0094205061 0.0073389767         3726 
 4657000   0.50945251   -8.8960216    526.04035 0.0094130762  0.007336165         3748 
 4658000   0.50805272   -8.8775568    525.22343 0.0093964403 0.0073333531         3708 
 4659000   0.51352884   -8.8915428    525.85168 0.0094056608 0.0073305433         3736 
 4660000   0.51308523   -8.8805354    525.62226 0.0093995397 0.0073277326         3726 
 4661000   0.50542419   -8.8951747    525.55448 0.0093963112 0.0073249258         3722 
 4662000   0.50457952   -8.8929991    525.65812 0.0093961483 0.0073221203         3706 
 4663000   0.50454845   -8.9055534    525.61269 0.0093933214 0.0073193138         3676 
 4664000   0.49758113   -8.8997174    525.05863 0.0093814077 0.0073165084         3741 
 4665000   0.51090316   -8.9304596    524.93951 0.0093772689 0.0073137044         3693 
 4666000   0.51298951   -8.8862359    525.93623 0.0093930602 0.0073109032         3723 
 4667000    0.4963352   -8.8960865    525.00182 0.0093743628 0.0073081059         3737 
 4668000   0.50165625   -8.8971267    525.59717 0.0093829828 0.0073053088         3719 
 4669000   0.50087092   -8.9000191    526.05913 0.0093892184 0.0073025112         3736 
 4670000   0.50260402   -8.8910907    526.07605 0.0093875098 0.0072997176         3686 
 4671000   0.49727554   -8.8801137    526.02046 0.0093845083 0.0072969256         3731 
 4672000    0.5029835   -8.9043595    525.36128 0.0093707421 0.0072941321         3729 
 4673000   0.51688555    -8.893643    525.17021 0.0093653294 0.0072913378         3722 
 4674000    0.5060681   -8.8933742    525.05645 0.0093612974 0.0072885481         3746 
 4675000   0.50933927   -8.8823305    526.08694 0.0093776637 0.0072857624         3696 
 4676000   0.50798058   -8.9059475    524.50164 0.0093474059 0.0072829758         3677 
 4677000   0.50584192   -8.8988281    525.11594 0.0093563528 0.0072801911         3738 
 4678000   0.50269592   -8.8934719    526.10088 0.0093718982 0.0072774036         3705 
 4679000   0.50526461   -8.9004333    524.84663 0.0093475569 0.0072746189         3721 
 4680000   0.49574314   -8.8972828    526.47002 0.0093744662 0.0072718395         3778 
 4681000   0.49695447   -8.9212159    525.72038  0.009359118 0.0072690592         3717 
 4682000   0.49354847   -8.8915221     525.6052 0.0093550691 0.0072662804         3723 
 4683000    0.5039534   -8.8921325    525.97713 0.0093596899  0.007263504         3739 
 4684000   0.50313515   -8.8996621    525.51392 0.0093494505 0.0072607295         3722 
 4685000    0.4937335   -8.9161701    525.81319 0.0093527781 0.0072579535         3715 
 4686000   0.50746156   -8.8962765    525.75152 0.0093496857 0.0072551807         3683 
 4687000   0.48916745   -8.9018382    525.28179 0.0093393392  0.007252409         3750 
 4688000   0.50167181   -8.8982406    526.05157 0.0093510304 0.0072496376         3739 
 4689000    0.5122563   -8.8982639    525.66317 0.0093421335 0.0072468697         3734 
 4690000   0.50056878   -8.8955243    526.13927 0.0093486011 0.0072441037         3738 
 4691000   0.50329869   -8.9109199    525.30177 0.0093317305 0.0072413379         3736 
 4692000   0.49953631   -8.8908225     525.8248 0.0093390309  0.007238574         3735 
 4693000   0.49556735   -8.8986636    525.38782 0.0093292815 0.0072358102         3736 
 4694000   0.49526978   -8.8959974    525.70226 0.0093328764 0.0072330481         3716 
 4695000   0.49611844   -8.9011085    524.94568 0.0093174598 0.0072302871         3714 
 4696000   0.50097857   -8.8997955    524.92212 0.0093150574 0.0072275261         3744 
 4697000   0.49233302   -8.8975159     524.9718 0.0093139558 0.0072247681         3754 
 4698000   0.50100803   -8.8890709    525.69596 0.0093248184 0.0072220118         3723 
 4699000   0.49500231    -8.911792    525.18724 0.0093138121 0.0072192584         3713 
 4700000   0.50029183   -8.8928506    525.45224 0.0093165292 0.0072165039         3722 
 4701000    0.4941041   -8.8888099    525.44198 0.0093143654 0.0072137504         3723 
 4702000   0.51464283   -8.9006791    524.69508 0.0092991471 0.0072110008         3725 
 4703000   0.50291236   -8.9050619    525.59685 0.0093131486 0.0072082518         3762 
 4704000   0.50494818   -8.9148223    525.22835 0.0093046406 0.0072055031         3739 
 4705000    0.4993178   -8.8946472    525.66481 0.0093103934 0.0072027571         3738 
 4706000   0.50324881   -8.8927903    525.32957 0.0093024787 0.0072000121         3715 
 4707000   0.49718737   -8.9090202    525.62831 0.0093057913 0.0071972695         3709 
 4708000    0.5054883   -8.8808951    526.03172 0.0093109551 0.0071945281         3752 
 4709000   0.49228842   -8.8951935    525.34206 0.0092967731  0.007191788         3751 
 4710000   0.49227518   -8.9217791    525.06204 0.0092898449 0.0071890477         3722 
 4711000   0.50370172   -8.8976287    525.34558 0.0092928887 0.0071863096         3738 
 4712000   0.50001776   -8.8998099    524.67293 0.0092790205 0.0071835725         3719 
 4713000   0.49778395    -8.907347    525.34022 0.0092888504 0.0071808377         3706 
 4714000   0.49914374   -8.9097081    525.21254 0.0092846228 0.0071781024         3742 
 4715000   0.49319802   -8.9189319    524.90267 0.0092771769 0.0071753697         3739 
 4716000   0.48849178   -8.9032846    523.93574 0.0092581238  0.007172637         3712 
 4717000   0.50177672    -8.916057    525.03394 0.0092755625 0.0071699074         3723 
 4718000   0.49147552   -8.8863054    526.41412 0.0092979745 0.0071671774         3741 
 4719000   0.49386021   -8.9104396    525.78123 0.0092848279 0.0071644515         3726 
 4720000   0.49986431    -8.899342    526.22829 0.0092907537 0.0071617233         3739 
 4721000   0.48536112    -8.914401    525.34155 0.0092731334 0.0071589984         3704 
 4722000   0.50152083   -8.9042714    525.76563 0.0092786537  0.007156276         3679 
 4723000   0.48503505   -8.9069385    524.85778 0.0092606708 0.0071535538         3735 
 4724000   0.49030311   -8.9125281    524.51336 0.0092526348 0.0071508314         3735 
 4725000   0.49537387   -8.9133258    525.01031  0.009259441 0.0071481112         3725 
 4726000   0.48851053   -8.8857457    525.50232 0.0092661573 0.0071453954         3685 
 4727000   0.49954039   -8.9199619    524.91123 0.0092537768 0.0071426794         3715 
 4728000   0.49858301    -8.905302    524.23545 0.0092399086 0.0071399639         3705 
 4729000   0.49564419    -8.916703    524.95157  0.009250574 0.0071372496         3714 
 4730000   0.49343336   -8.9099799    525.42701 0.0092569946 0.0071345372         3720 
 4731000   0.49698162   -8.9031954    524.90038 0.0092457616 0.0071318243         3712 
 4732000   0.49705921   -8.9173444    525.01922 0.0092459006 0.0071291146         3730 
 4733000   0.50022142   -8.9214716     524.2732 0.0092308119 0.0071264066         3706 
 4734000   0.50396118   -8.9437536    525.08091 0.0092430804 0.0071237025         3756 
 4735000   0.49999735   -8.9067812    524.36183 0.0092284729  0.007120996         3713 
 4736000   0.47832946   -8.9133203    525.53364 0.0092471432 0.0071182921         3732 
 4737000   0.49913923   -8.9145371    525.15809 0.0092385843 0.0071155887         3706 
 4738000   0.49365871   -8.9078989    524.77275 0.0092298571 0.0071128879         3712 
 4739000   0.49710696   -8.9152852    524.59757  0.009224829 0.0071101875         3690 
 4740000   0.48949972   -8.9090431    524.87713 0.0092277976 0.0071074887         3716 
 4741000   0.49373329    -8.909491    524.96699 0.0092274308 0.0071047931         3706 
 4742000   0.49405063   -8.8889623    524.57032 0.0092185141 0.0071020988         3740 
 4743000   0.49144505   -8.9072332    525.32454 0.0092298219 0.0070994036         3706 
 4744000   0.49308393   -8.9130026    524.51387 0.0092136359 0.0070967127         3740 
 4745000    0.4980763   -8.9245102    524.92529 0.0092189197 0.0070940215         3747 
 4746000   0.48779446   -8.9089665    524.86159 0.0092158589 0.0070913344         3679 
 4747000   0.49339744   -8.9230465    524.50318 0.0092076255 0.0070886459         3756 
 4748000   0.50116856   -8.9166335    524.25709 0.0092013671 0.0070859597         3722 
 4749000   0.49670945   -8.9149149     524.9446 0.0092114936  0.007083274         3741 
 4750000   0.49573467   -8.9040982    525.27876 0.0092154169 0.0070805913         3754 
 4751000   0.48710649   -8.9108509    525.35866 0.0092148786 0.0070779076         3699 
 4752000   0.49714866   -8.9111784    525.12372 0.0092088195  0.007075225         3708 
 4753000   0.47896581   -8.9009661     524.2831 0.0091921436 0.0070725454         3737 
 4754000   0.49336482   -8.9113689    525.32195 0.0092084202 0.0070698683         3700 
 4755000   0.48726963   -8.9113994    524.57016 0.0091933081 0.0070671899         3758 
 4756000   0.49564026   -8.9120742    524.29102  0.009186484  0.007064515         3744 
 4757000   0.48309925   -8.9163271    524.70976 0.0091918885 0.0070618415         3746 
 4758000   0.50151955   -8.9142759    525.17252 0.0091980616 0.0070591672         3760 
 4759000   0.49437828   -8.9039262    524.83039 0.0091901378 0.0070564954         3761 
 4760000    0.4900596   -8.9134291    525.89267 0.0092068045 0.0070538237         3694 
 4761000   0.49357225   -8.9216651    525.06475 0.0091903792 0.0070511545         3720 
 4762000   0.49832327    -8.923596    525.46506 0.0091954546 0.0070484875         3763 
 4763000   0.49184343   -8.9335708    525.11141 0.0091873365  0.007045822         3739 
 4764000   0.48831269    -8.920467    525.27755 0.0091883143 0.0070431566         3746 
 4765000   0.49427454   -8.9179233    524.86072 0.0091790962  0.007040495         3740 
 4766000   0.49206295   -8.9268065    525.27447 0.0091844046  0.007037832         3746 
 4767000   0.48637202   -8.9131719    525.50616 0.0091865282 0.0070351721         3749 
 4768000   0.50000551   -8.9173824     525.5985 0.0091862153 0.0070325154         3730 
 4769000   0.49295517   -8.9117998    524.66329 0.0091679473 0.0070298591         3768 
 4770000   0.49332577   -8.9172094    524.01586 0.0091547146 0.0070272035         3730 
 4771000   0.49002128    -8.925443    524.51181 0.0091614583  0.007024548         3746 
 4772000    0.4810963    -8.928157    524.43989 0.0091582826 0.0070218931         3746 
 4773000    0.4914591   -8.9317942    524.98587 0.0091658962 0.0070192414         3696 
 4774000   0.48573157   -8.9262569    524.38254 0.0091534447 0.0070165922         3743 
 4775000   0.47575512   -8.9175404    524.53602 0.0091542063 0.0070139418         3776 
 4776000   0.47697575     -8.91426     525.3788 0.0091669947 0.0070112938         3725 
 4777000   0.48638647   -8.9263242    525.10661 0.0091603275  0.007008646         3751 
 4778000   0.47975909   -8.9349745     524.1225 0.0091412463 0.0070059984         3712 
 4779000   0.50069071   -8.9223514    524.35875 0.0091434531 0.0070033524         3728 
 4780000   0.48767397   -8.9181334    524.47779 0.0091436156  0.007000707         3695 
 4781000   0.47956499   -8.9168723    525.06669 0.0091519677 0.0069980654         3716 
 4782000   0.48427075   -8.9384325    524.44714 0.0091392573 0.0069954245         3740 
 4783000   0.48347618    -8.915954    524.89127 0.0091450844 0.0069927856         3730 
 4784000   0.47630574   -8.9261453    525.44981 0.0091529023 0.0069901467         3730 
 4785000    0.4765251    -8.941455    524.79653 0.0091396121 0.0069875096         3755 
 4786000   0.48759399   -8.9131338    525.47544 0.0091495236  0.006984872         3720 
 4787000    0.4785805   -8.9115133    524.13846 0.0091243377 0.0069822359         3731 
 4788000   0.48485282    -8.924197    524.91926 0.0091360217  0.006979605         3687 
 4789000   0.47631849   -8.9334744    524.25156 0.0091224954 0.0069769731         3728 
 4790000   0.48674595   -8.9240658    524.49848 0.0091248866 0.0069743416         3729 
 4791000   0.48510626   -8.9355564    524.56495 0.0091241382 0.0069717135         3723 
 4792000    0.4862969   -8.9394075    523.91145 0.0091108698  0.006969084         3745 
 4793000   0.48568088    -8.918713    524.81093 0.0091246076 0.0069664561         3681 
 4794000   0.47597255   -8.9191113    524.80383 0.0091225809   0.00696383         3757 
 4795000   0.48277042   -8.9441495    524.48745 0.0091151799 0.0069612073         3712 
 4796000   0.49312448   -8.9367496    524.67354 0.0091165126  0.006958584         3780 
 4797000   0.48255645   -8.9255062    523.97773 0.0091025247 0.0069559639         3693 
 4798000    0.4730051   -8.9334693    524.94683 0.0091174592 0.0069533425         3766 
 4799000   0.47703848   -8.9083115    525.11986  0.009118564 0.0069507249         3709 
 4800000   0.48501787   -8.9367251    524.69422 0.0091092747  0.006948109         3696 
 4801000   0.48105164   -8.9180972    525.07128 0.0091139222 0.0069454941         3706 
 4802000   0.49011247   -8.9263502    524.43873  0.009101047 0.0069428775         3664 
 4803000    0.4877536    -8.922685    525.79092  0.009122613 0.0069402641         3736 
 4804000   0.48541828   -8.9105504     525.5891 0.0091172131 0.0069376537         3746 
 4805000   0.49118278   -8.9280758    524.32201 0.0090933405 0.0069350434         3733 
 4806000   0.49700633   -8.9264206    524.47153 0.0090940409 0.0069324355         3720 
 4807000   0.49898242    -8.923031    524.80841 0.0090979892 0.0069298295         3748 
 4808000   0.48440752   -8.9228973    523.77311 0.0090781528 0.0069272235         3732 
 4809000   0.48160756   -8.9147773    524.10855 0.0090820778 0.0069246188         3710 
 4810000   0.47895727   -8.9168757    525.00105 0.0090956523 0.0069220146         3712 
 4811000   0.48468167    -8.933061    524.35215 0.0090825218 0.0069194126         3733 
 4812000   0.48157524   -8.9219898    524.35881 0.0090807496 0.0069168109         3690 
 4813000   0.48990782   -8.9225645    524.18188 0.0090757996 0.0069142119         3734 
 4814000   0.48954665   -8.9250877    524.85717  0.009085604 0.0069116132         3775 
 4815000     0.487128   -8.9310737    524.82812 0.0090832142 0.0069090159         3707 
 4816000   0.48527511   -8.9388208    524.12469 0.0090691564 0.0069064202         3751 
 4817000   0.49222357    -8.933064    524.19786 0.0090685396 0.0069038243         3714 
 4818000   0.47896619   -8.9342709    524.42283 0.0090705485 0.0069012326         3742 
 4819000    0.4765293   -8.9215561    525.31891 0.0090841618 0.0068986411         3712 
 4820000   0.49643285   -8.9357185      524.555 0.0090690698 0.0068960508         3764 
 4821000   0.47514484   -8.9265912    524.38289 0.0090642138 0.0068934626         3726 
 4822000   0.48080306   -8.9356061    524.48964 0.0090641787 0.0068908734         3745 
 4823000   0.47435818   -8.9307791    523.79198  0.009050245 0.0068882855         3760 
 4824000   0.47735703   -8.9336971    524.11246 0.0090539051 0.0068857001         3692 
 4825000   0.47564862   -8.9172837    524.14838  0.009052649  0.006883115         3734 
 4826000   0.48617192   -8.9388123     524.1105 0.0090501192 0.0068805331         3751 
 4827000   0.48311214   -8.9274511    525.02258 0.0090639904 0.0068779525         3747 
 4828000   0.48426679    -8.926873     525.3791 0.0090682668 0.0068753729         3695 
 4829000   0.48269362   -8.9319561    524.66064 0.0090539905 0.0068727926         3742 
 4830000   0.48543198   -8.9397223    524.71151 0.0090529936 0.0068702151         3726 
 4831000   0.47200855     -8.93756    523.79896 0.0090353785 0.0068676399         3735 
 4832000   0.48349641    -8.928164    524.05645 0.0090379493 0.0068650654         3750 
 4833000   0.47696319   -8.9264458    524.88379 0.0090503446 0.0068624906         3727 
 4834000   0.47662955   -8.9408411    524.25349 0.0090376067 0.0068599172         3735 
 4835000   0.48103134   -8.9310949    523.88532  0.009029392 0.0068573488         3717 
 4836000   0.48502022   -8.9459694    524.49775 0.0090380782 0.0068547781         3732 
 4837000     0.480624   -8.9350334    525.38027 0.0090514139 0.0068522108         3749 
 4838000   0.47198937   -8.9251717    524.04462 0.0090265367 0.0068496438         3717 
 4839000   0.48222882   -8.9350928    523.97338 0.0090234446 0.0068470795         3697 
 4840000   0.47558897   -8.9293648     524.4909 0.0090304908 0.0068445158         3754 
 4841000   0.46909713   -8.9398093    524.53653 0.0090294108 0.0068419512         3720 
 4842000   0.47139078   -8.9246933    523.61845 0.0090117454 0.0068393893         3776 
 4843000    0.4751596   -8.9346049    524.37004 0.0090228171 0.0068368284         3731 
 4844000   0.47887188   -8.9379316    523.63965 0.0090083893 0.0068342699         3733 
 4845000   0.48116954   -8.9191646     524.8156 0.0090267561  0.006831713         3726 
 4846000   0.47459039   -8.9384823    524.24375 0.0090150597 0.0068291559         3754 
 4847000   0.47391995   -8.9497301    523.36649 0.0089981172    0.0068266         3750 
 4848000   0.46945244   -8.9161917    524.68204 0.0090188745 0.0068240444         3716 
 4849000    0.4703478    -8.940456     524.2748 0.0090100158 0.0068214901         3732 
 4850000    0.4694565     -8.92927    524.76567 0.0090165923 0.0068189393         3776 
 4851000   0.47170277    -8.928628    524.64161 0.0090126024 0.0068163881         3729 
 4852000   0.47696912   -8.9385053    524.19498  0.009003074 0.0068138377         3729 
 4853000   0.47180799   -8.9208288    525.31979 0.0090205336 0.0068112906         3703 
 4854000   0.47370703   -8.9506472    524.88696 0.0090112443 0.0068087432         3700 
 4855000   0.48145954   -8.9445181    524.81927 0.0090082263 0.0068061966         3733 
 4856000   0.47407044   -8.9400555    524.00204 0.0089923469 0.0068036545         3694 
 4857000    0.4723704   -8.9302575    523.71358 0.0089855463 0.0068011118         3772 
 4858000   0.47528505   -8.9468742    524.74712 0.0090014259 0.0067985704         3741 
 4859000   0.47274155   -8.9313897    523.53103  0.008978717 0.0067960289         3724 
 4860000    0.4785971    -8.934303    524.31827 0.0089903682  0.006793491         3749 
 4861000   0.47261347   -8.9427293    523.72978   0.00897843 0.0067909535         3733 
 4862000   0.47841064   -8.9405339    524.24979 0.0089854962 0.0067884171         3746 
 4863000   0.47568252   -8.9482611    523.91589 0.0089779268 0.0067858817         3720 
 4864000   0.45910017   -8.9456443    523.95803 0.0089768029 0.0067833486         3755 
 4865000   0.48570419   -8.9416379     524.7122  0.008987876 0.0067808162         3729 
 4866000    0.4706601   -8.9437734    523.66529 0.0089680999 0.0067782843         3761 
 4867000   0.47652269   -8.9450629     524.4224 0.0089792207 0.0067757549         3733 
 4868000   0.47020925   -8.9336532    524.92956 0.0089860579 0.0067732271         3747 
 4869000   0.47366545   -8.9253892    524.92644 0.0089841589 0.0067706994         3734 
 4870000   0.46908709   -8.9460252    524.12403 0.0089685837  0.006768172         3748 
 4871000   0.46514693   -8.9432292    524.48172 0.0089728619 0.0067656484         3755 
 4872000   0.45876924   -8.9501634    524.51727 0.0089716282 0.0067631253         3747 
 4873000   0.47706132   -8.9337797    524.62344 0.0089716027 0.0067606018         3767 
 4874000   0.47335904   -8.9480989    524.78162 0.0089724665 0.0067580818         3717 
 4875000   0.47416829   -8.9360304    523.72487 0.0089525619 0.0067555613         3736 
 4876000   0.47318847   -8.9542688    524.09016 0.0089569688 0.0067530415         3739 
 4877000   0.47295662   -8.9468263    523.88219 0.0089515787  0.006750525         3772 
 4878000   0.45878639   -8.9339542    524.26908  0.008956353 0.0067480097         3725 
 4879000   0.46336649    -8.944582    524.53072 0.0089589861 0.0067454929         3737 
 4880000    0.4713754   -8.9468653    525.08221 0.0089665678 0.0067429801         3742 
 4881000   0.47795263   -8.9520894    524.17779 0.0089492896 0.0067404655         3755 
 4882000    0.4683981   -8.9462818    524.98744 0.0089612768 0.0067379535         3760 
 4883000   0.47273453   -8.9514693    523.88165 0.0089405701 0.0067354435         3772 
 4884000   0.46391574   -8.9356945     524.0711  0.008941972 0.0067329358         3767 
 4885000   0.47331334   -8.9580888    523.90688 0.0089373401  0.006730428         3730 
 4886000   0.45477514   -8.9455147    523.45356 0.0089277793 0.0067279205         3723 
 4887000   0.46951132   -8.9555855    524.10038  0.008936982 0.0067254141         3742 
 4888000   0.46670492   -8.9430974    523.76288 0.0089293999 0.0067229108         3757 
 4889000   0.46762871   -8.9320442    524.08555 0.0089330733 0.0067204104         3763 
 4890000   0.46447721   -8.9579325    524.15883 0.0089324954 0.0067179097         3783 
 4891000   0.46497685   -8.9474407    524.41542 0.0089350409   0.00671541         3735 
 4892000   0.46534596   -8.9559285    524.21772 0.0089298468 0.0067129123         3766 
 4893000   0.46619398   -8.9603024    524.33932 0.0089300926 0.0067104162         3731 
 4894000   0.46860417   -8.9418883    523.98826 0.0089222903 0.0067079211         3737 
 4895000   0.47654125   -8.9482782    523.93413  0.008919546 0.0067054272         3759 
 4896000   0.46338179    -8.930008    524.57889 0.0089286984 0.0067029355         3739 
 4897000   0.46578898   -8.9533192     523.7491 0.0089127544 0.0067004432         3740 
 4898000   0.47360516   -8.9313455    523.51009 0.0089068684 0.0066979531         3711 
 4899000   0.47415458   -8.9494519    523.45092 0.0089040437 0.0066954628         3743 
 4900000   0.45637982    -8.946939    524.18253 0.0089146689 0.0066929743         3765 
 4901000   0.46857542   -8.9482742    524.51591 0.0089185185 0.0066904884         3751 
 4902000   0.46235726   -8.9563715    524.43745 0.0089153652 0.0066880016         3776 
 4903000    0.4498433   -8.9305994    523.89045   0.00890425 0.0066855181         3777 
 4904000   0.46848974   -8.9310184    524.24666 0.0089084874 0.0066830355         3739 
 4905000   0.45582186    -8.952349    524.09487 0.0089040922 0.0066805542         3740 
 4906000    0.4670198   -8.9593296    523.94639 0.0088997552 0.0066780733         3722 
 4907000   0.46556931   -8.9578069    524.09567 0.0089004767 0.0066755955         3754 
 4908000   0.47055632   -8.9631691    524.29201 0.0089019969 0.0066731166         3734 
 4909000   0.46451088   -8.9453039    524.95098   0.00891137 0.0066706404         3757 
 4910000   0.46980755   -8.9609593    524.02264 0.0088937991  0.006668163         3749 
 4911000   0.46860226    -8.966993    523.75999 0.0088875312 0.0066656874         3786 
 4912000   0.46097113    -8.940602    524.87083 0.0089045676 0.0066632126         3748 
 4913000   0.45324894   -8.9456142     524.3568 0.0088940363 0.0066607396         3741 
 4914000   0.46584912   -8.9584006    523.56983 0.0088788806 0.0066582685         3772 
 4915000   0.46290777   -8.9641936    523.29684 0.0088724456 0.0066557969         3722 
 4916000   0.46967925    -8.968788      523.554 0.0088750001 0.0066533262         3733 
 4917000   0.46723317   -8.9623223    523.45404  0.008871501 0.0066508592         3753 
 4918000   0.46146274   -8.9588096     524.1579 0.0088816237 0.0066483924         3717 
 4919000   0.45816505   -8.9499674    524.07923 0.0088784853 0.0066459253         3754 
 4920000   0.46320886   -8.9524758    524.05985 0.0088763525 0.0066434622         3715 
 4921000   0.46127908   -8.9477379     524.2752 0.0088781954 0.0066409986         3733 
 4922000   0.45316251   -8.9576499    523.77135 0.0088678612 0.0066385375         3757 
 4923000   0.46236149   -8.9577215    523.94691 0.0088690317 0.0066360772         3738 
 4924000   0.45423892   -8.9544514    523.92614 0.0088668789  0.006633618         3763 
 4925000   0.46135811    -8.947737    523.75467 0.0088621772 0.0066311604         3747 
 4926000   0.45884613   -8.9610831    523.53453  0.008856654 0.0066287017         3732 
 4927000   0.46719095   -8.9531248     523.4775 0.0088538919  0.006626244         3729 
 4928000   0.46820577   -8.9523799    524.40012 0.0088676969 0.0066237912         3721 
 4929000   0.46421589    -8.961061    524.60774 0.0088694079 0.0066213386         3753 
 4930000   0.46586328   -8.9602301    523.13916  0.008842785  0.006618887         3752 
 4931000   0.47055806   -8.9484002    523.77692 0.0088517698  0.006616437         3739 
 4932000   0.45146952   -8.9552038    524.16156  0.008856474 0.0066139896         3722 
 4933000   0.46504525   -8.9578625    523.92945 0.0088507577 0.0066115412         3736 
 4934000    0.4648001   -8.9665234    523.93505 0.0088490584 0.0066090933         3752 
 4935000   0.46188941   -8.9573493    523.16299 0.0088342281 0.0066066492         3724 
 4936000    0.4606124    -8.951568    523.21848 0.0088333752 0.0066042045         3758 
 4937000   0.45289695   -8.9733169    523.16575  0.008830696 0.0066017605         3721 
 4938000   0.45430971   -8.9473925    524.31254 0.0088482608 0.0065993176         3740 
 4939000   0.45390713   -8.9512896    524.32645  0.008846704 0.0065968762         3756 
 4940000   0.46692622   -8.9398084    523.65788 0.0088336349 0.0065944379         3748 
 4941000   0.46625274   -8.9633523    523.48429 0.0088289194 0.0065919981         3734 
 4942000   0.45656942   -8.9577446    524.21244 0.0088394111 0.0065895607         3734 
 4943000   0.45205589   -8.9445855    523.02549 0.0088176123 0.0065871235         3773 
 4944000   0.45751621   -8.9551897    523.31654 0.0088207345 0.0065846894         3785 
 4945000   0.46790896    -8.962341    522.73604 0.0088091682  0.006582257         3788 
 4946000   0.46352679   -8.9630581    523.52772 0.0088207258 0.0065798239         3749 
 4947000   0.45499429   -8.9628749    524.00913 0.0088270522 0.0065773932         3755 
 4948000   0.45306383   -8.9623047    523.92814 0.0088239043 0.0065749633         3733 
 4949000   0.46257055   -8.9611524    523.94368  0.008822383 0.0065725337         3728 
 4950000   0.46220513   -8.9498404    524.16953 0.0088244029 0.0065701074         3708 
 4951000   0.46435866   -8.9695839    523.11933 0.0088049439 0.0065676819         3734 
 4952000   0.45827155   -8.9903163    523.59988 0.0088112527 0.0065652575         3760 
 4953000   0.47279357   -8.9544848    523.96248 0.0088155744 0.0065628328         3737 
 4954000   0.46234491   -8.9528858     523.7335 0.0088099432 0.0065604101         3740 
 4955000   0.45388973   -8.9731897    523.89469 0.0088108761 0.0065579892         3755 
 4956000   0.45929925    -8.975234    523.65539 0.0088050745 0.0065555682         3738 
 4957000   0.45986782   -8.9562614    523.74048 0.0088047286 0.0065531499         3738 
 4958000   0.46340344   -8.9746097    523.74665 0.0088030565 0.0065507343         3728 
 4959000   0.44865094   -8.9675934    523.46093   0.00879648 0.0065483177         3781 
 4960000   0.45519142   -8.9560515    523.87877 0.0088017266 0.0065459022         3733 
 4961000   0.46160227   -8.9514706    523.85202 0.0087995031  0.006543491         3725 
 4962000   0.46070826   -8.9609061    523.64192 0.0087942013 0.0065410791         3752 
 4963000   0.45858411   -8.9619913    523.19594 0.0087849409 0.0065386677         3734 
 4964000   0.45793284   -8.9639238    523.84416 0.0087940531  0.006536257         3705 
 4965000   0.45956157   -8.9821643    522.98219 0.0087778145 0.0065338474         3734 
 4966000   0.45388187   -8.9664887    523.50084 0.0087847504 0.0065314396         3782 
 4967000   0.45879602   -8.9586632    523.11247 0.0087764659 0.0065290324         3745 
 4968000   0.45610631   -8.9625997    524.05751 0.0087905514 0.0065266267         3750 
 4969000   0.45354359   -8.9730405    523.87314 0.0087856902 0.0065242203         3732 
 4970000   0.44988538   -8.9631001    523.72537 0.0087814449 0.0065218162         3785 
 4971000   0.46399602   -8.9648911    523.62148 0.0087779367 0.0065194149         3763 
 4972000   0.45761495    -8.970361    523.29315 0.0087706683 0.0065170137         3748 
 4973000   0.45136188   -8.9516829    523.30392 0.0087690851 0.0065146124         3798 
 4974000   0.46080231   -8.9671981    523.53599 0.0087712101 0.0065122143         3745 
 4975000   0.46189841   -8.9805643    523.25037 0.0087646627 0.0065098174         3773 
 4976000   0.45849425   -8.9520748    522.85214 0.0087562323 0.0065074203         3728 
 4977000   0.45878384   -8.9812692    523.32506 0.0087623914 0.0065050239         3732 
 4978000   0.44855187   -8.9541529    524.51836 0.0087806073 0.0065026304         3720 
 4979000   0.45668735   -8.9790446    523.75564 0.0087660781 0.0065002396         3737 
 4980000   0.45581918   -8.9759342    523.38511 0.0087581176  0.006497849         3772 
 4981000   0.45575282   -8.9598655    523.48518 0.0087580335 0.0064954594         3786 
 4982000   0.44920862   -8.9692896    523.12622 0.0087502714 0.0064930714         3745 
 4983000   0.45908825   -8.9742248    523.03309 0.0087469578  0.006490684         3773 
 4984000   0.44829955   -8.9590447    523.72123 0.0087567086  0.006488297         3741 
 4985000   0.46131874   -8.9670069    523.96511  0.008759029 0.0064859118         3741 
 4986000   0.44774889   -8.9759321    523.06575 0.0087422407 0.0064835264         3781 
 4987000   0.45459119   -8.9686047    522.84876 0.0087368618 0.0064811437         3736 
 4988000   0.44796934   -8.9608783    523.28123 0.0087423354 0.0064787604         3742 
 4989000   0.45363943   -8.9649923    523.05104 0.0087367381 0.0064763789         3766 
 4990000   0.45498309   -8.9748979    522.95796 0.0087334329 0.0064739985         3774 
 4991000   0.46733146   -8.9699074    522.74037 0.0087280499 0.0064716185         3756 
 4992000   0.44250949   -8.9585215    523.40778 0.0087374429 0.0064692411         3777 
 4993000   0.45322201   -8.9686719    523.07093 0.0087300709 0.0064668647         3748 
 4994000   0.45322301   -8.9744575     522.9949 0.0087270541   0.00646449         3772 
 4995000   0.46131606   -8.9718833    523.08606 0.0087268279 0.0064621162         3742 
 4996000   0.46085144   -8.9736316    523.76121 0.0087363426 0.0064597425         3767 
 4997000   0.43223396   -8.9710144    522.55085 0.0087144095 0.0064573695         3706 
 4998000   0.46596355   -8.9620046    523.82906 0.0087339779 0.0064549991         3712 
 4999000   0.44985372   -8.9699261    523.51502 0.0087269957 0.0064526306         3707 
 5000000   0.44568903   -8.9713879    523.76901 0.0087294835 0.0064502628         3771 
 5001000   0.45140346   -8.9772321    523.62809 0.0087253898 0.0064478952         3772 
 5002000   0.45619363   -8.9731905     523.9897 0.0087296699 0.0064455296         3712 
 5003000   0.45281043   -8.9642493    522.93759 0.0087104002 0.0064431642         3778 
 5004000   0.45008197   -8.9759615    523.36091 0.0087157092 0.0064407997         3747 
 5005000   0.45859016   -8.9805963    523.30954 0.0087131125 0.0064384388         3728 
 5006000   0.44978078   -8.9623635    523.12167 0.0087082446 0.0064360781         3749 
 5007000   0.44943764   -8.9739117    523.53202 0.0087133351 0.0064337209         3754 
 5008000   0.45114213    -8.982606    523.44731 0.0087101855 0.0064313623         3764 
 5009000    0.4569511   -8.9701935    523.35114 0.0087068466 0.0064290033         3723 
 5010000   0.45102875   -8.9857511    522.91878 0.0086979171 0.0064266458         3725 
 5011000   0.45528696   -8.9658353    523.51732 0.0087061352 0.0064242905         3750 
 5012000    0.4521101   -8.9645023    523.82239 0.0087094705 0.0064219373         3750 
Loop time of 13527.2 on 48 procs for 5000000 steps with 4000 atoms

Performance: 63871.411 tau/day, 369.626 timesteps/s
99.4% CPU use with 48 MPI tasks x no OpenMP threads

MPI task timing breakdown:
Section |  min time  |  avg time  |  max time  |%varavg| %total
---------------------------------------------------------------
Pair    | 989.99     | 1079.5     | 1211.6     | 180.8 |  7.98
Neigh   | 93.498     | 98.534     | 105.27     |  26.4 |  0.73
Comm    | 831.47     | 979.93     | 1084.4     | 204.4 |  7.24
Output  | 40.344     | 40.35      | 40.444     |   0.2 |  0.30
Modify  | 11149      | 11196      | 11275      |  23.4 | 82.77
Other   |            | 132.7      |            |       |  0.98

Nlocal:        83.3333 ave          92 max          75 min
Histogram: 5 3 6 2 11 6 1 5 6 3
Nghost:        2456.10 ave        2482 max        2430 min
Histogram: 1 1 2 8 15 9 6 3 2 1
Neighs:        17113.9 ave       20285 max       14618 min
Histogram: 4 3 12 5 6 5 5 3 1 4
FullNghs:      34227.1 ave       38028 max       30499 min
Histogram: 4 4 3 8 7 5 3 5 6 3

Total # of neighbors = 1642901
Ave neighs/atom = 410.72525
Neighbor list builds = 266141
Dangerous builds = 0

#clear
#
#next RN
#
#jump SELF
Total wall time: 3:45:31
