
units lj                  # Use reduced LJ style units
atom_style atomic         # Uncharged point particles
atom_modify map hash      # Needed for indexing of clusters etc
                          # Used to be able to find where atoms are in relation to each other.

lattice fcc 1.0 spacing 1 1 1
Lattice spacing in x,y,z = 1.5874011 1.5874011 1.5874011
region box block 0 10 0 10 0 10 units lattice
create_box 2 box
Created orthogonal box = (0.0000000 0.0000000 0.0000000) to (15.874011 15.874011 15.874011)
  3 by 4 by 4 MPI processor grid
create_atoms 1 box
Created 4000 atoms
  using lattice units in orthogonal box = (0.0000000 0.0000000 0.0000000) to (15.874011 15.874011 15.874011)
  create_atoms CPU = 0.004 seconds
set type 1 type/fraction 2 0.89 78393
Setting atom values ...
  3550 settings made for type/fraction
mass 1 1.0
mass 2 1.0
pair_style lj/cut  3.5
pair_modify tail  yes
pair_coeff 1  1  1.0  1.0   # Intearaction between 1 and 1 set with epsilon = 1 and sigma = 1
pair_coeff 1  2  1.5  0.8
pair_coeff 2  2  0.5  0.88

write_data data.0
System init for write_data ...
Neighbor list info ...
  update every 1 steps, delay 10 steps, check yes
  max neighbors/atom: 2000, page size: 100000
  master list distance cutoff = 3.8
  ghost atom cutoff = 3.8
  binsize = 1.9, bins = 9 9 9
  1 neighbor lists, perpetual/occasional/extra = 1 0 0
  (1) pair lj/cut, perpetual
      attributes: half, newton on
      pair build: half/bin/atomonly/newton
      stencil: half/bin/3d
      bin: standard
WARNING: Not all mixed pair coeffs generated from mixing. Use write_data with 'pair ij' option to store all pair coeffs. (../write_data.cpp:312)


#############################
#   M E L T   S Y S T E M   #
#############################

velocity all create 2.4 1741580 mom yes dist gaussian # Assign velocities
                                                    # Temperature 2.4, random number seed, zero linear momentum
                                                                                # Gaussian distribution

timestep 0.002   # simulation timestep
thermo 1000       # output thermodynamic data every 1000 steps bf 100

# Define a fix  in this case with index 1 applied to all
# particles in the simulation. This fix is for simulations
# in the anisotropic NPT ensemble. Note that we use the MTK
# correction.
fix 1 all npt temp 2.4 2.4 0.1 iso 5.68 5.68 0.5 mtk yes tchain 5 pchain 5 # Use NPT ensemble
                                                                         # Set temperature and pressure and damping
                                                                         # Numbers of thermostats in chain and in barostat
run 10000          # run for 10000 steps
Per MPI rank memory allocation (min/avg/max) = 3.642 | 3.644 | 3.648 Mbytes
Step Temp E_pair E_mol TotEng Press Volume 
       0          2.4   -3.2438273            0   0.35527274   -2.6679874         4000 
    1000    2.4019431   -2.3341346            0    1.2678793    5.5079048    3986.6788 
    2000    2.4125286   -2.3795245            0    1.2383638    5.5300117     3966.075 
    3000    2.3819255   -2.3144279            0    1.2575672    5.8684132    3952.1409 
    4000    2.3990491   -2.3380167            0    1.2596573    5.7143762    3956.9802 
    5000    2.3724485   -2.3072448            0    1.2505383    5.7049606    3977.1137 
    6000    2.4336852   -2.2835824            0    1.3660328    5.5926923    4030.2482 
    7000    2.4322501   -2.2980293            0    1.3494338    5.7972988    3974.1292 
    8000    2.3661527   -2.3079583            0    1.2403835    5.7646134    3973.5754 
    9000    2.3937666   -2.3243599            0    1.2653923    5.5922052    3991.1847 
   10000    2.3817682   -2.3478719            0    1.2238872    5.7172201    3949.4008 
Loop time of 2.50358 on 48 procs for 10000 steps with 4000 atoms

Performance: 690212.738 tau/day, 3994.287 timesteps/s
99.7% CPU use with 48 MPI tasks x no OpenMP threads

MPI task timing breakdown:
Section |  min time  |  avg time  |  max time  |%varavg| %total
---------------------------------------------------------------
Pair    | 1.1077     | 1.1697     | 1.2496     |   2.7 | 46.72
Neigh   | 0.21003    | 0.21755    | 0.22492    |   0.7 |  8.69
Comm    | 0.76493    | 0.84488    | 0.93186    |   3.8 | 33.75
Output  | 0.00025226 | 0.0002565  | 0.00032394 |   0.0 |  0.01
Modify  | 0.23713    | 0.25607    | 0.27315    |   1.7 | 10.23
Other   |            | 0.01515    |            |       |  0.61

Nlocal:        83.3333 ave          94 max          75 min
Histogram: 2 7 5 9 8 2 9 1 4 1
Nghost:        1655.08 ave        1679 max        1632 min
Histogram: 3 2 5 7 8 7 5 6 2 3
Neighs:        9652.81 ave       11227 max        8424 min
Histogram: 5 3 8 6 7 5 7 5 0 2

Total # of neighbors = 463335
Ave neighs/atom = 115.83375
Neighbor list builds = 909
Dangerous builds = 244

# Equilibrate just above the melting temperature to avoid step fn in T

fix 1 all npt temp 1.25 1.25 0.1 iso 5.68 5.68 0.5 mtk yes tchain 5 pchain 5
run 2000
Per MPI rank memory allocation (min/avg/max) = 3.643 | 3.645 | 3.649 Mbytes
Step Temp E_pair E_mol TotEng Press Volume 
   10000    2.3817682   -2.3478719            0    1.2238872    5.7172201    3949.4008 
   11000     1.244223   -3.4731295            0   -1.6072616    5.4323683    3084.0508 
   12000    1.2781676   -3.4631249            0   -1.5463528    5.6820419    3085.1537 
Loop time of 0.622244 on 48 procs for 2000 steps with 4000 atoms

Performance: 555408.913 tau/day, 3214.172 timesteps/s
99.7% CPU use with 48 MPI tasks x no OpenMP threads

MPI task timing breakdown:
Section |  min time  |  avg time  |  max time  |%varavg| %total
---------------------------------------------------------------
Pair    | 0.27256    | 0.29932    | 0.34717    |   2.2 | 48.10
Neigh   | 0.039732   | 0.04206    | 0.049738   |   0.7 |  6.76
Comm    | 0.18066    | 0.22936    | 0.25643    |   2.7 | 36.86
Output  | 5.3416e-05 | 5.4606e-05 | 6.937e-05  |   0.0 |  0.01
Modify  | 0.039257   | 0.0466     | 0.053617   |   1.9 |  7.49
Other   |            | 0.004849   |            |       |  0.78

Nlocal:        83.3333 ave          92 max          77 min
Histogram: 6 2 11 5 8 3 4 1 5 3
Nghost:        1951.21 ave        1979 max        1932 min
Histogram: 3 2 13 4 13 7 1 3 1 1
Neighs:        12377.1 ave       14285 max       11056 min
Histogram: 4 6 6 11 6 3 7 2 1 2

Total # of neighbors = 594100
Ave neighs/atom = 148.52500
Neighbor list builds = 142
Dangerous builds = 9

#############################
# L I N E A R  Q U E N C H  #
#############################

# Define solid atoms. This closely follows ten Wolde  Ruiz-Montero and Frenkel  Faraday Discuss  1996  104  93-110
# Compute components of the per-atom q6 vector
compute q6 all orientorder/atom degrees 1 6 components 6 nnn NULL cutoff 1.3 # compute the Q6 parameter.
                                                                             # Use all neighbours within 1.3 unit cell.

# get number of connections
compute coord_number all coord/atom orientorder q6 0.5

# An atom is solid if it has 8 or more connections (of a possible 14)
variable is_solid atom c_coord_number>=8
group solid dynamic all var is_solid    # Must be dynamic to update
dynamic group solid defined

# do clustering
compute cluster solid cluster/atom 1.3 # Create a cluster where all atoms within are solid and max 1.3 units from another member

# define chunks one chunk per cluster
compute clus_chunks solid chunk/atom c_cluster nchunk every compress yes  # Says which atoms are in which chunk

# count the size of each chunk
compute size_chunks solid property/chunk clus_chunks count


# Find the maximum entry in the vector of chunk sizes
variable max_n equal max(c_size_chunks)


# Thermo style which includes this variable
# thermo_style custom step temp pe vol v_max_n

thermo ${N}  # Print the thermo information every 100 steps
thermo 1000  

# Reset the npt fix at a lower temperature (below freezing)
fix 1  all npt temp  ${temp} ${temp}  0.1  iso  5.68  5.68  0.5  mtk yes tchain  5  pchain  5
fix 1  all npt temp  0.45 ${temp}  0.1  iso  5.68  5.68  0.5  mtk yes tchain  5  pchain  5
fix 1  all npt temp  0.45 0.45  0.1  iso  5.68  5.68  0.5  mtk yes tchain  5  pchain  5

dump dmp2 all dcd ${N} traj.dcd
dump dmp2 all dcd 1000 traj.dcd


compute msd all msd com yes
variable twopoint equal c_msd[4]/6/(step*dt+1.0e-6)
fix 9 all vector 10 c_msd[4]
variable fit equal slope(f_9)/6/(10*dt)
thermo_style custom step temp pe c_msd[4] v_twopoint v_fit v_max_n

fix 1 all npt temp 1.25 ${temp} 0.1 iso 5.68 5.68 0.5 mtk yes tchain 5 pchain 5
fix 1 all npt temp 1.25 0.45 0.1 iso 5.68 5.68 0.5 mtk yes tchain 5 pchain 5
run 2000000 # 5000000  # Run for this many steps
Neighbor list info ...
  update every 1 steps, delay 10 steps, check yes
  max neighbors/atom: 2000, page size: 100000
  master list distance cutoff = 3.8
  ghost atom cutoff = 3.8
  binsize = 1.9, bins = 8 8 8
  4 neighbor lists, perpetual/occasional/extra = 1 3 0
  (1) pair lj/cut, perpetual
      attributes: half, newton on
      pair build: half/bin/atomonly/newton
      stencil: half/bin/3d
      bin: standard
  (2) compute orientorder/atom, occasional
      attributes: full, newton on
      pair build: full/bin/atomonly
      stencil: full/bin/3d
      bin: standard
  (3) compute coord/atom, occasional
      attributes: full, newton on
      pair build: full/bin/atomonly
      stencil: full/bin/3d
      bin: standard
  (4) compute cluster/atom, occasional
      attributes: full, newton on
      pair build: full/bin/atomonly
      stencil: full/bin/3d
      bin: standard
Per MPI rank memory allocation (min/avg/max) = 9.823 | 9.830 | 9.836 Mbytes
Step Temp PotEng c_msd[4] v_twopoint v_fit v_max_n 
   12000    1.2781676   -3.4631249 5.0581761e-30 3.5126222e-32 8.3333333e+20            3 
   13000    1.2375538   -3.4518713    1.0008811 0.0064159044  0.083862634            2 
   14000    1.2588617   -3.4686577    2.0612519  0.012269356  0.087826665            2 
   15000    1.2494355    -3.464346    3.1528777  0.017515987  0.088605671            1 
   16000    1.2643071    -3.467968    4.2139387  0.021947597   0.08937826            1 
   17000    1.2354699   -3.4611821    5.2990127  0.025975552  0.089280238            3 
   18000    1.2438791   -3.4483132    6.4879133  0.030036635   0.08977173            4 
   19000    1.2690574   -3.4387247    7.6987076  0.033766261   0.09153065            1 
   20000    1.2384773   -3.4629994    8.8535303  0.036889709  0.092595681            1 
   21000    1.2316144   -3.4664079    9.9183393  0.039358488  0.093220048            1 
   22000    1.2438299   -3.4549595    11.017898   0.04173446   0.09317557            2 
   23000    1.2598288   -3.4759054     12.19625  0.044189312  0.093275371            1 
   24000    1.2375381   -3.4750559    13.191713  0.045804558  0.093204966            2 
   25000     1.262368   -3.4758326    14.201952  0.047339839  0.092799045            4 
   26000    1.2374837   -3.4656475    15.224248  0.048795666  0.092342464            1 
   27000       1.2524   -3.4494906    16.153993  0.049858004  0.091811725            1 
   28000    1.2261419   -3.4858235    17.131034  0.050985219  0.091224608            3 
   29000    1.2270081   -3.4900281     18.01019  0.051753417  0.090415931            1 
   30000    1.2299141   -3.4695845    19.089584  0.053026621  0.089734031            2 
   31000    1.2533234   -3.4983701     20.00335  0.053772445  0.089185026            2 
   32000    1.2555632   -3.4709973    21.016828  0.054731323   0.08865578            1 
   33000    1.2372142   -3.4768077    21.871106  0.055230065  0.088074744            1 
   34000     1.239047   -3.4993816    22.768697   0.05580563  0.087464287            2 
   35000    1.2686704   -3.4758694    23.566529  0.056110783  0.086845352            1 
   36000    1.2245306   -3.4831615    24.478628   0.05666349  0.086255443            1 
   37000    1.2371872    -3.482742    25.684287  0.057847493  0.085805687            5 
   38000    1.2312901   -3.4933958      26.7293  0.058616885  0.085584886            2 
   39000     1.263344   -3.4644822    27.957859  0.059739014  0.085439023            3 
   40000    1.2041358    -3.463937     28.88903  0.060185479  0.085306198            2 
   41000    1.2342969   -3.4838546    29.748064  0.060463544  0.085134083            1 
   42000    1.2092119   -3.4673325    30.760947  0.061033624  0.084990606            1 
   43000    1.2236869     -3.46738    31.934524  0.061888612  0.084894466            3 
   44000    1.2325713   -3.4479846    32.998299  0.062496778  0.084870644            4 
   45000     1.250078   -3.4632184    33.927374   0.06282847  0.084810499            3 
   46000    1.2252371   -3.4641374    34.888579  0.063203947   0.08478464            3 
   47000    1.2486699    -3.466187    35.857071  0.063576367  0.084702962            1 
   48000    1.2422683   -3.4772631    36.618621  0.063573994  0.084559582            1 
   49000    1.2326795   -3.5004418    37.936886  0.064518513  0.084480628            3 
   50000    1.2683899   -3.4811991     39.00768  0.065012799  0.084457555            1 
   51000    1.2618931   -3.4606189    40.086085  0.065500138  0.084459235            1 
   52000      1.21682   -3.5041008    41.253244  0.066110967  0.084511765            2 
   53000    1.2285199   -3.4883828    42.257907   0.06644325  0.084578607            2 
   54000    1.2482393   -3.4995765    43.326499  0.066861881  0.084655157            3 
   55000    1.2290685    -3.478591    44.510429  0.067440043  0.084702238            1 
   56000    1.2452766   -3.4664017     45.45592  0.067642738  0.084754174            2 
   57000    1.2402611   -3.4889022    46.476537  0.067948153  0.084775776            3 
   58000    1.2314322   -3.4688765     47.78096  0.068650804  0.084836401            1 
   59000    1.2327557   -3.4666678    48.553564   0.06857848   0.08488963            2 
   60000    1.2460582   -3.4776768    49.741939  0.069086026  0.084947546            3 
   61000    1.1968374   -3.5087716    50.735774  0.069311167  0.084993112            2 
   62000    1.2511293    -3.490375    51.474665  0.069186378  0.085004422            2 
   63000      1.22304   -3.4856567    52.636154  0.069624541   0.08500779            4 
   64000    1.2449053   -3.4670003    53.769563  0.070012452  0.085019777            1 
   65000    1.2355969   -3.4862667    54.677791  0.070099732  0.085048281            3 
   66000    1.2165855   -3.4659489    55.449613  0.070012137  0.085057397            1 
   67000    1.1948918   -3.4755654    56.163551  0.069855162  0.085007072            1 
   68000    1.2220017   -3.4923873    57.293076  0.070212102  0.084962136            1 
   69000    1.2141328   -3.4682667    58.706555  0.070901637  0.084949764            1 
   70000    1.2307754   -3.4451873    60.108951  0.071558275  0.084977671            1 
   71000    1.2267417   -3.4906133    61.237365  0.071874841  0.085051547            2 
   72000    1.2396912   -3.4977879    62.335833  0.072147955  0.085135043            4 
   73000    1.2297556    -3.469003    63.397553  0.072371635  0.085217231            1 
   74000    1.2196164    -3.447294     64.75385  0.072921002  0.085303357            1 
   75000    1.2276069   -3.4884267    65.457352   0.07273039  0.085380941            4 
   76000    1.2312449   -3.5046095    66.141707  0.072523801  0.085431741            2 
   77000     1.180291    -3.471448    67.078764  0.072596064  0.085438878            2 
   78000    1.2196047   -3.4489226    68.038498  0.072690702  0.085440707            2 
   79000    1.2371949   -3.4618089    69.236826  0.073034626  0.085450096            2 
   80000    1.2278039   -3.5088548    70.005119  0.072921999  0.085451557            1 
   81000    1.2290832   -3.5066086    70.882648  0.072924535  0.085459384            2 
   82000    1.2247467   -3.4643137    71.728796  0.072895118  0.085453482            1 
   83000    1.2324537   -3.4954146     73.01555  0.073308784  0.085444671            1 
   84000    1.2131134   -3.4834327    74.219835  0.073630788  0.085433057            3 
   85000    1.2093177   -3.4757128    75.040478  0.073569095  0.085422686            1 
   86000    1.2287004   -3.4908984     76.09841  0.073738769  0.085408096            2 
   87000    1.1982793   -3.4913461    77.196937  0.073943426  0.085382218            1 
   88000    1.1948168   -3.5037844    78.342568  0.074188037  0.085378983            1 
   89000    1.2383875   -3.5181717    79.213504  0.074169947  0.085383294            1 
   90000    1.2343326   -3.5284504    80.216812  0.074274826  0.085401159            2 
   91000    1.2233408   -3.5003247    81.429515  0.074569153  0.085418232            2 
   92000    1.2053587   -3.5070702    82.215541  0.074470598  0.085416399            2 
   93000    1.2152235   -3.5125057    83.365849  0.074700581  0.085401509            2 
   94000    1.2153433   -3.5279903    84.028699  0.074493527   0.08539914            1 
   95000     1.205172   -3.5047486    85.344383  0.074863494  0.085395039            3 
   96000    1.2194511     -3.50557    86.882027  0.075418426  0.085391413            3 
   97000     1.202444   -3.5160237    87.338913   0.07503343  0.085387483            1 
   98000    1.2162371   -3.5624647    87.860968  0.074711707  0.085357916            1 
   99000    1.1967767   -3.5002089    89.829807  0.075614315  0.085338536            1 
  100000    1.1864884   -3.4816803    90.109717   0.07509143  0.085325055            1 
  101000    1.2288644   -3.5076933    91.129383   0.07518926  0.085321055            4 
  102000    1.2134882   -3.4876217    92.287517  0.075398298  0.085308922            1 
  103000    1.1883949   -3.5111309    93.307738  0.075491697  0.085308491            2 
  104000    1.2088714   -3.5238029    94.648654  0.075840267  0.085305276            1 
  105000       1.2305   -3.5096393    95.489159  0.075785047  0.085301315            2 
  106000     1.204535   -3.5120728    96.342284  0.075740789  0.085302813            3 
  107000    1.2078505   -3.5030467    97.576681    0.0759943  0.085294074            1 
  108000    1.2386187      -3.5369    98.406316  0.075930799  0.085287014            1 
  109000    1.1960581   -3.4915549    99.440286  0.076024683  0.085262544            1 
  110000    1.2227362   -3.5091318    100.05465   0.07579898  0.085248838            2 
  111000    1.2077296   -3.4800385    101.68394  0.076339297   0.08522681            3 
  112000    1.1582786   -3.5265701    102.20033  0.076041911  0.085217624            2 
  113000    1.2152233   -3.4982359    103.39024  0.076246491  0.085202994            1 
  114000    1.2072635   -3.5261474    103.70962  0.075811128  0.085179106            2 
  115000    1.2070907   -3.4938131    104.62024  0.075811764  0.085127872            2 
  116000    1.2025971   -3.5378353    105.60521  0.075865815  0.085080046            2 
  117000     1.221943   -3.5214774    107.03564  0.076236212  0.085043193            1 
  118000    1.1888307   -3.5688207    107.05663  0.075604961  0.085004051            1 
  119000    1.1910367   -3.5698091    108.63595  0.076075593  0.084969399            2 
  120000    1.2083911   -3.5476673     109.7674  0.076227358  0.084927371            3 
  121000    1.1738546   -3.5194097    111.11148  0.076523059  0.084908516            4 
  122000     1.208572   -3.5140936    112.05211  0.076538327  0.084883379            1 
  123000    1.2053957     -3.49431    113.03425  0.076581467  0.084871305            1 
  124000     1.215842   -3.4958468    114.63408  0.077039035  0.084868759            1 
  125000    1.2185104   -3.5203492    114.58432  0.076389547   0.08485824            2 
  126000    1.2040908   -3.5543035    115.96228   0.07669463  0.084840052            1 
  127000    1.2275345   -3.5232202    117.10967  0.076843616  0.084816236            2 
  128000    1.2035941   -3.5254746     118.0162  0.076833463   0.08479688            3 
  129000    1.2196088   -3.5115691    120.12507  0.077600172  0.084796239            2 
  130000    1.2341558   -3.5283941    120.68898   0.07736473  0.084801799            2 
  131000    1.2018172   -3.5433313    122.04549   0.07763708  0.084812234            2 
  132000    1.2086121   -3.5543276    122.48486  0.077326303  0.084806696            4 
  133000    1.1662976     -3.56702    123.34762  0.077285478    0.0848024            2 
  134000    1.1808728   -3.5302899    125.09874  0.077797723  0.084800745            4 
  135000    1.2251609   -3.5353048     126.5515  0.078118211  0.084809538            4 
  136000    1.2052113   -3.5363087    126.78599  0.077687496  0.084817819            1 
  137000    1.1984931   -3.4901444    128.28939  0.078034909  0.084821273            2 
  138000    1.2023076   -3.5256566    128.49091  0.077591131   0.08481476            3 
  139000    1.2003809   -3.5266272    129.91229  0.077885066  0.084815119            1 
  140000    1.2089098   -3.5392949    130.71456  0.077806287  0.084813982            3 
  141000     1.183169   -3.5186869    131.64886  0.077806652  0.084809077            2 
  142000    1.1956198   -3.5385931    132.72447  0.077889944  0.084798727            1 
  143000    1.1869649   -3.5273256    134.23261  0.078224131  0.084789192            3 
  144000    1.2131871   -3.5560903    135.02755  0.078140943  0.084768443            1 
  145000     1.182756   -3.5352184    135.93027  0.078120843  0.084750099            2 
  146000    1.1762576   -3.5187238    136.67446  0.078010537  0.084734965            5 
  147000     1.191564   -3.5316323    136.97256  0.077648844  0.084717038            2 
  148000    1.2009966   -3.5381204    137.87244  0.077630881  0.084691344            2 
  149000    1.1968072   -3.5560885     139.3365  0.077928692  0.084671119            1 
  150000    1.1773651    -3.533764    140.59804  0.078110024   0.08465996            3 
  151000    1.2104063   -3.5490376    141.30586  0.077983368  0.084647759            4 
  152000    1.1946755   -3.5165392    143.02281  0.078411627  0.084644394            1 
  153000    1.1750671   -3.5110189    143.31901  0.078060461  0.084639767            3 
  154000     1.217035   -3.5204442    143.78152  0.077803851  0.084636375            4 
  155000    1.2134344   -3.5356382    145.32382  0.078131083  0.084620119            2 
  156000     1.206095   -3.5878226     145.4634   0.07770481  0.084600512            3 
  157000    1.2144026   -3.5768932    146.89641  0.077970494   0.08457728            1 
  158000    1.1776467   -3.5266521    147.98646  0.078051933  0.084553322            1 
  159000    1.1871904   -3.5287976    148.31091  0.077731083  0.084524413            1 
  160000    1.1619583   -3.5933071    149.28449  0.077752337  0.084490649            2 
  161000    1.1730711   -3.5304932    150.36037  0.077826279  0.084460322            1 
  162000    1.1864805    -3.559838    151.22894  0.077792665  0.084428342            2 
  163000    1.1908246   -3.5206132    152.89458  0.078166962  0.084411863            3 
  164000    1.1575826   -3.5233502     154.0915  0.078298526  0.084403179            3 
  165000    1.1832543    -3.527905    155.02223  0.078294056   0.08438591            2 
  166000    1.1750173   -3.5427202    156.09685  0.078361873   0.08436403            1 
  167000    1.1932348   -3.5491966    156.34585  0.078016889  0.084331809            2 
  168000    1.1876536   -3.5415992    157.38826  0.078069571  0.084301524            5 
  169000    1.1678257   -3.5515855    158.60102  0.078205632  0.084270289            2 
  170000    1.1905286   -3.5466876    159.06587  0.077973466  0.084245471            1 
  171000    1.1656142   -3.5410534    159.88078   0.07791461  0.084211975            1 
  172000    1.1806192    -3.540508    160.36059  0.077694083  0.084174919            1 
  173000    1.1938045    -3.563145    162.49539  0.078273309  0.084150013            1 
  174000    1.1866775   -3.5474072    163.14115  0.078132733  0.084127274            3 
  175000    1.1669873   -3.5276473    164.33059  0.078252662  0.084104143            4 
  176000    1.1806059   -3.5944075    164.32353  0.077804702  0.084076464            5 
  177000    1.1461899   -3.5536245    165.42597  0.077884167   0.08404631            1 
  178000    1.1617988   -3.5771417    167.32475  0.078335555   0.08401084            1 
  179000    1.2003708    -3.525071    168.25822  0.078332504  0.083982372            1 
  180000     1.166567   -3.5454919     169.2822  0.078371387  0.083951698            2 
  181000    1.1771981   -3.5210249    169.62661  0.078096967  0.083921106            1 
  182000    1.1591473   -3.5634884    169.95239  0.077817028  0.083882469            4 
  183000    1.1994888   -3.5681227    170.62506  0.077698113  0.083842195            2 
  184000    1.1761239   -3.5287214    172.00422   0.07790046  0.083802433            1 
  185000    1.1749597   -3.5586433    172.64891  0.077769777  0.083760356            2 
  186000    1.1948492   -3.5446287     173.2765  0.077632841  0.083718975            1 
  187000    1.1862496   -3.5397719    174.62087  0.077816787  0.083682223            2 
  188000    1.1691064   -3.5445475    175.80749  0.077928854  0.083642515            2 
  189000    1.1978922   -3.5545426    175.90912  0.077561339  0.083602063            5 
  190000    1.1904272   -3.5932367    176.51346  0.077418185  0.083556392            2 
  191000     1.178537    -3.588975    177.26807  0.077342092  0.083508104            2 
  192000    1.1676963    -3.544322    177.77676  0.077160053  0.083453773            1 
  193000    1.1673562   -3.5626979    179.53236  0.077518291   0.08339315            1 
  194000    1.1865528   -3.5402073    179.90446  0.077278547   0.08333295            3 
  195000    1.1716104   -3.5404825    180.24144  0.077026256  0.083274694            3 
  196000    1.1821338   -3.5664774    180.88998  0.076909007  0.083211566            2 
  197000    1.1889062   -3.5239082    182.09771  0.077029487  0.083151128            1 
  198000    1.1828001   -3.5522945    183.85318  0.077379284  0.083089117            1 
  199000    1.1564207   -3.5559872    184.29194   0.07717418  0.083029061            2 
  200000    1.1635193   -3.5416546    185.77789  0.077407452  0.082969088            3 
  201000    1.1668987   -3.5627848    185.68869  0.076985359  0.082909682            1 
  202000    1.1612407   -3.6008287    186.22688  0.076826271  0.082847816            2 
  203000    1.1750814      -3.5559    188.42345  0.077349529  0.082788393            2 
  204000    1.1779881   -3.5575224     188.2068  0.076881862  0.082732148            2 
  205000    1.2058633   -3.5385991    188.63572  0.076681188  0.082667716            3 
  206000    1.1640975   -3.5802536    189.92502   0.07683051  0.082607118            2 
  207000    1.1718172    -3.553903    190.30472  0.076612206  0.082542491            3 
  208000    1.1770871   -3.5882589    191.78121  0.076835421  0.082486078            3 
  209000      1.16979   -3.5197524     193.4397  0.077129067  0.082427011            2 
  210000    1.1876446    -3.549084     194.2275  0.077074405  0.082374777            2 
  211000    1.1740851   -3.5682416    194.16801  0.076685628  0.082320044            2 
  212000    1.1701739   -3.5712901    195.75761  0.076948748  0.082267186            1 
  213000    1.1617754   -3.5856281    196.13315  0.076734407  0.082212856            2 
  214000    1.1633314   -3.5524146    196.99056  0.076709718  0.082149807            2 
  215000    1.1419335   -3.5494296    198.21184  0.076826294  0.082096708            4 
  216000    1.1830662   -3.5666329    198.54672  0.076599815  0.082039545            2 
  217000    1.1547534   -3.5432539    198.78813  0.076339527  0.081978802            1 
  218000    1.1703583   -3.5449033    199.84922  0.076394961  0.081917268            2 
  219000    1.1943104    -3.562679    200.72739  0.076380287  0.081852733            3 
  220000     1.139041   -3.5755206    201.54925  0.076344414  0.081784283            3 
  221000    1.1819616   -3.5573811    202.01935  0.076176226   0.08171771            3 
  222000    1.1657604   -3.5941742    203.54258  0.076404873  0.081654367            3 
  223000    1.1593429   -3.5760565    203.97451  0.076223658  0.081589918            2 
  224000    1.1773443   -3.5643022    205.23643  0.076352837  0.081526361            2 
  225000    1.1783369   -3.5481712    205.12778  0.075973254  0.081459715            2 
  226000    1.1688097   -3.5705365    205.72534  0.075857426  0.081394976            1 
  227000    1.1664726   -3.5400683    207.17528  0.076055535  0.081325585            2 
  228000    1.1622315    -3.561591    207.89519  0.075985083  0.081257177            1 
  229000    1.1597514   -3.5756112    207.97295  0.075681569  0.081189786            2 
  230000    1.1651455   -3.6135635    209.09355  0.075758534  0.081121055            5 
  231000    1.1723976   -3.5887549    209.31828  0.075511646  0.081054252            2 
  232000    1.1582199   -3.5827487    209.88471  0.075389621  0.080986166            3 
  233000    1.1446244   -3.5629904     211.7601  0.075736803  0.080919257            2 
  234000    1.1562884   -3.5839241    212.93653  0.075832096  0.080856248            2 
  235000    1.1777344    -3.582552    212.72026  0.075432716  0.080788745            1 
  236000    1.1657466   -3.5925902    213.63888  0.075437458  0.080721494            4 
  237000    1.1595288   -3.5923894    215.26594  0.075691258   0.08065503            1 
  238000    1.1628094    -3.577872    216.18322  0.075694406  0.080587886            2 
  239000    1.1661196   -3.5552413    216.42241   0.07546109  0.080524346            1 
  240000    1.1620546    -3.571963    217.53873  0.075534283  0.080461547            2 
  241000    1.1690909   -3.6049627     219.5701  0.075923269  0.080402885            3 
  242000    1.1507598     -3.57095     219.5632  0.075607163  0.080345579            1 
  243000     1.174311   -3.5998522    220.20311   0.07551547  0.080286981            2 
  244000    1.1409317   -3.5982115    221.55188  0.075666625   0.08023017            2 
  245000    1.1300891   -3.6097947    222.71083  0.075751984  0.080174593            4 
  246000    1.1492808    -3.557208    224.10249  0.075915478  0.080120927            2 
  247000     1.169922   -3.5875565    224.64225  0.075790233  0.080069433            4 
  248000    1.1493833   -3.5926627    226.38199  0.076069218  0.080018328            3 
  249000    1.1355352   -3.5838253     227.4377  0.076117033  0.079970783            1 
  250000    1.1746225   -3.5823769    226.86882   0.07562294  0.079924318            2 
  251000    1.1423459   -3.5931746    227.86477  0.075652315  0.079876476            1 
  252000    1.1406122   -3.6023155    228.51458  0.075566989  0.079828306            1 
  253000    1.1647039   -3.5829915     228.4636  0.075251514  0.079780155            3 
  254000    1.1549947   -3.6023813    231.05653  0.075805947  0.079729219            1 
  255000    1.1451522   -3.5752267    231.30054  0.075588413  0.079681648            3 
  256000     1.152435   -3.5652603    232.58362  0.075710815  0.079632946            1 
  257000     1.172874   -3.6104167    232.96084  0.075538535  0.079585181            1 
  258000    1.1664004   -3.5906692    233.65154  0.075468842  0.079538253            1 
  259000    1.1570462    -3.602972    234.16328  0.075342112  0.079487125            3 
  260000    1.1079359   -3.6320781    234.84243  0.075270009  0.079434522            1 
  261000     1.113699    -3.595801    236.25176  0.075431597   0.07937914            4 
  262000     1.140947   -3.5767979    236.26403  0.075147591  0.079325579            2 
  263000    1.1128106    -3.574361    237.23771  0.075170378  0.079271198            1 
  264000       1.1457   -3.6152195    238.76894  0.075368984  0.079218789            4 
  265000    1.1343769   -3.6083184    239.08587  0.075184236  0.079164677            2 
  266000    1.1391218    -3.573968    238.88189  0.074837686  0.079115742            2 
  267000    1.1311603   -3.5668708    242.47185  0.075677855  0.079068153            2 
  268000    1.1412173    -3.636232    241.83079   0.07519614  0.079022431            2 
  269000    1.1495632   -3.6259049    243.28334  0.075366587  0.078980654            2 
  270000    1.1442522   -3.5811802    244.70972   0.07552769  0.078939219            1 
  271000    1.1299735   -3.6118924    244.47968  0.075178254  0.078899611            2 
  272000    1.1354426   -3.6296448    246.55696  0.075538285  0.078860135            4 
  273000    1.1500872   -3.6054277    246.48723  0.075240304  0.078822488            2 
  274000    1.1435914   -3.6195791    248.08911  0.075452892  0.078786841            2 
  275000    1.1502454   -3.6275083     249.5542  0.075622484  0.078752489            3 
  276000    1.1433921   -3.6089155    250.93257  0.075764665  0.078720375            2 
  277000    1.1235958   -3.6089561    251.12588    0.0755493  0.078687914            3 
  278000    1.1413256   -3.6286212    251.36178  0.075348255  0.078654262            2 
  279000    1.1456269    -3.603443    253.81307  0.075810355  0.078621545            3 
  280000    1.1655096    -3.579326    255.65213  0.076086943  0.078592498            1 
  281000      1.14959   -3.6115464     255.4578  0.075758539  0.078564572            4 
  282000    1.1470884   -3.6373914    256.04579  0.075663648  0.078537079            1 
  283000    1.1221787    -3.610949    256.54078  0.075542045  0.078510093            3 
  284000     1.129454   -3.6022802    258.00598  0.075705981   0.07848394            1 
  285000    1.1276122   -3.5785364    259.26418   0.07580824  0.078458445            1 
  286000    1.1577155   -3.6134902    260.26098  0.075833618  0.078433111            2 
  287000    1.1375746   -3.6317861    261.11572  0.075817573  0.078409254            5 
  288000    1.1083577   -3.6059327    262.00097  0.075810465  0.078386895            2 
  289000    1.1399241   -3.5867155    262.20204  0.075606125   0.07836019            1 
  290000    1.1126334   -3.6041026    264.02432  0.075869058  0.078333271            2 
  291000    1.1457321   -3.5871816    264.94573  0.075872202  0.078310283            2 
  292000     1.157829   -3.5975195    265.70067  0.075827816  0.078287427            2 
  293000    1.1180226   -3.5919816    266.98636  0.075934688  0.078264061            3 
  294000    1.1573331   -3.6225435    267.35288  0.075780293  0.078239765            2 
  295000    1.1340863   -3.6248201    268.13204  0.075743513  0.078217102            5 
  296000    1.1425244   -3.6069306    271.11053  0.076326162  0.078197271            4 
  297000    1.1417539   -3.6457086     269.7053  0.075674889  0.078177547            3 
  298000    1.1366854   -3.5933574    272.16698  0.076109335  0.078159159            2 
  299000    1.1319659   -3.6280089    272.23819  0.075874635  0.078138956            2 
  300000     1.145309   -3.5967254    274.31677  0.076199102  0.078117807            1 
  301000    1.1340753   -3.6210253    273.75869  0.075791442  0.078098298            1 
  302000    1.1413314   -3.6207378    274.37827  0.075711443  0.078077305            2 
  303000    1.1137886   -3.6447549     275.2618  0.075704565   0.07805403            1 
  304000    1.1411315   -3.6141715    276.31087  0.075743112  0.078032376            4 
  305000    1.1375404   -3.6040334    277.67916  0.075868624   0.07801151            3 
  306000    1.1495327   -3.6211519    278.83519  0.075935509  0.077989991            5 
  307000    1.1496171   -3.5875823    279.20829  0.075789439   0.07797083            2 
  308000    1.1442732   -3.5902186    279.77427  0.075696502  0.077950816            2 
  309000    1.1206474   -3.6355855     278.6424  0.075146277   0.07792882            4 
  310000    1.1286926   -3.6059893    281.86522   0.07577022  0.077904461            2 
  311000    1.1178048   -3.6282606    281.86853  0.075527474  0.077878607            2 
  312000    1.1377064   -3.5984012      282.595  0.075479434  0.077855382            1 
  313000    1.1095683   -3.6122951    283.24323   0.07541087  0.077833706            3 
  314000    1.1308819   -3.5961434    285.19332  0.075688249  0.077812883            3 
  315000     1.116218   -3.6234743    283.34714   0.07495956  0.077787256            1 
  316000    1.1650776   -3.6047642    285.94744  0.075408081  0.077761572            3 
  317000    1.1070107   -3.6504661    285.76806  0.075123045  0.077735218            1 
  318000    1.1312497   -3.6714491    286.80701   0.07515907   0.07770946            3 
  319000    1.1245288   -3.6244824    287.18469  0.075022124  0.077678905            4 
  320000    1.1320509   -3.6469553    288.15225  0.075039649  0.077651124            2 
  321000    1.1200738   -3.6241102     289.8971  0.075258851  0.077623955            1 
  322000    1.1180528   -3.6516594    289.98786  0.075048619  0.077594356            2 
  323000    1.1261525   -3.6160694    290.71562  0.075004031  0.077562772            2 
  324000    1.1537748     -3.61463    291.75495  0.075039852  0.077532344            2 
  325000    1.1361073    -3.630479    291.91887  0.074850993  0.077503124            2 
  326000    1.1421738   -3.6516873    292.03551  0.074651205  0.077474035            3 
  327000    1.1144229   -3.6404726    293.46249  0.074786568  0.077442169            2 
  328000    1.1251975   -3.6468645    293.24699  0.074503809  0.077411338            2 
  329000    1.0971691   -3.6173253    295.42747  0.074829653  0.077377696            3 
  330000    1.1507794   -3.6379689    294.87786  0.074464105  0.077347651            2 
  331000    1.1356731   -3.6422288    297.29548  0.074847804   0.07731692            1 
  332000    1.1383262    -3.646723      297.811  0.074751758  0.077286674            2 
  333000    1.1051899   -3.6694511    298.08226  0.074595161  0.077256853            3 
  334000     1.140241   -3.6394933    299.15806  0.074640235  0.077225999            2 
  335000    1.1210726   -3.6312479    299.51604  0.074506477  0.077195074            1 
  336000    1.1114721   -3.6599975    300.20852  0.074456479  0.077164959            4 
  337000    1.1211678   -3.6675706    301.16738  0.074472647  0.077134454            3 
  338000    1.1421061   -3.6302266    301.45076  0.074322179   0.07710145            4 
  339000    1.1416264   -3.6546473    301.76273  0.074179628  0.077070331            3 
  340000     1.120692   -3.6531526    304.42412  0.074613756   0.07703731            2 
  341000    1.1196405   -3.6444753    304.85076  0.074499207  0.077003968            6 
  342000    1.0977367   -3.6508192     305.7429  0.074498757  0.076973688            1 
  343000    1.1267534   -3.6460298    305.63552  0.074255471  0.076941245            2 
  344000     1.098193   -3.6300979     306.8605  0.074336362  0.076910451            3 
  345000    1.1636377   -3.6391949    308.91437  0.074616997   0.07688206            2 
  346000    1.1175096     -3.62562    309.52852  0.074549259  0.076854627            2 
  347000    1.1093311   -3.6610409    310.28362  0.074515758  0.076827234            2 
  348000    1.1115256   -3.6127589    311.93808  0.074697815   0.07680222            2 
  349000    1.1165169   -3.6626686    312.32781  0.074576841  0.076776131            1 
  350000    1.1182886   -3.6195011    313.41703  0.074623103  0.076750143            2 
  351000    1.1187035   -3.6512646    314.21599  0.074600186  0.076725927            2 
  352000    1.1059929   -3.6466998    314.87393  0.074544017   0.07670149            5 
  353000    1.1112219   -3.6418007    316.30542   0.07467078  0.076676226            3 
  354000    1.0933931   -3.6555526    315.95199  0.074376645   0.07665137            2 
  355000    1.1107583   -3.6197054    316.76196  0.074357269  0.076625291            3 
  356000    1.1260802   -3.6473586    317.87781    0.0744096  0.076598149            5 
  357000    1.1318951   -3.6466555    317.87683  0.074200941  0.076570144            2 
  358000    1.1107428   -3.6589923    318.25731  0.074082241  0.076541079            1 
  359000    1.1179629   -3.6510095    319.73971  0.074219989  0.076513935            2 
  360000    1.1135821   -3.6305034     322.5176  0.074656851  0.076486955            2 
  361000    1.0909708   -3.6710261    322.38874  0.074420299  0.076463907            3 
  362000    1.1150129   -3.6647878    324.04455   0.07459589  0.076440239            1 
  363000    1.1175211   -3.6440755    324.76181  0.074555054   0.07641961            5 
  364000    1.1159165   -3.6672658    325.68708  0.074562059  0.076396291            3 
  365000    1.1049397   -3.6637137    325.79091  0.074381487  0.076372124            3 
  366000    1.0974711    -3.669618     325.7323  0.074164913  0.076347264            1 
  367000    1.0991071   -3.6522538    327.83333  0.074439903  0.076323736            3 
  368000    1.1116276   -3.6807661    328.60023  0.074411283  0.076303195            2 
  369000     1.124225    -3.665617    329.55374  0.074424963  0.076282995            2 
  370000    1.1016598    -3.660211     331.1805  0.074590203  0.076263826            2 
  371000    1.0854123   -3.6714483    332.17916  0.074613468  0.076246067            1 
  372000    1.1025165   -3.6778209    332.67462  0.074523883  0.076227833            2 
  373000    1.1194001   -3.6337646    336.11536  0.075092797  0.076209526            1 
  374000    1.0979651   -3.6467031    334.95483  0.074633428  0.076190853            2 
  375000    1.1031662   -3.6770753    334.40347  0.074311881  0.076171228            2 
  376000    1.0989921   -3.6691334    336.58465  0.074597662  0.076152294            4 
  377000    1.0961347   -3.6592181    336.19583  0.074313843   0.07613124            1 
  378000    1.1084734   -3.6654975    337.27059  0.074354186    0.0761116            4 
  379000    1.1028323   -3.6503152    338.77923  0.074489717   0.07608972            3 
  380000     1.074965    -3.666923    340.52835   0.07467727   0.07607122            3 
  381000    1.1126248   -3.6520068    340.15874  0.074400425  0.076053425            2 
  382000    1.0976093   -3.6553098    342.36192  0.074686282   0.07603621            2 
  383000    1.1178016    -3.655274     342.6989    0.0745646  0.076019037            1 
  384000    1.1069992   -3.6116445    343.81079  0.074611717  0.076001547            2 
  385000     1.079419   -3.6740695    343.41289  0.074331795  0.075981602            3 
  386000    1.1025411   -3.6964146     343.6764  0.074196113  0.075962436            1 
  387000    1.0972166   -3.6468048    346.14035  0.074534958   0.07594263            3 
  388000    1.1165338   -3.6639778    346.26989   0.07437068  0.075924345            3 
  389000    1.0844124   -3.6798588    345.64686  0.074046027  0.075902237            4 
  390000    1.1139982   -3.6714987    347.09553  0.074165712  0.075879364            7 
  391000     1.092792   -3.6550292    348.16183  0.074203288  0.075855365            1 
  392000    1.0564677   -3.6637678    348.00721  0.073981125  0.075832379            1 
  393000     1.089822   -3.6581238    348.62373  0.073923606   0.07580669            2 
  394000    1.1282835   -3.6591824    349.20935  0.073859845  0.075781154            3 
  395000    1.1018351   -3.6425362      350.062  0.073852743  0.075756053            3 
  396000    1.1110559   -3.6726001    350.72336   0.07380542  0.075731522            4 
  397000    1.1002363   -3.6633248    353.00078   0.07409756  0.075706655            2 
  398000    1.0979385   -3.6743994    353.86921  0.074093219  0.075683912            2 
  399000    1.0743797   -3.6653138    352.37869  0.073596218   0.07565914            5 
  400000    1.0944997   -3.6985921    354.93802  0.073945421  0.075633286            1 
  401000    1.1034154   -3.6629653    355.27631   0.07383132  0.075607147            3 
  402000    1.0953866   -3.7222905     355.1766   0.07362699  0.075580965            4 
  403000    1.0740042   -3.6767168    356.48657  0.073715173  0.075554559            1 
  404000    1.1125468   -3.7092045    356.19714  0.073473007  0.075528852            1 
  405000    1.0984218   -3.6896197    356.62868  0.073380388  0.075503038            3 
  406000    1.1091584   -3.6712552    358.68373  0.073621455  0.075476221            4 
  407000    1.0903741   -3.6820499    358.28493  0.073358913  0.075451601            3 
  408000    1.0913768   -3.6910558    359.89555  0.073508079  0.075426319            1 
  409000    1.0722434   -3.7063228    360.88137  0.073529212  0.075401052            3 
  410000    1.0779074   -3.7158657    361.43284   0.07346196   0.07537661            3 
  411000    1.0978241   -3.6890868    362.31825  0.073462744  0.075352057            3 
  412000    1.0982235   -3.7385076    361.72151  0.073163735  0.075327297            2 
  413000    1.0730594   -3.6807509    364.54124  0.073555536  0.075302194            3 
  414000    1.0841354   -3.6853908    365.20057  0.073510582  0.075277111            1 
  415000    1.1205215   -3.6954784    365.90645   0.07347519  0.075251829            6 
  416000    1.0963266   -3.6997455    367.14756  0.073547187  0.075226566            3 
  417000    1.0813766   -3.7132901    366.98534  0.073338398  0.075201632            3 
  418000    1.0930894   -3.6978467    370.26635  0.073817055  0.075178977            2 
  419000    1.1140376   -3.6881975    370.49978  0.073687306  0.075154017            4 
  420000    1.1020774   -3.6703615    368.69734  0.073154234  0.075129547            2 
  421000    1.1058676    -3.685292     371.8684  0.073608155  0.075105781            3 
  422000    1.1137462    -3.682356    372.26456  0.073511959  0.075082014            2 
  423000    1.0855215   -3.6665255    371.41658  0.073171114   0.07505792            2 
  424000    1.0983227   -3.7086909    372.61278  0.073233644  0.075034518            5 
  425000    1.0870933   -3.6897413    375.24177  0.073576817  0.075009355            4 
  426000    1.0674201    -3.682446    374.91599  0.073340373  0.074985758            2 
  427000    1.0855255   -3.6746575    375.39337  0.073261781  0.074959879            2 
  428000    1.0508754   -3.7063306    375.55249  0.073121591   0.07493299            2 
  429000     1.089511   -3.6862042    376.99605  0.073231555  0.074905578            1 
  430000    1.0745692   -3.6781123    376.59965  0.072984428  0.074876471            3 
  431000    1.0890903   -3.6854092    377.20702  0.072932526  0.074847312            2 
  432000    1.0952397   -3.7006096    378.33759  0.072981788  0.074819738            3 
  433000    1.0934114   -3.7107886    378.55307  0.072854709  0.074792914            3 
  434000    1.0652596    -3.681986    380.56369  0.073072904  0.074765189            2 
  435000    1.0660437   -3.6865926    381.69567  0.073121776  0.074738518            4 
  436000    1.0660401   -3.6775834    382.99854  0.073203085  0.074712638            1 
  437000    1.0639119   -3.7160872    381.39354  0.072729508  0.074685247            3 
  438000    1.0656986   -3.6772412    383.10015  0.072888157  0.074657148            1 
  439000    1.0865695   -3.6846758    383.30819  0.072761615  0.074629076            2 
  440000    1.0866748   -3.7184747    383.41274  0.072616049    0.0746002            4 
  441000    1.0718709   -3.6986245    384.28356  0.072615942  0.074570091            2 
  442000    1.0845081   -3.7069362    384.64939  0.072520624   0.07454193            2 
  443000    1.0650011   -3.6819562    387.46087  0.072885792  0.074514823            2 
  444000    1.0710753   -3.6726628    385.57126  0.072366978  0.074488276            1 
  445000    1.0818225   -3.7286926    388.25562  0.072707044  0.074461777            3 
  446000    1.0864052   -3.6961226    389.27585  0.072734651  0.074434962            3 
  447000    1.0543438   -3.6896714     389.1499  0.072548453  0.074408267            3 
  448000    1.1076886   -3.6637453    393.11838  0.073124699  0.074383458            2 
  449000    1.0679285   -3.7048724    391.41192  0.072645122  0.074359195            2 
  450000    1.0940626   -3.7304293    392.51722  0.072688374  0.074336006            2 
  451000    1.0360849   -3.6971397    395.63306  0.073102931   0.07431195            2 
  452000     1.050145   -3.7387588    394.81259  0.072789932  0.074288543            3 
  453000    1.0773164   -3.7276395    396.71903  0.072979954  0.074264887            2 
  454000     1.056105   -3.6702648    396.61788  0.072800639  0.074243706            2 
  455000    1.0736617    -3.687725    398.72023  0.073025684  0.074221623            3 
  456000    1.0988195   -3.6827781    398.69432  0.072860803  0.074198551            3 
  457000    1.0793724   -3.7050028    397.94716  0.072565128  0.074173733            3 
  458000    1.0557574   -3.6806586    400.69994  0.072907558    0.0741489            1 
  459000    1.0648132   -3.7030712    401.33715  0.072864406  0.074124598            2 
  460000    1.0636446   -3.7198747    400.59957  0.072572385  0.074100347            3 
  461000     1.068729   -3.7007212    400.18677  0.072340341   0.07407613            2 
  462000    1.1095225   -3.7144092    401.79705  0.072474215  0.074050983            5 
  463000    1.0763294   -3.6994837    403.24887   0.07257899   0.07402569            2 
  464000    1.0472331   -3.7251638    402.91941  0.072363401  0.073999563            2 
  465000    1.0636242   -3.7118199     404.1017  0.072419659   0.07397274            4 
  466000    1.0506957   -3.6976161    404.02136  0.072249885  0.073945771            3 
  467000    1.0676844   -3.6751008    404.04083  0.072098649  0.073917638            2 
  468000    1.0848165   -3.7364753    403.98563  0.071934762  0.073890208            1 
  469000     1.042124   -3.7264978    404.59525  0.071889704  0.073861762            2 
  470000    1.0659002   -3.6683465    407.22543  0.072203091   0.07383367            2 
  471000    1.0661266   -3.7205008    406.99743  0.072009452  0.073805546            2 
  472000    1.0437747   -3.7261575    405.77807  0.071641608  0.073776641            3 
  473000    1.0602645   -3.7347036    407.16847  0.071735108  0.073747684            2 
  474000    1.0596841   -3.7181026    408.96693  0.071899952  0.073717561            3 
  475000    1.0586022   -3.7337168    409.91641  0.071915159   0.07368847            2 
  476000    1.0694046   -3.7109262    410.34781  0.071839603  0.073658361            5 
  477000    1.0425421   -3.7544041    410.63345  0.071738897  0.073626132            2 
  478000    1.0430061   -3.7108259    410.83588  0.071624107  0.073593297            3 
  479000    1.0713839   -3.7378965    409.31102  0.071209294  0.073559795            3 
  480000    1.0670836   -3.7243056    412.06977  0.071539891  0.073526562            3 
  481000    1.0824349   -3.7371243    412.39039  0.071446707  0.073493474            2 
  482000    1.0361455   -3.7399057    412.98056  0.071400512  0.073460551            4 
  483000    1.0423253   -3.6880583    413.81055  0.071395886  0.073428704            2 
  484000    1.0679634    -3.705096    414.66303   0.07139515  0.073396108            1 
  485000    1.0413025   -3.7420072    414.98093  0.071302566  0.073363825            2 
  486000    1.0745386   -3.7346865    415.74325  0.071286566   0.07332969            2 
  487000    1.0605205   -3.7402231     416.2196  0.071221697  0.073295271            1 
  488000    1.0386534   -3.7155146    416.70437  0.071158533  0.073261469            3 
  489000    1.0796977    -3.721824    418.31137  0.071286873   0.07322624            2 
  490000    1.0578873   -3.7449704    417.30702  0.070970582  0.073191066            3 
  491000    1.0900018   -3.7199746    418.56416  0.071039402  0.073154972            2 
  492000    1.0655667    -3.721738    419.36195   0.07103014  0.073119781            3 
  493000    1.0379657   -3.7262705    418.07834   0.07066909  0.073083177            3 
  494000    1.0880001   -3.7433704    418.42898  0.070585186  0.073046112            2 
  495000    1.0314944   -3.7524848    418.06165  0.070380749  0.073008082            2 
  496000    1.0616647    -3.720098    419.38737  0.070461588  0.072967806            5 
  497000    1.0769588   -3.7487766    418.99678  0.070254323  0.072929686            3 
  498000    1.0386684   -3.7167315    421.89022  0.070597427  0.072891218            4 
  499000    1.0619202   -3.7249845    422.88581  0.070622212  0.072855226            2 
  500000    1.0601022   -3.7267777    422.95616  0.070492693  0.072819374            5 
  501000    1.0602973   -3.7320718    425.02977  0.070696901  0.072782059            3 
  502000    1.0570713   -3.7432044    425.26242  0.070594691  0.072746808            3 
  503000    1.0712998   -3.7758673    424.47778  0.070324351   0.07271062            3 
  504000    1.0622453   -3.7543367    428.30034  0.070816855  0.072674095            8 
  505000    1.0507635   -3.7229329    427.57416  0.070556792   0.07263813            3 
  506000    1.0565055   -3.7174665    426.92175  0.070309906  0.072603772            3 
  507000     1.048754   -3.7408821    427.46329  0.070260238  0.072568517            3 
  508000    1.0475755   -3.7136211    431.03767  0.070708278  0.072533889            7 
  509000      1.04749   -3.7526945    430.44187  0.070471819  0.072499154            2 
  510000    1.0354154   -3.7306265    431.30085  0.070473996   0.07246443            1 
  511000    1.0469868    -3.731204       432.36  0.070508807  0.072429055            3 
  512000    1.0338633   -3.7487422    432.37709  0.070373875  0.072394067            3 
  513000    1.0568857   -3.7568085    432.77587  0.070301474  0.072357948            2 
  514000    1.0493603   -3.7646513    430.82483  0.069848384   0.07232187            3 
  515000    1.0648569    -3.739462    433.11031  0.070082574  0.072284797            3 
  516000    1.0512839   -3.7333424    434.24393  0.070129834  0.072248687            2 
  517000    1.0514198   -3.7352403    437.25438  0.070479429  0.072212242            2 
  518000    1.0472116   -3.7396527    435.05255  0.069989149  0.072176552            2 
  519000    1.0636731   -3.7434119    436.50423  0.070087384  0.072140061            5 
  520000    1.0497234   -3.7404502    436.97725  0.070028406  0.072103359            3 
  521000    1.0539723   -3.7539914    437.41587   0.06996415  0.072067386            2 
  522000     1.054526   -3.7606683    438.59899  0.070018996  0.072031621            3 
  523000    1.0534625   -3.7128645    440.78636  0.070233646  0.071995815            3 
  524000    1.0421156   -3.7594104    438.92147  0.069803032  0.071960659            1 
  525000    1.0336973   -3.7414536    441.54494  0.070086498  0.071926266            5 
  526000     1.052708   -3.7518459    442.06695  0.070035955  0.071893854            2 
  527000    1.0324738   -3.7179382     443.9317  0.070197928  0.071860979            1 
  528000    1.0104356   -3.7438519     445.3879  0.070294808  0.071826771            3 
  529000    1.0629991   -3.7555535    443.65446  0.069888857  0.071792719            3 
  530000    1.0259413   -3.7358091     445.6001  0.070062908  0.071759144            4 
  531000    1.0610223   -3.7440859    445.29237  0.069882669   0.07172464            3 
  532000     1.045774   -3.7420564    447.99589  0.070174794   0.07169331            1 
  533000    1.0326044   -3.7281775    447.42403  0.069953726  0.071660136            2 
  534000    1.0618601   -3.7799488    447.40999  0.069820535  0.071627347            1 
  535000    1.0421768   -3.7249639     449.9036  0.070078442  0.071593956            2 
  536000      1.04567   -3.7442184     449.3862  0.069867257  0.071562078            3 
  537000    1.0517133   -3.7466695    450.02617  0.069836464  0.071531356            2 
  538000    1.0695586   -3.7283173    450.14756  0.069725458  0.071499669            1 
  539000    1.0407914   -3.7261744    452.48595  0.069957629  0.071468768            1 
  540000    1.0046699    -3.765028    453.13336  0.069927988  0.071436545            3 
  541000    1.0496431   -3.7907807    450.99089  0.069468713  0.071403567            5 
  542000    1.0139013   -3.7699926    452.09737  0.069510666  0.071369401            7 
  543000    1.0526375   -3.7470215    453.34865  0.069574686  0.071337416            1 
  544000     1.025052   -3.7569163    453.17542  0.069420254  0.071304302            2 
  545000    1.0453192   -3.7854989      454.352  0.069472782  0.071272317            2 
  546000     1.028942   -3.7623123    456.39409  0.069657218  0.071240465            2 
  547000    1.0288218   -3.7444009    455.52475  0.069397433  0.071208267            2 
  548000     1.054798   -3.7583096     457.0852   0.06950809  0.071175196            4 
  549000    1.0513914   -3.7576048    457.00145  0.069368769  0.071141831            4 
  550000    1.0305634   -3.8000421    456.38794  0.069149687   0.07110903            2 
  551000    1.0480276   -3.7690112    458.83826  0.069394775  0.071075811            2 
  552000    1.0330473   -3.7533137    459.45115  0.069361586  0.071042269            6 
  553000    1.0330482   -3.7686991    460.50843  0.069395484  0.071008051            4 
  554000    1.0305323   -3.7707681     460.3057  0.069239726  0.070974531            2 
  555000    1.0358775   -3.7547074    459.20553   0.06894978  0.070940511            2 
  556000     1.032196   -3.7779777    460.52712  0.069023849  0.070904812            2 
  557000    1.0474671    -3.760108    460.62801  0.068915022  0.070870128            2 
  558000    1.0581435   -3.7836438    461.40313  0.068907278  0.070834936            3 
  559000    1.0162324   -3.7783349    462.18243  0.068900183  0.070799678            2 
  560000    1.0337919   -3.7875291    461.83757  0.068725829   0.07076434            2 
  561000    1.0378993   -3.7487956    463.69678  0.068879498  0.070728287            2 
  562000     1.035375   -3.7545114    463.55759  0.068736297   0.07069179            2 
  563000    1.0371987   -3.7721024    465.25991  0.068866179  0.070655243            4 
  564000    1.0403734   -3.7726509     464.5455  0.068638519  0.070619063            1 
  565000    1.0352054   -3.7964117    463.58758   0.06837575  0.070580661            3 
  566000    1.0314185   -3.7586118    466.21981  0.068642493  0.070542747            2 
  567000    1.0259043    -3.775062     466.3817  0.068545223  0.070504108            3 
  568000    1.0258327   -3.7933089    464.03565  0.068080347  0.070465557            1 
  569000    1.0191433   -3.7813033    467.06015  0.068403654  0.070427139            4 
  570000    1.0145541    -3.763245    468.44899  0.068486694  0.070389568            2 
  571000     1.047102   -3.7676983    468.75049  0.068410755  0.070352116            4 
  572000    1.0248778   -3.7790913    468.43818  0.068245656  0.070314404            3 
  573000    1.0306244   -3.7757243    469.13337  0.068227658  0.070277046            2 
  574000    1.0302987   -3.7718156    471.12739  0.068398286  0.070240351            5 
  575000    1.0079391   -3.8259197    469.02487  0.067974618  0.070203999            1 
  576000    1.0333203   -3.7777098    470.46283  0.068064646  0.070167168            3 
  577000    1.0129289   -3.7814523    473.26691  0.068351663  0.070131576            2 
  578000    1.0088486   -3.7592577    473.13146  0.068213878  0.070094034            1 
  579000    1.0331835   -3.7916363    473.41544  0.068136937  0.070056344            2 
  580000    1.0127793   -3.7677892    474.35351  0.068154239  0.070020094            3 
  581000    1.0143064   -3.7626737    475.16108  0.068152765  0.069983686            3 
  582000    1.0270804   -3.7713513    475.75052  0.068120062  0.069946784            3 
  583000    1.0166906   -3.7671207    476.54262   0.06811644  0.069910548            2 
  584000     1.031917   -3.7717802     477.7333  0.068169706  0.069874695            4 
  585000    1.0136264   -3.7815717    478.49104  0.068161117   0.06983941            4 
  586000    1.0484074   -3.7931475    477.06214  0.067841601  0.069803828            1 
  587000    1.0236366   -3.7897482    478.34149  0.067907651  0.069767757            3 
  588000    1.0194981   -3.7792177    479.61845  0.067973136  0.069733894            3 
  589000    1.0430458   -3.7659662    481.46758  0.068119351  0.069699528            2 
  590000    1.0318819   -3.7792261    482.52304  0.068152971  0.069665434            2 
  591000    1.0245527    -3.774045    484.79298  0.068357725    0.0696313            1 
  592000    1.0312457   -3.7965146    484.17378  0.068155093  0.069598188            3 
  593000    1.0255553   -3.8030217    483.84476  0.067993924   0.06956468            4 
  594000    1.0194482   -3.7634469    485.73855  0.068145138  0.069532855            2 
  595000    1.0383665   -3.8015808    486.81306  0.068181101  0.069500259            3 
  596000    1.0281807   -3.7536957    486.97689   0.06808961  0.069468529            6 
  597000    1.0216104   -3.7832127    486.32202  0.067884146   0.06943576            6 
  598000    1.0150041   -3.8184065    484.79966  0.067558481  0.069402687            2 
  599000      1.00816   -3.7946295    487.60994  0.067836664  0.069369424            2 
  600000   0.99454067     -3.81909    487.72303   0.06773931   0.06933614            3 
  601000    1.0334809   -3.7978044    488.64788  0.067754837  0.069301849            3 
  602000    1.0013882   -3.7628443    490.08073  0.067840632  0.069267779            2 
  603000    1.0178203   -3.8431043    487.71954  0.067401816  0.069233241            2 
  604000    1.0118728   -3.7890089    491.43815  0.067803277  0.069198975            3 
  605000    1.0074536   -3.8096605    491.45704  0.067693807  0.069165977            3 
  606000    1.0428348    -3.780757    493.73487  0.067895334  0.069133979            6 
  607000   0.99305138    -3.788392    492.40472  0.067600867  0.069102293            2 
  608000   0.99069057   -3.8056483    493.70015  0.067667235  0.069069744            3 
  609000    1.0240503   -3.7832795    495.42761  0.067792503  0.069037835            2 
  610000    1.0055428   -3.7877732    496.75139  0.067862212  0.069007432            3 
  611000   0.97089379   -3.8126905    496.82394  0.067761039  0.068976883            4 
  612000      1.00752   -3.7924391     497.6391  0.067761315  0.068947184            3 
  613000    1.0149927   -3.8297109    498.32199   0.06774361  0.068917811            4 
  614000   0.99933034   -3.7871921    499.80277  0.067834252  0.068887905            2 
  615000    1.0089807   -3.7908427    500.84241  0.067864825  0.068857659            2 
  616000    1.0001567   -3.8444926    498.28385   0.06740853  0.068826771            3 
  617000    1.0240371   -3.7932299    500.69749  0.067625269  0.068796164            5 
  618000    0.9981743   -3.8072833    501.22689  0.067587229  0.068765739            2 
  619000    1.0124444   -3.7732698    503.54354  0.067789922  0.068735253            2 
  620000    1.0115278   -3.8132117    503.11279  0.067622687  0.068705046            6 
  621000    1.0062732   -3.8065144    502.33363  0.067409237  0.068673911            2 
  622000    1.0192553    -3.782058    504.50692  0.067592031  0.068643005            3 
  623000     1.016723   -3.8052347    503.23376  0.067313238  0.068611783            3 
  624000    1.0283606   -3.8180089    502.39499  0.067093348  0.068579776            5 
  625000   0.99929978    -3.792933    502.88888  0.067051851  0.068547392            7 
  626000    1.0061816   -3.7806084     504.2442  0.067125159  0.068515669            6 
  627000   0.99444594   -3.8592687    504.32033   0.06702822  0.068483525            6 
  628000    1.0107684   -3.8183687    506.82931   0.06725442  0.068451232            4 
  629000    1.0181209   -3.8052459     507.3313  0.067214003  0.068418886            2 
  630000    1.0030236   -3.8372703    507.75121  0.067162858  0.068386973            2 
  631000    1.0013479   -3.8068928    507.87212  0.067072387  0.068355347            2 
  632000   0.99299388   -3.8164033    507.01911  0.066853786  0.068323811            4 
  633000   0.97588828     -3.82574    508.64088  0.066961675   0.06829203            6 
  634000   0.99515603   -3.7907135    510.00966   0.06703597  0.068260084            4 
  635000   0.98771642    -3.815514    510.64518  0.067013803  0.068231008            1 
  636000    1.0095578   -3.7888768    511.20379  0.066981629  0.068200524            2 
  637000    1.0077149   -3.8469893    512.18027  0.067004222  0.068169961            2 
  638000   0.98445364   -3.8260172    512.26468  0.066910224  0.068139893            3 
  639000   0.99987486   -3.8294974    512.83262  0.066879579  0.068108699            4 
  640000   0.97748282   -3.8329867    512.79377  0.066770023  0.068078492            4 
  641000    1.0042474   -3.8096988    515.95363  0.067076655  0.068047002            2 
  642000   0.99992271   -3.8142126    517.82891  0.067215591  0.068016967            2 
  643000   0.98974726   -3.8603574    514.86661   0.06672714  0.067985822            3 
  644000   0.99286922   -3.8240474     515.9449  0.066763056  0.067954668            6 
  645000   0.99532356    -3.851058    514.76269  0.066506808   0.06792361            2 
  646000    1.0228407   -3.8337504    516.74202  0.066659188  0.067892654            5 
  647000   0.98272741   -3.7999628     517.3738  0.066637532  0.067861426            1 
  648000    1.0095742   -3.8079124    517.65721  0.066571144  0.067829917            2 
  649000   0.98881476   -3.8119312    517.93652  0.066504433   0.06779736            1 
  650000   0.98862802   -3.8375611    518.23437  0.066440304  0.067766051            3 
  651000    1.0050463   -3.8295452    520.02638  0.066567637  0.067733999            5 
  652000   0.99748927   -3.8108282    521.89744  0.066704683  0.067702153            2 
  653000   0.98221778   -3.8392776    518.66258  0.066189711  0.067670345            2 
  654000    0.9899089   -3.8457394    519.63046  0.066211833  0.067637621            2 
  655000   0.98872462   -3.8162513    520.35596  0.066203049  0.067604951            2 
  656000      1.01409   -3.8360802    520.01456   0.06605876  0.067572699            2 
  657000   0.99973801   -3.8315911    521.75679  0.066179197  0.067540308            2 
  658000   0.99470145   -3.8269396    522.99021  0.066234829  0.067508716            7 
  659000   0.98200416   -3.8146966    526.43081  0.066569399   0.06747723            1 
  660000   0.99490881   -3.8458571    522.62237  0.065987672  0.067445912            4 
  661000   0.98563657   -3.8315007    526.84049  0.066419628  0.067414371            1 
  662000   0.98854101   -3.8526133    525.88403  0.066198896  0.067383144            3 
  663000   0.97507405   -3.8431257    525.67418  0.066072672  0.067351369            9 
  664000   0.97826407   -3.8124262    526.02718  0.066017468  0.067320254            2 
  665000   0.98369861   -3.8155278    528.64278  0.066245962  0.067289061            3 
  666000    1.0017895   -3.8358215    529.52174  0.066256474  0.067256425            3 
  667000    1.0107454   -3.8486315    528.49445  0.066028791  0.067224923            3 
  668000   0.97117632   -3.8313639    530.81326  0.066219219  0.067193493            6 
  669000    0.9954485   -3.8262704    529.97276  0.066015541  0.067161983            4 
  670000   0.99779547   -3.8448961    529.02499  0.065799127  0.067129789            6 
  671000    1.0005629   -3.8757236    529.23867  0.065727604  0.067097647            3 
  672000   0.99517978   -3.8401597    532.29343  0.066008609  0.067065802            3 
  673000   0.97561541   -3.8483417    529.97998  0.065624068  0.067033997            3 
  674000   0.99875775   -3.8386835    532.19763  0.065800893  0.067002302            2 
  675000   0.98681927   -3.8407878    531.24437  0.065585725  0.066969928            3 
  676000   0.97282999    -3.842277    534.98198  0.065949455  0.066937402            2 
  677000   0.99558769   -3.8280737    533.89679  0.065718463  0.066905451            3 
  678000   0.99565204   -3.8116576    531.61464  0.065341032  0.066873478            2 
  679000   0.99590555   -3.8146421    536.04216  0.065788189  0.066841518            2 
  680000    1.0041872   -3.8237944    535.12786  0.065579395   0.06680956            6 
  681000   0.96842175   -3.8468345    538.16937  0.065855283  0.066777298            2 
  682000   0.98657895   -3.8479459    534.40276   0.06529848  0.066744333            4 
  683000    1.0025696   -3.8341676    537.77857  0.065614759  0.066711649            3 
  684000   0.98362429   -3.8633521    538.38589  0.065592823  0.066679003            3 
  685000   0.97974385   -3.8563002    537.61304  0.065403046  0.066645808            3 
  686000   0.97041028    -3.861098    537.26862  0.065265868  0.066612677            1 
  687000   0.98266473    -3.855045    537.31455  0.065176438  0.066579884            2 
  688000   0.99191681   -3.8620728    539.23781  0.065314657  0.066547497            2 
  689000    0.9884766   -3.8293255    541.65205  0.065511859  0.066515979            2 
  690000    0.9805077   -3.8710632    540.08156  0.065227242  0.066484668            3 
  691000   0.98459604   -3.8644595    542.73603   0.06545297  0.066452904            3 
  692000   0.99511079   -3.8425338    541.81264  0.065247187  0.066421517            4 
  693000   0.96742839   -3.8525513     544.2735  0.065448954  0.066390568            4 
  694000   0.96035191   -3.8381625     543.7244  0.065288713   0.06635932            4 
  695000   0.97220683   -3.8472216    543.62635  0.065183016  0.066328371            3 
  696000    0.9623208   -3.8508229    545.97502  0.065370572  0.066297917            2 
  697000    0.9840757   -3.8502024    547.48437  0.065457242  0.066267661            6 
  698000    0.9749881   -3.8344909    546.14441  0.065203487  0.066237894            5 
  699000   0.97450085   -3.8666245    546.43687  0.065145072  0.066207798            4 
  700000   0.99706731   -3.8527144      548.712  0.065322857  0.066177559            2 
  701000    0.9564171   -3.8691548    548.96355  0.065259575  0.066146249            1 
  702000     0.985324   -3.8524078    547.93667  0.065044714  0.066115009            1 
  703000    0.9755999   -3.8348135    549.77031  0.065169548  0.066084849            2 
  704000   0.96547679   -3.8562772    551.49554  0.065281196  0.066054078            2 
  705000   0.97184682   -3.8500667    550.10688  0.065024454  0.066022569            2 
  706000   0.95425844   -3.8751502    553.13474  0.065289747  0.065991983            5 
  707000   0.96377351    -3.851836    552.79139  0.065156929  0.065961532            3 
  708000    0.9969303   -3.8385545    552.53544  0.065034774  0.065930985            3 
  709000   0.97646689   -3.8653459    553.57828  0.065065618  0.065900262            3 
  710000   0.96436619     -3.84855     552.5782  0.064856596   0.06587007            5 
  711000   0.96454709   -3.8835005    555.22546  0.065075651  0.065840077            4 
  712000   0.97803572   -3.8518369    553.15804   0.06474228   0.06581024            3 
  713000   0.93476125   -3.8838109    554.34597  0.064790319  0.065779369            2 
  714000   0.95667129   -3.8733387    555.84271  0.064874265  0.065749331            3 
  715000   0.96183602   -3.8538998    555.15268   0.06470311  0.065719214            7 
  716000   0.96147091   -3.8593476    557.38691  0.064872778  0.065689929            3 
  717000   0.98532231   -3.8622101    559.14139  0.064986214  0.065661188            2 
  718000   0.98733369   -3.8821668    559.66191  0.064956117  0.065631364            2 
  719000    0.9622984   -3.8719923     556.5958  0.064510408  0.065601251            2 
  720000   0.96204588   -3.8624099    557.63757  0.064541385  0.065571129            4 
  721000   0.97443669   -3.8484098    560.51874  0.064784875  0.065540702            4 
  722000   0.99664771   -3.8712093    558.83811  0.064501167  0.065511506            2 
  723000    0.9507876   -3.8946989    560.58994   0.06461387  0.065482417            3 
  724000   0.98406452   -3.8666074    561.94326  0.064680394  0.065453468            3 
  725000   0.94766919    -3.867736    562.88842  0.064699818  0.065424364            5 
  726000   0.96371335   -3.9043657    562.62897   0.06458092  0.065395041            3 
  727000   0.97689263   -3.8559763    563.63077   0.06460692  0.065366653            2 
  728000   0.97163698   -3.8869486    563.17251  0.064465718  0.065337692            5 
  729000    0.9685636   -3.8723584    563.77634  0.064446313  0.065308471            4 
  730000   0.95977604   -3.8865425    564.41039  0.064430409  0.065278998            3 
  731000   0.94433932   -3.9030129    563.80082   0.06427278  0.065249578            3 
  732000   0.94628877   -3.8796302    563.07765  0.064102647  0.065218842            2 
  733000   0.96537946   -3.8787269    565.27554  0.064265068  0.065188779            2 
  734000   0.97824229   -3.8855666    566.13039  0.064274567  0.065158435            3 
  735000   0.95741925   -3.8697464    567.67966  0.064362774  0.065128584            4 
  736000   0.97461793   -3.8842971    568.15019  0.064328599  0.065099156            5 
  737000   0.99068218   -3.8760388     565.6567  0.063959373  0.065069287            5 
  738000    0.9630434    -3.858766    569.34771  0.064289489  0.065039408            3 
  739000   0.98789952   -3.8933369     568.4127  0.064097057  0.065009165            2 
  740000   0.97632067   -3.8726103    569.87365  0.064174961  0.064979367            2 
  741000   0.94410426    -3.879942    571.05822  0.064221572  0.064949037            3 
  742000   0.97350881   -3.9069772    569.51726  0.063961956  0.064919271            3 
  743000   0.98042673   -3.8910857    571.13274  0.064057059  0.064888721            2 
  744000   0.97243128   -3.8958644     572.6152  0.064137008  0.064859092            5 
  745000    0.9499268   -3.8935853    572.60284  0.064049534   0.06482974            2 
  746000   0.95992383    -3.879695    573.61771  0.064077045  0.064800233            5 
  747000    0.9505352    -3.910105    573.72464  0.064003195  0.064770179            2 
  748000    0.9571714   -3.8668337    573.52091  0.063894932  0.064739985            2 
  749000   0.95060086   -3.8906056    573.37009  0.063792845  0.064709497            3 
  750000   0.95787622   -3.8980755    574.00508  0.063778343  0.064679529            2 
  751000    0.9752522   -3.8703497    573.33272   0.06361881  0.064649076            2 
  752000   0.95230886   -3.8952953    574.07382  0.063616336  0.064618499            3 
  753000   0.95869383    -3.889688     574.8504  0.063617795  0.064588068            2 
  754000   0.95589955   -3.8881304    574.84288  0.063532591  0.064556796            3 
  755000   0.94232346   -3.8752119    576.83291  0.063668091  0.064525373            2 
  756000   0.94407465   -3.8970594    576.24465  0.063519031  0.064494429            2 
  757000   0.94129981   -3.8816367    578.92606  0.063730301  0.064463304            4 
  758000   0.94233602   -3.9252676    576.91445  0.063425071  0.064431554            5 
  759000   0.95390311   -3.8578267    579.53942  0.063629712  0.064400098            2 
  760000   0.97923005   -3.9047324    576.05314  0.063163721  0.064368703            4 
  761000   0.93737529   -3.8846871    579.63598  0.063473059  0.064337074            4 
  762000   0.95080282   -3.8940983    579.62192  0.063388224  0.064305976            3 
  763000   0.95195883   -3.8895897      579.623  0.063305264  0.064274519            3 
  764000   0.96069405   -3.9180178    579.07977  0.063163151  0.064242335            4 
  765000    0.9420247   -3.8999418    579.95565  0.063175997  0.064210225            4 
  766000   0.95037437   -3.8767408    580.38275  0.063139986  0.064178087            4 
  767000   0.94363341   -3.9011445    580.56095  0.063077026  0.064145888            1 
  768000    0.9563861   -3.8801371    581.48187  0.063094821  0.064114706            6 
  769000   0.94330057   -3.8966238    581.47649   0.06301219   0.06408377            6 
  770000   0.95515322   -3.8700483    584.24207  0.063229662  0.064052583            2 
  771000   0.94714067   -3.8843757    582.44588  0.062953511  0.064022024            3 
  772000   0.95265195   -3.8835679    586.40392  0.063299214  0.063991271            3 
  773000   0.93276487   -3.8755677    585.31512  0.063099949  0.063960126            3 
  774000   0.95880301   -3.8849133    587.59557   0.06326395  0.063929946            6 
  775000   0.95268285   -3.9098943    585.24076  0.062929114  0.063898935            5 
  776000   0.93563937   -3.8972274    587.59006  0.063100308  0.063868083            6 
  777000   0.94208997   -3.9277635    587.21495  0.062978867  0.063837385            5 
  778000   0.92776659   -3.8971713    589.15534  0.063105756  0.063806732            3 
  779000   0.93329615   -3.9200614    587.92636  0.062893277    0.0637761            3 
  780000   0.94302773   -3.9147268    588.96411  0.062923516  0.063745785            3 
  781000   0.93423921   -3.9269028    589.89905  0.062942707  0.063715161            1 
  782000   0.94262528    -3.871568    589.25762  0.062793864  0.063684261            5 
  783000   0.94512517   -3.8958364     590.3937  0.062834578  0.063653832            2 
  784000   0.93327443   -3.8946813    590.42691  0.062757963  0.063623949            2 
  785000   0.95414902   -3.9004109    591.39229  0.062780498  0.063592774            2 
  786000   0.94580697    -3.920867    591.63483  0.062726339   0.06356139           11 
  787000   0.93111661   -3.9169559     589.7778      0.06245  0.063530546            8 
  788000   0.94404152   -3.9086447    592.23494  0.062630599  0.063499834            5 
  789000    0.9413082   -3.9269298    591.68671  0.062493316  0.063468895            3 
  790000   0.94193862   -3.9208242    592.74588  0.062525936  0.063437682            6 
  791000   0.92843371   -3.9241963    594.12643  0.062592333   0.06340634            3 
  792000   0.94469901   -3.9425063    593.01314  0.062396164  0.063374844            7 
  793000   0.92905309   -3.9021599    593.59559  0.062378688  0.063342921            3 
  794000   0.94163713   -3.8842677    595.42532  0.062492162  0.063311086            2 
  795000   0.96628867   -3.9019865    595.52287  0.062423781  0.063279348            3 
  796000   0.96124629   -3.9084497    596.23333  0.062419737  0.063248174            2 
  797000   0.92518276   -3.9204562    594.24778  0.062133812  0.063217021            3 
  798000   0.92954649   -3.9445862    596.01531  0.062240529  0.063184875            2 
  799000   0.91798309   -3.9370303    595.94092  0.062154873  0.063153393            5 
  800000    0.9404471   -3.9281586    598.70468   0.06236507  0.063121973            6 
  801000   0.91661235   -3.9128935    599.33603  0.062352896  0.063092033            3 
  802000   0.91899645   -3.9217744    597.64204  0.062099131  0.063061523            4 
  803000    0.9479708   -3.9355283    599.55943  0.062220779  0.063030406            3 
  804000   0.92743927   -3.8929754    599.60148  0.062147749  0.062999401            3 
  805000   0.91859608   -3.9184511    598.58143  0.061964951  0.062968228            4 
  806000   0.93620482   -3.9584392    600.44147  0.062080383  0.062937166            2 
  807000   0.93848686   -3.9499679    602.14292  0.062179154  0.062906419            5 
  808000   0.93646032    -3.906769    601.04492  0.061988956  0.062875749            3 
  809000   0.93403818   -3.9097885       602.28  0.062039554  0.062844948            2 
  810000   0.92141983   -3.9221891    603.28562  0.062066422  0.062814101            2 
  811000   0.92060432   -3.9133528    602.79708  0.061939692  0.062783954            6 
  812000   0.93605942   -3.8978767    607.02467  0.062297278  0.062753298            4 
  813000   0.93599757    -3.951957     602.7635  0.061783877  0.062722808            4 
  814000   0.92090952    -3.892715    607.67181  0.062210464  0.062693107            2 
  815000   0.92402151   -3.9595038    604.00271  0.061758968  0.062663031            2 
  816000   0.91780623   -3.9442855    605.78179  0.061864971  0.062632679            4 
  817000   0.94463776   -3.9540167     605.6825  0.061779121  0.062602334            2 
  818000   0.93563808   -3.8994255     606.7069  0.061807956  0.062572545            3 
  819000   0.91880526   -3.9467511    606.15835  0.061676673  0.062542866            4 
  820000   0.92624099   -3.9204979    607.29898  0.061717376  0.062512739            4 
  821000   0.92093497   -3.9265904    608.81901  0.061796489  0.062482612            1 
  822000   0.90878879   -3.9447241    606.84758   0.06152145  0.062452887            4 
  823000   0.91687428   -3.9488388    611.30312  0.061897845  0.062423344            5 
  824000   0.91878493   -3.9465623    609.97483  0.061688393  0.062393608            4 
  825000   0.93606006   -3.9496966    610.26697  0.061643128   0.06236352            5 
  826000   0.91864523   -3.9399389    610.42792  0.061584738  0.062333347            2 
  827000   0.90098522    -3.922515    612.39876  0.061708863  0.062303418            4 
  828000   0.91373045   -3.9191609    612.57384  0.061651956  0.062273507            3 
  829000   0.95219796   -3.9633927    611.45059  0.061464675  0.062243151            4 
  830000    0.9153396   -3.9360581    611.51493  0.061397081  0.062212675            9 
  831000   0.94011692     -3.92418    614.62237  0.061634814  0.062183368            3 
  832000   0.93356211   -3.9330036    614.66248  0.061564752  0.062153963            2 
  833000   0.94706034    -3.968075    613.40487  0.061365033   0.06212406            3 
  834000   0.93342086   -3.9281412    614.55844  0.061406719  0.062094422            3 
  835000   0.93252982   -3.9343082    614.43189  0.061320548  0.062064783            2 
  836000    0.9211927    -3.954218    615.47505  0.061351181  0.062034508            5 
  837000   0.91008487   -3.9483933    615.80643  0.061310876  0.062004938            3 
  838000   0.90619658   -3.9598001    615.18839  0.061176252  0.061975308            3 
  839000    0.9246895   -3.9494295    615.45859  0.061130174  0.061944674            2 
  840000   0.91052171   -3.9380156    617.23244  0.061233377  0.061914561            3 
  841000   0.91262928   -3.9355473    616.00252  0.061038696  0.061884489            3 
  842000   0.92192172   -3.9316412    620.78411   0.06143944  0.061855263            3 
  843000   0.92194443    -3.958029    617.74745  0.061066375   0.06182518            3 
  844000   0.91484749   -3.9427143    617.87405  0.061006521  0.061795178            5 
  845000   0.90538511   -3.9638984    620.21555  0.061165242  0.061765043            5 
  846000   0.92698932   -3.9472317    621.22946  0.061192815  0.061735429            2 
  847000   0.93854753   -3.9427828    619.98581  0.060998211  0.061704923            7 
  848000   0.89910627   -3.9329396    620.13215  0.060940659  0.061675167            5 
  849000   0.93219109   -3.9519689    620.65502  0.060920202  0.061644525            6 
  850000   0.91690396   -3.9214846    621.19624  0.060901592  0.061614022            4 
  851000   0.92615093    -3.919433    621.45085   0.06085496  0.061583256            4 
  852000   0.93313233   -3.9464221    621.61124  0.060799222  0.061552313            3 
  853000   0.93134052   -3.9533693    622.05314  0.060771115  0.061521421            4 
  854000   0.89643763   -3.9320191    622.92199  0.060784737  0.061490769            5 
  855000   0.93588509   -3.9765663    619.81824  0.060411134   0.06145954            5 
  856000    0.8918553    -3.988978     621.2588  0.060480802  0.061428159            6 
  857000   0.92201217   -3.9441251    624.26856  0.060702894  0.061396711            2 
  858000   0.90255739   -3.9245977    623.34336  0.060542285   0.06136583            3 
  859000   0.90108343   -3.9708316    624.10732  0.060545917  0.061334304            6 
  860000   0.91325984   -3.9666019    622.75022  0.060344013  0.061303359            7 
  861000   0.90515468   -3.9401031    624.56102  0.060449188  0.061272238            2 
  862000   0.92230757   -3.9502305    623.90202  0.060315353  0.061241774            3 
  863000   0.90627464   -3.9323235    625.71191  0.060420231  0.061210469            4 
  864000   0.92298404   -3.9540965    625.34282  0.060314701  0.061178855            6 
  865000   0.89188312   -3.9880716    624.42528  0.060156578   0.06114684            2 
  866000   0.89940537   -3.9723005    625.81104  0.060220462  0.061114774            3 
  867000   0.91928628   -3.9697931      627.094  0.060274317  0.061082975            5 
  868000   0.92437061   -3.9533542    626.71705  0.060168687  0.061051336            4 
  869000   0.91414796   -3.9854182    626.39086  0.060068168  0.061020045            4 
  870000   0.90312561   -3.9384917    629.36237  0.060283752  0.060988905            4 
  871000   0.91251391   -3.9847655     627.3047  0.060017671  0.060957857            4 
  872000   0.91673977   -3.9742412    629.52389  0.060160922  0.060926669            4 
  873000    0.8994435   -3.9323836    630.46501  0.060181845   0.06089564            3 
  874000   0.91840754    -3.958733    631.13145   0.06017653  0.060864445            1 
  875000   0.88369336    -3.982563    630.10237  0.060009749  0.060833427            7 
  876000   0.91191868    -3.963137    630.43082  0.059972491  0.060801836            3 
  877000   0.92565917   -3.9609173    629.07792  0.059775553  0.060770161            2 
  878000   0.89964519   -3.9703747    630.10637  0.059805085  0.060739302            4 
  879000   0.92985499   -3.9781958    632.18217  0.059933842  0.060707999            3 
  880000   0.90254198   -3.9462215    634.00194  0.060038062  0.060676539            4 
  881000   0.92348656   -3.9579841    633.31786  0.059905208  0.060644998            2 
  882000   0.88253492   -3.9785323    632.49042   0.05975911  0.060613619            3 
  883000   0.92988238   -3.9710075    632.25013  0.059668756  0.060581719            7 
  884000   0.89957505   -3.9548075    632.09642  0.059586766  0.060550148            3 
  885000   0.89252061   -3.9835499    632.92759  0.059597701  0.060518495            2 
  886000   0.87979751   -3.9599484    636.46073  0.059862747  0.060486852            4 
  887000    0.8983481    -3.945899    633.80904  0.059546133  0.060455014            2 
  888000   0.89470682   -3.9815218     633.8441  0.059482367  0.060422918            5 
  889000   0.89279595    -4.002036    632.33302  0.059273811  0.060390569            4 
  890000   0.90255368   -3.9847095    633.38433  0.059305649  0.060357834            4 
  891000   0.93874261   -3.9453076    635.06555  0.059396329  0.060324906            5 
  892000   0.92333619   -3.9913767    633.59015  0.059191905   0.06029174            3 
  893000   0.89527383   -4.0104381    631.55384  0.058935595  0.060258217            2 
  894000    0.8752493   -3.9757864    633.69051   0.05906884  0.060225229            5 
  895000    0.9029522   -3.9776447    635.46151  0.059167738  0.060192258            2 
  896000    0.9038073   -3.9698847    637.40417  0.059282382  0.060159359            7 
  897000   0.89168301   -4.0023185    636.11103  0.059096157  0.060126893            3 
  898000   0.89029867   -3.9908764    634.62747  0.058892676  0.060094127            2 
  899000   0.89671392   -3.9978505    637.70792   0.05911271  0.060061495            2 
  900000   0.90927552   -4.0069237     639.1337  0.059179046   0.06002922            3 
  901000   0.89492653   -3.9693136    639.20832  0.059120266  0.059996878            3 
  902000   0.88598461    -3.990409    636.59792  0.058813555  0.059964462            2 
  903000   0.89826221   -3.9808707    637.34092  0.058816991  0.059931568            2 
  904000   0.89586823   -3.9954463    639.25637    0.0589285  0.059899066            7 
  905000   0.88779449    -3.964521    639.64895  0.058899535   0.05986684            3 
  906000   0.88824777     -3.99341     640.3579  0.058899733  0.059834116            6 
  907000   0.89743673   -3.9880521    639.69296    0.0587737  0.059801031            6 
  908000    0.8693033   -4.0023326    639.76294  0.058715395  0.059768229            7 
  909000   0.89793722   -3.9547895    640.30471  0.058700469  0.059735256            5 
  910000   0.91335603    -3.988634     639.9687  0.058605192  0.059702855            5 
  911000   0.90497815   -3.9731943    643.34682  0.058849874  0.059670007            4 
  912000   0.89083941   -4.0143138    641.27594   0.05859612  0.059637379            3 
  913000   0.89942454   -3.9582696     646.2362  0.058984684  0.059604823            5 
  914000   0.90818608   -3.9966293    642.28136  0.058559569   0.05957208            3 
  915000   0.89054438   -3.9940378     644.0082  0.058652841  0.059539199            5 
  916000   0.87826686   -3.9914203    643.89747  0.058578736   0.05950556            4 
  917000   0.87679334   -3.9997513    644.07646  0.058531121  0.059472303            3 
  918000   0.87595999   -3.9904797    642.62449  0.058335557  0.059438379            3 
  919000   0.87458853   -4.0000686     641.3201  0.058153799  0.059404251            4 
  920000   0.87573736   -3.9860071    641.08132   0.05806896  0.059370656            4 
  921000   0.89352085   -4.0103975    641.35843  0.058030984  0.059336479            6 
  922000   0.87834161   -3.9984617    643.16208  0.058131062  0.059302359            3 
  923000   0.89031861   -4.0020252    643.80996  0.058126577  0.059268885            4 
  924000   0.90337513   -3.9812261    644.46455  0.058122705  0.059235184            2 
  925000   0.88463268   -4.0252064    643.33133  0.057957777  0.059201533            4 
  926000   0.90631904   -4.0073644    644.08994  0.057963457  0.059167764            3 
  927000     0.884991   -4.0012299    644.95508  0.057978702   0.05913389            2 
  928000    0.8890571   -3.9982453    647.19729  0.058117573  0.059100467            2 
  929000   0.88284854    -4.003354    646.61434  0.058002722  0.059067588            3 
  930000   0.88565856   -4.0017389    645.74317  0.057862291  0.059033865            3 
  931000   0.88117617   -4.0120539    644.63898  0.057701305  0.059000119            6 
  932000   0.88504878   -4.0273969    644.73394  0.057647884  0.058965186            3 
  933000   0.88678258   -4.0378515    645.49858  0.057654393   0.05893064            3 
  934000   0.86193209   -4.0049787    648.35319  0.057847358  0.058896633            6 
  935000    0.8720634   -4.0508781    647.45283  0.057705243  0.058862793            3 
  936000   0.88091786   -4.0247986    647.77929  0.057672657  0.058829431            7 
  937000   0.87237857   -4.0138393    649.10733  0.057729218  0.058795731            8 
  938000   0.88198961     -3.99456    650.14587  0.057759939  0.058762338            4 
  939000   0.88700845    -3.993272    650.55285  0.057734545  0.058728626            7 
  940000   0.87524061   -4.0126309    646.39963  0.057304932  0.058694925            3 
  941000   0.90393273    -4.023029    649.83557  0.057548315  0.058660685            3 
  942000   0.88139969   -4.0069959    649.07236  0.057419706  0.058626649            2 
  943000   0.86158892   -4.0157405    648.01649  0.057265508  0.058592482           11 
  944000   0.88340658   -4.0053943    650.66506  0.057438653   0.05855832            3 
  945000   0.87978386   -4.0503485    650.66191  0.057377593  0.058524542            2 
  946000   0.87265864   -3.9959746    652.03852  0.057438207  0.058490522            2 
  947000   0.87630339   -4.0060373    652.42357  0.057411437   0.05845701            3 
  948000   0.87581599    -3.996502    654.58881  0.057541211  0.058423389            2 
  949000   0.87228892   -4.0227027    655.25336  0.057538933  0.058389952            2 
  950000   0.88322003   -4.0186944    655.24634  0.057477749  0.058356568           10 
  951000   0.86477164   -4.0269546    653.77349  0.057288248  0.058323359            4 
  952000   0.88134487   -4.0383601    654.63202  0.057303223  0.058290174            3 
  953000    0.8819337   -4.0373037    654.62986  0.057242905  0.058256894            8 
  954000   0.86745477   -4.0029117    656.96706   0.05738706  0.058223819            3 
  955000   0.85214103   -4.0351299    656.39365  0.057276933  0.058190886            5 
  956000   0.87259935   -4.0245388    656.62685  0.057237348  0.058157621            2 
  957000   0.88140202   -4.0273295    656.04595  0.057126955  0.058124846            5 
  958000   0.87502989   -4.0075806    657.27281  0.057174044  0.058092073            3 
  959000    0.8710933   -3.9894077     659.9416  0.057346333  0.058059484            3 
  960000   0.87184539   -4.0251024    657.52462   0.05707679  0.058027251            4 
  961000   0.86757505   -4.0442185    657.51311  0.057016399  0.057995231            5 
  962000   0.88082023   -4.0205007    661.44694  0.057297899  0.057963012            3 
  963000   0.87471026   -4.0226298    662.51499  0.057330823  0.057931435            3 
  964000     0.877462   -4.0501352    660.95161  0.057136204  0.057900087            2 
  965000   0.85177573   -4.0582474    661.86867  0.057156189  0.057868257            3 
  966000   0.87903113   -4.0395316    662.53247  0.057154285  0.057836879            3 
  967000   0.87794812   -4.0040367    663.73464   0.05719878  0.057805876            7 
  968000   0.85880743   -4.0126072    661.46532  0.056944329  0.057774648            3 
  969000   0.87499187   -4.0651334    660.89815  0.056836786  0.057743835            2 
  970000   0.86591584   -4.0513698    662.80623  0.056942116   0.05771222            2 
  971000   0.87388035   -4.0328902     665.6935  0.057131265  0.057681351            3 
  972000   0.87058847   -4.0069939    668.20045  0.057287419  0.057650571            3 
  973000   0.88215516   -4.0594924    665.42164  0.056990548  0.057620248            3 
  974000   0.86721958    -4.046589     666.4368  0.057018891  0.057589269           10 
  975000   0.86057508   -4.0251372    665.75299  0.056901965  0.057558187            3 
  976000   0.86121253   -4.0313399    667.84208  0.057022035  0.057527375            3 
  977000   0.85535146   -4.0299555    666.16093  0.056820277  0.057496151            7 
  978000   0.87648953   -4.0102413    666.92238   0.05682706  0.057465045            4 
  979000   0.87119187   -4.0303782    668.84106  0.056932334  0.057433907            5 
  980000   0.86824832   -4.0343315    667.37561  0.056749627  0.057402855            6 
  981000    0.8608772   -4.0054882    668.28383  0.056768929  0.057371811            3 
  982000    0.8659114    -4.053733    669.76743  0.056837019   0.05734113            3 
  983000   0.84969841   -4.0491622    669.90388  0.056790766  0.057310551            4 
  984000   0.86104266   -4.0307758    670.40171  0.056775212  0.057279658            5 
  985000   0.85621312   -4.0138967    671.86237  0.056841148  0.057248834            4 
  986000   0.86800539   -4.0328607    671.58787    0.0567603  0.057218229            4 
  987000   0.86795858   -4.0336424     673.5461  0.056868127  0.057187522            2 
  988000   0.88221047   -4.0385559    672.81214  0.056748662  0.057157324            3 
  989000   0.86303353   -4.0782099    670.02747  0.056456645  0.057126773            7 
  990000   0.88088118   -4.0371752    672.97701  0.056647897  0.057096339            3 
  991000   0.85303165   -4.0379462    672.87577  0.056582221   0.05706614            5 
  992000   0.87108738   -4.0274005    673.62091  0.056587778  0.057036056            3 
  993000   0.85996199   -4.0247391    674.51671  0.056605968  0.057005931            3 
  994000   0.83973909   -4.0503719    673.74028  0.056483927  0.056975721            4 
  995000   0.83584492   -4.0668612      672.855  0.056353015  0.056945418            3 
  996000   0.84999548   -4.0624999    673.62575  0.056360923  0.056914398            9 
  997000   0.83935946   -4.0866218    675.19304  0.056435393  0.056883453            4 
  998000   0.86028793   -4.0454482     675.6011  0.056412917  0.056852724            4 
  999000     0.847318   -4.0462011    675.26351  0.056328288  0.056822254            5 
 1000000   0.84873589   -4.1025165    673.04138  0.056086782  0.056791887           13 
 1001000   0.83477101   -4.0676171    677.62131   0.05641203  0.056761626            3 
 1002000     0.864473   -4.0569713    675.62605  0.056189791  0.056731481            2 
 1003000   0.85286964   -4.0601139    675.11325  0.056091164  0.056701465            3 
 1004000   0.86123528    -4.033061    678.43711  0.056311181  0.056671551            3 
 1005000   0.85543722   -4.0548266    678.48578  0.056259186  0.056641818           10 
 1006000   0.84123527   -4.0590195    677.87415  0.056152597  0.056611386            3 
 1007000   0.83888973    -4.052754     680.7958  0.056338613  0.056581545            3 
 1008000   0.85124384    -4.042691    680.33549  0.056244667  0.056551816            3 
 1009000   0.85520022   -4.0684374    678.13246  0.056006976  0.056521772            4 
 1010000   0.84683827    -4.055705    680.26806  0.056127727  0.056491879            2 
 1011000   0.87007748   -4.0827514    677.34165  0.055830996  0.056461712            3 
 1012000   0.85073072   -4.0612382    682.25227  0.056180194  0.056431303            6 
 1013000   0.83787758   -4.0435066    682.86226  0.056174914  0.056401895            6 
 1014000   0.86169497   -4.0580341    680.95227  0.055962547  0.056372397            2 
 1015000   0.85000339   -4.0628774     681.9627  0.055990369  0.056342605            4 
 1016000   0.85252757    -4.062501    680.78251   0.05583846  0.056312916            6 
 1017000   0.84941761   -4.0599541    683.94274  0.056042506  0.056283279            2 
 1018000   0.87203055    -4.073425    679.04755  0.055586735  0.056253275            6 
 1019000   0.84370007   -4.0676859    679.66578  0.055582743  0.056223737            4 
 1020000    0.8316372   -4.0749934    682.58371  0.055766643  0.056194078            5 
 1021000   0.85591787   -4.0677969    683.79915  0.055811227  0.056164375            5 
 1022000   0.83689786    -4.058495    683.36604  0.055721301  0.056134844            3 
 1023000   0.83528294    -4.094386    686.92717  0.055956922  0.056105477            4 
 1024000   0.85728329   -4.0746875    684.83533  0.055732042   0.05607612            7 
 1025000   0.82852327   -4.0723079    684.27129  0.055631812  0.056046722            4 
 1026000   0.84632814   -4.0602561    687.87105  0.055869969  0.056017418            4 
 1027000   0.86539713   -4.0777304    685.66576  0.055636624  0.055988307            4 
 1028000   0.84800549    -4.023876    686.97776  0.055688858  0.055958819            7 
 1029000   0.83373758   -4.0855039     686.4246  0.055589942  0.055929408            3 
 1030000   0.83793313   -4.0620445     686.7131  0.055559312   0.05589972            6 
 1031000   0.85454489   -4.0709492    688.09507  0.055617125  0.055869916            5 
 1032000   0.82503553   -4.0592475     687.4846  0.055513937  0.055839961            4 
 1033000   0.81968239    -4.083067    684.61814  0.055228956  0.055809893            4 
 1034000    0.8539147   -4.0657292    686.76379  0.055348468  0.055779701            2 
 1035000   0.82769673   -4.0771073    686.68211  0.055288414   0.05574964            3 
 1036000   0.83468178   -4.0723951    689.88278  0.055492501  0.055719992            5 
 1037000   0.84971623   -4.0797852    688.69014  0.055343148  0.055689827            7 
 1038000   0.82614008   -4.0693922    689.47849  0.055353123  0.055660244            5 
 1039000   0.83711565   -4.0842854    689.97627  0.055339771  0.055630166            3 
 1040000   0.83993945   -4.0661521      691.248  0.055388462  0.055600476            4 
 1041000   0.81501482   -4.0783431    689.83112  0.055221832  0.055570457            7 
 1042000    0.8324728   -4.0755026    691.88503  0.055333096  0.055541011            5 
 1043000   0.83371333   -4.0569232    691.72728   0.05526744  0.055511761            2 
 1044000   0.81481423   -4.0823198    689.33641   0.05502366  0.055482292            5 
 1045000   0.84421595   -4.0939923    691.68444  0.055158249  0.055452343            2 
 1046000   0.84744239   -4.0981428    691.24822  0.055070763   0.05542249            5 
 1047000   0.82955488   -4.0847374    692.91736  0.055151015  0.055392726            3 
 1048000   0.83362885   -4.0888851    693.24068    0.0551241    0.0553631            4 
 1049000   0.82059806   -4.0837523    692.81121  0.055037433  0.055333539            7 
 1050000   0.84088068   -4.0689983    692.28451  0.054943215  0.055304151            4 
 1051000   0.84656944    -4.104982    693.57668  0.054993393  0.055274739            2 
 1052000   0.82603776   -4.1179237     694.5867  0.055021126  0.055245231            6 
 1053000    0.8329063   -4.0888667    694.26537  0.054943445  0.055216318            2 
 1054000   0.83688781   -4.1190138    695.67548  0.055002805  0.055187149            7 
 1055000   0.81859387   -4.0628683    698.03846  0.055137319  0.055158203            4 
 1056000   0.82042263   -4.0932699    697.29416   0.05502637  0.055129322            7 
 1057000   0.82929643   -4.0744293     694.5955   0.05476155   0.05510011            4 
 1058000   0.85056175   -4.0922943    697.86474  0.054967292  0.055071085            5 
 1059000   0.84582817   -4.0964246    697.65962  0.054899246  0.055042253            4 
 1060000   0.83558288   -4.0968365    694.11769  0.054569001  0.055013129            6 
 1061000   0.83590099   -4.1111162    699.01472  0.054902193  0.054984373            3 
 1062000   0.85020216    -4.116078    697.22733  0.054710242  0.054955874            3 
 1063000   0.83948784   -4.1037391     699.5571  0.054841416  0.054927373            5 
 1064000    0.8109127    -4.088248    700.55782   0.05486825  0.054898525            7 
 1065000   0.80129986   -4.1025253    701.44279  0.054885977  0.054870138            2 
 1066000    0.8303261   -4.0998566    699.20739   0.05465974  0.054841572            7 
 1067000   0.82607739    -4.087115    698.63674  0.054563944  0.054812999            3 
 1068000   0.82267838   -4.0721079    701.86224  0.054764532  0.054784464            2 
 1069000   0.84474129    -4.096856    700.31306  0.054592537  0.054755861            6 
 1070000   0.82069209   -4.0586299    702.14587  0.054684257  0.054727236            5 
 1071000   0.83492996   -4.0761347    703.50094  0.054738636  0.054698736            5 
 1072000   0.83338324   -4.1033946    700.68642  0.054468783  0.054670227            5 
 1073000   0.82112073   -4.0951192    702.96483   0.05459497  0.054642177            4 
 1074000   0.81525776   -4.1092701    703.23793  0.054565327     0.054614            5 
 1075000   0.84095546   -4.1112347    702.68986  0.054472082  0.054585533            3 
 1076000   0.81975081   -4.1088748    702.31471  0.054392403  0.054557049           11 
 1077000   0.82518817   -4.0921741    703.07448  0.054400687  0.054529146            5 
 1078000   0.81871053   -4.1199773    702.33399   0.05429298  0.054500877           10 
 1079000   0.82642062   -4.1061389    704.88533  0.054439707  0.054472336            4 
 1080000   0.80724983    -4.132927    702.82451  0.054230286  0.054443989            3 
 1081000   0.82042637    -4.123968    704.42909  0.054303815  0.054415753           12 
 1082000   0.79865269   -4.0943902    705.38884  0.054327545  0.054387484            6 
 1083000   0.83782018   -4.1073052    705.78972  0.054308227  0.054359466            4 
 1084000   0.80612804   -4.0822553    706.34634  0.054300918   0.05433176            3 
 1085000   0.82318473   -4.1285507      704.415  0.054102535  0.054303865            4 
 1086000   0.81968933   -4.1359634    707.13351  0.054261319  0.054275869            3 
 1087000   0.86171252   -4.1195615    710.33612  0.054456924  0.054248118            6 
 1088000   0.80376703   -4.1362026    706.99494   0.05415096  0.054220498            6 
 1089000   0.81056052   -4.1085039    709.04158   0.05425785  0.054192307            4 
 1090000   0.81011043   -4.1062415    710.70895  0.054335546   0.05416407            7 
 1091000   0.81735083   -4.1447927    707.39016  0.054032245  0.054135962            5 
 1092000   0.81167207   -4.1360456    708.39536  0.054059475  0.054107684            3 
 1093000    0.8134913   -4.1301439     709.0778  0.054062047  0.054079045            5 
 1094000   0.81691652   -4.1293324    707.85498  0.053919484  0.054050484            9 
 1095000   0.82222414   -4.1369022    706.20716  0.053744837  0.054021713            5 
 1096000   0.80416966   -4.1169526    709.18055  0.053921879  0.053992946            4 
 1097000   0.81874018    -4.104483    709.51611  0.053898216  0.053964514            5 
 1098000   0.80808869    -4.126266    708.14151  0.053744802  0.053935804            4 
 1099000   0.81878187   -4.1162661    709.12189  0.053770238  0.053907457            6 
 1100000    0.8178503   -4.0996781    710.79672  0.053848236  0.053878966            3 
 1101000   0.81040507   -4.1393829    709.37093  0.053691412  0.053850552            5 
 1102000   0.82492696    -4.118322    709.67403   0.05366561  0.053821992            3 
 1103000   0.81308445   -4.1215887    708.47556  0.053526409  0.053793189            5 
 1104000   0.79935245   -4.1142826     709.4309  0.053550038  0.053764194           10 
 1105000   0.82464015   -4.1114885     709.8524  0.053533364  0.053735035            5 
 1106000   0.82168007   -4.1292965    709.97544  0.053494231  0.053705952            4 
 1107000   0.81377003   -4.1187403    711.24423  0.053541421  0.053677269            4 
 1108000   0.80609548      -4.1127    708.26587  0.053269094  0.053648041            5 
 1109000   0.78319517   -4.1347666    712.77867  0.053560164  0.053618893            5 
 1110000   0.80627976   -4.1257784    711.38079  0.053406966  0.053589612            7 
 1111000   0.80726824   -4.1477516     710.8427  0.053318534  0.053560489            3 
 1112000   0.81572788   -4.1176749    711.28544  0.053303765  0.053531734            4 
 1113000   0.82758181   -4.1608256    709.35116  0.053111048  0.053502827            7 
 1114000   0.83170782   -4.1249553    712.20155  0.053276597  0.053473817            5 
 1115000   0.82167919   -4.1434647     712.0011  0.053213834  0.053444792            9 
 1116000   0.80785761   -4.1241647    711.80231  0.053151308  0.053415393            3 
 1117000    0.7970036   -4.1331012    710.55455  0.053010635  0.053385727           11 
 1118000   0.81507499   -4.1425144    711.26573  0.053016229  0.053356138            6 
 1119000   0.78800302    -4.144543    715.11024  0.053255156  0.053326958            6 
 1120000   0.79764776   -4.1442989    712.75165  0.053032117  0.053297728           10 
 1121000     0.800629   -4.1153598    715.49805  0.053188972  0.053268503            7 
 1122000   0.81719373   -4.1547499     714.0188  0.053031699  0.053239402           19 
 1123000   0.79450496   -4.1460862    715.13988  0.053067667  0.053210131            6 
 1124000   0.80170768   -4.1113402    714.23443  0.052953324  0.053181096            3 
 1125000   0.80363434   -4.1677242     711.9345  0.052735889   0.05315187            6 
 1126000   0.80352742   -4.1410789    714.20716   0.05285725  0.053122286            3 
 1127000   0.80241618   -4.1511278    713.59781  0.052765292  0.053092528            2 
 1128000   0.81518866   -4.1426497    714.38382  0.052776583  0.053063052            8 
 1129000   0.80413611    -4.146763     714.5008  0.052738471  0.053033206            5 
 1130000   0.81558087   -4.1513669    713.68931  0.052631955  0.053003678            5 
 1131000   0.81857928   -4.1350008    715.23161  0.052699058  0.052974387            5 
 1132000   0.79383619   -4.1332763    716.45333  0.052742442  0.052945337           11 
 1133000   0.80017636   -4.1287233    716.74161  0.052717094  0.052916571            9 
 1134000     0.784423   -4.1469118       716.43  0.052647708  0.052887433            7 
 1135000   0.80662324   -4.1446344    718.09268  0.052723398   0.05285848            6 
 1136000   0.78162219    -4.164593    717.35725  0.052623038  0.052829455            4 
 1137000   0.78655033   -4.1407471    716.45115  0.052510345  0.052800493            3 
 1138000   0.79604451    -4.163225    716.97234  0.052502368  0.052771684            6 
 1139000   0.77898351   -4.1718418    717.08052  0.052464188  0.052742752            4 
 1140000   0.80053581   -4.1142131    717.48408  0.052447667  0.052713389            4 
 1141000   0.79464825   -4.1576248    719.98132  0.052584087  0.052683967            3 
 1142000   0.79214523   -4.1600656    718.36031  0.052419754   0.05265478            5 
 1143000   0.81112002   -4.1526523    718.01815  0.052348946  0.052625715            4 
 1144000   0.79336845   -4.1577172    719.38457  0.052402722   0.05259706            7 
 1145000   0.79683588   -4.1434653    720.80556  0.052460375  0.052568414            8 
 1146000   0.80141377   -4.1469814    721.29796  0.052450404  0.052539532            5 
 1147000   0.77684286   -4.1456506    722.74421  0.052509751  0.052511032            3 
 1148000   0.78955464   -4.1899615    722.28888  0.052430958  0.052482607            6 
 1149000   0.80680322   -4.1713759    723.22822  0.052453454  0.052454046            5 
 1150000   0.77084417   -4.1767733    722.33222  0.052342914  0.052425665            4 
 1151000   0.78055032   -4.1803317    720.94755  0.052197187  0.052397095            7 
 1152000   0.79463012   -4.1483056    722.09108  0.052234598  0.052368484            4 
 1153000   0.81210605   -4.1539875     723.7679  0.052310487  0.052340046            2 
 1154000   0.78903863   -4.1879765    723.76122  0.052264675  0.052311766            7 
 1155000   0.79290869   -4.1731887    723.70781  0.052215571   0.05228311            4 
 1156000   0.79463915   -4.1643318    724.62762  0.052236709  0.052254615            5 
 1157000   0.79336872   -4.1380568    723.33305  0.052098318  0.052225792            4 
 1158000    0.7771522   -4.1704099    724.17052  0.052113595   0.05219741            6 
 1159000    0.7836297   -4.1442547    724.53192  0.052094616  0.052168854            3 
 1160000   0.79010982    -4.164407     727.2787  0.052247033   0.05214015            4 
 1161000   0.78501196   -4.1607814    725.16699  0.052050459   0.05211166            5 
 1162000   0.79531834   -4.1476363    723.23444  0.051867071  0.052083263            9 
 1163000   0.78432416   -4.1898183    724.32128   0.05190035  0.052054499            3 
 1164000   0.77421866   -4.1728331    723.93649  0.051828214  0.052025924            5 
 1165000    0.7986787    -4.180528    724.46525  0.051821548  0.051997316            4 
 1166000   0.77710225   -4.1560311    726.34266  0.051911282  0.051968648            2 
 1167000   0.77101296   -4.1618395    726.03691  0.051844966  0.051940257            9 
 1168000   0.78530459   -4.1771962    724.46745  0.051688602  0.051911541           11 
 1169000   0.79492918   -4.1779575    726.68599  0.051802537  0.051882831            6 
 1170000   0.77864393   -4.1528463    727.50203  0.051816384  0.051854276            3 
 1171000   0.79337158   -4.1635743    726.84394  0.051725301  0.051825675            6 
 1172000   0.78424514   -4.1674836    725.77229   0.05160497  0.051797068            3 
 1173000   0.78494191   -4.1691801     729.0639  0.051794821  0.051768185            2 
 1174000   0.77682109   -4.2185906    726.50574  0.051569118  0.051739503            3 
 1175000    0.7669411   -4.1764243    729.53708  0.051740218  0.051710613            7 
 1176000   0.78346317   -4.1790064    727.90655   0.05158068   0.05168188            7 
 1177000   0.77450469   -4.1798685    727.73429  0.051524659  0.051653181           13 
 1178000     0.789487   -4.1661382    729.40142  0.051598856  0.051624701            5 
 1179000   0.80087011   -4.1943897    725.41141  0.051273071  0.051595826            3 
 1180000   0.78798095   -4.1608874    728.25521  0.051430452  0.051566755            5 
 1181000   0.77665587   -4.1605166    730.78268  0.051565247  0.051538343            7 
 1182000   0.77812328   -4.1763822    727.80469  0.051311667  0.051509964            6 
 1183000   0.78387078   -4.1710289    732.72811  0.051615111  0.051481436            4 
 1184000   0.78705486   -4.1904107     730.8848  0.051441779  0.051453078            2 
 1185000   0.77998022   -4.1810413    731.23576   0.05142305   0.05142451            6 
 1186000   0.79569254   -4.1546322    730.54011  0.051330812  0.051395864            5 
 1187000    0.7607072   -4.1779055    731.56762  0.051359703  0.051367201            9 
 1188000   0.78912501    -4.215632    730.04157  0.051209426  0.051338639            4 
 1189000   0.77226319   -4.1839433    731.34017  0.051257371  0.051310265            3 
 1190000    0.7840056   -4.1672688    732.82408  0.051318213  0.051281957            5 
 1191000   0.77386326   -4.1945621    731.20475  0.051161821  0.051253586            3 
 1192000   0.77194675   -4.1691138    733.16441  0.051255901  0.051225059            7 
 1193000   0.78477817   -4.1723862    734.06519  0.051275858  0.051196558            3 
 1194000   0.76529437   -4.1866649    731.97362  0.051086936  0.051167871            4 
 1195000   0.76680376   -4.2057962    730.98735  0.050975408  0.051139117            6 
 1196000    0.7578464   -4.1985837    731.78365   0.05098827  0.051110362           14 
 1197000   0.78674099   -4.1989698    730.99621  0.050890853  0.051081658            4 
 1198000   0.77905875   -4.1890066    734.18844  0.051070425  0.051052959           10 
 1199000   0.78447328   -4.1728844    733.36642  0.050970699  0.051024322            4 
 1200000   0.76917861   -4.1708478    734.51985  0.051008323  0.050995502            4 
 1201000   0.75775945   -4.1850785     733.5868   0.05090111  0.050966921           10 
 1202000   0.77589062   -4.1895847    731.43873   0.05070984  0.050938184            8 
 1203000   0.77607924    -4.202466    734.22378  0.050860611  0.050909712            5 
 1204000   0.79091312   -4.1800443    736.25118  0.050958692  0.050881353            4 
 1205000   0.76850831   -4.1859349    735.55671  0.050868376  0.050853168            6 
 1206000   0.77080529   -4.1953092    734.74699  0.050770245  0.050824919            9 
 1207000   0.76639413   -4.2129018    735.79682  0.050800664  0.050796597            6 
 1208000   0.77504232   -4.1868334    738.04376  0.050913615  0.050768236            9 
 1209000   0.77731983   -4.2279815    733.44342  0.050554413  0.050739913            4 
 1210000   0.78073233   -4.2050799    738.24718  0.050843469  0.050711611            4 
 1211000   0.77536104   -4.1924664    736.64833  0.050691462  0.050683473            4 
 1212000   0.76959358   -4.1856273    737.43578   0.05070378  0.050655609            7 
 1213000   0.77290162   -4.2121202    736.48381  0.050596579  0.050627566            3 
 1214000   0.76691972    -4.207417    738.79548  0.050713583  0.050599561            6 
 1215000   0.77915061   -4.1795463    738.93695  0.050681547  0.050571798            4 
 1216000   0.77774793   -4.2407167    738.84313  0.050633438  0.050543751            3 
 1217000   0.77721222   -4.2066614    740.33158  0.050693754  0.050515837            2 
 1218000    0.7638846   -4.1774203    739.92927  0.050624608  0.050488064            7 
 1219000   0.76798515   -4.2083513    739.03868  0.050522196  0.050460261            3 
 1220000   0.75606796   -4.2267829    739.20464   0.05049212  0.050432189            8 
 1221000   0.75885978    -4.198874    740.27747  0.050523988  0.050404323            4 
 1222000   0.76992077   -4.2182596    738.42908  0.050356593  0.050376493            3 
 1223000    0.7915707   -4.1904701    738.45897  0.050317455   0.05034848            5 
 1224000   0.76680481   -4.2204545    738.95783  0.050310309  0.050320343            4 
 1225000   0.76029138   -4.2093464    739.57904  0.050311499  0.050292666           12 
 1226000   0.74527907   -4.2271954    738.91053  0.050225022  0.050265028            9 
 1227000   0.77090223   -4.2391475     738.8986  0.050183279  0.050236542            4 
 1228000   0.75450174     -4.21999    742.31332   0.05037414  0.050208597           10 
 1229000   0.76266504   -4.1984714    740.83644  0.050233011  0.050180684            7 
 1230000   0.76460959   -4.2218286    742.54282  0.050307779  0.050152862            4 
 1231000   0.75657691   -4.2186839     741.1624  0.050173463  0.050124827            4 
 1232000   0.75430408   -4.2221834    740.56222  0.050092141  0.050096837            6 
 1233000   0.75294074    -4.233054    742.14081  0.050158205  0.050068919            9 
 1234000   0.76162985    -4.215526    742.17762  0.050120044  0.050040884            5 
 1235000   0.78155687   -4.2101312     743.6963  0.050181937  0.050012936            3 
 1236000   0.74136329    -4.205134    742.67018  0.050072153  0.049985239           10 
 1237000   0.75711291   -4.2107632    744.52873   0.05015688  0.049957678            4 
 1238000   0.77554568   -4.2413813    741.61388  0.049920159  0.049929453            4 
 1239000    0.7602273   -4.1990993    743.76326  0.050024432  0.049901449            5 
 1240000   0.76295002   -4.2031001    743.44951  0.049963005  0.049873678            5 
 1241000   0.76161929   -4.2227307    741.06012  0.049762296  0.049845588            5 
 1242000   0.75354032   -4.2289422    742.25359  0.049802308  0.049817769            5 
 1243000    0.7678664   -4.2330424    744.08047  0.049884719  0.049789743            9 
 1244000   0.75475634   -4.2467011    742.34243  0.049728191   0.04976184            7 
 1245000    0.7446483   -4.2124535     745.6293  0.049908253  0.049733904            3 
 1246000   0.76837978   -4.2373018    743.47994  0.049724448  0.049706582            4 
 1247000   0.75842936   -4.2167993    744.03164  0.049721441  0.049678548            5 
 1248000   0.76331822   -4.1927824    746.80087  0.049866511  0.049650787            3 
 1249000    0.7629161   -4.2163187    745.47398  0.049738056  0.049623213            9 
 1250000   0.75859485   -4.2474573    744.76312  0.049650874  0.049595485            6 
 1251000   0.75709362   -4.2332602     745.3711  0.049651685  0.049567869            3 
 1252000   0.76085932   -4.2283611    746.78657  0.049706241  0.049540436            6 
 1253000   0.74932154   -4.2385171    746.34608  0.049637276  0.049512728            6 
 1254000   0.75938774   -4.2343399    746.42782  0.049603125  0.049485435            5 
 1255000   0.74411456   -4.2210361    747.05035  0.049604937  0.049457955            3 
 1256000   0.75292899   -4.2362558    748.80511  0.049681868  0.049430242            5 
 1257000   0.72998462   -4.2374748    745.42508  0.049418263  0.049402985            4 
 1258000   0.75289027   -4.2606842     748.8231  0.049604074  0.049375495            3 
 1259000   0.75381854   -4.2468369    750.25887  0.049659708  0.049348096            4 
 1260000   0.74175277   -4.2478864    744.97317  0.049270712  0.049320487           10 
 1261000   0.73801036   -4.2545757    748.41282  0.049458949  0.049293054            7 
 1262000   0.74498672   -4.2199425    749.32052  0.049479696  0.049265639            7 
 1263000   0.76508261   -4.2339901    749.28794   0.04943837  0.049238206            8 
 1264000   0.75838594   -4.2375116    745.99227   0.04918198  0.049210939            2 
 1265000   0.72666727   -4.2299543    750.85744  0.049463599  0.049183336            7 
 1266000   0.75471947   -4.2241074    750.55085  0.049404348  0.049155957            5 
 1267000   0.74360957   -4.2587021    749.95571  0.049326211  0.049128378            4 
 1268000   0.74768742   -4.2300998    749.20252   0.04923781  0.049100495            8 
 1269000    0.7625291   -4.2349898    747.95366  0.049116999  0.049072676            4 
 1270000   0.73968275   -4.2501764    747.74653  0.049064733  0.049044623            6 
 1271000   0.74941339   -4.2573049    746.16889  0.048922691  0.049016627            6 
 1272000   0.75700599   -4.2437042    750.73759  0.049183542  0.048988672            6 
 1273000    0.7540352   -4.2317094    750.96411  0.049159735  0.048960984            8 
 1274000   0.73839676   -4.2166549    752.28473  0.049207531   0.04893359            5 
 1275000   0.75125541   -4.2505233    748.37504  0.048913401  0.048906043            3 
 1276000   0.73419257    -4.255125    750.09677  0.048987511  0.048878401            7 
 1277000   0.74619049   -4.2467224    749.98974  0.048942165  0.048850773            6 
 1278000   0.74323353   -4.2418848    750.21789  0.048918746  0.048823311           11 
 1279000   0.74206063   -4.2660874    751.31132  0.048951741  0.048795778            5 
 1280000    0.7320395   -4.2461674    752.12779  0.048966653  0.048768505            4 
 1281000   0.73344957   -4.2503482    752.55979  0.048956531  0.048741464            4 
 1282000    0.7490956   -4.2475186    751.94516   0.04887839  0.048714103            7 
 1283000   0.74065652   -4.2424086    753.17506  0.048920178   0.04868697            4 
 1284000   0.73415721   -4.2607668    754.62065  0.048975899  0.048659765            9 
 1285000   0.74559442   -4.2564374    751.79734  0.048754692  0.048632513            7 
 1286000   0.72985008    -4.243126     752.0924  0.048735899  0.048605032            6 
 1287000   0.74835981   -4.2449818    753.14194   0.04876599   0.04857774            6 
 1288000   0.75375891   -4.2409066    754.23787  0.048799034   0.04855068            7 
 1289000   0.72394618   -4.2635561    753.97659  0.048744285  0.048523425            6 
 1290000   0.73887838    -4.279241    754.51241  0.048741111  0.048496061            8 
 1291000    0.7344397   -4.2646761    754.05722  0.048673975  0.048469024            3 
 1292000   0.73899039   -4.2724695    753.37847  0.048592523  0.048442115            5 
 1293000   0.73491013   -4.2592506     752.2619  0.048482979  0.048414663            4 
 1294000   0.73267272   -4.2697585    754.86613  0.048613223  0.048387573            5 
 1295000   0.73786332   -4.2704647    754.58366  0.048557507  0.048360392            8 
 1296000   0.75203932   -4.2493007     754.1086  0.048489494  0.048333023            3 
 1297000   0.73760473   -4.2625352    754.40924  0.048471424  0.048305681            5 
 1298000    0.7338845   -4.2558099    755.58696  0.048509692  0.048278232           11 
 1299000   0.72790326   -4.2644423    757.80382  0.048614564  0.048250914            5 
 1300000   0.72796856   -4.2750017    755.32612  0.048418341  0.048223729            4 
 1301000   0.72603689   -4.2700116    755.88331  0.048416815  0.048196338            4 
 1302000    0.7326816   -4.2391275    757.71668  0.048496971  0.048169316            5 
 1303000   0.73825757   -4.2818616    756.95391  0.048410969   0.04814244            5 
 1304000   0.72913411   -4.2693601    755.57612  0.048285795   0.04811546            4 
 1305000   0.72411435   -4.2782755    758.30708  0.048423185  0.048088465            9 
 1306000   0.73035835   -4.2915801    757.28922   0.04832116  0.048061061            9 
 1307000   0.72234354   -4.2741253    756.37596   0.04822596  0.048033923            5 
 1308000   0.74284895   -4.2706147    758.00498  0.048292876   0.04800684            7 
 1309000   0.74263818   -4.2582043    757.48159  0.048222663  0.047979747            5 
 1310000   0.72665457   -4.3006269    756.26929  0.048108734  0.047952769            3 
 1311000   0.73067104   -4.3077609    757.47573  0.048148724  0.047925674            9 
 1312000   0.71150306   -4.2574884    759.49711  0.048240416  0.047898904            7 
 1313000   0.73915944   -4.2868697    759.61044  0.048210869  0.047872012            5 
 1314000   0.73688958   -4.2874633    757.04098  0.048011224  0.047845124            5 
 1315000   0.73111252   -4.2645638     756.5517  0.047943707  0.047818258           13 
 1316000   0.71736357    -4.295279    758.72116  0.048044653   0.04779106           10 
 1317000   0.72340874   -4.2824532    760.79558  0.048139432  0.047764269            8 
 1318000   0.71402027   -4.2703223    759.54254  0.048023681  0.047737591            7 
 1319000   0.72911538   -4.2718125    763.26241   0.04822229  0.047711004            8 
 1320000   0.72875176   -4.2616558    760.07347  0.047984436  0.047684499            5 
 1321000   0.71025447   -4.2863865    761.03519  0.048008781  0.047657869            4 
 1322000   0.72797144   -4.2899554    762.52783  0.048066555  0.047631133            3 
 1323000   0.72350454    -4.249809    763.02668  0.048061645  0.047604543            4 
 1324000    0.7306547   -4.2647962    764.04112  0.048089194  0.047578247            4 
 1325000   0.72219188   -4.2660115    764.60084  0.048088103  0.047551828            8 
 1326000   0.71765748   -4.2850888    762.24463   0.04790376  0.047525351            4 
 1327000   0.71244464   -4.2992783    762.33484  0.047873326  0.047499038            7 
 1328000   0.73778878   -4.3010548    762.68732  0.047859395   0.04747235           14 
 1329000   0.72452755    -4.306005    761.31294  0.047737205  0.047445839            3 
 1330000   0.72174506   -4.2887128    763.14164  0.047815892  0.047419153            6 
 1331000   0.70230482   -4.2903521    762.18579  0.047720122  0.047392717            6 
 1332000   0.72749224    -4.274701     762.0138  0.047673536  0.047366298            9 
 1333000   0.71785784   -4.2969078    763.53653  0.047732966  0.047339568            4 
 1334000   0.71769495   -4.3034442    763.80933  0.047714226   0.04731296            8 
 1335000   0.73018009   -4.2945441    762.92916  0.047623543  0.047286151            6 
 1336000   0.72727279   -4.2749468    764.62306  0.047693554  0.047259306            4 
 1337000   0.73878195   -4.2941836    763.33569  0.047577642  0.047232729            6 
 1338000   0.74383847    -4.282273    763.59957  0.047558518  0.047206043            3 
 1339000   0.73215344   -4.2911716     766.3938  0.047696901  0.047179645            7 
 1340000   0.70433257   -4.2911406    763.00425  0.047450513  0.047153018            8 
 1341000   0.71152077   -4.2928926    762.38836  0.047376855  0.047126489            7 
 1342000   0.72354948   -4.2832501     762.7351  0.047363084  0.047099817           13 
 1343000   0.72034287   -4.2930482    764.98446   0.04746739  0.047073269            7 
 1344000   0.71363152   -4.3021201    764.56569  0.047406107  0.047046426            5 
 1345000   0.72002134   -4.3111284    763.29401   0.04729207  0.047019679            7 
 1346000   0.72783371   -4.2897065    764.22557   0.04731461  0.046993025            7 
 1347000   0.72707889    -4.309488    764.22521  0.047279461  0.046966262           11 
 1348000   0.72272925   -4.3080799    762.06145  0.047110624  0.046939483            7 
 1349000    0.7258601    -4.302623     764.0793  0.047200352  0.046912513            7 
 1350000   0.69539296   -4.3274566    765.05445  0.047225583  0.046885651            5 
 1351000   0.70247601   -4.3118614    766.72225  0.047293502  0.046858921            4 
 1352000   0.71891769   -4.3079325    766.47954  0.047243561  0.046832554           13 
 1353000   0.71506195   -4.2917538    765.17372  0.047128216  0.046806025            5 
 1354000   0.70469707   -4.3199774    764.90759  0.047077031   0.04677932           13 
 1355000   0.70133452   -4.2951508    765.48026  0.047077507   0.04675234            4 
 1356000   0.71590644   -4.3196172    764.80149  0.047001075  0.046725531            7 
 1357000   0.70146978    -4.307688    766.06891  0.047044271  0.046698537            6 
 1358000   0.70535306   -4.2973113    767.04673  0.047069632  0.046671971            4 
 1359000   0.70600471   -4.3064089    763.55502  0.046820887  0.046645131            7 
 1360000   0.71215891    -4.312898    763.90486  0.046807896  0.046618225            5 
 1361000   0.71303007   -4.3211171    766.60986  0.046939129  0.046591406            4 
 1362000   0.71834927   -4.3206456    762.03789  0.046624932  0.046564201            5 
 1363000    0.6959155   -4.3367411    764.00905   0.04671124   0.04653702            5 
 1364000   0.69877108   -4.3143764    765.13373  0.046745707  0.046509967            6 
 1365000   0.70436071   -4.3079521    765.53955  0.046736236  0.046482947            4 
 1366000   0.69451777    -4.306796    766.05962   0.04673375  0.046455964            3 
 1367000   0.70443321   -4.3261328    766.31524  0.046715145  0.046428955            7 
 1368000     0.718629   -4.3214448    765.39639  0.046625024  0.046401825           11 
 1369000   0.71257201    -4.301757    767.44372   0.04671559  0.046374726            5 
 1370000   0.71299166   -4.3133171    766.11251  0.046600518  0.046347773            7 
 1371000   0.70526549   -4.2932057    766.59359  0.046595769  0.046320761            5 
 1372000   0.69692259   -4.2980968    767.86339  0.046638933  0.046293898           10 
 1373000   0.70818018   -4.3118014    767.43898  0.046579205  0.046266716            7 
 1374000   0.70410563   -4.3122706     767.3282  0.046538586  0.046239651            6 
 1375000   0.70124514   -4.3042708    768.42424  0.046571166  0.046212627            6 
 1376000   0.70816664   -4.3179331    766.57848  0.046425538  0.046185579            4 
 1377000   0.72152482   -4.3215073    768.04335  0.046480474  0.046158437            8 
 1378000   0.70528749   -4.3204075    767.53275  0.046415866  0.046131323            6 
 1379000   0.70701328   -4.3275267    766.39005  0.046313152  0.046104262            8 
 1380000   0.69660974   -4.3388714    769.01066  0.046437842  0.046077089            7 
 1381000   0.70266567   -4.3230195    767.56123  0.046316753  0.046049926            5 
 1382000   0.71032916   -4.3008783    766.98016  0.046248201   0.04602296            5 
 1383000   0.72217232   -4.3289309    767.69166  0.046257632  0.045996057            4 
 1384000    0.6926329   -4.3241257    767.48032  0.046211484  0.045968877            5 
 1385000   0.70310332   -4.3069127    769.55829  0.046303146  0.045941845            6 
 1386000   0.69761416   -4.3342579    767.40655  0.046140365  0.045914762            9 
 1387000   0.71732016    -4.326209    766.01255  0.046023344  0.045887556            8 
 1388000   0.70252995   -4.3340974    768.21563  0.046122456  0.045860096           10 
 1389000   0.69927302   -4.3359255    767.43405  0.046042359  0.045832928            4 
 1390000   0.69934536   -4.3268034    767.63034  0.046021003  0.045805773           11 
 1391000   0.69687226   -4.3341716    765.96316   0.04588804   0.04577843            6 
 1392000   0.69615674   -4.3310411    767.33406  0.045937144  0.045751109            8 
 1393000   0.70664506   -4.3427686    767.01965  0.045885358  0.045723642           10 
 1394000   0.69468662   -4.3402338    768.01882  0.045912173  0.045696284            8 
 1395000   0.70173739    -4.332465    769.00215  0.045938002  0.045668876           10 
 1396000   0.69438768   -4.3388753    767.91557  0.045840232  0.045641522            7 
 1397000   0.70143916   -4.3337878    768.35776  0.045833796  0.045614101            5 
 1398000   0.69194477   -4.3421578    766.76286   0.04570594  0.045586843            7 
 1399000   0.70017828   -4.3485994    768.36447  0.045768672   0.04555975            6 
 1400000    0.7070569   -4.3523811    767.92715  0.045709949  0.045532439            4 
 1401000   0.70812038   -4.3456144    767.83605  0.045671904  0.045505107            6 
 1402000   0.69005325   -4.3292552    769.02514  0.045710006  0.045477943            6 
 1403000   0.69754196   -4.3369851    767.89272  0.045610164  0.045450782            7 
 1404000   0.68300417   -4.3396908    769.73556  0.045687058  0.045423685            5 
 1405000   0.71320079    -4.351473     769.4548  0.045637889  0.045396687            5 
 1406000   0.67950366   -4.3509978    769.48294  0.045607097  0.045369633            5 
 1407000   0.69657496     -4.35102    769.36987  0.045567986  0.045342627            5 
 1408000   0.69903755   -4.3281946    771.50101  0.045661755  0.045315641            5 
 1409000     0.682322   -4.3353551    772.34046  0.045678996  0.045288729            9 
 1410000   0.69507725   -4.3481044    770.37162  0.045530237  0.045261847            8 
 1411000   0.70488112   -4.3298605    768.25377   0.04537289  0.045234801            5 
 1412000   0.68302892   -4.3523593    770.78211  0.045489973  0.045207644            7 
 1413000   0.68914892   -4.3341311    770.42346  0.045436628  0.045180753           10 
 1414000   0.69442903    -4.339242    772.88971  0.045549841  0.045153874            5 
 1415000   0.69560506   -4.3438932     770.4828  0.045375901  0.045126924           11 
 1416000   0.70007901   -4.3596847    766.53816  0.045111709  0.045099953            6 
 1417000   0.67598091   -4.3552195    769.85387  0.045274869  0.045072879            5 
 1418000   0.69420893   -4.3432756    771.52346  0.045341059  0.045045818            5 
 1419000   0.68535981   -4.3417697    768.30096  0.045119859  0.045018575            5 
 1420000   0.68981147   -4.3380907    771.15428  0.045255533  0.044991726            8 
 1421000   0.68393742    -4.343793    771.32444  0.045233664   0.04496482           10 
 1422000   0.68649838   -4.3321212     770.6121  0.045160109  0.044937857            5 
 1423000   0.68009272    -4.348094    771.94628  0.045206505  0.044910895           11 
 1424000   0.66999742   -4.3679941    771.10837  0.045125724  0.044883899           14 
 1425000   0.67650358   -4.3568535    771.16349   0.04509728  0.044856838            5 
 1426000   0.68832589   -4.3301789    773.98177  0.045230351  0.044830114            5 
 1427000   0.67362292    -4.330387    773.49612  0.045170294  0.044803469            8 
 1428000   0.66991194   -4.3501183    771.84439  0.045042273   0.04477684           10 
 1429000   0.67441174    -4.370473    774.50169  0.045165716  0.044749995            7 
 1430000   0.69791146   -4.3790826    773.77897  0.045092014  0.044723027            6 
 1431000   0.67847025   -4.3496744    774.80143  0.045120046  0.044696413            9 
 1432000   0.67966559   -4.3639983    772.93528   0.04497994  0.044669666            7 
 1433000   0.69165288   -4.3458233    772.35493  0.044914802   0.04464306           13 
 1434000   0.68672866   -4.3700893    774.85716  0.045028891  0.044616345            6 
 1435000   0.68879648   -4.3681674    773.35035  0.044910009  0.044589767            5 
 1436000   0.66651554   -4.3647094    774.66047  0.044954762  0.044563365            9 
 1437000   0.67852971    -4.370588     773.0233  0.044828537  0.044536927            5 
 1438000   0.68866021   -4.3622886    776.06718  0.044973759  0.044510355            7 
 1439000   0.70572648    -4.395862    773.48265  0.044792834   0.04448383            6 
 1440000   0.70078693   -4.3662881    774.76086  0.044835698  0.044457363            5 
 1441000   0.67467287   -4.3628296    774.19435  0.044771822  0.044430943           10 
 1442000   0.67938769   -4.3553239    775.91153   0.04484001  0.044404491            7 
 1443000    0.6735084    -4.363385    775.59372  0.044790582  0.044378025           10 
 1444000   0.67857038   -4.3490788    775.35651  0.044745874  0.044351632            3 
 1445000   0.68287417   -4.3824093    775.83161  0.044742307  0.044325119           10 
 1446000   0.68832469   -4.3683221    777.28637  0.044795203  0.044298619           12 
 1447000   0.67944492   -4.3895299    775.62037    0.0446683  0.044272173           11 
 1448000   0.65872431   -4.3701423    774.96788  0.044599901  0.044245652           14 
 1449000   0.68682623   -4.3493728    778.47268  0.044770685  0.044219159            5 
 1450000   0.66169477   -4.3639939    777.29981  0.044672403  0.044192905            8 
 1451000   0.64869426   -4.3804689    776.44377  0.044592452  0.044166378           10 
 1452000   0.69088246   -4.3753931    777.23212  0.044606986  0.044139947            8 
 1453000   0.67652565   -4.3908393    776.79589  0.044551267  0.044113319           11 
 1454000   0.68434348   -4.3920872    777.08087  0.044536959  0.044086923            7 
 1455000   0.67714508   -4.3761074    776.65178  0.044481775  0.044060585            7 
 1456000   0.67157566   -4.4081665    776.10526  0.044419944  0.044034116            8 
 1457000   0.67597672   -4.3807069    777.69434  0.044480344  0.044007732            5 
 1458000   0.67827233   -4.3971252    775.40222  0.044318828  0.043981071            6 
 1459000   0.66994102   -4.3898195    777.30315  0.044397027  0.043954546            5 
 1460000   0.66786031   -4.3981695    777.41215   0.04437284  0.043928118            5 
 1461000   0.67918597   -4.3950829    775.62456  0.044240506  0.043901414            6 
 1462000   0.65326239   -4.3789204    775.29486  0.044191453  0.043874717           11 
 1463000   0.67010893   -4.3820856    777.73733  0.044300372  0.043848161            4 
 1464000   0.67083869   -4.3986988    773.66488  0.044038301  0.043821471            8 
 1465000   0.66810797   -4.3914933    779.14251  0.044319824  0.043794847            8 
 1466000   0.67976608   -4.4057158    776.05354  0.044114003  0.043768224            8 
 1467000   0.66730029   -4.4058956    775.57085  0.044056513  0.043741798           12 
 1468000   0.65505453   -4.4022169    778.11028  0.044170656  0.043715372            6 
 1469000   0.66615927   -4.3767968    779.06442  0.044194714  0.043689032            5 
 1470000   0.65729456   -4.4103646     774.8437   0.04392538  0.043662628           13 
 1471000   0.66339245   -4.4014628    778.16338  0.044083581  0.043636377           11 
 1472000   0.67021793   -4.3980508    778.88047   0.04409423  0.043610157            7 
 1473000   0.66216128   -4.3994842    777.78065  0.044002074  0.043583849            8 
 1474000   0.66664722   -4.4139934     775.7772  0.043858955  0.043557488            4 
 1475000   0.67239386   -4.4064843    778.72594  0.043995816  0.043531247           10 
 1476000   0.67185666   -4.3957503    778.59476  0.043958602  0.043505114            6 
 1477000   0.67565533   -4.3922396    779.64292  0.043987978  0.043478965            8 
 1478000   0.64944664   -4.4140255    780.69501  0.044017536  0.043452784            9 
 1479000   0.66313357   -4.3980102    778.57323  0.043868224  0.043426533            6 
 1480000   0.68187008   -4.4249235    779.18231  0.043872878  0.043400431           13 
 1481000   0.66637584   -4.4145417    778.20162  0.043788072  0.043374272           11 
 1482000   0.67481965   -4.4116794    779.36915  0.043824176  0.043348133            5 
 1483000   0.65479224   -4.4171341    779.07812  0.043778271  0.043322051            4 
 1484000   0.65600049    -4.399495    780.25209  0.043814695  0.043296009           14 
 1485000   0.65333499   -4.3881818    782.25244  0.043897443  0.043270237            6 
 1486000   0.67221936    -4.427874    781.18766  0.043808191  0.043244252           12 
 1487000   0.65335372   -4.4114988    778.20392  0.043611517  0.043218187            9 
 1488000   0.66656886   -4.3980709    780.93131  0.043734953   0.04319199            6 
 1489000   0.66908175   -4.4105054    781.64414  0.043745474  0.043165875            6 
 1490000   0.66393925   -4.4379611    776.93555  0.043452771  0.043139736           14 
 1491000   0.66076915   -4.4071196    777.36864  0.043447834  0.043113462            7 
 1492000   0.65025243   -4.4133551    779.17041  0.043519348  0.043087203            7 
 1493000   0.65980255   -4.4087998    778.43662  0.043449242  0.043061045            8 
 1494000    0.6660114   -4.4107134    780.24824  0.043521209  0.043034799           14 
 1495000    0.6509673   -4.4200546    780.20023  0.043489422  0.043008616           20 
 1496000   0.64963168   -4.4125254    779.54974  0.043424116  0.042982706           10 
 1497000   0.65216122   -4.4276206    780.35116  0.043439721  0.042956718           12 
 1498000   0.66568823    -4.378946    781.56189  0.043478076  0.042930989           10 
 1499000   0.64245552   -4.4081008    785.09136  0.043645284  0.042905238           10 
 1500000   0.65655853   -4.4441449    779.32874  0.043296041  0.042879348           10 
 1501000   0.65865615   -4.4353559    782.30829  0.043432617   0.04285342            8 
 1502000   0.65426046   -4.4187645    779.43168  0.043244101  0.042827458           11 
 1503000   0.64473877   -4.4266838    780.20544   0.04325823  0.042801584           13 
 1504000   0.66391462   -4.4267876    783.32567  0.043402353  0.042775803            8 
 1505000   0.64451773   -4.4116474    780.52634  0.043218513  0.042750072            7 
 1506000   0.67103758   -4.4407306    782.57577  0.043303219  0.042724322            8 
 1507000   0.66425079   -4.4193177    782.54865  0.043272984  0.042698575            7 
 1508000   0.65295245   -4.4227527    783.23302  0.043282108  0.042672888           16 
 1509000   0.64309389   -4.4498602    782.51244  0.043213631  0.042647331            8 
 1510000   0.64285803   -4.4254586    782.74219  0.043197693   0.04262176            6 
 1511000    0.6576558   -4.4364431     782.3913  0.043149752  0.042596282           10 
 1512000   0.65248516   -4.4003186    784.42642  0.043233378  0.042571001            8 
 1513000   0.64656803   -4.4036109    782.88148  0.043119711  0.042545575           10 
 1514000   0.65430701   -4.4372361     785.1589  0.043216584  0.042520129           12 
 1515000   0.64404715   -4.4228767    785.00908  0.043179818  0.042494657            8 
 1516000     0.644542   -4.4535538    784.42651  0.043119311  0.042469208            6 
 1517000   0.64106497   -4.4222797     783.0873   0.04301732  0.042443785            7 
 1518000   0.62982246   -4.4578135    783.75808  0.043025806  0.042418305            7 
 1519000   0.64861277   -4.4299653    785.01568  0.043066474  0.042392845            8 
 1520000   0.66546997   -4.4396229    781.16493  0.042827025   0.04236739           13 
 1521000   0.62761182   -4.4234231     784.4606  0.042979432  0.042342065            4 
 1522000   0.64728199   -4.4221545    785.23453  0.042993568  0.042316806            9 
 1523000   0.64928477   -4.4154925    786.52641  0.043036026  0.042291455            6 
 1524000   0.66020439   -4.4199486    787.04281  0.043036024  0.042266194            8 
 1525000   0.64316776    -4.448065    785.33197  0.042914315   0.04224096            7 
 1526000   0.64898144    -4.435372     784.3287  0.042831406  0.042215531           12 
 1527000   0.64586643   -4.4592219    785.73126  0.042879898  0.042190147            5 
 1528000    0.6373024   -4.4419734    787.13933  0.042928628  0.042164731            9 
 1529000   0.64203893   -4.4490904    785.36445  0.042803818  0.042139455            5 
 1530000   0.65583754   -4.4396249    784.02759  0.042703028  0.042114089           11 
 1531000   0.64803698   -4.4364026    786.48929  0.042809128  0.042088918           14 
 1532000   0.65248337   -4.4483131    787.75209  0.042849874  0.042063637            9 
 1533000   0.64296703   -4.4340129    786.33118  0.042744682   0.04203844           15 
 1534000   0.64615994   -4.4731226    786.55022  0.042728717  0.042013388           16 
 1535000    0.6542115   -4.4304593      787.661  0.042761184  0.041988384            5 
 1536000   0.63225719   -4.4542883    785.18247  0.042598875  0.041963432            8 
 1537000   0.63493387   -4.4273761     790.4846  0.042858631  0.041938468           14 
 1538000   0.62889014   -4.4490193    788.58389  0.042727779  0.041913521           16 
 1539000   0.63861535    -4.446595    790.55156   0.04280656  0.041888768            8 
 1540000   0.64057286   -4.4489143    786.91353  0.042581901  0.041863935            8 
 1541000   0.64370421   -4.4353785    789.72243  0.042706166  0.041839188            4 
 1542000   0.63655119   -4.4510807    788.20762  0.042596607  0.041814289           13 
 1543000   0.62359144   -4.4233161    789.27732  0.042626773  0.041789464            8 
 1544000    0.6207155   -4.4604225    789.10651  0.042589945  0.041764775            8 
 1545000   0.63513755   -4.4481703     787.3749  0.042468981  0.041740094            8 
 1546000   0.62448507   -4.4522713    790.97726  0.042635687   0.04171552            9 
 1547000    0.6360291   -4.4519334    789.17023  0.042510786  0.041691031            8 
 1548000   0.63198907   -4.4604184    791.18434   0.04259175  0.041666556            8 
 1549000   0.64499058   -4.4476257    791.79228  0.042596959  0.041642098            7 
 1550000    0.6334271   -4.4676137    788.67684  0.042401981  0.041617617           22 
 1551000   0.62865643   -4.4570349    791.78147   0.04254145  0.041593245           15 
 1552000    0.6277181   -4.4750477    788.94092  0.042361519  0.041568594            4 
 1553000   0.62633144   -4.4716414    788.81754  0.042327621  0.041543949            3 
 1554000   0.64878323    -4.488368    790.62492  0.042397303  0.041519375           14 
 1555000   0.64555145   -4.4746487    789.88845  0.042330571  0.041494852            4 
 1556000   0.63909119   -4.4690768    791.37686  0.042383079  0.041470302            5 
 1557000   0.63398586   -4.4451065    790.81394   0.04232573  0.041445852            6 
 1558000    0.6284231   -4.4611038    789.99315  0.042254662  0.041421576            6 
 1559000   0.62877967   -4.4754032    789.16534  0.042183309  0.041397024            6 
 1560000   0.64013275   -4.4388858    792.76625  0.042348624   0.04137251            6 
 1561000    0.6325397   -4.4611195    789.96952  0.042172193  0.041348131           13 
 1562000   0.62661985   -4.4644385    792.12526  0.042260204  0.041323745            5 
 1563000   0.63204521   -4.4619401    791.56097   0.04220308  0.041299372            7 
 1564000   0.63093315   -4.4538617    791.51304  0.042173542   0.04127497            8 
 1565000   0.63179821   -4.4713521    792.78578  0.042214365  0.041250724            7 
 1566000   0.62858994   -4.4737942    790.02258  0.042040367  0.041226424            9 
 1567000   0.63088053   -4.4946347    790.99822  0.042065423  0.041202081           10 
 1568000   0.61250475   -4.4688149    792.44568  0.042115523  0.041177744            9 
 1569000   0.61237412   -4.4789473    795.03182  0.042226036  0.041153556            8 
 1570000   0.61933879   -4.4748006     793.4644  0.042115945  0.041129456            6 
 1571000   0.63359245   -4.4867891    792.23788  0.042024076   0.04110524           13 
 1572000   0.62243227   -4.4889802    791.96713   0.04198299  0.041081142           10 
 1573000   0.62020482   -4.4971429     790.9907  0.041904572   0.04105708            7 
 1574000   0.61476629   -4.4853971    794.36655  0.042056679  0.041032847           19 
 1575000   0.62541315   -4.4598084    792.35796  0.041923702  0.041008753            7 
 1576000   0.63901775   -4.4694165    795.07847  0.042040951  0.040984888            7 
 1577000   0.63517025   -4.4701423     794.5252  0.041985056  0.040960857            5 
 1578000    0.6322257    -4.472237    791.39826  0.041793317  0.040936775            5 
 1579000   0.63265568   -4.4891901    792.61071  0.041830838  0.040912748           12 
 1580000   0.62202105   -4.4656679    796.40667  0.042004571  0.040888872            9 
 1581000   0.61052569    -4.487172    793.18559  0.041808222  0.040865043            8 
 1582000   0.62423213   -4.4714468     793.6087  0.041804083  0.040841076           12 
 1583000   0.62454106   -4.4840761     793.7873  0.041787076  0.040817166           10 
 1584000   0.61899736   -4.4874072     791.2647  0.041627983  0.040792946           10 
 1585000   0.63137533   -4.5029896    793.19307  0.041703106  0.040768864           11 
 1586000    0.6248169   -4.4842763    794.82429   0.04176252  0.040744827           10 
 1587000   0.60942038   -4.4812935    794.70221  0.041729795  0.040720939            7 
 1588000   0.61999617   -4.4718734     794.9577  0.041716924  0.040696947            5 
 1589000    0.6218939   -4.5090967    794.81722  0.041683303  0.040672985            9 
 1590000   0.60842039   -4.4680362    795.02216  0.041667828  0.040648992           15 
 1591000   0.60420026   -4.5000877     795.4137  0.041662146  0.040625071            9 
 1592000   0.62906235   -4.4960191    795.91656  0.041662299  0.040601117            9 
 1593000   0.61676152   -4.4927488     795.4471  0.041611587  0.040577229            6 
 1594000    0.6174286   -4.5085771    792.64463  0.041438971  0.040553139           10 
 1595000    0.6148147   -4.5069998    793.45557  0.041455359  0.040529115            9 
 1596000   0.62750653   -4.4775371    793.10262  0.041410956  0.040504952           11 
 1597000   0.61206782   -4.4920633    794.89711  0.041478664   0.04048091           10 
 1598000   0.62365814    -4.488803     793.2859  0.041368685  0.040456873            4 
 1599000   0.62126588   -4.4822688    794.65983  0.041414417  0.040433043           12 
 1600000   0.61907407   -4.4825144     793.6899  0.041338015  0.040409056            6 
 1601000   0.61137537    -4.494443    796.66034  0.041466809  0.040385123           12 
 1602000   0.61973108   -4.5038958    792.87085  0.041243802  0.040361111           10 
 1603000    0.6102013    -4.507079      794.232  0.041288833  0.040337095            8 
 1604000   0.61704498    -4.494354    794.95562  0.041300687  0.040313113           13 
 1605000    0.6153336   -4.5078433    792.45805  0.041145278  0.040289127           19 
 1606000   0.60866963   -4.5387766    792.58091  0.041126033  0.040265011           14 
 1607000   0.61867806   -4.4905373    796.87984  0.041323369  0.040240936            9 
 1608000   0.59337168   -4.5208555    795.46974  0.041224593  0.040216842           23 
 1609000   0.61806935   -4.5052662    797.44885  0.041301473  0.040192689           11 
 1610000   0.59400729   -4.5090262    795.03854  0.041151063  0.040168623            9 
 1611000   0.61866147   -4.5071571    795.40646  0.041144551  0.040144699            9 
 1612000   0.59982814   -4.4845734    795.03743   0.04109995  0.040120737            5 
 1613000    0.6103635   -4.5265469    793.85069  0.041013158  0.040096762           16 
 1614000   0.61020189   -4.4903026    796.25859  0.041112071  0.040072842           12 
 1615000   0.61760912   -4.4930524    797.02161  0.041125986  0.040049006            6 
 1616000   0.61314376   -4.5224604    794.92529  0.040992434  0.040025205            9 
 1617000   0.61272773   -4.5184467    796.24489   0.04103509  0.040001443            6 
 1618000   0.60948765   -4.5384907    796.55457  0.041025678  0.039977654            6 
 1619000   0.62429458   -4.5030549    795.03451  0.040922097  0.039953929           13 
 1620000   0.60438718   -4.5048034    797.21596  0.041009051  0.039930178           18 
 1621000   0.60868029    -4.528081    796.26828  0.040935034  0.039906523           18 
 1622000   0.60678759    -4.517339    796.28552  0.040910682  0.039882847           14 
 1623000   0.60573799   -4.5106978    798.88548  0.041018971  0.039859222           30 
 1624000   0.60693106   -4.5297992     797.4931  0.040922265   0.03983566           10 
 1625000   0.60904106   -4.5120508    798.13776  0.040930142  0.039812061           12 
 1626000   0.60413873   -4.5312702    796.55753  0.040823982   0.03978853            6 
 1627000   0.61337455   -4.5269583    797.85565  0.040865379  0.039765048            8 
 1628000   0.60135868   -4.4972778    797.70726  0.040832681  0.039741614           12 
 1629000   0.61012902   -4.5285998    797.46176  0.040795056  0.039718107           11 
 1630000   0.60597661   -4.5347356    798.17807   0.04080665  0.039694547            6 
 1631000   0.59930678   -4.5078257    798.27205  0.040786432   0.03967104            5 
 1632000   0.60532083   -4.5261734    798.95886  0.040796511  0.039647581           13 
 1633000   0.59988203   -4.5020575    799.67865  0.040808259  0.039624178           13 
 1634000   0.59880914   -4.5376196    796.54549  0.040623495  0.039600806           12 
 1635000   0.61311142   -4.5323734    795.88274   0.04056487  0.039577291            9 
 1636000   0.60754829   -4.5175026    797.47371  0.040621114  0.039553913           33 
 1637000   0.59997508    -4.530422    799.14559  0.040681409  0.039530423           24 
 1638000   0.59648229   -4.5240163    800.84895  0.040743231  0.039506939            7 
 1639000    0.5919531   -4.5375051    798.50015   0.04059895  0.039483496           10 
 1640000   0.58932368   -4.5329555    798.44974  0.040571633  0.039460124           15 
 1641000   0.60195279    -4.545339    798.49077  0.040548993  0.039436735           14 
 1642000   0.58737881   -4.5553456    798.62546  0.040531134    0.0394133           21 
 1643000   0.60576515   -4.5550582    798.86933  0.040518834  0.039389888            5 
 1644000   0.59247734   -4.5215003    798.71526  0.040486378  0.039366567           17 
 1645000   0.59176562   -4.5390765    800.42466  0.040548362  0.039343309           10 
 1646000   0.59700519   -4.5271048    798.29305  0.040415809  0.039320079           11 
 1647000   0.59881659   -4.5404808    800.97382  0.040526908  0.039296745            9 
 1648000   0.60105647   -4.5237768    802.28465  0.040568601  0.039273439           19 
 1649000   0.59375061   -4.5409474    798.63768  0.040359697  0.039250175           13 
 1650000   0.60360515   -4.5539732    799.80397   0.04039414  0.039226895            6 
 1651000     0.596207   -4.5518113    797.19544  0.040238009  0.039203808            6 
 1652000   0.59140114   -4.5584009    800.10475  0.040360409  0.039180552           18 
 1653000   0.59406448   -4.5469123    798.94076  0.040277312  0.039157297           10 
 1654000   0.60567155   -4.5521778    799.00343  0.040256118  0.039134159           18 
 1655000   0.59039782   -4.5324183    800.91838  0.040328217  0.039111025           13 
 1656000   0.62253492   -4.5442252    798.93765  0.040204189  0.039087975            9 
 1657000   0.60029483   -4.5394293    799.22904  0.040194581  0.039064916            8 
 1658000    0.5824773   -4.5466708    800.78456   0.04024852  0.039041774            7 
 1659000   0.60077427   -4.5532863    799.43851  0.040156646  0.039018558           14 
 1660000   0.59599019   -4.5677465    799.90408  0.040155828  0.038995241           12 
 1661000   0.58837422   -4.5508075    800.62454  0.040167797  0.038972109            7 
 1662000   0.59181093   -4.5358625    800.90257   0.04015757  0.038948961           12 
 1663000   0.57836977   -4.5741335    799.81762  0.040079055  0.038925925           11 
 1664000   0.58439335   -4.5408718    800.41566  0.040084919   0.03890273           29 
 1665000   0.59583245    -4.550701    801.77819  0.040129038  0.038879743            6 
 1666000   0.59271995   -4.5304923    799.48576  0.039990284  0.038856891            9 
 1667000   0.58525111   -4.5586607    799.72327  0.039978168  0.038833814            9 
 1668000   0.57916748   -4.5648531    800.98561  0.040017267  0.038810796           19 
 1669000   0.59311054   -4.5516808    801.42957  0.040015457  0.038787751           14 
 1670000   0.58909248   -4.5586934    800.15159  0.039927724  0.038764656           22 
 1671000   0.58641139   -4.5281828    802.91391  0.040041587   0.03874165           16 
 1672000   0.57495064   -4.5560139    802.37279  0.039990669  0.038718702            5 
 1673000   0.58727683   -4.5449283    801.79712  0.039938091  0.038695667           22 
 1674000   0.57291524   -4.5615963    802.03387  0.039926019  0.038672666           38 
 1675000   0.58560416   -4.5716137    801.42093  0.039871688  0.038649528           14 
 1676000   0.59041427   -4.5617292    802.56585  0.039904825  0.038626604           19 
 1677000    0.5889529   -4.5599378     802.2539  0.039865529  0.038603561            8 
 1678000   0.59379478   -4.5554777    802.87071  0.039872403  0.038580542           14 
 1679000   0.58471704   -4.5654572    798.06744  0.039610256  0.038557516           21 
 1680000   0.57770087   -4.5708588    798.30341  0.039598384  0.038534389           23 
 1681000    0.5715306   -4.5641797    799.92457  0.039655194  0.038511336           10 
 1682000   0.57643871   -4.5551618    801.45389  0.039707387  0.038488426           12 
 1683000   0.57506645   -4.5505298    801.34063  0.039678185  0.038465389           10 
 1684000   0.59382437   -4.5720497    800.68535  0.039622197  0.038442324            9 
 1685000    0.5751289   -4.5677249    800.57172  0.039593062   0.03841915           10 
 1686000   0.57867726   -4.5700079    799.81527   0.03953219  0.038395846           12 
 1687000   0.57291697   -4.5454407    800.73272  0.039554076  0.038372651            9 
 1688000   0.57481337   -4.5836264    799.41754  0.039465716  0.038349395           12 
 1689000   0.58336597   -4.5901957    800.97596   0.03951924  0.038326189           14 
 1690000   0.56817964    -4.546005    799.77679  0.039436725  0.038303029           14 
 1691000   0.58534432   -4.5923218      798.617  0.039356249  0.038279864           12 
 1692000   0.59168019   -4.5666787    798.30551  0.039317647  0.038256706           14 
 1693000   0.57525106   -4.5395798    800.68959  0.039411774  0.038233743            8 
 1694000   0.58552252   -4.5821668      800.779  0.039392906  0.038210686           10 
 1695000   0.57357964   -4.5795868    800.99476  0.039380273  0.038187572           10 
 1696000   0.57577771   -4.5813818    799.17012    0.0392674  0.038164414           15 
 1697000   0.57441897     -4.55457    800.40328  0.039304816  0.038141221            8 
 1698000   0.58805575   -4.5726652    800.88915  0.039305514  0.038118047           16 
 1699000   0.56943836   -4.5900408    799.97853  0.039237715  0.038094897           21 
 1700000   0.56872694   -4.5833207    800.02792  0.039217055  0.038071757           14 
 1701000   0.56267088    -4.570471    798.19977  0.039104437  0.038048642           13 
 1702000   0.57845777   -4.5946583    798.99796  0.039120542  0.038025523           12 
 1703000   0.57344469   -4.5892999     798.7781  0.039086812  0.038002385           17 
 1704000   0.57424347   -4.5783553    798.99667  0.039074563  0.037979287           13 
 1705000   0.56742148   -4.5876476    799.61051  0.039081648  0.037955986           15 
 1706000   0.56936307   -4.5807843    797.78723  0.038969677  0.037932689            5 
 1707000   0.56245515   -4.5985528    798.61551  0.038987283  0.037909425           14 
 1708000   0.57245635   -4.6031351    798.51847  0.038959722  0.037886149           18 
 1709000   0.57233874   -4.5723684    799.43982  0.038981852  0.037863089           17 
 1710000   0.56710689    -4.592992    799.36548  0.038955433  0.037839979           26 
 1711000     0.573933   -4.5886364    798.80179  0.038905211  0.037816764           20 
 1712000   0.56627031   -4.5847227    799.85591  0.038933796    0.0377935           17 
 1713000   0.56346171   -4.5907435    796.76681   0.03876079   0.03777022           13 
 1714000   0.57699475   -4.6009482    799.60374  0.038876106  0.037746873           21 
 1715000   0.56512269   -4.5790633    800.67464  0.038905473  0.037723643            5 
 1716000   0.57382271   -4.5933689    799.98907  0.038849508  0.037700542           22 
 1717000   0.57114393   -4.5642384     800.6935  0.038861071   0.03767743           15 
 1718000   0.56645282   -4.5952983    799.30208  0.038770959  0.037654238            9 
 1719000   0.57271987   -4.5821254     799.9223  0.038778471  0.037631141            9 
 1720000   0.56101991   -4.5901409    799.17085  0.038719518  0.037607997           68 
 1721000   0.57120775   -4.6218346    799.83646   0.03872925  0.037584816           27 
 1722000   0.57651342   -4.6002802    799.12274  0.038672219  0.037561588           21 
 1723000   0.55378011   -4.6170299    798.26419   0.03860825  0.037538314            9 
 1724000   0.57516908     -4.59824    796.50645  0.038500892  0.037515096           22 
 1725000    0.5730646    -4.591917    799.96051  0.038645435  0.037491834           17 
 1726000   0.56590122    -4.599578    800.44093   0.03864624  0.037468619           13 
 1727000   0.56429957   -4.6066342    798.90907  0.038549945  0.037445458           19 
 1728000   0.55482813   -4.6029443    798.07064  0.038487203  0.037422235           24 
 1729000   0.56618739    -4.600403    798.57656  0.038489327  0.037398979           14 
 1730000   0.57077059   -4.5988216    798.26982  0.038452304   0.03737585           15 
 1731000   0.57465983   -4.5985496    801.28235  0.038575118  0.037352723           10 
 1732000   0.55172795   -4.5979014    798.69863  0.038428533  0.037329634            8 
 1733000   0.56577718   -4.6018944    799.95789  0.038466911  0.037306464           15 
 1734000   0.56745305   -4.5843052    799.01355  0.038399344  0.037283293           12 
 1735000   0.55863236   -4.6113428     796.7969  0.038270744  0.037260018           11 
 1736000   0.56239771   -4.6090085      798.205  0.038316292   0.03723674           18 
 1737000   0.55847489   -4.6088069     801.1932  0.038437594  0.037213572            9 
 1738000   0.57165011   -4.6006723    799.04663  0.038312554  0.037190465           38 
 1739000   0.56436839   -4.6133225    798.20968  0.038250416   0.03716724           17 
 1740000   0.57375708   -4.6139506    798.64614  0.038249336  0.037143979           12 
 1741000   0.57544459   -4.6159292    799.96737  0.038290607  0.037120787           13 
 1742000   0.54584921    -4.607537    797.96234  0.038172711  0.037097598            8 
 1743000   0.56174601   -4.6223071    799.08387  0.038204431  0.037074398            7 
 1744000   0.55114977   -4.6223216    799.31344  0.038193494  0.037051295           13 
 1745000   0.55501231   -4.5946969     796.5779   0.03804097   0.03702819           19 
 1746000   0.55981781   -4.6049244     800.3174  0.038197661  0.037005111           14 
 1747000   0.56018867   -4.6252101    799.66469  0.038144662  0.036982198           16 
 1748000   0.55361172   -4.6028467     799.3174  0.038106283  0.036959218           22 
 1749000   0.55188335   -4.6170694    799.13981  0.038076034  0.036936139           27 
 1750000   0.54715658   -4.6179383    799.29134  0.038061493  0.036913054           16 
 1751000   0.55302531   -4.6239526    799.12229   0.03803171  0.036889928           21 
 1752000   0.54557977    -4.632676    798.31304  0.037971511  0.036866794           17 
 1753000   0.55094926   -4.6268785    798.68627  0.037967592  0.036843675           30 
 1754000    0.5556531   -4.6366156    798.10403  0.037918283  0.036820474           10 
 1755000    0.5557019   -4.6060717    798.79558  0.037929515  0.036797416            8 
 1756000   0.55696028   -4.6236096    798.44674   0.03789136  0.036774379           29 
 1757000   0.55825598   -4.6292674    798.88063  0.037890373  0.036751343           15 
 1758000   0.55940791    -4.620744    798.41094  0.037846556  0.036728289           11 
 1759000   0.54399469   -4.6218148    798.41026  0.037825008  0.036705202           24 
 1760000   0.54127245   -4.6389396    798.72246  0.037818298  0.036682133           11 
 1761000   0.54926209    -4.595041    799.76863  0.037846329  0.036659156            6 
 1762000   0.54150253   -4.6028219    797.93031  0.037737907  0.036636125            9 
 1763000   0.55528515    -4.632111    799.20429   0.03777672  0.036613157           12 
 1764000   0.54238015   -4.6212874    797.75685  0.037686926  0.036590289           16 
 1765000   0.54043717   -4.6174595    798.64786  0.037707642  0.036567427           25 
 1766000   0.55674197   -4.6119299    799.50113  0.037726554   0.03654452           14 
 1767000   0.54333401   -4.6230308     799.3207  0.037696694  0.036521539           51 
 1768000   0.54685164   -4.6348863    799.34051  0.037676306  0.036498628           34 
 1769000   0.54068407   -4.6324492    798.71349  0.037625471  0.036475771           56 
 1770000   0.54379105   -4.6280156    798.08546  0.037574645  0.036452835           14 
 1771000   0.54324424   -4.6233444    799.84564  0.037636253  0.036430016           10 
 1772000   0.54975292     -4.62418    798.78186  0.037564986  0.036407204           16 
 1773000   0.54507026   -4.6167637    799.85842  0.037594398  0.036384328           10 
 1774000   0.56125519   -4.6292824    800.24258  0.037591252  0.036361511            9 
 1775000   0.53661613   -4.6287571    800.32964  0.037574162  0.036338715           18 
 1776000    0.5333452   -4.6296624    799.77153  0.037526817   0.03631585           12 
 1777000   0.54506447   -4.6240328    799.85828  0.037509767  0.036293044           24 
 1778000   0.53627804   -4.6458878    800.20129  0.037504747  0.036270198           33 
 1779000   0.55118526   -4.6381971    801.46368  0.037542799  0.036247412           23 
 1780000   0.54871159   -4.6386605    798.91281  0.037402285  0.036224674           13 
 1781000   0.53847795   -4.6438659     801.0599  0.037481747  0.036201849           10 
 1782000   0.54702437   -4.6308788    798.95429  0.037362247  0.036179114           17 
 1783000   0.55173428   -4.6481257    800.91578  0.037432968   0.03615646            6 
 1784000   0.54976793   -4.6400881    797.26287  0.037241352  0.036133738           11 
 1785000    0.5445138   -4.6543331    800.21661  0.037358385  0.036111071           22 
 1786000    0.5407977   -4.6551701    797.82463   0.03722586  0.036088254           25 
 1787000   0.53581571   -4.6544942    800.59146  0.037334054  0.036065506           23 
 1788000   0.53739532   -4.6376414    797.93557  0.037189391  0.036042756           28 
 1789000   0.53844504   -4.6499849    801.78835  0.037348069  0.036020167           12 
 1790000   0.52089369   -4.6494547    798.63074  0.037180202  0.035997539           15 
 1791000   0.53298626    -4.643145    798.97131  0.037175289  0.035974853           11 
 1792000   0.53282302   -4.6695077    801.05624  0.037251499  0.035952219            9 
 1793000   0.54571513   -4.6703424    799.67643  0.037166594  0.035929659           17 
 1794000   0.52592363   -4.6517913     798.6754  0.037099377  0.035907015           17 
 1795000   0.53811312   -4.6571189    801.97742  0.037232007  0.035884522           14 
 1796000   0.54407491   -4.6651896    799.98053  0.037118621  0.035862045           15 
 1797000   0.52667364   -4.6642654    801.21633  0.037155274  0.035839681           32 
 1798000    0.5280588    -4.659151    801.57058  0.037151028  0.035817329           23 
 1799000    0.5313362   -4.6635369    800.41339  0.037076774  0.035795046            8 
 1800000   0.54058085   -4.6661717    802.01174  0.037130173  0.035772679           21 
 1801000   0.55057047   -4.6476825    799.92739  0.037013112  0.035750385           19 
 1802000   0.53898709   -4.6849799    800.86474   0.03703592   0.03572798           15 
 1803000    0.5257349   -4.6707342    803.54312  0.037139172  0.035705554           44 
 1804000   0.53100206   -4.6531386    801.53266  0.037025714   0.03568329           24 
 1805000   0.54158011   -4.6499663    801.72889  0.037014261  0.035660976           11 
 1806000    0.5232734     -4.67658    801.27638  0.036972886  0.035638737           10 
 1807000    0.5353673   -4.6569056    802.12647  0.036991628  0.035616467           24 
 1808000    0.5348178   -4.6813248    801.34245  0.036935032   0.03559415           15 
 1809000    0.5325662   -4.6673725    801.60098  0.036926524  0.035571772           21 
 1810000   0.54040595   -4.6663581    800.79346  0.036868944  0.035549506           15 
 1811000   0.53486234   -4.6919962    799.30381  0.036780039  0.035527086           16 
 1812000   0.54020882   -4.6852648    801.97171  0.036882437  0.035504784           18 
 1813000   0.53787615   -4.6588935    803.20667  0.036918858   0.03548245           15 
 1814000   0.53647638   -4.6798208    799.49433  0.036727964  0.035460183           26 
 1815000   0.53012907   -4.6812339     798.2367  0.036649986  0.035437822           10 
 1816000   0.53855034   -4.6738986    803.32819  0.036863445  0.035415497            9 
 1817000   0.53220569   -4.6946117    801.28173    0.0367493  0.035393157           15 
 1818000   0.53787733   -4.6849962    798.99285  0.036624168  0.035370762           15 
 1819000   0.51995135   -4.6848034     799.5261  0.036628463  0.035348414           22 
 1820000   0.53722299   -4.6988751     801.3194  0.036690449  0.035326015           11 
 1821000   0.53123467   -4.6807721    799.90728  0.036605678  0.035303702           11 
 1822000   0.53991633    -4.661666    801.84143   0.03667405  0.035281387           11 
 1823000   0.52483331   -4.6888944    799.96575  0.036568191  0.035259028           14 
 1824000   0.52679552   -4.6882146    799.52523  0.036528017   0.03523678           14 
 1825000   0.53430007   -4.6892739    801.02018  0.036576264  0.035214468           19 
 1826000   0.53295219   -4.6906933    800.23385  0.036520347  0.035192181           15 
 1827000   0.53893066   -4.6874566    799.94446  0.036487158  0.035169882           19 
 1828000   0.52144368   -4.6761227    800.51443  0.036493181  0.035147563           19 
 1829000   0.53178618   -4.7042699    799.30639  0.036418188  0.035125116           17 
 1830000   0.53233768    -4.691774     799.1288    0.0363902   0.03510271           30 
 1831000   0.52504183   -4.6845795    799.44459  0.036384698  0.035080448           19 
 1832000   0.51450455   -4.6861161    800.18341  0.036398445   0.03505817           28 
 1833000   0.51508302   -4.6955873    799.31281  0.036339008   0.03503591           17 
 1834000   0.52518132   -4.6913272    798.86907  0.036299031  0.035013607           21 
 1835000   0.51244419   -4.6849222    801.40414  0.036394375  0.034991341           58 
 1836000   0.52064279   -4.6925954     800.4611  0.036331749  0.034969113           41 
 1837000   0.52093883    -4.655444    801.26929  0.036348634  0.034946993           46 
 1838000   0.52954681   -4.6913275    800.92575  0.036313282  0.034924912           19 
 1839000    0.5190271   -4.6875613    800.10747  0.036256456  0.034902854           20 
 1840000   0.52447574   -4.6937773     800.9641  0.036275548  0.034880818           11 
 1841000   0.51842703   -4.6896489    799.77427  0.036201986   0.03485878           16 
 1842000   0.50567946   -4.6862962    801.34228   0.03625327  0.034836751           13 
 1843000   0.50551427   -4.7048509    800.00286  0.036173036  0.034814681           13 
 1844000   0.51525926   -4.7043176    800.03218  0.036154744  0.034792621           21 
 1845000   0.51677109   -4.7067471    800.61779  0.036161598  0.034770443           21 
 1846000   0.51412069   -4.6991247    801.59139   0.03618596  0.034748285           12 
 1847000    0.5307019   -4.7105812    800.16236  0.036101893  0.034726164           11 
 1848000   0.52316936   -4.7142408    801.61271  0.036147759  0.034704081           20 
 1849000   0.52124272    -4.709482    799.77268   0.03604528  0.034682003           13 
 1850000   0.51301309   -4.7075585    800.23655  0.036046691  0.034659958           20 
 1851000   0.51452745   -4.7020866    800.25674  0.036028126  0.034637969           20 
 1852000   0.50546077   -4.6977339    802.01661  0.036087861  0.034616008            9 
 1853000   0.50472031   -4.7075521    800.93425  0.036019709  0.034594064           26 
 1854000   0.50713826   -4.6995996    801.52076  0.036026643  0.034572125           41 
 1855000   0.50227803   -4.6955624     801.6495  0.036013006  0.034550221           71 
 1856000   0.50851975   -4.6974571    800.07569  0.035922939  0.034528301           78 
 1857000   0.51194217    -4.714635    800.64166  0.035928992  0.034506392           28 
 1858000   0.50970615   -4.7166376    798.59969   0.03581807  0.034484464           51 
 1859000   0.50670375   -4.7107838    801.47081  0.035927506  0.034462525           53 
 1860000   0.51038097   -4.7084007    801.03157  0.035888511  0.034440596          107 
 1861000   0.50556008    -4.715437    800.31224  0.035837016  0.034418715          103 
 1862000   0.51710241   -4.7233315    799.53472  0.035782972  0.034396793           47 
 1863000   0.50789648   -4.7227954    799.84005  0.035777422  0.034374914           42 
 1864000   0.51270396   -4.6952216    801.59357  0.035836623  0.034353061           10 
 1865000    0.5081665   -4.7212277     800.3342  0.035761135  0.034331292           38 
 1866000   0.52041232   -4.7216793    801.00592  0.035771968  0.034309468           16 
 1867000   0.51265199   -4.7174155    800.35511   0.03572376  0.034287731           18 
 1868000    0.4988285   -4.7026559    800.78743  0.035723922  0.034265967           14 
 1869000   0.50242751   -4.7429164    799.62063  0.035652784  0.034244161           12 
 1870000   0.50673578    -4.725231    801.16963  0.035702747  0.034222378           19 
 1871000   0.51165751    -4.723063    800.39569  0.035649193  0.034200647           16 
 1872000   0.50991677   -4.7264867    802.04368  0.035703511  0.034178924           13 
 1873000   0.50328056   -4.7183703     802.6235  0.035710247  0.034157257           26 
 1874000   0.50608092   -4.7250032    802.50426  0.035685888  0.034135634           12 
 1875000   0.50763911   -4.7205499    799.71686  0.035542971  0.034113984           37 
 1876000   0.50350115   -4.7451249    799.65303   0.03552119  0.034092202           14 
 1877000   0.51017163   -4.7315397    800.26927  0.035529625  0.034070437           22 
 1878000   0.50701827   -4.7124727    800.81448  0.035534899  0.034048711           24 
 1879000   0.50104478   -4.7394241    799.69794  0.035466469  0.034027051           21 
 1880000   0.49594396   -4.7373282    800.65491  0.035490022  0.034005314           10 
 1881000    0.4961772   -4.7460791    800.32086  0.035456356  0.033983614           11 
 1882000   0.50326677    -4.752689    800.50137  0.035445509  0.033961893           25 
 1883000   0.51200575   -4.7242746    800.09505  0.035408703  0.033940211           20 
 1884000   0.50862753   -4.7287038    800.91958  0.035426379  0.033918501           28 
 1885000   0.49976974    -4.751702    799.98078  0.035366082  0.033896833            9 
 1886000   0.49731567   -4.7349113    802.42554  0.035455353  0.033875148           10 
 1887000   0.50554636   -4.7337462    800.48489  0.035350861  0.033853508           34 
 1888000   0.51010186   -4.7431774    801.63751  0.035383011  0.033831925           25 
 1889000    0.5020108   -4.7218968     800.2188  0.035301694  0.033810402           35 
 1890000   0.50523867   -4.7217237    799.64436  0.035257688  0.033788861           26 
 1891000   0.50099944   -4.7214505    801.84391  0.035335973  0.033767395           26 
 1892000   0.50119295   -4.7084595    798.59786  0.035174324  0.033745838           35 
 1893000   0.50099242   -4.7361622    800.47825  0.035238521  0.033724221           21 
 1894000   0.48941569   -4.7329105    799.82064  0.035190982    0.0337027           29 
 1895000   0.49166376   -4.7440329    799.12717  0.035141916  0.033681179           16 
 1896000   0.48463422   -4.7380793    800.93157  0.035202689  0.033659727           28 
 1897000   0.50065406   -4.7438809    800.59465  0.035169331  0.033638307           24 
 1898000   0.49187228   -4.7268829    800.30961  0.035138286  0.033616859           64 
 1899000   0.49815249   -4.7534994    800.36593  0.035122254  0.033595389           20 
 1900000   0.49836096   -4.7377552    799.83103  0.035080308  0.033573918           20 
 1901000   0.48876362   -4.7169038    800.14021  0.035075408   0.03355256           23 
 1902000   0.50014645   -4.7407822    799.21151  0.035016277  0.033531167           14 
 1903000   0.50037835   -4.7500808    799.83432   0.03502515  0.033509716           10 
 1904000   0.48490972   -4.7536178    799.15222    0.0349769  0.033488272           12 
 1905000    0.4895554   -4.7431552    800.71801  0.035027035  0.033466851           27 
 1906000   0.49225112   -4.7511658    800.36884  0.034993391  0.033445508           28 
 1907000   0.49022448   -4.7272706    799.72364  0.034946847  0.033424081           42 
 1908000   0.48788535    -4.729066    799.96914  0.034939253  0.033402713           33 
 1909000   0.49760894   -4.7544126    800.93167  0.034962968  0.033381311           29 
 1910000    0.4936063   -4.7577929    800.20847   0.03491311  0.033359947           32 
 1911000    0.4970235    -4.757227    799.52812  0.034865172  0.033338612           64 
 1912000   0.49756124   -4.7511426    800.91329  0.034907309  0.033317297           20 
 1913000    0.5009093   -4.7454676    799.82326  0.034841578   0.03329604           17 
 1914000   0.47786496   -4.7475963    801.21105  0.034883797  0.033274705           16 
 1915000   0.48552919   -4.7567808    800.00076  0.034812914  0.033253391           39 
 1916000   0.49247791   -4.7504445    800.14989   0.03480123  0.033232095           10 
 1917000   0.49135554   -4.7493295    800.70318  0.034807128  0.033210834           11 
 1918000   0.48157763   -4.7381809    800.78509  0.034792539   0.03318956           21 
 1919000   0.48238101   -4.7404563    800.74845  0.034772818  0.033168292           19 
 1920000    0.4892509   -4.7404593    798.95779  0.034676987  0.033146956           27 
 1921000   0.48595996   -4.7307902    799.48784   0.03468193  0.033125594           32 
 1922000   0.49134697   -4.7740747    800.09127  0.034690048  0.033104267           22 
 1923000   0.48788303   -4.7427227     799.2717  0.034636492   0.03308292           33 
 1924000   0.48003492   -4.7589778    798.68871  0.034593239  0.033061624           38 
 1925000   0.49708015    -4.750747    799.63011  0.034616022  0.033040295           14 
 1926000   0.48073194   -4.7546698    798.88311  0.034565728  0.033018988           18 
 1927000   0.47316443   -4.7613423    799.03264  0.034554257   0.03299763           32 
 1928000    0.4876795   -4.7722055    799.91038  0.034574273  0.032976391           47 
 1929000   0.48295206   -4.7578375    799.01235  0.034517554  0.032955075           27 
 1930000   0.47853969   -4.7704295     798.8946  0.034494586  0.032933784           31 
 1931000   0.48181834   -4.7645536    800.09368  0.034528469  0.032912492           27 
 1932000   0.48298357   -4.7640529    799.50386  0.034485156  0.032891254           25 
 1933000   0.47407518   -4.7666194    800.02556  0.034489807  0.032869987           24 
 1934000   0.46707103   -4.7777045     799.5793  0.034452745  0.032848774           16 
 1935000   0.47528591   -4.7786498    798.88434   0.03440501  0.032827523           16 
 1936000   0.47253673   -4.7659658    799.09577   0.03439634  0.032806316           43 
 1937000   0.48179877   -4.7853194    799.33098  0.034388702  0.032785157           51 
 1938000   0.48546918   -4.7665165    799.17214  0.034364127  0.032764033           37 
 1939000   0.47139154   -4.7869863    799.30997  0.034352328    0.0327429           35 
 1940000   0.48501918   -4.7775803    799.47461  0.034341693  0.032721771           41 
 1941000   0.47330534   -4.7679098    799.45005  0.034322946  0.032700653           34 
 1942000   0.47692961   -4.7722799    799.45287  0.034305392  0.032679563           49 
 1943000   0.47619537    -4.776767    800.52108  0.034333551  0.032658536           21 
 1944000   0.48224719   -4.7828762    798.41994   0.03422582  0.032637479           43 
 1945000   0.47394007   -4.7825689    799.59715  0.034258661  0.032616397           43 
 1946000    0.4738854     -4.77953    800.15202  0.034264817  0.032595351           12 
 1947000   0.47996375   -4.7637005     799.0092  0.034198305  0.032574314           18 
 1948000   0.46747405   -4.7736243    799.02003  0.034181213  0.032553323           10 
 1949000   0.47586183   -4.7741348    799.28501  0.034175005  0.032532347            9 
 1950000   0.47959507   -4.7920826    798.43779  0.034121273  0.032511387           27 
 1951000   0.47701802   -4.7715847    799.50338  0.034149299   0.03249036           18 
 1952000   0.48164774   -4.7852927    799.43015  0.034128678  0.032469347           19 
 1953000   0.46943512   -4.7978526    800.67814  0.034164454    0.0324484           24 
 1954000   0.46756992   -4.7813529    800.25722  0.034129018  0.032427414           25 
 1955000   0.47440007   -4.7809324     800.0406  0.034102328  0.032406462           39 
 1956000   0.46635196   -4.7829361    799.21302  0.034049635  0.032385478           41 
 1957000   0.47350789   -4.7798107    799.62689  0.034049859  0.032364545           48 
 1958000   0.46819589   -4.7851495    799.65648  0.034033728  0.032343668           32 
 1959000   0.46259776   -4.7808362    798.77416  0.033978823  0.032322767           11 
 1960000   0.47730509   -4.8074896    799.81468  0.034005726  0.032301803           20 
 1961000   0.47345428   -4.7883761    797.55595    0.0338924   0.03228089           28 
 1962000   0.46391676   -4.7751863    799.03348  0.033937881  0.032259937           10 
 1963000   0.46638943   -4.8041138    797.20013  0.033842763  0.032238972           15 
 1964000   0.46248085   -4.8023689    796.57737  0.033799108  0.032217981           17 
 1965000   0.47026731   -4.7943109    797.81883  0.033834556   0.03219703           44 
 1966000   0.46924872   -4.8107989    796.86488  0.033776911  0.032176012           19 
 1967000   0.46996153   -4.8179321    799.64292  0.033877432  0.032154987           14 
 1968000   0.47237132   -4.7956194    799.11463  0.033837848  0.032134083           25 
 1969000   0.45971277   -4.7969274     797.5027  0.033752442  0.032113169           16 
 1970000   0.46518295   -4.7982343    798.08383  0.033759891  0.032092226           14 
 1971000   0.46134532   -4.7880847    798.10382  0.033743608  0.032071371            8 
 1972000   0.46596857   -4.7992347    798.44681  0.033740991  0.032050514           24 
 1973000   0.47124601    -4.820051    800.32031   0.03380302  0.032029679           47 
 1974000   0.45784539   -4.8094657    797.55281  0.033669065  0.032008901           64 
 1975000   0.46507648   -4.8219985    798.01066  0.033671336  0.031988066           62 
 1976000   0.46746087   -4.8003394    797.61007  0.033637402  0.031967181           73 
 1977000   0.46671122   -4.8074228    798.54062  0.033659611  0.031946358           58 
 1978000   0.45558068    -4.803243    797.27548  0.033589294  0.031925571           51 
 1979000   0.46409695   -4.8153404    796.80291  0.033552422  0.031904743           54 
 1980000    0.4642822   -4.8152953    796.09807  0.033505811   0.03188389           63 
 1981000    0.4632131   -4.8171682    798.30168  0.033581595  0.031863046           41 
 1982000   0.46197078   -4.8106932    798.22077   0.03356125  0.031842225           53 
 1983000   0.46319987   -4.8284195    797.01151  0.033493508  0.031821394           27 
 1984000   0.45447896   -4.8209637    796.65491  0.033461648  0.031800596           56 
 1985000   0.45626011   -4.8222683    796.59483  0.033442268  0.031779823           36 
 1986000   0.45334295   -4.8078827    796.88348  0.033437541   0.03175907           85 
 1987000   0.45122814   -4.8198619     796.3284  0.033397433  0.031738346           47 
 1988000   0.46912938   -4.8158404     797.2647  0.033419882  0.031717635           66 
 1989000    0.4581482   -4.8155348     797.2916  0.033404206  0.031696876           44 
 1990000   0.47759729   -4.8140568    795.95543  0.033331467  0.031676154           47 
 1991000   0.45964841   -4.8344369    797.25284  0.033369029   0.03165544           42 
 1992000   0.46682309   -4.8193421    797.89599  0.033379183  0.031634726           35 
 1993000   0.45516987   -4.8291023    798.76666   0.03339884  0.031613971          122 
 1994000   0.46349987   -4.8218071    797.46242  0.033327584  0.031593256           75 
 1995000   0.47548825   -4.8144228    797.39706  0.033308148  0.031572619           56 
 1996000   0.45601932   -4.8162977    798.19234  0.033324663  0.031552029           50 
 1997000   0.46213818   -4.8181277    797.73761  0.033289001   0.03153147           35 
 1998000   0.46294189    -4.828363    796.08297  0.033203327  0.031510849           40 
 1999000   0.45546573   -4.8221944    797.67893  0.033253249  0.031490251           48 
 2000000    0.4633331   -4.8399841    797.39072  0.033224613   0.03146967           55 
 2001000   0.44564926   -4.8259934    797.55336  0.033214782  0.031449118           55 
 2002000   0.45264413   -4.8171254    797.02752  0.033176304  0.031428642           32 
 2003000    0.4544966   -4.8444796    798.06932  0.033203084  0.031408112           42 
 2004000   0.45084661   -4.8492934    797.76054  0.033173675  0.031387581           34 
 2005000   0.45185506    -4.819139    796.93433   0.03312279  0.031367056           48 
 2006000   0.44792655   -4.8436762    798.33206  0.033164343  0.031346526           70 
 2007000   0.46729005   -4.8358084    796.09309  0.033054853  0.031326065           76 
 2008000   0.45115844   -4.8262344    797.36862  0.033091327  0.031305581           74 
 2009000   0.45478389   -4.8311349    798.93654  0.033139893  0.031285128           47 
 2010000   0.45437242   -4.8488774    797.58414  0.033067336  0.031264645           56 
 2011000    0.4525948   -4.8386231    798.21355  0.033076975   0.03124418           39 
 2012000   0.44783963   -4.8242558    795.66904  0.032955146  0.031223712           26 
Loop time of 5007.76 on 48 procs for 2000000 steps with 4000 atoms

Performance: 69012.925 tau/day, 399.380 timesteps/s
99.4% CPU use with 48 MPI tasks x no OpenMP threads

MPI task timing breakdown:
Section |  min time  |  avg time  |  max time  |%varavg| %total
---------------------------------------------------------------
Pair    | 348.29     | 364.92     | 389.84     |  51.4 |  7.29
Neigh   | 33.521     | 34.857     | 36.101     |  11.1 |  0.70
Comm    | 318.37     | 344.1      | 363.09     |  60.1 |  6.87
Output  | 4.6478     | 4.6497     | 4.68       |   0.2 |  0.09
Modify  | 4203.9     | 4212       | 4220.9     |   6.1 | 84.11
Other   |            | 47.23      |            |       |  0.94

Nlocal:        83.3333 ave          92 max          76 min
Histogram: 2 2 3 13 8 8 6 2 3 1
Nghost:        2279.27 ave        2310 max        2261 min
Histogram: 5 7 10 8 4 5 3 2 2 2
Neighs:        15331.5 ave       17834 max       13022 min
Histogram: 1 1 3 7 16 11 5 3 0 1
FullNghs:      30663.5 ave       34206 max       27849 min
Histogram: 2 2 6 13 8 7 5 3 1 1

Total # of neighbors = 1471847
Ave neighs/atom = 367.96175
Neighbor list builds = 108108
Dangerous builds = 0

#clear
#
#next RN
#
#jump SELF
Total wall time: 1:23:31
