
units lj                  # Use reduced LJ style units
atom_style atomic         # Uncharged point particles
atom_modify map hash      # Needed for indexing of clusters etc
                          # Used to be able to find where atoms are in relation to each other.

lattice fcc 1.0 spacing 1 1 1
Lattice spacing in x,y,z = 1.5874011 1.5874011 1.5874011
region box block 0 10 0 10 0 10 units lattice
create_box 2 box
Created orthogonal box = (0.0000000 0.0000000 0.0000000) to (15.874011 15.874011 15.874011)
  3 by 4 by 4 MPI processor grid
create_atoms 1 box
Created 4000 atoms
  using lattice units in orthogonal box = (0.0000000 0.0000000 0.0000000) to (15.874011 15.874011 15.874011)
  create_atoms CPU = 0.050 seconds
set type 1 type/fraction 2 0.58 78393
Setting atom values ...
  2338 settings made for type/fraction
mass 1 1.0
mass 2 1.0
pair_style lj/cut  3.5
pair_modify tail  yes
pair_coeff 1  1  1.0  1.0   # Intearaction between 1 and 1 set with epsilon = 1 and sigma = 1
pair_coeff 1  2  1.5  0.8
pair_coeff 2  2  0.5  0.88

write_data data.0
System init for write_data ...
Neighbor list info ...
  update every 1 steps, delay 10 steps, check yes
  max neighbors/atom: 2000, page size: 100000
  master list distance cutoff = 3.8
  ghost atom cutoff = 3.8
  binsize = 1.9, bins = 9 9 9
  1 neighbor lists, perpetual/occasional/extra = 1 0 0
  (1) pair lj/cut, perpetual
      attributes: half, newton on
      pair build: half/bin/atomonly/newton
      stencil: half/bin/3d
      bin: standard
WARNING: Not all mixed pair coeffs generated from mixing. Use write_data with 'pair ij' option to store all pair coeffs. (../write_data.cpp:312)


#############################
#   M E L T   S Y S T E M   #
#############################

velocity all create 2.4 9622624 mom yes dist gaussian # Assign velocities
                                                    # Temperature 2.4, random number seed, zero linear momentum
                                                                                # Gaussian distribution

timestep 0.002   # simulation timestep
thermo 1000       # output thermodynamic data every 1000 steps bf 100

# Define a fix  in this case with index 1 applied to all
# particles in the simulation. This fix is for simulations
# in the anisotropic NPT ensemble. Note that we use the MTK
# correction.
fix 1 all npt temp 2.4 2.4 0.1 iso 5.68 5.68 0.5 mtk yes tchain 5 pchain 5 # Use NPT ensemble
                                                                         # Set temperature and pressure and damping
                                                                         # Numbers of thermostats in chain and in barostat
run 10000          # run for 10000 steps
Per MPI rank memory allocation (min/avg/max) = 3.642 | 3.644 | 3.648 Mbytes
Step Temp E_pair E_mol TotEng Press Volume 
       0          2.4   -4.8268882            0   -1.2277882   -4.1002737         4000 
    1000     2.392806   -4.5845915            0   -0.9962798     5.884836     3594.524 
    2000    2.4445819   -4.4994698            0  -0.83351362    6.2601963    3610.7715 
    3000    2.3614041   -4.5655923            0   -1.0243717    5.4135686    3637.5311 
    4000    2.4467989   -4.5422663            0  -0.87298558    5.5805655    3642.4721 
    5000    2.3963787   -4.5569149            0  -0.96324552    5.8460405    3614.7215 
    6000    2.3753354   -4.5012408            0  -0.93912844    5.6273465    3657.2178 
    7000    2.4343878   -4.5767174            0  -0.92604848    5.8666219    3606.0843 
    8000    2.3948483   -4.5335563            0  -0.94218192    5.8621633    3611.6587 
    9000    2.3908225   -4.5678924            0  -0.98255513    5.7140653    3619.2605 
   10000    2.3423565   -4.5758221            0   -1.0631658    5.5836714    3628.0391 
Loop time of 2.66901 on 48 procs for 10000 steps with 4000 atoms

Performance: 647431.930 tau/day, 3746.713 timesteps/s
99.6% CPU use with 48 MPI tasks x no OpenMP threads

MPI task timing breakdown:
Section |  min time  |  avg time  |  max time  |%varavg| %total
---------------------------------------------------------------
Pair    | 1.1934     | 1.2696     | 1.3761     |   2.8 | 47.57
Neigh   | 0.21823    | 0.22414    | 0.24414    |   1.0 |  8.40
Comm    | 0.80307    | 0.90119    | 1.0277     |   4.5 | 33.76
Output  | 0.0002472  | 0.00025144 | 0.00031467 |   0.0 |  0.01
Modify  | 0.2124     | 0.25833    | 0.32899    |   5.6 |  9.68
Other   |            | 0.01549    |            |       |  0.58

Nlocal:        83.3333 ave          91 max          75 min
Histogram: 1 4 2 8 7 9 6 2 6 3
Nghost:        1756.02 ave        1788 max        1733 min
Histogram: 6 1 6 9 10 6 3 4 2 1
Neighs:        10511.2 ave       11529 max        9490 min
Histogram: 5 3 4 5 7 8 4 2 6 4

Total # of neighbors = 504540
Ave neighs/atom = 126.13500
Neighbor list builds = 906
Dangerous builds = 201

# Equilibrate just above the melting temperature to avoid step fn in T

fix 1 all npt temp 1.25 1.25 0.1 iso 5.68 5.68 0.5 mtk yes tchain 5 pchain 5
run 2000
Per MPI rank memory allocation (min/avg/max) = 3.644 | 3.646 | 3.650 Mbytes
Step Temp E_pair E_mol TotEng Press Volume 
   10000    2.3423565   -4.5758221            0   -1.0631658    5.5836714    3628.0391 
   11000    1.2341436   -6.6194827            0   -4.7687301    5.7281519    2792.0631 
   12000    1.2567749   -6.7493237            0   -4.8646327    5.7750395    2753.6295 
Loop time of 0.679451 on 48 procs for 2000 steps with 4000 atoms

Performance: 508646.074 tau/day, 2943.554 timesteps/s
99.7% CPU use with 48 MPI tasks x no OpenMP threads

MPI task timing breakdown:
Section |  min time  |  avg time  |  max time  |%varavg| %total
---------------------------------------------------------------
Pair    | 0.29666    | 0.32249    | 0.39459    |   3.1 | 47.46
Neigh   | 0.040507   | 0.0431     | 0.052113   |   1.0 |  6.34
Comm    | 0.18529    | 0.26553    | 0.29584    |   3.8 | 39.08
Output  | 5.0983e-05 | 5.2386e-05 | 6.8653e-05 |   0.0 |  0.01
Modify  | 0.039763   | 0.043327   | 0.047118   |   0.9 |  6.38
Other   |            | 0.004945   |            |       |  0.73

Nlocal:        83.3333 ave          93 max          75 min
Histogram: 1 2 6 10 6 10 7 5 0 1
Nghost:        2119.90 ave        2143 max        2106 min
Histogram: 5 5 13 7 4 6 3 3 1 1
Neighs:        13867.0 ave       15443 max       12183 min
Histogram: 2 2 6 8 5 5 6 8 5 1

Total # of neighbors = 665615
Ave neighs/atom = 166.40375
Neighbor list builds = 141
Dangerous builds = 10

#############################
# L I N E A R  Q U E N C H  #
#############################

# Define solid atoms. This closely follows ten Wolde  Ruiz-Montero and Frenkel  Faraday Discuss  1996  104  93-110
# Compute components of the per-atom q6 vector
compute q6 all orientorder/atom degrees 1 6 components 6 nnn NULL cutoff 1.3 # compute the Q6 parameter.
                                                                             # Use all neighbours within 1.3 unit cell.

# get number of connections
compute coord_number all coord/atom orientorder q6 0.5

# An atom is solid if it has 8 or more connections (of a possible 14)
variable is_solid atom c_coord_number>=8
group solid dynamic all var is_solid    # Must be dynamic to update
dynamic group solid defined

# do clustering
compute cluster solid cluster/atom 1.3 # Create a cluster where all atoms within are solid and max 1.3 units from another member

# define chunks one chunk per cluster
compute clus_chunks solid chunk/atom c_cluster nchunk every compress yes  # Says which atoms are in which chunk

# count the size of each chunk
compute size_chunks solid property/chunk clus_chunks count


# Find the maximum entry in the vector of chunk sizes
variable max_n equal max(c_size_chunks)


# Thermo style which includes this variable
# thermo_style custom step temp pe vol v_max_n

thermo ${N}  # Print the thermo information every 100 steps
thermo 1000  

# Reset the npt fix at a lower temperature (below freezing)
fix 1  all npt temp  ${temp} ${temp}  0.1  iso  5.68  5.68  0.5  mtk yes tchain  5  pchain  5
fix 1  all npt temp  0.45 ${temp}  0.1  iso  5.68  5.68  0.5  mtk yes tchain  5  pchain  5
fix 1  all npt temp  0.45 0.45  0.1  iso  5.68  5.68  0.5  mtk yes tchain  5  pchain  5

dump dmp2 all dcd ${N} traj.dcd
dump dmp2 all dcd 1000 traj.dcd


compute msd all msd com yes
variable twopoint equal c_msd[4]/6/(step*dt+1.0e-6)
fix 9 all vector 10 c_msd[4]
variable fit equal slope(f_9)/6/(10*dt)
thermo_style custom step temp pe c_msd[4] v_twopoint v_fit v_max_n

fix 1 all npt temp 1.25 ${temp} 0.1 iso 5.68 5.68 0.5 mtk yes tchain 5 pchain 5
fix 1 all npt temp 1.25 0.45 0.1 iso 5.68 5.68 0.5 mtk yes tchain 5 pchain 5
run 5000000 # 5000000  # Run for this many steps
Neighbor list info ...
  update every 1 steps, delay 10 steps, check yes
  max neighbors/atom: 2000, page size: 100000
  master list distance cutoff = 3.8
  ghost atom cutoff = 3.8
  binsize = 1.9, bins = 8 8 8
  4 neighbor lists, perpetual/occasional/extra = 1 3 0
  (1) pair lj/cut, perpetual
      attributes: half, newton on
      pair build: half/bin/atomonly/newton
      stencil: half/bin/3d
      bin: standard
  (2) compute orientorder/atom, occasional
      attributes: full, newton on
      pair build: full/bin/atomonly
      stencil: full/bin/3d
      bin: standard
  (3) compute coord/atom, occasional
      attributes: full, newton on
      pair build: full/bin/atomonly
      stencil: full/bin/3d
      bin: standard
  (4) compute cluster/atom, occasional
      attributes: full, newton on
      pair build: full/bin/atomonly
      stencil: full/bin/3d
      bin: standard
Per MPI rank memory allocation (min/avg/max) = 9.847 | 9.852 | 9.854 Mbytes
Step Temp PotEng c_msd[4] v_twopoint v_fit v_max_n 
   12000    1.2567749   -6.7493237 5.9164568e-34 4.1086504e-36 8.3333333e+20            3 
   13000     1.235598    -6.743716   0.49606958 0.0031799331  0.040847463            2 
   14000    1.2584038   -6.7423503   0.95175319 0.0056651974   0.03810679            8 
   15000    1.2311006   -6.7736769    1.3248811 0.0073604503  0.036790646            3 
   16000    1.2304912   -6.7780312    1.7481558 0.0091049777  0.035568272            3 
   17000    1.2352709   -6.7567172    2.1547285  0.010562394  0.035099339            3 
   18000    1.2745956   -6.7508976    2.5719874  0.011907349   0.03491662            5 
   19000    1.2439494   -6.7244394    2.9881813  0.013106058  0.034767862            2 
   20000    1.2765879   -6.7630041    3.3473478  0.013947282   0.03438302            1 
   21000    1.2733068   -6.7133492    3.8506498  0.015280356  0.034408642            4 
   22000    1.2463941   -6.7664937     4.304175  0.016303693  0.034660958            2 
   23000    1.2568841   -6.7280745    4.7464777  0.017197383  0.034960684            5 
   24000    1.2413694   -6.7772192    5.1959787  0.018041592  0.035144186            3 
   25000    1.2342339   -6.7988076    5.5262013  0.018420671  0.035170426            2 
   26000    1.2529965   -6.7667223    5.9610992  0.019106087  0.035168947            2 
   27000    1.2448831   -6.7977721    6.3586958  0.019625604  0.035180592            3 
   28000    1.2458415   -6.7674003    6.7444092  0.020072646  0.035155361            3 
   29000    1.2366391   -6.7523155    7.1558074  0.020562664  0.035046611            2 
   30000    1.2836193    -6.782572    7.6024685  0.021117968  0.035018397            5 
   31000    1.2279471   -6.7753054     8.036789  0.021604271  0.034937546            1 
   32000     1.237824   -6.7598646    8.4424608  0.021985575  0.034939961            2 
   33000    1.2386192   -6.8162681    8.9072366  0.022493021  0.034953075            3 
   34000      1.26573   -6.7457052    9.3882282  0.023010363  0.035012644            2 
   35000    1.2254113   -6.7289257    9.8087161  0.023354086  0.035043436            2 
   36000    1.2393435   -6.7732361    10.188103  0.023583571  0.035082667            1 
   37000    1.2453699   -6.7567286    10.626199  0.023932881  0.035093509            5 
   38000    1.2130763   -6.7843851    10.990592  0.024102175  0.035090524            5 
   39000    1.2580586    -6.731085    11.418306  0.024398089  0.035073674            3 
   40000    1.2490645   -6.7195072    11.850719  0.024688997  0.035055521            4 
   41000    1.2394792   -6.7361773    12.329291  0.025059535  0.035060392            2 
   42000    1.2202927   -6.7519926    12.621098  0.025041862  0.035064379            5 
   43000    1.2606491   -6.8016411    12.961599  0.025119378  0.035018309            1 
   44000    1.2350694   -6.7819659    13.409327  0.025396452  0.034946592            1 
   45000    1.2543078   -6.8628057    13.857473  0.025661986  0.034921434            2 
   46000    1.2307747   -6.7733346     14.34914  0.025994818  0.034889058            3 
   47000    1.2492841   -6.7168157    14.844965  0.026320859  0.034917629            1 
   48000     1.240805   -6.7736722    15.198989  0.026387133  0.034938549            3 
   49000    1.2196797   -6.7876149    15.718208  0.026731645   0.03496644            3 
   50000    1.2600997   -6.7450004    16.212543  0.027020905  0.035013398            3 
   51000    1.2397645   -6.7421043    16.654122  0.027212618  0.035075208            2 
   52000    1.2396582   -6.7901133    17.089551  0.027387101  0.035121345            2 
   53000    1.2552462   -6.7952773    17.469103  0.027467142  0.035157494            2 
   54000    1.2502721   -6.8017636     17.79846  0.027466759  0.035178258            3 
   55000    1.2583559   -6.7969072    18.181551  0.027547804  0.035196869            1 
   56000    1.2685217   -6.7377726    18.784981  0.027953841  0.035214562            1 
   57000    1.2691035   -6.7536726    19.125311  0.027960981  0.035236587            5 
   58000    1.2475848   -6.8125869    19.481988  0.027991363  0.035249065            1 
   59000    1.2034619   -6.7860808     19.93157  0.028151935  0.035264709            2 
   60000    1.2479924   -6.8166241    20.289245  0.028179507  0.035261694            4 
   61000     1.232591   -6.7889928    20.659413  0.028223242  0.035253371            3 
   62000    1.2353062   -6.7633573    21.037115  0.028275692  0.035224157            3 
   63000    1.2451276    -6.796717    21.458617  0.028384414  0.035199439            2 
   64000    1.2646714   -6.7960694    22.030271  0.028685249  0.035187399            2 
   65000    1.2511672    -6.787113    22.394784  0.028711261  0.035181091            1 
   66000    1.2293501   -6.7429683    22.967343   0.02899917  0.035189416            2 
   67000    1.2430317    -6.791399     23.25978  0.028930075  0.035192575            2 
   68000    1.2453328    -6.767999    23.713632  0.029060824  0.035196274            3 
   69000    1.2508168   -6.7225244    24.288881  0.029334397  0.035200616            3 
   70000    1.2576033   -6.7763933    24.759516  0.029475615  0.035224848            3 
   71000    1.2654835   -6.7997131    25.013254   0.02935828  0.035244409            1 
   72000    1.2435622   -6.7752373    25.632913  0.029667723  0.035260678            3 
   73000    1.2225159   -6.7741949    25.886321  0.029550594  0.035275957            2 
   74000    1.2170124   -6.7975546    26.202964  0.029507842  0.035274695            3 
   75000    1.2519486   -6.7666413     26.71153  0.029679477  0.035269059            1 
   76000    1.2555518    -6.778336    27.281025  0.029913404  0.035285159            3 
   77000    1.2573104   -6.7533195    27.671648  0.029947671  0.035301704            3 
   78000    1.2220835   -6.7686465    28.109945  0.030031992  0.035320865            2 
   79000    1.2428744   -6.8218448    28.507847  0.030071569  0.035334144            5 
   80000     1.220992   -6.7434568     28.94873  0.030154927  0.035347689            2 
   81000    1.2286433   -6.7954755    29.194689  0.030035688  0.035341574            1 
   82000    1.2234014   -6.7267239    29.691786  0.030174579  0.035335856            1 
   83000    1.2330909   -6.7950691    30.012721  0.030133254  0.035322188            5 
   84000    1.2572651   -6.7943781    30.255772  0.030015646  0.035303876            4 
   85000     1.246941   -6.7712778     30.57028  0.029970862  0.035277417            3 
   86000    1.2255276   -6.8179364    31.109917  0.030145268  0.035251789            4 
   87000    1.2338797   -6.8098527    31.653928  0.030319854  0.035242988            2 
   88000    1.2640712   -6.8141345    32.141149  0.030436694  0.035241012            7 
   89000    1.2388164   -6.8049841    32.644076  0.030565614  0.035242124            3 
   90000    1.2130048    -6.813989    32.999134  0.030554754  0.035250169            3 
   91000     1.237268   -6.8125471     33.46506  0.030645659  0.035247407            1 
   92000    1.2447984   -6.7935761    33.964178  0.030764654  0.035249508            2 
   93000    1.2320778   -6.8278418    34.444485  0.030864234  0.035255632            2 
   94000    1.2595867   -6.7898771    34.919295  0.030956822  0.035269351            2 
   95000    1.2447853   -6.8107732    35.359349  0.031016973  0.035287453            2 
   96000    1.2305793   -6.7903958    35.972678  0.031226283  0.035309142            5 
   97000    1.2339855   -6.7833908    36.160335   0.03106558   0.03532576            1 
   98000    1.2601989   -6.8217656    36.672879  0.031184421  0.035338714            4 
   99000    1.2292795    -6.779751     36.99185  0.031137921  0.035347779            1 
  100000    1.2399963   -6.8149441    37.299122  0.031082602  0.035347368            1 
  101000    1.2432798   -6.7763066    37.662218  0.031074437  0.035346654            3 
  102000    1.2337212   -6.8440048    38.034768  0.031074157   0.03533932            4 
  103000    1.2596405   -6.8322392    38.517645  0.031163143  0.035333632            3 
  104000    1.2589557   -6.7736063    38.983745  0.031236975  0.035328723            2 
  105000    1.2444237   -6.7881533    39.556997  0.031394442  0.035328693            2 
  106000    1.2415999   -6.8072366    39.741262   0.03124313  0.035322979            4 
  107000    1.2443488   -6.8344492    40.021678  0.031169531   0.03531673            3 
  108000    1.2366604   -6.8006695    40.434325  0.031199325  0.035313652            2 
  109000    1.1927279   -6.7859392    40.981422  0.031331362   0.03530831            2 
  110000    1.2417623   -6.7651199     41.48313  0.031426614  0.035313217            3 
  111000    1.2387191   -6.8290237    41.857439  0.031424504  0.035313412            1 
  112000    1.2226436     -6.79389    42.312288  0.031482357  0.035307363            2 
  113000    1.2392252   -6.7791307    42.919815  0.031651781  0.035306852            1 
  114000    1.2435276   -6.7928054    43.256394  0.031620171  0.035307488            1 
  115000    1.2607693   -6.7753146     43.65495  0.031634021  0.035311131            4 
  116000    1.2561433   -6.7861028    44.136957  0.031707584  0.035311465            6 
  117000    1.2331124   -6.8248998    44.287281  0.031543647  0.035306246            1 
  118000    1.2317782   -6.8409807    44.772837  0.031619235  0.035293517            2 
  119000    1.2093866   -6.7722953    45.146482  0.031615183  0.035280268            2 
  120000    1.2374673   -6.7806262    45.728659  0.031756013  0.035273449            6 
  121000    1.2249964   -6.8207052    45.811582  0.031550676  0.035266828            3 
  122000    1.2510027   -6.8179532    46.317005  0.031637298  0.035259069            4 
  123000    1.2277752   -6.7881284     46.94617  0.031806348  0.035253841            3 
  124000    1.2417083   -6.8007386    47.367664  0.031833108  0.035248574            1 
  125000     1.233907   -6.8290433    47.668524  0.031779016    0.0352471            2 
  126000    1.2379755   -6.7776588     48.26505  0.031921329  0.035245354            2 
  127000      1.23726   -6.8257041    48.392404  0.031753546   0.03524093            2 
  128000    1.2444914   -6.8128738    49.029767  0.031920421  0.035235848            1 
  129000    1.2144592   -6.8214508    49.343921  0.031875918   0.03522959            1 
  130000    1.2339231    -6.827809    49.720795  0.031872305  0.035222243            2 
  131000    1.2530684    -6.781405    50.405064   0.03206429  0.035211822            3 
  132000    1.2598687   -6.8465563    50.269169  0.031735586  0.035202584            3 
  133000    1.2468713   -6.8050516    50.838489   0.03185369  0.035192035            5 
  134000    1.2420803   -6.7379851    51.503413  0.032029485  0.035182015            3 
  135000     1.204453   -6.7854268    51.488436  0.031782985  0.035168903            3 
  136000    1.2464693     -6.82364    51.610812  0.031624272  0.035144852            3 
  137000    1.2387667   -6.8236404    52.000139  0.031630255  0.035121383            3 
  138000    1.2194869   -6.8242614    52.337917  0.031605022  0.035095564            4 
  139000    1.2288407    -6.806009     52.86606   0.03169428  0.035070531            3 
  140000    1.2345034   -6.8278956    53.169973  0.031648794  0.035046684            1 
  141000    1.2090007   -6.8381463    53.308474   0.03150619  0.035020362            3 
  142000    1.2084569   -6.8368247    53.857502  0.031606515  0.034994621            7 
  143000    1.2364092   -6.7607792    54.478769  0.031747535   0.03497122            4 
  144000     1.240474   -6.8104483    55.088378  0.031879848  0.034948727            4 
  145000    1.2306137   -6.8273874    55.016826  0.031618866  0.034925322            1 
  146000    1.2476399   -6.8524396    55.397613  0.031619642  0.034902893            3 
  147000    1.2433105   -6.7895945    56.203065  0.031861148  0.034882718            1 
  148000    1.2201457   -6.8392205    56.417965  0.031766872  0.034864682            3 
  149000    1.2544441   -6.8470691    56.475526  0.031585864  0.034842846            2 
  150000    1.2290129   -6.7778397    57.186373  0.031770207  0.034819338            2 
  151000      1.25578   -6.8229603    57.363388  0.031657499  0.034796378            2 
  152000    1.2324762   -6.8263957    57.695034  0.031631049  0.034774646            2 
  153000    1.2516826   -6.8690098    58.223066  0.031711909  0.034756411            1 
  154000    1.2114887   -6.8272914    58.702459    0.0317654  0.034737387            2 
  155000    1.2119346   -6.8810402    58.867221  0.031649043  0.034716192            3 
  156000    1.2021939    -6.810467    59.370544  0.031715034  0.034694134            6 
  157000    1.2459971   -6.8569023    59.424017   0.03154141  0.034673197            2 
  158000    1.2341883   -6.8816131    59.986794  0.031638604  0.034648982            3 
  159000    1.2115349   -6.7887286     60.35805  0.031634198  0.034624347            2 
  160000    1.2324901   -6.8457291    60.664925  0.031596315  0.034598593            2 
  161000    1.2233153   -6.8297672    60.917634  0.031530866  0.034571376            1 
  162000    1.2263289     -6.81065     61.32196  0.031544218  0.034544389            3 
  163000    1.2214188    -6.823943    61.694552  0.031541182  0.034519837            1 
  164000    1.1923565   -6.7692334    62.012735  0.031510536  0.034494028            3 
  165000    1.2278783   -6.8638694    62.292367  0.031460791  0.034467353            3 
  166000    1.2180332   -6.8650324    62.746186  0.031499089  0.034438506            4 
  167000    1.2148124   -6.8480017    63.180986  0.031527438   0.03441206            2 
  168000    1.2522842   -6.8289442    63.839893  0.031666613   0.03438822            2 
  169000    1.2365914   -6.8369622    64.006178  0.031561232  0.034365753            2 
  170000    1.2423332     -6.81639    64.316289  0.031527593  0.034344088            1 
  171000    1.2302464   -6.8459309    64.716967  0.031538483  0.034322205            2 
  172000    1.2124359   -6.8640693    65.247155  0.031611994  0.034298255            3 
  173000    1.2263363   -6.8022413    65.796844  0.031694048  0.034275284            2 
  174000    1.2433531    -6.813054    66.296155  0.031751032  0.034258471            3 
  175000    1.2368711   -6.8513313     66.62872  0.031727962   0.03424197            1 
  176000    1.1927562   -6.8252881    67.271856  0.031852204  0.034225935            2 
  177000     1.195447   -6.8247128    67.481972  0.031771173   0.03421143            2 
  178000    1.2241959   -6.8328659    67.886007  0.031781838  0.034196129            3 
  179000     1.233474   -6.7947041     68.25998  0.031778389   0.03418288            3 
  180000    1.2148293   -6.8509388    68.542967  0.031732855  0.034165278            3 
  181000    1.2253699   -6.8593572     68.88726   0.03171605  0.034148462            1 
  182000    1.2303928    -6.827395    69.620423  0.031877483  0.034134111            5 
  183000    1.2216257   -6.8101112    69.864976  0.031814652  0.034122252            2 
  184000    1.2035096   -6.8534561    70.120313  0.031757388  0.034106528            2 
  185000    1.1995225    -6.846794     70.35345  0.031690743  0.034089378            2 
  186000    1.2130647   -6.7772719    71.168536  0.031885545  0.034075197            2 
  187000    1.2342323   -6.8580082    71.122166   0.03169437   0.03406009            4 
  188000    1.2096852   -6.8336885    71.736159  0.031797943  0.034044145            3 
  189000    1.2153897   -6.8046351    72.238416  0.031851153  0.034029611            3 
  190000    1.2343993   -6.8415456    72.685123   0.03187944  0.034015255            3 
  191000    1.2381543    -6.814146    73.050277  0.031871849  0.034004236            4 
  192000    1.2197108   -6.8816875    72.962491  0.031667748  0.033990105            1 
  193000    1.2233626   -6.8372697    73.638214  0.031795429  0.033975688            1 
  194000     1.237597   -6.8098535    74.174235  0.031861785  0.033962752            1 
  195000    1.2426842   -6.7774226    74.790907  0.031961926  0.033951211            4 
  196000    1.2411036   -6.8161863    74.895361  0.031843266   0.03394036            1 
  197000    1.2301205   -6.8636756     75.27683  0.031842991  0.033924845            1 
  198000    1.2144393    -6.887378    75.385328  0.031727832  0.033911088            4 
  199000    1.2182651   -6.8883611    75.768895  0.031729018  0.033897833            6 
  200000    1.2057651   -6.8725127    76.412643  0.031838601   0.03388384            1 
  201000    1.1755178   -6.8065561    76.877979  0.031873126  0.033870299            2 
  202000    1.2074758   -6.9063564    76.945158  0.031743052  0.033854584            2 
  203000    1.2075165   -6.8068118    77.637634   0.03187095  0.033841059            1 
  204000    1.2305275   -6.8402473    77.895015  0.031819859  0.033827649            2 
  205000    1.2038876   -6.8442373    78.326371  0.031839988    0.0338147            3 
  206000     1.208498   -6.8544977    78.134769  0.031607916   0.03380031            1 
  207000    1.1771832   -6.7759364    78.971791  0.031792186  0.033785978            2 
  208000    1.2043513   -6.8717523    79.048684  0.031670146  0.033773901            3 
  209000    1.2110132   -6.8762168     79.48539  0.031692739  0.033759462            3 
  210000    1.2202693     -6.87833    80.101206  0.031786193  0.033747375            2 
  211000    1.2020784   -6.8160992    80.986348   0.03198513  0.033735566            4 
  212000    1.2508212   -6.8403743    81.202583  0.031919254  0.033724481            3 
  213000    1.1904598    -6.820437    81.267315  0.031794724   0.03371327            4 
  214000    1.2338474   -6.8066102    82.101566  0.031971015  0.033701959            4 
  215000    1.1983188   -6.8610523    82.278576  0.031890921  0.033692026            1 
  216000    1.1878908    -6.873564    82.666778  0.031893047  0.033683935            2 
  217000    1.1788851   -6.8399803    82.916349  0.031841916  0.033673906            1 
  218000    1.2247784    -6.865946    83.331278  0.031854464  0.033665115            5 
  219000    1.2227736   -6.8176509    84.212233  0.032044229  0.033657396            2 
  220000    1.2184734   -6.8894036    84.106479  0.031858515  0.033649303            4 
  221000     1.227703   -6.8937743    84.722933  0.031946807  0.033642109            4 
  222000    1.1961875   -6.8251633    85.250466  0.032000925  0.033634097            2 
  223000    1.2297445   -6.9142759    85.432464  0.031925435  0.033627859            2 
  224000    1.2257368   -6.8362192    85.947653  0.031974573  0.033620506            2 
  225000    1.2118694   -6.8842185    86.331601  0.031974667  0.033615051            5 
  226000    1.2230364   -6.8351887    87.150973  0.032135314  0.033612458            1 
  227000    1.1986705   -6.8488911    87.272369  0.032038315  0.033608061            2 
  228000    1.1750748   -6.8210676    88.010372  0.032167534  0.033602762            3 
  229000    1.2385876   -6.8150684    88.250601  0.032114483  0.033597737            2 
  230000    1.2197021   -6.7944313    88.855062  0.032193863  0.033592451            2 
  231000    1.2123713   -6.8377269    88.631382  0.031973803  0.033584399            2 
  232000    1.2255689   -6.8185234    88.888295  0.031928267  0.033576516            1 
  233000    1.2179995   -6.8365802    89.429714  0.031984876  0.033569486            2 
  234000    1.2400368   -6.8882925    89.219325  0.031773264   0.03356133            3 
  235000    1.1750014    -6.831186      90.3805  0.032049823  0.033551953            1 
  236000    1.2174394   -6.8618361    90.350133  0.031903296  0.033540938            5 
  237000    1.2296704    -6.849675    90.698187  0.031891064  0.033530628            3 
  238000    1.2074821     -6.84567    91.306922  0.031970211  0.033520756            2 
  239000    1.2327455    -6.847405    91.203925  0.031800532  0.033511031            2 
  240000    1.2322055   -6.8307938    91.578208  0.031797989  0.033500538            2 
  241000    1.2149037   -6.8777196    91.619956  0.031680483  0.033489408            3 
  242000    1.1967853   -6.8753477    92.319858  0.031790585  0.033478283            3 
  243000    1.1985561   -6.8703825    92.862122  0.031845721   0.03346685            1 
  244000    1.2126783   -6.8870027    93.204735  0.031832218  0.033456009            3 
  245000    1.2326403   -6.8395157    93.631413  0.031847419  0.033445785            2 
  246000    1.2051892   -6.8396456    93.906923  0.031811288  0.033434817            6 
  247000    1.2145647   -6.8534013    94.521458  0.031889831  0.033424867            3 
  248000    1.1644979    -6.825208    94.760563  0.031841587   0.03341412            2 
  249000    1.1940671   -6.8757711    95.026216  0.031802616  0.033404225            1 
  250000    1.2064617   -6.8619088    95.184431  0.031728144  0.033394944            3 
  251000    1.2242731   -6.8333728    96.061236  0.031892841  0.033385932            1 
  252000     1.188421    -6.903625    95.828823  0.031689425  0.033375195            2 
  253000     1.228969   -6.8188556    96.453515  0.031769932  0.033363907            3 
  254000    1.2149497   -6.8608895    96.538417  0.031672709  0.033351307            2 
  255000    1.2077141   -6.8426941    97.154612  0.031749873  0.033339073            3 
  256000    1.2239145   -6.8467836    97.464928  0.031726865  0.033329381            1 
  257000    1.1948941   -6.7948333    98.346258  0.031889189  0.033321068            2 
  258000    1.2175284   -6.8199371    98.466309  0.031804363  0.033311145            2 
  259000    1.1967228   -6.8896366    98.689615  0.031753415  0.033301802            1 
  260000    1.2134321   -6.8652356    99.295453  0.031825466  0.033292252            1 
  261000    1.2312403   -6.8478981    100.14318  0.031974196  0.033283569            8 
  262000    1.2321453    -6.860111    99.942108  0.031788202  0.033276865            1 
  263000    1.1955826   -6.8850606    100.80347  0.031940264  0.033269763            4 
  264000    1.1854011   -6.8663165    101.11447  0.031917447  0.033263871            1 
  265000    1.2046476   -6.8328242    102.08543  0.032102336  0.033259246            5 
  266000    1.2217958   -6.8486173    102.06554  0.031975418  0.033254252            3 
  267000    1.2114616   -6.8168036    102.48904  0.031987839  0.033247739            4 
  268000    1.2078034   -6.8530455    102.92529  0.032004133  0.033242201            2 
  269000    1.2313533   -6.8406328    103.20835  0.031972847  0.033236418            3 
  270000     1.182921   -6.8754208    103.42913  0.031922571  0.033230681            1 
  271000     1.219225    -6.896314    103.99316  0.031978216  0.033225202            1 
  272000    1.2166341    -6.850212     104.6987  0.032076809  0.033219478            4 
  273000    1.2165345   -6.8547117    104.86353  0.032009625  0.033214007            3 
  274000    1.2067497   -6.8579764    104.91037  0.031907047  0.033207826           11 
  275000     1.232741   -6.8298642    105.06866  0.031838989  0.033200123            2 
  276000     1.196179   -6.8625884    105.69392  0.031912415  0.033193966            1 
  277000    1.2074694   -6.8865695    105.77536  0.031821708  0.033186573            3 
  278000    1.2086413    -6.924951    105.53256  0.031634461  0.033177799            2 
  279000    1.1909933   -6.8745016    106.26645  0.031740278  0.033166118            2 
  280000    1.2277335   -6.8805563    106.44256  0.031679333  0.033154967            4 
  281000    1.1877008   -6.8517124    107.07052  0.031752824  0.033143278            2 
  282000    1.1969126   -6.8282269    107.87759  0.031878719  0.033133919            2 
  283000    1.2063906   -6.8523081    107.58568  0.031680118  0.033123272            1 
  284000    1.2177334   -6.8249569    108.32938  0.031786789  0.033112513            3 
  285000    1.1913003   -6.9117096    107.74108  0.031503238   0.03310216            2 
  286000    1.2230342   -6.8705339    108.74835  0.031686581  0.033091477            2 
  287000    1.2097247   -6.8747407    109.35755  0.031753063  0.033082854            2 
  288000    1.1993137   -6.8889734    109.62863  0.031721247  0.033071693            3 
  289000    1.1968739   -6.8953098     109.7526  0.031647231  0.033061471            4 
  290000    1.2062661   -6.8368705    110.43912   0.03173538  0.033053168            4 
  291000    1.1895568   -6.8883716    110.55989  0.031660908  0.033042394            2 
  292000    1.2050491   -6.9252845    110.46762  0.031526148  0.033030717            2 
  293000    1.2056586   -6.8570985    111.27215   0.03164737  0.033018248            3 
  294000    1.2275101   -6.8703928    111.50973  0.031607067  0.033007444            2 
  295000    1.2015361   -6.8694241    111.84663  0.031595093  0.032997221            2 
  296000    1.1981611   -6.8194235    112.48464  0.031667973  0.032986341            2 
  297000    1.2256569   -6.8993396    112.41188  0.031540931  0.032974505            3 
  298000    1.2198744   -6.8980457     113.1942   0.03165386  0.032963702            2 
  299000    1.2306133   -6.8678595    113.53891  0.031644065  0.032952108            3 
  300000    1.1666501   -6.9112392    114.00173  0.031667148   0.03294211            2 
  301000    1.1743237   -6.8936026    114.40414  0.031673349   0.03293113            3 
  302000    1.2011974   -6.8520557    114.91396  0.031709151  0.032919523            2 
  303000    1.2130693   -6.8771581    115.21628  0.031687645  0.032910053            2 
  304000    1.2209452   -6.8988494    115.25128  0.031593005  0.032899668            2 
  305000    1.2130624   -6.8885807    115.64211  0.031596206  0.032889284            2 
  306000    1.2036921   -6.9112457    115.67832   0.03150281  0.032878493            4 
  307000       1.1991   -6.9252279    116.23826  0.031552187  0.032868567            1 
  308000    1.2221378   -6.8251764    117.32561  0.031743941  0.032859436            4 
  309000    1.2019142   -6.8540913    117.53862  0.031698657  0.032851385            6 
  310000    1.2111856   -6.8745087    118.03875  0.031730846  0.032841562            2 
  311000     1.202072   -6.8895736    118.08511  0.031641241  0.032832716            3 
  312000    1.2267279   -6.8530429    119.38294  0.031886469  0.032825321            5 
  313000    1.2180562   -6.9237957    119.09706  0.031708482  0.032818801            3 
  314000    1.2256297   -6.8568744    119.53403  0.031723468   0.03281205            3 
  315000    1.2077852   -6.8617826    119.85377  0.031707346  0.032803887            5 
  316000    1.2027136   -6.8750699    120.06594   0.03166296  0.032795212            2 
  317000    1.2071891   -6.8567978    120.72875  0.031737315   0.03278686            3 
  318000    1.1936376   -6.8941231    120.66137  0.031619855  0.032779252            2 
  319000     1.181413   -6.8953751    121.15901  0.031650735  0.032771415            1 
  320000    1.2270777   -6.8795716    121.46914  0.031632587  0.032763954           12 
  321000    1.1948482   -6.8588443    121.98206  0.031667201  0.032756879            3 
  322000     1.227027   -6.8828974    122.53919  0.031713041  0.032748973            2 
  323000    1.2324562   -6.8685903     122.6258  0.031637203  0.032741998            2 
  324000    1.2109029   -6.8722345      123.394   0.03173714  0.032734323            2 
  325000    1.1817604   -6.8914705    123.68214  0.031713369  0.032727884            3 
  326000    1.2010172    -6.882228    123.75505  0.031634727  0.032721448            3 
  327000    1.2194746   -6.8839378    124.12855  0.031633167  0.032713903            1 
  328000    1.2005684    -6.830624    125.12648  0.031790264  0.032707072            3 
  329000     1.213482   -6.8761878    125.34847  0.031749865  0.032700975            3 
  330000    1.2083343    -6.869234    125.24355  0.031627159  0.032694764            4 
  331000    1.1942916   -6.9104362    125.32585  0.031552328  0.032687935            3 
  332000    1.2184585   -6.8803491    126.01684  0.031630733  0.032679836            7 
  333000    1.1873566   -6.8925128    126.93961  0.031766669   0.03267269            3 
  334000    1.1870403   -6.9078417    126.88081   0.03165689  0.032667353            3 
  335000    1.2176103   -6.8763931    127.20243  0.031642395  0.032661328            4 
  336000    1.1779265   -6.9119407    127.65674  0.031660899  0.032655705            3 
  337000      1.19005   -6.9046038    127.93254  0.031635149  0.032649153            1 
  338000    1.1912452   -6.8800652    129.13523  0.031838074  0.032642707            1 
  339000    1.1880453   -6.9306131    128.77005  0.031654389  0.032636053            4 
  340000    1.2056647   -6.9271105    129.39245  0.031713836  0.032630106            2 
  341000    1.1656797   -6.9116254    129.49248  0.031645278  0.032623925            2 
  342000    1.2061407   -6.9113832    129.56674  0.031570843  0.032617244            3 
  343000    1.2043662   -6.8998139    130.17526  0.031626642  0.032611644            3 
  344000    1.1885477    -6.928135    130.00367  0.031493137  0.032604846            2 
  345000    1.2035794   -6.9158143    131.01118  0.031645212  0.032597421            1 
  346000    1.1931526   -6.8589907    131.34639  0.031634487  0.032590037            2 
  347000    1.2162173   -6.8971286    131.58221  0.031599953  0.032581714            5 
  348000    1.2054991   -6.8873016    132.00378  0.031610101  0.032574564            2 
  349000     1.195764   -6.9037484    132.46734  0.031630215  0.032566975            3 
  350000    1.1817978   -6.8788958    132.85276  0.031631608  0.032558995            3 
  351000    1.2020082   -6.8385927    133.82158  0.031771506  0.032553693            2 
  352000    1.1968841   -6.8581571    133.75478   0.03166543  0.032548649            4 
  353000    1.2002556   -6.9387508    133.32412   0.03147406  0.032542341            1 
  354000    1.1803515   -6.8769863    134.50994  0.031664298  0.032536067            2 
  355000    1.1880666   -6.9187707    134.69011  0.031617397  0.032527927            3 
  356000    1.1964443   -6.8660948    135.06754  0.031616932  0.032520716            3 
  357000    1.2007232   -6.8736588    134.94827   0.03150053  0.032513555            2 
  358000    1.1855595   -6.8838541    135.48453  0.031537368  0.032504809            6 
  359000    1.1899882   -6.9017229    136.02214  0.031574312  0.032495936            3 
  360000    1.2315798   -6.9092452    135.70691  0.031413636  0.032487565            8 
  361000    1.1638548    -6.882217    136.13771  0.031426063  0.032478933            2 
  362000    1.1865263   -6.9438958    136.71801  0.031472837  0.032470313            1 
  363000    1.1986279   -6.9390789    136.65884  0.031372552  0.032461816            2 
  364000    1.2001475   -6.9367499     137.0336   0.03137216  0.032452546            3 
  365000    1.1859138    -6.888494    137.90091  0.031484225  0.032443665            3 
  366000    1.1844713   -6.8769358    138.31052  0.031491466  0.032436178            3 
  367000    1.1992586   -6.9190927    138.65231  0.031483268  0.032429271            1 
  368000    1.1985879   -6.9135118    139.10438  0.031500086  0.032422797            1 
  369000    1.1624956   -6.8785847    139.69541  0.031548196  0.032415687            2 
  370000    1.2142164    -6.942374    139.50079  0.031419098  0.032408645            3 
  371000    1.1922134   -6.9148798     140.4542  0.031548562  0.032402355            2 
  372000     1.177178   -6.9435151    140.24386  0.031416636  0.032395835            5 
  373000    1.1922076   -6.9330564    140.64236  0.031421438  0.032387955            4 
  374000    1.1823859   -6.9016788    141.75804  0.031586016  0.032380761            3 
  375000    1.2019154   -6.9299205    141.53881  0.031453069  0.032372396            2 
  376000    1.1993162   -6.9176786    141.49362  0.031359401  0.032364181            2 
  377000    1.2060183   -6.9228243    142.51656  0.031502334  0.032356924            1 
  378000    1.1842589   -6.9336093    142.67355  0.031453603    0.0323488            2 
  379000    1.2116065    -6.906646    142.78088  0.031394213  0.032341966            1 
  380000    1.2249637   -6.9472225    142.84166  0.031324926  0.032333822            1 
  381000    1.1868642   -6.9557003    143.95975  0.031487259  0.032326378            2 
  382000    1.1885309   -6.9565093    144.47911   0.03151813  0.032319817            3 
  383000    1.1877414   -6.8975611    144.96663  0.031541913  0.032313781            2 
  384000    1.1747109   -6.8928556    145.73035  0.031625511  0.032308665            4 
  385000    1.1909798   -6.9101437    145.42762  0.031477839  0.032303611            2 
  386000    1.2020688     -6.91639    145.92289  0.031503214  0.032297854            5 
  387000    1.1823657   -6.9038325    146.36786  0.031517627  0.032292063            3 
  388000    1.2158807   -6.9267215    146.38054  0.031439118  0.032285073            2 
  389000    1.1718016   -6.9106434    146.77409  0.031442606  0.032278194            3 
  390000    1.1906779   -6.9192715    147.60895  0.031540373  0.032271785            5 
  391000    1.1795801   -6.9453684    147.23989   0.03138105  0.032265047            6 
  392000    1.1687579   -6.9149703    147.77885  0.031415571  0.032258241            4 
  393000    1.1866819   -6.9105598    148.75324  0.031542247   0.03225204            3 
  394000    1.1953551   -6.9127578    149.10818  0.031537262  0.032246042            3 
  395000    1.2037979   -6.9038939    149.14775  0.031465769  0.032241054            3 
  396000    1.1828808   -6.8474057    150.18386  0.031604348  0.032235417            3 
  397000    1.2028163   -6.8957743    149.77557  0.031439037   0.03223056            1 
  398000    1.1943376   -6.9066963    149.88009  0.031381929  0.032224757            1 
  399000    1.1852759   -6.9692954    150.27749  0.031386275  0.032217869            5 
  400000    1.1727565   -6.9379077    150.99232  0.031456733  0.032212039            2 
  401000    1.1869183   -6.9040933    151.43053  0.031469353  0.032206393            4 
  402000    1.2153034   -6.9160223    151.67266  0.031441264  0.032200245            4 
  403000    1.1925889   -6.9046408     152.3385  0.031500931   0.03219442            3 
  404000    1.1574694    -6.926233    152.46913  0.031449903  0.032187789            1 
  405000    1.2208624   -6.9420711    152.89057  0.031458965  0.032181724            1 
  406000    1.1974447   -6.9177904    152.95376   0.03139445  0.032176813            3 
  407000    1.1665399   -6.9434055    153.30486  0.031389202  0.032170676            4 
  408000    1.1817639   -6.9224173    153.90365  0.031434569   0.03216565            2 
  409000    1.1785729    -6.909095    154.36413  0.031451533  0.032159149            2 
  410000    1.1888347   -6.8460149    155.50024  0.031605741  0.032154067            2 
  411000    1.1882253   -6.8970236    155.81506  0.031592672  0.032149464            2 
  412000    1.1915634   -6.9233698    155.51945    0.0314562  0.032143286            2 
  413000    1.1637487   -6.9321627    155.64995  0.031406365  0.032137461            4 
  414000    1.1765782   -6.9697628    155.58423  0.031317276  0.032131992            5 
  415000    1.1727886   -6.9349377    156.82579  0.031491122  0.032126191            1 
  416000    1.1614977   -6.8824655    158.02973  0.031656596  0.032120968            2 
  417000    1.1806712   -6.9546747    157.41874  0.031458581  0.032115775            2 
  418000    1.2037965   -6.9093382    158.22432  0.031543924  0.032110933            5 
  419000    1.1865023   -6.8954687    158.69625  0.031562501  0.032106666            2 
  420000     1.163938   -6.9311501    158.19756  0.031388405  0.032102175            3 
  421000    1.1635644   -6.9396111    158.77076  0.031427308  0.032096412            3 
  422000    1.1532101   -6.8716109    159.98603  0.031592818  0.032090698            2 
  423000    1.2036297   -6.9286818    159.53265  0.031428811  0.032086529            3 
  424000    1.1800615   -6.9196455    160.55113   0.03155486   0.03208162            4 
  425000     1.183078   -6.9597363    160.46484  0.031463693  0.032077481            3 
  426000    1.1937405   -6.8826909    161.67286  0.031626146  0.032073551            5 
  427000    1.1742565   -6.9317693    161.43978  0.031506592  0.032069397            4 
  428000    1.1931235   -6.9179217    161.23523  0.031393152  0.032064571            3 
  429000    1.1834415   -6.9577425    161.43827  0.031359415  0.032059018            5 
  430000    1.2035264   -6.9001117    161.85664  0.031367566   0.03205327            5 
  431000    1.2011549    -6.932779    161.77387  0.031278784  0.032047935            3 
  432000    1.2133138   -6.9164093    162.13476  0.031275995  0.032043113            2 
  433000    1.1745881   -6.9316847    162.61609  0.031296399  0.032036407            2 
  434000    1.2234482   -6.9271913    163.36784  0.031368634  0.032030928            6 
  435000      1.16747   -6.9417085    162.84088  0.031195572  0.032024256            3 
  436000    1.1733502   -6.9764536    163.53194  0.031256104  0.032017354            3 
  437000    1.1979335   -6.9636294    163.69048  0.031214812   0.03201127            3 
  438000    1.2100485   -6.9474983    164.61374  0.031319205  0.032004874            3 
  439000    1.1892451   -6.9468864    164.76074  0.031275768  0.031999251            2 
  440000    1.1781689   -6.9662219    165.60732  0.031365024  0.031993503            6 
  441000    1.1854999   -6.8673014    166.62463  0.031486136  0.031987912            3 
  442000    1.1829926   -6.9682202     166.1057  0.031317062  0.031982464            2 
  443000     1.183895   -6.9235272    166.75454  0.031368423  0.031977295            3 
  444000    1.1905512   -6.8531037      168.072  0.031545044    0.0319732            2 
  445000    1.2037339   -6.9602765    167.51752  0.031370323  0.031969521            4 
  446000    1.1829967   -6.9244473    167.92454  0.031376035  0.031964703            2 
  447000    1.2020372   -6.9355944    168.21867  0.031360676  0.031960151            2 
  448000    1.1827872   -6.9216233    168.61219  0.031363874  0.031955778            3 
  449000     1.171878   -6.9482463    168.51375  0.031275752  0.031951788            1 
  450000    1.2145251   -6.9897894    168.76592  0.031252948  0.031947255            2 
  451000    1.1937244   -6.9459767    170.13471  0.031436568  0.031943261            3 
  452000    1.1839996   -6.9471321    170.08675  0.031358177  0.031939016            2 
  453000    1.1957103   -6.8934241    170.60943  0.031385106  0.031934124            2 
  454000    1.1760426   -6.9354957    170.85626  0.031361282  0.031929472            8 
  455000    1.1793621   -6.9513484    171.07823   0.03133301  0.031924093            4 
  456000    1.1672367   -6.9651538    170.51693   0.03116172  0.031918913           10 
  457000    1.1877271   -7.0070577    170.91652  0.031166396  0.031912313           10 
  458000    1.1646135   -6.9821326    171.18337  0.031146902  0.031905115            1 
  459000    1.2003821   -6.9310382    171.50191  0.031136876   0.03189871            2 
  460000    1.1915741   -6.9207109    171.97237  0.031154414  0.031891793            2 
  461000    1.1722096   -6.8979206    172.21224  0.031130195  0.031884656            5 
  462000    1.2062232   -6.9572898    172.84585    0.0311771  0.031879103            1 
  463000    1.1717266   -6.9381189    173.21126  0.031175533  0.031873106            5 
  464000    1.1804401   -6.9311214    173.83728  0.031220777  0.031867138            6 
  465000    1.1922428   -6.9527373    174.12427  0.031205066  0.031861257            1 
  466000    1.1709482   -6.9074247    174.88226  0.031273651  0.031855026           10 
  467000    1.1917173   -6.9561185    174.86792  0.031204125  0.031848848            3 
  468000     1.179408    -6.993269    174.17007  0.031013189   0.03184174            4 
  469000    1.1685834   -6.9227274    175.27708  0.031143759   0.03183525            2 
  470000    1.1881001   -6.9003457    176.41926  0.031280011  0.031829832            2 
  471000    1.1732667   -6.9619985      177.034  0.031322364  0.031825295            3 
  472000    1.1644068   -6.9657434    176.99093  0.031248398  0.031820679            6 
  473000    1.1561008   -6.9304496    177.63587   0.03129596  0.031816115            1 
  474000     1.201523   -6.9415872    178.02231  0.031297875  0.031811226            6 
  475000    1.1559576    -6.917111    178.75977  0.031361364  0.031807212            3 
  476000    1.1790192   -6.9733858    178.42327  0.031236567  0.031802781            2 
  477000    1.2049121   -6.9587734    178.58042  0.031198535  0.031799039            2 
  478000    1.1636879   -6.9437777    179.63126  0.031316467   0.03179519            1 
  479000    1.1875232   -6.9157778    180.82549  0.031458854  0.031792274            6 
  480000    1.1740815   -6.9252048    180.28566  0.031299594  0.031788328            3 
  481000    1.1671509    -6.972224     179.7349  0.031139102  0.031783917            1 
  482000    1.1809998   -6.9594078     180.3778  0.031185649  0.031778827            1 
  483000     1.179825   -6.9114751    181.48481  0.031312079  0.031774495            5 
  484000    1.1591167   -6.9477423    181.29827  0.031215267  0.031769939            3 
  485000    1.1529812   -6.9427938    181.75038  0.031228587  0.031765937            2 
  486000    1.1990844   -6.9676425    182.18104  0.031238175  0.031761364            2 
  487000    1.1843264   -6.9737794    182.27656  0.031190377  0.031756658            2 
  488000    1.1540048   -6.9732981    183.27911  0.031297661  0.031751953            2 
  489000      1.19099   -6.9720357    183.23873  0.031226777  0.031747919            2 
  490000    1.1697277   -6.9717466    183.00378  0.031123092  0.031743409            2 
  491000    1.1777814   -6.9816474     183.3378  0.031116395  0.031739168            5 
  492000    1.2046118   -6.9514431    184.14296  0.031189525  0.031734585            2 
  493000    1.1598296   -6.9653147     184.0632  0.031112779  0.031729549            2 
  494000    1.1610647   -6.9999935    184.36326  0.031100414  0.031724107            1 
  495000    1.1603936   -6.9920751    184.29759   0.03102653  0.031718291            3 
  496000    1.1563909    -6.920647     185.3355  0.031138356   0.03171288            1 
  497000    1.1843827   -6.9949409    185.33502  0.031075624  0.031707633            2 
  498000    1.1781596   -6.9417297    185.67795  0.031070607  0.031701841            2 
  499000    1.1734037   -6.9549255    186.56839  0.031157045  0.031697284            2 
  500000    1.1599267   -6.9330929    186.62784  0.031104641  0.031693197            4 
  501000    1.1950418   -6.9147958    187.99463  0.031269899  0.031688899            2 
  502000      1.19355   -6.9755059    187.20827  0.031077069   0.03168478            2 
  503000    1.1757175   -6.9796096    187.73298  0.031102217  0.031679995            3 
  504000    1.1755358   -6.9721605    188.56423  0.031177948  0.031674687            3 
  505000    1.1708718   -6.9435836    188.90796  0.031172931  0.031669675            2 
  506000    1.1718115   -6.9778061    188.64544   0.03106809  0.031663724            2 
  507000    1.1730065   -6.9612598    189.01626  0.031067761  0.031657934            3 
  508000    1.1903454   -6.9782718    189.25772  0.031046214  0.031652029            2 
  509000    1.1844911   -6.9775663    190.34199  0.031162735  0.031646719            2 
  510000    1.1594496   -6.9295547    190.54984  0.031135596  0.031641666            1 
  511000     1.179396   -6.9696171    190.53535  0.031072301  0.031636525            5 
  512000    1.1758988   -6.9795535    191.10507   0.03110434  0.031632246            2 
  513000    1.1721423   -6.9664911    192.38361  0.031251399  0.031627922            1 
  514000    1.2068266   -6.9952527    191.65007  0.031071672  0.031624192            3 
  515000    1.1877965   -6.9608707    192.85369  0.031206098  0.031620103            4 
  516000    1.1822971   -6.9755435    192.57058    0.0310999  0.031615529            1 
  517000     1.176576   -7.0056928    193.39757  0.031173045  0.031610668            3 
  518000    1.1496689   -6.9841614    193.46208  0.031123244   0.03160661            2 
  519000    1.1499304   -6.9514221    193.84815  0.031125265  0.031602988            2 
  520000    1.1972296   -6.9579706    194.68213  0.031199059    0.0315994            4 
  521000    1.1370953   -6.9890375    195.24685  0.031229502   0.03159611            2 
  522000    1.1522765   -6.9755541    195.28688  0.031176066  0.031592391            2 
  523000    1.1475115   -6.9724181    195.62235  0.031169908  0.031588784            3 
  524000    1.1636735   -7.0281499    195.12017  0.031030561  0.031584751            2 
  525000    1.1888717   -6.9869421    195.59654   0.03104707  0.031580355            5 
  526000    1.1753968   -6.9742087     196.5588  0.031140494  0.031575905            3 
  527000     1.179561   -6.9556488    196.92775  0.031139745  0.031572056            3 
  528000    1.1879327   -6.9730492    197.56365  0.031181131  0.031569015            2 
  529000    1.1523486   -7.0163181    198.19729  0.031222005  0.031565618            3 
  530000    1.1898337   -6.9727349    198.59954  0.031226343  0.031562946            7 
  531000    1.1701225   -7.0063176      198.038  0.031079411  0.031559613            3 
  532000    1.1694717    -6.955971    199.45918  0.031243605  0.031556938            2 
  533000    1.1719104   -6.9604801    199.76267  0.031232437   0.03155396            1 
  534000    1.1498483   -6.9952826    199.40108  0.031117522  0.031550795            1 
  535000    1.1691362   -7.0191416     199.7224  0.031109408  0.031547196            2 
  536000    1.1659551   -6.9559038    200.09794  0.031109754  0.031543155            4 
  537000    1.1733581   -6.9495889    200.26424  0.031077629  0.031539433            2 
  538000    1.1458184   -6.9621889    200.37603  0.031037179  0.031535684            4 
  539000    1.1958345   -7.0046476    201.62475  0.031172657  0.031531238            3 
  540000    1.1560056   -6.9941508    201.40176  0.031080518  0.031527044            3 
  541000    1.1552328   -7.0002403    201.54749  0.031045516  0.031523068            2 
  542000    1.1702302   -6.9538216    201.66844  0.031006833  0.031518348            2 
  543000    1.1360402   -6.9880464    202.64858  0.031100151  0.031513625            2 
  544000    1.1524509   -6.9877926    202.34432  0.030996372  0.031508645            1 
  545000    1.1792733    -6.940766    202.38986  0.030946461  0.031503888            1 
  546000    1.1526319   -6.9119592    203.91082   0.03112192  0.031499363            3 
  547000    1.1462905   -6.9937074    203.21633  0.030959222  0.031494019            3 
  548000    1.1603129   -6.9864665    203.36524  0.030925371  0.031489079            1 
  549000    1.1639155   -6.9916853    203.58493  0.030902388  0.031483992            3 
  550000    1.1636977   -6.9941558    205.15372  0.031083897  0.031478978            3 
  551000     1.146852   -6.9766817    204.38751  0.030911601  0.031473692            5 
  552000    1.1691511   -6.9770122    204.47123  0.030868242  0.031468185            3 
  553000    1.1839258   -7.0079342    204.34194  0.030792939  0.031462078            1 
  554000    1.1846342   -6.9709873    205.40134  0.030896712  0.031455996            9 
  555000    1.1385245   -6.9618834    205.69645  0.030885353  0.031449764            2 
  556000    1.1682516     -6.94952    206.66233   0.03097457  0.031444502            1 
  557000     1.161355   -7.0037501    207.06034  0.030978508  0.031438991            2 
  558000    1.1279289   -6.9835369     206.8749  0.030895296  0.031433515            4 
  559000    1.1705051   -6.9765353    206.85977  0.030837771  0.031427349            4 
  560000    1.1380658   -6.9406971    207.43375  0.030868118  0.031421588            3 
  561000    1.1576549    -6.955223    208.09491  0.030911306  0.031415568            3 
  562000    1.1706438   -6.9971338    208.03672  0.030847675  0.031409756            3 
  563000    1.1786245   -6.9927019    208.36779  0.030841887   0.03140334            2 
  564000    1.1838422   -6.9989649    208.21897  0.030765214  0.031397611            3 
  565000    1.1680567   -6.9902351    209.04911  0.030833202  0.031392177            5 
  566000    1.1492471   -6.9886414     209.1717  0.030796776  0.031386773            3 
  567000     1.168584   -6.9249003    210.65138  0.030959932  0.031381096            1 
  568000    1.1358025   -6.9843943     210.3139  0.030855913  0.031375887            5 
  569000    1.1591895   -6.9490385    211.34238   0.03095231  0.031370305            2 
  570000    1.1516485    -6.938568      212.165  0.031018275  0.031364909            5 
  571000    1.1639259   -6.9701767    211.15041   0.03081588  0.031359843            3 
  572000    1.1608604   -6.9771611      211.947   0.03087806   0.03135478            2 
  573000      1.18169   -6.9652278    212.19773  0.030860635  0.031349953            1 
  574000    1.1091184   -6.9909681    211.71912  0.030737386  0.031344694            4 
  575000    1.1516724   -7.0106797    212.02032  0.030727582  0.031338592            2 
  576000    1.1854572   -6.9861243    212.21603   0.03070255  0.031332651            4 
  577000    1.1440489   -7.0158909    213.01861  0.030765252  0.031326586            2 
  578000    1.1749748    -7.048636    212.45832  0.030631245  0.031319758            4 
  579000    1.1533616   -7.0355829    212.32487  0.030559134   0.03131324            2 
  580000    1.1423214   -6.9902001    214.27863   0.03078716  0.031306966            3 
  581000    1.1606518     -6.95164    214.61659  0.030782644  0.031301281            4 
  582000    1.1865933   -6.9708367    214.15464  0.030663608  0.031295201            4 
  583000    1.1701785       -7.027    213.96583  0.030584023  0.031288794            2 
  584000    1.1368752   -7.0163501    214.57062  0.030617953  0.031282763            6 
  585000    1.1646416   -6.9769129    215.39665  0.030683284  0.031276452            4 
  586000     1.132057   -6.9538704    216.29797  0.030759097  0.031270388            2 
  587000    1.1524621   -7.0075301    216.07574  0.030675148  0.031264258            4 
  588000    1.1490229   -7.0027885    215.98415  0.030609999  0.031257544            2 
  589000    1.1570549   -6.9487537    217.01176  0.030703417  0.031251059            1 
  590000    1.1555331   -7.0490202    216.15672   0.03053061  0.031243991            3 
  591000    1.1610865    -7.036232    216.93994  0.030589387  0.031237104            3 
  592000    1.1580565   -7.0132293     217.5248  0.030620046  0.031229918            3 
  593000    1.1574899   -7.0187115    217.17259  0.030518914  0.031222303            2 
  594000    1.1614985   -6.9493388      217.623  0.030530723  0.031214444            2 
  595000    1.1675011   -6.9841004    217.51998  0.030464984  0.031206439            4 
  596000    1.1880904   -7.0044815    217.84471  0.030459272  0.031198122            1 
  597000    1.1284701   -7.0652915     217.0867  0.030302442  0.031189575            5 
  598000    1.1608005   -6.9777812    218.37451   0.03043123  0.031180983            4 
  599000    1.1384795   -7.0086927    217.90992  0.030315793  0.031172263            5 
  600000    1.1747462   -7.0783591    217.36212  0.030189183  0.031162889            3 
  601000    1.1813622   -6.9932154    219.37274   0.03041774  0.031153521            2 
  602000    1.1521317   -6.9720751    219.29968  0.030357099  0.031144979            5 
  603000    1.1466486   -6.9980726    219.48186  0.030331931  0.031136298            2 
  604000    1.1558213   -7.0054513    219.31614  0.030258849  0.031127424            2 
  605000    1.1491427   -7.0455197    220.83536  0.030418094  0.031118924            2 
  606000    1.1544027   -7.0227393    221.06696  0.030399747  0.031111151            2 
  607000    1.1198986   -7.0524143     220.6843  0.030297131  0.031102674            4 
  608000    1.1386599   -7.0530062    221.15166  0.030311357  0.031093528            5 
  609000    1.1664193   -6.9770635    221.34701  0.030288316  0.031084881            3 
  610000    1.1806028   -7.0253203     221.6262  0.030276803  0.031076736            3 
  611000    1.1506926   -7.0189326    222.45977   0.03034094   0.03106836            2 
  612000    1.1585416   -6.9978763    222.78664  0.030335872  0.031059495            2 
  613000    1.1583861   -7.0354515    222.96184  0.030310201  0.031050991            4 
  614000    1.1478299   -7.0367644    222.74557  0.030231483  0.031042539            8 
  615000    1.1242945   -6.9872385    223.35422  0.030264799  0.031033743            2 
  616000    1.1576445   -7.0015147    223.38931  0.030220416  0.031025439            1 
  617000    1.1734971   -6.9877707    223.42769   0.03017662  0.031016494            2 
  618000     1.149633   -6.9859963    223.10676  0.030084515  0.031006984            2 
  619000     1.143572   -7.0079391    223.26668  0.030057443  0.030997412            2 
  620000     1.170176   -6.9953658    223.97647  0.030104364  0.030987406            2 
  621000    1.1600868   -6.9962264    224.66501  0.030148284  0.030977656            3 
  622000    1.1441173   -7.0256222    224.56643  0.030086606  0.030967739            2 
  623000    1.1430759   -7.0253091    224.53731  0.030034418  0.030957737            2 
  624000    1.1486478   -7.0804576     224.6606   0.03000275  0.030947457            1 
  625000    1.1455469   -7.0339362    225.31647  0.030042196  0.030937654            9 
  626000    1.1651452   -7.0163272    226.96266  0.030213347  0.030928507            1 
  627000    1.1660537   -7.0256462    226.93377   0.03016132  0.030919952            2 
  628000    1.1174525   -7.0009321    227.18604  0.030146767  0.030911664            2 
  629000    1.1571132    -7.043287    227.65755  0.030161307  0.030902897            3 
  630000    1.1401011   -7.0543354    227.26348  0.030061307  0.030893806            4 
  631000    1.1596255   -6.9946238    228.95714  0.030237341  0.030884932            2 
  632000    1.1486136   -7.0095481    228.26456  0.030098175  0.030876394            2 
  633000    1.1808367   -7.0253154    228.82234  0.030124057  0.030867355            3 
  634000    1.1624467   -7.0051761    229.02005   0.03010253  0.030858578            2 
  635000    1.1317706   -7.0404935     229.0726  0.030062021  0.030850396            3 
  636000    1.1498579   -6.9867379    230.54156  0.030207227  0.030842007            2 
  637000    1.1314679   -7.0189217    230.38583  0.030139433   0.03083375            5 
  638000    1.1632936   -7.0636258    229.84132  0.030021072  0.030825351            2 
  639000    1.1632197   -7.0466423    230.89389  0.030111358  0.030816735            3 
  640000    1.1342888   -7.0380263    231.80402  0.030182815  0.030808676            8 
  641000    1.1605403   -6.9882331    232.48303  0.030224003  0.030800502            5 
  642000    1.1561142   -6.9852756    232.92692  0.030234543  0.030792553            1 
  643000    1.1271796   -7.0128016    232.46874  0.030128141  0.030784899            2 
  644000    1.1334659   -7.0313319    233.15142  0.030169697  0.030776708            2 
  645000    1.1514868   -7.0286303    233.19031  0.030127946  0.030768411            3 
  646000    1.1748761    -7.053277    232.90287   0.03004423   0.03075981            2 
  647000    1.1317132   -7.0119703    234.02333  0.030142109  0.030751564            1 
  648000    1.1481026   -7.0182565    233.17657  0.029986699  0.030743522            4 
  649000    1.1308304   -7.0419497     233.9947  0.030045544  0.030735343            1 
  650000     1.152825   -7.0039536    234.26801  0.030034361  0.030726894            3 
  651000    1.1344254   -7.0849548    234.50797  0.030018941  0.030718608            2 
  652000     1.148451   -7.0207001    234.38268  0.029956887  0.030710056            2 
  653000    1.1446574   -7.0267779    235.04935  0.029996088  0.030702021            2 
  654000    1.1534291   -7.0249277     235.9243   0.03006171   0.03069422            3 
  655000    1.1453421   -6.9898331    236.47612   0.03008602  0.030686589            3 
  656000    1.1468789   -6.9783693    236.55866  0.030050642  0.030678126            1 
  657000    1.1624744   -7.0158352    237.01925  0.030063325  0.030669969            1 
  658000    1.1438752    -7.057761    236.15585  0.029908289  0.030661324            2 
  659000    1.1870113    -7.012299    236.43936  0.029898755  0.030652496            4 
  660000    1.1158066   -7.0867879     236.8795  0.029909027   0.03064377            3 
  661000    1.1652368   -7.0180363    237.71801  0.029969492  0.030635468            1 
  662000    1.1319761   -7.0062263    238.82058  0.030063014  0.030627821            2 
  663000    1.1384576   -7.0166338    239.69678    0.0301278  0.030620187            4 
  664000    1.1465997   -7.0354352    239.07795  0.030004762    0.0306125            6 
  665000    1.1578888   -7.0392928    240.07354  0.030084404  0.030605291            2 
  666000     1.143774   -6.9919118    240.54475  0.030098192  0.030597731            3 
  667000    1.1373618   -7.0450506    240.43372  0.030039195  0.030590391            2 
  668000    1.1443015   -6.9819734    241.48723  0.030125653   0.03058284            3 
  669000    1.1567034   -7.0230714    240.75126  0.029988946   0.03057524            3 
  670000    1.1470403   -7.0291774    240.76083  0.029945377  0.030567231            2 
  671000    1.1424656   -7.0220072    241.09123  0.029941782  0.030559017            5 
  672000     1.145418   -7.0164447    241.45828  0.029942743  0.030551282            2 
  673000    1.1425327   -7.0150883    241.98611  0.029963609   0.03054355            2 
  674000    1.1446672   -7.0018337    242.32455  0.029960998  0.030535521            3 
  675000    1.1140075   -7.0805034    241.47505  0.029811735  0.030526926            4 
  676000    1.1426299    -7.036812    242.07832  0.029842002  0.030518174            6 
  677000    1.1441496   -7.0465645    242.08668  0.029798952   0.03050956            2 
  678000    1.1435429   -7.0683905    242.80777  0.029843629  0.030501402            2 
  679000    1.1405835   -7.0412321     242.6454   0.02977975  0.030492968            2 
  680000    1.1302398   -7.0637139    243.39283  0.029827553   0.03048458            3 
  681000    1.1421593   -7.0404721    244.37171  0.029903538  0.030476315            3 
  682000    1.1395201   -7.0250194     245.0019  0.029936694  0.030468436            2 
  683000    1.1226464   -7.0261103    244.88624  0.029878751  0.030460662            2 
  684000    1.1475999   -7.0477268    244.36384  0.029771423  0.030452174            2 
  685000    1.1528239   -6.9964931    245.25133  0.029835929  0.030443647            3 
  686000    1.1568998   -7.0065033    246.21976  0.029910077  0.030435702            4 
  687000    1.1190617    -7.011702    245.56601   0.02978724  0.030427847            2 
  688000    1.1381253   -7.0312307    246.40494   0.02984556  0.030420344            1 
  689000    1.1303953   -7.0769834    246.48505  0.029811932  0.030412907            2 
  690000    1.1308094    -7.063471    247.19158  0.029854056  0.030405483            4 
  691000    1.1161655   -7.0655509    247.22747  0.029815179  0.030397361            2 
  692000    1.1322311   -7.0289821    247.37932  0.029790381  0.030389755            3 
  693000    1.1640454   -7.0694281    247.35375  0.029744318  0.030381559            3 
  694000    1.1427412   -7.0355882     247.8711  0.029763581  0.030373851            2 
  695000    1.1408487   -7.0148261     248.3922  0.029783238  0.030366063            4 
  696000    1.1222977   -7.0454237    247.95121  0.029687644  0.030357858            2 
  697000     1.147134   -7.0326329    248.62611  0.029725742  0.030349107            5 
  698000    1.1275171    -7.010512    249.12893  0.029743186  0.030340827            3 
  699000    1.1358064   -7.0468636    248.75869  0.029656496  0.030332303            2 
  700000    1.1628799    -7.035927     249.9379  0.029754512  0.030324079            3 
  701000    1.1590614     -7.01524    249.61678  0.029673892  0.030315685            3 
  702000    1.1332034   -6.9947223     250.9233  0.029786716  0.030307799            2 
  703000    1.1283227   -7.0317232    250.14341  0.029651898  0.030299429            2 
  704000     1.140959   -7.0416298    250.59585  0.029663335   0.03029036            1 
  705000    1.1162167   -7.0695966    251.28213  0.029702379  0.030281855            4 
  706000    1.1617865   -7.0572408    249.81888  0.029487592  0.030272902            3 
  707000    1.1591288   -7.0760584    251.01538  0.029586914  0.030264075            3 
  708000    1.1420908   -7.0276254     251.7544   0.02963211  0.030255568            3 
  709000    1.1375667   -7.0258578    252.12264  0.029633596  0.030247067            5 
  710000     1.124499   -7.0444778    251.44672  0.029512526  0.030238466            4 
  711000    1.1571778   -7.0365379    252.48997  0.029593292  0.030230126            2 
  712000    1.1395107   -7.0457958    253.38893  0.029656944  0.030221861            2 
  713000     1.104266   -7.0717181    252.95972  0.029565185   0.03021313            2 
  714000    1.1464139     -7.10201      252.729  0.029496849  0.030204545            3 
  715000    1.1272549   -7.0911572    253.61068  0.029558354  0.030196121            5 
  716000     1.132902   -7.0664297    253.66513  0.029523408  0.030187503            2 
  717000    1.1411485   -7.1048598    253.44829   0.02945703  0.030179233            2 
  718000    1.1337657   -7.0748412     254.0559  0.029486525  0.030170389            2 
  719000     1.116797   -7.0559848    254.66904  0.029516579  0.030161717            8 
  720000    1.1427191   -7.0739531    254.90874  0.029503326  0.030153311            2 
  721000    1.1496628   -6.9944998    256.59616  0.029657439  0.030145292            4 
  722000    1.1233026   -7.0697387    255.17694  0.029452556   0.03013722            2 
  723000    1.1430681   -7.0708009    256.08969  0.029517022  0.030128721            1 
  724000    1.1271893   -7.0818864    255.43225  0.029400581  0.030120196            4 
  725000    1.1328914   -7.0621175    255.79176  0.029401352  0.030111663            2 
  726000    1.1440749   -7.0503961     256.7272  0.029468227  0.030102974            2 
  727000    1.1499956   -7.0884525    256.13784  0.029360137  0.030094483            3 
  728000    1.1246037   -7.1034487    255.92726  0.029295703  0.030085063            2 
  729000    1.1375724   -7.0680406    256.77108  0.029351975  0.030075597            3 
  730000    1.1519985   -7.0731414    256.74084  0.029308315  0.030066324            2 
  731000    1.1448497   -7.0424085    256.86725  0.029282632  0.030056659            3 
  732000    1.1435416   -7.0849753     257.1489  0.029274692  0.030047012            5 
  733000    1.1403503   -7.0474654    257.83457  0.029312707  0.030037322            1 
  734000    1.1398257    -7.065925    256.94694  0.029171996  0.030027489            7 
  735000    1.1525675   -7.0801435    258.53717  0.029312604  0.030017673            3 
  736000    1.1417575   -7.0602601    258.62496  0.029282717  0.030008264            4 
  737000    1.1325963   -7.0725717    258.58943  0.029238967  0.029998865            5 
  738000    1.1597685    -7.019225    259.47658  0.029299524  0.029989527            5 
  739000    1.1474631   -7.0150487    260.31005  0.029353862  0.029980645            1 
  740000    1.1430004   -7.0535447    260.66905  0.029354622  0.029971599            3 
  741000    1.1437541   -7.0591256    259.30069  0.029161121  0.029962248            7 
  742000    1.1197405   -7.0513154    261.10005  0.029323905  0.029953025            2 
  743000    1.1351588   -6.9930689    261.60024  0.029340538  0.029944218            3 
  744000    1.1193993   -7.0563919    261.32481  0.029270252  0.029935452            2 
  745000    1.1397639   -7.0946776    260.58673  0.029148403  0.029926275            4 
  746000    1.1410151   -7.0443232    262.14257  0.029283129  0.029917131            2 
  747000    1.1605115   -7.0679675    262.00824  0.029228943  0.029907966            2 
  748000    1.1311135   -7.0617983    262.95204  0.029295014   0.02989891            2 
  749000    1.1405341   -7.0693594    262.54989  0.029211158  0.029890181            2 
  750000    1.1263382   -7.0372828    263.79634  0.029310704  0.029881845            7 
  751000    1.1095558   -7.0982268    262.80919  0.029162138  0.029873343            2 
  752000    1.1280313   -7.0728364    263.74316  0.029226858  0.029864325            3 
  753000    1.1274189   -7.0737146    264.46417  0.029267836  0.029856071            3 
  754000    1.1126213   -7.0634335     265.2525  0.029316147   0.02984771            3 
  755000    1.1387355   -7.1070724    264.51852  0.029196305   0.02983922            5 
  756000    1.1169207   -7.0640448    265.70361  0.029288317   0.02983094            3 
  757000    1.1246627   -7.0609459    265.93785  0.029275413  0.029822329            4 
  758000    1.1105457   -7.0609748     266.0943   0.02925399  0.029813831            2 
  759000    1.1463405   -7.0607706    265.59715  0.029160864  0.029805625            3 
  760000    1.0961713    -7.120511    265.63732    0.0291269  0.029796759            2 
  761000    1.1040513   -7.0244401    266.83669  0.029219962  0.029788599            3 
  762000    1.1411844   -7.0891284    267.05152  0.029205109  0.029780015            3 
  763000    1.1166597   -7.0821904    267.10199  0.029172344  0.029771234            6 
  764000    1.1099632   -7.0800255    266.90907  0.029113119   0.02976244            2 
  765000    1.1380564   -7.1096508     267.2379  0.029110883  0.029753555            4 
  766000    1.1482811   -7.0154996    268.88944   0.02925255  0.029745275            2 
  767000    1.1062275   -7.0788881    268.06111  0.029124414   0.02973703            4 
  768000    1.1338501   -7.1230852    267.48546   0.02902403    0.0297282            2 
  769000    1.1171934     -7.06639     268.2551   0.02906969   0.02971945            2 
  770000    1.1257513   -7.0628525    269.54942  0.029172015  0.029711137            3 
  771000     1.102015   -7.0263762    269.90713  0.029172842  0.029702808            6 
  772000    1.1379413   -7.0946069    269.41949  0.029082415   0.02969455            3 
  773000    1.1053866    -7.076163    270.59463  0.029171478   0.02968609            2 
  774000    1.1341373   -7.0931141     269.7838   0.02904649  0.029677332            7 
  775000    1.1183919   -7.0704337    270.53964  0.029090284  0.029668842            2 
  776000    1.1384684   -7.0953091    271.62667  0.029169531  0.029660087            2 
  777000    1.1098115    -7.076745    271.06232  0.029071463  0.029651756            1 
  778000    1.1498207   -7.0523223    272.12927   0.02914838  0.029643471            2 
  779000    1.1300878   -7.1004887    271.92575  0.029089191   0.02963511            2 
  780000    1.1214782   -7.0803709    271.77986  0.029036309  0.029626689            2 
  781000     1.146477   -7.1066534    272.89642   0.02911827  0.029618959            3 
  782000     1.132372   -7.0816726    272.60369  0.029049839  0.029611027            3 
  783000    1.1279604   -7.0463796    274.08955  0.029170875  0.029602967            9 
  784000    1.1046598   -7.0672546    273.68253  0.029090405   0.02959491            3 
  785000    1.1278815   -7.0709117    273.77327   0.02906298  0.029586828            5 
  786000    1.1167294   -7.1286649     273.8784   0.02903715  0.029578631            1 
  787000    1.1162258   -7.1169474    274.45463   0.02906127  0.029570656            2 
  788000    1.1384852   -7.1026849    274.29729  0.029007751  0.029563017            2 
  789000    1.1113627    -7.084558    275.53529  0.029101742  0.029555578            3 
  790000    1.0902738   -7.0713621    275.94483  0.029108105  0.029548292            2 
  791000    1.1222811   -7.0774781    277.57301  0.029242838  0.029541093            4 
  792000    1.1106276   -7.0953762     276.3621  0.029078504  0.029533754            5 
  793000     1.105332   -7.0703063    277.78636  0.029191505  0.029526852            3 
  794000    1.1327923   -7.0994431    277.62129  0.029137415  0.029520015            2 
  795000    1.1187447   -7.1028477    277.33478  0.029070731  0.029512794            5 
  796000     1.151021    -7.050347    278.43324  0.029149208  0.029505642            5 
  797000    1.1157384   -7.1092745    277.59561  0.029025053  0.029498271            4 
  798000     1.141232    -7.102657    276.63319  0.028888178  0.029490311            4 
  799000    1.1090353   -7.1139897    277.03304  0.028893726  0.029482317            3 
  800000    1.1394814   -7.0818711    278.76511  0.029038032  0.029474279            3 
  801000    1.1318197    -7.092239    278.45429  0.028969444  0.029466334            5 
  802000    1.1265842   -7.0828719    278.92488   0.02898222  0.029458223            2 
  803000    1.1391299     -7.06332    279.49301  0.029005087  0.029450549            1 
  804000    1.1125642   -7.0614602    279.81206  0.029002079  0.029442944            5 
  805000    1.1332379   -7.0686849     280.3945  0.029026345   0.02943572            2 
  806000    1.1214813   -7.0619039    280.25296  0.028975699  0.029428565            3 
  807000    1.1202636   -7.1074718    280.70661  0.028986639  0.029421047            1 
  808000     1.089809   -7.0636511    281.49862  0.029032448  0.029413712            2 
  809000    1.1203097   -7.1099085    281.03798  0.028949113  0.029406148            2 
  810000    1.1475609   -7.0307679    282.21516  0.029034482  0.029398516            2 
  811000    1.1175381   -7.1441409    281.13012  0.028887188  0.029390703            4 
  812000     1.125414   -7.1187146    282.16809  0.028958137  0.029382828            4 
  813000    1.1322097   -7.0532155    283.31407  0.029039982  0.029375512            4 
  814000    1.1259031   -7.0938295    283.76823  0.029050801  0.029368177            5 
  815000    1.1156303   -7.0931212    283.47802  0.028985483   0.02936098            4 
  816000    1.1417398    -7.088892    284.40416  0.029044543  0.029354117            4 
  817000    1.1403982   -7.1264604    283.54558  0.028921418  0.029346972            2 
  818000     1.118767   -7.1183189     284.1177  0.028944346  0.029340149            1 
  819000    1.1311451    -7.073895    284.89454  0.028988048  0.029333294            2 
  820000    1.1200932   -7.1224383    284.14015  0.028876032  0.029326338            4 
  821000    1.1117849   -7.0847414    285.24189  0.028952688  0.029319136            4 
  822000    1.0988929   -7.1147931    284.65521   0.02885799  0.029311914            2 
  823000    1.1258992   -7.1065419    284.95383  0.028853162  0.029304379            3 
  824000    1.0983785   -7.1214197    285.17849  0.028840867   0.02929686            2 
  825000    1.1126054   -7.0634268    286.40082  0.028929376  0.029289679            3 
  826000    1.1270765   -7.1106421    286.79705  0.028934327   0.02928269            6 
  827000     1.118303   -7.1170045    286.36761  0.028856067  0.029275313            1 
  828000    1.1012164   -7.1385907    286.23014  0.028807381  0.029267927            1 
  829000    1.1217985    -7.085753      287.203  0.028870427  0.029260699            3 
  830000    1.1134181   -7.0758776    287.95016  0.028910659  0.029253731            4 
  831000    1.1185641   -7.0576576    289.26879  0.029008102  0.029246782            2 
  832000     1.129098   -7.1425064    288.08786  0.028854954  0.029239872            3 
  833000    1.1286138   -7.1231123    288.27196  0.028838731  0.029232731            3 
  834000    1.0973074   -7.0894262    288.70419  0.028847341  0.029225421            4 
  835000    1.1049656    -7.124708    289.07228  0.028849529  0.029218405            3 
  836000    1.1295546   -7.0774993    290.23645  0.028931065  0.029211272            2 
  837000    1.0912051   -7.0839465    290.48898  0.028921643  0.029204386            2 
  838000    1.1279998   -7.1196444    289.04346  0.028743383  0.029197565            5 
  839000    1.1262615   -7.1352144     290.3298  0.028836889  0.029190439            2 
  840000    1.1037758   -7.0952852      290.978  0.028866865  0.029183256            3 
  841000    1.1385461   -7.0619586    290.90512  0.028825319  0.029176273            3 
  842000    1.1216349   -7.1402386     290.5073  0.028751712  0.029169069            3 
  843000    1.1173478   -7.1085939    291.30708  0.028796667  0.029161831            3 
  844000    1.1475552   -7.0984044    291.83042   0.02881422  0.029154628            4 
  845000    1.1283298    -7.104134    292.92068  0.028887641   0.02914743            2 
  846000    1.1304859   -7.1151569    291.87045  0.028750044  0.029140545            4 
  847000    1.1199303   -7.0628939    293.99207   0.02892484  0.029133745            6 
  848000    1.1002713   -7.0827187    293.60003  0.028852204  0.029127302            5 
  849000    1.1231969   -7.0748411     294.2013  0.028877238  0.029120652            3 
  850000    1.1385784   -7.1534527    294.15234  0.028838465  0.029114149            3 
  851000    1.1082374   -7.0806023    294.44768  0.028833498  0.029107567            5 
  852000     1.117073   -7.1112346    293.57508  0.028714307  0.029100895            1 
  853000    1.1234219   -7.1294304    294.04368  0.028726424  0.029094239            4 
  854000    1.1232249   -7.0682104    295.58813  0.028843494   0.02908738            6 
  855000    1.1368087   -7.1320132    294.13826  0.028668446  0.029080683            6 
  856000    1.1136592   -7.0978774    295.96879  0.028813161  0.029073857            4 
  857000    1.1164898   -7.0802214    295.78224    0.0287614  0.029066864            3 
  858000    1.1149626    -7.141294    294.99261  0.028651186  0.029059921            2 
  859000     1.100072   -7.1117821      296.833  0.028796372  0.029053069            2 
  860000    1.1230645    -7.126088    295.82631   0.02866534  0.029045774            4 
  861000    1.1460067   -7.1293228    296.05225  0.028653915  0.029038655            3 
  862000    1.1122165   -7.1500448    295.61791  0.028578685  0.029031109            4 
  863000    1.1188242   -7.1231931    296.71846  0.028651841  0.029023889            6 
  864000    1.0982514   -7.0895531    297.52844  0.028696802  0.029016617            1 
  865000    1.1325749   -7.1261624    297.00556  0.028613253  0.029009136            3 
  866000    1.1302435   -7.0882872    297.87983  0.028664341  0.029001592            3 
  867000    1.0995232   -7.1004381    297.52827  0.028597488  0.028994163            4 
  868000    1.1053881    -7.145289    296.76094  0.028490873  0.028987028            1 
  869000    1.1167568   -7.1479685    298.06045  0.028582706  0.028979558            4 
  870000    1.1058477   -7.1538565    297.46809  0.028493112  0.028972237            2 
  871000    1.1235757   -7.1101033    299.56792  0.028661301   0.02896498            3 
  872000    1.1078379   -7.1211971    299.25308  0.028598344  0.028957688            2 
  873000    1.1142935   -7.1311428    298.97282  0.028538833  0.028950611            4 
  874000    1.1142435   -7.1236571    300.47061  0.028648991  0.028943749            2 
  875000    1.1279664    -7.124039    300.10777  0.028581693  0.028936417            4 
  876000    1.0882836   -7.1435519    300.63187  0.028598922  0.028929305            2 
  877000    1.0692395   -7.1623781    300.11236  0.028516948   0.02892191            5 
  878000    1.0998086   -7.1529246      299.968  0.028470767  0.028914335            3 
  879000    1.1467542   -7.1639207    300.13787  0.028454482  0.028906593            7 
  880000    1.1277764   -7.0589749    301.12227  0.028515367  0.028899122            5 
  881000    1.1095178   -7.1142519    300.85077  0.028457318  0.028891789            2 
  882000    1.1143164   -7.1485239    301.16161  0.028454423  0.028884126            2 
  883000    1.0951713   -7.0994041    302.77218  0.028574196  0.028876626            4 
  884000    1.1216864    -7.135897    301.62227  0.028433472  0.028869067            2 
  885000    1.1027005   -7.1362177    302.38182  0.028472864  0.028861331            3 
  886000    1.0965742   -7.1011568    303.08472   0.02850684  0.028853865            3 
  887000    1.1051808   -7.1224111    302.20298  0.028391862  0.028846343            2 
  888000    1.1434766   -7.1473565    302.91045  0.028426281  0.028838585            2 
  889000    1.0781379    -7.144276    302.07037  0.028315558  0.028830679            3 
  890000    1.0956261   -7.1266973    304.21528  0.028484577  0.028822601            3 
  891000    1.1051657   -7.1483748     303.7038   0.02840477  0.028814809            3 
  892000    1.1249252   -7.1317637    304.09073  0.028409074  0.028807318            1 
  893000    1.1438928   -7.1496594    304.11319  0.028379357  0.028799576            3 
  894000    1.1043432   -7.1711355    303.70729  0.028309778  0.028791716            3 
  895000    1.1135583     -7.13051    305.37279   0.02843322  0.028784259            5 
  896000    1.0896997   -7.1558102    304.71008  0.028339851   0.02877666            1 
  897000    1.0932476   -7.1493151    305.02931  0.028337914  0.028768969            3 
  898000    1.1063807    -7.134385    306.21058  0.028415978  0.028761384            3 
  899000    1.1100763    -7.133602    306.85426  0.028444036  0.028754256            4 
  900000    1.1164833   -7.1471227    305.77073  0.028312105  0.028746857            5 
  901000    1.1276178   -7.1533948    306.10517  0.028311613  0.028739288            5 
  902000    1.1290934   -7.1513395    307.42294  0.028401972  0.028731927            4 
  903000    1.0882738   -7.1537215    307.41946  0.028370198  0.028724129            4 
  904000    1.1274994   -7.1434052    307.40565  0.028337541  0.028716528            3 
  905000    1.1075214   -7.1276967    308.87869  0.028441868   0.02870923            4 
  906000    1.1089312   -7.1119986    308.09327  0.028338233  0.028702139            4 
  907000    1.0953508   -7.1334301    309.01539  0.028391712  0.028694947            4 
  908000    1.1051906   -7.1117183     308.4453  0.028308122  0.028687624            5 
  909000    1.1218332   -7.1405873    309.73956  0.028395632  0.028680391            2 
  910000    1.0905706   -7.1416765    309.91499  0.028380494  0.028673206            3 
  911000    1.1052603   -7.0963301    310.08272  0.028364683  0.028666074            6 
  912000    1.0832732    -7.123403    310.61603  0.028382313  0.028659002            5 
  913000     1.114526   -7.1699184    309.84663     0.028281  0.028651668            3 
  914000    1.1189987   -7.1735496    309.96764  0.028261091  0.028644074            5 
  915000    1.0873616   -7.1426536    310.96757  0.028321273  0.028636874            3 
  916000    1.1103949   -7.1622115    309.93596  0.028196503  0.028629402            2 
  917000    1.1274639   -7.1548582    310.60183  0.028226265  0.028622334            1 
  918000    1.1238414   -7.1269509    311.90896  0.028314175  0.028615235            3 
  919000    1.1000103   -7.1501424    311.76911  0.028270685  0.028607753            2 
  920000    1.1040911   -7.1394489    311.55285  0.028220367  0.028600272            2 
  921000    1.0921918   -7.1061027    312.22328  0.028250387  0.028592707            2 
  922000    1.0942329   -7.1615897    311.66021  0.028168855  0.028585026            4 
  923000    1.1188529   -7.1368408    313.02807  0.028261834  0.028577535            2 
  924000    1.1041562   -7.1675084    311.88107  0.028127802  0.028569778            2 
  925000    1.0912464   -7.1618742    312.72829   0.02817372  0.028562344            2 
  926000    1.0996575    -7.115718    313.20489  0.028186185   0.02855495            3 
  927000    1.1147372   -7.1705486    313.12225  0.028148351  0.028547555            4 
  928000     1.115771   -7.1129774    313.97028   0.02819417  0.028539776            4 
  929000    1.0985987   -7.1766766    313.38787  0.028111578  0.028532005            3 
  930000    1.1139139   -7.1567125    314.75317  0.028203689  0.028524337            2 
  931000    1.1150584   -7.1295015    314.13657  0.028118204  0.028516844            4 
  932000    1.1224322   -7.1607228    314.53752  0.028123884  0.028509481            3 
  933000     1.111051   -7.1347902    314.82245  0.028119189  0.028501694            4 
  934000    1.0923988   -7.1404406    314.51638  0.028061776  0.028493965            5 
  935000    1.1053681   -7.1904747    314.33845  0.028015904  0.028486033            3 
  936000    1.1009835   -7.1529144    315.21373  0.028063901  0.028478217            3 
  937000    1.1298631   -7.1149126     316.0939  0.028112228  0.028470464            4 
  938000    1.1321107   -7.1261917    316.00395  0.028074267  0.028463102            2 
  939000    1.1045715   -7.1671056    315.33699  0.027985178  0.028455448            3 
  940000    1.1076976   -7.1554397    316.37017  0.028047001  0.028447927            1 
  941000    1.0896579   -7.1431805    317.40292  0.028108654  0.028440564            3 
  942000    1.0982363   -7.1196452    318.31888  0.028159844  0.028433214            2 
  943000    1.0808266   -7.1559674    317.81943  0.028085846   0.02842621            4 
  944000    1.1017998   -7.1270747    318.18124  0.028088033   0.02841913            3 
  945000    1.0699452   -7.1677586    317.87108   0.02803096  0.028411745            2 
  946000    1.0873311   -7.1630003    318.88456  0.028090606  0.028404174            6 
  947000    1.1142787   -7.1030765     319.3793  0.028104479  0.028397058            6 
  948000     1.112295   -7.1499394    319.22836  0.028061565  0.028389808            5 
  949000    1.1022362   -7.1473925    318.35247  0.027955082  0.028382385            4 
  950000    1.0975445   -7.1811103    318.32909  0.027923604   0.02837479            3 
  951000    1.1174169   -7.1683725    319.40949  0.027988915   0.02836712            2 
  952000    1.0953058   -7.1203027     320.0062  0.028011747   0.02835944            4 
  953000    1.1174223   -7.1330144    320.81514   0.02805309  0.028351928            4 
  954000    1.1153258   -7.1863727    320.08833  0.027960196   0.02834415            2 
  955000    1.0780712   -7.1572501    320.45228  0.027962677   0.02833661            3 
  956000      1.08115   -7.1637856    319.90761  0.027885949  0.028328863            3 
  957000    1.0976374    -7.160009    320.89163  0.027942496  0.028321001            5 
  958000    1.1065377   -7.1427323     320.9664  0.027919833  0.028313095            3 
  959000     1.106602   -7.1262001    321.32735  0.027922085  0.028304832            4 
  960000    1.1121361   -7.1977581    320.10099  0.027786544  0.028296455           10 
  961000    1.0981243   -7.1336618    321.76522  0.027901944    0.0282882            1 
  962000     1.101146   -7.1145749    321.32852  0.027835111   0.02828005            3 
  963000    1.1082493   -7.1888936    321.63572   0.02783279  0.028272258            3 
  964000    1.0770274   -7.1354183    321.61816    0.0278024  0.028264438            4 
  965000     1.111201   -7.1462827    323.29663  0.027918535  0.028256463            3 
  966000     1.101185   -7.1669051    321.84191   0.02776414  0.028248244            6 
  967000    1.1067192   -7.1487282    323.29026  0.027860243  0.028240157            2 
  968000    1.0843251   -7.1248517    324.18808  0.027908754  0.028232432            5 
  969000     1.081216   -7.1813887     323.7228  0.027839938  0.028224815            8 
  970000    1.1248672   -7.1763895    323.37635  0.027781473   0.02821701            2 
  971000    1.1207781    -7.148379    324.31045  0.027833029  0.028209472            5 
  972000    1.0880205   -7.1430015    324.87576   0.02785286  0.028201882            6 
  973000    1.0961907   -7.1655786    325.15007  0.027847728  0.028194292            3 
  974000    1.0888698   -7.1749449    325.20951  0.027824222  0.028186553            2 
  975000    1.1243381   -7.1863569    325.44388  0.027815716  0.028178769            4 
  976000     1.098246   -7.1752352    324.92924  0.027743275  0.028170963            3 
  977000    1.0792635   -7.1493254    326.12995  0.027817294  0.028163101            6 
  978000    1.0800667   -7.1817741    324.71254  0.027668076  0.028154892            3 
  979000    1.0823583   -7.1620222    326.10169   0.02775806  0.028146856            2 
  980000    1.1053293   -7.1828995    326.99362   0.02780558  0.028138859            3 
  981000    1.0990448   -7.1406477    327.62732  0.027831067    0.0281309            2 
  982000    1.0896461   -7.1205448    325.72512  0.027641304  0.028122956            5 
  983000    1.1274663   -7.1715733     325.8999  0.027628001    0.0281148            2 
  984000    1.1135243   -7.1949153    326.26277  0.027630654  0.028106873            3 
  985000    1.1139857   -7.1488005    327.49756  0.027707069  0.028098796            4 
  986000    1.1243863   -7.1469096    327.96268  0.027718279  0.028090758            4 
  987000    1.1089164   -7.1455554    328.29929  0.027718616  0.028082895            2 
  988000    1.0826873   -7.1345705    328.63219   0.02771864  0.028075003            3 
  989000    1.0930001   -7.1835102    328.71936  0.027697957  0.028067125            3 
  990000    1.0736281   -7.1337096    328.70748   0.02766898  0.028059574            5 
  991000    1.1134325   -7.1594406     329.0919  0.027673386   0.02805185            2 
  992000    1.1125507   -7.1989595     327.9734  0.027551529  0.028043828            2 
  993000     1.065825   -7.2069573    328.05105    0.0275303  0.028035584            3 
  994000    1.1015025   -7.2183878    328.24639  0.027518979  0.028027205            3 
  995000    1.0888851    -7.182917    329.75315  0.027617517  0.028019129            5 
  996000    1.0768676   -7.1817795    329.15265  0.027539546  0.028011027            7 
  997000    1.0949664   -7.1800418    329.72909  0.027560104  0.028003055            3 
  998000    1.0784494   -7.1811453    329.90705  0.027547349  0.027995166            4 
  999000    1.0972315   -7.1449787    331.33224  0.027638659  0.027987287            3 
 1000000     1.075125   -7.1702505    330.09294  0.027507745  0.027979303            3 
 1001000    1.1258121   -7.1776551    330.74042  0.027534168  0.027971071            6 
 1002000    1.0908874   -7.1788473    330.72478  0.027505388   0.02796271            4 
 1003000    1.0919747   -7.1918025    330.50793  0.027459947  0.027954203            4 
 1004000    1.0849088   -7.1985617    330.57178  0.027437897  0.027945701            3 
 1005000    1.0737452   -7.1876942    331.19811   0.02746253  0.027937568            1 
 1006000     1.071955   -7.1757059    332.05131  0.027505907  0.027929452            5 
 1007000     1.098778   -7.2245688    331.66233  0.027446403  0.027921281            3 
 1008000    1.0826305   -7.1785262     331.9473  0.027442733  0.027913066            2 
 1009000    1.0915589   -7.1507452     332.7134  0.027478807  0.027905015            9 
 1010000    1.0977066   -7.1802791    333.11339  0.027484603  0.027897026           10 
 1011000    1.0953855   -7.1565812    333.43266  0.027483734   0.02788885            3 
 1012000    1.0869451   -7.2087477    333.61196   0.02747134  0.027880591            1 
 1013000     1.101271   -7.2044744    333.02103  0.027395609  0.027872004            4 
 1014000    1.1043749   -7.2054229    333.45561  0.027404307  0.027863488            4 
 1015000    1.0744802   -7.1080841    336.18356  0.027601277  0.027855373            2 
 1016000    1.0938241    -7.181839    334.82464  0.027462651  0.027847254            5 
 1017000    1.0927692   -7.2060886    334.42735  0.027403093  0.027838981            2 
 1018000    1.1066513   -7.1555591    334.07372  0.027347227  0.027830572            1 
 1019000    1.1127537   -7.1842349    334.60523  0.027363856  0.027822071            3 
 1020000    1.0980493   -7.1996216    334.52059  0.027330114  0.027813523            2 
 1021000    1.0992785   -7.1759796    335.06969  0.027348163  0.027805097            2 
 1022000    1.0653758   -7.1790542    335.12157  0.027325633  0.027796564            2 
 1023000    1.0995476   -7.2429496     333.9242  0.027201385  0.027787915            5 
 1024000    1.0795998   -7.2058083    335.38708  0.027293871  0.027779331            3 
 1025000    1.1069865   -7.1729151    334.56604  0.027200491  0.027770652            2 
 1026000     1.072096     -7.14921    336.40721  0.027323522  0.027762183            3 
 1027000    1.0706297   -7.1849143    335.81391  0.027248776  0.027753626            2 
 1028000    1.1071878   -7.1916976    335.72233  0.027214845  0.027744939            3 
 1029000    1.0918562    -7.215577    336.25671  0.027231674  0.027736367           10 
 1030000    1.0613619   -7.2046528    336.07634  0.027190642  0.027727843            4 
 1031000    1.0873424   -7.1980496    335.52827   0.02711997  0.027718961            5 
 1032000    1.0631969   -7.1753607    335.91218  0.027124692  0.027710029            4 
 1033000      1.08582   -7.2233065    336.08463  0.027112345  0.027701113            3 
 1034000     1.070664   -7.1261185    337.58287  0.027206872  0.027692444            1 
 1035000    1.0952755   -7.1730571    336.68959  0.027108663  0.027683826            3 
 1036000    1.0701522   -7.1791074    337.93563  0.027182725  0.027675161            4 
 1037000    1.0722273   -7.2282108    337.72904   0.02713991   0.02766644            2 
 1038000    1.0777266    -7.213625     338.2112  0.027152473  0.027657591            4 
 1039000    1.0958599   -7.1793531    338.36984  0.027139063   0.02764885            5 
 1040000    1.0853001   -7.2217765    338.92681  0.027157597  0.027640242            2 
 1041000    1.1089952   -7.2040981    339.71396  0.027194521  0.027631766            4 
 1042000    1.0542085   -7.2403506    339.77155  0.027173028  0.027623196            5 
 1043000    1.0818363   -7.1725013    341.15315  0.027257362  0.027614758            1 
 1044000    1.0892802    -7.213515     339.4216   0.02709304  0.027606281            3 
 1045000    1.0890849   -7.1783256    340.14469  0.027124776  0.027597589            3 
 1046000    1.0666116   -7.2270478    340.12966  0.027097647  0.027589034            3 
 1047000    1.0904916    -7.205925    339.47139  0.027019372   0.02758027            3 
 1048000    1.0847991   -7.2279191    339.91766  0.027029076   0.02757152            3 
 1049000    1.0750539   -7.1718833    341.86026  0.027157631  0.027562579            5 
 1050000    1.0705935   -7.2325458    340.84845  0.027051464  0.027553591            3 
 1051000    1.1017146   -7.1847947    340.17339    0.0269722    0.0275447            1 
 1052000    1.0906262   -7.2375088    341.25552  0.027032282  0.027535967            5 
 1053000    1.0799016    -7.202691    341.27255  0.027007957  0.027527069            4 
 1054000    1.1028823   -7.1952606    342.59751  0.027087089  0.027518275            3 
 1055000    1.0874545   -7.1682794    341.99558  0.027013869  0.027509629            5 
 1056000    1.0677603   -7.1782329    341.73375  0.026967625  0.027500788            6 
 1057000    1.0956308   -7.1897694    343.18008   0.02705614  0.027491822            1 
 1058000     1.090663   -7.1635472    342.37922  0.026967487  0.027482967            2 
 1059000    1.0695423   -7.2033053    342.85717  0.026979633  0.027474184            4 
 1060000     1.084889   -7.1479254    344.08505  0.027050712  0.027465445            2 
 1061000    1.1077345   -7.2193262    343.78109  0.027001342  0.027456619            4 
 1062000    1.0872269   -7.2058986    344.90041  0.027063748  0.027447917            6 
 1063000    1.0782713   -7.2178183    343.90848  0.026960527  0.027439213            4 
 1064000    1.0711454   -7.1800671    344.80825  0.027005659  0.027430539            4 
 1065000     1.069648   -7.1880228    345.36971  0.027024234  0.027422077            3 
 1066000    1.0766097   -7.2157229    345.82952  0.027034828  0.027413741            7 
 1067000    1.0792804    -7.253631    343.51581  0.026828788  0.027405113            2 
 1068000    1.0899868   -7.2058012    346.97865  0.027073865  0.027396798            4 
 1069000    1.0889434    -7.229813     346.4008  0.027003492  0.027388678            2 
 1070000    1.1041676   -7.2186295    345.60529    0.0269163   0.02738007            2 
 1071000    1.0741268   -7.2003534    345.89287  0.026913544  0.027371643            4 
 1072000     1.096115   -7.1876753    346.60678  0.026943935  0.027363158            9 
 1073000    1.0700439   -7.1731614    347.51848  0.026989631  0.027354685            4 
 1074000    1.0851787   -7.1737163    347.83719   0.02698923  0.027346332            3 
 1075000    1.0940596   -7.1840334    347.26106  0.026919462  0.027337922            3 
 1076000    1.0588694   -7.2164976     347.3047  0.026897824  0.027329451            7 
 1077000    1.0924931   -7.1973794     347.2906  0.026871758   0.02732077            5 
 1078000     1.084671   -7.1958122    347.92882  0.026896167  0.027312027            4 
 1079000    1.0602432   -7.2349095    347.19382  0.026814474  0.027303531            7 
 1080000    1.0841063   -7.2386616    349.21565  0.026945652  0.027295018            2 
 1081000    1.1026829   -7.1729667    349.56596  0.026947731  0.027286797            2 
 1082000    1.0668982   -7.1968853    349.32921  0.026904591  0.027278741            3 
 1083000    1.0588885   -7.2426467    349.00175  0.026854552  0.027270408            4 
 1084000     1.078026   -7.1992066    349.29677  0.026852458  0.027262026            6 
 1085000    1.0787023   -7.1987515    350.16943  0.026894733  0.027253775            5 
 1086000    1.0726165    -7.229882    349.38862  0.026810053  0.027245493            3 
 1087000    1.0793937   -7.2165242    349.58281  0.026800277  0.027237056            4 
 1088000    1.0939576   -7.2091239    351.49046  0.026921757   0.02722884            4 
 1089000    1.0690793   -7.2114385    350.74556  0.026840034  0.027220675            5 
 1090000    1.0579704   -7.1930471    351.29808  0.026857651  0.027212514            3 
 1091000    1.0649712   -7.1835651    351.86413   0.02687627  0.027204276            3 
 1092000     1.082623   -7.1707717    351.89334  0.026853887  0.027196273            1 
 1093000      1.08459   -7.2017683     350.8897  0.026752798  0.027188204            3 
 1094000    1.0917377   -7.2292635     350.8622  0.026726249   0.02717975            6 
 1095000    1.0792844    -7.232899    351.46841  0.026747977  0.027171163            4 
 1096000    1.0821379   -7.1913528    352.54804   0.02680566  0.027162619            3 
 1097000    1.0774434   -7.2056941    352.56454  0.026782478   0.02715426            7 
 1098000    1.1007451   -7.2196925     351.5492  0.026681026  0.027145597            6 
 1099000    1.0647807   -7.2334968    352.27017  0.026711417   0.02713709            3 
 1100000    1.0753689   -7.2595663    351.32839  0.026615787  0.027128314            2 
 1101000    1.1023985   -7.2729491    351.55435  0.026608715  0.027119631            2 
 1102000    1.0619582   -7.2792514    352.15444  0.026629949   0.02711083            3 
 1103000    1.0597058   -7.2516153    351.73139  0.026573844   0.02710226            3 
 1104000    1.0900221   -7.2119518    351.99102   0.02656937  0.027093781            4 
 1105000    1.0729845   -7.1891709    353.80262  0.026681947  0.027085383            5 
 1106000     1.084625   -7.2126627      354.775  0.026731088  0.027076945            2 
 1107000    1.0643496   -7.1842027    354.92413  0.026718167  0.027068417            2 
 1108000    1.0520521   -7.2082894     354.5295  0.026664373  0.027060263            1 
 1109000    1.0741553   -7.2409908    353.61331  0.026571484  0.027052002            7 
 1110000     1.055416   -7.1532419    356.41211  0.026757666  0.027043706            4 
 1111000    1.0534943    -7.173677    356.21362  0.026718693  0.027035822            4 
 1112000     1.087142   -7.1932817    356.20518  0.026694033  0.027028011            4 
 1113000    1.0643307   -7.2074902    356.69832  0.026706972  0.027020014            3 
 1114000     1.083612   -7.2603812    355.51534  0.026594505  0.027011888            8 
 1115000    1.0845763   -7.2210536    356.95757  0.026678443  0.027003596            5 
 1116000    1.0652953   -7.2704107    355.06117  0.026512931  0.026995281            3 
 1117000    1.0713595   -7.2647622    356.03651   0.02656196  0.026986952            5 
 1118000    1.0547902   -7.2233533    357.26253  0.026629586  0.026978725            3 
 1119000    1.0820899   -7.2214988    356.76322  0.026568604  0.026970316            2 
 1120000    1.0568582   -7.2626191     356.6515   0.02653657  0.026961868            3 
 1121000    1.0584024   -7.2599406     357.2094  0.026554371  0.026953442            5 
 1122000    1.0535291   -7.2093994    358.03933  0.026592345  0.026945281            3 
 1123000    1.0778518   -7.2264989    358.29712  0.026587795  0.026936891            3 
 1124000    1.0936772   -7.2580696    357.96438  0.026539471  0.026928557            5 
 1125000    1.0519108   -7.2432101    358.23858  0.026536191  0.026920227            3 
 1126000    1.0625019   -7.2020031    359.02209  0.026570611  0.026911946            3 
 1127000    1.0633889   -7.2113878     358.7824  0.026529311  0.026903737            4 
 1128000    1.0640478   -7.2700315    358.07319  0.026453397  0.026895603            2 
 1129000    1.0632184   -7.2373445    357.91185  0.026418058  0.026887201            2 
 1130000    1.0796885   -7.2356251    358.96921  0.026472656  0.026878831            6 
 1131000    1.0604689   -7.2601453    359.18719   0.02646531  0.026870343            2 
 1132000    1.0976491    -7.215937     359.5524  0.026468816  0.026862004           12 
 1133000    1.0587251   -7.2483661    359.74297  0.026459471  0.026853703            3 
 1134000    1.0464412   -7.2173732    360.40591  0.026484855  0.026845257            3 
 1135000    1.0802424   -7.2366938    359.88794   0.02642349  0.026836784            3 
 1136000    1.0604426   -7.2511072    360.37733   0.02643613  0.026828585           11 
 1137000    1.0719676   -7.2507653    360.87651  0.026449465  0.026820525            2 
 1138000    1.0810244   -7.2607093     360.5722   0.02640394   0.02681234            4 
 1139000    1.0810417   -7.2514829     360.9033  0.026404983  0.026804176            2 
 1140000    1.0805868   -7.2035184    362.42078  0.026492747  0.026795812            3 
 1141000    1.0663223   -7.2408392    361.23011  0.026382567  0.026787512            3 
 1142000    1.0869478   -7.2269346    361.86987  0.026406149  0.026779104            5 
 1143000    1.0785454   -7.2496802    361.29692  0.026341275  0.026770869            6 
 1144000    1.0433096   -7.2395178    361.23048  0.026313409  0.026762592            2 
 1145000    1.0846351   -7.2060134    363.93251  0.026487082  0.026754365            4 
 1146000    1.0801951   -7.2158424    362.97812  0.026394569  0.026746247            4 
 1147000    1.0378776   -7.2745002    362.72273  0.026353003  0.026738291            5 
 1148000       1.0465   -7.2149787    364.80052  0.026480874  0.026730399            7 
 1149000    1.0738557   -7.2184074    365.06331  0.026476886  0.026722629            2 
 1150000    1.0625952   -7.2442836    364.98954  0.026448517  0.026714842            7 
 1151000    1.0782512   -7.1980091    365.23742  0.026443485  0.026707076            3 
 1152000    1.0514688   -7.2295248    365.05586  0.026407397  0.026699389            3 
 1153000    1.0543328   -7.2296183    365.81352  0.026439254  0.026691589            4 
 1154000     1.075041   -7.2473412     365.4189  0.026387847  0.026683772            3 
 1155000    1.0484448   -7.2837387    365.15796  0.026346173  0.026675603            4 
 1156000    1.0381142   -7.2278822    366.85374  0.026445627  0.026667552            4 
 1157000    1.0600736   -7.2289256    366.57927  0.026403001  0.026659662            3 
 1158000    1.0713513   -7.2517483    367.02332  0.026412156  0.026651874            6 
 1159000    1.0663605   -7.2475855    365.40142  0.026272751  0.026644197            4 
 1160000    1.0546543    -7.206068    367.34553  0.026389765  0.026636376            2 
 1161000    1.0834709   -7.2330247    366.78767  0.026326993  0.026628421            4 
 1162000     1.073671   -7.2575581      367.339  0.026343875   0.02662038            3 
 1163000    1.0698553   -7.2366801     367.8013   0.02635435  0.026612383            3 
 1164000    1.0546284   -7.2619305    366.77362  0.026258134  0.026604368            4 
 1165000     1.077452   -7.2086372    365.94209  0.026176115  0.026596344            3 
 1166000    1.0710762   -7.2115519    368.32688  0.026324105   0.02658839            3 
 1167000    1.0721645   -7.2288115    368.31382  0.026300616  0.026580597            3 
 1168000    1.0727606   -7.2625291    367.97337  0.026253808  0.026572841            4 
 1169000    1.0710246   -7.2415143      369.227  0.026320716   0.02656505            2 
 1170000    1.0774173   -7.2666992    368.64999  0.026257122  0.026557223            4 
 1171000    1.0801731   -7.2646658    368.77174  0.026243363  0.026549386            3 
 1172000    1.0436514   -7.2543906    369.23691  0.026254046  0.026541303            5 
 1173000    1.0511375   -7.2581889    369.17168   0.02622703  0.026533303            6 
 1174000     1.071317   -7.2803104    368.78434  0.026177196  0.026525396            6 
 1175000     1.061218   -7.2810165    369.07109  0.026175255  0.026517493            5 
 1176000    1.0473646   -7.2426286    370.20396  0.026233274  0.026509431            3 
 1177000    1.0624754   -7.2919654     368.7322  0.026106783  0.026501274            3 
 1178000    1.0593722   -7.2595264    370.43736  0.026205246  0.026493102            4 
 1179000    1.0602514   -7.3004421    370.28315   0.02617212  0.026485137           10 
 1180000    1.0569867   -7.2765243    369.94934  0.026126366  0.026476988            2 
 1181000    1.0757147   -7.2539595     371.3823  0.026205356  0.026468981            2 
 1182000     1.075822   -7.2610701    371.03638  0.026158797  0.026460882            6 
 1183000     1.063173   -7.2065676    371.32255  0.026156844  0.026452854            2 
 1184000    1.0537983   -7.2542831    371.13073   0.02612125   0.02644489            9 
 1185000    1.0477549   -7.2890192    370.97139  0.026088002  0.026436721            7 
 1186000    1.0199346   -7.2573781    372.09784  0.026145154  0.026428717            4 
 1187000    1.0732371   -7.2550845    372.17494  0.026128541  0.026420535            5 
 1188000    1.0693307   -7.2569803    371.92806   0.02608923  0.026412402            9 
 1189000    1.0927623   -7.2722468    371.71042  0.026052034  0.026404461            4 
 1190000    1.0860788   -7.2970811    372.90351  0.026113691  0.026396434            3 
 1191000    1.0561796   -7.2501677    373.33402  0.026121888  0.026388483            5 
 1192000     1.045217   -7.2551997    374.01066  0.026147277  0.026380939            2 
 1193000    1.0824322   -7.3085164    372.22831   0.02600086  0.026373215            4 
 1194000    1.0639369   -7.2908984    374.67571  0.026149896  0.026365539            3 
 1195000    1.0504773   -7.2674018    374.28986  0.026101106  0.026357829            2 
 1196000    1.0784333   -7.3004187    373.39664  0.026017046  0.026349997            4 
 1197000    1.0468764   -7.2698138     373.5233  0.026004128  0.026342275            3 
 1198000    1.0755355   -7.2430531    375.83093  0.026142941  0.026334668            5 
 1199000    1.0697903   -7.2776926    375.04012  0.026066175  0.026326959            6 
 1200000    1.0583006   -7.2665391    375.40746  0.026069963  0.026319224            4 
 1201000    1.0349684   -7.2836978    374.40978   0.02597903  0.026311541            2 
 1202000     1.026474   -7.2620479    375.37212  0.026024135  0.026303985            4 
 1203000     1.064524   -7.2613551    376.13778  0.026055541  0.026296183            3 
 1204000    1.0453104   -7.2994495    375.25353  0.025972697  0.026288341            5 
 1205000    1.0426225   -7.2766093    376.20314  0.026016815  0.026280458            2 
 1206000     1.055136    -7.286777    376.93412  0.026045752  0.026272871            4 
 1207000    1.0576428    -7.240951    376.56343   0.02599858  0.026265107            3 
 1208000    1.0559593   -7.2829833    375.73107  0.025919638  0.026257242            3 
 1209000    1.0500778   -7.3031728    376.11166  0.025924432  0.026249488            5 
 1210000    1.0588682     -7.21726    377.71367  0.026013338  0.026241873            4 
 1211000     1.063025    -7.250996    378.29198  0.026031653  0.026234329            5 
 1212000    1.0434891   -7.2851216    378.09005  0.025996291  0.026226652            4 
 1213000    1.0272642   -7.2539522    376.52244  0.025867164  0.026218837            3 
 1214000     1.060857   -7.2593421    378.15219  0.025957728  0.026210998            2 
 1215000    1.0766461    -7.288179     378.4079  0.025953902  0.026203124            3 
 1216000    1.0909022   -7.2924251    379.04342  0.025976111  0.026195167            4 
 1217000    1.0600451   -7.2755929    377.66038  0.025860064  0.026187232            1 
 1218000    1.0612553   -7.2898192    378.49409  0.025895874  0.026179382            1 
 1219000    1.0423959   -7.2111099    380.11076  0.025985149  0.026171823            2 
 1220000    1.0627186   -7.2613467    379.34095  0.025911267  0.026164114            3 
 1221000    1.0537054   -7.2217944    380.57012  0.025973937  0.026156698            6 
 1222000    1.0521682   -7.2936756    379.54869  0.025883025  0.026149158           13 
 1223000    1.0627274   -7.2780015    379.45421  0.025855424  0.026141385            2 
 1224000    1.0561038   -7.2634866    380.56964  0.025910243  0.026133579            3 
 1225000    1.0489353   -7.2280899    379.40667  0.025809977  0.026125979           10 
 1226000    1.0528295   -7.2259748    382.45803  0.025996332  0.026118211            3 
 1227000    1.0552714   -7.2403637    380.73711  0.025858266  0.026110479            2 
 1228000    1.0603414   -7.2492073    382.15657  0.025933535  0.026102824            5 
 1229000    1.0517883     -7.27088    381.31959  0.025855681  0.026095149            8 
 1230000    1.0913157   -7.2897767    381.42102  0.025841532  0.026087392            3 
 1231000    1.0611638   -7.2823868     380.9034    0.0257855  0.026079696            3 
 1232000    1.0540959   -7.2506961    381.76884  0.025823109  0.026072006            3 
 1233000    1.0676112   -7.2970688    382.61256  0.025859189  0.026064338            5 
 1234000    1.0510754   -7.2639884    382.02797  0.025798755  0.026056842            3 
 1235000    1.0486873   -7.2308438     384.2444  0.025927422  0.026049355            3 
 1236000    1.0527669   -7.2423021    383.04446  0.025825544   0.02604187            5 
 1237000     1.078877   -7.2725318    384.91723  0.025930829  0.026034366            3 
 1238000    1.0587618   -7.2681985    383.39615  0.025807495   0.02602689           11 
 1239000    1.0514685    -7.271167    383.32791  0.025782076  0.026019421            6 
 1240000    1.0576299   -7.2700403    383.68359  0.025785188  0.026011909            2 
 1241000    1.0657148   -7.2799507    383.12588  0.025726959  0.026004357            3 
 1242000    1.0228288   -7.2862618    383.26623  0.025715662  0.025996638            8 
 1243000    1.0397967   -7.3226795    384.46319   0.02577522  0.025988931            2 
 1244000    1.0467392   -7.2913013    384.05478  0.025727142  0.025981291            2 
 1245000     1.037938   -7.2997596    384.81217  0.025757173   0.02597358            2 
 1246000    1.0785384   -7.2971176    384.06297  0.025686394   0.02596577            6 
 1247000    1.0369232   -7.2807824    384.42613  0.025690065  0.025957954            4 
 1248000    1.0351698   -7.2981218    384.47934  0.025673033  0.025950079            6 
 1249000    1.0441068   -7.3147443    385.40965  0.025714548  0.025942212            4 
 1250000    1.0410694   -7.2741729    385.51443  0.025700962  0.025934383            2 
 1251000    1.0665084   -7.2587599    385.64876  0.025689366  0.025926476           12 
 1252000     1.046619   -7.3357499    384.54962  0.025595688  0.025918377            5 
 1253000    1.0256361   -7.2934624    384.74399  0.025588188  0.025910162            6 
 1254000    1.0620664   -7.2675518    386.38995  0.025677163  0.025902244            4 
 1255000    1.0269317   -7.2883249    386.14963  0.025640746  0.025894266            9 
 1256000    1.0757865   -7.2902732    385.62437  0.025585481  0.025886366            8 
 1257000    1.0695832   -7.3145044    386.64272  0.025632638  0.025878419            6 
 1258000    1.0638522   -7.2697482    387.22923  0.025651115  0.025870526            4 
 1259000    1.0615143   -7.2971219    386.80792  0.025602854  0.025862535            2 
 1260000    1.0300985   -7.3059253    384.96256  0.025460487  0.025854465            9 
 1261000    1.0597052   -7.2830135    385.40749  0.025469699  0.025846169            6 
 1262000    1.0390716    -7.259598    386.07784  0.025493782   0.02583804            6 
 1263000    1.0646651   -7.2721117    386.56657  0.025505844  0.025829892            4 
 1264000    1.0468832   -7.2945271    386.37037   0.02547273  0.025821706            5 
 1265000     1.073521   -7.3086973    386.29463  0.025447604  0.025813391            5 
 1266000    1.0408242   -7.3140966    386.15622  0.025418392  0.025805118           12 
 1267000    1.0608944   -7.2878529    388.19521  0.025532439  0.025796886            3 
 1268000    1.0463959   -7.2581609    388.04014  0.025502112  0.025788847            2 
 1269000    1.0674094   -7.2550383    389.26163  0.025562229  0.025780922            2 
 1270000    1.0680902   -7.2547267    387.79591  0.025445926  0.025772832            4 
 1271000    1.0618714   -7.2599265    387.81129  0.025426914  0.025764725            3 
 1272000    1.0268902   -7.3065273    387.82139  0.025407586  0.025756594            4 
 1273000     1.048101   -7.3816173    386.50678   0.02530157  0.025748285            6 
 1274000    1.0377744   -7.3001566    389.43287  0.025473107  0.025740083            3 
 1275000    1.0420793   -7.2564432    389.89233  0.025483159  0.025732028           10 
 1276000     1.035756   -7.2998274    389.55596   0.02544122  0.025724075            4 
 1277000    1.0309586   -7.2669599    389.93624  0.025446114  0.025716083            2 
 1278000    1.0697224   -7.3147533    389.32434  0.025386303  0.025708066            3 
 1279000    1.0341257   -7.3162922    388.70902  0.025326363  0.025700022            6 
 1280000    1.0433515   -7.2764197    391.21699  0.025469856  0.025692084            4 
 1281000    1.0464419   -7.3422108    388.35922  0.025264066   0.02568399            4 
 1282000    1.0444415   -7.3638949    389.27133  0.025303649   0.02567575            2 
 1283000    1.0538832   -7.3345564    390.14396  0.025340605  0.025667508            6 
 1284000    1.0338663   -7.3373064    389.42068  0.025273928   0.02565941           12 
 1285000    1.0275745   -7.2811224    391.14807  0.025366282  0.025651473            6 
 1286000    1.0252913   -7.2874451    392.99631  0.025466324  0.025643438            3 
 1287000    1.0319449   -7.3157512    392.27274  0.025399685  0.025635479            4 
 1288000    1.0396217   -7.3224829    392.21266  0.025376078  0.025627491            2 
 1289000    1.0448204   -7.3049595     392.2185  0.025356769  0.025619587            7 
 1290000    1.0368705   -7.3037907    393.05662  0.025391255  0.025611433            4 
 1291000    1.0225321   -7.3514175     392.5757  0.025340543  0.025603312            3 
 1292000    1.0562883   -7.2966582    390.89311  0.025212404  0.025595016            3 
 1293000    1.0566481    -7.319035    390.78343  0.025185836  0.025586647            4 
 1294000    1.0391594   -7.3083792    393.04657  0.025312118  0.025578337            4 
 1295000    1.0425508   -7.3031437    392.60939  0.025264439  0.025570122            7 
 1296000    1.0623957   -7.3153281    391.99379  0.025205362  0.025561808            2 
 1297000    1.0471432   -7.3081366     392.9035  0.025244378  0.025553555            6 
 1298000     1.020009   -7.3276191    392.09646  0.025173116  0.025545039            4 
 1299000    1.0215753   -7.3399994     392.7437  0.025195259  0.025536602            2 
 1300000    1.0380527    -7.294085    392.99606  0.025192055  0.025528219            3 
 1301000    1.0451943   -7.2762419    393.02955  0.025174836  0.025519745           13 
 1302000    1.0478108   -7.3044737    394.13169  0.025226043  0.025511723            3 
 1303000    1.0347968   -7.3178137    394.39004  0.025223206  0.025503659            4 
 1304000    1.0306486   -7.3188701    393.93295  0.025174652  0.025495518            5 
 1305000    1.0375323   -7.2621477    394.32395  0.025180329  0.025487468            5 
 1306000    1.0436761   -7.3232353    394.89362  0.025197398  0.025479335            4 
 1307000    1.0361382   -7.2985111    394.60045  0.025159427  0.025471125            3 
 1308000    1.0248681   -7.3294336    395.73182  0.025212272  0.025463009            2 
 1309000    1.0630888   -7.3118457    395.03102  0.025148397  0.025454873            2 
 1310000    1.0336034   -7.3397869     395.0883  0.025132843  0.025446798            3 
 1311000    1.0561898   -7.3276553    394.51982  0.025077537  0.025438697            9 
 1312000    1.0340205   -7.2855669    396.47677  0.025182722  0.025430495            5 
 1313000    1.0378564   -7.2775059    395.46395  0.025099261  0.025422319            8 
 1314000    1.0284138   -7.3316861    395.66339  0.025092807  0.025414065            5 
 1315000    1.0425378   -7.3346251    396.31176  0.025114814  0.025405586            4 
 1316000    1.0534104   -7.2981321    396.29828  0.025094876   0.02539732            7 
 1317000    1.0313056   -7.3300346    395.80675   0.02504472  0.025389092            2 
 1318000     1.033731   -7.3154709    395.81652  0.025026335  0.025380803            4 
 1319000    1.0381651   -7.3110549    396.62928  0.025058711  0.025372626            1 
 1320000    1.0384008   -7.3057737    398.26811  0.025143189  0.025364425            5 
 1321000    1.0473993   -7.3054151     397.8279  0.025096385  0.025356298            3 
 1322000    1.0382595    -7.325106    397.72165  0.025070704   0.02534812            4 
 1323000    1.0601244   -7.3750021    395.88715  0.024936202  0.025339862            3 
 1324000      1.05252   -7.3355852    397.57467  0.025023582  0.025331809            3 
 1325000    1.0608393   -7.3312652     398.3635  0.025054308  0.025323766            3 
 1326000    1.0183729   -7.3455074    397.61939  0.024988649   0.02531554            4 
 1327000    1.0578913   -7.3140044    398.54171  0.025027739  0.025307353            3 
 1328000    1.0446259   -7.3450436    397.09791  0.024918292  0.025299178            4 
 1329000    1.0205547    -7.313651    397.57358  0.024929369   0.02529082            3 
 1330000    1.0245933   -7.3320456    398.28305  0.024955078  0.025282453            2 
 1331000    1.0425474   -7.3139837    398.93548  0.024977178  0.025274266            2 
 1332000    1.0453859   -7.3109377    398.36807  0.024922927  0.025266137            2 
 1333000     1.041961   -7.3348531    398.61877  0.024919903  0.025258076            3 
 1334000    1.0394619   -7.3108156    397.78864  0.024849365  0.025249783            4 
 1335000    1.0479893   -7.3204813    399.25467  0.024922264  0.025241566            3 
 1336000    1.0407961   -7.3059469     400.6012    0.0249876  0.025233272            5 
 1337000    1.0317571   -7.3281181    399.52151  0.024901615  0.025224949            4 
 1338000    1.0334746    -7.292843     399.7747  0.024898773  0.025216727            3 
 1339000    1.0696218   -7.2686727    402.29385  0.025036958  0.025208646            2 
 1340000    1.0306669   -7.2924415     402.0796   0.02500495  0.025200694            2 
 1341000    1.0369288   -7.3059395     401.0966  0.024925218   0.02519261            6 
 1342000    1.0459124   -7.3235073    400.45572  0.024866848  0.025184537            6 
 1343000    1.0561436   -7.2979283    400.53521  0.024853265  0.025176363            3 
 1344000     1.043757   -7.3209672    399.99004   0.02480097  0.025168208            3 
 1345000    1.0468947   -7.3688162    399.31304  0.024740585   0.02516001            2 
 1346000    1.0227885   -7.3206558    400.54953  0.024798757  0.025151399            5 
 1347000    1.0338232   -7.3505796    400.56522  0.024781318  0.025142926            3 
 1348000    1.0052147   -7.3467575    400.92871  0.024785405  0.025134458            2 
 1349000    1.0469414   -7.3445341     401.7745  0.024819279  0.025125968            5 
 1350000    1.0640936   -7.3392308    401.36544  0.024775645  0.025117487            5 
 1351000    1.0336979   -7.3409828    401.09518  0.024740635  0.025108899            2 
 1352000    1.0266171   -7.3173177    401.28877  0.024734269  0.025100462            4 
 1353000    1.0388064    -7.335924    401.40174  0.024722945  0.025091967            6 
 1354000    1.0083016   -7.3484451    401.55608  0.024714185  0.025083581            4 
 1355000    1.0401618    -7.354461    402.03828  0.024725602  0.025075088            7 
 1356000    1.0168806   -7.3165944    402.54667   0.02473861  0.025066659            4 
 1357000    1.0258652   -7.3230337    402.72048  0.024731054  0.025058183            5 
 1358000    1.0518636   -7.3533751    401.72366  0.024651673   0.02504953            5 
 1359000    1.0371266   -7.3710226    401.58498   0.02462503  0.025040786            6 
 1360000    1.0345988   -7.3448151    400.31424  0.024529059  0.025031958            3 
 1361000    1.0186556   -7.3504156    402.19608   0.02462626  0.025023206            5 
 1362000    1.0370487   -7.3435323    402.84603  0.024647946  0.025014622            3 
 1363000    1.0127863   -7.3530178    402.49811  0.024608591  0.025005951            3 
 1364000     1.030559   -7.3705327    402.75439  0.024606206  0.024997356            3 
 1365000    1.0259973   -7.3334969    403.92933   0.02465991  0.024988899            3 
 1366000    1.0270944   -7.3576255    401.13793  0.024471567  0.024980291            4 
 1367000    1.0377992   -7.3629852    403.20807  0.024579863  0.024971659            3 
 1368000    1.0217252   -7.3450696    403.80027   0.02459797  0.024963064            5 
 1369000    1.0342116   -7.3928887    403.24281  0.024546069  0.024954368            4 
 1370000    1.0439906   -7.3507185    404.01168   0.02457492  0.024945664            6 
 1371000    1.0477843   -7.3463067    402.84518  0.024486091  0.024937031            4 
 1372000    1.0194341   -7.3555119    404.10066  0.024544501  0.024928273            6 
 1373000    1.0333134   -7.3241206    403.64585   0.02449902  0.024919653            2 
 1374000    1.0160229    -7.315095    404.80492  0.024551487  0.024910969            2 
 1375000     1.017568   -7.3813101    403.22303  0.024437759  0.024902231            5 
 1376000    1.0220481   -7.3761158    404.51538  0.024498266  0.024893457            4 
 1377000    1.0196874   -7.3618336    403.27154  0.024405201  0.024884748            4 
 1378000     1.036094   -7.3305425    404.25836  0.024447167  0.024875977            4 
 1379000    1.0401304   -7.3311178    405.75473  0.024519865  0.024867227            4 
 1380000    1.0225198   -7.3477291    404.16124  0.024405872  0.024858417            2 
 1381000    1.0340772   -7.3541068    406.01283  0.024499929  0.024849716            2 
 1382000    1.0430217   -7.3612121    404.77928  0.024407819  0.024840871            2 
 1383000    1.0127787   -7.3406763     405.9773  0.024462358  0.024832038            3 
 1384000    1.0035847   -7.3332801    406.63344   0.02448419  0.024823258            4 
 1385000    1.0247926   -7.3381886    406.41509  0.024453375  0.024814385            3 
 1386000    1.0158339   -7.3868958    404.24519  0.024305266  0.024805524            4 
 1387000    1.0386249   -7.3966037    404.59842  0.024308966  0.024796532            6 
 1388000    1.0196369   -7.3842474    404.66408  0.024295394  0.024787541            2 
 1389000     1.010862    -7.376124    404.75152  0.024283148  0.024778631            2 
 1390000    1.0446075   -7.3858266    405.29363  0.024298179  0.024769795            6 
 1391000    1.0346644   -7.3755523    406.24857   0.02433792  0.024761078            5 
 1392000    1.0403866   -7.3790109    407.14828  0.024374298  0.024752279            1 
 1393000    1.0448047   -7.3760063    406.36469  0.024309924  0.024743552            6 
 1394000    1.0204615   -7.3733133     406.3844  0.024293663  0.024734853            6 
 1395000    1.0132552   -7.3418921    407.06811  0.024317091  0.024726013            3 
 1396000    1.0289609   -7.3570156     406.3731  0.024258184  0.024717313            4 
 1397000    1.0028575   -7.3817967    405.60923  0.024195253  0.024708578            3 
 1398000    1.0112553   -7.3671545    407.02645  0.024262425  0.024699778            6 
 1399000    1.0419386   -7.3377932    407.89492  0.024296815  0.024690982            5 
 1400000    1.0431713   -7.3512463     407.6883  0.024267161  0.024682217            2 
 1401000    1.0242661   -7.3221666    409.35569  0.024349018   0.02467352            5 
 1402000    1.0394947   -7.3296102    410.32923  0.024389517   0.02466489            5 
 1403000    1.0108019   -7.3443821    408.35829  0.024255066  0.024656309            4 
 1404000    1.0446256   -7.3404269    408.84556  0.024266712  0.024647692            4 
 1405000    1.0244972   -7.3638616     408.5797  0.024233671  0.024639116            4 
 1406000    1.0146633   -7.3652663    408.25845  0.024197395  0.024630408            4 
 1407000    1.0411244   -7.3883633    408.93443  0.024220234  0.024621597            3 
 1408000    1.0301041   -7.3233632    409.71382  0.024249161   0.02461289            9 
 1409000    1.0347218   -7.3307572    409.81211  0.024237764  0.024604153            4 
 1410000    1.0295613   -7.3883201    408.99539  0.024172304  0.024595426            3 
 1411000    1.0242284   -7.3920015    409.09326  0.024160953  0.024586705            6 
 1412000    1.0376716   -7.3378097    409.86766  0.024189545  0.024578056            4 
 1413000    1.0183501   -7.3805566    409.13206  0.024129043  0.024569292            3 
 1414000    1.0145543   -7.3401486    409.97263  0.024161518  0.024560469            9 
 1415000    1.0437342   -7.3984836    408.97997  0.024085982  0.024551645            3 
 1416000    1.0321897   -7.3450407    410.70315  0.024170383     0.024543            5 
 1417000   0.99992652   -7.3941572    410.52624  0.024142922  0.024534331            8 
 1418000    1.0235101   -7.4009466    410.34225  0.024115083  0.024525607            9 
 1419000    1.0170353   -7.3460004    411.33521  0.024156402  0.024516841            4 
 1420000     1.033148   -7.4114215    408.71022  0.023985342  0.024508064            4 
 1421000    1.0098733   -7.3773578    411.40402  0.024126438   0.02449924            2 
 1422000    1.0554794   -7.3854687    410.56929  0.024060554  0.024490541            3 
 1423000    1.0216017   -7.3593164    411.65555  0.024107259  0.024481717            6 
 1424000    1.0005445   -7.3542632    411.91125  0.024105293  0.024473008            3 
 1425000     1.017482   -7.3695816     411.2492  0.024049661  0.024464248            5 
 1426000     1.011531   -7.3798195    412.20058  0.024088393  0.024455569            3 
 1427000    1.0351244   -7.3803636    411.02765  0.024003016  0.024446803            1 
 1428000    1.0300852   -7.3795406    411.49003   0.02401319  0.024438053            5 
 1429000    1.0343896   -7.4041982    410.48929  0.023938027  0.024429133            6 
 1430000    1.0174425    -7.347229    412.19426  0.024020645  0.024420361            2 
 1431000    1.0067975   -7.3455837    412.30776  0.024010468  0.024411725            8 
 1432000    1.0419708   -7.3556183     412.9835  0.024033025  0.024403215            6 
 1433000    1.0733896   -7.3862512    412.68627  0.023998969   0.02439469           10 
 1434000    1.0023362   -7.4176525    412.04779  0.023945129  0.024386014            3 
 1435000    1.0340717   -7.3979503     413.7821  0.024029158  0.024377336            3 
 1436000     1.013593   -7.3635349    412.98353  0.023966082  0.024368783            5 
 1437000    1.0168686   -7.3618318    414.71976   0.02405009  0.024360286            4 
 1438000    1.0537028   -7.3618933    414.05687  0.023994951  0.024351887            7 
 1439000    1.0156618   -7.3567795    415.16378  0.024042378  0.024343434            9 
 1440000    1.0292901   -7.3954147    414.01011  0.023958919  0.024334985            2 
 1441000     1.025003    -7.410193    414.19915  0.023953224  0.024326452            5 
 1442000    1.0382253   -7.3794844    415.34664  0.024002927  0.024318003            7 
 1443000    1.0133425   -7.3202335    415.92515  0.024019701  0.024309584            3 
 1444000    1.0205298   -7.3664055    415.92955  0.024003321  0.024301207            6 
 1445000    1.0243269   -7.3302309     416.9341  0.024044643  0.024292824            4 
 1446000    1.0305065   -7.3790484    417.31562  0.024050001  0.024284604            7 
 1447000    1.0176991    -7.359645    416.88176  0.024008395  0.024276225            7 
 1448000    1.0097168    -7.370553    415.72224  0.023925083  0.024267816           10 
 1449000    1.0085007    -7.417498    415.05861  0.023870405  0.024259204            6 
 1450000     1.019065    -7.353374    416.77357  0.023952504  0.024250672            2 
 1451000    1.0248219   -7.3819254    418.08499  0.024011314  0.024242145            3 
 1452000    1.0245584   -7.3577753    417.21013  0.023944567  0.024233847            4 
 1453000     1.019988   -7.3720675     417.3739   0.02393748   0.02422544            4 
 1454000    1.0331266   -7.3499397    417.94538   0.02395377  0.024217016            8 
 1455000    1.0087787   -7.3727379      416.859  0.023875086  0.024208556            4 
 1456000    1.0498918   -7.3653163    417.73973  0.023909096  0.024200273            3 
 1457000    1.0385062   -7.3446826    417.47939  0.023877796  0.024191953            4 
 1458000    1.0081283   -7.3442753    417.84207  0.023882148  0.024183631            3 
 1459000    1.0385152    -7.416609    417.21281  0.023829839  0.024175169            3 
 1460000      1.02189    -7.370586    417.66998  0.023839611  0.024166833            2 
 1461000    1.0099491   -7.3810445    418.93703  0.023895564   0.02415844            7 
 1462000    1.0437525   -7.3885101    418.54566  0.023856912  0.024150116            6 
 1463000    1.0189579   -7.3911097    419.56823  0.023898851  0.024141837            5 
 1464000    1.0279833   -7.3683447    420.25368  0.023921544  0.024133513            4 
 1465000    1.0177836   -7.3234451    420.21236  0.023902865  0.024125412            7 
 1466000    1.0024422   -7.3690032    419.50042   0.02384609  0.024117231            5 
 1467000    1.0185538   -7.3986156    419.95618  0.023855725  0.024108936            7 
 1468000    1.0299103   -7.3832507    420.23263  0.023855168  0.024100678            2 
 1469000    1.0158328   -7.3803017    420.81114  0.023871746  0.024092599            2 
 1470000    1.0416387   -7.4040005    419.76774  0.023796357  0.024084385            4 
 1471000    1.0135247   -7.4007409    420.49921  0.023821618  0.024076293            5 
 1472000    1.0168885   -7.3764549    420.29074  0.023793633  0.024068118            4 
 1473000    1.0257358   -7.4007599    421.35014  0.023837415  0.024059866            9 
 1474000    1.0253976   -7.4035957    420.36116   0.02376533  0.024051755            3 
 1475000    1.0027255   -7.3551524    422.15003  0.023850284  0.024043603            3 
 1476000    1.0080772   -7.3936345    420.52308   0.02374227  0.024035475            3 
 1477000    1.0124977   -7.3649662    422.08263  0.023814186  0.024027246            4 
 1478000    1.0130647   -7.3590509    423.15842  0.023858729  0.024019176            6 
 1479000   0.98236729   -7.4500452    421.42317  0.023744826  0.024010973            6 
 1480000    1.0138798   -7.4059101    420.57518  0.023681035  0.024002726            3 
 1481000    1.0211614   -7.4205402    421.79891  0.023733902  0.023994621            3 
 1482000    1.0007022   -7.4029294    422.93013  0.023781497  0.023986404            5 
 1483000   0.99797397   -7.4174543    421.53248  0.023686923  0.023978203            4 
 1484000    1.0082235   -7.3796339    423.20575  0.023764923   0.02397005            3 
 1485000    1.0182414   -7.3972557    423.03265  0.023739206  0.023961941            3 
 1486000    1.0208055   -7.4141516    422.15895  0.023674234  0.023953805            3 
 1487000    1.0108969   -7.4256167    423.10454  0.023711306  0.023945665            5 
 1488000    1.0146549   -7.4420709    422.52494  0.023662911  0.023937443            3 
 1489000    1.0141378   -7.4089146    422.34374  0.023636878  0.023929087            5 
 1490000     1.041008   -7.4099707    423.18226  0.023667912  0.023920845            2 
 1491000    1.0238863   -7.4305688    422.12002  0.023592668  0.023912518            5 
 1492000    1.0175809   -7.4671534    422.58331  0.023602732  0.023904141            3 
 1493000    1.0044585   -7.4272035    423.41577  0.023633387  0.023895772            5 
 1494000    1.0306557   -7.4061042    422.83787  0.023585334  0.023887493            2 
 1495000    1.0015035    -7.408099    424.07173  0.023638335  0.023879252            3 
 1496000    1.0098062   -7.4513935    422.89107  0.023556766  0.023870911            6 
 1497000    1.0104379   -7.4243336    423.49089  0.023574421  0.023862659            4 
 1498000   0.99284721   -7.3798325    424.45846  0.023612509    0.0238544            3 
 1499000    1.0165211   -7.4028694    422.97733  0.023514417  0.023846094            3 
 1500000    1.0084878   -7.4050841    425.67867  0.023648815  0.023837806            4 
 1501000    1.0141385   -7.3965091    424.35706  0.023559686  0.023829658            3 
 1502000    1.0345858   -7.3987878    424.24967  0.023538042  0.023821506            4 
 1503000    1.0143949   -7.3777335    424.96356  0.023561963  0.023813367            3 
 1504000    1.0433227   -7.4135408    425.04517  0.023550818  0.023805142            3 
 1505000    1.0207425   -7.4104027    424.01827   0.02347831  0.023796841            3 
 1506000    1.0045178    -7.402058    425.68624  0.023555016  0.023788668            3 
 1507000    0.9744928     -7.36763     425.7278  0.023541683  0.023780502            2 
 1508000    1.0335988    -7.410805    424.63499  0.023465683  0.023772336            2 
 1509000   0.99171648   -7.4139592    426.17171  0.023534996  0.023764044            3 
 1510000   0.99859624   -7.3789816    426.93369  0.023561462  0.023755933            6 
 1511000   0.99075097   -7.3785302    427.41277   0.02357229  0.023747815            4 
 1512000     1.008985   -7.4177155    426.11674   0.02348527  0.023739791            7 
 1513000    1.0086442   -7.4247485    426.87028  0.023511252  0.023731656            3 
 1514000   0.98509358     -7.42766    426.78394   0.02349097  0.023723497            4 
 1515000    1.0048221   -7.4422862    427.22174  0.023499546  0.023715458            5 
 1516000    1.0112807   -7.4353095    426.62246  0.023451103  0.023707405           12 
 1517000    1.0161543   -7.4110284    428.74307  0.023552135  0.023699298            2 
 1518000     1.003948   -7.4353125    426.96541  0.023439032  0.023691296            3 
 1519000    1.0040482   -7.4634524    425.99545  0.023370389  0.023683088            7 
 1520000    1.0242916   -7.3745247    428.39443  0.023486537   0.02367504            3 
 1521000   0.99395116     -7.42934     427.8355  0.023440472  0.023666966            2 
 1522000    1.0443052   -7.4349132    427.72823  0.023419198  0.023658838            4 
 1523000    1.0064686    -7.423014    428.53811  0.023448135  0.023650757            4 
 1524000    1.0127193   -7.4071721    428.55116  0.023433463   0.02364271            4 
 1525000    1.0332664    -7.435709    427.71035   0.02337215  0.023634572            7 
 1526000    1.0232674   -7.4195403     428.1438  0.023380504  0.023626466            4 
 1527000    1.0120171   -7.4023709    429.64794  0.023447279  0.023618479            2 
 1528000    1.0021556   -7.4356005    428.37069  0.023362276  0.023610469            5 
 1529000    1.0110862   -7.3931487    429.72602  0.023420864  0.023602514            2 
 1530000     1.022323   -7.4193109    431.30273  0.023491434  0.023594664            4 
 1531000    1.0250394   -7.3764151    430.35642  0.023424582  0.023586861            3 
 1532000    1.0355506   -7.4249532    430.80615  0.023433755  0.023579067            5 
 1533000     1.014488   -7.4471011     429.8549  0.023366759  0.023571201            3 
 1534000    0.9905662   -7.4036361    430.43348  0.023382958  0.023563286            3 
 1535000   0.98638963   -7.4058317    429.86143  0.023336668  0.023555476            6 
 1536000   0.99503875   -7.3951875    431.62781  0.023417307  0.023547672            3 
 1537000    1.0007937   -7.3927847    431.41018  0.023390272   0.02353989            4 
 1538000     1.014827   -7.4268193    431.08765  0.023357589   0.02353201            3 
 1539000    1.0256987   -7.4510144    431.34231    0.0233562  0.023524151            5 
 1540000    1.0227064   -7.4386391    431.41414  0.023344921  0.023516267            5 
 1541000    1.0103812   -7.4531987    430.51004   0.02328088  0.023508341            2 
 1542000   0.99107372   -7.4332604    431.87755  0.023339686  0.023500461           12 
 1543000    1.0115421   -7.4361476    432.11005  0.023337117  0.023492622            8 
 1544000   0.99372288   -7.4234736    431.85849  0.023308424  0.023484767            8 
 1545000    1.0075997     -7.40676    432.29717     0.023317  0.023476964            4 
 1546000   0.99061889   -7.4210002    433.39416  0.023361048  0.023469161            2 
 1547000    1.0343261   -7.3768185    433.87794  0.023372007  0.023461393            4 
 1548000     1.033999   -7.4269849    432.76214  0.023296842  0.023453502            5 
 1549000    1.0164587    -7.469688    431.88359  0.023234538  0.023445588            9 
 1550000    1.0067787   -7.4660183    432.14164  0.023233421  0.023437566            6 
 1551000   0.98953456   -7.4187201    433.36537  0.023284191  0.023429603            6 
 1552000   0.99168792   -7.4448562    433.72166   0.02328832  0.023421702            6 
 1553000    1.0090414   -7.4304265    433.58277  0.023265871  0.023413953            5 
 1554000   0.99390483   -7.4596959    432.83156  0.023210616  0.023406007            3 
 1555000    1.0144384   -7.4326275    433.82371  0.023248859  0.023398026            4 
 1556000   0.97601674   -7.4279188    433.30668  0.023206227  0.023390205            5 
 1557000     1.028205   -7.4186605     433.9418  0.023225316  0.023382318            5 
 1558000   0.99741049   -7.4305679    433.68903  0.023196889   0.02337438            4 
 1559000    1.0173548    -7.403564    433.90646  0.023193632  0.023366512            2 
 1560000    1.0085383   -7.4520459    433.90263  0.023178559  0.023358584            6 
 1561000   0.99507213   -7.4625365     433.8358  0.023160143  0.023350709            4 
 1562000    1.0246184   -7.4478349     432.9951  0.023100464  0.023342783            3 
 1563000    1.0076208   -7.4198991    434.67355  0.023175173  0.023334953            4 
 1564000   0.99894417   -7.4354188    434.10444  0.023130032  0.023327035            3 
 1565000    1.0284113   -7.4520583    435.31751  0.023179846  0.023319198            7 
 1566000    1.0106383   -7.4479418    434.54217  0.023123785  0.023311341            2 
 1567000   0.98159411   -7.4550497    435.30877  0.023149796  0.023303472            3 
 1568000   0.99098071   -7.4256262    435.33193  0.023136263  0.023295564            3 
 1569000    1.0011806   -7.4379521    434.81501  0.023094062  0.023287546            4 
 1570000   0.99989736   -7.4611631     434.8258  0.023079926  0.023279538            6 
 1571000   0.99945218   -7.5001897    433.60537  0.023000497  0.023271474            6 
 1572000   0.98895243    -7.417789     436.2651  0.023126861  0.023263492            3 
 1573000   0.99991304   -7.4094214    436.63416   0.02313171  0.023255568            3 
 1574000     1.001827   -7.4203569    435.77922   0.02307175  0.023247627            2 
 1575000   0.99081548   -7.3818002    436.43799  0.023091957  0.023239659            2 
 1576000   0.99155162    -7.437079    435.99727  0.023054001  0.023231773            6 
 1577000     1.003031   -7.4813743    435.22248   0.02299844  0.023223776            7 
 1578000     1.002006   -7.4856034    434.78205  0.022960607  0.023215671           12 
 1579000   0.98829764    -7.455242    435.91752  0.023005991  0.023207564            5 
 1580000   0.97956726   -7.4500711    436.39503  0.023016615  0.023199442            4 
 1581000    1.0100619   -7.4318038    436.91521  0.023029476  0.023191418            2 
 1582000    1.0157553   -7.4428341    435.44646  0.022937551  0.023183429            4 
 1583000   0.99635459   -7.4678217    437.17091   0.02301384  0.023175381            3 
 1584000    1.0262535   -7.4640995    436.89674  0.022984888    0.0231674            7 
 1585000    1.0035489   -7.5018876    435.53958  0.022899031  0.023159355            4 
 1586000    1.0081726     -7.47474    437.02434  0.022962607  0.023151346            6 
 1587000   0.98711959   -7.4117702    438.20824  0.023010304   0.02314347            4 
 1588000    1.0088654   -7.4437077    439.42644  0.023059742  0.023135673            5 
 1589000   0.98334965   -7.4308416    438.73308  0.023008867  0.023127916            7 
 1590000    1.0010368   -7.3990219    440.22829  0.023072761  0.023120223            4 
 1591000    1.0030074   -7.4532457    438.67574   0.02297694   0.02311247            3 
 1592000    1.0210117   -7.4181143    437.37986  0.022894674  0.023104611            5 
 1593000    1.0057269   -7.4510077     438.0125  0.022913397  0.023096874           10 
 1594000    1.0013835   -7.4237558    439.31642   0.02296719  0.023088999            8 
 1595000   0.98375101   -7.4917464    438.37342  0.022903523  0.023081121            5 
 1596000    1.0044514   -7.4443587    439.11257  0.022927766  0.023073337            7 
 1597000   0.97358362   -7.4268378    440.04269  0.022961944   0.02306559            5 
 1598000    1.0105383   -7.4305464    439.55271  0.022922023  0.023057705            2 
 1599000    1.0067116   -7.4661932    439.53732  0.022906885  0.023049852            6 
 1600000   0.98607546   -7.4747885     439.0503  0.022867203  0.023041899            8 
 1601000    0.9740195   -7.5142243    438.89021  0.022844587  0.023033936            6 
 1602000    1.0109423    -7.477396    439.12079  0.022842322  0.023026023            6 
 1603000    1.0122146   -7.5095055    440.07636  0.022877748   0.02301806            6 
 1604000    1.0223754   -7.4320543    440.97665  0.022910258  0.023010284            6 
 1605000    1.0129613   -7.4449108    441.42156  0.022919084  0.023002451            6 
 1606000   0.98118522   -7.4512299    440.44294  0.022854034  0.022994616            4 
 1607000    1.0213139   -7.5067529    440.10057  0.022822058   0.02298688            6 
 1608000    1.0054261   -7.4360934    440.59924  0.022833709  0.022978972            5 
 1609000   0.97035174    -7.476669    441.52219  0.022867319  0.022971138           11 
 1610000   0.99124192   -7.4428948    441.64646  0.022859548  0.022963457            3 
 1611000    1.0264675    -7.469335    441.75168  0.022850801  0.022955654            4 
 1612000    1.0042804   -7.4037812    442.92782  0.022897427  0.022947963            8 
 1613000   0.99681637   -7.4614264    443.60523  0.022918228  0.022940341            7 
 1614000   0.98315799   -7.4495985    441.98308  0.022820275  0.022932721            5 
 1615000    1.0203409   -7.4912189    442.23472  0.022819129  0.022925005            6 
 1616000    1.0147224   -7.4630912    443.34779  0.022862407  0.022917344            5 
 1617000    1.0048662   -7.4615618    441.90819  0.022774077  0.022909649            3 
 1618000    1.0066804     -7.47645    442.93238  0.022812751  0.022901981            3 
 1619000   0.98101241    -7.458439    442.82857  0.022793317  0.022894398            6 
 1620000    1.0248652   -7.4265604    443.98016  0.022838485  0.022886848            4 
 1621000   0.98904592   -7.4791353    442.75189  0.022761253  0.022879236            4 
 1622000    1.0058451   -7.4914917    442.03613  0.022710447  0.022871587            7 
 1623000     1.001798   -7.4919033    443.18094  0.022755234  0.022863858            4 
 1624000   0.97922441   -7.4823031    444.18648   0.02279282  0.022856212           15 
 1625000    1.0215183   -7.4597622    444.86175  0.022813423  0.022848653            3 
 1626000    1.0056784    -7.443594    445.75893  0.022845374  0.022841116            2 
 1627000   0.97688181   -7.4392662    444.60906  0.022772437   0.02283354            3 
 1628000    1.0059446   -7.4883388    444.21055   0.02273805   0.02282589            5 
 1629000    1.0049802   -7.4933563    444.26316  0.022726783  0.022818255            6 
 1630000   0.99533323   -7.5157056    443.87177  0.022692831  0.022810637            5 
 1631000   0.98975652   -7.4554593    445.21829  0.022747716  0.022803063            2 
 1632000   0.99567108   -7.4763307    445.07479   0.02272645  0.022795496            7 
 1633000   0.98656404   -7.4374304    446.46993  0.022783728   0.02278807            6 
 1634000   0.99487738   -7.4830093    445.03315  0.022696509  0.022780637            8 
 1635000   0.99335249   -7.4587827    446.43424  0.022754039   0.02277317            5 
 1636000    1.0083846   -7.5026414    444.83386  0.022658611  0.022765697            4 
 1637000   0.98005444   -7.4718933    445.77355  0.022692606  0.022758148            3 
 1638000   0.98385475   -7.4600725    446.78125  0.022730019  0.022750599           10 
 1639000     1.000446    -7.485606    446.16123  0.022684626   0.02274312            3 
 1640000   0.99177251   -7.4656539    446.70439  0.022698394  0.022735558            4 
 1641000   0.97256019   -7.4436014    447.74673  0.022737494  0.022728055            5 
 1642000   0.99052502   -7.4790285    446.48434  0.022659579  0.022720505            6 
 1643000    1.0010314   -7.4585408    446.78873  0.022661226  0.022712925            6 
 1644000   0.99536657   -7.4679694    447.19333  0.022667951  0.022705248            4 
 1645000   0.99444662   -7.4562288    447.00002  0.022644378  0.022697579            3 
 1646000   0.97933907   -7.4655996    446.95566  0.022628375  0.022689995            5 
 1647000   0.96465408   -7.4885125     446.2035  0.022576579  0.022682298            3 
 1648000   0.99714593   -7.4973028    445.47054  0.022525816  0.022674441            5 
 1649000   0.97386188   -7.4749591    447.25858  0.022602516  0.022666813            4 
 1650000    1.0003401   -7.4817514    446.73736  0.022562493  0.022659143           14 
 1651000   0.97920351   -7.5461067    445.69784  0.022496358   0.02265134            4 
 1652000    0.9927589    -7.479915     446.5293  0.022524682  0.022643504            2 
 1653000    1.0146208   -7.4897377    445.62993  0.022465715  0.022635761            5 
 1654000   0.97134127   -7.4598078    446.75332  0.022508732  0.022628009            4 
 1655000   0.95011804     -7.46857    447.94291  0.022555031  0.022620346           11 
 1656000    1.0105736   -7.4837912    447.95968  0.022542254  0.022612709            4 
 1657000    1.0118722   -7.4488292    448.46661  0.022554144  0.022605125            4 
 1658000   0.97861879   -7.4460766    449.59908  0.022597461  0.022597548            6 
 1659000   0.98511648   -7.4798756    447.12695  0.022459662  0.022589964            6 
 1660000   0.97794503   -7.4577783    449.68556  0.022574576   0.02258231            5 
 1661000   0.99626588    -7.533454      447.619  0.022457305   0.02257461            4 
 1662000   0.99191877   -7.4834945    447.91564  0.022458666  0.022567035            2 
 1663000   0.99267569   -7.4914384     447.9022  0.022444488  0.022559367            6 
 1664000   0.98245296   -7.5052466    448.22675  0.022447253  0.022551678            3 
 1665000   0.96765016   -7.5220245    448.34193  0.022439536  0.022543939            6 
 1666000   0.97693418   -7.4870023    448.21616  0.022419776  0.022536247            4 
 1667000   0.97435788     -7.50066    448.18297  0.022404668  0.022528555            7 
 1668000   0.98441165   -7.5249392     449.1653  0.022440313  0.022520908            5 
 1669000   0.97335334   -7.4882026    448.79752  0.022408504  0.022513386            9 
 1670000    1.0074952   -7.4799207    451.22778  0.022516356  0.022505855            3 
 1671000   0.98296433   -7.5128266    449.23664  0.022403582  0.022498305            4 
 1672000   0.96949752   -7.3856006    452.29032   0.02254238  0.022490916            4 
 1673000   0.97697867   -7.4747341    451.33968  0.022481554  0.022483585           14 
 1674000    0.9834895   -7.4966276     452.1024  0.022506093  0.022476153            8 
 1675000    0.9907991   -7.4670647    450.96548  0.022436094  0.022468703            8 
 1676000   0.98383358   -7.4782903    450.27684  0.022388467  0.022461244            5 
 1677000   0.97816998   -7.4886167     450.3014  0.022376337  0.022453824            4 
 1678000   0.95832928   -7.5077284    451.66272  0.022430608  0.022446285            5 
 1679000   0.97977438   -7.4944991    452.47569  0.022457598   0.02243882            7 
 1680000   0.98090944   -7.5288546    450.95496  0.022368798  0.022431265            4 
 1681000   0.97924628   -7.5122395     452.4898  0.022431579  0.022423806            3 
 1682000   0.98132955   -7.5105188    451.47762  0.022368095  0.022416357            4 
 1683000   0.98267591    -7.543774    451.98045  0.022379701  0.022408748            7 
 1684000   0.99053449   -7.5307044    451.41394  0.022338378   0.02240117            6 
 1685000   0.97082186   -7.5084588    451.82185  0.022345294  0.022393605           14 
 1686000   0.97702479   -7.5164992    452.67399  0.022374159  0.022386163           11 
 1687000   0.98721861   -7.4653894    452.77236  0.022365756  0.022378644            3 
 1688000   0.97546838   -7.4588115     452.9453  0.022361044  0.022371154            3 
 1689000   0.96601964   -7.4883522    453.20117  0.022360429  0.022363657            5 
 1690000   0.99325678     -7.45668     452.8506  0.022329911  0.022356167            5 
 1691000   0.95984782   -7.5148049    450.64831  0.022208176   0.02234855            4 
 1692000    0.9860835   -7.5209026    451.81674  0.022252597  0.022340893            4 
 1693000     1.006017   -7.5227858    451.66227   0.02223185  0.022333304            4 
 1694000   0.97901393   -7.5018035    452.78008  0.022273715  0.022325745            6 
 1695000    1.0082072   -7.5480601    451.79334  0.022212062  0.022318027            5 
 1696000    0.9620162   -7.4958847    453.04942  0.022260683  0.022310386            5 
 1697000   0.97755409   -7.5225489    452.75884  0.022233296  0.022302756            5 
 1698000   0.97862588   -7.5130866    452.86737  0.022225528  0.022295128            8 
 1699000   0.97941895   -7.5190914    452.89173  0.022213642  0.022287479            7 
 1700000   0.99820537   -7.4655402    454.73229  0.022290799  0.022279979            6 
 1701000   0.97306198   -7.5272806    452.14657  0.022151018  0.022272423            6 
 1702000   0.97784689   -7.4955237    453.43651  0.022201161  0.022264805            5 
 1703000   0.98361885     -7.50889    454.86273  0.022257914   0.02225724            5 
 1704000   0.96871014   -7.4762312     453.6237  0.022184258  0.022249799            8 
 1705000   0.97580744   -7.5074602    453.93482  0.022186452  0.022242284           10 
 1706000   0.99222781   -7.4755048    454.11806  0.022182399  0.022234768            8 
 1707000   0.96320481    -7.514556    454.57773  0.022191844  0.022227296            4 
 1708000    1.0089897   -7.5154894    455.11664  0.022205144  0.022219838            4 
 1709000   0.96362344   -7.5409042    454.05328    0.0221403  0.022212363            6 
 1710000   0.98510926   -7.4974709    456.20212  0.022232072   0.02220494            9 
 1711000   0.99321289   -7.4719571    455.53597  0.022186634  0.022197538            4 
 1712000   0.97151195   -7.4992487    455.90698  0.022191734  0.022190064           10 
 1713000   0.96287668   -7.5336069    455.64127  0.022165853  0.022182606            4 
 1714000   0.98936683   -7.5516732    454.01584  0.022073893  0.022175108            6 
 1715000   0.96979271   -7.5060305    455.77107  0.022146311   0.02216767            5 
 1716000   0.97950089   -7.5113669    456.27026  0.022157647  0.022160237            4 
 1717000   0.98370432   -7.4932316    457.11138  0.022185565  0.022152846            4 
 1718000   0.96784979   -7.5081297    454.71718  0.022056518  0.022145369            3 
 1719000   0.97243554    -7.559949    455.69915  0.022091291  0.022137838            3 
 1720000   0.99316847   -7.5582324    454.96944  0.022043093  0.022130222            5 
 1721000   0.98142919   -7.4994861    456.80583  0.022119205  0.022122727            8 
 1722000   0.96895511   -7.4874101    457.40919  0.022135559   0.02211531           17 
 1723000   0.96976599   -7.5184765     457.1292   0.02210917  0.022107902            4 
 1724000   0.99118123   -7.5297917    457.05264  0.022092645   0.02210038            4 
 1725000   0.98278957   -7.5112769    457.28504  0.022091065  0.022092994            2 
 1726000   0.97369705   -7.5303683    457.16869  0.022072648  0.022085631            5 
 1727000   0.97160681   -7.4956005    456.44529  0.022024961  0.022078276            8 
 1728000   0.98095614   -7.5164057    457.67835   0.02207168  0.022070869           12 
 1729000   0.99509551   -7.5064151    458.53215  0.022100065  0.022063512            6 
 1730000   0.95047448   -7.4904635    459.60328  0.022138886   0.02205612            5 
 1731000   0.97527548   -7.5266232    457.84177  0.022041295  0.022048812            7 
 1732000   0.94673208    -7.535783    456.63955  0.021970725  0.022041429            3 
 1733000   0.98038275      -7.5186     457.7711  0.022012459  0.022034018            2 
 1734000    0.9846527   -7.5249465    458.16258  0.022018578  0.022026632            6 
 1735000   0.97840966   -7.5070373    458.54433  0.022024224  0.022019243           13 
 1736000    0.9682082   -7.5114588    458.65101  0.022016657  0.022011845            8 
 1737000   0.98208201   -7.5242347    459.28996  0.022034636  0.022004581            4 
 1738000   0.99158992   -7.5627424    458.61109  0.021989408  0.021997241            6 
 1739000   0.99003579   -7.5199076    458.23411  0.021958698  0.021989861           12 
 1740000   0.97074215   -7.5286749    458.26447  0.021947532  0.021982621            6 
 1741000   0.95805874   -7.5574261    459.05582  0.021972804    0.0219753            3 
 1742000   0.98291147    -7.516795    458.38845  0.021928265  0.021967961            3 
 1743000   0.98495541    -7.537149    459.23523  0.021956169  0.021960698            4 
 1744000   0.98634232   -7.5607238    460.14788  0.021987188  0.021953401            4 
 1745000   0.97330852   -7.5422887    459.81366  0.021958628  0.021946098            3 
 1746000   0.99722716    -7.554616    459.16255  0.021914975  0.021938837            7 
 1747000    0.9886927   -7.5413508     460.2059  0.021952199  0.021931522            4 
 1748000    0.9565471    -7.568549    458.94099  0.021879338  0.021924156            4 
 1749000   0.97313268   -7.5381259    459.81806  0.021908617  0.021916795            8 
 1750000   0.96086907   -7.4895563    463.09376  0.022052084  0.021909513            7 
 1751000   0.97843145   -7.4857027    462.10211  0.021992295  0.021902291            5 
 1752000   0.98947479   -7.5612491    460.24214  0.021891274  0.021895049            3 
 1753000   0.97179657   -7.5621061    460.74151  0.021902525  0.021887756            7 
 1754000   0.97803594   -7.5080909    460.54244   0.02188058  0.021880485            4 
 1755000   0.95522166   -7.5253811    461.56253  0.021916549   0.02187325            5 
 1756000   0.94994102   -7.5384999    459.94055  0.021827095  0.021865996            5 
 1757000   0.99291764   -7.5702992    460.97033  0.021863514  0.021858757            7 
 1758000    0.9771602   -7.5228894    461.46101  0.021874337  0.021851491            4 
 1759000   0.95959045   -7.5429499    461.62085  0.021869474  0.021844198            8 
 1760000   0.98257557   -7.5528122    462.12719  0.021881022  0.021836893            6 
 1761000   0.99125148    -7.528308    462.19044   0.02187159  0.021829534            4 
 1762000   0.95799703   -7.5102843     463.8769  0.021938938  0.021822214            4 
 1763000   0.96565527   -7.4876347    464.18221  0.021940925  0.021815011            7 
 1764000   0.96335735   -7.5419563    462.54972  0.021851366   0.02180781            7 
 1765000   0.98428365   -7.5303819    461.50887  0.021789843   0.02180055            6 
 1766000   0.94111534    -7.593447    461.38767  0.021771785  0.021793162           15 
 1767000   0.99841589   -7.5107673    462.72968  0.021822754  0.021785852            6 
 1768000   0.98015778   -7.5415942    462.77921  0.021812746  0.021778538            3 
 1769000   0.95783256   -7.5424251    462.47146  0.021785918   0.02177126           12 
 1770000   0.97988787   -7.5632263    462.51731  0.021775768  0.021763967            5 
 1771000   0.97889028   -7.5481449    463.50834  0.021810104  0.021756689            3 
 1772000   0.99017899   -7.5226246    463.83114  0.021812977  0.021749499            5 
 1773000    0.9866904     -7.53552    463.47451  0.021783912  0.021742335            3 
 1774000   0.95970449   -7.5372452    463.11055  0.021754535  0.021735106            4 
 1775000   0.97893024   -7.5557997    463.98794  0.021783472  0.021727867            4 
 1776000   0.97429445   -7.5437636    464.55139  0.021797644  0.021720666            4 
 1777000   0.97900921   -7.5508883    464.13393    0.0217658  0.021713443            6 
 1778000   0.96572143   -7.5135442    463.82153  0.021738917  0.021706226            4 
 1779000   0.98074736   -7.5318356    464.30762  0.021749467  0.021699051            5 
 1780000   0.96232364   -7.5366075    464.54429  0.021748328  0.021691898           11 
 1781000   0.97285578   -7.5334781    463.67054  0.021695234  0.021684601            7 
 1782000   0.96428384   -7.5455541    463.28527  0.021665042  0.021677347            4 
 1783000   0.96937343   -7.5835682    463.95005  0.021683962  0.021670112            4 
 1784000   0.97337436   -7.5625682     464.0186  0.021675009  0.021662824            4 
 1785000   0.96752214   -7.5878111    463.93379  0.021658907  0.021655589            8 
 1786000   0.96277784   -7.5305128    464.88994  0.021691393  0.021648342            9 
 1787000   0.96274405   -7.5737276    463.39384  0.021609487  0.021641032            5 
 1788000   0.96694349   -7.6003813    463.63398  0.021608593  0.021633683           11 
 1789000   0.97132803   -7.5838361     464.8224  0.021651873  0.021626294            3 
 1790000   0.93433261   -7.5767433    464.91423  0.021644052  0.021618951            5 
 1791000   0.98045892   -7.6164312    463.11649   0.02154832   0.02161158            5 
 1792000   0.96450082   -7.5357305    463.76554  0.021566478  0.021604274            4 
 1793000   0.99079061   -7.5988725    464.74101  0.021599787  0.021596903            4 
 1794000   0.96641948   -7.5597883    465.13575  0.021606083  0.021589562            6 
 1795000   0.94245373   -7.5713959    465.40449  0.021606522  0.021582284            3 
 1796000   0.95469782   -7.5645605    464.70455  0.021562015  0.021574876            2 
 1797000   0.97041994   -7.6069776    464.19774  0.021526514  0.021567467            8 
 1798000   0.96988466   -7.5729031    465.66735  0.021582654  0.021560061            5 
 1799000   0.96980289   -7.5694097     464.8828  0.021534315  0.021552606            2 
 1800000    0.9541546    -7.600673    464.46224  0.021502882  0.021545228           10 
 1801000   0.94416841   -7.5666545    464.88996  0.021510733  0.021537794            8 
 1802000   0.97794126   -7.5727197    464.65496  0.021487928  0.021530431            5 
 1803000   0.93819832   -7.5470167    466.18393  0.021546678   0.02152309            5 
 1804000   0.95397717   -7.5135974    466.20814  0.021535853  0.021515678            3 
 1805000   0.96600753   -7.5738156    464.35692  0.021438454  0.021508212           10 
 1806000   0.97430236   -7.5787304    466.09508  0.021506787  0.021500676            4 
 1807000   0.96628159   -7.5242723    466.52013  0.021514487  0.021493303            5 
 1808000   0.95038061   -7.5533174    466.64925  0.021508539  0.021485823            5 
 1809000   0.95803207   -7.5728403     467.7414  0.021546959  0.021478476            5 
 1810000    0.9694887   -7.5322928     466.5537  0.021480373  0.021471126            5 
 1811000   0.96571612   -7.5225565    467.33117  0.021504287  0.021463784            7 
 1812000   0.97687231   -7.5350316    468.58614  0.021550135  0.021456516            3 
 1813000   0.95267711   -7.5511377    467.19891  0.021474485  0.021449244            4 
 1814000   0.94053733   -7.5511766    467.30559  0.021467548  0.021441895            5 
 1815000   0.96680187   -7.5478119     467.0349  0.021443292  0.021434572           15 
 1816000   0.97138069   -7.5770265    466.87223  0.021424019  0.021427216            4 
 1817000   0.95242738   -7.5000692    469.25051  0.021521304  0.021419971           10 
 1818000   0.98255475   -7.5842545    467.66942  0.021436992  0.021412814            5 
 1819000   0.96942529   -7.6060044     465.6908  0.021334561  0.021405443            6 
 1820000   0.95184229    -7.605797    466.45619  0.021357884   0.02139812            5 
 1821000   0.97771139   -7.5869631    467.94138  0.021414121  0.021390742            8 
 1822000    0.9413413   -7.5522974    468.05023  0.021407347  0.021383444           10 
 1823000   0.96845672   -7.5166864     469.1689  0.021446741  0.021376229            9 
 1824000   0.94264911   -7.5214915    469.23916  0.021438192  0.021369023            5 
 1825000   0.97949481   -7.5603673      468.842   0.02140831  0.021361855            5 
 1826000   0.93519333   -7.5633188    469.49389  0.021426337  0.021354701            3 
 1827000   0.93920914    -7.542071      468.841  0.021384829  0.021347475            6 
 1828000   0.97036243   -7.5713993    468.42583  0.021354204  0.021340147            3 
 1829000   0.97081015    -7.554706    468.46467  0.021344299  0.021332814            4 
 1830000   0.95024951   -7.5571442    468.35049  0.021327436  0.021325553            2 
 1831000   0.95576917    -7.546506    469.89475  0.021386071  0.021318337            8 
 1832000   0.94404429   -7.5798792    469.33415  0.021348897  0.021311052            5 
 1833000   0.95170927   -7.5697471    468.01777  0.021277404  0.021303716            6 
 1834000   0.95502949    -7.513181    469.04756  0.021312594  0.021296441            5 
 1835000    0.9717656   -7.5364049    470.52912  0.021368261  0.021289187            5 
 1836000   0.95241408   -7.5416175    471.74835  0.021411962  0.021282052            4 
 1837000   0.93187865   -7.5482872    471.30367  0.021380134  0.021274852            4 
 1838000   0.96559267    -7.568041    472.28127  0.021412825  0.021267704            3 
 1839000   0.95934454   -7.5340152    471.06501  0.021346067  0.021260604            5 
 1840000   0.95583167   -7.5637466    469.50118  0.021263641  0.021253382            7 
 1841000   0.95012282   -7.5787249    470.69433  0.021306098  0.021246145           13 
 1842000   0.96242278   -7.5929817    470.06358  0.021265996  0.021238908            4 
 1843000   0.97030314   -7.5924105    470.04742  0.021253727  0.021231623            6 
 1844000   0.95285275   -7.6086995    469.65701  0.021224557   0.02122431            5 
 1845000   0.96768739    -7.571079    471.32949  0.021288595  0.021217026            4 
 1846000   0.98154647   -7.5978104    472.52572  0.021331064  0.021209827            6 
 1847000   0.94231762   -7.5915895    469.86945  0.021199668  0.021202637            6 
 1848000   0.95769262   -7.6016302    470.77291  0.021228937  0.021195443            5 
 1849000   0.96939588   -7.5651109    473.19298  0.021326527  0.021188188            9 
 1850000   0.94520795   -7.5782215    470.83291  0.021208689  0.021180933           29 
 1851000   0.97084574   -7.5938706    470.93641  0.021201891   0.02117369           19 
 1852000   0.94785251   -7.5451763    471.62537  0.021221444  0.021166471            7 
 1853000   0.93614687   -7.5824609    471.57981  0.021207943  0.021159244           26 
 1854000   0.96211127   -7.5580227    473.41121  0.021278821  0.021152106           11 
 1855000    0.9345221   -7.6009211     471.5845  0.021185287  0.021144933            7 
 1856000   0.97743184   -7.5954326    472.26488  0.021204422  0.021137719            6 
 1857000   0.98116308   -7.5619773    473.41259  0.021244507  0.021130523            4 
 1858000   0.93866446   -7.5851771    472.23009  0.021180036   0.02112342            5 
 1859000   0.97913246   -7.5344337    473.51815  0.021226383  0.021116267            5 
 1860000   0.94474648   -7.5586611    473.64085  0.021220468  0.021109132            4 
 1861000   0.95161225   -7.5444009    473.71182  0.021212243   0.02110203            2 
 1862000   0.96736596   -7.5496156    473.25051  0.021180205  0.021094857           10 
 1863000   0.94347115   -7.5706287      473.837  0.021195071  0.021087683            5 
 1864000   0.95579304   -7.5904734    472.73779  0.021134558  0.021080501            4 
 1865000   0.95478902   -7.6101657    471.66908  0.021075473  0.021073294           11 
 1866000    0.9599523   -7.5720619    474.37669  0.021185097  0.021066079            3 
 1867000    0.9726895   -7.6151487    473.08157  0.021115942  0.021058918            3 
 1868000    0.9283448   -7.5221109    474.84819  0.021183449  0.021051765            5 
 1869000   0.95186169   -7.5391451    474.93472  0.021175973  0.021044643            4 
 1870000   0.94957706   -7.6033798    472.99975   0.02107842  0.021037448            4 
 1871000   0.96089238   -7.5682857    472.70378  0.021053972  0.021030097            4 
 1872000   0.96020137   -7.6015992    472.90058  0.021051486  0.021022848           11 
 1873000   0.94589455   -7.6391205    472.67926    0.0210304   0.02101555            9 
 1874000   0.94070328   -7.5792603    473.18136  0.021041505  0.021008301            9 
 1875000   0.97523917   -7.5702936    474.16322  0.021073921  0.021000973            5 
 1876000   0.94167805   -7.5441635    474.38942  0.021072735  0.020993773           13 
 1877000     0.969894   -7.6045365    473.47681  0.021020991   0.02098654            7 
 1878000   0.95091846   -7.5812973    474.52849  0.021056465  0.020979339            6 
 1879000   0.95802445    -7.579433    473.80983  0.021013386  0.020972083            4 
 1880000   0.96792553   -7.5686781     475.1896  0.021063369  0.020964825            4 
 1881000   0.93273452   -7.5794097    474.48715   0.02102105  0.020957629            3 
 1882000   0.95412065   -7.5825838    473.93627  0.020985489   0.02095034            4 
 1883000   0.94049981   -7.5718811    473.09244  0.020936999  0.020942987            4 
 1884000   0.93334356   -7.6056738    472.77899  0.020912022  0.020935742            4 
 1885000   0.95475635   -7.6173202    474.01813  0.020955708  0.020928429            3 
 1886000   0.95248912   -7.6192683    473.42518  0.020918398  0.020921075            8 
 1887000   0.94004266   -7.5752053    474.49951  0.020954757  0.020913844            9 
 1888000   0.96274377   -7.5749298    474.27348  0.020933681  0.020906667            6 
 1889000   0.95220362   -7.5901343    474.61495  0.020937663  0.020899518            4 
 1890000   0.95115103   -7.6068934     474.7079  0.020930684  0.020892255            8 
 1891000   0.96573712   -7.5976363    473.69102  0.020874803  0.020885045            9 
 1892000   0.93262682   -7.6088187    474.13894  0.020883498  0.020877757            3 
 1893000   0.94449777   -7.5983676     475.7365  0.020942794  0.020870472            5 
 1894000   0.92641494   -7.6445787    473.79674  0.020846389  0.020863099            8 
 1895000   0.93961355   -7.5979166    475.82265  0.020924479  0.020855826            4 
 1896000   0.96016249   -7.5764206    476.30456  0.020934624  0.020848655            5 
 1897000   0.92873671   -7.6030306    474.10134  0.020826803  0.020841423           10 
 1898000   0.93178987   -7.6000187    475.11515  0.020860342  0.020834222            8 
 1899000   0.95021219   -7.5570603    474.66197   0.02082947  0.020827014            4 
 1900000   0.96455436   -7.5775916    476.88698  0.020916096  0.020819813            8 
 1901000   0.95751665   -7.5757908    477.07319  0.020913256  0.020812693            8 
 1902000   0.92935178   -7.5658704    476.93478  0.020896196   0.02080559            4 
 1903000   0.95201634   -7.5891879    477.53712  0.020911592  0.020798531            4 
 1904000   0.94943221   -7.5615169    476.90261  0.020872838  0.020791479            7 
 1905000   0.91956329   -7.6153551    477.83075  0.020902482  0.020784368            8 
 1906000   0.95847436   -7.5840392    477.50686  0.020877355  0.020777191            5 
 1907000    0.9618527   -7.5906995    477.44642  0.020863766  0.020770078            3 
 1908000    0.9481379   -7.6218523    476.75111  0.020822463  0.020762939            3 
 1909000   0.94977437   -7.6425738    475.27433   0.02074709  0.020755767            6 
 1910000   0.92694728   -7.6077035    477.20137  0.020820304  0.020748629            4 
 1911000    0.9620929   -7.5945852     477.8051  0.020835736  0.020741496            4 
 1912000   0.93211666   -7.6136068    477.59704  0.020815771    0.0207343            4 
 1913000   0.97728855   -7.5824131    477.54723   0.02080272   0.02072714            9 
 1914000   0.95480395   -7.6155419    478.29004  0.020824192  0.020720064            8 
 1915000   0.94189554   -7.6340927    477.29744  0.020770123  0.020712869            4 
 1916000   0.97347895   -7.6229373    476.98288  0.020745602   0.02070564           10 
 1917000   0.93527317   -7.6521537    477.43263  0.020754331  0.020698487            6 
 1918000   0.93710802   -7.6495769    476.17244  0.020688757  0.020691229            4 
 1919000   0.94455044   -7.6346352    477.68499  0.020743659  0.020684003            5 
 1920000   0.97904787   -7.6159393    477.79158  0.020737482  0.020676763            5 
 1921000   0.97013701   -7.6314325    476.70181  0.020679412  0.020669534            4 
 1922000   0.93090627   -7.6041143    478.19355  0.020733331  0.020662314            4 
 1923000   0.94206804    -7.623815    478.66078  0.020742797  0.020655155            8 
 1924000   0.95545755   -7.6284754     478.8838  0.020741675  0.020647974            9 
 1925000   0.94047838   -7.5965119    477.93589  0.020689865  0.020640748            3 
 1926000   0.93107026   -7.6061166    478.71296  0.020712745  0.020633568            3 
 1927000   0.93024793   -7.6176798    477.52447    0.0206506  0.020626408            6 
 1928000   0.95281506   -7.6032938    478.21979  0.020669942  0.020619287            2 
 1929000   0.94527941   -7.6075534    479.10944   0.02069766  0.020612121            4 
 1930000   0.94959713   -7.5787391    479.67749  0.020711463  0.020605005            2 
 1931000   0.97522721   -7.6314746    478.30149  0.020641356  0.020597888            5 
 1932000   0.95036382   -7.5955142    479.68426  0.020690315  0.020590755            2 
 1933000   0.93592817   -7.5819502    478.68265  0.020636431  0.020583644           14 
 1934000   0.93447758   -7.6003354    479.65108  0.020667489  0.020576518            4 
 1935000   0.93620731   -7.5868244    480.78854  0.020705794  0.020569379            2 
 1936000   0.96080941   -7.6025848    479.40403  0.020635504  0.020562273            5 
 1937000   0.95680553   -7.5993224    479.11364  0.020612358  0.020555091           12 
 1938000   0.95239922   -7.6261647    478.83673  0.020589815  0.020547927            6 
 1939000   0.91247679   -7.6367174    478.97756  0.020585249  0.020540749            5 
 1940000   0.93041767   -7.6040239    479.68236  0.020604912  0.020533533            4 
 1941000   0.94787876   -7.6683217    478.26636  0.020533503  0.020526328            9 
 1942000   0.95148462   -7.6022049    479.65262  0.020582416   0.02051911            5 
 1943000   0.93290348   -7.6016894    480.18016  0.020594448  0.020511952            5 
 1944000   0.93437003   -7.6169197    480.15147  0.020582625  0.020504723            8 
 1945000   0.94748927   -7.6355152    479.56522  0.020546925  0.020497458            5 
 1946000   0.94730055   -7.6493278    478.81514  0.020504245   0.02049017           11 
 1947000   0.96334513   -7.5978306    480.88009  0.020582096  0.020482998            4 
 1948000   0.92948195   -7.6816888    479.42339  0.020509214  0.020475763           16 
 1949000   0.93749656   -7.6176221    479.52747  0.020503141  0.020468495           14 
 1950000   0.94398881   -7.6369898    479.98329  0.020512106  0.020461269           13 
 1951000   0.93346263   -7.6028918    480.52243  0.020524621  0.020454083            4 
 1952000   0.94082348    -7.601559    479.76312  0.020481691  0.020446896            8 
 1953000   0.95061136   -7.5907646    480.92696  0.020520864   0.02043979            8 
 1954000   0.94135248   -7.5922013    482.08388  0.020559701  0.020432707            3 
 1955000   0.93268575   -7.6448049    480.96495   0.02050149  0.020425621            9 
 1956000   0.94677197   -7.6056614     480.6008  0.020475494  0.020418529            6 
 1957000    0.9269685   -7.5800132    481.38321  0.020498348  0.020411406            4 
 1958000   0.94322406   -7.6224258    480.91318  0.020467875  0.020404301            4 
 1959000   0.91839015   -7.6126316    482.25561  0.020514532  0.020397102            6 
 1960000   0.94467055   -7.6327635    481.52444  0.020472978   0.02038994            3 
 1961000   0.93641646   -7.5943127    480.85783   0.02043421  0.020382776            3 
 1962000   0.96333281   -7.6533871    480.07363  0.020390487  0.020375598            2 
 1963000   0.93118042   -7.6230636    481.89555  0.020457444  0.020368381           11 
 1964000   0.94717061   -7.5802851    482.42137  0.020469339  0.020361199            6 
 1965000   0.92701155   -7.6433478    480.45853   0.02037568  0.020354005            8 
 1966000   0.93583021   -7.6582971    479.58086  0.020328114  0.020346749            5 
 1967000   0.95718722   -7.6623419    480.80187  0.020369508  0.020339535            8 
 1968000   0.93786191   -7.6098517    481.63103  0.020394268  0.020332381            6 
 1969000    0.9353411   -7.6679511    481.34325  0.020371731  0.020325122           11 
 1970000   0.94033762   -7.6413157    482.45982  0.020408622   0.02031793            5 
 1971000   0.92294376   -7.6367694     481.6767  0.020365157  0.020310806            6 
 1972000   0.93414875   -7.6148168    482.57105  0.020392624   0.02030365            8 
 1973000    0.9143446   -7.6369736    481.60429  0.020341455  0.020296431            9 
 1974000   0.92937553   -7.6742449    481.23688   0.02031564  0.020289218            5 
 1975000   0.92569176   -7.6523958    481.94623  0.020335284  0.020281964            7 
 1976000   0.96172025   -7.6945545    481.03101  0.020286396  0.020274719           18 
 1977000   0.92526379   -7.6226396    482.51703  0.020338772  0.020267512           10 
 1978000   0.93298931   -7.6572474    482.77166  0.020339217  0.020260335            4 
 1979000   0.92639818   -7.6275812    483.36884  0.020354086  0.020253238            8 
 1980000    0.9431381   -7.6246558    483.48892   0.02034886  0.020246082           13 
 1981000     0.936249   -7.6631144    482.30209  0.020288663  0.020238966            5 
 1982000    0.9307584   -7.6596618    483.24094    0.0203179  0.020231778            6 
 1983000   0.92015556   -7.6267806    482.58471  0.020280077  0.020224598           10 
 1984000    0.9542967   -7.6293899    484.08985  0.020333075  0.020217413            5 
 1985000   0.93947741   -7.6304642    483.80084  0.020310699  0.020210305            7 
 1986000    0.9258961   -7.6236035    484.10486  0.020313228  0.020203171            7 
 1987000    0.9362949   -7.6397223     483.6189  0.020282624  0.020196037            5 
 1988000   0.93332086   -7.6201445    484.15507  0.020294897  0.020188969            3 
 1989000   0.94200221   -7.6542848    484.48127  0.020298361  0.020181956            7 
 1990000   0.94615929   -7.6538057     483.3427  0.020240482  0.020174945            7 
 1991000   0.93085336   -7.6565613    483.43327  0.020234106  0.020167936            6 
 1992000   0.95982881   -7.6540783    484.89009  0.020284893  0.020160925            6 
 1993000   0.91760421   -7.6511045    484.23806  0.020247452  0.020153913           12 
 1994000   0.92663368   -7.6486296    484.40517  0.020244282  0.020146897            8 
 1995000   0.92771701   -7.6811105    483.50486  0.020196527  0.020139895            5 
 1996000   0.93216879   -7.6113443    484.66804  0.020234972  0.020132873           12 
 1997000   0.93284266   -7.6578437    484.61197  0.020222499  0.020125838            4 
 1998000    0.9253926    -7.658317    484.18952  0.020194758  0.020118799           14 
 1999000   0.91881455   -7.6065512    486.94391  0.020299479  0.020111826            3 
 2000000   0.91306718   -7.6526393    484.50262  0.020187609  0.020104808            7 
 2001000   0.93591916   -7.6401829    485.45142  0.020217034  0.020097745            4 
 2002000   0.93819967   -7.6233849    485.94009  0.020227277  0.020090745            6 
 2003000   0.93036907   -7.6494629    486.53149  0.020241783  0.020083793            3 
 2004000   0.93051736   -7.6393906    487.14532  0.020257207  0.020076863            7 
 2005000   0.93319297   -7.6509924    487.46642   0.02026045  0.020069987            8 
 2006000    0.9047372   -7.6062852    487.08817  0.020234637  0.020063112            5 
 2007000   0.92583171   -7.6356954     487.1312  0.020226341  0.020056227            9 
 2008000   0.91867184   -7.6540609    486.45138  0.020188055  0.020049378            4 
 2009000   0.93144466   -7.6670091     485.9636  0.020157773  0.020042437            8 
 2010000   0.95919935   -7.6701305    486.17581  0.020156543  0.020035534            2 
 2011000   0.92499752   -7.6389282    486.75351  0.020170459  0.020028663            6 
 2012000   0.93341937   -7.6754309    486.41482  0.020146406  0.020021716            7 
 2013000   0.91722653   -7.6358823    487.85361   0.02019596  0.020014727            7 
 2014000    0.9269652   -7.6965955    486.14035  0.020115043   0.02000782            5 
 2015000   0.91948139   -7.6498819    489.48265  0.020243286  0.020000936           19 
 2016000    0.9261436   -7.6249371    487.75461  0.020161814  0.019994063            6 
 2017000   0.93398338   -7.6299397    488.44285  0.020180253  0.019987256            4 
 2018000   0.94266743   -7.6448793    487.45349  0.020129398  0.019980355            8 
 2019000   0.91767143   -7.6918888    487.47227  0.020120203  0.019973434            6 
 2020000   0.94870665   -7.6387471    488.65601  0.020159076  0.019966527            7 
 2021000   0.91218148   -7.6471291    486.81895  0.020073353  0.019959656            6 
 2022000   0.94581541   -7.6277335     487.2792  0.020082394  0.019952718            9 
 2023000   0.93739939   -7.6963408    486.33794  0.020033694  0.019945814            4 
 2024000   0.94723137    -7.665744    487.33674  0.020064918  0.019938862            4 
 2025000   0.92811849   -7.6618062     488.4702  0.020101654  0.019931883           12 
 2026000   0.93517906   -7.6457605    487.65954  0.020058388  0.019924931           10 
 2027000   0.90974944    -7.647791    487.80454  0.020054454  0.019917965            6 
 2028000   0.94689493   -7.6644404    487.99175  0.020052258  0.019910983           13 
 2029000   0.92667926   -7.6851654    487.26318  0.020012452  0.019904083           12 
 2030000   0.91983614   -7.6722518    488.26622  0.020043769  0.019897099            6 
 2031000   0.95203792   -7.6560213    488.82751   0.02005693  0.019890179           12 
 2032000   0.92977876   -7.6674902    488.63489   0.02003916  0.019883298            4 
 2033000   0.93830415   -7.6336997    488.89179  0.020039834  0.019876375            8 
 2034000   0.91370687   -7.6252227    489.44005  0.020052444  0.019869452            5 
 2035000   0.91829801   -7.6476271    489.82678  0.020058427  0.019862539           12 
 2036000   0.92752394   -7.6978393    487.52571  0.019954392  0.019855623            4 
 2037000   0.92274025   -7.6831175    487.34137  0.019937055  0.019848656           14 
 2038000   0.90530239   -7.6803126    488.32644  0.019967552  0.019841674            8 
 2039000   0.91965295   -7.6613786    487.61677  0.019928755  0.019834715            5 
 2040000   0.91222872   -7.6569691    488.99833  0.019975422  0.019827751            5 
 2041000   0.93075872   -7.6565284     488.9945  0.019965478  0.019820812            7 
 2042000   0.92294036   -7.6664403    488.56659  0.019938238  0.019813869            6 
 2043000    0.9210592   -7.6612501    490.13677  0.019992526  0.019806968            4 
 2044000   0.90639194   -7.6674678    490.07305  0.019980147   0.01980011           12 
 2045000   0.92392305   -7.6405296    490.28571  0.019979043  0.019793267           13 
 2046000    0.9431907   -7.6778022    489.72742  0.019946539  0.019786372           19 
 2047000   0.91736648   -7.6512529    491.30008  0.020000817  0.019779501            6 
 2048000   0.92107707   -7.6677356    489.72203  0.019926841  0.019772631            6 
 2049000   0.92920403   -7.6679106    489.81625  0.019920947  0.019765756            5 
 2050000   0.93391455   -7.7014097    490.23346   0.01992819  0.019758828           10 
 2051000   0.93249638   -7.6767311    490.43532  0.019926675  0.019751903            5 
 2052000   0.94781154   -7.6985066    490.28687  0.019910935  0.019745001            9 
 2053000   0.91554719   -7.6701283    489.58938  0.019872925  0.019738095           11 
 2054000   0.92885176   -7.6517412    491.24018  0.019930225  0.019731227            3 
 2055000   0.92250681   -7.6704135    490.56189  0.019893021  0.019724372           11 
 2056000   0.91706036   -7.6651652    490.22527  0.019869701  0.019717454            5 
 2057000   0.92101743    -7.685875    490.90821  0.019887709  0.019710519            5 
 2058000     0.916309   -7.6940289    489.73644  0.019830598  0.019703626            7 
 2059000   0.90851842   -7.7239052    490.70352  0.019860107  0.019696629           17 
 2060000   0.91635086   -7.7374902    489.89125  0.019817607  0.019689626           27 
 2061000   0.91576897   -7.7207095    489.58977  0.019795802  0.019682618            7 
 2062000   0.93556501   -7.6856019    490.30862  0.019815253  0.019675669           12 
 2063000   0.93910335   -7.6806236    490.18453  0.019800635  0.019668732            9 
 2064000    0.9180888   -7.6989042    490.66331  0.019810373  0.019661834            3 
 2065000   0.93116301   -7.6759009    491.66418   0.01984117  0.019654944            8 
 2066000   0.92397947   -7.6592728    491.18361  0.019812182   0.01964807            6 
 2067000   0.92526406   -7.7037564     491.7927  0.019827153  0.019641207            9 
 2068000     0.920361   -7.6666187    492.23271  0.019835296  0.019634365            4 
 2069000    0.9207934   -7.6971623    490.88464  0.019771413  0.019627538            6 
 2070000   0.93748271   -7.6804039    492.58272  0.019830222  0.019620727            7 
 2071000   0.92625452   -7.6801721    492.71114  0.019825815  0.019613942            8 
 2072000   0.92537135   -7.6601115    492.49373  0.019807502  0.019607145            6 
 2073000   0.91874669   -7.6636701    492.19533  0.019785951  0.019600379            3 
 2074000   0.90722557   -7.7287614    490.28286  0.019699568  0.019593522           16 
 2075000   0.92823164   -7.7067359    491.75509    0.0197492   0.01958659            7 
 2076000   0.91003969   -7.7042964    491.77182  0.019740359  0.019579684            7 
 2077000   0.93200902   -7.7223918    490.45461  0.019678005   0.01957279            5 
 2078000   0.90601783    -7.667073    492.45123  0.019748606  0.019565916            8 
 2079000    0.9151364    -7.676932     492.4833  0.019740392  0.019559098            7 
 2080000   0.91791388    -7.682489    491.38826   0.01968703  0.019552245            5 
 2081000    0.9229355   -7.7262186    491.81187  0.019694533  0.019545375            5 
 2082000   0.91751112   -7.6753347    492.52978  0.019713808   0.01953858            6 
 2083000   0.90695862   -7.6859915    492.69275  0.019710864  0.019531774           13 
 2084000   0.90820588   -7.6783566    493.81617  0.019746328  0.019524989            9 
 2085000   0.92726578   -7.7068314    493.01293  0.019704753  0.019518236            5 
 2086000   0.92534548   -7.6779125    493.84078  0.019728379  0.019511444            9 
 2087000   0.93879111   -7.6989533    493.35926  0.019699699  0.019504603            9 
 2088000   0.91277965   -7.6989762    493.84774   0.01970976  0.019497794           14 
 2089000   0.90732517   -7.7050123    492.61263  0.019651054  0.019490976           19 
 2090000   0.88979071   -7.7150654    492.73055  0.019646353  0.019484138            5 
 2091000    0.9039043    -7.679698    493.30655  0.019659913  0.019477297           10 
 2092000   0.92990416   -7.7219413    492.08516  0.019601863  0.019470474            7 
 2093000   0.91211149    -7.673109     494.1766  0.019675768  0.019463627            8 
 2094000   0.90658853   -7.7220053    493.20588  0.019627741  0.019456787            8 
 2095000   0.92487937   -7.7182485    493.53711  0.019631548  0.019449916           16 
 2096000    0.9081849   -7.7181122    492.87757  0.019595959  0.019443097            9 
 2097000   0.91258635   -7.7219821    493.78969  0.019622861  0.019436309           18 
 2098000   0.92860762   -7.7105301    494.67566    0.0196487  0.019429532           34 
 2099000   0.92601602   -7.7558665    493.76625  0.019603234  0.019422691           10 
 2100000   0.92145343   -7.6942013    494.30889  0.019615432  0.019415941           10 
 2101000    0.8842716   -7.6880335    493.71069  0.019582369  0.019409231            7 
 2102000    0.9044177   -7.7169971    493.42474  0.019561717  0.019402497           10 
 2103000   0.93570832   -7.7160176    494.19304   0.01958286  0.019395693            6 
 2104000   0.90016064   -7.6603162    496.32197  0.019657873  0.019388922           12 
 2105000    0.9028668   -7.7045522    495.46947  0.019614785  0.019382274            6 
 2106000   0.90810151   -7.7006389    494.18255  0.019554549  0.019375546            8 
 2107000    0.9102053   -7.7244286    495.13209  0.019582823  0.019368785            3 
 2108000   0.89578836   -7.6968022    495.24656  0.019578058  0.019362057           26 
 2109000   0.92178997   -7.6827931    495.35837  0.019573193  0.019355366            6 
 2110000   0.90743338   -7.6562137    495.28839  0.019561153  0.019348747            6 
 2111000   0.90980488   -7.7101983    494.81091  0.019533037  0.019342116           18 
 2112000   0.91114692   -7.7240768    493.36965  0.019466921  0.019335384           12 
 2113000   0.92469179   -7.7170702     493.9441  0.019480363  0.019328639            4 
 2114000   0.88268266   -7.7282761    496.13673  0.019557582  0.019321914           10 
 2115000   0.90842967   -7.7405773    494.38924  0.019479481  0.019315099            5 
 2116000   0.90940473   -7.7237764    495.33294  0.019507441  0.019308364            4 
 2117000    0.9035353    -7.729034    496.08614  0.019527875  0.019301635           14 
 2118000   0.91366965   -7.6988942    495.38429  0.019491041  0.019294917           11 
 2119000   0.92153583   -7.7010092    495.18724  0.019474093  0.019288267           10 
 2120000   0.89505444   -7.7181012    495.60674  0.019481397  0.019281555            7 
 2121000   0.92382491   -7.7030647    496.28508  0.019498864  0.019274854           16 
 2122000   0.92563571   -7.7289132    496.94038  0.019515409  0.019268136           13 
 2123000   0.90085648   -7.7579918    494.71596  0.019418902  0.019261376            9 
 2124000   0.89907863   -7.7137609    496.37485  0.019474845  0.019254632            9 
 2125000   0.90527123   -7.7062072    496.22672  0.019459871  0.019247951           12 
 2126000   0.91611134   -7.7194808    495.59576  0.019425986  0.019241262            4 
 2127000   0.88091391   -7.7045771    495.00793  0.019393823  0.019234556            4 
 2128000   0.91390151   -7.7264548    496.23633  0.019432814  0.019227841            4 
 2129000   0.90731051   -7.7283894    496.60533  0.019438129  0.019221108            6 
 2130000   0.90777238   -7.6856277    497.95458  0.019481791  0.019214427            6 
 2131000   0.93026639   -7.7013046      497.275  0.019446074  0.019207773            7 
 2132000   0.91509092   -7.7353325    495.64234  0.019373137  0.019201099            7 
 2133000   0.91077625   -7.6965505    496.98313  0.019416437  0.019194426           11 
 2134000   0.91266319   -7.7454148      497.072  0.019410809   0.01918776            5 
 2135000   0.89372239   -7.7293545    496.79089  0.019390745  0.019180995           11 
 2136000    0.8988564   -7.7431243    498.24969   0.01943858  0.019174269            6 
 2137000   0.91436449   -7.7465516    497.64104   0.01940575  0.019167559            5 
 2138000   0.91306964   -7.7103101    496.67664  0.019359083  0.019160828            8 
 2139000   0.89909523   -7.7122182    498.76041  0.019431214  0.019154227            7 
 2140000    0.9029758    -7.727965    497.41282  0.019369658  0.019147591            6 
 2141000   0.92257984   -7.7313029    497.97866  0.019382635  0.019140949            2 
 2142000   0.91054251   -7.7304719    497.50203  0.019355043  0.019134271            4 
 2143000   0.90878643   -7.6843439    497.78085  0.019356854  0.019127629            4 
 2144000   0.92894572   -7.7314748    497.25904  0.019327544  0.019120931           11 
 2145000   0.89687021   -7.7331413    497.64178  0.019333403  0.019114218            7 
 2146000   0.91932182   -7.7094174    498.13591  0.019343581  0.019107529            7 
 2147000   0.91035783   -7.7382571     497.1102   0.01929476  0.019100872            4 
 2148000   0.88691168   -7.7173195    498.26963  0.019330758  0.019094143           10 
 2149000   0.91652054   -7.7530192    497.84554  0.019305318  0.019087506            3 
 2150000   0.91038801   -7.7369187    497.76605  0.019293258  0.019080832            3 
 2151000   0.91248793   -7.7423933    498.41426  0.019309401  0.019074137            5 
 2152000   0.89633489   -7.7608032    497.33039  0.019258457  0.019067418            9 
 2153000   0.92239383   -7.7458022    498.36541  0.019289573  0.019060659            8 
 2154000   0.90495912   -7.7350279    497.80879  0.019259084  0.019053889            5 
 2155000   0.91147224   -7.7577494    496.95525   0.01921714  0.019047166            3 
 2156000   0.91826844   -7.6678585    499.12938  0.019292261  0.019040466            3 
 2157000   0.89501683   -7.7404416    497.18501  0.019208198  0.019033805            9 
 2158000   0.90630945   -7.6988641    499.04255  0.019271028  0.019027094            9 
 2159000   0.91752302   -7.7527721    498.11896  0.019226454  0.019020395            5 
 2160000   0.88278668   -7.7190954    498.62216  0.019236966  0.019013657            3 
 2161000   0.91319704   -7.7268496    496.66324  0.019152524  0.019006959            5 
 2162000   0.92019155   -7.7552819    497.48629  0.019175389  0.019000229            6 
 2163000   0.90787178   -7.6958712    498.79407  0.019216908  0.018993517           15 
 2164000   0.90107452    -7.755973    498.55351  0.019198764  0.018986842           10 
 2165000   0.91455761   -7.7169582    498.65546  0.019193821  0.018980174            6 
 2166000   0.90215003   -7.7340717     498.5929  0.019182552  0.018973523            9 
 2167000    0.9166295   -7.7186682     500.6102  0.019251277  0.018966868            5 
 2168000   0.89376379   -7.7290621    498.69412  0.019168747  0.018960232            4 
 2169000   0.88800368   -7.7696926    498.73579   0.01916151  0.018953514           10 
 2170000   0.87957929    -7.724757    498.35337  0.019137994  0.018946813            3 
 2171000   0.90418224   -7.7665591       498.31  0.019127514   0.01894011           13 
 2172000   0.91017992   -7.7464469    500.11987  0.019188147  0.018933359           10 
 2173000   0.91689633   -7.7468327    497.63143  0.019083887  0.018926629            5 
 2174000   0.90615598   -7.7522547     499.7094  0.019154761  0.018919939            5 
 2175000   0.92955974   -7.7143308    498.71775   0.01910796  0.018913249            3 
 2176000   0.88998996   -7.7275119    500.10042   0.01915213  0.018906575            5 
 2177000   0.91255575   -7.7640788    498.99555  0.019101039  0.018899904            8 
 2178000   0.91606939   -7.7317003      499.253   0.01910212  0.018893182            5 
 2179000    0.9103988   -7.7402645    498.22892  0.019054188  0.018886445           10 
 2180000    0.8929769   -7.7860208    498.81414  0.019067819  0.018879712            4 
 2181000   0.89612128   -7.7736601    498.22653  0.019036624  0.018872955           11 
 2182000     0.895689   -7.7297583    500.98744  0.019133342  0.018866262            6 
 2183000   0.92207935   -7.7419743    499.73042  0.019076593  0.018859571            9 
 2184000   0.91154762    -7.760076    500.27603  0.019088676  0.018852873            7 
 2185000   0.91785789    -7.788862    499.96254  0.019067984  0.018846186            4 
 2186000   0.90401081    -7.746574    498.44428  0.019001383  0.018839491           11 
 2187000   0.88799779   -7.7374974    500.62295  0.019075711  0.018832784            8 
 2188000   0.91238573   -7.7396485    499.71186  0.019032292  0.018826078            6 
 2189000   0.89204307   -7.8090318    497.95221  0.018956609  0.018819409            9 
 2190000   0.90363639   -7.7464795    499.63154  0.019011855  0.018812674            7 
 2191000   0.91074422   -7.8060429    499.80091  0.019009619  0.018805914            7 
 2192000   0.90559914   -7.7348631    500.35348  0.019021954  0.018799193           10 
 2193000   0.89555777   -7.7350792    500.68306  0.019025804   0.01879251           18 
 2194000   0.89510163   -7.7057213    500.63358  0.019015253  0.018785845           10 
 2195000    0.8960127   -7.7643929    500.93708  0.019018112   0.01877919            7 
 2196000   0.92098645   -7.7398974    501.31241  0.019023695  0.018772559            6 
 2197000   0.89791262   -7.7265285    502.40563  0.019056503  0.018765933            7 
 2198000   0.90662776    -7.788402    499.06387  0.018921136  0.018759284            8 
 2199000   0.89691319    -7.735004    501.30827  0.018997585  0.018752608            6 
 2200000   0.90220014   -7.7958738    501.11613  0.018981672  0.018745977            5 
 2201000   0.89315044   -7.7919498    500.22504  0.018939309  0.018739316            5 
 2202000   0.88820117   -7.7663092    501.09911  0.018963787  0.018732663            5 
 2203000   0.90159403   -7.7609049    501.54185  0.018971927  0.018726088            9 
 2204000   0.88665213   -7.7063948    502.72497  0.019008052  0.018719513            8 
 2205000   0.88904218   -7.7361945    503.11023  0.019013992  0.018712935            3 
 2206000   0.92028126   -7.7786343    501.45308  0.018942773  0.018706341           10 
 2207000    0.8923958   -7.7737721    500.82613  0.018910517  0.018699685            9 
 2208000   0.90612729   -7.7450029    500.82202  0.018901797  0.018693029           15 
 2209000   0.89985901   -7.7411541    502.64241  0.018961914  0.018686376            8 
 2210000   0.88710153   -7.7753861    500.39076   0.01886843  0.018679666            9 
 2211000   0.91238491   -7.7616746    501.56965  0.018904329  0.018672959            8 
 2212000   0.90242173   -7.7758421    501.87466  0.018907273    0.0186663            4 
 2213000   0.91080163   -7.7463213    500.62902  0.018851823  0.018659649            9 
 2214000   0.88136331    -7.717868    502.83792   0.01892645  0.018653071            9 
 2215000   0.90691873   -7.7413182    502.12678  0.018891151  0.018646467            6 
 2216000   0.87923225   -7.7649641    501.68026  0.018865834  0.018639809            4 
 2217000   0.89565923   -7.7494083    501.56762   0.01885309  0.018633145           10 
 2218000   0.89891301   -7.7900116     501.7617  0.018851882   0.01862651            4 
 2219000   0.90569754   -7.8003166    501.55199  0.018835511  0.018619819           10 
 2220000   0.90506846   -7.7955407    502.29198  0.018854804  0.018613134            9 
 2221000   0.89335682   -7.7945062    501.46376  0.018815239  0.018606473           15 
 2222000   0.88787121   -7.7479708    502.55874  0.018847838  0.018599884           13 
 2223000   0.87781312   -7.7785273    501.36828  0.018794732  0.018593244            4 
 2224000   0.91485148   -7.7424864    502.22197  0.018818269  0.018586634            5 
 2225000   0.89215379   -7.7751789    502.38518  0.018815925  0.018580017            6 
 2226000   0.89279172   -7.7433456    502.06899  0.018795634  0.018573354            9 
 2227000   0.90234371   -7.7295682    502.27291  0.018794825  0.018566708            6 
 2228000   0.89794743   -7.7450319     503.2608  0.018823339   0.01856006            5 
 2229000   0.89122492   -7.7641088      502.386  0.018782189  0.018553407           12 
 2230000    0.8915151   -7.7641771    502.66862  0.018784328  0.018546725            7 
 2231000    0.8970679   -7.7568898    502.12869  0.018755741   0.01854003           15 
 2232000   0.89517046   -7.7782207    502.31832  0.018754418  0.018533367           11 
 2233000   0.87586492   -7.7382993    503.41574  0.018786974   0.01852668           11 
 2234000   0.89985581   -7.7667775    502.65496  0.018750185  0.018520031           15 
 2235000   0.91220483   -7.7752072     501.8332  0.018711156  0.018513362            7 
 2236000   0.88771197   -7.7944573    501.42821  0.018687694  0.018506656            5 
 2237000   0.88438786   -7.7694729    502.92116  0.018734956  0.018499948            6 
 2238000    0.8902898   -7.7977669    500.73238  0.018645084  0.018493231            8 
 2239000   0.93672989   -7.7645848    502.40998  0.018699195   0.01848654            8 
 2240000   0.88030973   -7.7528349    503.16034  0.018718763  0.018479898            8 
 2241000   0.88342577   -7.7794817    504.67399  0.018766696  0.018473232            9 
 2242000   0.90916571   -7.8038641    502.24077  0.018667885  0.018466558            8 
 2243000   0.90228083   -7.8023463     503.3324  0.018700119  0.018459855            6 
 2244000    0.8978229   -7.8075508    502.56312  0.018663217  0.018453135           17 
 2245000   0.90416949   -7.7870581    502.43905  0.018650299  0.018446437            8 
 2246000   0.89289786   -7.8171442    501.12377  0.018593194  0.018439679           10 
 2247000   0.87979911   -7.8000382    502.80174  0.018647149  0.018432928            5 
 2248000   0.88474692   -7.7980801    502.00225  0.018609217  0.018426213            6 
 2249000   0.90201355   -7.8048295    503.46375  0.018655097    0.0184195            9 
 2250000   0.87854464   -7.8078626    502.88637  0.018625421  0.018412768            4 
 2251000   0.90308865   -7.7429083    504.01742  0.018659019  0.018406105            9 
 2252000   0.87327098   -7.7453314    503.23664  0.018621841   0.01839948            6 
 2253000   0.89938851   -7.7376855    504.96615  0.018677546  0.018392846            5 
 2254000    0.8731731   -7.7779272    503.65946   0.01862095  0.018386206           18 
 2255000    0.8978441   -7.7893762    502.99549  0.018588156  0.018379493            8 
 2256000   0.89150713   -7.8097584    502.65309  0.018567268  0.018372809            8 
 2257000   0.88676564   -7.8029451    503.05876   0.01857402  0.018366095           10 
 2258000   0.88807503   -7.7611626    505.52077  0.018656657  0.018359452           11 
 2259000   0.87176389   -7.7886223    503.38495  0.018569609  0.018352798            5 
 2260000   0.88396783   -7.7838043    503.65261  0.018571261   0.01834616            6 
 2261000   0.87683103   -7.7697042    504.45427  0.018592594  0.018339525            8 
 2262000   0.90206146   -7.8301774    502.48236  0.018511729  0.018332913            6 
 2263000   0.88332436   -7.7726691    505.28172  0.018606633  0.018326325            4 
 2264000   0.89393853   -7.8174748    504.62802  0.018574353  0.018319795            4 
 2265000   0.88974428   -7.7962898    504.66191  0.018567399  0.018313185            3 
 2266000   0.89119088   -7.7642576     503.4968  0.018516358  0.018306588            5 
 2267000   0.87928571   -7.7970388    504.92877  0.018560828  0.018299991            5 
 2268000   0.89308302   -7.7839636    502.87027  0.018477009  0.018293371            4 
 2269000   0.90652902   -7.7947083    504.30113  0.018521417  0.018286729            4 
 2270000   0.89216913   -7.7745821     504.3364  0.018514552  0.018280124            5 
 2271000   0.88139891   -7.8073813    503.57777  0.018478562  0.018273476           10 
 2272000   0.89494366   -7.8041982    504.80172  0.018515321    0.0182668           18 
 2273000   0.89110418   -7.8410406    505.50517  0.018532966  0.018260196            9 
 2274000   0.90331841   -7.7659236    505.86207  0.018537895   0.01825357           14 
 2275000   0.89837583   -7.7868594    503.88259  0.018457238  0.018246956           13 
 2276000   0.90186087   -7.8069123    505.19989   0.01849736  0.018240296            8 
 2277000   0.86991047   -7.7953669    505.02968  0.018483007  0.018233643            9 
 2278000   0.89209736   -7.8588739    502.52654  0.018383324  0.018226967            3 
 2279000   0.87740679   -7.8323586    503.86469  0.018424188  0.018220281            5 
 2280000   0.88920047    -7.802326    505.53602  0.018477194  0.018213624            4 
 2281000   0.87498288   -7.7914818    505.42981  0.018465213  0.018206983            5 
 2282000   0.89361724   -7.8379179     503.7244  0.018394844  0.018200316           10 
 2283000   0.89457015   -7.8061311    503.20409  0.018367794  0.018193652           11 
 2284000   0.88113768   -7.7958447    505.46062  0.018442083  0.018186992            4 
 2285000   0.87629033   -7.7988673    505.17934  0.018423754  0.018180331           13 
 2286000   0.88225428   -7.7955757     505.0722  0.018411789  0.018173739            6 
 2287000    0.8945269   -7.7731208     505.9301  0.018434999  0.018167155           13 
 2288000   0.85315515   -7.7784079    505.22611  0.018401301   0.01816057            8 
 2289000   0.90283492   -7.7905984    505.20042  0.018392327  0.018154001           11 
 2290000   0.88157323   -7.7994329    504.17941   0.01834714  0.018147364           12 
 2291000   0.89762814   -7.8281187    505.37829   0.01838274  0.018140745            9 
 2292000   0.88912887   -7.7968924     505.2052  0.018368426  0.018134082           13 
 2293000   0.88880871   -7.8150842    504.77561  0.018344803  0.018127477            6 
 2294000   0.88920196    -7.819535    505.45369  0.018361439  0.018120888            7 
 2295000   0.88875993   -7.8000949      506.741  0.018400181  0.018114302            6 
 2296000   0.87589688   -7.8118263    504.75579  0.018320114  0.018107732           14 
 2297000   0.88566734   -7.8188003    505.10015  0.018324632  0.018101134            5 
 2298000   0.89296405   -7.7755285     506.5051  0.018367606  0.018094572            8 
 2299000   0.86994937   -7.7905485    506.78598  0.018369798  0.018088014            9 
 2300000   0.88085333   -7.7844641    507.00317   0.01836968  0.018081474            6 
 2301000   0.88689548   -7.7939974    506.12415  0.018329862  0.018074891           13 
 2302000   0.86917824   -7.8072111    506.42609   0.01833283  0.018068345            8 
 2303000   0.90441947   -7.7985483    507.33961  0.018357925  0.018061824           11 
 2304000   0.88662055   -7.8063786      507.222  0.018345703  0.018055271            5 
 2305000   0.89131616   -7.7462778     507.4658  0.018346558  0.018048754            8 
 2306000   0.84874841   -7.8106372    505.10609  0.018253328  0.018042197           14 
 2307000   0.88567316   -7.7734842    507.73783  0.018340479  0.018035647            8 
 2308000   0.89393271   -7.7739592    507.67842  0.018330388  0.018029092           14 
 2309000   0.87487979   -7.8297531    506.17594  0.018268224  0.018022552            7 
 2310000   0.87561119   -7.8083531    505.71499  0.018243687  0.018015963            8 
 2311000   0.88993109   -7.8409329    506.00375  0.018246205  0.018009348           11 
 2312000   0.88833187   -7.8431502    506.51001  0.018256561  0.018002769           10 
 2313000   0.88186676   -7.8357747    506.21895  0.018238181  0.017996177            8 
 2314000   0.88504597   -7.8366949    506.52862  0.018241451  0.017989592           16 
 2315000   0.89501474   -7.8285515    506.63203  0.018237294  0.017983005           12 
 2316000   0.89103244   -7.8291064    505.47796  0.018187894  0.017976435           10 
 2317000   0.88609015   -7.8316026    508.16065   0.01827653  0.017969849           11 
 2318000   0.88069176    -7.833111    504.47154   0.01813602  0.017963256            9 
 2319000   0.88705953   -7.8300248    507.39006  0.018233077  0.017956685            3 
 2320000   0.88266723    -7.841497    507.84188  0.018241447  0.017950143            8 
 2321000   0.88503473   -7.8418862    506.23123  0.018175759  0.017943561            5 
 2322000   0.87883821   -7.8233056    507.12017  0.018199834  0.017937017            9 
 2323000   0.88188194   -7.8121111     506.9199  0.018184815  0.017930449            5 
 2324000   0.88331973   -7.7910855    508.16195  0.018221527  0.017923893           12 
 2325000   0.88371124   -7.8030835    505.90364  0.018132747  0.017917358           19 
 2326000   0.85811075   -7.8328487    505.73428  0.018118884  0.017910745           11 
 2327000   0.89036549    -7.826198    505.51973  0.018103414  0.017904109           19 
 2328000   0.88096879   -7.8292832    506.38426  0.018126584  0.017897462           10 
 2329000   0.89845556   -7.8178014     507.3533  0.018153474  0.017890827           12 
 2330000   0.89090097   -7.8266072    507.73618  0.018159377   0.01788424           11 
 2331000   0.86939353   -7.8211486    505.29949  0.018064475  0.017877716           13 
 2332000   0.89891333    -7.801324    507.56878  0.018137821  0.017871149            9 
 2333000   0.87366853   -7.8132208    507.90177  0.018141941  0.017864559            9 
 2334000   0.89887921   -7.8292299    506.93833  0.018099769  0.017857928           20 
 2335000   0.87355363   -7.8821066    506.80903  0.018087403  0.017851287           11 
 2336000   0.89348313   -7.8570794    506.65219  0.018074065  0.017844678           15 
 2337000   0.88991892   -7.8380772    506.09491  0.018046459  0.017838077            6 
 2338000   0.85434743   -7.8232702    507.30344  0.018081816  0.017831493            9 
 2339000   0.88247583   -7.8236294    506.18379  0.018034195   0.01782487            6 
 2340000   0.85584572   -7.8055936      507.167  0.018061503  0.017818266           14 
 2341000   0.91332563    -7.808568    509.36402  0.018131995  0.017811728            7 
 2342000   0.87425299   -7.8200969    507.55553  0.018059904  0.017805208            5 
 2343000   0.89177614   -7.8206258    508.10917  0.018071887  0.017798663           13 
 2344000   0.87776065   -7.8246575    508.04544  0.018061911  0.017792137           13 
 2345000   0.86757374   -7.7999869    507.90911  0.018049364   0.01778559            9 
 2346000   0.90430964   -7.7862742    509.47012   0.01809712  0.017779102           11 
 2347000   0.87823347   -7.8187103    507.96311  0.018035901  0.017772569           15 
 2348000   0.88172439   -7.8059571    509.30952  0.018076005  0.017766054            4 
 2349000   0.87704788   -7.7973207    508.73199  0.018047821   0.01775956            6 
 2350000   0.87939072   -7.8334809    507.51935   0.01799714   0.01775299            7 
 2351000   0.87671241   -7.8050272      508.156  0.018012052  0.017746424            7 
 2352000   0.87642728   -7.8271241     508.5349  0.018017818  0.017739856           12 
 2353000   0.89208977   -7.8564907    507.28524  0.017965903  0.017733267            5 
 2354000   0.86805343   -7.8343711    507.87422  0.017979121  0.017726692            5 
 2355000   0.88014703   -7.8370944    508.05832  0.017978002  0.017720121            6 
 2356000   0.87714427   -7.8130541    509.01423  0.018004182  0.017713582           11 
 2357000   0.88565364   -7.8472449    508.08756   0.01796378  0.017707043            7 
 2358000   0.87551669   -7.8311446    507.54392  0.017936949  0.017700474           10 
 2359000   0.89110801   -7.8661927    508.54723  0.017964788  0.017693882           11 
 2360000   0.85679928   -7.8643756    507.61432  0.017924234  0.017687271           23 
 2361000   0.87963708   -7.8502607     508.4634  0.017946612  0.017680704           20 
 2362000   0.89483711   -7.8597133    508.75655  0.017949356  0.017674126            9 
 2363000   0.86197978   -7.8440087    507.94966  0.017913304  0.017667552            8 
 2364000   0.86881684   -7.8532254    508.33688  0.017919377  0.017660986           42 
 2365000   0.86422318   -7.8428698    509.25347  0.017944097  0.017654444            6 
 2366000   0.87823166   -7.8664581    508.74868  0.017918734  0.017647896            7 
 2367000    0.8711924   -7.8478893    507.86155  0.017879931  0.017641332            5 
 2368000   0.87131237    -7.842133    509.34844  0.017924706  0.017634753            3 
 2369000   0.87856325   -7.8433803    507.50052  0.017852136  0.017628197           16 
 2370000   0.86579104   -7.8490119    508.65494  0.017885195  0.017621659            6 
 2371000   0.86845289   -7.8817484    506.86746  0.017814827  0.017615095            7 
 2372000   0.88434381   -7.8611296    508.11881  0.017851279   0.01760854            5 
 2373000   0.84847103   -7.8560021    508.39593  0.017853488  0.017601998            6 
 2374000   0.86775562   -7.8742869    508.15832  0.017837627  0.017595455            7 
 2375000    0.8686063   -7.8771066    509.52992  0.017878243  0.017588923           19 
 2376000   0.87512985   -7.8328032    507.15863   0.01778755  0.017582371           11 
 2377000   0.85965172   -7.8414177    509.22115  0.017852375  0.017575852            6 
 2378000   0.86334561   -7.8429243    508.51442  0.017820102  0.017569302           10 
 2379000   0.87520436   -7.8700195    509.62491   0.01785151  0.017562807            7 
 2380000   0.87867178   -7.7991743    510.71863  0.017882305  0.017556334            9 
 2381000   0.86284366   -7.8347672    508.54793  0.017798821  0.017549844            8 
 2382000   0.87777544   -7.8362431    510.61784  0.017863765  0.017543344            7 
 2383000   0.88596663   -7.8584151       508.78  0.017791999  0.017536837            5 
 2384000   0.86621661   -7.8574839    509.38733  0.017805765  0.017530346            9 
 2385000   0.87711066   -7.8586084    509.79578  0.017812571  0.017523821            7 
 2386000   0.88071565   -7.8596567    510.02976  0.017813278   0.01751732            6 
 2387000   0.86506437   -7.8453719    510.22863  0.017812758  0.017510847           14 
 2388000   0.87551997   -7.8625243    508.34807  0.017739673  0.017504303           13 
 2389000   0.86653038   -7.8474188    509.52641  0.017773351  0.017497756           18 
 2390000   0.87230315   -7.8892823    508.52902  0.017731137  0.017491192            9 
 2391000   0.87778552   -7.8453874    508.96889  0.017739052  0.017484683            6 
 2392000   0.85637948   -7.8341493     510.5468  0.017786608  0.017478157           10 
 2393000    0.8832276   -7.8588537    509.54698  0.017744358  0.017471672           18 
 2394000   0.87246422   -7.8592506    509.77428  0.017744858  0.017465115           18 
 2395000     0.864706   -7.8687084     510.4971  0.017762599  0.017458634           11 
 2396000    0.8586133   -7.8657695     509.4022  0.017717105  0.017452128           16 
 2397000   0.85261215   -7.8621141    508.84799  0.017690446   0.01744557            9 
 2398000   0.84940616   -7.8550379    509.18667  0.017694839   0.01743905           23 
 2399000   0.87405861   -7.8586283    510.02302  0.017716515  0.017432519           15 
 2400000    0.8582678   -7.8971463    507.78039  0.017631264  0.017425977           19 
 2401000   0.87961043   -7.8670663    510.84515  0.017730291  0.017419419            6 
 2402000   0.88536499   -7.9013789    507.99212  0.017623929  0.017412841            7 
 2403000   0.88231929    -7.897086     508.5359  0.017635452  0.017406223            5 
 2404000   0.86076783   -7.8839771    508.99482  0.017644025  0.017399662            6 
 2405000   0.86484269   -7.8381401    510.37009  0.017684341  0.017393085           12 
 2406000   0.87247484     -7.86802    509.52459  0.017647707  0.017386563            6 
 2407000   0.88741829   -7.8725102    509.03661   0.01762348  0.017380044            5 
 2408000   0.85391308   -7.8749968    509.55496    0.0176341  0.017373472            8 
 2409000   0.88523159   -7.8649286    510.53426  0.017660657  0.017366939            7 
 2410000    0.8509325   -7.8547168    510.08409  0.017637762  0.017360399           18 
 2411000   0.86498253   -7.8687607    509.68712  0.017616726  0.017353883           10 
 2412000   0.85738938   -7.8507356    511.22853  0.017662677  0.017347353            5 
 2413000   0.86082451   -7.8801403    508.99404  0.017578189  0.017340822           13 
 2414000    0.8765998   -7.8839702     509.9002  0.017602189  0.017334323            4 
 2415000   0.85288312   -7.8566394    509.65525  0.017586448  0.017327792            7 
 2416000   0.87669382   -7.8583414    509.91989  0.017588296  0.017321299            3 
 2417000   0.86435384   -7.8837574    508.76043  0.017541044  0.017314756           13 
 2418000   0.85860266   -7.8930078    508.52739  0.017525758  0.017308212           17 
 2419000   0.86669354   -7.8834498    511.15201   0.01760893  0.017301682           13 
 2420000   0.86251266   -7.9067221    508.96291  0.017526271  0.017295137            6 
 2421000   0.87254663   -7.8709092    509.77724  0.017547062  0.017288606            9 
 2422000   0.87540794   -7.9091816    508.44905  0.017494118  0.017282073           18 
 2423000   0.84852681   -7.8841913    511.27065   0.01758394  0.017275542            9 
 2424000   0.87307489   -7.8895936    510.10555  0.017536632  0.017269012           10 
 2425000   0.86766686   -7.8860671    510.64329   0.01754788  0.017262515           18 
 2426000   0.84013884   -7.8943896    509.63708  0.017506083  0.017256015           13 
 2427000   0.84258589   -7.8502751    510.99259  0.017545412  0.017249498           25 
 2428000    0.8653217   -7.8587304    511.08989  0.017541526  0.017242982           15 
 2429000   0.87398223   -7.8705162    510.41214  0.017511052  0.017236527           26 
 2430000   0.85220797   -7.8640984    510.51461   0.01750736  0.017230041           25 
 2431000   0.85949227   -7.8680131    511.18733  0.017523219  0.017223548           41 
 2432000   0.86809887    -7.874903    510.04935   0.01747702  0.017217035           35 
 2433000   0.87061401   -7.8662662    510.62905  0.017489692  0.017210513           28 
 2434000   0.84616162   -7.8813243     511.0767  0.017497833  0.017203997           31 
 2435000   0.85856202    -7.876374    511.04964  0.017489721  0.017197494           46 
 2436000   0.85417851   -7.8939188    510.71841   0.01747121  0.017191012           71 
 2437000   0.86119399    -7.840545    510.98208  0.017473057  0.017184575           66 
 2438000    0.8514938   -7.8642615    511.89726  0.017497172  0.017178135           86 
 2439000   0.84661784   -7.8594136    511.47035  0.017475412  0.017171698           52 
 2440000   0.85946747   -7.8620659    511.46252  0.017467982  0.017165232           76 
 2441000   0.85680257   -7.8851631      511.185  0.017451352  0.017158798           84 
 2442000   0.84679246   -7.8579964    511.57042  0.017457358  0.017152345           58 
 2443000   0.87670227    -7.869286    510.75237  0.017422307  0.017145871           44 
 2444000   0.88967808   -7.8943745    511.47377  0.017439776  0.017139427           34 
 2445000   0.87455239   -7.8307137    511.36652  0.017428989  0.017132981           74 
 2446000   0.86505444   -7.8842372    511.53287   0.01742753  0.017126558           83 
 2447000   0.84872937   -7.8741986    511.31559  0.017413009  0.017120135           69 
 2448000   0.84207273   -7.8737937    512.91852  0.017460461  0.017113711           79 
 2449000   0.86049308   -7.8587193    512.08955  0.017425124  0.017107285           76 
 2450000   0.86976934   -7.8844456    510.97687  0.017380166  0.017100851           87 
 2451000   0.87598365   -7.8896943    512.00203   0.01740793  0.017094403           95 
 2452000   0.86222652   -7.8907803    512.85502   0.01742982  0.017087965          109 
 2453000   0.85417855   -7.8704342    511.23794  0.017367779  0.017081516          122 
 2454000     0.840821   -7.9273416    510.95584  0.017351122  0.017075057          106 
 2455000    0.8430496    -7.901493    512.16252  0.017385014  0.017068617          102 
 2456000    0.8680277   -7.9253837    510.73469  0.017329489  0.017062127           97 
 2457000   0.87102784   -7.8879996    511.74632  0.017356747  0.017055669          138 
 2458000   0.85864178   -7.9097508    510.51888  0.017308071    0.0170492          109 
 2459000    0.8543489   -7.9143524    511.09032  0.017320399  0.017042748          101 
 2460000   0.85404484   -7.9229605    510.27172  0.017285627  0.017036266           88 
 2461000   0.85350016   -7.9005875    511.61531    0.0173241  0.017029783          108 
 2462000   0.86299491   -7.9308189    510.19065  0.017268841   0.01702329          104 
 2463000    0.8831205   -7.9361947     510.0426  0.017256821  0.017016791          135 
 2464000   0.86513823   -7.9090651     511.8396  0.017310592  0.017010325          160 
 2465000   0.85903169   -7.9008104    511.89866  0.017305566  0.017003848          138 
 2466000   0.86056426   -7.9273478     512.4343   0.01731665  0.016997391          150 
 2467000   0.87045999   -7.9424044    511.23048  0.017268966  0.016990934          143 
 2468000    0.8488526   -7.9086995    511.17415  0.017260067  0.016984511          165 
 2469000   0.87173583    -7.872038    513.25307  0.017323244  0.016978105          155 
 2470000    0.8382354   -7.9139863    511.06989  0.017242574  0.016971714          163 
 2471000   0.85027573   -7.9167124    511.79931  0.017260195  0.016965283          252 
 2472000   0.84258219   -7.9318196    511.04395  0.017227749  0.016958848          245 
 2473000   0.85232615   -7.9271675    511.53302  0.017237263  0.016952401          268 
 2474000   0.84243748   -7.9055655    512.19317  0.017252532  0.016945946          268 
 2475000   0.84717486    -7.936217    511.52435  0.017223042  0.016939489          276 
 2476000   0.85667779   -7.9657056    511.06474  0.017200617  0.016933041          269 
 2477000    0.8653254   -7.9382988    511.72724  0.017215961  0.016926605          267 
 2478000   0.85806056   -7.9467604    512.13346  0.017222675   0.01692015          237 
 2479000   0.85888369   -7.9220815    512.77712  0.017237364  0.016913691          277 
 2480000   0.86110589   -7.9273994     512.2502  0.017212708   0.01690725          270 
 2481000   0.86282309   -7.9130301    512.21162  0.017204475  0.016900819          247 
 2482000   0.84603913   -7.9495371    511.60979  0.017177337  0.016894413          269 
 2483000   0.88437203   -7.9226195    511.09052  0.017152991  0.016887962          272 
 2484000   0.85394329   -7.9107784    512.65073  0.017198428  0.016881539          215 
 2485000   0.83826923   -7.9389997    511.97835  0.017168959  0.016875093          278 
 2486000    0.8456569   -7.9106874    511.23442  0.017137115  0.016868641          251 
 2487000    0.8677783   -7.9726284    510.89174  0.017118742  0.016862176          272 
 2488000   0.86225878     -7.94846    511.12045  0.017119522   0.01685568          305 
 2489000   0.88243923   -7.9637733    511.63732  0.017129949  0.016849188          340 
 2490000   0.84525394   -7.9747341    511.98785  0.017134801  0.016842712          333 
 2491000   0.84607338      -7.9601    511.15832  0.017100171  0.016836218          295 
 2492000   0.85179271   -7.9665099    511.37093  0.017100419  0.016829697          347 
 2493000   0.84256984   -7.9903401     511.2703  0.017090196  0.016823224          338 
 2494000   0.85797085   -7.9972858    509.88248  0.017036972  0.016816733          341 
 2495000   0.85315334   -7.9771763    510.96851  0.017066416  0.016810236          338 
 2496000   0.83602902   -7.9791565    511.13107  0.017065006  0.016803714          379 
 2497000   0.84841578   -7.9996917    509.97296  0.017019522  0.016797184          381 
 2498000   0.84011941   -7.9809802     510.9602  0.017045643  0.016790644          389 
 2499000    0.8552776   -8.0023905    510.20152  0.017013523  0.016784116          431 
 2500000   0.86194497   -8.0202045    510.59202  0.017019734  0.016777591          432 
 2501000   0.84566796    -8.007105    510.15526  0.016998376  0.016771051          551 
 2502000   0.86090547   -7.9667464    512.57832  0.017072286    0.0167645          499 
 2503000   0.86250061    -8.018356    509.59456  0.016966126  0.016757922          501 
 2504000   0.86840033   -8.0346471    511.43248  0.017020516  0.016751354          502 
 2505000   0.85964081   -8.0159225    510.41807  0.016979976   0.01674477          541 
 2506000   0.85736341   -8.0169107    509.64062  0.016947347  0.016738191          545 
 2507000   0.82884272   -8.0527104    510.24331   0.01696062    0.0167316          581 
 2508000   0.87008101   -8.0270508    510.50597  0.016962585  0.016725034          660 
 2509000   0.86344749   -8.0295984    510.49229   0.01695537  0.016718481          629 
 2510000    0.8335948   -8.0298895    511.77102   0.01699107  0.016711916          665 
 2511000   0.87330997   -8.0384702    511.17406  0.016964492   0.01670534          645 
 2512000   0.83543503   -8.0101901    510.93379  0.016949768  0.016698785          606 
 2513000   0.84381077   -8.0444226    510.59905  0.016931922  0.016692175          678 
 2514000   0.86293995   -8.0514515    510.53139  0.016922945  0.016685564          741 
 2515000   0.83989953   -8.0764296    509.08263  0.016868212  0.016678942          700 
 2516000   0.85695026   -8.0668048      509.086  0.016861619  0.016672283          809 
 2517000   0.87006718   -8.0701943    508.69598  0.016842007   0.01666566          800 
 2518000   0.86733088   -8.0785181    509.19194  0.016851732  0.016658984          852 
 2519000   0.83902739   -8.0802886     510.0705  0.016874107  0.016652301          902 
 2520000   0.85369837   -8.1028155    508.21071   0.01680591  0.016645609          910 
 2521000   0.85212957   -8.1232992    507.65372  0.016780832  0.016638904         1000 
 2522000   0.85540327   -8.1410789     508.2187  0.016792846  0.016632195          970 
 2523000   0.87398088   -8.1230286     508.1132  0.016782706  0.016625432         1160 
 2524000   0.84899257   -8.1155941    508.02283  0.016773073   0.01661866         1212 
 2525000   0.84559325   -8.1408993    508.37791  0.016778149  0.016611876         1143 
 2526000   0.85661547   -8.1672161    508.59668  0.016778724  0.016605077         1191 
 2527000   0.82238473   -8.1525913    508.11957   0.01675635  0.016598268         1181 
 2528000   0.84972562   -8.1901457     507.0312  0.016713845  0.016591415         1264 
 2529000   0.83622201   -8.1520649    506.14019  0.016677876  0.016584538         1305 
 2530000     0.831258   -8.1821468    506.85302  0.016694763  0.016577651         1397 
 2531000   0.84458792   -8.2088898    506.57087  0.016678878  0.016570748         1486 
 2532000   0.86707028   -8.1999117    506.37074  0.016665704  0.016563819         1560 
 2533000   0.84410926   -8.2767924    503.68166  0.016570656   0.01655688         1704 
 2534000   0.84108882   -8.2342878    505.31443  0.016617812  0.016549893         1729 
 2535000   0.84147314    -8.233573    505.92748  0.016631409  0.016542918         1682 
 2536000   0.84276315   -8.2613111    505.59321  0.016613867  0.016535928         1783 
 2537000   0.86229488   -8.2905586    502.17606  0.016495075  0.016528869         1966 
 2538000   0.84736035   -8.3290804    504.13025   0.01655274  0.016521772         2049 
 2539000   0.82085494   -8.3208028    502.18278  0.016482302  0.016514646         2088 
 2540000   0.84458353   -8.3068463    503.91762   0.01653273  0.016507522         2081 
 2541000   0.86630799    -8.315474     504.7315  0.016552916  0.016500367         2137 
 2542000   0.86385166    -8.322064    503.64984  0.016510944    0.0164932         2184 
 2543000   0.84619841   -8.3556253    502.25111  0.016458615  0.016486007         2278 
 2544000   0.84373532   -8.3617706    503.18985  0.016482896  0.016478825         2355 
 2545000    0.8435548   -8.3849825    501.84839  0.016432495   0.01647159         2387 
 2546000   0.83750701   -8.3787555    501.52123  0.016415332  0.016464351         2336 
 2547000    0.8460261   -8.3767803    501.26849  0.016400618  0.016457093         2360 
 2548000   0.84393934   -8.3878699    501.38749  0.016398073  0.016449847         2479 
 2549000   0.86667154    -8.421901    500.92243  0.016376436  0.016442555         2531 
 2550000   0.84936329    -8.400496    500.58045  0.016358838  0.016435256         2650 
 2551000    0.8280267    -8.433576    499.47717  0.016316385  0.016427932         2703 
 2552000   0.83666879   -8.4660642     499.1523  0.016299383  0.016420584         2764 
 2553000   0.84661859   -8.4750892     499.6583  0.016309515  0.016413229         2892 
 2554000   0.84637547   -8.4941181    499.01054  0.016281994  0.016405841         2962 
 2555000   0.83881589    -8.456258    499.72699  0.016298989  0.016398454         2888 
 2556000   0.84251432   -8.4852514    499.76194  0.016293751  0.016391086         2927 
 2557000   0.84209044   -8.5092428    498.09963  0.016233204  0.016383668         2956 
 2558000   0.86116733   -8.5080867    498.11105   0.01622723  0.016376225         3049 
 2559000   0.83714395   -8.5117863    498.58851  0.016236437  0.016368761         3113 
 2560000    0.8403843   -8.5469595    499.03994   0.01624479  0.016361279         3184 
 2561000   0.83030067   -8.5326712    498.39928    0.0162176  0.016353785         3163 
 2562000   0.84722243   -8.4989649    498.30643   0.01620825  0.016346279         3181 
 2563000   0.83645198   -8.5458418    497.37909  0.016171774  0.016338769         3268 
 2564000   0.84734402    -8.544938    497.55571  0.016171207  0.016331248         3337 
 2565000   0.85244764    -8.583039    496.13098  0.016118615  0.016323712         3314 
 2566000   0.85853843   -8.5556447    497.11092  0.016144158  0.016316174         3243 
 2567000   0.82695357   -8.5585071    497.48514  0.016150018   0.01630863         3415 
 2568000   0.82866585   -8.5717501    496.81795  0.016122078  0.016301075         3431 
 2569000   0.83880076      -8.5586    497.02466  0.016122508  0.016293524         3414 
 2570000   0.84161022   -8.6034037    496.95932  0.016114116  0.016285962         3431 
 2571000   0.84446128   -8.5998722     497.4911  0.016125084  0.016278401         3494 
 2572000   0.85577146   -8.5903334    496.57702  0.016089198  0.016270827         3428 
 2573000   0.83463395   -8.5960719    495.50209  0.016048131  0.016263244         3522 
 2574000   0.83760788   -8.5879737    495.35309  0.016037072  0.016255654         3527 
 2575000   0.83988468   -8.6321294    495.49223  0.016035347  0.016248051         3579 
 2576000   0.85259169   -8.6376167    495.56834  0.016031585  0.016240432         3545 
 2577000   0.84733717   -8.6326919    494.73064  0.015998274  0.016232824         3607 
 2578000   0.84919879   -8.6571401    494.93157  0.015998564  0.016225213         3644 
 2579000   0.84048778    -8.621368    496.17931  0.016032678  0.016217579         3633 
 2580000   0.84572388   -8.6653072    493.79142  0.015949335  0.016209964         3700 
 2581000   0.85070784   -8.6630335    494.87447  0.015978124  0.016202333         3609 
 2582000   0.83022063   -8.6822038     494.8397  0.015970814  0.016194678         3669 
 2583000   0.84140083   -8.6706833    494.73188  0.015961152  0.016187032         3714 
 2584000   0.83277986   -8.6579621    495.24885  0.015971648  0.016179389         3668 
 2585000   0.83269725   -8.6833774    494.41409  0.015938559  0.016171737         3670 
 2586000   0.82977212   -8.6425778    495.52026  0.015968041  0.016164073         3695 
 2587000   0.82940385   -8.6712392    494.88832  0.015941513  0.016156426         3710 
 2588000   0.85840684   -8.6916746    493.76456  0.015899168   0.01614876         3751 
 2589000   0.84355082   -8.6783194    494.94489  0.015931019  0.016141072         3778 
 2590000   0.83199552   -8.7027254    494.14815  0.015899232  0.016133399         3748 
 2591000   0.82664788   -8.6971428     494.6655  0.015909736  0.016125716         3745 
 2592000   0.83594501   -8.6679251    495.21027  0.015921112  0.016118051         3734 
 2593000   0.84009729    -8.685236    494.32286  0.015886453  0.016110386         3754 
 2594000   0.83246121   -8.7073498    492.58794  0.015824593  0.016102734         3766 
 2595000   0.82675489   -8.6693133    493.60689  0.015851217  0.016095057         3729 
 2596000   0.83024272    -8.702239    494.22768  0.015865039  0.016087401         3795 
 2597000    0.8362491   -8.7049508    495.25183  0.015891793  0.016079738         3810 
 2598000   0.80955245   -8.7476962    492.42827  0.015795108  0.016072054         3803 
 2599000   0.82544791   -8.7285641    494.19971  0.015845829  0.016064365         3739 
 2600000   0.82361027   -8.7170632     493.9533  0.015831837  0.016056678         3745 
 2601000   0.83327115   -8.7266912    493.84168  0.015822174  0.016049009         3797 
 2602000   0.82066946   -8.7361952    492.70064  0.015779549  0.016041318         3826 
 2603000   0.81736103   -8.7074804    494.13292  0.015819341   0.01603364         3817 
 2604000   0.84765676   -8.7054911     493.9365   0.01580698   0.01602596         3748 
 2605000   0.83638727   -8.7053454    493.53219  0.015787978  0.016018301         3748 
 2606000   0.86018757   -8.7098021    493.72957  0.015788231  0.016010632         3777 
 2607000   0.83807313   -8.6919589     493.5702  0.015777081  0.016002956         3797 
 2608000   0.83795434   -8.7251006     492.8554  0.015748191  0.015995295         3782 
 2609000   0.83479995   -8.7143084     494.2499  0.015786697   0.01598763         3797 
 2610000   0.81967182   -8.7311832    492.58523  0.015727498  0.015979956         3820 
 2611000   0.82076427   -8.7147731    494.51253  0.015782987  0.015972294         3814 
 2612000   0.83337991   -8.7211022    493.75911  0.015752907  0.015964628         3791 
 2613000   0.83600747   -8.6945297    494.02657  0.015755408  0.015956963         3806 
 2614000   0.83702096   -8.7395166    493.63215  0.015736806  0.015949299         3813 
 2615000   0.84057906   -8.7100974    493.00557  0.015710821  0.015941643         3821 
 2616000   0.82256856   -8.7323868    493.80962  0.015730429  0.015933977         3815 
 2617000    0.8460369   -8.7225762    494.73517   0.01575389  0.015926328         3787 
 2618000   0.82612331   -8.7460279    493.32043   0.01570284  0.015918669         3830 
 2619000   0.82678979   -8.6960181    493.83023  0.015713066  0.015911024         3781 
 2620000   0.82668699   -8.7243776    494.65671  0.015733356  0.015903396         3811 
 2621000   0.81465264   -8.7459186    494.14082  0.015710951  0.015895761         3786 
 2622000    0.8345201   -8.7291031    493.11149  0.015672244  0.015888122         3798 
 2623000   0.83631943   -8.7570336    494.11752  0.015698231  0.015880493         3812 
 2624000   0.83893036   -8.7360448    493.53518  0.015673755  0.015872856         3836 
 2625000   0.83936337      -8.7032    493.88781  0.015678978  0.015865221         3793 
 2626000   0.83237859   -8.7638467    494.42022  0.015689903  0.015857595         3815 
 2627000   0.83989478   -8.7580301    493.33426  0.015649482  0.015849965         3850 
 2628000   0.83920883   -8.7056412    494.63441  0.015684754  0.015842365         3832 
 2629000   0.83880701   -8.7548901    492.49326  0.015610918  0.015834758         3826 
 2630000   0.81601618    -8.740814    493.71608  0.015643729  0.015827133         3823 
 2631000    0.8140038   -8.7287259    493.75698  0.015639078  0.015819521         3865 
 2632000   0.82100931   -8.7487633    493.76916  0.015633522  0.015811913         3832 
 2633000   0.83580919   -8.7043608    493.27672  0.015611999  0.015804304         3852 
 2634000   0.82470847   -8.7562936    493.33756  0.015607997  0.015796696         3836 
 2635000   0.82918938   -8.7332568    493.25629  0.015599503  0.015789096         3826 
 2636000   0.82927972   -8.7103044    494.50509  0.015633064   0.01578149         3823 
 2637000   0.83825655   -8.7306393    493.63148  0.015599529  0.015773901         3821 
 2638000   0.84052716   -8.7784837    491.95668  0.015540709  0.015766303         3849 
 2639000   0.85630194   -8.7340065    493.66408  0.015588736  0.015758723         3798 
 2640000   0.82501404   -8.7860617     492.2995  0.015539757  0.015751135         3836 
 2641000   0.83255259   -8.7379683    492.98548  0.015555518  0.015743546         3792 
 2642000   0.83396409    -8.733666    494.07954  0.015584139  0.015735966         3861 
 2643000    0.8471323   -8.7368893    492.83628  0.015539043  0.015728385         3851 
 2644000   0.83788541   -8.7480168    492.71416  0.015529317  0.015720807         3839 
 2645000   0.83344196   -8.7432449    493.19005  0.015538439  0.015713229         3815 
 2646000   0.82804882   -8.7618706    492.89857  0.015523387  0.015705638         3807 
 2647000   0.82444409   -8.7504672    493.33271   0.01553119  0.015698053         3808 
 2648000    0.8326544   -8.7679389    493.04577  0.015516295  0.015690485         3866 
 2649000   0.82849193   -8.7849302     492.3699  0.015489175  0.015682905         3876 
 2650000   0.83228356   -8.7712859    491.65787  0.015460939  0.015675327         3880 
 2651000   0.80991511   -8.7328868    492.50443  0.015481719  0.015667759         3845 
 2652000   0.83290902   -8.7374594    492.78841  0.015484804  0.015660181         3800 
 2653000    0.8216383   -8.7621342    492.90848  0.015482739  0.015652608         3834 
 2654000   0.82022012   -8.7687456    492.60686  0.015467435  0.015645037         3843 
 2655000   0.84093529   -8.7330966     492.5247   0.01545903   0.01563747         3818 
 2656000   0.83508447   -8.7738588    492.53808  0.015453629  0.015629901         3811 
 2657000   0.81971917   -8.7652749    491.59303  0.015418173  0.015622348         3829 
 2658000   0.84174133   -8.7650205     492.9589  0.015455195  0.015614786         3821 
 2659000   0.84788534   -8.7700602    492.66533  0.015440182  0.015607224         3862 
 2660000   0.81980151   -8.7343222    493.09215  0.015447749  0.015599665         3838 
 2661000    0.8208354   -8.7391568    493.13929   0.01544342  0.015592103         3835 
 2662000    0.8435782   -8.7690757    492.02757  0.015402817  0.015584537         3828 
 2663000   0.83865226   -8.7196201    493.31247  0.015437241  0.015576991         3834 
 2664000   0.82437387   -8.7165734    491.70784  0.015381251  0.015569439         3840 
 2665000   0.82895787   -8.7556863    492.70197  0.015406566  0.015561901         3843 
 2666000   0.82612176   -8.7497002    492.92861  0.015407871  0.015554376         3836 
 2667000   0.81597807   -8.7747546    492.92714  0.015402048  0.015546833         3847 
 2668000   0.83222929    -8.758841    492.01887  0.015367906  0.015539313         3849 
 2669000   0.82039218   -8.7498224    492.04434  0.015362943  0.015531794         3818 
 2670000   0.83948731   -8.7834004    492.43464  0.015369371  0.015524281         3824 
 2671000   0.83178563   -8.7658052    492.86716  0.015377111  0.015516763         3821 
 2672000   0.82726679   -8.7427558    491.96252  0.015343142  0.015509269         3842 
 2673000   0.81818842   -8.7886056    492.29638  0.015347811  0.015501758         3852 
 2674000   0.82731924   -8.7661046    492.60785  0.015351778   0.01549426         3835 
 2675000   0.83036383   -8.7539182    492.70211  0.015348975  0.015486768         3848 
 2676000   0.82454959   -8.8123678    491.54923  0.015307338  0.015479257         3852 
 2677000   0.82409764   -8.7534352    492.83958  0.015341788  0.015471768         3830 
 2678000   0.82403468    -8.762645    492.36661  0.015321341  0.015464261         3866 
 2679000   0.84676897   -8.7393715    491.68394  0.015294387  0.015456771         3858 
 2680000   0.83393224   -8.7641251     493.2787  0.015338268  0.015449284         3853 
 2681000   0.82285147   -8.7963555    492.28637  0.015301702  0.015441797         3842 
 2682000   0.81957624   -8.7464399    492.97524  0.015317401  0.015434303         3886 
 2683000   0.81987343   -8.7505134    491.73308  0.015273111  0.015426826         3861 
 2684000   0.81956888   -8.7531616    493.27992  0.015315447  0.015419345         3882 
 2685000    0.8233973   -8.7585545    492.08981  0.015272806  0.015411857         3837 
 2686000   0.83197704   -8.7436608    492.07029  0.015266514  0.015404388         3866 
 2687000   0.83555798   -8.7382264    493.77719   0.01531377  0.015396926         3853 
 2688000   0.81090827   -8.7951479    492.71766  0.015275225  0.015389458         3846 
 2689000    0.8350019   -8.7416753    492.87114  0.015274301  0.015382007         3825 
 2690000   0.83081144    -8.765874     493.0952  0.015275564  0.015374562         3843 
 2691000   0.80829273   -8.7804081    491.62195  0.015224264  0.015367116         3838 
 2692000    0.8141922   -8.7675017    492.33577  0.015240706  0.015359655         3820 
 2693000   0.82575928   -8.7579242    491.60179  0.015212334  0.015352211         3851 
 2694000   0.81028533   -8.7675687    492.55213  0.015236084  0.015344758         3865 
 2695000   0.81919981   -8.7785105    493.24007  0.015251703  0.015337323         3831 
 2696000   0.81819971   -8.7647044    493.06976  0.015240781  0.015329887         3836 
 2697000   0.82472561    -8.767931    493.17491  0.015238379  0.015322471         3825 
 2698000   0.82593358   -8.7885258    492.39322  0.015208587  0.015315046         3841 
 2699000   0.80943176   -8.7857383    492.90851  0.015218862  0.015307617         3865 
 2700000    0.8241024   -8.7603528    492.17269  0.015190515   0.01530019         3854 
 2701000   0.81321729   -8.7667751    491.90146  0.015176523  0.015292771         3764 
 2702000   0.82445997   -8.7604319    491.53695  0.015159664   0.01528536         3827 
 2703000    0.8232473   -8.7655856    492.59028   0.01518653  0.015277944         3821 
 2704000   0.79356562   -8.7610381    491.54876  0.015148815  0.015270537         3825 
 2705000   0.82934228   -8.7699986    492.27084   0.01516546  0.015263124         3823 
 2706000   0.80667802   -8.7741439    492.44221  0.015165133  0.015255704         3835 
 2707000   0.83084964   -8.7990999     492.0426  0.015147229  0.015248294         3868 
 2708000   0.79891299   -8.7920145    493.29356  0.015180132  0.015240882         3827 
 2709000   0.82058407   -8.7481755    492.79709  0.015159256  0.015233477         3835 
 2710000   0.81962993   -8.7755701     490.8743  0.015094536  0.015226065         3866 
 2711000   0.81790353   -8.8042623    491.88294  0.015119972  0.015218677         3827 
 2712000   0.81875102   -8.8114537    491.91252  0.015115306  0.015211294         3816 
 2713000   0.80314697   -8.7808613    492.63518  0.015131932    0.0152039         3845 
 2714000   0.81422141   -8.7728932    492.41332  0.015119544  0.015196505         3842 
 2715000   0.80555819   -8.7874167    491.46808  0.015084963  0.015189122         3859 
 2716000   0.82334977   -8.7862487    492.24876  0.015103362  0.015181735         3866 
 2717000   0.82101676   -8.7782419    492.48642  0.015105092  0.015174365         3819 
 2718000   0.84195833   -8.7801276    491.87047   0.01508065  0.015166997         3869 
 2719000   0.80858185   -8.7924033    492.75047  0.015102074  0.015159628         3834 
 2720000   0.81736014   -8.7634034    492.65213  0.015093509  0.015152274         3816 
 2721000   0.81357587   -8.7802089    492.20809  0.015074363  0.015144915         3861 
 2722000   0.81345259   -8.7890264    493.54864  0.015109865  0.015137553         3842 
 2723000   0.80846291   -8.7552044    492.38945  0.015068841  0.015130196         3867 
 2724000   0.79780691   -8.7514371    492.38687   0.01506323  0.015122849         3799 
 2725000   0.80939382   -8.7916908     492.3639     0.015057  0.015115499         3859 
 2726000   0.82495168   -8.7860134    492.12966  0.015044316   0.01510815         3863 
 2727000    0.8369931   -8.7912236    492.07489  0.015037125  0.015100816         3836 
 2728000   0.81672223   -8.7976486    491.67578  0.015019421   0.01509349         3825 
 2729000   0.82563311   -8.7790708    493.38052  0.015065974  0.015086175         3809 
 2730000   0.81998639   -8.8100617    491.73884  0.015010343  0.015078853         3837 
 2731000   0.79241133   -8.7921901    491.65255  0.015002214  0.015071513         3865 
 2732000   0.82300462   -8.7993625    491.21449   0.01498336  0.015064177         3844 
 2733000   0.79492151   -8.7859838    491.98956  0.015001511  0.015056851         3855 
 2734000   0.81352352   -8.7607467     492.5677  0.015013646  0.015049533         3809 
 2735000   0.82509353   -8.7943895    492.07946   0.01499328  0.015042206         3861 
 2736000   0.80189083   -8.7842891    491.98955  0.014985062    0.0150349         3841 
 2737000    0.8129017   -8.7473547    493.23223  0.015017423  0.015027604         3860 
 2738000   0.83052099   -8.7797494    492.83728  0.014999917  0.015020304         3874 
 2739000    0.8169933   -8.7590538    493.27411  0.015007731  0.015013004         3804 
 2740000   0.79186582   -8.7720007    491.39952  0.014945241  0.015005716         3813 
 2741000    0.8254455   -8.7963733    491.27123  0.014935888   0.01499843         3855 
 2742000   0.81825593    -8.780616    492.36877  0.014963797   0.01499115         3834 
 2743000   0.81600815   -8.7944756    491.97422  0.014946355  0.014983864         3845 
 2744000   0.80979139   -8.7880319    492.72169  0.014963608  0.014976593         3844 
 2745000   0.80023662   -8.8062796    492.58873  0.014954121  0.014969309         3819 
 2746000   0.81378215   -8.7774865    492.02924  0.014931696   0.01496203         3831 
 2747000   0.81667166    -8.799473    491.77394  0.014918515  0.014954772         3849 
 2748000   0.79816485   -8.7967867    491.47991   0.01490417  0.014947496         3784 
 2749000   0.80932407   -8.7753516    491.59589  0.014902264  0.014940234         3816 
 2750000   0.80691604   -8.8034968    492.07459  0.014911351  0.014932974         3854 
 2751000   0.81182686   -8.7754784    491.88174  0.014900089  0.014925712         3875 
 2752000    0.8067134    -8.764407    493.26251  0.014936486  0.014918446         3860 
 2753000   0.80403802   -8.7780596    491.21676  0.014869136  0.014911201         3796 
 2754000   0.79879929   -8.7984485    492.04308   0.01488874  0.014903952         3876 
 2755000   0.81057662   -8.7793417    492.59394  0.014899998  0.014896712         3835 
 2756000   0.83123491   -8.7804087    492.69871   0.01489776  0.014889474         3839 
 2757000   0.82697459   -8.7916786    492.03206  0.014872206  0.014882252         3834 
 2758000   0.82210916    -8.810252    491.14381  0.014839975   0.01487503         3859 
 2759000   0.81126516   -8.7961089    492.56781  0.014877607    0.0148678         3825 
 2760000   0.82066717   -8.7974095    491.62074  0.014843621  0.014860576         3799 
 2761000   0.81895587   -8.7677893    493.51631  0.014895458  0.014853371         3800 
 2762000   0.80865076   -8.8076038    491.18736  0.014819797  0.014846156         3849 
 2763000     0.805671   -8.8043374    491.09364  0.014811607  0.014838935         3832 
 2764000   0.80189809   -8.7847001     493.0643  0.014865663  0.014831726         3826 
 2765000    0.8131387   -8.7768903    492.13507   0.01483228  0.014824514         3835 
 2766000   0.79761265    -8.828272    491.02551   0.01479349    0.0148173         3841 
 2767000   0.79419382   -8.7922225    491.85257  0.014813052  0.014810097         3823 
 2768000   0.81100508   -8.8035931     492.0408  0.014813367  0.014802895         3855 
 2769000   0.84474071   -8.7917534    491.68023  0.014797166  0.014795699         3856 
 2770000   0.79313371   -8.7707388    491.19498  0.014777226  0.014788515         3822 
 2771000   0.79519259   -8.7990838    491.18752  0.014771668  0.014781324         3851 
 2772000   0.80122924   -8.8085558    489.46342  0.014714509  0.014774135         3856 
 2773000     0.815608   -8.8010144    491.72591  0.014777194  0.014766952         3853 
 2774000   0.78901993   -8.8006828    492.11125  0.014783443  0.014759776         3835 
 2775000   0.80716696   -8.7990616    491.80232  0.014768838  0.014752592         3862 
 2776000   0.80415242     -8.81845    492.39328  0.014781258  0.014745421         3836 
 2777000   0.80127214   -8.7929814    491.70685  0.014755337  0.014738255         3862 
 2778000   0.80805247   -8.7607445    492.26227  0.014766687  0.014731089         3820 
 2779000   0.81616615   -8.8107014    491.40774  0.014735749  0.014723944         3798 
 2780000   0.79803812   -8.8002359    491.31094  0.014727546  0.014716787         3825 
 2781000   0.80368963   -8.8211704    492.21366  0.014749301  0.014709628         3851 
 2782000   0.80968563   -8.8041109    490.62931  0.014696541  0.014702474         3847 
 2783000   0.80529136   -8.8125535    490.99712  0.014702273  0.014695329         3835 
 2784000    0.8212667   -8.8089943    491.71629  0.014718519  0.014688177         3856 
 2785000   0.83649207    -8.812867    491.21111  0.014698118  0.014681038         3836 
 2786000   0.80382177   -8.8117273    492.28214  0.014724879  0.014673902         3867 
 2787000    0.8147673   -8.8193232    490.10355  0.014654454  0.014666763         3872 
 2788000   0.80017321   -8.8207089    490.76759  0.014669046   0.01465963         3870 
 2789000   0.79304364   -8.8161393     492.2188  0.014707147  0.014652515         3848 
 2790000   0.79802678   -8.8072397    491.70833  0.014686629  0.014645379         3858 
 2791000    0.7990217   -8.8400715    490.76574  0.014653223  0.014638254         3886 
 2792000   0.80528794   -8.8368783    490.52234   0.01464071  0.014631129         3877 
 2793000   0.80029069   -8.7896749    492.18522  0.014685082   0.01462401         3819 
 2794000     0.813975   -8.8199884    491.03669  0.014645571  0.014616912         3833 
 2795000   0.80011185   -8.8230513    490.81027   0.01463358  0.014609819         3826 
 2796000   0.79755626   -8.8156783    492.32412  0.014673466  0.014602711         3853 
 2797000    0.8073459   -8.8155607    490.53924  0.014615041  0.014595617         3877 
 2798000   0.79022543   -8.7987415     491.4289  0.014636315  0.014588526         3856 
 2799000   0.80463351   -8.7778261    492.05106  0.014649609  0.014581431         3800 
 2800000   0.81751478   -8.8026281    490.89749  0.014610044  0.014574349         3867 
 2801000   0.80808863   -8.8203134    492.16583  0.014642563  0.014567276         3832 
 2802000   0.80637827   -8.8134873    491.34891  0.014613041    0.0145602         3866 
 2803000   0.79124262   -8.8378467    491.34311  0.014607656   0.01455313         3876 
 2804000   0.79575733   -8.7955095    492.37832  0.014633212  0.014546041         3858 
 2805000   0.79734907   -8.8224458    491.16728  0.014592017  0.014538967         3847 
 2806000   0.80215524   -8.8194414    491.04757  0.014583261  0.014531895         3818 
 2807000   0.80193073   -8.8117314    490.10792   0.01455017  0.014524819         3853 
 2808000   0.80175948    -8.817156    491.28755  0.014579996  0.014517759         3848 
 2809000    0.8045647    -8.815118    492.13332  0.014599897  0.014510699         3864 
 2810000   0.81230848   -8.8350765    492.00467  0.014590886  0.014503636         3873 
 2811000   0.79193455    -8.815196    491.19533  0.014561702  0.014496584         3857 
 2812000   0.79701606   -8.7840305    491.75188  0.014573017  0.014489537         3899 
 2813000   0.80766566   -8.8184509    491.50983  0.014560666  0.014482492         3877 
 2814000   0.80338098   -8.8155778     489.8604  0.014506645  0.014475446         3863 
 2815000   0.82373801   -8.8119904    491.12113  0.014538814  0.014468398         3864 
 2816000    0.8012253   -8.8176461    492.65479  0.014579036  0.014461363         3878 
 2817000   0.79998306   -8.7807344    492.47954  0.014568677  0.014454335         3834 
 2818000   0.79590686   -8.8352114    490.60841  0.014508174  0.014447309         3862 
 2819000   0.79408111   -8.8169165    489.92622  0.014482861  0.014440276         3867 
 2820000    0.8033253   -8.8123215    490.82252  0.014504212  0.014433247         3845 
 2821000   0.80290235   -8.8084186    490.44633  0.014487957  0.014426222         3866 
 2822000   0.79836666   -8.8251647    491.33833  0.014509164   0.01441921         3824 
 2823000   0.81926832    -8.794704    491.00646  0.014494228  0.014412202         3833 
 2824000    0.7750212     -8.83401    491.07179  0.014491023  0.014405184         3833 
 2825000   0.80517488   -8.8316629    491.77686  0.014506692  0.014398175         3875 
 2826000   0.78360024   -8.8398547    490.57664  0.014466166  0.014391165         3861 
 2827000   0.80968297   -8.8208908    490.64228  0.014462984  0.014384164         3834 
 2828000   0.80099277   -8.8138029    492.95067  0.014525892  0.014377171         3846 
 2829000   0.80111955   -8.8249762    490.73155  0.014455389  0.014370181         3857 
 2830000   0.79848686   -8.8022957    490.65683  0.014448081  0.014363184         3843 
 2831000   0.79571781   -8.8004301    491.19622  0.014458855    0.0143562         3868 
 2832000   0.81744252   -8.8431408    490.43433   0.01443133  0.014349232         3855 
 2833000   0.80726023   -8.8081037    492.53696  0.014488086  0.014342257         3881 
 2834000   0.79000757   -8.7971502    492.19202   0.01447283  0.014335291         3826 
 2835000   0.78358501   -8.8330814      490.661  0.014422722  0.014328331         3839 
 2836000   0.79293924    -8.804293    491.24613   0.01443483  0.014321371         3878 
 2837000    0.8095129   -8.8209705    490.37466  0.014404143  0.014314405         3839 
 2838000   0.79411418    -8.832632    490.23373   0.01439493  0.014307449         3878 
 2839000   0.78002373   -8.8207935    491.14285  0.014416545  0.014300488         3830 
 2840000   0.81101529   -8.8109134    492.88461  0.014462576  0.014293541         3866 
 2841000   0.80980381   -8.8076359    492.04941  0.014432987  0.014286603         3855 
 2842000   0.78873909   -8.8091288    491.89399  0.014423352  0.014279659         3835 
 2843000   0.81254719   -8.8437441    490.70181  0.014383334  0.014272729         3856 
 2844000   0.79863923   -8.8072762    491.51765  0.014402182  0.014265797         3851 
 2845000   0.79161577   -8.7940189    491.68788  0.014402106  0.014258867         3842 
 2846000   0.78744874   -8.8239403    491.54579  0.014392884   0.01425195         3865 
 2847000   0.79696686   -8.8294492    491.11345  0.014375174  0.014245013         3872 
 2848000   0.81107264   -8.8216609    490.65687  0.014356767  0.014238089         3876 
 2849000   0.78997304   -8.8118788    491.31529  0.014370987  0.014231165         3859 
 2850000   0.80832052    -8.830104    490.99101  0.014356462   0.01422424         3851 
 2851000   0.78312176   -8.8289326    490.32561  0.014331977  0.014217313         3851 
 2852000   0.78042385   -8.8342827    491.21435   0.01435292  0.014210399         3865 
 2853000   0.78764683     -8.83915    491.56455  0.014358119  0.014203497         3881 
 2854000   0.79284902   -8.8271082       490.79  0.014330472  0.014196592         3820 
 2855000    0.8187526   -8.8468597    491.04491  0.014332893  0.014189688         3845 
 2856000   0.79647332   -8.8410062     490.1951  0.014303078  0.014182789         3849 
 2857000    0.7944998   -8.8343847     491.1494  0.014325907  0.014175887         3885 
 2858000   0.79635925   -8.8399194    490.40698  0.014299247   0.01416899         3876 
 2859000    0.7866526   -8.8346683    491.12409  0.014315148  0.014162102         3857 
 2860000   0.80330209   -8.8104513    491.48724  0.014320724  0.014155219         3853 
 2861000   0.79695106   -8.8086558    491.89737  0.014327664  0.014148345         3869 
 2862000    0.8052725   -8.8264743    490.37513  0.014278335  0.014141465         3853 
 2863000   0.78636754   -8.7851747    491.58154  0.014308463  0.014134589         3831 
 2864000   0.79979621   -8.8443263     490.3993  0.014269067  0.014127724         3873 
 2865000   0.79389915   -8.8030436    491.54895  0.014297526  0.014120859         3868 
 2866000   0.80727361    -8.843383    490.66467  0.014266826  0.014114004         3860 
 2867000   0.80029215   -8.8262068    491.30271  0.014280395  0.014107151         3859 
 2868000   0.78805577   -8.8358893    490.46835  0.014251172  0.014100299         3888 
 2869000   0.79232817   -8.8318721    491.31151  0.014270696  0.014093451         3848 
 2870000   0.81818303   -8.8312799    491.18481  0.014262044  0.014086607         3896 
 2871000   0.78749174   -8.8084412    492.82355  0.014304643   0.01407977         3861 
 2872000   0.79932541   -8.8243501    490.19659  0.014223439   0.01407293         3857 
 2873000   0.80066778   -8.8429012     490.6202  0.014230775    0.0140661         3863 
 2874000   0.78953438   -8.7882346    490.87107  0.014233098  0.014059269         3858 
 2875000   0.79944898   -8.8378177    490.65584  0.014221908  0.014052444         3844 
 2876000   0.77502915   -8.8335364    490.70141  0.014218284  0.014045619         3878 
 2877000   0.79840737   -8.8124768    490.04278  0.014194264  0.014038812         3899 
 2878000   0.77986141   -8.8510375    490.84415  0.014212536  0.014031999         3852 
 2879000   0.78671866   -8.8270522    490.63349  0.014201502  0.014025178         3839 
 2880000   0.79132582   -8.8120879    491.26457  0.014214831  0.014018373         3840 
 2881000   0.79773323   -8.8531966    490.65104  0.014192151  0.014011561         3859 
 2882000   0.77802645   -8.7929494      491.228  0.014203909  0.014004755         3851 
 2883000   0.78602086   -8.8404542     489.8299   0.01415857  0.013997944         3832 
 2884000   0.78832243   -8.8249891    489.87007  0.014154822  0.013991142         3837 
 2885000   0.79124949   -8.8071723    491.70563  0.014202935  0.013984348         3867 
 2886000   0.78662842   -8.8505719    491.14452  0.014181812   0.01397756         3876 
 2887000   0.78084923   -8.8261066    490.93531  0.014170861  0.013970777         3852 
 2888000   0.78869643   -8.8435808    489.99739  0.014138891  0.013963985         3863 
 2889000   0.79387722   -8.8288309    490.40235  0.014145677  0.013957198         3845 
 2890000   0.76963786   -8.8435968    490.82491  0.014152967  0.013950422         3864 
 2891000   0.81277957   -8.8164303    491.65751  0.014172072  0.013943643         3863 
 2892000   0.77962049   -8.8421633    490.62794  0.014137504  0.013936868         3856 
 2893000   0.78896492   -8.8071794    490.55881  0.014130626  0.013930093         3807 
 2894000   0.78779956   -8.8628225    490.55518  0.014125639  0.013923327         3841 
 2895000   0.78954212   -8.8544675    490.20459  0.014110668   0.01391656         3835 
 2896000   0.81194273   -8.8467657    490.42918  0.014112258  0.013909813         3838 
 2897000   0.79875279   -8.8426907    490.53688  0.014110484  0.013903051         3881 
 2898000   0.79515723   -8.8328998     491.8023  0.014142003  0.013896298         3855 
 2899000   0.79010212   -8.8281057    490.54701  0.014101041  0.013889543         3857 
 2900000   0.78617649   -8.8526499    489.98846  0.014080128  0.013882797         3870 
 2901000   0.78122461   -8.8244572    490.35325  0.014085753  0.013876055         3838 
 2902000   0.81722906   -8.8418549     490.2333  0.014077455  0.013869315         3871 
 2903000   0.78228392   -8.8371187    490.87692  0.014091082  0.013862582         3907 
 2904000   0.79186934   -8.8451143    490.06237  0.014062855  0.013855841         3863 
 2905000   0.78943718   -8.8547466    489.72867  0.014048442  0.013849113         3858 
 2906000   0.79998134   -8.8467377     490.5313  0.014066624  0.013842394         3900 
 2907000   0.80639997   -8.8457793    490.43998  0.014059167  0.013835669         3858 
 2908000   0.78384802   -8.8248727    490.80875    0.0140649  0.013828954         3883 
 2909000   0.78873803   -8.8390258    490.61266  0.014054448  0.013822232         3830 
 2910000   0.78922147   -8.8617359      490.448  0.014044903  0.013815529         3876 
 2911000   0.78103974   -8.8445734    491.39974  0.014067323  0.013808817         3885 
 2912000   0.80125825   -8.8506545    491.53085  0.014066245   0.01380211         3866 
 2913000   0.77793602    -8.813071    490.24499  0.014024631  0.013795419         3856 
 2914000   0.79200571   -8.8515434    490.90784  0.014038774  0.013788716         3880 
 2915000   0.78966609   -8.8445979     489.9314  0.014006043  0.013782016         3860 
 2916000   0.78818321   -8.7935429     489.9402  0.014001492  0.013775338         3867 
 2917000   0.78832012   -8.7941026    490.78258  0.014020757  0.013768664         3864 
 2918000   0.76241586   -8.8558617    490.40492  0.014005167  0.013761981         3839 
 2919000   0.80209608   -8.8327238    491.02759  0.014018145  0.013755306         3862 
 2920000   0.79358639   -8.8222334    490.29949  0.013992565  0.013748635         3811 
 2921000   0.77178542   -8.8558129    490.53409  0.013994468  0.013741972         3854 
 2922000    0.7857575   -8.8456728    490.58768  0.013991207  0.013735312         3862 
 2923000   0.76940224    -8.836183    489.87079  0.013965982  0.013728656         3861 
 2924000   0.76724233   -8.8369333    491.15898  0.013997919  0.013722005         3873 
 2925000   0.78000646   -8.8326735    490.93892  0.013986864  0.013715348         3855 
 2926000   0.76039391   -8.8613392    489.81511  0.013950077  0.013708697         3839 
 2927000   0.77693537    -8.831295    491.61127  0.013996449  0.013702052         3858 
 2928000   0.76867621   -8.8420115    489.37688  0.013928076  0.013695412         3831 
 2929000   0.79166261   -8.8292973    490.49852  0.013955233  0.013688779         3878 
 2930000   0.77727784   -8.8566513    488.69816  0.013899265  0.013682138         3840 
 2931000   0.77870087   -8.8405075      490.765  0.013953287  0.013675508         3877 
 2932000   0.76914516   -8.8424862    490.68956  0.013946384  0.013668876         3846 
 2933000   0.76338413    -8.860323    489.80726   0.01391656  0.013662251         3858 
 2934000   0.77427599     -8.84038    489.96428  0.013916277  0.013655633         3859 
 2935000   0.78542554   -8.8709462    489.80356  0.013906972  0.013649023         3859 
 2936000   0.79010695   -8.8423287    490.45522  0.013920732  0.013642419         3869 
 2937000    0.7791379   -8.8430694    490.46186   0.01391618  0.013635811         3861 
 2938000   0.78787469   -8.8314171    490.61344  0.013915743  0.013629218         3877 
 2939000   0.77274624   -8.8498289    490.41429  0.013905361  0.013622617         3862 
 2940000   0.78585558   -8.8570941    491.16927  0.013922032  0.013616021         3828 
 2941000   0.76708911    -8.862121    489.54281  0.013871212  0.013609431         3870 
 2942000   0.78008248   -8.8529743    490.39733  0.013890702  0.013602837         3872 
 2943000   0.76848478   -8.8580325    490.35228  0.013884706  0.013596251         3875 
 2944000   0.77459323   -8.8263027    490.06511  0.013871861  0.013589668         3865 
 2945000   0.77744921   -8.8623818     490.4205  0.013877207  0.013583071         3861 
 2946000    0.7757156   -8.8444717    490.72439  0.013881093  0.013576501         3850 
 2947000   0.78595745   -8.8586909     489.3961  0.013838822  0.013569915         3853 
 2948000   0.77093637   -8.8521334    489.72395  0.013843395   0.01356335         3842 
 2949000   0.79136608   -8.8563066    490.59226  0.013863238  0.013556792         3866 
 2950000    0.7733028   -8.8506166    490.58201  0.013858249  0.013550224         3878 
 2951000   0.77405539   -8.8520114     490.2788   0.01384499  0.013543671         3867 
 2952000   0.76792314   -8.8468425    490.53319  0.013847482  0.013537122         3859 
 2953000   0.77950612    -8.874003    490.54368  0.013843088  0.013530569         3842 
 2954000   0.77230401     -8.83168    490.93853  0.013849541  0.013524021         3856 
 2955000   0.76125642   -8.8571428    490.06072  0.013820099  0.013517478         3856 
 2956000   0.77720551   -8.8472977    491.32553  0.013851081  0.013510929         3866 
 2957000   0.76903758   -8.8532945    490.33253  0.013818412  0.013504391         3859 
 2958000   0.78137623   -8.8389565    490.61002  0.013821558   0.01349785         3882 
 2959000   0.78835666   -8.8469456    490.73095  0.013820293  0.013491316         3876 
 2960000   0.77862194   -8.8510238    489.92876  0.013793039  0.013484786         3862 
 2961000    0.7597013   -8.8361147    489.89993   0.01378757  0.013478258         3851 
 2962000   0.79138104    -8.845509    490.16104  0.013790261  0.013471731         3884 
 2963000    0.7909434   -8.8384282    490.22331  0.013787358  0.013465217         3848 
 2964000   0.77725207   -8.8789735    490.63422   0.01379426  0.013458705         3892 
 2965000   0.78621694    -8.829969    491.22268  0.013806146  0.013452187         3855 
 2966000    0.7477851   -8.8834222    490.08764  0.013769601  0.013445677         3849 
 2967000   0.79494552   -8.8462767    489.25377  0.013741539  0.013439167         3879 
 2968000   0.77698474   -8.8658061    489.92231   0.01375568  0.013432667         3869 
 2969000   0.78059912   -8.8665935    489.92875  0.013751228  0.013426171         3877 
 2970000   0.77018076   -8.8553627    490.57022  0.013764597  0.013419669         3883 
 2971000   0.77013551   -8.8577056    490.69747  0.013763533  0.013413179         3869 
 2972000   0.76474891   -8.8506473    489.82588  0.013734463  0.013406687         3882 
 2973000   0.78047666   -8.8693782    490.95799  0.013761576  0.013400195         3868 
 2974000   0.77174062   -8.8423383    489.99243  0.013729893  0.013393725         3860 
 2975000   0.78052148   -8.8599641    490.64976  0.013743691  0.013387251         3851 
 2976000   0.77731652   -8.8333942    490.44797  0.013733422  0.013380774         3836 
 2977000    0.7854906   -8.8531584    490.59524  0.013732931  0.013374313         3870 
 2978000    0.7679569   -8.8771011    489.18697  0.013688912   0.01336785         3879 
 2979000   0.77530169   -8.8583555    489.91652  0.013704725   0.01336139         3881 
 2980000    0.7642527   -8.8681415    489.33706  0.013683922  0.013354924         3871 
 2981000   0.76995409   -8.8366135    489.45943  0.013682753  0.013348464         3865 
 2982000     0.781751    -8.862134    490.66614  0.013711886  0.013342006         3842 
 2983000   0.77879374    -8.859784    489.68836  0.013679974  0.013335557         3894 
 2984000   0.78113611   -8.8538513    489.97956  0.013683522  0.013329107         3842 
 2985000   0.78667825   -8.8673059    490.68592  0.013698658  0.013322663         3854 
 2986000   0.78936918   -8.8589222    490.07909  0.013677135  0.013316227         3859 
 2987000   0.77126093   -8.8691194    489.74738  0.013663302  0.013309787         3867 
 2988000   0.78671754   -8.8658285    489.45223  0.013650497  0.013303345         3877 
 2989000   0.76768713   -8.8656257    490.46813  0.013674254  0.013296912         3860 
 2990000   0.78503216   -8.8839596    489.90661   0.01365403   0.01329049         3888 
 2991000   0.77218355   -8.8685327    490.24895  0.013659003  0.013284079         3872 
 2992000    0.7715744   -8.8548308    489.53568  0.013634572  0.013277672         3872 
 2993000   0.77741252   -8.8787045    490.44844  0.013655431  0.013271268         3873 
 2994000   0.78272302   -8.8139307    489.30705  0.013619101  0.013264866         3820 
 2995000   0.78755509   -8.9060544     489.6968  0.013625398  0.013258467         3841 
 2996000   0.76525435   -8.8855836    489.31787   0.01361031  0.013252063         3876 
 2997000   0.78562484   -8.8599583    489.33393  0.013606215  0.013245665         3870 
 2998000   0.77549651   -8.8928625    489.09073  0.013594917   0.01323927         3871 
 2999000   0.75681839   -8.8715571    489.59968  0.013604526   0.01323288         3861 
 3000000   0.75610907   -8.8635509      489.995  0.013610972  0.013226489         3864 
 3001000   0.76609085   -8.8520936    489.92114  0.013604386  0.013220106         3883 
 3002000   0.76619761   -8.8875286    491.02899  0.013630607  0.013213731         3872 
 3003000   0.75746632   -8.8540293    491.06287  0.013627008   0.01320736         3852 
 3004000   0.76908196   -8.8763041    489.85468  0.013588956  0.013200997         3849 
 3005000   0.78736861   -8.8521936    490.30188  0.013596835  0.013194643         3832 
 3006000    0.7791777   -8.8650935    490.10685  0.013586905  0.013188284         3844 
 3007000   0.75334858   -8.8546693     491.3454  0.013616711  0.013181926         3859 
 3008000   0.76331298   -8.8615158    490.66816  0.013593422  0.013175574         3852 
 3009000   0.76450713   -8.8607395    490.67254  0.013589026  0.013169224         3842 
 3010000   0.76836369   -8.8900601    488.92888  0.013536237   0.01316287         3868 
 3011000   0.77106659   -8.8578471    489.93537  0.013559597  0.013156516         3848 
 3012000   0.76017964   -8.8741206    489.12029  0.013532544  0.013150175         3872 
 3013000   0.77041085   -8.8668773     490.4128  0.013563801  0.013143833         3867 
 3014000   0.77076486   -8.8704498     489.8086  0.013542596  0.013137501         3862 
 3015000   0.77991606   -8.8818096    490.32533  0.013552386  0.013131159         3850 
 3016000   0.76253761   -8.8730822    489.57126  0.013527057  0.013124841         3833 
 3017000   0.76929834   -8.8638645    489.89487  0.013531512   0.01311852         3819 
 3018000   0.77384557   -8.8897879    489.73128  0.013522512  0.013112196         3875 
 3019000   0.77069292   -8.9196209    488.78685  0.013491963  0.013105877         3867 
 3020000   0.77810913   -8.9066578    490.41478  0.013532417  0.013099564         3833 
 3021000   0.76111622   -8.8724572    489.96519  0.013515535  0.013093249         3866 
 3022000   0.77642091   -8.8877886    488.94067  0.013482811  0.013086948         3870 
 3023000   0.75771509   -8.8687605    488.94773  0.013478546  0.013080649         3860 
 3024000   0.76715491   -8.8969408    488.32598  0.013456955  0.013074349         3875 
 3025000   0.76895588    -8.886388    489.80427  0.013493231  0.013068052         3864 
 3026000   0.77796052   -8.8744335     489.5676  0.013482254  0.013061755         3843 
 3027000   0.78723772   -8.8720348    489.32408  0.013471096  0.013055472         3876 
 3028000   0.75701871   -8.8768122    489.59021  0.013473971  0.013049182         3878 
 3029000   0.77156896   -8.8688781    489.78389  0.013474851  0.013042906         3869 
 3030000   0.77254641   -8.8907921    489.64867  0.013466685   0.01303662         3859 
 3031000   0.75338033   -8.8673355    491.36052  0.013509307  0.013030357         3847 
 3032000   0.76142764   -8.8471652    489.78319  0.013461499  0.013024082         3833 
 3033000   0.78040953   -8.8624957    490.41561  0.013474437  0.013017823         3870 
 3034000   0.76507196    -8.860609    490.26126  0.013465757  0.013011566         3856 
 3035000   0.78025584   -8.8802999    490.28035  0.013461844   0.01300531         3863 
 3036000   0.78268842    -8.884249    490.02271  0.013450338  0.012999055         3894 
 3037000   0.75311769   -8.9004374    489.89757  0.013442475    0.0129928         3896 
 3038000   0.76958402   -8.8613698    488.95843   0.01341229  0.012986553         3869 
 3039000   0.74705164   -8.8827716    489.19623  0.013414397  0.012980307         3882 
 3040000   0.74913685     -8.88712    489.19005  0.013409815  0.012974067         3875 
 3041000   0.75836879   -8.8561101    489.56863   0.01341578   0.01296783         3855 
 3042000   0.76972361   -8.8754163    489.31221  0.013404345  0.012961596         3873 
 3043000   0.75878112   -8.8668084    489.68533  0.013410158  0.012955376         3876 
 3044000   0.77048411   -8.8730493    489.25864  0.013394071  0.012949151         3870 
 3045000   0.76573022   -8.8582966    489.51283  0.013396629  0.012942929         3848 
 3046000   0.76505341   -8.8958333    489.07158  0.013380159  0.012936706         3884 
 3047000    0.7670645   -8.8601291    490.50764  0.013415043  0.012930488         3857 
 3048000    0.7775273   -8.8704643     490.1858  0.013401843  0.012924285         3823 
 3049000   0.76600708   -8.8946736    488.82934  0.013360373  0.012918086         3852 
 3050000   0.75423876   -8.8803766    489.47898  0.013373743  0.012911886         3875 
 3051000   0.75869704   -8.8916457    489.10161  0.013359052  0.012905683         3897 
 3052000   0.77563695   -8.8725807    488.93997  0.013350261  0.012899486         3863 
 3053000   0.75685619   -8.8753957       489.86  0.013371001  0.012893299         3844 
 3054000   0.76999906   -8.8668737     490.0982  0.013373123  0.012887107         3852 
 3055000   0.76098912   -8.9022251    488.56327  0.013326876  0.012880916         3852 
 3056000   0.78069914   -8.9269935    488.60934  0.013323771  0.012874732         3894 
 3057000   0.76979174   -8.8776712     489.7424    0.0133503  0.012868539         3877 
 3058000   0.76898808   -8.8933739    489.88641  0.013349859  0.012862356         3846 
 3059000   0.76126889   -8.8781485    489.59329  0.013337509  0.012856174         3861 
 3060000   0.77781086   -8.8816305    489.14554  0.013320957  0.012849997         3870 
 3061000   0.76087275   -8.9064498    488.79454   0.01330705  0.012843829         3893 
 3062000    0.7510323   -8.8578083    489.58366   0.01332418  0.012837665         3870 
 3063000   0.76047899    -8.889253    489.57371  0.013319559  0.012831509         3883 
 3064000   0.76779476   -8.8822509    490.39703  0.013337604  0.012825344         3858 
 3065000   0.76749912   -8.9005578    489.22931  0.013301504  0.012819182         3849 
 3066000   0.73729051   -8.8720287    490.64256  0.013335577   0.01281303         3862 
 3067000   0.76428032   -8.8846389    488.94435  0.013285087   0.01280688         3859 
 3068000   0.77747073   -8.8842013    488.81778  0.013277319  0.012800736         3876 
 3069000   0.75372658   -8.9008579    489.74694  0.013298223  0.012794593         3844 
 3070000   0.78672495   -8.8891625    489.93027  0.013298867  0.012788455         3866 
 3071000   0.76641425    -8.891117     488.7571  0.013262702  0.012782319         3869 
 3072000    0.7591306   -8.8857024     489.9069  0.013289575  0.012776178         3871 
 3073000   0.77287467   -8.9038148    488.67818   0.01325193  0.012770048         3887 
 3074000   0.75145369    -8.891839    488.84071  0.013252025  0.012763923         3844 
 3075000    0.7670941   -8.8864786    489.04923  0.013253367  0.012757807         3859 
 3076000   0.76295399   -8.8621363    489.39596  0.013258452  0.012751685         3883 
 3077000   0.75745418   -8.8815218     490.0919   0.01327299  0.012745565         3897 
 3078000   0.75659876   -8.8789331    489.89377  0.013263314  0.012739456         3865 
 3079000   0.76512353   -8.8837517     489.3797  0.013245093   0.01273335         3836 
 3080000   0.76133969   -8.8976032    488.30623  0.013211749  0.012727255         3882 
 3081000   0.75592206   -8.9105732    488.88136  0.013223016  0.012721155         3867 
 3082000    0.7659095   -8.8841299    489.94713  0.013247543  0.012715053         3868 
 3083000   0.75730876   -8.8758881    490.01887  0.013245185  0.012708965         3873 
 3084000   0.76680708   -8.9071709    489.58879  0.013229269  0.012702869         3881 
 3085000   0.77101348   -8.9064071    489.73925  0.013229045  0.012696777         3872 
 3086000   0.75486659    -8.892247     489.9568  0.013230633  0.012690691         3887 
 3087000   0.74901998   -8.9119884    488.62501  0.013190395  0.012684603         3873 
 3088000   0.75814744   -8.9025053    489.52845  0.013210504   0.01267852         3870 
 3089000   0.77071387   -8.9237588    489.13251  0.013195546  0.012672444         3884 
 3090000   0.76395954   -8.9218823    489.66317  0.013205587   0.01266637         3881 
 3091000   0.76265069   -8.9203942    489.45114  0.013195598  0.012660297         3886 
 3092000   0.76712404   -8.9147786    489.57929  0.013194785  0.012654229         3876 
 3093000   0.74557983   -8.9267745    488.79451  0.013169375  0.012648168         3866 
 3094000     0.753982    -8.910752    488.61776  0.013160358  0.012642102         3866 
 3095000   0.75120496   -8.8960928    489.33957   0.01317554   0.01263604         3876 
 3096000   0.75960596   -8.9175987    488.30005  0.013143304  0.012629985         3881 
 3097000   0.75210169   -8.8953536    489.58973  0.013173763  0.012623936         3873 
 3098000   0.74947911   -8.8935125    489.75558  0.013173972  0.012617886         3861 
 3099000   0.74398996    -8.888711    489.71018    0.0131685  0.012611845         3834 
 3100000   0.75302922   -8.9173547    488.47235  0.013130977  0.012605804         3914 
 3101000   0.75300144   -8.8884014    489.84262  0.013163566  0.012599763         3881 
 3102000    0.7357581   -8.9162807    488.38973  0.013120292  0.012593732         3873 
 3103000   0.75474011   -8.9035201    489.03116  0.013133289  0.012587693         3897 
 3104000   0.74852311   -8.8987544    488.86726  0.013124658  0.012581665         3884 
 3105000   0.74482926   -8.8957453    489.19204  0.013129148  0.012575644         3883 
 3106000   0.73477452   -8.9121395    488.79039  0.013114144  0.012569625         3867 
 3107000   0.75100572   -8.9102316    489.06015  0.013117159  0.012563607         3870 
 3108000   0.76170331   -8.9008795    488.50565  0.013098071  0.012557593         3893 
 3109000   0.75247013   -8.8995648    489.16254  0.013111465  0.012551589         3894 
 3110000   0.75820961   -8.8806773    489.06774  0.013104709   0.01254558         3862 
 3111000   0.77012017   -8.9017434    489.11169  0.013101674   0.01253958         3896 
 3112000   0.75169271   -8.8917625    489.16757   0.01309896  0.012533586         3847 
 3113000    0.7532783   -8.8963279    489.97198  0.013116286  0.012527596         3851 
 3114000   0.77032988   -8.8975712    488.94481  0.013084586    0.0125216         3869 
 3115000   0.73860231   -8.9121976    488.31066   0.01306342  0.012515608         3863 
 3116000   0.75593086   -8.9178403    489.69518  0.013096255  0.012509623         3859 
 3117000   0.75233805   -8.9042894    489.71309  0.013092533  0.012503645         3897 
 3118000   0.74635234   -8.9155509    489.70066  0.013088001  0.012497667         3889 
 3119000   0.74978431   -8.8819513    489.21222  0.013070755  0.012491686         3858 
 3120000    0.7565852   -8.9150309    488.81313  0.013055906  0.012485715         3900 
 3121000   0.75439768   -8.9005737    489.33761  0.013065727  0.012479745         3867 
 3122000   0.75711104   -8.8789102    488.85484  0.013048656  0.012473779         3871 
 3123000   0.75904356   -8.9044915     489.2395  0.013054742  0.012467815         3872 
 3124000   0.73823169   -8.9143208    488.30186  0.013025551  0.012461852         3893 
 3125000   0.76660833   -8.9218492     489.0423  0.013041128  0.012455897         3876 
 3126000    0.7370171   -8.9057183    489.41693  0.013046943  0.012449944         3883 
 3127000   0.74294068   -8.9037907      489.442  0.013043439  0.012443996         3882 
 3128000   0.76480917   -8.9157884    488.52471  0.013014831  0.012438053         3881 
 3129000   0.75428203   -8.8913588    489.48223  0.013036173  0.012432109         3885 
 3130000   0.76249173   -8.9150628    488.83491  0.013014774  0.012426179         3862 
 3131000   0.74294292   -8.9125134    490.29741  0.013049542  0.012420247         3898 
 3132000   0.74435003   -8.9053618    488.36363  0.012993924  0.012414319         3873 
 3133000    0.7607276    -8.906176    489.23671  0.013012999  0.012408393         3881 
 3134000   0.73652796   -8.9308814    489.36007  0.013012127  0.012402466         3878 
 3135000   0.75189944   -8.8983153    488.77375  0.012992391  0.012396546         3870 
 3136000   0.75052948   -8.8993276    489.34012  0.013003298  0.012390629         3835 
 3137000    0.7536588   -8.9045628    489.43541  0.013001684  0.012384721         3885 
 3138000   0.75344331   -8.8761407    488.71692  0.012978461  0.012378822         3878 
 3139000   0.74016508   -8.9003073    489.10856  0.012984723   0.01237292         3860 
 3140000   0.75064038   -8.9172968    488.92457  0.012975705  0.012367026         3887 
 3141000   0.75717754   -8.9165117    488.19826  0.012952305  0.012361135         3892 
 3142000   0.73676629   -8.9114462    488.74759  0.012962752  0.012355244         3876 
 3143000   0.75950041   -8.9008678    488.76057  0.012958972  0.012349357         3865 
 3144000   0.73595794   -8.9197534    489.31565  0.012969562  0.012343478         3891 
 3145000   0.74326768   -8.9240424    489.00437  0.012957191    0.0123376         3889 
 3146000    0.7520049   -8.9152791    489.27261  0.012960177  0.012331728         3884 
 3147000   0.74077751   -8.9146125    488.69074  0.012940651  0.012325856         3889 
 3148000   0.73724864   -8.9177725     489.6522  0.012961992  0.012319984         3872 
 3149000   0.74398581    -8.912914    488.72092  0.012933231  0.012314113         3882 
 3150000    0.7577864   -8.8851581    490.72765  0.012982213  0.012308253         3872 
 3151000   0.75673557   -8.9203897    489.34613  0.012941556  0.012302401         3899 
 3152000   0.72200514   -8.9219054    488.71182  0.012920681  0.012296543         3905 
 3153000   0.75264375   -8.9147207    488.26658  0.012904815  0.012290688         3883 
 3154000   0.74268955   -8.8903156    488.88434  0.012917046  0.012284837         3875 
 3155000   0.74216912   -8.9067956    489.29917  0.012923908  0.012278993         3877 
 3156000   0.74633346   -8.9244392    488.89402  0.012909115  0.012273159         3842 
 3157000   0.75130557   -8.9220833    488.09133  0.012883838  0.012267323         3877 
 3158000   0.76923586    -8.914405    489.67174  0.012921462  0.012261487         3907 
 3159000   0.76121757   -8.9103414     489.7186  0.012918608  0.012255658         3904 
 3160000   0.74062754   -8.9230254    489.20279  0.012900917   0.01224983         3872 
 3161000   0.73503998   -8.8939834     489.4193  0.012902544  0.012244005         3862 
 3162000   0.74025441   -8.9551575    488.54221  0.012875348  0.012238181         3887 
 3163000   0.74644955   -8.9370244    488.29083  0.012864654  0.012232357         3900 
 3164000   0.76020554   -8.9242948    488.43353  0.012864347   0.01222654         3893 
 3165000   0.75474819   -8.9150222    489.19422  0.012880311  0.012220733         3890 
 3166000   0.75063343   -8.9059754    488.48903  0.012857681  0.012214927         3910 
 3167000   0.75675731   -8.9153333    489.16246  0.012871341   0.01220912         3896 
 3168000   0.75445348   -8.9307387    489.04494  0.012864187  0.012203316         3901 
 3169000   0.75838365   -8.9309651    488.72609  0.012851743  0.012197515         3885 
 3170000   0.73823541   -8.9222582    488.79222  0.012849427  0.012191719         3888 
 3171000   0.73613495   -8.9202114    488.21398  0.012830179  0.012185924         3890 
 3172000   0.74866587   -8.9343825    489.09343  0.012849239  0.012180125         3891 
 3173000   0.74142361   -8.9108354    489.25543  0.012849444  0.012174331         3901 
 3174000   0.74221986   -8.9139798    488.94031  0.012837122  0.012168544         3896 
 3175000   0.74444216   -8.9166353    489.53888  0.012848789  0.012162765         3885 
 3176000   0.74198866   -8.9446113    489.43353   0.01284198  0.012156985         3881 
 3177000   0.75130036   -8.9182513    489.11484  0.012829578  0.012151214         3871 
 3178000    0.7402919   -8.9112758    487.96751  0.012795456  0.012145444         3897 
 3179000   0.74040495   -8.9224111    488.78041   0.01281274  0.012139673         3885 
 3180000   0.73726985    -8.935658    487.52455  0.012775801  0.012133909         3894 
 3181000   0.75454785   -8.9456211    488.76462  0.012804271  0.012128147         3895 
 3182000    0.7604543   -8.9494662     487.9571  0.012779099   0.01212238         3863 
 3183000   0.73475028   -8.9284362    488.61313  0.012792259  0.012116619         3905 
 3184000   0.74916772   -8.9290183    489.86601  0.012821033   0.01211087         3897 
 3185000   0.73569492   -8.9499673    489.20794  0.012799789  0.012105121         3899 
 3186000   0.73006931   -8.9106651    488.06475   0.01276587  0.012099374         3877 
 3187000   0.74542482   -8.9329909    488.39777  0.012770572  0.012093635         3884 
 3188000    0.7459124   -8.9113684    488.08154    0.0127583  0.012087894         3886 
 3189000   0.74167337   -8.9198413    489.61467  0.012794363  0.012082164         3865 
 3190000   0.74023999   -8.9333261    488.03693  0.012749136  0.012076435         3906 
 3191000    0.7416001   -8.9111828    489.29411  0.012777972  0.012070708         3878 
 3192000   0.74511458   -8.9331938    488.27909   0.01274747  0.012064986         3875 
 3193000   0.74277251    -8.919527    488.88382   0.01275926   0.01205926         3865 
 3194000   0.73805624   -8.9275602    488.87325   0.01275499  0.012053542         3865 
 3195000    0.7216786   -8.9419925    489.34665  0.012763345  0.012047828         3873 
 3196000   0.75305611   -8.9130577    489.10373  0.012753017  0.012042113         3877 
 3197000   0.73550629   -8.9470623    487.54407  0.012708374  0.012036405         3885 
 3198000   0.73789755   -8.9281131    488.00799  0.012716489  0.012030703         3899 
 3199000   0.74913319   -8.9327619    487.72253  0.012705078  0.012025003         3899 
 3200000   0.72628143   -8.9189439    488.18663  0.012713193  0.012019301         3878 
 3201000    0.7599963   -8.9152105    487.92269   0.01270235  0.012013604         3889 
 3202000   0.72745719   -8.9245355    488.67386  0.012717933  0.012007914         3887 
 3203000   0.72101114   -8.9236667    488.96236  0.012721468  0.012002222         3882 
 3204000   0.71507243   -8.9363498    488.25973  0.012699223  0.011996535         3863 
 3205000   0.75133777   -8.9145055    489.57173  0.012729374  0.011990856         3865 
 3206000   0.74473855   -8.9285043     489.3033  0.012718426  0.011985187         3875 
 3207000   0.73488715   -8.9355962    488.58203  0.012695718  0.011979513         3875 
 3208000   0.74963341   -8.9369166    488.10465   0.01267936   0.01197384         3887 
 3209000   0.72877386   -8.9411126    489.27872  0.012705898  0.011968173         3872 
 3210000   0.74933017   -8.9267995    489.19238  0.012699698  0.011962507         3871 
 3211000   0.74485303     -8.93715    489.25118  0.012697269   0.01195685         3853 
 3212000   0.72936518   -8.9198234    488.52477   0.01267447  0.011951194         3876 
 3213000   0.74520707   -8.9175226    489.22192  0.012688607  0.011945534         3902 
 3214000   0.74301508   -8.9414424    488.04268  0.012654083  0.011939874         3880 
 3215000   0.75407239   -8.9423511    488.06335  0.012650683  0.011934231         3878 
 3216000   0.72432852   -8.9458848    488.04778  0.012646346   0.01192859         3906 
 3217000   0.73413321   -8.9406463    488.56866  0.012655908  0.011922946         3899 
 3218000    0.7365279   -8.9361848     488.9311  0.012661361  0.011917309         3862 
 3219000   0.72883441   -8.9232054    488.46255  0.012645298  0.011911679         3865 
 3220000     0.747098   -8.9203977    489.45495  0.012667054  0.011906049         3866 
 3221000   0.73431045   -8.9317291     489.3543  0.012660517  0.011900417         3875 
 3222000   0.74113812   -8.9065878    488.01868  0.012622043   0.01189479         3887 
 3223000   0.71907001   -8.9112363    489.16258  0.012647704  0.011889166         3893 
 3224000   0.73230777   -8.9290061    488.66361  0.012630883  0.011883551         3878 
 3225000   0.74596413   -8.9466779    488.72516  0.012628557  0.011877932         3874 
 3226000   0.73465528   -8.9409367    488.69333   0.01262382   0.01187232         3900 
 3227000   0.73765436   -8.9389602    487.73335  0.012595118  0.011866705         3867 
 3228000   0.73016984   -8.9156192    487.41172  0.012582913  0.011861104         3853 
 3229000   0.71968932   -8.9416415    489.64812  0.012636733  0.011855509         3894 
 3230000   0.72219258   -8.9287094     488.3914  0.012600397  0.011849914         3896 
 3231000   0.74926879   -8.9168077    488.66383  0.012603524   0.01184433         3862 
 3232000   0.74184929   -8.9267131    487.91443  0.012580302  0.011838741         3858 
 3233000   0.74139016    -8.927233     488.9715  0.012603658  0.011833153         3875 
 3234000    0.7334768   -8.9296487    488.48362  0.012587189  0.011827567         3858 
 3235000   0.73325027   -8.9333675    487.80584  0.012565838  0.011821984         3881 
 3236000   0.72290743   -8.9170747    488.59404  0.012582253  0.011816404         3854 
 3237000   0.73032733   -8.9142126    488.58933  0.012578245   0.01181083         3910 
 3238000   0.73867258   -8.9149647    488.62676  0.012575323  0.011805267         3873 
 3239000    0.7412376   -8.9387941    489.07234  0.012582905  0.011799699         3903 
 3240000   0.72992606   -8.9282203    487.82228  0.012546869  0.011794131         3886 
 3241000   0.73398423   -8.9627028    487.07581  0.012523805  0.011788569         3899 
 3242000   0.73480066   -8.9195879    488.80234  0.012564321  0.011783008         3894 
 3243000   0.74081611   -8.9393418    488.48474  0.012552285  0.011777456         3877 
 3244000      0.72461   -8.9207959    488.28979  0.012543408  0.011771895         3860 
 3245000    0.7341565   -8.9346776    487.98544  0.012531727  0.011766349         3885 
 3246000   0.72652422    -8.922476    488.59725  0.012543573  0.011760799         3859 
 3247000   0.73998887    -8.942721    488.72912  0.012543094  0.011755256         3902 
 3248000   0.73366619   -8.9556784    488.34772  0.012529447  0.011749717         3874 
 3249000   0.73074141   -8.9333604    488.41614  0.012527345  0.011744175         3870 
 3250000   0.72939309   -8.9280517    488.04265  0.012513914  0.011738648         3877 
 3251000   0.73994547   -8.9519133    488.51158  0.012522085  0.011733119         3874 
 3252000   0.73175128   -8.9648229    488.22677  0.012510936  0.011727599         3907 
 3253000   0.72915347   -8.9364736    487.79686  0.012496077  0.011722085         3882 
 3254000   0.72207259   -8.9392414    487.05281  0.012473182  0.011716558         3874 
 3255000   0.72627799    -8.938237    488.18834  0.012498421  0.011711044         3860 
 3256000   0.73489378   -8.9308651     488.9147  0.012513173  0.011705529         3902 
 3257000   0.73322876   -8.9378576    488.22746  0.012491747  0.011700023         3884 
 3258000   0.73534711   -8.9294348    488.02777  0.012482806  0.011694519         3891 
 3259000   0.72358998    -8.936286    488.85347  0.012500089  0.011689008         3892 
 3260000   0.73942042   -8.9293459    489.04736  0.012501211  0.011683508         3890 
 3261000   0.73227556   -8.9547294    488.84188  0.012492126  0.011678009         3887 
 3262000   0.74571858   -8.9211926    489.21295  0.012497776  0.011672514         3907 
 3263000   0.73604307   -8.9274218    488.72505  0.012481486  0.011667027         3891 
 3264000   0.72703466   -8.9329665     488.6312  0.012475266  0.011661535         3885 
 3265000   0.73129669   -8.9542468    487.17093  0.012434174  0.011656056         3891 
 3266000   0.71175162    -8.944962    488.29132  0.012458954  0.011650576         3887 
 3267000   0.73531232   -8.9373224    488.10284  0.012450333  0.011645091         3875 
 3268000   0.72181563   -8.9365051     488.5452  0.012457803  0.011639613         3888 
 3269000   0.72050834   -8.9672914    488.95327  0.012464395  0.011634143         3897 
 3270000   0.73212578   -8.9386062    488.32512  0.012444575  0.011628676         3900 
 3271000   0.73842296   -8.9490805    487.50906   0.01241998  0.011623209         3881 
 3272000   0.72108238   -8.9547606    487.90247  0.012426204  0.011617741         3887 
 3273000   0.74755482   -8.9281264    488.56548  0.012439288  0.011612286         3882 
 3274000   0.72168868   -8.9483149    487.64944  0.012412173  0.011606841         3879 
 3275000    0.7503016   -8.9617552    487.90543  0.012414897  0.011601389         3901 
 3276000   0.72781491   -8.9524942    488.03825  0.012414485  0.011595946         3891 
 3277000   0.72382227   -8.9442028    488.09614  0.012412169  0.011590505         3895 
 3278000   0.71618562   -8.9453316    487.24842  0.012386832  0.011585062         3904 
 3279000   0.73046527   -8.9652924    487.90785  0.012399813  0.011579626         3901 
 3280000   0.73059694   -8.9401581    487.96372  0.012397452  0.011574198         3889 
 3281000   0.72309861    -8.931087    488.61987  0.012410339  0.011568769         3907 
 3282000   0.73052928   -8.9460159    487.43007  0.012376347  0.011563341         3887 
 3283000   0.72845095   -8.9513618    488.07593  0.012388972  0.011557919         3918 
 3284000   0.72842243   -8.9551456    488.12346  0.012386405  0.011552487         3907 
 3285000    0.7251023   -8.9508387    488.64432  0.012395848  0.011547063         3882 
 3286000   0.73497582   -8.9329264       488.53  0.012389176  0.011541646         3897 
 3287000   0.73030714   -8.9361008    487.32081  0.012354751  0.011536236         3904 
 3288000    0.7431368   -8.9339483    487.75095  0.012361896  0.011530827         3875 
 3289000   0.73012265     -8.92733    488.19646  0.012369425  0.011525424         3894 
 3290000   0.73362312   -8.9396116     487.6269  0.012351239   0.01152002         3903 
 3291000   0.73695668   -8.9506611    487.93451  0.012355275  0.011514622         3877 
 3292000   0.73540323   -8.9516585    488.67798  0.012370342  0.011509223         3890 
 3293000   0.74066311   -8.9474823    488.54536  0.012363229  0.011503831         3871 
 3294000   0.72863185   -8.9231543    487.91865  0.012343621  0.011498442         3884 
 3295000   0.72648311   -8.9473159    488.04172  0.012342987   0.01149305         3904 
 3296000   0.70717168   -8.9598744    488.04955   0.01233944  0.011487659         3890 
 3297000   0.70661362   -8.9606868    488.31526  0.012342414  0.011482276         3898 
 3298000   0.73396624   -8.9532284    488.01014  0.012330962  0.011476892         3863 
 3299000   0.70151528   -8.9415761    488.07913  0.012328967  0.011471522         3870 
 3300000   0.73221806   -8.9460564     488.7529  0.012342245  0.011466143         3892 
 3301000   0.72889871   -8.9351604    487.62714  0.012310086  0.011460774         3869 
 3302000   0.70917389    -8.938802    488.72855  0.012334155  0.011455404         3886 
 3303000   0.72093277   -8.9713975    487.40227  0.012296959  0.011450039         3907 
 3304000   0.71401451   -8.9383986    488.23975   0.01231436  0.011444673         3903 
 3305000   0.72356758   -8.9733968    488.61223  0.012320026  0.011439307         3905 
 3306000    0.7046238   -8.9724919    488.10201  0.012303438  0.011433946         3901 
 3307000    0.7314961   -8.9466993    488.73057  0.012315557  0.011428595         3905 
 3308000   0.72511866   -8.9622835    487.32443  0.012276411  0.011423252         3887 
 3309000    0.7109443   -8.9783716    487.65866  0.012281119  0.011417903         3877 
 3310000   0.72913127   -8.9374871    487.74279  0.012279526  0.011412562         3900 
 3311000   0.71188093   -8.9530406    488.74569  0.012301059  0.011407219         3909 
 3312000   0.71058935   -8.9636319    488.56222  0.012292729  0.011401888         3896 
 3313000   0.72387543   -8.9644119    488.08984  0.012277136  0.011396551         3901 
 3314000   0.71809787   -8.9522645    488.03742  0.012272114   0.01139122         3907 
 3315000   0.70728242   -8.9710909    487.28332  0.012249455  0.011385892         3918 
 3316000   0.72138199   -8.9470672    488.22997  0.012269551  0.011380566         3886 
 3317000    0.7162596   -8.9453235     487.4075  0.012245189  0.011375241         3881 
 3318000   0.73003949   -8.9786102    487.86499  0.012252988  0.011369918         3897 
 3319000   0.70524128   -8.9457685    488.39315  0.012262558  0.011364597         3895 
 3320000   0.71493645    -8.952572    488.09442  0.012251366  0.011359283         3894 
 3321000   0.70954941   -8.9687258    487.69782  0.012237725  0.011353969         3911 
 3322000   0.72127775   -8.9522022    488.04351  0.012242713  0.011348664         3894 
 3323000   0.72177046   -8.9747649    487.57993  0.012227403  0.011343362         3890 
 3324000   0.70939594   -8.9818073    487.70635  0.012226894  0.011338056         3900 
 3325000   0.71182331   -8.9685394    487.74332  0.012224143  0.011332756         3903 
 3326000   0.72481906   -8.9665942    487.29031  0.012209118  0.011327462         3858 
 3327000   0.71192742   -8.9435886    487.41737  0.012208631  0.011322175         3904 
 3328000   0.71822089   -8.9678897    488.41829  0.012230025  0.011316881         3883 
 3329000    0.7304069   -8.9745676    488.01177  0.012216175  0.011311591         3887 
 3330000   0.72619369   -8.9787013    489.00433  0.012237346  0.011306311         3900 
 3331000    0.7143402   -8.9633674    486.98597  0.012183178  0.011301027         3897 
 3332000   0.70620609   -8.9657842    487.55984  0.012193874   0.01129575         3910 
 3333000   0.72436729   -8.9766103    487.51288  0.012189041  0.011290477         3906 
 3334000   0.72556575   -8.9474741    487.78922  0.012192292  0.011285204         3880 
 3335000   0.72409048   -8.9552916    488.26177  0.012200444  0.011279937         3873 
 3336000   0.71811037   -8.9875612    487.78244  0.012184813   0.01127467         3890 
 3337000   0.71925974   -8.9786228    487.55931   0.01217559   0.01126941         3894 
 3338000   0.70642087   -8.9506715    488.56556  0.012197063  0.011264156         3915 
 3339000   0.71382027   -8.9501694    488.22224  0.012184842  0.011258896         3887 
 3340000   0.71663165   -8.9714389    487.27611  0.012157588  0.011253647         3890 
 3341000   0.70413268   -8.9563438    487.11656  0.012149969  0.011248401         3901 
 3342000   0.71903385    -8.966383    487.60844  0.012158599  0.011243156         3914 
 3343000   0.70191069   -8.9797136     487.4216  0.012150304  0.011237914         3900 
 3344000   0.71738914   -8.9577627    488.11997  0.012164074  0.011232675         3869 
 3345000   0.70538796    -8.985329    486.66598  0.012124215  0.011227431         3894 
 3346000   0.70484143   -8.9571915    487.56657  0.012143021  0.011222194         3884 
 3347000   0.71796047    -8.967332    487.20991  0.012130513   0.01121696         3893 
 3348000   0.71535054   -8.9967999    486.97818  0.012121121  0.011211725         3877 
 3349000   0.71703419   -8.9780924    487.11019  0.012120787  0.011206499         3915 
 3350000   0.70404462   -8.9709649    488.02236   0.01213986   0.01120128         3894 
 3351000   0.69327948   -8.9631304    488.46477  0.012147239  0.011196062         3879 
 3352000   0.72304051   -8.9618262    487.95762  0.012131007  0.011190849         3890 
 3353000   0.72404713   -8.9740402    487.93386  0.012126798  0.011185632         3915 
 3354000   0.72304422   -8.9819603    487.70031   0.01211738  0.011180427         3909 
 3355000   0.70403805   -8.9918236    487.31549   0.01210421  0.011175222         3909 
 3356000   0.72077115   -8.9769051    486.76877  0.012087027  0.011170015         3903 
 3357000   0.72188855   -8.9807585     486.4165  0.012074682  0.011164812         3881 
 3358000   0.70595178   -8.9468377     487.7552  0.012104308  0.011159615         3878 
 3359000   0.70503883   -8.9560308     488.7294  0.012124873  0.011154424         3908 
 3360000   0.71673561   -8.9864714    488.02127  0.012103702  0.011149235         3916 
 3361000   0.70722311   -8.9883022    487.20944  0.012079972  0.011144052         3898 
 3362000   0.70312389   -8.9945235    487.79477  0.012090888  0.011138864         3890 
 3363000   0.70145169    -8.963851    487.63529   0.01208334  0.011133681         3889 
 3364000   0.72112643   -8.9787457    488.68057  0.012105642  0.011128502         3874 
 3365000   0.70472859   -8.9881412    486.86486  0.012057079  0.011123322         3895 
 3366000   0.70604855   -8.9899597    486.02817  0.012032783  0.011118149         3903 
 3367000   0.71770573   -8.9659469    487.38201  0.012062717  0.011112974         3900 
 3368000   0.69863387   -8.9710453    489.29284  0.012106414  0.011107802         3883 
 3369000   0.71243817   -8.9814102     487.1687  0.012050279  0.011102638         3912 
 3370000   0.72042611   -8.9810974    486.89431  0.012039919  0.011097477         3893 
 3371000   0.70030002   -8.9629692    487.81265  0.012059049  0.011092312         3893 
 3372000   0.71399628   -8.9571158    487.66385  0.012051795  0.011087158         3911 
 3373000   0.71650347   -8.9615353    487.63977  0.012047628  0.011082006         3891 
 3374000   0.70265717   -8.9739385    487.82619  0.012048661  0.011076861         3901 
 3375000   0.71576091   -8.9693057     487.3912  0.012034351  0.011071717         3890 
 3376000   0.70351578   -8.9964959    486.85052   0.01201744  0.011066566         3896 
 3377000   0.70511204   -8.9834859    487.06623  0.012019204  0.011061427         3914 
 3378000   0.69842821   -8.9684093    487.15977  0.012017954  0.011056286         3911 
 3379000   0.70373843   -8.9651931    488.02561  0.012035751  0.011051149         3880 
 3380000   0.72098491   -8.9383768     487.7576  0.012025582  0.011046018         3872 
 3381000    0.7179637   -8.9587488     488.2006  0.012032944  0.011040895         3915 
 3382000    0.7111637   -8.9751364    487.50987  0.012012366  0.011035769         3895 
 3383000    0.7059913   -8.9709437    486.49708  0.011983867  0.011030649         3886 
 3384000   0.72201466   -8.9502534    487.92195  0.012015414  0.011025536         3875 
 3385000    0.7037977   -8.9538093    487.73609  0.012007289  0.011020429         3866 
 3386000   0.70916303   -8.9809634    486.86097  0.011982205  0.011015312         3907 
 3387000   0.70350167    -8.979786    486.78275  0.011976743  0.011010199         3876 
 3388000   0.70633076   -8.9793788    487.98487  0.012002776   0.01100509         3898 
 3389000   0.71332801   -8.9967987    487.78867   0.01199441  0.010999991         3895 
 3390000   0.71562535   -8.9733418    487.10844  0.011974151  0.010994895         3887 
 3391000   0.69993697   -8.9638897    486.42322   0.01195378  0.010989799         3915 
 3392000   0.72383103   -8.9750973    487.72874   0.01198233  0.010984708         3902 
 3393000   0.71866321   -8.9655771      488.062  0.011986983  0.010979622         3893 
 3394000   0.70659383   -8.9727502    487.70457  0.011974675  0.010974536         3905 
 3395000   0.70291237   -8.9771481    487.77769  0.011972943  0.010969455         3899 
 3396000   0.72075695   -8.9681655    486.81273  0.011945738  0.010964374         3895 
 3397000   0.71541432   -8.9956592     487.3897  0.011956376  0.010959296         3899 
 3398000   0.71092697    -8.990858    487.88462  0.011964995  0.010954224         3924 
 3399000   0.69726605   -8.9868522     487.3939  0.011949443  0.010949149         3900 
 3400000   0.71064179   -8.9807325    488.08041  0.011962755  0.010944079         3898 
 3401000   0.70195333     -8.98549    487.09084  0.011934991  0.010939011         3906 
 3402000   0.71149962   -8.9768002    487.82541  0.011949476  0.010933944         3895 
 3403000   0.71545233   -8.9961272     487.3699   0.01193481  0.010928883         3894 
 3404000   0.69623031   -8.9695859    486.60342   0.01191254  0.010923819         3903 
 3405000   0.70727822   -8.9950852    487.57309  0.011932773   0.01091877         3907 
 3406000   0.71524504   -8.9790071    487.25564  0.011921502  0.010913712         3899 
 3407000   0.69717115   -8.9874411    487.26604  0.011918257  0.010908657         3899 
 3408000   0.73159433   -8.9706131    487.34984  0.011916809  0.010903604         3916 
 3409000   0.71538052   -8.9808719    486.70692  0.011897598  0.010898555         3905 
 3410000   0.70624254   -8.9632015    487.50016  0.011913494  0.010893508         3886 
 3411000   0.70641059    -9.000891    486.55982  0.011887028  0.010888464         3882 
 3412000    0.7119302   -8.9924745    487.03357  0.011895115  0.010883427         3914 
 3413000   0.70139898    -8.971934     486.9802  0.011890326  0.010878389         3901 
 3414000   0.70322877   -8.9862259    487.24272  0.011893251  0.010873349         3900 
 3415000   0.70973251   -8.9972686    485.91367  0.011857337  0.010868314         3918 
 3416000    0.7210248   -8.9828147    487.64646  0.011896137  0.010863287         3909 
 3417000   0.71473954    -8.974615    487.87453  0.011898218  0.010858268         3900 
 3418000   0.69297438   -8.9985259    486.81775  0.011868972  0.010853245         3886 
 3419000   0.71007946   -8.9885131    486.67492  0.011862019  0.010848223         3916 
 3420000   0.71310264   -8.9643189    487.21898  0.011871807  0.010843214         3895 
 3421000   0.69802253   -8.9909329     486.3245  0.011846548  0.010838205         3892 
 3422000   0.71559789   -8.9952696    487.91285  0.011881766  0.010833196         3906 
 3423000   0.68756127   -8.9912818    486.50111  0.011843926  0.010828189         3878 
 3424000    0.7052724   -9.0100008     486.3025  0.011835633  0.010823184         3891 
 3425000   0.70182785   -8.9981594     487.0877  0.011851282  0.010818181         3897 
 3426000   0.69587237   -9.0173802    486.00328  0.011821446  0.010813181         3880 
 3427000    0.7033411   -9.0091757    487.76402  0.011860812  0.010808186         3893 
 3428000    0.7060245   -8.9922393    487.13472  0.011842054  0.010803194         3909 
 3429000     0.693537   -8.9774538    486.37794  0.011820209  0.010798204         3907 
 3430000   0.70105982   -8.9862281    487.22219  0.011837274  0.010793223         3907 
 3431000   0.70171777   -8.9767122    486.53847  0.011817217  0.010788238         3909 
 3432000   0.69956408    -8.989595    487.68234  0.011841549  0.010783258         3892 
 3433000   0.71500895   -8.9973917    486.50114  0.011809427  0.010778277         3919 
 3434000   0.70073051    -8.987392    488.40486  0.011852185  0.010773305         3875 
 3435000   0.69368293   -8.9745696    487.50019  0.011826788  0.010768329         3895 
 3436000   0.71590244   -8.9607014    487.90462  0.011833154  0.010763363         3880 
 3437000   0.69917075   -8.9934216    487.05463  0.011809103  0.010758398         3912 
 3438000   0.70809119   -8.9697776    487.99345  0.011828424   0.01075344         3889 
 3439000   0.69522659    -8.993468    487.41502  0.011810968  0.010748483         3901 
 3440000   0.68094093   -8.9913174     487.2343  0.011803156  0.010743528         3905 
 3441000   0.69311143   -8.9870514    487.28897   0.01180105  0.010738573         3887 
 3442000   0.70523098   -9.0062049    486.31183  0.011773965   0.01073362         3901 
 3443000   0.70962742   -9.0149533    487.22022  0.011792531  0.010728673         3893 
 3444000   0.70354362   -8.9912902    487.32245  0.011791581  0.010723726         3902 
 3445000   0.68432632    -8.999492    485.75051  0.011750133  0.010718783         3919 
 3446000    0.7132876   -8.9885793    487.26139  0.011783261  0.010713842         3879 
 3447000    0.6969461   -8.9983491    487.20117  0.011778386  0.010708907         3906 
 3448000   0.70719865   -8.9960154    487.75574  0.011788373   0.01070397         3907 
 3449000   0.70424241   -8.9934646    486.08661  0.011744627  0.010699037         3912 
 3450000   0.69994275   -8.9924586    486.79453  0.011758322  0.010694105         3902 
 3451000   0.68840707   -9.0061742    486.62002  0.011750701  0.010689178         3904 
 3452000   0.69971086   -8.9799183    487.68494  0.011773004  0.010684257         3907 
 3453000   0.69165181   -8.9907974    485.49282  0.011716691  0.010679334         3903 
 3454000   0.70204063   -9.0067716    486.18269  0.011729943  0.010674415         3874 
 3455000   0.69240871   -8.9814183    487.65377   0.01176203  0.010669503         3892 
 3456000   0.69803952   -9.0176339     486.3954  0.011728284  0.010664586         3905 
 3457000   0.68592864   -8.9914369    487.64716  0.011755066  0.010659679         3896 
 3458000   0.69491409   -8.9854708    487.31749  0.011743722  0.010654774         3887 
 3459000   0.68852639   -8.9764367    487.49504  0.011744604  0.010649874         3906 
 3460000    0.6928267    -9.004071    486.68929  0.011721804  0.010644969         3878 
 3461000   0.70064039   -8.9908516    487.21688   0.01173112  0.010640071         3889 
 3462000   0.70612294   -9.0025854    486.69686  0.011715214  0.010635174         3876 
 3463000   0.68257558   -9.0056313    487.45069  0.011729971  0.010630284         3899 
 3464000   0.68959463   -8.9868863     486.6309  0.011706863  0.010625399         3901 
 3465000   0.69873108   -9.0202216    487.00111  0.011712388  0.010620519         3891 
 3466000   0.70350689   -9.0236001    486.61137  0.011699639  0.010615637         3896 
 3467000   0.69912445   -9.0207252    486.22706  0.011687027  0.010610764         3907 
 3468000   0.70165155   -8.9913314     486.7539  0.011696316  0.010605888         3867 
 3469000   0.68600235    -8.994845    486.93373  0.011697265   0.01060102         3918 
 3470000   0.70150109   -8.9940217    485.24719  0.011653391  0.010596148         3904 
 3471000   0.70186469   -9.0193532    486.83835  0.011688235  0.010591283         3916 
 3472000   0.68202255   -9.0150253    486.94547  0.011687439  0.010586417         3911 
 3473000   0.69873098   -9.0074688    486.82527   0.01168119  0.010581558         3912 
 3474000   0.68820273   -9.0054943     486.7367  0.011675703  0.010576701         3912 
 3475000   0.69591747   -9.0037038     486.6841  0.011671082  0.010571848         3909 
 3476000   0.69190177   -9.0008021    486.19631   0.01165603  0.010566998         3893 
 3477000   0.70259803   -9.0244939    487.20345  0.011676815  0.010562148         3887 
 3478000    0.6985167    -9.007073    486.27789  0.011651282  0.010557299         3891 
 3479000   0.71452875   -9.0059435    487.29308   0.01167225  0.010552451         3910 
 3480000   0.69724099   -8.9967304    487.64941  0.011677428  0.010547615         3915 
 3481000   0.69068192   -9.0164943    485.84939  0.011630982  0.010542777         3917 
 3482000   0.69730386   -9.0373163    485.66138  0.011623142  0.010537942         3909 
 3483000   0.71002993   -9.0179562     486.6018  0.011642305  0.010533103         3898 
 3484000   0.68857267   -9.0170354    486.49088  0.011636311  0.010528274         3928 
 3485000   0.69740803    -9.027919    486.35681  0.011629766  0.010523445         3909 
 3486000   0.68911702   -9.0131751    486.20894  0.011622895  0.010518619         3927 
 3487000   0.69277667   -8.9882329     486.9091  0.011636294  0.010513795         3915 
 3488000   0.67928717   -9.0032242    486.41581  0.011621173  0.010508973         3913 
 3489000   0.69633016   -8.9938117    487.29497   0.01163884  0.010504155         3902 
 3490000   0.69970964   -9.0112812    486.65052  0.011620117  0.010499344         3910 
 3491000   0.68806945   -9.0126337    486.97138  0.011624448  0.010494535         3906 
 3492000    0.7016855   -9.0089315    486.72758  0.011615301  0.010489724         3888 
 3493000   0.68296335   -9.0010968    486.63027  0.011609654   0.01048492         3895 
 3494000   0.70249245   -9.0032232    486.49992  0.011603223  0.010480113         3918 
 3495000   0.69385255   -8.9906131    486.59725  0.011602223  0.010475317         3908 
 3496000   0.70508091   -9.0317923    486.77674  0.011603183  0.010470521         3901 
 3497000   0.67650217   -9.0184929     486.1471  0.011584861  0.010465731         3914 
 3498000   0.70598582   -8.9997103    485.67963  0.011570412  0.010460939         3903 
 3499000    0.7111582   -8.9840202    486.76203  0.011592884  0.010456156         3895 
 3500000   0.68334908   -8.9964545     486.4484  0.011582105  0.010451371         3909 
 3501000   0.67804411   -8.9718718    486.69188  0.011584592   0.01044659         3898 
 3502000   0.70140658   -9.0060965    487.11671  0.011591393  0.010441812         3914 
 3503000   0.69143687   -9.0268477    486.22724  0.011566925  0.010437037         3902 
 3504000   0.67859966     -8.99225    486.40398  0.011567827  0.010432266         3904 
 3505000   0.68628955   -9.0184557    486.41616  0.011564816  0.010427498         3904 
 3506000   0.69205038   -8.9875866    487.14675  0.011578883  0.010422732         3888 
 3507000   0.66848282   -9.0097009    486.50699  0.011560379  0.010417967         3910 
 3508000   0.70946297   -9.0189549     486.3506  0.011553368  0.010413206         3909 
 3509000   0.70294488   -9.0140281    486.61547  0.011556366  0.010408446         3905 
 3510000    0.6858125   -9.0259314    485.92458  0.011536671  0.010403686         3930 
 3511000   0.67910226    -9.004815    486.63984  0.011550362  0.010398928         3889 
 3512000   0.69225942      -9.0164     486.1522  0.011535502  0.010394177         3911 
 3513000   0.68132094   -8.9977612    487.02042  0.011552814  0.010389426         3883 
 3514000   0.70169165   -9.0046109    485.81094  0.011520844  0.010384683         3895 
 3515000   0.70172777    -9.031299     485.6921  0.011514749  0.010379943         3909 
 3516000   0.68655192   -9.0274217     485.3887  0.011504283  0.010375199         3912 
 3517000   0.69699457   -9.0197252    485.97494  0.011514902  0.010370461         3896 
 3518000   0.69114213   -9.0045894    486.39144  0.011521495  0.010365724         3916 
 3519000   0.68955533   -9.0206657    486.06244   0.01151043  0.010360993         3909 
 3520000   0.67940809   -9.0169524    485.29744  0.011489049  0.010356267         3892 
 3521000   0.70107817   -9.0141069     485.9268  0.011500682  0.010351544         3915 
 3522000   0.68623986    -9.027058    486.76859  0.011517334  0.010346815         3917 
 3523000   0.69529713   -9.0288259    486.84956   0.01151598  0.010342089         3897 
 3524000   0.68106071   -9.0092504    485.73036  0.011486246  0.010337368         3902 
 3525000   0.69400816   -9.0075804    485.42553  0.011475781  0.010332655         3927 
 3526000   0.68650451   -9.0259213    486.34143  0.011494173   0.01032794         3899 
 3527000   0.68559558   -9.0177983     486.5948    0.0114969  0.010323229         3905 
 3528000   0.67792545   -9.0050652    486.55275  0.011492648  0.010318521         3910 
 3529000   0.69251654   -9.0361029    485.58425  0.011466521  0.010313809         3934 
 3530000   0.68683228   -9.0291834    485.84698  0.011469476  0.010309105         3904 
 3531000   0.70202922   -9.0135841    486.93302  0.011491858  0.010304401         3893 
 3532000   0.66614648   -9.0165654    487.12028  0.011493023  0.010299707         3887 
 3533000   0.68994559   -9.0081413    486.59743  0.011477437  0.010295012         3917 
 3534000   0.68278195   -9.0172888    485.84478  0.011456442  0.010290321         3909 
 3535000   0.68653527   -9.0294337    485.53195  0.011445826  0.010285634         3897 
 3536000   0.66370763   -9.0278076    485.63107  0.011444925  0.010280947         3918 
 3537000   0.68265289   -9.0164908    486.59429  0.011464383  0.010276258         3920 
 3538000   0.68229456   -9.0146286    485.91315    0.0114451  0.010271579         3898 
 3539000    0.6913887   -9.0155694    486.19365  0.011448471  0.010266899         3915 
 3540000   0.68818831   -9.0137035    485.05312  0.011418388  0.010262224         3905 
 3541000   0.68691427   -9.0124354    486.69572   0.01145382   0.01025755         3899 
 3542000   0.68152481   -9.0338715    486.05347  0.011435476  0.010252879         3920 
 3543000   0.67922335   -9.0140588    486.04669  0.011432089  0.010248214         3896 
 3544000   0.67864781   -9.0229225    485.83126  0.011423797  0.010243551         3915 
 3545000   0.69119316   -9.0204726    486.38474  0.011433586  0.010238894         3881 
 3546000   0.68251386   -9.0231049    486.16692  0.011425242  0.010234236         3922 
 3547000   0.68503181   -9.0324606    486.51915  0.011430297  0.010229582         3914 
 3548000   0.70623192   -9.0168476    486.55827  0.011427994   0.01022493         3886 
 3549000   0.67031554   -9.0023787    487.07163  0.011436828  0.010220279         3892 
 3550000   0.68072119   -9.0216221    486.64389  0.011423565  0.010215632         3885 
 3551000   0.68693893   -9.0074682    485.87337  0.011402266  0.010210985         3910 
 3552000    0.6759706   -9.0149837    486.32891  0.011409744  0.010206348         3905 
 3553000   0.68674368   -9.0251602    486.30211  0.011405904  0.010201707         3919 
 3554000   0.69997244   -9.0413489    485.97553  0.011395037  0.010197069         3905 
 3555000   0.67288549   -9.0144462    486.77064   0.01141047  0.010192434         3895 
 3556000   0.67646577   -9.0185291    486.08219  0.011391128  0.010187803         3914 
 3557000   0.69265797   -9.0309351    486.05363  0.011387256  0.010183174         3922 
 3558000   0.69257037   -9.0488158    486.00911  0.011383013   0.01017855         3916 
 3559000    0.6822572   -9.0318475    486.08229  0.011381528  0.010173929         3914 
 3560000   0.69338585   -9.0082026    486.53633  0.011388959  0.010169308         3902 
 3561000   0.67395317   -9.0249257    485.44157  0.011360142  0.010164692         3911 
 3562000   0.67802465   -9.0344999    485.82465  0.011365915  0.010160073         3891 
 3563000   0.68876982   -9.0365651    485.69843  0.011359772  0.010155458         3911 
 3564000   0.67863217   -9.0171606    486.16027  0.011367384  0.010150847         3920 
 3565000   0.68979845    -9.035662     487.2534  0.011389748  0.010146238         3912 
 3566000   0.67303373   -9.0350756    486.91474  0.011378639  0.010141631         3906 
 3567000   0.67387396   -9.0096583    486.36261   0.01136255  0.010137027         3916 
 3568000   0.66547738   -9.0242721    487.14974   0.01137775  0.010132426         3912 
 3569000    0.6836945   -9.0263879    485.88068   0.01134493  0.010127829         3886 
 3570000   0.71010527   -9.0083561    486.42525  0.011354464  0.010123239         3904 
 3571000   0.67397893   -9.0359867    485.20901  0.011322902  0.010118646         3901 
 3572000   0.68871345   -9.0102131     486.4703  0.011349158  0.010114062         3883 
 3573000    0.6841544   -9.0172909    485.84854   0.01133148  0.010109481         3919 
 3574000   0.66990842   -9.0245416    485.66726  0.011324083  0.010104906         3928 
 3575000   0.67582753    -9.036061    485.52814  0.011317672  0.010100328         3925 
 3576000   0.67279824    -9.033396    485.91872  0.011323609  0.010095752         3908 
 3577000   0.68482774   -9.0068877    485.28845   0.01130576  0.010091178         3910 
 3578000   0.68722593   -9.0360948     486.3245   0.01132673  0.010086608         3921 
 3579000   0.68436343   -9.0217111    486.18797  0.011320387  0.010082036         3891 
 3580000   0.66726587   -9.0161883     486.6909  0.011328932  0.010077472         3913 
 3581000   0.68280995   -9.0309036    485.77195  0.011304383  0.010072913         3916 
 3582000   0.67867702   -9.0328188    485.60167  0.011297266  0.010068354         3934 
 3583000   0.66951014   -9.0226153    486.75537  0.011320945  0.010063799         3901 
 3584000   0.68511398   -9.0398393    486.10188  0.011302592   0.01005925         3894 
 3585000   0.68600602   -9.0451614    486.26214  0.011303165  0.010054708         3911 
 3586000   0.66873629    -9.029995    486.29549  0.011300787  0.010050154         3912 
 3587000   0.67356224   -9.0351096    486.25438  0.011296682  0.010045614         3911 
 3588000   0.66657353   -9.0253036    487.17768  0.011314978  0.010041071         3906 
 3589000   0.67217941   -9.0071035    487.15218  0.011311233   0.01003653         3918 
 3590000     0.678858   -9.0419074    486.33369  0.011289083  0.010031992         3906 
 3591000   0.69106206   -9.0064555    486.38338  0.011287092  0.010027457         3910 
 3592000   0.66562367   -9.0399666    485.79877  0.011270387  0.010022927         3911 
 3593000   0.68446935   -9.0173904    486.53736  0.011284381  0.010018404         3904 
 3594000   0.67121566   -9.0495004    485.41785  0.011255283  0.010013875         3912 
 3595000   0.68374132   -9.0557321    486.32518  0.011273185  0.010009349         3905 
 3596000   0.67438326   -9.0342385    486.28925  0.011269217  0.010004824         3909 
 3597000   0.67510083   -9.0257421     485.8025  0.011254807  0.010000305         3905 
 3598000   0.67243253   -9.0275278    485.83411  0.011252411 0.0099957926         3923 
 3599000   0.68439196   -9.0401646    486.16492  0.011256944 0.0099912826         3912 
 3600000   0.67506709   -9.0333848    485.60638  0.011240888 0.0099867717         3902 
 3601000   0.67120803    -9.028414    486.44065  0.011257073 0.0099822614         3906 
 3602000    0.6846987   -9.0085872    486.24588  0.011249442 0.0099777547         3905 
 3603000   0.66393842   -9.0362267    485.65976  0.011232763 0.0099732521         3906 
 3604000   0.67938092   -9.0412131    485.14008  0.011217631 0.0099687534         3899 
 3605000   0.67653152   -9.0279733    485.79472  0.011229651 0.0099642494         3904 
 3606000   0.67112237   -9.0350021    486.34797  0.011239323 0.0099597502         3887 
 3607000   0.66484766   -9.0244084    485.98258  0.011227765 0.0099552584         3901 
 3608000   0.68877858   -9.0349377    485.99574  0.011224957 0.0099507682         3907 
 3609000   0.67633631    -9.039728    485.51355  0.011210713 0.0099462793         3899 
 3610000   0.66575815   -9.0128059    486.52824   0.01123103 0.0099417899         3903 
 3611000   0.69102925   -9.0262292    486.30835  0.011222846 0.0099373084         3898 
 3612000   0.66360353    -9.048941    485.32642  0.011197084 0.0099328241         3909 
 3613000   0.66820328   -9.0490742    484.82513  0.011182423 0.0099283443         3894 
 3614000   0.67489047   -9.0437589    485.23311  0.011188736 0.0099238697         3928 
 3615000   0.68241781   -9.0174824    485.72555  0.011196993 0.0099193983         3897 
 3616000   0.66712051    -9.037403    485.37778  0.011185882 0.0099149322         3906 
 3617000   0.68266057   -9.0524176    485.66683  0.011189449 0.0099104698         3912 
 3618000   0.68123627   -9.0209865    485.71938  0.011187566 0.0099060038         3917 
 3619000   0.68648965   -9.0291854    485.46347  0.011178582 0.0099015394         3919 
 3620000   0.67153346   -9.0306951    486.14837  0.011191261 0.0098970796         3907 
 3621000   0.66844015   -9.0422009    486.16348  0.011188518 0.0098926265         3882 
 3622000   0.66805302    -9.058214    486.45991  0.011192249 0.0098881703         3898 
 3623000   0.66875962   -9.0262384    485.25915  0.011161541 0.0098837244         3897 
 3624000   0.67092675   -9.0529898    485.16506  0.011156297 0.0098792767         3931 
 3625000   0.67342703   -9.0441037    486.03855    0.0111733  0.009874829         3922 
 3626000   0.67931306   -9.0370687    486.08135  0.011171202 0.0098703825         3891 
 3627000   0.66642232   -9.0499653    486.19921   0.01117083 0.0098659436         3922 
 3628000   0.67004753   -9.0336129    486.99697  0.011186075 0.0098615009         3913 
 3629000   0.68273419   -9.0228622    487.14978  0.011186502 0.0098570658         3906 
 3630000   0.66344669    -9.054599    485.69662   0.01115006 0.0098526316         3924 
 3631000   0.67939507   -9.0342264    486.49545  0.011165323 0.0098482004         3902 
 3632000   0.65788188   -9.0334734    485.71557  0.011144355 0.0098437729         3920 
 3633000   0.66203724   -9.0320664    485.42475  0.011134617 0.0098393461         3915 
 3634000   0.67519544   -9.0170223     486.4709  0.011155542 0.0098349229         3922 
 3635000   0.67236642   -9.0547335    486.06465   0.01114316  0.009830503         3909 
 3636000    0.6652198   -9.0574491    486.09949  0.011140894 0.0098260871         3894 
 3637000    0.6958619   -9.0561146    485.43261  0.011122551 0.0098216697         3914 
 3638000   0.66233153   -9.0310562    485.56627  0.011122555 0.0098172526         3910 
 3639000   0.67222258   -9.0417883    485.21828   0.01111153 0.0098128447         3909 
 3640000   0.65823936   -9.0513709    486.12036  0.011129129 0.0098084372         3911 
 3641000   0.66349328   -9.0347325    485.82465  0.011119304 0.0098040347         3917 
 3642000   0.66599733   -9.0609577    485.21502  0.011102302 0.0097996299         3908 
 3643000   0.66109903    -9.054356    485.56703  0.011107307 0.0097952285         3910 
 3644000    0.6485206   -9.0734238    485.35671  0.011099449 0.0097908281         3914 
 3645000   0.67059716   -9.0539522    485.30417  0.011095203 0.0097864261         3912 
 3646000   0.66860181   -9.0570268    486.39116  0.011117004 0.0097820349         3922 
 3647000   0.65959158   -9.0449736     485.2426  0.011087711 0.0097776472         3902 
 3648000   0.67435938   -9.0453828    485.66863  0.011094404 0.0097732577         3907 
 3649000   0.66023618    -9.057205    485.46781  0.011086777 0.0097688718         3892 
 3650000   0.66342022   -9.0313234     485.4518  0.011083375 0.0097644861         3900 
 3651000   0.67519216   -9.0571698    484.73508   0.01106398 0.0097601026         3904 
 3652000   0.67973319   -9.0447292    485.08878  0.011069021 0.0097557219         3902 
 3653000   0.66358634   -9.0559381    485.24192  0.011069485 0.0097513467         3910 
 3654000   0.66724427   -9.0325622    486.19858  0.011088273 0.0097469739         3911 
 3655000   0.66225245   -9.0551022    485.85498  0.011077405 0.0097425989         3904 
 3656000   0.67097293   -9.0266027    486.16239  0.011081382 0.0097382316         3913 
 3657000   0.67930377    -9.050075    485.37021    0.0110603 0.0097338692         3926 
 3658000   0.65794155   -9.0576449    485.32693  0.011056291 0.0097295103         3892 
 3659000   0.67077606   -9.0539327     486.1925  0.011072982 0.0097251535         3901 
 3660000   0.67220628   -9.0432499    485.21051  0.011047598 0.0097207913         3922 
 3661000   0.67444452   -9.0517381    484.67602  0.011032414 0.0097164378         3920 
 3662000    0.6658229   -9.0493932    485.13194  0.011039777 0.0097120851         3909 
 3663000   0.65300919   -9.0438974    485.93244  0.011054974 0.0097077346         3898 
 3664000   0.66980561   -9.0514203    485.31982  0.011038024 0.0097033881         3924 
 3665000   0.65062735   -9.0429397    484.44655  0.011015156 0.0096990468         3902 
 3666000   0.68109974   -9.0688874    485.67893  0.011040165 0.0096947019         3917 
 3667000    0.6505865   -9.0445107    485.96849  0.011043734 0.0096903596         3907 
 3668000    0.6621699    -9.059799    485.35467  0.011026778 0.0096860194         3917 
 3669000   0.67058825   -9.0289148    485.00506  0.011015832 0.0096816837         3916 
 3670000   0.66834585   -9.0322136    485.86555  0.011032369 0.0096773524         3907 
 3671000   0.66214385   -9.0564862     485.4418  0.011019745  0.009673021         3926 
 3672000   0.66202427   -9.0508344    485.50955  0.011018281 0.0096686932         3902 
 3673000   0.68983088   -9.0641633    484.99745  0.011003663 0.0096643645         3899 
 3674000   0.66938349   -9.0447628    485.71646  0.011016976 0.0096600376         3903 
 3675000   0.67107732    -9.081453    485.66027  0.011012704 0.0096557161         3916 
 3676000   0.66500894   -9.0507679    485.44062  0.011004729 0.0096513981         3889 
 3677000   0.66483573   -9.0674397    484.38234  0.010977752 0.0096470826         3894 
 3678000   0.66170378   -9.0777161    484.95622   0.01098777  0.009642772         3910 
 3679000   0.66790572   -9.0724931    485.07059  0.010987374 0.0096384602         3889 
 3680000   0.66651481    -9.038492    485.12337  0.010985584 0.0096341512         3889 
 3681000   0.66917779   -9.0533904    484.77391  0.010974688 0.0096298449         3912 
 3682000   0.66346454   -9.0471861    485.85208  0.010996109 0.0096255391         3926 
 3683000    0.6592602   -9.0453393    485.04408  0.010974841 0.0096212393         3895 
 3684000    0.6586678   -9.0515658    484.86976  0.010967919 0.0096169402         3901 
 3685000   0.66750376   -9.0398744    484.87151  0.010964982 0.0096126417         3903 
 3686000   0.67178328   -9.0742988    484.91212  0.010962926 0.0096083503         3903 
 3687000   0.65926109   -9.0544141    484.80638  0.010957562 0.0096040597         3884 
 3688000   0.67869218   -9.0629116    486.05089  0.010982712  0.009599773         3909 
 3689000   0.67137675   -9.0420048    485.76286  0.010973228 0.0095954902         3904 
 3690000   0.64828812   -9.0538813    484.93766  0.010951618 0.0095912066         3902 
 3691000   0.64055839   -9.0323864    485.81905  0.010968551 0.0095869292         3919 
 3692000   0.66297213   -9.0777265    485.04348  0.010948074 0.0095826528         3902 
 3693000   0.65823572   -9.0765365    484.78549  0.010939288 0.0095783743         3914 
 3694000   0.65534508   -9.0570924    485.32077  0.010948402 0.0095741044         3906 
 3695000   0.68169374   -9.0515458    485.65998  0.010953089 0.0095698341         3907 
 3696000   0.64278544   -9.0540986    485.14698  0.010938559  0.009565567         3905 
 3697000    0.6592509   -9.0486731    484.58103  0.010922844 0.0095613049         3913 
 3698000   0.66331187   -9.0560252     485.3799  0.010937892 0.0095570482         3901 
 3699000    0.6549832   -9.0532643    485.98727  0.010948618 0.0095527883         3908 
 3700000    0.6572156   -9.0882116    485.08408  0.010925317 0.0095485295         3910 
 3701000   0.66513447   -9.0779702    485.39657  0.010929401 0.0095442762         3890 
 3702000   0.65325116   -9.0664504    484.98432  0.010917169 0.0095400258         3910 
 3703000   0.65910851   -9.0378299    485.88069  0.010934393 0.0095357759         3910 
 3704000     0.655306   -9.0511367    485.35259   0.01091956 0.0095315295         3917 
 3705000   0.65751387   -9.0544403    484.35084  0.010894081 0.0095272829         3925 
 3706000   0.65518059   -9.0707473    486.03016  0.010928903 0.0095230441         3913 
 3707000   0.66337684   -9.0474923    485.35112   0.01091069 0.0095188002         3910 
 3708000   0.65203774   -9.0558219    485.16554  0.010903577 0.0095145621         3897 
 3709000   0.67097541   -9.0772324    485.08498  0.010898827 0.0095103256         3923 
 3710000   0.66860765   -9.0665527       484.99  0.010893756 0.0095060984         3900 
 3711000   0.66152494   -9.0703924    485.17178  0.010894902 0.0095018664         3912 
 3712000   0.66302335   -9.0450068     485.1069  0.010890511 0.0094976408         3886 
 3713000   0.66238306   -9.0577872    484.82166  0.010881176 0.0094934162         3888 
 3714000   0.64795271   -9.0600579    485.68699  0.010897662 0.0094891931         3892 
 3715000   0.66362844   -9.0397291    485.27037  0.010885383 0.0094849725         3900 
 3716000   0.67332166   -9.0711426    484.73411  0.010870428 0.0094807601         3888 
 3717000   0.66085315   -9.0565459    485.11592  0.010876063 0.0094765496         3928 
 3718000   0.66439722   -9.0624746    485.39516  0.010879397 0.0094723418         3899 
 3719000   0.64509818   -9.0825368    484.53797  0.010857264 0.0094681362         3939 
 3720000    0.6536267   -9.0638939     485.1049  0.010867045 0.0094639255         3897 
 3721000   0.65486856   -9.0774377    485.21781  0.010866653 0.0094597199         3906 
 3722000   0.64285302   -9.0842762    485.51343  0.010870353 0.0094555171         3916 
 3723000    0.6601432    -9.054962    485.16141  0.010859553 0.0094513194         3909 
 3724000   0.66101118   -9.0620913    484.72997  0.010846983 0.0094471237         3919 
 3725000    0.6608935    -9.069902     485.4095  0.010859273 0.0094429335         3933 
 3726000   0.65883512   -9.0795323     485.3581  0.010855209 0.0094387417         3917 
 3727000   0.64411556   -9.0811479    484.92368  0.010842583 0.0094345565         3888 
 3728000   0.62919588   -9.0839015    484.18647  0.010823196  0.009430364         3916 
 3729000   0.65727761    -9.066043    484.61243  0.010829812 0.0094261777         3903 
 3730000   0.65130284   -9.0664626    484.63144  0.010827333  0.009421996         3915 
 3731000   0.65629384   -9.0560936    484.69015  0.010825743 0.0094178169         3929 
 3732000   0.66394006   -9.0767813    484.86485  0.010826743 0.0094136383         3892 
 3733000   0.64613732   -9.0609788    486.04077  0.010850093 0.0094094666         3910 
 3734000   0.64362915   -9.0540918    485.23808  0.010829273 0.0094052924         3909 
 3735000   0.64326219   -9.0750371    485.07424  0.010822718 0.0094011223         3916 
 3736000   0.65989696   -9.0768803    485.42721  0.010827695 0.0093969511         3893 
 3737000   0.65412726   -9.0791021    484.58746  0.010806071 0.0093927834         3907 
 3738000   0.64782218   -9.0966623    485.17093  0.010816188 0.0093886167         3910 
 3739000   0.65940898   -9.0728376    484.28407  0.010793529 0.0093844557         3909 
 3740000   0.65060993   -9.0631179     485.2256  0.010811622 0.0093802996         3923 
 3741000   0.66299805   -9.0462368    484.82064  0.010799711  0.009376142         3915 
 3742000   0.64139271   -9.0712043    484.66224  0.010793298 0.0093719886         3922 
 3743000   0.66420086    -9.079662    485.71266    0.0108138 0.0093678345         3914 
 3744000   0.65492054   -9.0814144    484.36486  0.010780913  0.009363687         3915 
 3745000   0.65577906   -9.0504554    485.06509  0.010793616 0.0093595444         3904 
 3746000   0.66898507   -9.0670844    484.46371  0.010777356 0.0093554024         3914 
 3747000   0.65739614   -9.0453141    484.58981  0.010777284 0.0093512612         3918 
 3748000   0.65329081   -9.0803977    485.02709  0.010784131 0.0093471184         3928 
 3749000   0.65353655   -9.0897486     484.0625  0.010759814 0.0093429838         3911 
 3750000   0.67737747   -9.0642548    484.93069  0.010776237 0.0093388484         3909 
 3751000   0.64387193   -9.0798448    484.42632   0.01076216 0.0093347153         3911 
 3752000    0.6514739   -9.0936952     485.0049  0.010772142 0.0093305857         3914 
 3753000    0.6520426   -9.0785753    485.20846  0.010773791 0.0093264583         3941 
 3754000   0.64359833   -9.0776928    484.91081  0.010764314 0.0093223301         3910 
 3755000   0.65205658   -9.0649151    485.47833  0.010774042 0.0093182079         3924 
 3756000   0.63841844   -9.0518443    485.57903  0.010773408 0.0093140848         3903 
 3757000   0.66095539   -9.0818843     484.8016  0.010753296 0.0093099706         3927 
 3758000   0.64635274   -9.0770166    484.11196  0.010735142 0.0093058552         3912 
 3759000   0.64644782   -9.0639014    484.86002   0.01074887 0.0093017406         3912 
 3760000   0.64974666   -9.0718435    484.74047  0.010743362 0.0092976312         3907 
 3761000    0.6546594   -9.0641345    484.88979  0.010743813 0.0092935234         3896 
 3762000   0.65757517   -9.0670232    484.10747  0.010723628 0.0092894173         3912 
 3763000   0.63941601   -9.0642966    484.96128  0.010739686 0.0092853178         3901 
 3764000   0.64423064   -9.0769965    485.07544  0.010739361  0.009281209         3914 
 3765000   0.63987819   -9.0765391    485.29517  0.010741372 0.0092771065         3903 
 3766000    0.6548072   -9.0938028    484.01255  0.010710138 0.0092730045         3930 
 3767000   0.63858728    -9.066743     485.2552  0.010734784 0.0092689098         3905 
 3768000   0.64577497   -9.0528504     485.5513  0.010738484  0.009264816         3896 
 3769000   0.64808671   -9.0813791    484.49479  0.010712275 0.0092607267         3920 
 3770000   0.62731663   -9.0833944    485.43972  0.010730321  0.009256638         3917 
 3771000   0.63961136   -9.0792345    484.55022  0.010707819 0.0092525505         3905 
 3772000   0.65352312   -9.0557345    484.98034  0.010714483 0.0092484656         3897 
 3773000   0.66308598   -9.0825025    484.44994  0.010699928  0.009244386         3916 
 3774000   0.66026046   -9.0716978    484.97414  0.010708668 0.0092403076         3915 
 3775000   0.67665225   -9.0836189     484.4688  0.010694676 0.0092362302         3908 
 3776000   0.65374173   -9.0690242    484.39194  0.010690147 0.0092321594         3912 
 3777000   0.64839148     -9.08018    484.06096  0.010680014 0.0092280864         3904 
 3778000   0.64209929   -9.0813969    484.80142   0.01069352 0.0092240187         3918 
 3779000   0.63278444   -9.0584978    485.31638  0.010702046 0.0092199501         3924 
 3780000   0.64314484   -9.0771145    484.50584  0.010681346 0.0092158894         3911 
 3781000   0.64412582   -9.0774829    484.89191   0.01068703 0.0092118278         3916 
 3782000   0.65089507    -9.084751    485.22672  0.010691581 0.0092077707         3880 
 3783000   0.65901108   -9.0897169    484.99499   0.01068365 0.0092037129         3923 
 3784000   0.63485533   -9.1083612    484.59697  0.010672061 0.0091996564         3927 
 3785000   0.63979994   -9.0680494    484.14265  0.010659239 0.0091956039         3898 
 3786000   0.65364834    -9.084215    484.78482  0.010670559 0.0091915539         3903 
 3787000   0.65794491   -9.0664306     484.5847  0.010663337 0.0091875047         3919 
 3788000   0.66040628   -9.0797004    483.79896  0.010643237 0.0091834573         3901 
 3789000   0.64605778   -9.0792316    484.41079  0.010653884 0.0091794154         3926 
 3790000   0.65427662   -9.0800658    484.69778  0.010657383 0.0091753755         3902 
 3791000   0.64413959   -9.0975065    484.79402  0.010656687 0.0091713419         3929 
 3792000    0.6615562   -9.0785135    485.66763  0.010673075  0.009167308         3905 
 3793000   0.64424851   -9.1048731    483.78893  0.010628986 0.0091632761         3911 
 3794000   0.63483262   -9.0783275    484.59523  0.010643894 0.0091592484         3923 
 3795000   0.65366004   -9.0680127    484.52939  0.010639644 0.0091552203         3919 
 3796000    0.6480922   -9.0756708    484.88826  0.010644719 0.0091511978         3916 
 3797000   0.65378175   -9.0833154     484.7654   0.01063922 0.0091471774         3939 
 3798000   0.64306131   -9.0923703    484.06499   0.01062105 0.0091431596         3928 
 3799000   0.64758997   -9.0777811    485.50421  0.010649825 0.0091391432         3917 
 3800000     0.659506    -9.093058    484.81181  0.010631838 0.0091351286         3912 
 3801000   0.63606104   -9.0880256    484.83911  0.010629639 0.0091311196         3910 
 3802000   0.63293661   -9.0851522    484.35973  0.010616336 0.0091271097         3913 
 3803000   0.63758341   -9.0785442     484.7366  0.010621803 0.0091231012         3909 
 3804000   0.64357086   -9.0699088    484.69185   0.01061803 0.0091190955         3908 
 3805000   0.64124419   -9.0683493     484.1907  0.010604264 0.0091150906         3914 
 3806000   0.65703866   -9.0758337    484.51528  0.010608585 0.0091110877         3918 
 3807000   0.65022121   -9.0898911    485.27491  0.010622426 0.0091070861         3909 
 3808000   0.65242025   -9.0863175    485.12324  0.010616317 0.0091030905         3887 
 3809000   0.63046692    -9.067982     484.9137  0.010608946 0.0090990969         3924 
 3810000   0.63905918   -9.0789514    484.45002   0.01059602  0.009095105         3924 
 3811000   0.64643047   -9.1014573    485.31157  0.010612078 0.0090911162         3911 
 3812000   0.64566621   -9.1066093    484.75587  0.010597146  0.009087129         3922 
 3813000   0.64327057   -9.1110911    484.07794  0.010579551 0.0090831439         3927 
 3814000   0.64367767   -9.0810587    484.53653  0.010586797 0.0090791566         3917 
 3815000   0.64729311    -9.088751    484.49915  0.010583206 0.0090751766         3919 
 3816000   0.63562866    -9.088448    485.37927  0.010599652 0.0090711999         3924 
 3817000   0.66260665   -9.0928318     484.2988  0.010573286 0.0090672252         3911 
 3818000   0.63957688   -9.0977729      484.669  0.010578597  0.009063253         3918 
 3819000    0.6321566   -9.0743347    483.82872  0.010557491  0.009059282         3923 
 3820000   0.64500143   -9.0971226    484.40717  0.010567347 0.0090553133         3917 
 3821000   0.65566537   -9.0670078    485.16846  0.010581184 0.0090513441         3924 
 3822000   0.62719594   -9.0829061    485.32116  0.010581745 0.0090473803         3930 
 3823000   0.63850109   -9.0941424    483.91738  0.010548378 0.0090434176         3902 
 3824000    0.6279552   -9.1089966    483.62501  0.010539248 0.0090394582         3905 
 3825000   0.63857775   -9.0832346    484.56295  0.010556927 0.0090354991         3908 
 3826000   0.63448087   -9.0936979    484.46797  0.010552099 0.0090315393         3937 
 3827000   0.62287141   -9.0771015    484.43368  0.010548595 0.0090275862         3927 
 3828000   0.64040067   -9.0874278    484.63562  0.010550236  0.009023635         3928 
 3829000   0.63724569    -9.067251    483.53389  0.010523502 0.0090196848         3914 
 3830000   0.64205417   -9.0911435     484.1544  0.010534256 0.0090157428         3909 
 3831000   0.63412411   -9.0927059    484.00248  0.010528202 0.0090117969         3927 
 3832000    0.6405276   -9.0904134    484.51239  0.010536543 0.0090078558         3915 
 3833000   0.62943312   -9.0776649    484.66968  0.010537214 0.0090039163         3883 
 3834000   0.62478062   -9.0801915    484.56967  0.010532292 0.0089999839         3918 
 3835000    0.6313739   -9.1022517    485.16069  0.010542388 0.0089960494         3913 
 3836000    0.6447937    -9.077814    484.72912  0.010530264 0.0089921232         3935 
 3837000   0.64037747   -9.0675946    484.56425  0.010523939  0.008988196         3903 
 3838000   0.64291319   -9.0954904     483.9445  0.010507741 0.0089842739         3910 
 3839000    0.6461206    -9.085536    485.04469  0.010528885 0.0089803534         3909 
 3840000   0.63326148   -9.0851364    485.48806  0.010535765 0.0089764309         3937 
 3841000   0.64813899    -9.086017    484.50113   0.01051161 0.0089725127         3903 
 3842000   0.63800164   -9.0882331    484.66859  0.010512506 0.0089685932         3915 
 3843000   0.64024918   -9.0923912    485.60952  0.010530174 0.0089646791         3921 
 3844000   0.62740267   -9.0931206     484.3722  0.010500611 0.0089607642         3909 
 3845000   0.63955612   -9.0907108    483.74337  0.010484252 0.0089568549         3925 
 3846000   0.64232753   -9.1000152     484.6492  0.010501153 0.0089529454         3902 
 3847000   0.65395679   -9.0741226    484.56922   0.01049669 0.0089490382         3913 
 3848000   0.63232053   -9.1039148    483.90574  0.010479594 0.0089451357         3925 
 3849000   0.64611657   -9.0955273    484.57697  0.010491404  0.008941233         3929 
 3850000    0.6298555   -9.0773761    484.15066  0.010479451 0.0089373316         3922 
 3851000    0.6402998   -9.0949742     484.2521  0.010478925 0.0089334344         3926 
 3852000    0.6411322   -9.1135828    483.93377  0.010469318 0.0089295392         3927 
 3853000   0.63472856   -9.0979585    484.54472  0.010479815 0.0089256491         3934 
 3854000     0.630518   -9.0681317     484.7169  0.010480819 0.0089217636         3921 
 3855000   0.64260624   -9.1002333    484.76876  0.010479221 0.0089178766         3924 
 3856000   0.63338084   -9.0887156    484.67968  0.010474578 0.0089139921         3912 
 3857000   0.63127987   -9.1007819    484.21084  0.010461733 0.0089101103         3906 
 3858000   0.64204369   -9.1094897    483.71992  0.010448417 0.0089062267         3907 
 3859000   0.65167004   -9.0955674    484.22928  0.010456709 0.0089023513         3927 
 3860000   0.65395982   -9.0829699     484.5555  0.010461043 0.0088984775         3918 
 3861000    0.6319679   -9.1043979    483.65366  0.010438869 0.0088946059         3925 
 3862000   0.62400895   -9.1018039    484.07223  0.010445197 0.0088907328         3896 
 3863000   0.65118867   -9.0951624    483.98017  0.010440508 0.0088868606         3915 
 3864000   0.64477101   -9.0821484    484.36724  0.010446153 0.0088829937         3938 
 3865000   0.62189014   -9.0923016    483.90718  0.010433531  0.008879124         3941 
 3866000   0.62619342   -9.0984931    484.34063  0.010440176 0.0088752614         3919 
 3867000    0.6388709   -9.1055785    484.05685   0.01043136  0.008871402         3940 
 3868000    0.6386904   -9.0857072    484.84306  0.010445602 0.0088675461         3905 
 3869000   0.62500849   -9.0922657    484.58972  0.010437446 0.0088636887         3914 
 3870000    0.6371816   -9.0805062    484.49755  0.010432764 0.0088598358         3905 
 3871000    0.6330086   -9.1093792    484.17946  0.010423221 0.0088559857         3921 
 3872000   0.62841909   -9.0950252    483.91204  0.010414774 0.0088521354         3909 
 3873000    0.6433303   -9.1025513    484.00385   0.01041406 0.0088482887         3930 
 3874000   0.63452132   -9.1225268    483.51927  0.010400948 0.0088444428         3916 
 3875000    0.6326368    -9.114397    483.90104  0.010406474 0.0088405968         3920 
 3876000   0.63461951    -9.116756    483.51972  0.010395591 0.0088367531         3920 
 3877000   0.63140174    -9.071076    483.76029   0.01039808 0.0088329135         3904 
 3878000    0.6249805   -9.1060113     483.9592  0.010399673 0.0088290759         3912 
 3879000   0.61850246   -9.0934153    483.98539  0.010397555 0.0088252437         3915 
 3880000   0.62016356   -9.0915624    485.14522  0.010419786 0.0088214117         3922 
 3881000    0.6201772   -9.1168823    483.64935  0.010384981 0.0088175777         3919 
 3882000   0.62994391   -9.1008146     482.9264  0.010366787 0.0088137461         3908 
 3883000   0.63014073   -9.1026376    484.40446  0.010395838 0.0088099206         3923 
 3884000   0.63431647   -9.1019136    484.05913  0.010385752 0.0088060951         3919 
 3885000   0.62122841    -9.110501    484.27793  0.010387772 0.0088022689         3933 
 3886000   0.61981973   -9.0979643    484.36051   0.01038687 0.0087984458         3928 
 3887000   0.63364895   -9.0939305    483.92747  0.010374914 0.0087946288         3917 
 3888000   0.62905059   -9.0851597    484.20088  0.010378105 0.0087908127         3918 
 3889000   0.62562831   -9.1058892    484.00756  0.010371294 0.0087869982         3914 
 3890000   0.62740585   -9.1046073    484.16428  0.010371986  0.008783188         3920 
 3891000   0.61946966   -9.0972824    483.45862  0.010354207 0.0087793785         3907 
 3892000   0.63466034   -9.1043936    484.15393  0.010366434  0.008775576         3906 
 3893000   0.62582887   -9.1058869    483.21146  0.010343597 0.0087717732         3940 
 3894000   0.63341934   -9.1065376    484.20633  0.010362231 0.0087679723         3929 
 3895000   0.62924618   -9.0956666    484.16513  0.010358689  0.008764173         3913 
 3896000   0.63365951    -9.111279    484.61191  0.010365587 0.0087603781         3929 
 3897000   0.63275947   -9.0941085    484.65802  0.010363913 0.0087565821         3922 
 3898000   0.61902964   -9.0997633    484.16292   0.01035067 0.0087527893         3930 
 3899000   0.62034044   -9.1029131    484.56746  0.010356661 0.0087489999         3933 
 3900000   0.62105839    -9.102207    484.31438  0.010348598 0.0087452127         3933 
 3901000   0.62223523   -9.1019265    484.14092   0.01034224 0.0087414277         3937 
 3902000   0.63169502   -9.1067927    483.77336  0.010331739  0.008737642         3913 
 3903000   0.63278527   -9.0987137    485.02112  0.010355733 0.0087338621         3918 
 3904000   0.62458952   -9.1164243    484.33569   0.01033845 0.0087300792         3917 
 3905000   0.63143407   -9.1134122    484.29034  0.010334834 0.0087263006         3925 
 3906000   0.61536337   -9.1094428    484.16343  0.010329481 0.0087225231         3935 
 3907000   0.61605419   -9.1030896    483.79623  0.010319005 0.0087187478         3916 
 3908000   0.62500509   -9.1047662    483.56486  0.010311431 0.0087149771         3926 
 3909000   0.61558296   -9.0979893    483.98982  0.010317852 0.0087112045         3911 
 3910000   0.62273837   -9.0917082    484.13384  0.010318283  0.008707436         3922 
 3911000   0.61524791   -9.1021948    483.90891  0.010310852 0.0087036702         3915 
 3912000   0.62724285   -9.0960459    483.75859  0.010305014 0.0086999049         3911 
 3913000   0.63327046   -9.1054408    482.48898  0.010275342 0.0086961424         3923 
 3914000   0.62412451   -9.1024602    484.30732  0.010311432 0.0086923832         3907 
 3915000   0.62266423   -9.1264689    483.94499  0.010301085 0.0086886242         3927 
 3916000   0.62890864   -9.1071598    484.02576  0.010300174 0.0086848679         3907 
 3917000   0.62486858   -9.1233791    483.20676   0.01028012 0.0086811158         3923 
 3918000   0.63437402   -9.0870627    483.53478  0.010284473 0.0086773656         3908 
 3919000   0.62150279   -9.1340841    483.71553  0.010285692 0.0086736167         3914 
 3920000   0.61921684   -9.1384959    483.62972  0.010281244 0.0086698667         3913 
 3921000   0.62098714   -9.1236602    484.33698  0.010293653 0.0086661208         3933 
 3922000   0.61705063   -9.1132743    484.01541  0.010284196 0.0086623799         3918 
 3923000   0.62231897   -9.1067342    483.88604  0.010278826 0.0086586335         3919 
 3924000   0.62127664   -9.1091667    483.97857  0.010278172 0.0086548958         3912 
 3925000   0.63386153   -9.1192197    484.32527  0.010282915 0.0086511623         3913 
 3926000   0.62809426    -9.114983    484.99228  0.010294453 0.0086474304         3903 
 3927000   0.61213937   -9.1023216    483.77358   0.01026597 0.0086436981         3905 
 3928000   0.61580277   -9.1190234    483.76416  0.010263157 0.0086399675         3918 
 3929000   0.61739492   -9.1218582    483.86146  0.010262608 0.0086362371         3923 
 3930000   0.61988506   -9.1217736    483.81514  0.010259015 0.0086325079         3917 
 3931000   0.61374588   -9.1190909    483.14532  0.010242206 0.0086287838         3921 
 3932000   0.62418341   -9.1312964    483.49398   0.01024699 0.0086250585         3926 
 3933000    0.6195195   -9.1114185    483.86932  0.010252338  0.008621336         3915 
 3934000   0.61787526   -9.0899761    483.95029  0.010251447 0.0086176174         3925 
 3935000   0.62290078   -9.1015185    484.32462  0.010256769 0.0086139011         3911 
 3936000   0.61350684   -9.1210549    483.61127   0.01023906 0.0086101878         3899 
 3937000   0.60258201   -9.0994208    484.07958  0.010246372 0.0086064791         3923 
 3938000    0.6228364   -9.1289566    483.28096   0.01022687 0.0086027684         3923 
 3939000   0.61900371   -9.1046378    483.68877  0.010232901 0.0085990616         3909 
 3940000   0.62934166   -9.1205387    484.20861  0.010241299 0.0085953551         3909 
 3941000   0.61853978   -9.1033901    484.09937   0.01023639 0.0085916527         3909 
 3942000    0.6355098   -9.1291924    483.78471  0.010227142 0.0085879527         3936 
 3943000   0.61205518   -9.1130554    484.23336   0.01023403 0.0085842549         3909 
 3944000   0.61043442   -9.1455853    483.39215  0.010213661 0.0085805566         3916 
 3945000   0.61846302   -9.1185911    483.25316  0.010208136 0.0085768573         3927 
 3946000   0.61501966   -9.1198969    483.76689  0.010216398 0.0085731659         3918 
 3947000   0.61809993   -9.1338083    483.22684  0.010202408 0.0085694752         3927 
 3948000   0.61182758   -9.1003673     483.7379  0.010210611 0.0085657825         3891 
 3949000   0.62655898   -9.1131782    483.40855  0.010201075 0.0085620969         3905 
 3950000   0.61586683    -9.100097     483.8988  0.010208835 0.0085584106         3912 
 3951000   0.62223994   -9.1077383    484.09018  0.010210288 0.0085547299         3930 
 3952000   0.61922768   -9.1120753    483.51083  0.010195488 0.0085510516         3915 
 3953000   0.60648705   -9.1305195    483.88218  0.010200737 0.0085473757         3915 
 3954000   0.62175056   -9.1013752    484.69666  0.010215323 0.0085436993         3922 
 3955000   0.61874915   -9.1312506    484.08479  0.010199848 0.0085400247         3919 
 3956000   0.62344971   -9.1098515    483.60592  0.010187182 0.0085363538         3903 
 3957000   0.62369677   -9.1377472    483.67021  0.010185962 0.0085326833         3926 
 3958000   0.62469266   -9.1161847    483.38276  0.010177336  0.008529017         3929 
 3959000   0.62662374   -9.1307696    483.73867  0.010182257  0.008525351         3941 
 3960000   0.62803502   -9.1288681    483.79709  0.010180915 0.0085216855         3903 
 3961000   0.61842762   -9.1324016    483.41898   0.01017039 0.0085180235         3921 
 3962000   0.62014114   -9.1324995    483.40142  0.010167454 0.0085143657         3919 
 3963000   0.61551574   -9.1436621    482.99247  0.010156289 0.0085107089         3919 
 3964000   0.61186586    -9.115736    484.12801  0.010177599 0.0085070511         3917 
 3965000   0.60522986   -9.1202858    483.35922  0.010158874 0.0085033929         3913 
 3966000   0.62218002   -9.1058287    483.70525  0.010163583 0.0084997382         3903 
 3967000   0.62004742   -9.1265811    483.41128  0.010154846 0.0084960898         3904 
 3968000   0.61817985   -9.1207336    484.15549  0.010167916 0.0084924395         3910 
 3969000   0.61552724   -9.1150297    484.22474  0.010166808 0.0084887958         3917 
 3970000   0.60665553    -9.116892    483.70787  0.010153398 0.0084851539         3906 
 3971000     0.621492   -9.1371849    482.98177  0.010135603 0.0084815131         3918 
 3972000   0.61788404    -9.133556     484.5904  0.010166801 0.0084778732         3934 
 3973000   0.60984925    -9.127344    483.63768  0.010144259 0.0084742312         3921 
 3974000   0.61248266   -9.1301294    484.09385  0.010151272 0.0084705997         3914 
 3975000   0.60568462   -9.1085328    483.95913  0.010145894 0.0084669704         3886 
 3976000   0.61081343   -9.1260715    483.89277  0.010141951 0.0084633352         3935 
 3977000   0.60824056   -9.1278692    484.01422  0.010141946  0.008459707         3920 
 3978000    0.6083491   -9.1175817    483.31144  0.010124674 0.0084560826         3925 
 3979000   0.61251777    -9.130567    483.62029  0.010128598 0.0084524604         3918 
 3980000   0.61418647   -9.1275186     483.9618  0.010133204 0.0084488385         3931 
 3981000   0.61413507    -9.140612    483.76124   0.01012646 0.0084452162         3930 
 3982000   0.60044557    -9.142638    483.61846  0.010120929 0.0084415953         3936 
 3983000   0.61283379   -9.1412807    483.25963   0.01011088 0.0084379788         3917 
 3984000   0.62410284    -9.118081    482.73875  0.010097447 0.0084343662         3930 
 3985000   0.61583229   -9.1252198    482.80644  0.010096329 0.0084307576         3923 
 3986000   0.60974114   -9.1245029    483.33674  0.010104883 0.0084271503         3934 
 3987000   0.60473114   -9.1425287    483.10271  0.010097456 0.0084235456         3916 
 3988000   0.59839236   -9.1493771    483.04166  0.010093649 0.0084199405         3938 
 3989000   0.61946605    -9.118017    484.01509  0.010111454 0.0084163377         3921 
 3990000   0.60644908   -9.1187135    483.70965  0.010102541  0.008412736         3925 
 3991000   0.61199565   -9.1356286    483.09708  0.010087219  0.008409139         3933 
 3992000    0.6147519   -9.1382601     482.9172  0.010080937 0.0084055455         3939 
 3993000   0.61626851   -9.1250576     483.5548  0.010091719 0.0084019523         3932 
 3994000   0.62350901   -9.1329187    483.80723  0.010094459  0.008398358         3924 
 3995000   0.62186385   -9.1238924    484.11787  0.010098412 0.0083947686         3934 
 3996000   0.60659082   -9.1326309    482.68213  0.010065944 0.0083911861         3909 
 3997000   0.60911334    -9.134256    483.58074   0.01008216    0.0083876         3920 
 3998000   0.61554615   -9.1354496    483.28745  0.010073525 0.0083840158         3928 
 3999000   0.59908154   -9.1345381    482.93074  0.010063573 0.0083804374         3928 
 4000000   0.60219111   -9.1459519    484.17106  0.010086897  0.008376858         3930 
 4001000   0.60999364   -9.1350149    482.93071  0.010058542 0.0083732833         3934 
 4002000   0.60476617   -9.1253371    483.37327  0.010065244 0.0083697084         3919 
 4003000   0.60691681   -9.1238837    483.88971  0.010073481 0.0083661361         3929 
 4004000   0.60234203   -9.1129861    483.26737  0.010058012 0.0083625632         3918 
 4005000   0.61043202   -9.1303775    483.53322  0.010061032 0.0083589943         3915 
 4006000   0.62546029   -9.1418938    483.38427  0.010055422 0.0083554274         3913 
 4007000   0.61841859   -9.1458594    482.94347  0.010043746 0.0083518634         3909 
 4008000   0.61115075   -9.1349906    484.02969  0.010063824 0.0083483017         3911 
 4009000    0.6165928   -9.1102563    483.23189   0.01004473 0.0083447406         3907 
 4010000   0.62427244     -9.13768    483.21105  0.010041792 0.0083411769         3924 
 4011000   0.59299657   -9.1471938    483.54025  0.010046128 0.0083376195         3929 
 4012000   0.61866628   -9.1193772    483.50248   0.01004284 0.0083340636         3923 
 4013000   0.61256896   -9.1376474    484.08201  0.010052372 0.0083305087         3921 
 4014000   0.60394001   -9.1144178    484.09717  0.010050182 0.0083269575         3916 
 4015000   0.59028653   -9.1370684    483.11984  0.010027394  0.008323407         3905 
 4016000   0.60528708   -9.1352714    483.71735  0.010037296 0.0083198557         3931 
 4017000   0.61528715   -9.1364513    483.48492  0.010029975 0.0083163082         3924 
 4018000    0.6099476   -9.1417692    482.55733  0.010008241 0.0083127635         3917 
 4019000   0.60679613   -9.1446722    483.81325  0.010031792 0.0083092204         3934 
 4020000   0.60043059   -9.1275699    483.62382  0.010025369 0.0083056824         3926 
 4021000   0.60423934   -9.1286264    484.09718  0.010032686 0.0083021452         3925 
 4022000    0.6099026   -9.1432563    483.75878   0.01002318 0.0082986088         3924 
 4023000   0.61708181   -9.1217013    483.73815  0.010020262 0.0082950772         3920 
 4024000   0.61484789   -9.1578684    483.06206   0.01000377  0.008291545         3928 
 4025000   0.60238645   -9.1442517    483.27546  0.010005703 0.0082880158         3924 
 4026000     0.598681   -9.1378757    482.55254 0.0099882542 0.0082844904         3927 
 4027000   0.60701997   -9.1451141    482.14868 0.0099774167 0.0082809664         3921 
 4028000   0.61100372   -9.1383711    482.89727 0.0099904268 0.0082774427         3920 
 4029000    0.6088792   -9.1503617    482.64526 0.0099827348 0.0082739202         3930 
 4030000   0.59805751   -9.1287401    483.29816 0.0099937584 0.0082703966         3907 
 4031000     0.608957   -9.1388157    482.69159 0.0099787396 0.0082668792         3904 
 4032000   0.60663696   -9.1417447    482.87661 0.0099800887 0.0082633621         3928 
 4033000   0.59659765    -9.152012    483.90986 0.0099989641  0.008259847         3911 
 4034000   0.60768687   -9.1408711    483.18428 0.0099814964 0.0082563351         3922 
 4035000   0.61172922   -9.1323239    484.15624 0.0099990962 0.0082528236         3934 
 4036000   0.58281445   -9.1370959    482.89955 0.0099706712 0.0082493167         3916 
 4037000   0.61440477    -9.152361    483.22462 0.0099749117 0.0082458117         3930 
 4038000   0.59868822   -9.1495782    483.34196  0.009974863 0.0082423062         3912 
 4039000   0.60553309    -9.141918    483.30256 0.0099715804 0.0082388025         3910 
 4040000   0.61585864   -9.1325065    484.03685 0.0099842584 0.0082353035         3921 
 4041000   0.58417394   -9.1565619    483.32602 0.0099671289 0.0082318026         3913 
 4042000   0.60328603   -9.1355977    483.56418 0.0099695733 0.0082283064         3940 
 4043000    0.6010368   -9.1613816    482.22497 0.0099395039 0.0082248112         3950 
 4044000   0.60348927   -9.1374693    484.13103 0.0099763236 0.0082213197         3924 
 4045000   0.60142593   -9.1343511    483.48832 0.0099606165 0.0082178305         3928 
 4046000   0.59347942   -9.1559597    483.38882 0.0099561051 0.0082143472         3922 
 4047000   0.60581251   -9.1509777    483.66456 0.0099593229  0.008210862         3940 
 4048000   0.60082605   -9.1582773    482.61566 0.0099352697 0.0082073798         3922 
 4049000   0.59829214   -9.1508575    482.22963  0.009924871 0.0082039005         3927 
 4050000   0.61389283   -9.1526454    482.72315  0.009932575 0.0082004211         3940 
 4051000   0.59917681   -9.1597767    482.70918 0.0099298359  0.008196945         3928 
 4052000   0.59953173   -9.1515203    482.40455 0.0099211202 0.0081934688         3925 
 4053000   0.59695225   -9.1390629    483.13786   0.00993375 0.0081899972         3904 
 4054000   0.59335756   -9.1668892    483.41539 0.0099370044 0.0081865252         3935 
 4055000   0.59925353   -9.1394951    483.03414 0.0099267188 0.0081830546         3936 
 4056000   0.59742789   -9.1626551    483.48373 0.0099335085 0.0081795852         3925 
 4057000   0.60255959   -9.1741398    482.83523 0.0099177395 0.0081761192         3917 
 4058000   0.60306364   -9.1584305    482.94752 0.0099176014 0.0081726555         3922 
 4059000   0.60215866   -9.1489093    482.73686 0.0099108331 0.0081691944         3914 
 4060000    0.5929525   -9.1481479    482.73583 0.0099083708 0.0081657297         3927 
 4061000   0.60101195   -9.1387574    483.89529 0.0099297236 0.0081622748         3927 
 4062000   0.59315577   -9.1305434     484.3185 0.0099359613 0.0081588185         3918 
 4063000    0.5932831   -9.1348067    483.38314 0.0099143314 0.0081553617         3918 
 4064000   0.60140647   -9.1420119    483.62544 0.0099168602 0.0081519077         3904 
 4065000   0.61234641   -9.1517497    482.77741 0.0098970359 0.0081484576         3927 
 4066000   0.59899003   -9.1515974    482.84925 0.0098960742 0.0081450083         3924 
 4067000   0.59987021   -9.1497256     483.2368 0.0099015818 0.0081415637         3927 
 4068000   0.60772761   -9.1563471    482.73322 0.0098888318 0.0081381203         3952 
 4069000   0.60514468   -9.1548081    483.54947 0.0099031184 0.0081346823         3932 
 4070000    0.6050853   -9.1277824    483.20498 0.0098936318 0.0081312409         3924 
 4071000   0.59428326   -9.1382652     483.3863 0.0098949132 0.0081278034         3917 
 4072000   0.60245033   -9.1475692    484.07286 0.0099065337 0.0081243649         3935 
 4073000   0.61528055   -9.1574142    483.14218 0.0098850597 0.0081209319         3926 
 4074000   0.60437524   -9.1623315    483.63715  0.009892758 0.0081174973         3948 
 4075000   0.60513107   -9.1277947    483.64489 0.0098904885 0.0081140644         3919 
 4076000   0.60291264   -9.1585868    482.61028 0.0098669096 0.0081106348         3930 
 4077000   0.60805006   -9.1537371    482.85379 0.0098694667 0.0081072067         3949 
 4078000   0.59506964   -9.1495274    482.70908 0.0098640893  0.008103782         3923 
 4079000   0.60617616   -9.1477965    482.61135 0.0098596745 0.0081003554         3922 
 4080000   0.58546931   -9.1508202    482.74548 0.0098599975 0.0080969335         3937 
 4081000   0.59318156   -9.1491134    482.60164 0.0098546444 0.0080935136         3903 
 4082000   0.59009588   -9.1590129    482.50274 0.0098502111 0.0080900933         3922 
 4083000   0.59044495   -9.1510351    483.70931 0.0098724245 0.0080866758         3940 
 4084000   0.59396806    -9.153229    482.57374 0.0098468361 0.0080832588         3931 
 4085000   0.60131996   -9.1622384    482.42129 0.0098413157 0.0080798476         3948 
 4086000   0.58964988   -9.1702241    482.46972 0.0098398947 0.0080764343         3931 
 4087000   0.59218345   -9.1465873    482.70141 0.0098422114 0.0080730221         3934 
 4088000   0.60507888   -9.1336625    482.53635 0.0098364389 0.0080696137         3950 
 4089000   0.58728757   -9.1484384    483.20933 0.0098477486 0.0080662087         3918 
 4090000   0.59148713   -9.1544677    483.51447  0.009851558 0.0080628067         3936 
 4091000   0.60031895   -9.1752165    482.96341  0.009837925 0.0080594061         3947 
 4092000   0.59301323   -9.1492587    483.22847 0.0098409187 0.0080560067         3942 
 4093000   0.60654201   -9.1500457    482.71463 0.0098280525 0.0080526085         3926 
 4094000   0.58894444   -9.1712312    483.83671 0.0098484918 0.0080492115         3937 
 4095000   0.58560431   -9.1717642      483.459 0.0098384006 0.0080458183         3924 
 4096000    0.6093047   -9.1638919    482.62651 0.0098190615 0.0080424246         3925 
 4097000    0.5934515   -9.1608872     483.0338 0.0098249491 0.0080390377         3930 
 4098000   0.60393075   -9.1726929    482.26116   0.00980684 0.0080356498         3943 
 4099000   0.60015384   -9.1728119    482.29894 0.0098052155 0.0080322664         3943 
 4100000   0.58784899   -9.1508454    482.48887 0.0098066844   0.00802888         3936 
 4101000    0.5998696   -9.1583626    482.72948 0.0098091824  0.008025498         3918 
 4102000   0.59658798   -9.1558323    482.69546 0.0098060999 0.0080221179         3935 
 4103000   0.59493465   -9.1578728    482.41785 0.0097980715 0.0080187431         3921 
 4104000   0.60747227    -9.162673    483.16569 0.0098108694 0.0080153677         3903 
 4105000   0.59911599    -9.158548    482.41826 0.0097933061  0.008011992         3910 
 4106000   0.59362963   -9.1632518    483.18898 0.0098065632 0.0080086219         3934 
 4107000   0.59541746   -9.1564611    483.05203 0.0098013967 0.0080052516         3928 
 4108000   0.58992039   -9.1393944    482.53287 0.0097884791 0.0080018838         3950 
 4109000   0.61112257   -9.1533706    482.93765 0.0097943063 0.0079985206         3945 
 4110000   0.59369601   -9.1637957    482.84229 0.0097899897 0.0079951566         3929 
 4111000   0.58738989   -9.1843859    482.48086 0.0097802818 0.0079917932         3928 
 4112000   0.58404161   -9.1583228    482.77975 0.0097839605 0.0079884325         3935 
 4113000   0.60247609   -9.1778769    482.98853 0.0097858118  0.007985075         3931 
 4114000   0.58854358   -9.1524182    482.51567  0.009773855 0.0079817166         3923 
 4115000   0.58304459   -9.1575753    482.69099 0.0097750301 0.0079783628         3938 
 4116000   0.59254605   -9.1772177    483.38064  0.009786618 0.0079750099         3923 
 4117000   0.59757822   -9.1767864    482.50585 0.0097665341 0.0079716572         3927 
 4118000   0.60268641   -9.1664883    482.73591  0.009768818 0.0079683103         3930 
 4119000   0.58993757   -9.1752235    482.14618 0.0097545152  0.007964962         3937 
 4120000   0.60243011   -9.1572474    483.25806 0.0097746372 0.0079616173         3928 
 4121000   0.60186978   -9.1643638    483.13446 0.0097697658 0.0079582748         3938 
 4122000   0.58666172   -9.1510474    483.39283 0.0097726191 0.0079549338         3907 
 4123000   0.59285647   -9.1696373    482.96395 0.0097615803 0.0079515937         3922 
 4124000   0.58925822   -9.1770698    482.29658 0.0097457278 0.0079482587         3932 
 4125000   0.58995335   -9.1525885    481.87371 0.0097348224 0.0079449232         3929 
 4126000    0.5919429   -9.1718547    482.27311 0.0097405297 0.0079415886         3944 
 4127000   0.58750057   -9.1617606     482.6496 0.0097457716 0.0079382544         3938 
 4128000   0.59441992   -9.1592367    482.79936 0.0097464341 0.0079349243         3938 
 4129000    0.5969396   -9.1685761    482.88026 0.0097457064 0.0079315953         3918 
 4130000   0.58633445   -9.1623496    482.70858 0.0097398826 0.0079282721         3933 
 4131000   0.59247313   -9.1717986    481.98688 0.0097229662 0.0079249465         3930 
 4132000   0.58011463    -9.168721    482.36982 0.0097283363 0.0079216248         3940 
 4133000   0.59510274   -9.1833631    482.32288 0.0097250359 0.0079183047         3946 
 4134000   0.59515177   -9.1594239     483.0422 0.0097371836 0.0079149895         3933 
 4135000   0.58185601   -9.1657862    482.52299  0.009724365 0.0079116759         3929 
 4136000   0.58914799   -9.1569883    483.06056  0.009732845 0.0079083612         3941 
 4137000   0.58578246   -9.1711647    482.98197 0.0097289093 0.0079050477         3936 
 4138000   0.58962774   -9.1800449    482.57521 0.0097183666 0.0079017344         3919 
 4139000   0.59830508   -9.1589544    482.40101 0.0097125113 0.0078984226         3941 
 4140000   0.59332986   -9.1767088    482.53714 0.0097129054 0.0078951147         3948 
 4141000   0.59255298   -9.1783443    481.73964 0.0096945109 0.0078918092         3928 
 4142000   0.60473427   -9.1732045    481.97982 0.0096970027 0.0078885041         3928 
 4143000   0.59323072   -9.1684341    483.03725 0.0097159316 0.0078852014         3929 
 4144000   0.58547686   -9.1767817    482.23133 0.0096973804 0.0078819012         3935 
 4145000   0.59315505   -9.1738266     482.3276 0.0096969762 0.0078786012         3921 
 4146000   0.58202884   -9.1618668    482.59008 0.0096999132 0.0078753059         3910 
 4147000   0.58400868   -9.1804518    483.41903 0.0097142319   0.00787201         3932 
 4148000   0.59188675   -9.1758061    481.92339 0.0096818424 0.0078687181         3939 
 4149000   0.57338542   -9.1607211    482.79752 0.0096970659  0.007865426         3916 
 4150000   0.59873086    -9.164416    482.19263  0.009682583 0.0078621368         3929 
 4151000   0.59052263   -9.1752614    482.08137 0.0096780168 0.0078588502         3943 
 4152000   0.58417049   -9.1806187    482.45938 0.0096832727 0.0078555645         3934 
 4153000   0.58786254   -9.1658501    483.03302 0.0096924516 0.0078522843         3931 
 4154000   0.58787738   -9.1836359    481.80585 0.0096655001 0.0078490015         3948 
 4155000   0.57662035   -9.1724542    483.36953 0.0096945353 0.0078457208         3925 
 4156000   0.58601883   -9.1808521    482.61087 0.0096769905 0.0078424408         3942 
 4157000   0.58763111   -9.1666047    482.02276 0.0096628731 0.0078391645         3914 
 4158000   0.59726263   -9.1753734    482.75603 0.0096752452 0.0078358904         3933 
 4159000   0.57551786    -9.167204    482.49847  0.009667758  0.007832616         3935 
 4160000   0.57911167   -9.1877571    481.87757 0.0096529963  0.007829345         3919 
 4161000   0.59354299   -9.1569297    481.71577  0.009647436 0.0078260734         3941 
 4162000   0.58057119   -9.1583043    482.96466 0.0096701237 0.0078228052         3952 
 4163000    0.5915999   -9.1711604    482.20115 0.0096525173 0.0078195396         3942 
 4164000   0.59468636   -9.1746001    482.54998 0.0096571801 0.0078162765         3935 
 4165000   0.58196133   -9.1507454    482.83796 0.0096606235 0.0078130141         3936 
 4166000   0.57513493   -9.1688224    482.00898 0.0096417223 0.0078097547         3920 
 4167000   0.56869948   -9.1681298    482.27472 0.0096447228  0.007806498         3931 
 4168000    0.5950575   -9.1764466    482.81588 0.0096532286 0.0078032416         3938 
 4169000   0.57950405   -9.1683248     482.6278 0.0096471536 0.0077999878         3945 
 4170000   0.59404227   -9.1792574    482.50776 0.0096424412 0.0077967379         3937 
 4171000   0.57860564   -9.1749454    483.46881 0.0096593304 0.0077934898         3934 
 4172000   0.58179185   -9.1792753    482.67549 0.0096411691 0.0077902423         3944 
 4173000    0.5750428   -9.1668987    482.75074 0.0096403615 0.0077869991         3935 
 4174000   0.57670952   -9.1719082    483.27818  0.009648582 0.0077837539         3936 
 4175000   0.57379229   -9.1834866      482.272 0.0096261876 0.0077805129         3910 
 4176000   0.59628267   -9.1673703    483.23944 0.0096431881 0.0077772739         3926 
 4177000   0.57506418   -9.1709407    482.80977 0.0096323073 0.0077740357         3939 
 4178000   0.58374431   -9.1873291    483.24471  0.009638677 0.0077707972         3952 
 4179000   0.58145778   -9.1572836    482.74863 0.0096264782 0.0077675622         3934 
 4180000   0.59550125   -9.1685466    482.64015 0.0096220126 0.0077643312         3924 
 4181000   0.59829228   -9.1805271    482.55198 0.0096179538 0.0077611026         3929 
 4182000   0.58616999   -9.1806685    482.49897 0.0096145977 0.0077578759         3916 
 4183000    0.5958615   -9.1908225    481.88639 0.0096000955  0.007754648         3929 
 4184000   0.58278689   -9.1846907    482.84071 0.0096168082 0.0077514246         3914 
 4185000   0.57740187   -9.1668412    482.24086 0.0096025659 0.0077482031         3934 
 4186000   0.58106555   -9.1756476    481.68729 0.0095892517   0.00774498         3914 
 4187000   0.58294552   -9.1594227    482.61723 0.0096054699 0.0077417609         3903 
 4188000   0.59668502   -9.1787864    482.44719 0.0095997929 0.0077385425         3916 
 4189000    0.5691365   -9.1710008    483.22003 0.0096128757 0.0077353255         3909 
 4190000   0.58240586   -9.1746571    482.18361 0.0095899684 0.0077321138         3938 
 4191000   0.56444679   -9.1638281    482.48658 0.0095937044 0.0077288976         3923 
 4192000   0.58810608   -9.1800848    482.51947 0.0095920696 0.0077256851         3918 
 4193000   0.59512638   -9.1788675    483.06317 0.0096005877 0.0077224732         3903 
 4194000   0.58126068   -9.1842592    482.82706 0.0095936071 0.0077192652         3932 
 4195000   0.57830386   -9.1878904    482.25157 0.0095798882 0.0077160573         3941 
 4196000   0.57705158   -9.1673039    481.73103  0.009567267 0.0077128498         3950 
 4197000   0.57949146   -9.1528995    482.11639 0.0095726391 0.0077096478         3942 
 4198000   0.60031488   -9.1814807    482.44606 0.0095769028 0.0077064473         3941 
 4199000   0.58348179    -9.183162     482.3261 0.0095722414 0.0077032466         3934 
 4200000   0.57757349   -9.1715176    482.43861 0.0095721947 0.0077000491         3947 
 4201000   0.58476059    -9.190529    481.67549 0.0095547784  0.007696851         3944 
 4202000   0.57975259    -9.179686    481.92735 0.0095574994 0.0076936538         3934 
 4203000   0.56914008   -9.1874844    482.31321  0.009562876 0.0076904559         3934 
 4204000   0.56767592   -9.1888331    482.28845 0.0095601105 0.0076872642         3943 
 4205000    0.5876592   -9.1629679    482.63388 0.0095646824 0.0076840741         3936 
 4206000     0.586282   -9.1857621    482.26557 0.0095551111 0.0076808864         3926 
 4207000   0.58281159   -9.1724875    481.71185 0.0095418717 0.0076776991         3945 
 4208000   0.57993228   -9.1738744    482.66072 0.0095583951 0.0076745134         3933 
 4209000   0.57625275   -9.1708225    482.57482 0.0095544235 0.0076713324         3921 
 4210000   0.58337547   -9.1738805    482.08895 0.0095425365 0.0076681537         3901 
 4211000   0.57247448   -9.1767685    482.58349 0.0095500572 0.0076649785         3919 
 4212000   0.56342985   -9.1927247     482.3188 0.0095425531 0.0076618017         3915 
 4213000   0.57796842   -9.1948402    482.31727 0.0095402577 0.0076586269         3914 
 4214000   0.58438101   -9.1926254    481.50399  0.009521911 0.0076554559         3918 
 4215000   0.59006579   -9.1820388    481.56517 0.0095208614  0.007652284         3917 
 4216000   0.57571079   -9.1812538    483.08512 0.0095486464  0.007649113         3925 
 4217000   0.57635044   -9.1729287     482.0085 0.0095251066 0.0076459458         3927 
 4218000   0.58532643   -9.1761511    482.37353 0.0095300603 0.0076427772         3931 
 4219000    0.5726395   -9.1922037    482.51544 0.0095306045 0.0076396119         3933 
 4220000   0.58745905    -9.178855    481.98206 0.0095178131 0.0076364477         3935 
 4221000   0.56693081   -9.2017849    481.30014 0.0095020955 0.0076332845         3933 
 4222000   0.57522432   -9.1871086     481.8445 0.0095105894 0.0076301243         3936 
 4223000   0.57550298   -9.1900049    481.51318 0.0095017994 0.0076269664         3937 
 4224000   0.57414427   -9.1908141    482.46643 0.0095183561 0.0076238107         3928 
 4225000   0.57972066   -9.1827613    482.09997 0.0095088752 0.0076206561         3936 
 4226000    0.5758432   -9.1795423    481.80313 0.0095007717 0.0076175035         3924 
 4227000   0.57404684   -9.1898021    482.39592 0.0095102105 0.0076143496         3917 
 4228000   0.56709286   -9.2074757    481.36253 0.0094875933 0.0076112002         3919 
 4229000   0.58381416   -9.1880668     482.7103 0.0095119078 0.0076080542         3939 
 4230000   0.57236412   -9.1955485    483.05486 0.0095164472   0.00760491         3916 
 4231000   0.57111803   -9.2002784    482.15186 0.0094964126 0.0076017681         3940 
 4232000   0.59477499   -9.1763764    481.75099 0.0094862749  0.007598627         3940 
 4233000   0.57759654   -9.1994784    482.14843 0.0094918582 0.0075954875         3926 
 4234000   0.57470801   -9.2001256    481.34074 0.0094737196 0.0075923479         3934 
 4235000   0.57407374   -9.1805763    482.24126 0.0094892023 0.0075892118         3924 
 4236000   0.59450884   -9.1859885    482.31709  0.009488454 0.0075860758         3944 
 4237000   0.57712092   -9.1828941    482.51309 0.0094900695 0.0075829447         3942 
 4238000   0.57677417   -9.1888221     481.8789 0.0094753599 0.0075798136         3937 
 4239000   0.58590077   -9.1968465    482.37187 0.0094828157 0.0075766824         3936 
 4240000    0.5580233   -9.2033189    482.35012 0.0094801518 0.0075735518         3930 
 4241000   0.57247568   -9.1903874    481.42542 0.0094597465 0.0075704254         3931 
 4242000   0.57238729   -9.2071067    481.73237 0.0094635465 0.0075672993         3930 
 4243000   0.56920263   -9.1881635    481.83615 0.0094633543 0.0075641774         3921 
 4244000   0.57703331   -9.1747599    482.17801 0.0094678371 0.0075610574         3921 
 4245000   0.57181791   -9.1880769    481.26837 0.0094477498 0.0075579383         3932 
 4246000   0.57713227   -9.1937854    482.42808 0.0094682854 0.0075548217         3929 
 4247000   0.58549099   -9.1956199    481.36965 0.0094452878 0.0075517076         3918 
 4248000   0.57795955   -9.1803797    482.74478 0.0094700405 0.0075485928         3950 
 4249000    0.5795301   -9.2103438    481.84407 0.0094501466 0.0075454823         3938 
 4250000   0.57774285   -9.1926515    482.38107 0.0094584524 0.0075423729         3925 
 4251000   0.57769327   -9.1834154    482.34365 0.0094554938 0.0075392638         3924 
 4252000   0.56415407   -9.1880171    482.44782 0.0094553117 0.0075361559         3932 
 4253000   0.58526964   -9.1990662    481.99463 0.0094442086 0.0075330513         3931 
 4254000   0.57302971   -9.1926077    481.80516 0.0094382768 0.0075299488         3942 
 4255000   0.56600384   -9.1821987    481.72823 0.0094345521 0.0075268469         3937 
 4256000   0.57520561   -9.2146408    481.58399 0.0094295112  0.007523745         3947 
 4257000   0.57422361   -9.1875846    481.78069 0.0094311466 0.0075206469         3943 
 4258000   0.57206541   -9.2062529    481.70823 0.0094275134  0.007517549         3938 
 4259000   0.56721956   -9.1991628    481.40407 0.0094193487 0.0075144539         3931 
 4260000   0.56980482   -9.1863268    481.39296 0.0094169202 0.0075113584         3918 
 4261000   0.55383737    -9.211659    481.79766 0.0094226249  0.007508267         3924 
 4262000   0.58375129   -9.1829369    481.70511 0.0094186046 0.0075051764         3927 
 4263000   0.56443198   -9.2016088    481.73931 0.0094170638 0.0075020873         3932 
 4264000   0.57391276   -9.1964003    482.17043 0.0094232807 0.0074989995         3950 
 4265000   0.57875175   -9.1924508    481.89972 0.0094157819 0.0074959127         3940 
 4266000   0.56338364   -9.1991327    482.11686 0.0094178164   0.00749283         3931 
 4267000   0.57577238   -9.1883601    482.05178 0.0094143384 0.0074897489         3926 
 4268000   0.57367321   -9.2031019    480.73329 0.0093863888 0.0074866703         3941 
 4269000   0.57196736    -9.212633    481.37325 0.0093966824 0.0074835882         3936 
 4270000   0.58655332   -9.2014207    480.69682 0.0093812807 0.0074805092         3926 
 4271000   0.57168082   -9.1791355    482.01388 0.0094047818 0.0074774329         3944 
 4272000   0.57456284   -9.1907137    482.06201 0.0094035193 0.0074743579         3938 
 4273000   0.57671861   -9.1908294    481.82752 0.0093967455 0.0074712873         3937 
 4274000   0.56860695   -9.1897809    482.35917 0.0094049129 0.0074682153         3926 
 4275000   0.58051188   -9.2014285    482.09948 0.0093976506 0.0074651487         3921 
 4276000   0.56662524   -9.2092152    481.71661 0.0093879913 0.0074620812         3943 
 4277000   0.57084203   -9.1833005    481.45652 0.0093807287 0.0074590165         3933 
 4278000   0.56796173   -9.2028989    480.57932 0.0093614484 0.0074559508         3947 
 4279000   0.58024039    -9.202618    482.10864 0.0093890442 0.0074528881         3940 
 4280000    0.5727615   -9.2013621    481.30395 0.0093711828 0.0074498267         3901 
 4281000   0.56707332   -9.1887549    481.99518 0.0093824493 0.0074467679         3927 
 4282000   0.56884117   -9.2175955    481.12001 0.0093632261 0.0074437085         3953 
 4283000   0.56453928   -9.1908374    481.21136 0.0093628173 0.0074406532         3927 
 4284000   0.56036182   -9.2071635    481.54665  0.009367154  0.007437599         3955 
 4285000   0.56742035   -9.2083186    482.76767  0.009388714  0.007434548         3946 
 4286000   0.55743304   -9.1740834    482.28518 0.0093771423 0.0074315008         3946 
 4287000    0.5748217   -9.2190833     481.1355 0.0093526068 0.0074284512         3933 
 4288000   0.56115006   -9.2204631    482.00347 0.0093672938 0.0074254074         3930 
 4289000    0.5544728   -9.2177395    482.15349 0.0093680246 0.0074223615         3948 
 4290000   0.56774657   -9.2037006    482.18787 0.0093665087 0.0074193189         3934 
 4291000   0.57048773   -9.2084922    482.30702 0.0093666398  0.007416278         3937 
 4292000   0.57348442   -9.2096535    481.95921 0.0093577044 0.0074132405         3934 
 4293000   0.55459949   -9.2055571    481.88053 0.0093539973 0.0074102054         3940 
 4294000    0.5780151   -9.2043728    482.02484 0.0093546195  0.007407173         3930 
 4295000   0.55712796   -9.2115947     481.9492 0.0093509739 0.0074041381         3932 
 4296000   0.55292091    -9.212976    482.02569  0.009350281 0.0074011048         3921 
 4297000   0.57359979   -9.2140633       481.82 0.0093441161 0.0073980746         3932 
 4298000   0.56928061   -9.2068041     481.7762 0.0093410928  0.007395044         3925 
 4299000   0.55434869   -9.1916669    482.18182 0.0093467826  0.007392017         3940 
 4300000   0.57824232   -9.2039148    481.87856 0.0093387317 0.0073889924         3927 
 4301000   0.57123292   -9.1959025     481.6765 0.0093326454 0.0073859667         3925 
 4302000   0.55887959   -9.2046412    481.61495 0.0093292839  0.007382943         3918 
 4303000   0.55871667    -9.201915    482.51317  0.009344511 0.0073799177         3930 
 4304000   0.55529977   -9.2230928    481.51598 0.0093230325 0.0073768971         3942 
 4305000   0.57453808   -9.2194783    481.61155 0.0093227167  0.007373879         3934 
 4306000   0.56707728   -9.1990947    482.17332 0.0093314236  0.007370864         3924 
 4307000   0.57577385   -9.2026324    482.29894 0.0093316876 0.0073678508         3926 
 4308000   0.56814441   -9.1969149    481.44451 0.0093129935 0.0073648383         3937 
 4309000   0.56636473    -9.225852    481.32216  0.009308466  0.007361826         3928 
 4310000    0.5565582   -9.2111624    481.66226 0.0093128821 0.0073588162         3931 
 4311000   0.56424832   -9.2094793    482.12899 0.0093197439 0.0073558072         3936 
 4312000   0.55676303   -9.2024308    481.49422 0.0093053149 0.0073528012         3939 
 4313000    0.5629535   -9.2053328    481.24447 0.0092983321  0.007349796         3926 
 4314000   0.56612935   -9.2039261    481.11503 0.0092936763  0.007346791         3947 
 4315000   0.55500155     -9.19804    481.16714 0.0092925289 0.0073437883         3931 
 4316000   0.56803945     -9.20747    481.73584 0.0093013562 0.0073407877         3927 
 4317000   0.55470191    -9.200879    481.78366 0.0093001247 0.0073377882         3935 
 4318000   0.55013053   -9.2068019    482.04061 0.0093029297 0.0073347916         3937 
 4319000   0.56122659   -9.1949248    481.02375  0.009281156 0.0073317952         3932 
 4320000   0.57136449   -9.1849114    482.32317 0.0093040735 0.0073288041         3945 
 4321000   0.56239283   -9.2106446    481.62043 0.0092883675 0.0073258132         3951 
 4322000   0.56661631   -9.2078966    481.62517 0.0092863098 0.0073228246         3925 
 4323000   0.56297549   -9.2031967     482.1005 0.0092933245 0.0073198351         3943 
 4324000   0.56383369   -9.2129874    482.10843 0.0092913281 0.0073168483         3933 
 4325000   0.56217673   -9.2084708     481.7607 0.0092824798 0.0073138641         3929 
 4326000   0.57287497   -9.2108686    480.99223 0.0092655308 0.0073108798         3934 
 4327000    0.5563167    -9.199942    481.03185 0.0092641523 0.0073079002         3943 
 4328000   0.55506981   -9.2007564    482.37903 0.0092879512 0.0073049204         3936 
 4329000   0.55865677   -9.2117994    482.11594 0.0092807412 0.0073019417         3934 
 4330000   0.55168021   -9.2243565    481.09685 0.0092589848 0.0072989638         3930 
 4331000   0.55377109   -9.2059634    481.47509 0.0092641246 0.0072959866         3927 
 4332000   0.56207254   -9.2120253    481.95025 0.0092711267 0.0072930096         3950 
 4333000   0.55994367   -9.2134412    480.97412 0.0092502139 0.0072900394         3943 
 4334000   0.55954222   -9.2260184    481.07723 0.0092500621 0.0072870662         3928 
 4335000   0.56051872   -9.2224126    481.24965 0.0092512428 0.0072840952         3932 
 4336000    0.5596963   -9.2167416    481.33207 0.0092506932 0.0072811254         3939 
 4337000   0.55155067   -9.2164271     480.9756 0.0092417109 0.0072781572         3951 
 4338000   0.56062468   -9.2052009    481.95641 0.0092584218   0.00727519         3946 
 4339000    0.5596289    -9.213541    481.56785 0.0092488256 0.0072722252         3950 
 4340000   0.56772126   -9.2237065    481.56194 0.0092465811 0.0072692627         3942 
 4341000   0.55994439    -9.219674    481.85028 0.0092499862 0.0072663036         3930 
 4342000   0.56095696   -9.2171117    482.27884  0.009256081 0.0072633454         3928 
 4343000   0.54839806   -9.2234463     480.9753 0.0092289374 0.0072603882         3931 
 4344000   0.55846231   -9.2219132    480.67599  0.009221071 0.0072574347         3934 
 4345000   0.55193047   -9.2306392    481.18272 0.0092286674  0.007254482         3939 
 4346000   0.55658082    -9.227237    481.04515 0.0092239061 0.0072515319         3946 
 4347000   0.54468107   -9.1837015    481.93924 0.0092389241 0.0072485822         3937 
 4348000   0.56327403   -9.2018845     481.4483 0.0092273901  0.007245634         3921 
 4349000   0.54764632   -9.2156525    480.70952 0.0092111121 0.0072426875         3938 
 4350000   0.55365838   -9.2094454    481.12957 0.0092170415 0.0072397416         3936 
 4351000   0.55280055   -9.2205632    481.33929 0.0092189398  0.007236798         3908 
 4352000   0.55157069   -9.2209717    481.46767 0.0092192799 0.0072338563         3918 
 4353000   0.55352541   -9.1979103    481.58876 0.0092194801 0.0072309166         3935 
 4354000   0.55212413    -9.207986    481.91778 0.0092236599 0.0072279748         3950 
 4355000   0.54666496   -9.2271197    480.84056 0.0092009293 0.0072250356         3931 
 4356000   0.55674506   -9.2241121    481.24479 0.0092065502 0.0072220974         3936 
 4357000   0.55227357   -9.2282996    481.52768 0.0092098477 0.0072191628         3930 
 4358000   0.55123609   -9.2033677    481.74593 0.0092119078 0.0072162273         3925 
 4359000   0.54553941    -9.240865    481.67814 0.0092084986 0.0072132953         3923 
 4360000   0.55163992   -9.2061578    481.08443 0.0091950389 0.0072103636         3945 
 4361000   0.54184504   -9.2065441    480.78432 0.0091871957 0.0072074365         3935 
 4362000   0.53950483   -9.2113903    480.93347 0.0091879388 0.0072045103         3934 
 4363000   0.55213373   -9.2189961    480.71128 0.0091815891 0.0072015845         3926 
 4364000   0.55433414   -9.2261899    481.24607 0.0091896973 0.0071986604         3926 
 4365000    0.5589423   -9.2123493     481.4629 0.0091917316 0.0071957368         3908 
 4366000   0.57619695    -9.208819    481.34418 0.0091873602 0.0071928178         3947 
 4367000   0.54890125   -9.2258798    481.34565 0.0091852845 0.0071898994         3919 
 4368000   0.55640297   -9.2282365    481.00389 0.0091766616 0.0071869815         3917 
 4369000   0.55106938   -9.2327766    480.89478 0.0091724799  0.007184063         3936 
 4370000   0.54966744   -9.2240623    481.42762 0.0091805419 0.0071811455         3938 
 4371000   0.53871314     -9.21344    481.50181 0.0091798561 0.0071782332         3938 
 4372000   0.57636236   -9.2191951    480.74542 0.0091633391 0.0071753216         3942 
 4373000   0.54425128   -9.2197792    481.19423 0.0091697962 0.0071724104         3933 
 4374000   0.56340219   -9.2348003    481.39322 0.0091714911 0.0071695001         3941 
 4375000   0.55419504   -9.2207391    481.00978  0.009162091 0.0071665922         3931 
 4376000   0.55445541   -9.2338578    481.48792 0.0091691026  0.007163685         3925 
 4377000   0.55119129   -9.2342229    480.84764 0.0091548176 0.0071607815         3931 
 4378000   0.54600973   -9.2000534    480.69396 0.0091498013   0.00715788         3918 
 4379000   0.54536524   -9.1914241    480.93736 0.0091523437 0.0071549794         3922 
 4380000   0.54533026   -9.2374637    480.39779 0.0091399884 0.0071520804         3931 
 4381000   0.53770166   -9.2343056    480.79164 0.0091453938 0.0071491818         3936 
 4382000   0.54687641   -9.2262405    481.28218 0.0091526354 0.0071462856         3931 
 4383000   0.54874942   -9.2226917    481.86673 0.0091616612  0.007143391         3945 
 4384000   0.54193863   -9.2096291    481.35379 0.0091498211 0.0071404967         3923 
 4385000   0.55431795   -9.2284811    480.62067 0.0091338021 0.0071376043         3938 
 4386000   0.54043034   -9.2190822    481.28009 0.0091442486 0.0071347147         3948 
 4387000   0.56449412     -9.22079    480.50775 0.0091274932 0.0071318257         3956 
 4388000   0.53911851   -9.2219158    480.91823 0.0091332086  0.007128937         3934 
 4389000    0.5451807   -9.2333278    482.08989 0.0091533738 0.0071260495         3921 
 4390000   0.55833789   -9.2333928     481.0169 0.0091309207  0.007123167         3950 
 4391000   0.54655705   -9.2386781    481.29667 0.0091341507 0.0071202846         3951 
 4392000   0.56013351   -9.2364012    481.93702 0.0091442209 0.0071174035         3934 
 4393000   0.56126472   -9.2235196    481.24701 0.0091290502 0.0071145246         3938 
 4394000   0.55408465   -9.2228771    479.95018 0.0091023779 0.0071116454         3955 
 4395000   0.55156747   -9.2262856    480.70569 0.0091146319 0.0071087695         3945 
 4396000   0.54337406   -9.2231329    481.10888 0.0091202018 0.0071058939         3936 
 4397000   0.54832354   -9.2312866    481.52249 0.0091259664 0.0071030185         3932 
 4398000   0.53288299   -9.2481439    480.69212 0.0091081576 0.0071001444         3939 
 4399000   0.55454646   -9.2246452    480.52306 0.0091028844 0.0070972752         3939 
 4400000   0.54971826   -9.2395802    480.98003 0.0091094703 0.0070944084         3939 
 4401000   0.54672982   -9.2346378    481.62072 0.0091195319 0.0070915415         3933 
 4402000   0.54645296   -9.2419282    481.02358  0.009106156 0.0070886739         3935 
 4403000   0.54671687    -9.228316     480.7924 0.0090997122 0.0070858101         3929 
 4404000   0.55676677   -9.2092956    480.93847 0.0091004101 0.0070829487         3921 
 4405000    0.5418073   -9.2390269    481.14149 0.0091021849  0.007080089         3939 
 4406000      0.53574   -9.2356731    481.92717 0.0091149789 0.0070772287         3933 
 4407000   0.55155003   -9.2283487    480.61537 0.0090881054 0.0070743718         3933 
 4408000    0.5468556   -9.2326898    481.16503  0.009096435 0.0070715156         3927 
 4409000   0.53897027   -9.2419164    480.20108 0.0090761525  0.007068662         3933 
 4410000   0.54249594   -9.2562612    481.20007 0.0090929718 0.0070658077         3940 
 4411000   0.54215294   -9.2373674    480.62724 0.0090800885 0.0070629571         3930 
 4412000   0.54497647    -9.233317    480.94568 0.0090840449 0.0070601087         3931 
 4413000    0.5420232   -9.2404618    481.21637 0.0090870981 0.0070572604         3935 
 4414000   0.55062615   -9.2285471    480.87579 0.0090786096 0.0070544143         3933 
 4415000   0.55126874   -9.2242946     481.5409 0.0090891072 0.0070515715         3934 
 4416000   0.55175606   -9.2302437    480.88152 0.0090746061 0.0070487283         3934 
 4417000   0.55382528   -9.2296695    480.73398  0.009069768 0.0070458856         3936 
 4418000   0.54590143   -9.2394952    481.44072 0.0090810457 0.0070430471         3928 
 4419000   0.54110119   -9.2321739    482.06143 0.0090906961  0.007040209         3927 
 4420000   0.53840561   -9.2421506    480.58714 0.0090608435  0.007037371         3932 
 4421000   0.55101437   -9.2358936    481.58578 0.0090776179 0.0070345368         3955 
 4422000   0.53272612   -9.2319957    481.17354 0.0090677962 0.0070317018         3921 
 4423000   0.52926921   -9.2416614    481.08851 0.0090641441 0.0070288686         3931 
 4424000   0.54182545     -9.24373     481.3295 0.0090666346 0.0070260383         3951 
 4425000   0.55727825   -9.2439431    481.01793 0.0090587181 0.0070232104         3918 
 4426000   0.53938237   -9.2242872    480.82798 0.0090530949 0.0070203852         3949 
 4427000   0.54749062   -9.2421376    482.07249 0.0090744765 0.0070175614         3938 
 4428000   0.55595903   -9.2437609     481.0637 0.0090534421 0.0070147355         3951 
 4429000   0.53894104   -9.2267601    480.95274 0.0090493103 0.0070119141         3946 
 4430000   0.53172013   -9.2343196     480.2109 0.0090333127 0.0070090908         3944 
 4431000   0.53715811   -9.2349249    480.42794 0.0090353558 0.0070062711         3943 
 4432000   0.53055702   -9.2240411    481.65974 0.0090564783 0.0070034506         3924 
 4433000   0.53663242   -9.2313156    480.08245 0.0090247848 0.0070006318         3948 
 4434000   0.54639753   -9.2461662    480.86829 0.0090375186  0.006997816         3941 
 4435000   0.53266004   -9.2142277    480.58748 0.0090302044 0.0069950014         3936 
 4436000   0.53528796   -9.2518687    480.72368 0.0090307273 0.0069921891         3945 
 4437000   0.54120053    -9.246841    480.84777 0.0090310226  0.006989377         3936 
 4438000   0.53905463   -9.2156812    480.45206 0.0090215574 0.0069865673         3941 
 4439000   0.54382412    -9.236675    480.27184 0.0090161418 0.0069837581         3942 
 4440000   0.53719606    -9.245633    481.14203 0.0090304435 0.0069809518         3938 
 4441000   0.53763199   -9.2500369     480.2004 0.0090107407 0.0069781466         3935 
 4442000   0.54305326   -9.2336903    480.53403 0.0090149713 0.0069753439         3933 
 4443000    0.5499025   -9.2269298     481.1565 0.0090246173 0.0069725429         3937 
 4444000   0.53495971   -9.2429434     481.4154 0.0090274415 0.0069697466         3930 
 4445000   0.53889621   -9.2202939    480.97955 0.0090172393 0.0069669473         3947 
 4446000   0.54183342   -9.2445804    481.13605 0.0090181446 0.0069641515         3945 
 4447000   0.54508774   -9.2441417    480.14107 0.0089974715 0.0069613545         3939 
 4448000   0.55204073   -9.2312039    481.13717 0.0090141106 0.0069585604         3919 
 4449000   0.54730077   -9.2424049    481.60584  0.009020863 0.0069557681         3936 
 4450000   0.54598739   -9.2430535    480.84148 0.0090045221 0.0069529781         3945 
 4451000   0.53050364   -9.2340907    481.64758 0.0090175911 0.0069501901         3950 
 4452000   0.52531706   -9.2469341    480.82137 0.0090001006 0.0069474011         3934 
 4453000   0.54157719     -9.24117    481.07971 0.0090029139 0.0069446121         3939 
 4454000   0.52763795   -9.2382045    480.69971 0.0089937829  0.006941827         3922 
 4455000   0.53577735   -9.2444873    481.03009 0.0089979441  0.006939043         3930 
 4456000   0.53864012   -9.2430688    480.83596 0.0089922943 0.0069362614         3926 
 4457000    0.5534002   -9.2378377    480.64628 0.0089867301 0.0069334818         3938 
 4458000    0.5518475   -9.2241861     480.1973 0.0089763216 0.0069307039         3943 
 4459000   0.53746334   -9.2306144    481.62365 0.0090009652 0.0069279294         3926 
 4460000   0.53496462   -9.2383159    480.84967 0.0089844857 0.0069251539         3945 
 4461000   0.54033942    -9.249142    481.62508 0.0089969567 0.0069223775         3941 
 4462000   0.53365879   -9.2548692    480.40341  0.008972124 0.0069196037         3940 
 4463000   0.54307456   -9.2450092    480.94613 0.0089802474 0.0069168302         3936 
 4464000   0.53859876   -9.2548709    480.38841 0.0089678243 0.0069140592         3957 
 4465000    0.5341302   -9.2520603     481.6039 0.0089885013 0.0069112904         3929 
 4466000   0.53753794   -9.2523692    480.88068 0.0089729937 0.0069085235         3935 
 4467000    0.5191251   -9.2462747    480.90422 0.0089714241 0.0069057573         3927 
 4468000   0.53290434   -9.2477333    480.67379 0.0089651184 0.0069029922         3928 
 4469000   0.53316233   -9.2474175    479.91579  0.008948978 0.0069002298         3932 
 4470000   0.52234546    -9.252831    481.05423 0.0089681997 0.0068974691         3923 
 4471000   0.53124633   -9.2545761     480.4762 0.0089554202 0.0068947085         3937 
 4472000   0.53548823   -9.2520657    480.74218 0.0089583739 0.0068919516         3947 
 4473000    0.5389266   -9.2559366    481.81486 0.0089763556 0.0068891955         3943 
 4474000   0.53755312   -9.2468678    480.72405 0.0089540317 0.0068864412         3952 
 4475000   0.53466428   -9.2505459    480.52193 0.0089482668 0.0068836866         3924 
 4476000   0.54024367   -9.2440147    480.88846 0.0089530918 0.0068809352         3929 
 4477000   0.53544229   -9.2594862    480.43796 0.0089427064 0.0068781842         3920 
 4478000   0.52171186   -9.2614998    480.66369 0.0089449101 0.0068754341         3951 
 4479000   0.53542292   -9.2634199    481.17397 0.0089524069 0.0068726865         3951 
 4480000   0.54466224   -9.2541227    480.63327 0.0089403511 0.0068699404         3926 
 4481000     0.527606   -9.2418695    480.66035 0.0089388594 0.0068671961         3928 
 4482000   0.52857743   -9.2502183    480.43523 0.0089326793 0.0068644548         3928 
 4483000   0.54495837   -9.2481717    481.08386 0.0089427442 0.0068617136         3927 
 4484000   0.53840458   -9.2594342    480.02053 0.0089209881 0.0068589738         3929 
 4485000   0.53750672   -9.2466252    480.05455 0.0089196311 0.0068562354         3951 
 4486000    0.5356777   -9.2479726    480.58486  0.008927494 0.0068534993         3922 
 4487000   0.53042802   -9.2559282    480.21788 0.0089186889  0.006850763         3921 
 4488000   0.51602549    -9.249732    480.66958 0.0089250887 0.0068480282         3937 
 4489000   0.54022852   -9.2580385    480.01248 0.0089109023  0.006845297         3938 
 4490000   0.53877944   -9.2508328    480.67344 0.0089211849 0.0068425647         3940 
 4491000   0.53536617   -9.2572502    480.03822 0.0089074114 0.0068398359         3939 
 4492000   0.52870061   -9.2542899    480.04606  0.008905574 0.0068371086         3938 
 4493000   0.54759959   -9.2553579    480.49304 0.0089118823 0.0068343824         3933 
 4494000   0.52903398   -9.2420816    481.09361 0.0089210356 0.0068316585         3937 
 4495000    0.5320123   -9.2506706    481.10548  0.008919271 0.0068289343         3940 
 4496000    0.5173963   -9.2402738    480.91214 0.0089137037 0.0068262116         3933 
 4497000    0.5306143   -9.2756031    480.80783 0.0089097885 0.0068234918         3934 
 4498000   0.52955252   -9.2367922    481.09265 0.0089130845  0.006820773         3939 
 4499000   0.52611142   -9.2364547    480.41429 0.0088985383 0.0068180558         3934 
 4500000   0.51736481   -9.2665427    480.68036 0.0089014881  0.006815339         3934 
 4501000    0.5355152   -9.2764959    480.47189 0.0088956507 0.0068126243         3944 
 4502000   0.52834028     -9.26828    479.91879 0.0088834368 0.0068099098         3954 
 4503000   0.53606068      -9.2586    480.63682  0.008894752 0.0068072007         3940 
 4504000   0.52444285   -9.2491152    480.65915 0.0088931904 0.0068044904         3934 
 4505000   0.52302375    -9.235747    481.02084 0.0088979068 0.0068017807         3939 
 4506000   0.52850067     -9.22987    481.41652 0.0089032498 0.0067990729         3943 
 4507000   0.52180955   -9.2675677    480.10237  0.008876976 0.0067963669         3948 
 4508000   0.52189623    -9.263082    480.09636 0.0088748957 0.0067936617         3942 
 4509000   0.51977654   -9.2552662    480.35753 0.0088777544 0.0067909588         3928 
 4510000   0.53598468   -9.2729155    480.85922 0.0088850558  0.006788258         3947 
 4511000   0.53076107    -9.260789    480.70831 0.0088802984 0.0067855601         3938 
 4512000   0.53099744   -9.2383097    481.14244 0.0088863483 0.0067828594         3926 
 4513000   0.52681865   -9.2585903    479.71281 0.0088579807  0.006780162         3933 
 4514000   0.52771881   -9.2523256    480.30066 0.0088668709 0.0067774662         3939 
 4515000   0.51908263   -9.2340049    480.80476 0.0088742112 0.0067747715         3932 
 4516000   0.54023227   -9.2496718    480.36328 0.0088640995 0.0067720789         3932 
 4517000   0.53029052     -9.23977    480.34408 0.0088617829 0.0067693864         3936 
 4518000   0.53316964   -9.2603265    479.71746 0.0088482636 0.0067666969         3941 
 4519000   0.53819547   -9.2637914      480.412 0.0088591134 0.0067640092         3921 
 4520000   0.52477913   -9.2505275     480.3932 0.0088568069 0.0067613219         3929 
 4521000   0.53434468   -9.2560942    479.92871 0.0088462861 0.0067586343         3938 
 4522000    0.5245812    -9.247892     480.9308 0.0088627966 0.0067559496         3931 
 4523000   0.53719021    -9.266595    480.39824 0.0088510251 0.0067532662         3945 
 4524000   0.52458417   -9.2509963    480.92513 0.0088587741  0.006750585         3930 
 4525000   0.53393491   -9.2607249    480.37387 0.0088466642 0.0067479044         3933 
 4526000   0.53591845   -9.2499535    481.00939 0.0088564109 0.0067452275         3926 
 4527000   0.53949718   -9.2568756    480.13229 0.0088383089 0.0067425508         3919 
 4528000    0.5330777   -9.2524835    480.30402 0.0088395174 0.0067398738         3937 
 4529000   0.52800342   -9.2732185    480.27125 0.0088369627 0.0067371985         3936 
 4530000   0.52870151   -9.2486608    480.57628 0.0088406232  0.006734525         3928 
 4531000    0.5171837   -9.2770671    479.78319 0.0088240858 0.0067318523         3912 
 4532000   0.53569063   -9.2702657    479.85081  0.008823382 0.0067291803         3924 
 4533000   0.53740268   -9.2567284    479.77154 0.0088199783 0.0067265112         3940 
 4534000   0.53504065   -9.2540476    480.76564 0.0088363042 0.0067238431         3941 
 4535000   0.52537384    -9.257614    479.44032 0.0088100022  0.006721178         3939 
 4536000   0.52962773   -9.2587033    479.44423 0.0088081318 0.0067185147         3916 
 4537000   0.53024537   -9.2517458    480.12213 0.0088186417 0.0067158529         3947 
 4538000   0.52125909   -9.2648077    480.00522 0.0088145516 0.0067131931         3936 
 4539000   0.52294128   -9.2516338      479.604 0.0088052434 0.0067105318         3923 
 4540000   0.52455358   -9.2519718    480.24669 0.0088151008 0.0067078717         3939 
 4541000   0.52668226   -9.2627202    480.15092 0.0088114021 0.0067052128         3938 
 4542000   0.52462571   -9.2457658    479.80664 0.0088031455 0.0067025563         3927 
 4543000   0.52429826    -9.264954    480.67648 0.0088171634 0.0066999027         3934 
 4544000   0.52311644   -9.2742514      480.048 0.0088036972 0.0066972515         3949 
 4545000   0.52313505   -9.2800937    479.71566 0.0087956666 0.0066945999         3932 
 4546000   0.52128312   -9.2644103    479.64724 0.0087924777 0.0066919498         3934 
 4547000   0.52301437   -9.2628734    480.52443 0.0088066203 0.0066893009         3944 
 4548000   0.51839274    -9.264403     479.9553 0.0087942558 0.0066866524         3941 
 4549000    0.5241532   -9.2627891    480.35082 0.0087995681 0.0066840079         3932 
 4550000   0.52259673   -9.2600871    480.19508 0.0087947816  0.006681362         3925 
 4551000   0.52375526   -9.2606018    480.02209 0.0087896816 0.0066787162         3933 
 4552000   0.52183355    -9.263487    480.14366 0.0087899761 0.0066760731         3934 
 4553000   0.52664471    -9.268275    480.77835 0.0087996623   0.00667343         3940 
 4554000   0.51792935   -9.2834274    480.16315 0.0087864726 0.0066707888         3925 
 4555000   0.52736365   -9.2683153    479.84618 0.0087787446 0.0066681503         3940 
 4556000   0.51925325   -9.2608753    479.43286 0.0087692578  0.006665514         3919 
 4557000   0.52078269   -9.2742977    479.71666 0.0087725232 0.0066628767         3932 
 4558000   0.51614961   -9.2576032    479.70848  0.008770449 0.0066602427         3917 
 4559000   0.52724445   -9.2680256    480.83225 0.0087890666 0.0066576091         3929 
 4560000   0.53531552   -9.2722431     480.2404 0.0087763231 0.0066549766         3918 
 4561000   0.51917831   -9.2588676    479.88091 0.0087678307 0.0066523459         3926 
 4562000   0.52178382   -9.2453155    480.28482 0.0087732869 0.0066497171         3914 
 4563000   0.52390431   -9.2697362    479.68547 0.0087604184 0.0066470905         3944 
 4564000   0.52183773    -9.247614    479.56685 0.0087563331 0.0066444656         3929 
 4565000   0.52556637   -9.2779738    479.88101 0.0087601499 0.0066418428         3929 
 4566000   0.52738582   -9.2742354    480.34781 0.0087667508 0.0066392212         3934 
 4567000   0.51543691   -9.2533773    480.92446 0.0087753533 0.0066365977         3929 
 4568000   0.51998426   -9.2784182    480.30458 0.0087621239 0.0066339786         3932 
 4569000    0.5181396   -9.2790429    480.41689 0.0087622544 0.0066313579         3930 
 4570000   0.51873803   -9.2703008    479.53836 0.0087443172 0.0066287417         3933 
 4571000   0.51959227   -9.2639907    480.81315 0.0087656448 0.0066261279         3928 
 4572000   0.52906463   -9.2715986    480.05001 0.0087498178 0.0066235131         3940 
 4573000   0.50972204   -9.2539655    480.35194 0.0087534065 0.0066209015         3934 
 4574000   0.50648026   -9.2590096    479.72194 0.0087400149 0.0066182908         3929 
 4575000   0.53338243   -9.2765305    479.07079 0.0087262438 0.0066156811         3926 
 4576000   0.51755997   -9.2669497    479.36505 0.0087296957 0.0066130737         3941 
 4577000    0.5116705   -9.2756741    479.42287  0.008728841  0.006610466         3943 
 4578000   0.51800994    -9.278124     479.7296 0.0087325177 0.0066078619         3936 
 4579000   0.52381552   -9.2657067    481.06746 0.0087549585 0.0066052559         3920 
 4580000   0.51938554   -9.2659778    479.91655 0.0087321061 0.0066026516         3939 
 4581000   0.52140511    -9.267171    480.11004 0.0087337197 0.0066000501         3937 
 4582000   0.51260363   -9.2675545    480.13355 0.0087322411 0.0065974494         3928 
 4583000    0.5341337   -9.2846158    480.49055 0.0087368273 0.0065948484         3941 
 4584000   0.51679017   -9.2868188    480.54834 0.0087359718 0.0065922508         3934 
 4585000   0.51405393   -9.2834288    480.15418 0.0087269027 0.0065896571         3936 
 4586000   0.50937922   -9.2788682    480.41675 0.0087297709 0.0065870639         3927 
 4587000   0.50398335   -9.2577913    479.95269  0.008719437 0.0065844694         3929 
 4588000   0.51308789   -9.2850394    481.00119 0.0087365808 0.0065818796         3932 
 4589000   0.51469308   -9.2747534    479.84844 0.0087137438 0.0065792913         3935 
 4590000   0.52108382   -9.2700297    479.72673 0.0087096356 0.0065767009         3941 
 4591000   0.51265067   -9.2821537    480.63177 0.0087241664 0.0065741107         3935 
 4592000   0.52058219   -9.2734528    479.67076 0.0087048266 0.0065715236         3917 
 4593000   0.50461554   -9.2767955    479.86439 0.0087064443 0.0065689402         3937 
 4594000   0.50940122   -9.2834016    479.52847 0.0086984558 0.0065663558         3953 
 4595000   0.52313475   -9.2823978    479.38442 0.0086939504 0.0065637739         3946 
 4596000   0.51758816   -9.2643893    479.94571 0.0087022359 0.0065611923         3941 
 4597000   0.51467422   -9.2564246    479.89722 0.0086994637 0.0065586123         3924 
 4598000   0.53169599   -9.2770816    480.01236 0.0086996586 0.0065560345         3940 
 4599000   0.51264552    -9.269594    479.74317 0.0086928892  0.006553456         3927 
 4600000   0.52730658   -9.2827128    480.03784 0.0086963376 0.0065508816         3935 
 4601000   0.50701461   -9.2931272    480.54895 0.0087037048 0.0065483074         3935 
 4602000   0.52555811   -9.2682313    479.61438 0.0086848902 0.0065457358         3940 
 4603000    0.5128565   -9.2787016    480.03404  0.008690601 0.0065431663         3946 
 4604000   0.50760934   -9.2932501    479.68368 0.0086823718 0.0065405964         3927 
 4605000   0.50915562   -9.2850601    480.14554 0.0086888443  0.006538026         3947 
 4606000   0.51255402   -9.2799161    480.04272 0.0086850977   0.00653546         3925 
 4607000   0.50980019   -9.2828164    479.95356 0.0086815998 0.0065328963         3925 
 4608000   0.49595669   -9.2678783    479.10274 0.0086643291 0.0065303316         3937 
 4609000   0.51933483   -9.2690563    479.68347  0.008672949 0.0065277694         3953 
 4610000   0.51642488   -9.2660849    479.97469 0.0086763321 0.0065252072         3954 
 4611000   0.51030787   -9.2795532    480.69613 0.0086874888 0.0065226467         3932 
 4612000   0.51788353   -9.2574055     480.3457 0.0086792732 0.0065200889         3935 
 4613000   0.51299147   -9.2595245    479.87812  0.008668945 0.0065175335         3941 
 4614000   0.51614816   -9.2692852    480.23489 0.0086735097 0.0065149783         3930 
 4615000    0.5199775   -9.2874435    479.63963 0.0086608817 0.0065124235         3942 
 4616000   0.50804103   -9.2703964    479.79524 0.0086618147 0.0065098702         3921 
 4617000   0.51308032   -9.2762588    480.12179 0.0086658327 0.0065073191         3941 
 4618000   0.51526069   -9.2816176    479.59303 0.0086544144 0.0065047698         3951 
 4619000    0.5194357   -9.2769003    478.37295 0.0086305288 0.0065022221         3945 
 4620000   0.51241817   -9.2863995    479.95942 0.0086572768 0.0064996759         3937 
 4621000   0.51385412   -9.2851382    479.31593 0.0086437988 0.0064971286         3932 
 4622000   0.51356565   -9.2907031    480.15892 0.0086571275 0.0064945831         3935 
 4623000    0.5110202   -9.2637011    480.10049 0.0086542016 0.0064920396         3938 
 4624000   0.50577311   -9.2749656    480.37284 0.0086572384 0.0064894968         3934 
 4625000   0.51433198   -9.2908034    480.07706 0.0086500371 0.0064869545         3927 
 4626000   0.51144323   -9.2701029    480.31648 0.0086524801 0.0064844146         3933 
 4627000   0.49013274   -9.2743297    479.58015 0.0086373488 0.0064818777         3932 
 4628000    0.5036769    -9.295183    480.89985 0.0086592453 0.0064793412         3943 
 4629000   0.50662718   -9.2682277    479.50755   0.00863231 0.0064768044         3943 
 4630000   0.49729402   -9.2770861     479.1632 0.0086242477 0.0064742698         3945 
 4631000   0.50833591   -9.2907044    479.00528 0.0086195436 0.0064717359         3935 
 4632000   0.52681526   -9.2861256    480.50313 0.0086446302 0.0064692041         3954 
 4633000   0.51248679   -9.2738844    479.97401 0.0086332472 0.0064666728         3939 
 4634000   0.50189503   -9.2965708    479.57434 0.0086241968 0.0064641436         3929 
 4635000   0.52395416   -9.2798411    479.68632 0.0086243495 0.0064616167         3930 
 4636000   0.52394305   -9.2835566    479.62034 0.0086213033  0.006459092         3944 
 4637000   0.50671322   -9.2848544    479.79291 0.0086225454 0.0064565684         3940 
 4638000   0.51448486   -9.2869923     479.9548 0.0086235949 0.0064540443         3923 
 4639000   0.49710875    -9.277061    479.73904 0.0086178602 0.0064515213         3933 
 4640000   0.51586909   -9.2877977    479.95574 0.0086198948 0.0064490001         3940 
 4641000   0.50897293   -9.2912986    479.18363 0.0086041735 0.0064464794         3940 
 4642000   0.51552365   -9.2907562    479.23991 0.0086033303 0.0064439597         3951 
 4643000    0.5032892   -9.2938046    480.35663 0.0086215203 0.0064414434         3951 
 4644000   0.50925925   -9.2923656    479.08546 0.0085968537 0.0064389281         3947 
 4645000   0.50814466   -9.2934799    479.59533 0.0086041502  0.006436414         3939 
 4646000   0.50310301   -9.2795524    480.21057 0.0086133335 0.0064339031         3919 
 4647000    0.5084792   -9.2878651    480.17779 0.0086108921 0.0064313904         3927 
 4648000   0.50787674   -9.3032925      479.224 0.0085919392 0.0064288793         3940 
 4649000   0.50052585   -9.2951016    480.35681 0.0086103967 0.0064263697         3944 
 4650000   0.51088449   -9.2778816    479.95559 0.0086013546 0.0064238629         3946 
 4651000   0.50669315   -9.2847413    480.26265 0.0086050069 0.0064213566         3932 
 4652000   0.50891469   -9.2825851    480.03895   0.00859915 0.0064188506         3930 
 4653000   0.51200536   -9.2862083    479.46518  0.008587026 0.0064163452         3936 
 4654000   0.51530582   -9.3054583    480.00436 0.0085948352 0.0064138439         3947 
 4655000   0.48734619   -9.2732734    479.64591  0.008586572  0.006411342         3942 
 4656000   0.51595382   -9.2786412    479.98808 0.0085908519 0.0064088411         3945 
 4657000   0.50487813   -9.2820564    479.99346 0.0085891035 0.0064063441         3936 
 4658000   0.50038707    -9.288791    479.23499 0.0085736903 0.0064038463         3937 
 4659000   0.51929773   -9.2804259    479.30844 0.0085731638   0.00640135         3945 
 4660000   0.51471553   -9.2885094    479.08476  0.008567324 0.0063988557         3926 
 4661000   0.50041751   -9.2928474    479.62544 0.0085751527 0.0063963622         3933 
 4662000   0.51316124   -9.3063778    478.94651 0.0085611775 0.0063938716         3942 
 4663000   0.50134352   -9.2929866    479.06791  0.008561511 0.0063913814         3941 
 4664000   0.50065264   -9.3013243    479.43167 0.0085661748 0.0063888928         3930 
 4665000   0.50077073   -9.2987968    479.47629 0.0085651355 0.0063864056         3935 
 4666000   0.50541324   -9.3009912    478.93557 0.0085536428   0.00638392         3946 
 4667000   0.50588612    -9.283585    479.14583 0.0085555645 0.0063814341         3945 
 4668000   0.50773468   -9.2948881    478.73008 0.0085463096 0.0063789494         3930 
 4669000   0.51242503   -9.2742571     479.3327  0.008555235 0.0063764667         3930 
 4670000   0.50334933   -9.3038394    478.74764 0.0085429629 0.0063739841         3940 
 4671000   0.50423237   -9.2922287    479.86277 0.0085610285 0.0063715059         3938 
 4672000    0.4965868   -9.2918046    479.69001 0.0085561146  0.006369028         3939 
 4673000   0.50004811   -9.2781895    479.74685 0.0085552972 0.0063665519         3940 
 4674000   0.49766894   -9.2846772    480.27897  0.008562954 0.0063640788         3954 
 4675000   0.50675417   -9.2799818      479.716 0.0085510874 0.0063616049         3949 
 4676000   0.49907695   -9.3046238    479.29348 0.0085417286 0.0063591317         3950 
 4677000   0.50475124   -9.3016861    479.20542 0.0085383334 0.0063566585         3932 
 4678000   0.49291759   -9.2993648    479.46664 0.0085411615 0.0063541892         3950 
 4679000   0.49520069   -9.2917868    479.13041 0.0085333477 0.0063517182         3938 
 4680000   0.51124777   -9.2715457     479.4434 0.0085370977 0.0063492499         3953 
 4681000   0.50939414   -9.2919916    479.37423 0.0085340424  0.006346783         3929 
 4682000   0.50274681   -9.2992038    479.61419 0.0085364906 0.0063443163         3946 
 4683000   0.48926284   -9.3004415    479.48968 0.0085324522 0.0063418499         3942 
 4684000   0.50587997   -9.2939832     479.6842 0.0085340913 0.0063393867         3928 
 4685000   0.51549338   -9.2852443    479.40389 0.0085272837 0.0063369262         3937 
 4686000   0.50990884   -9.2952731    479.40322  0.008525452 0.0063344661         3929 
 4687000   0.50445669   -9.2883443    479.51319 0.0085255884 0.0063320068         3943 
 4688000   0.49642886   -9.2883643    480.05898 0.0085334717 0.0063295516         3936 
 4689000   0.49516853   -9.3011467     479.9699 0.0085300686 0.0063270947         3938 
 4690000   0.49728956   -9.2767667    479.62663 0.0085221506 0.0063246398         3942 
 4691000   0.49192194   -9.2988014    479.34311 0.0085152973 0.0063221853         3936 
 4692000   0.50953847   -9.2922472    479.55383  0.008517225  0.006319735         3931 
 4693000   0.50861344   -9.2929826    479.17114 0.0085086145 0.0063172835         3932 
 4694000   0.50676758   -9.3099458    478.75998 0.0084995026 0.0063148317         3940 
 4695000   0.49167219   -9.3060409    479.19788 0.0085054647 0.0063123824         3940 
 4696000   0.50379233   -9.2934881    479.44793 0.0085080907 0.0063099345         3939 
 4697000   0.49889188   -9.3021505    479.15943 0.0085011608 0.0063074888         3927 
 4698000   0.51224849   -9.3069671    480.14332 0.0085168036 0.0063050442         3930 
 4699000   0.49614039   -9.2865223    479.07133 0.0084959801 0.0063025989         3944 
 4700000   0.50258642   -9.2807112    479.07677  0.008494269 0.0063001551         3948 
 4701000   0.49964148   -9.3014612    478.94327 0.0084900956 0.0062977138         3944 
 4702000   0.50019293    -9.300426    478.67817 0.0084835916 0.0062952755         3920 
 4703000   0.50197153   -9.2891884    479.10194 0.0084892966 0.0062928378         3935 
 4704000   0.49684581   -9.2962487    479.64532  0.008497118 0.0062904002         3932 
 4705000   0.49771304    -9.280593    478.42082 0.0084736242 0.0062879653         3943 
 4706000   0.51454166   -9.3009245    479.46846 0.0084903751 0.0062855302         3941 
 4707000   0.49977821   -9.2810694    479.04818 0.0084811306 0.0062830955         3927 
 4708000   0.49391762   -9.3116297     479.3404 0.0084845016 0.0062806634         3952 
 4709000   0.49711972   -9.3051591    478.97439 0.0084762226 0.0062782335         3951 
 4710000    0.4854054   -9.3105758    478.92052   0.00847347 0.0062758026         3932 
 4711000   0.49968297   -9.3020838    479.83707 0.0084878843 0.0062733752         3914 
 4712000   0.49757181   -9.2870305    478.98781 0.0084710635 0.0062709471         3921 
 4713000   0.50042359    -9.304273    479.43616 0.0084771936 0.0062685208         3932 
 4714000   0.49678396   -9.2969339    479.33514 0.0084736094 0.0062660948         3930 
 4715000   0.49610941   -9.3051915     479.6813 0.0084779303 0.0062636718         3937 
 4716000   0.48822047   -9.3064273     478.8434 0.0084613266 0.0062612498         3933 
 4717000    0.5014547   -9.3137615      478.668 0.0084564342 0.0062588293         3934 
 4718000   0.49051027   -9.3198941    478.51145 0.0084518768 0.0062564087         3941 
 4719000   0.49671114   -9.2974895    479.19337 0.0084621277 0.0062539914         3945 
 4720000   0.48594196   -9.2842926    479.23972 0.0084611533 0.0062515729         3929 
 4721000   0.50105584   -9.2960568    479.46915 0.0084634109 0.0062491586         3937 
 4722000   0.50566294   -9.3090002    480.09375 0.0084726413 0.0062467458         3940 
 4723000   0.49997081   -9.3168256    479.33016 0.0084573746 0.0062443325         3948 
 4724000   0.49540837   -9.3055839    478.94108 0.0084487207 0.0062419198         3955 
 4725000     0.492164   -9.3074968    478.86449 0.0084455819 0.0062395085         3929 
 4726000   0.49898085   -9.2963373    479.70612 0.0084586351 0.0062370978         3930 
 4727000   0.49431055   -9.2869525     479.0423 0.0084451431 0.0062346901         3933 
 4728000   0.48657239   -9.3128331    477.91516 0.0084234905 0.0062322826         3937 
 4729000   0.49873199     -9.31606    478.64578 0.0084345842 0.0062298763         3941 
 4730000    0.4882342   -9.2996793    479.08364 0.0084405152 0.0062274709         3954 
 4731000   0.49643764   -9.3091506    479.02041 0.0084376173  0.006225067         3933 
 4732000   0.49046605   -9.2971466    478.82975 0.0084324766 0.0062226645         3924 
 4733000   0.49336402   -9.3298015     478.9953 0.0084336097 0.0062202629         3949 
 4734000   0.49969275   -9.3133429    478.90713 0.0084302763 0.0062178611         3936 
 4735000   0.49793301   -9.3091512    479.31415 0.0084356592 0.0062154641         3951 
 4736000    0.5047633   -9.3202309    479.83772 0.0084430906 0.0062130672         3937 
 4737000   0.49471902    -9.319839     478.9659 0.0084259711 0.0062106693         3938 
 4738000    0.4927846   -9.3027061    478.86219 0.0084223687 0.0062082746         3938 
 4739000   0.49485687   -9.3096949    479.57203 0.0084330736 0.0062058802         3942 
 4740000     0.492298   -9.3177166    479.52087 0.0084303951 0.0062034895         3948 
 4741000   0.49666487   -9.3039105    478.98892 0.0084192667 0.0062010974         3932 
 4742000    0.4943584   -9.2981378    479.71557  0.008430261 0.0061987086         3943 
 4743000   0.49703301   -9.3104049    478.77658 0.0084119857 0.0061963198         3940 
 4744000   0.49493224   -9.3086502    479.28388 0.0084191238 0.0061939308         3931 
 4745000   0.49462539   -9.3184218    479.16073 0.0084151867 0.0061915438         3942 
 4746000   0.49036565    -9.293305    478.99921 0.0084105775 0.0061891596         3941 
 4747000   0.49553203   -9.3330192    479.07287 0.0084100988 0.0061867764         3945 
 4748000   0.49165248   -9.3005915    479.70961 0.0084195032 0.0061843945         3924 
 4749000   0.49150555   -9.3166537    479.17126 0.0084082835 0.0061820129         3928 
 4750000   0.49690321    -9.307338    478.93489 0.0084023664  0.006179634         3936 
 4751000   0.49908356   -9.3142472    479.74038 0.0084147265 0.0061772548         3940 
 4752000   0.48874864   -9.3139394    479.64958 0.0084113634 0.0061748796         3936 
 4753000    0.4835111   -9.3240396       478.66 0.0083922435 0.0061725026         3941 
 4754000   0.49618867   -9.3015407    479.56535 0.0084063482 0.0061701265         3938 
 4755000   0.49096504   -9.3107153    478.29958 0.0083823972 0.0061677542         3938 
 4756000   0.48457657   -9.3020239    479.06786 0.0083940962 0.0061653818         3933 
 4757000   0.47739923   -9.3006495    478.97418 0.0083906906 0.0061630112         3938 
 4758000   0.48880763   -9.3113776    479.21871 0.0083932099 0.0061606419         3937 
 4759000   0.48855176   -9.3047853    478.25006 0.0083744846 0.0061582729         3931 
 4760000   0.48315196    -9.312639    478.91955  0.008384446 0.0061559059         3924 
 4761000   0.49933406   -9.3157168    479.65002 0.0083954706 0.0061535385         3945 
 4762000   0.49127761   -9.3080798    478.97302 0.0083818602 0.0061511723         3939 
 4763000   0.48434277   -9.3293581    478.93735 0.0083794763 0.0061488066         3943 
 4764000   0.49683971   -9.3045083    478.95435 0.0083780147 0.0061464439         3932 
 4765000   0.49034908   -9.3008515    478.74136 0.0083725317 0.0061440836         3922 
 4766000   0.47512727   -9.3109705    478.21739 0.0083616133 0.0061417244         3956 
 4767000   0.47765261   -9.3036733    479.00648 0.0083736537 0.0061393663         3943 
 4768000   0.49178706   -9.3116755     479.9182 0.0083878322 0.0061370091         3953 
 4769000   0.48218669   -9.3255239     478.5303 0.0083618212 0.0061346517         3942 
 4770000   0.48455566   -9.3044895    478.60222 0.0083613247 0.0061322981         3934 
 4771000   0.48591281   -9.3186046    479.14302 0.0083690181 0.0061299454         3950 
 4772000   0.48792623   -9.3063649    479.20401 0.0083683294 0.0061275915         3945 
 4773000   0.48078871   -9.3173839    478.18094  0.008348714 0.0061252393         3947 
 4774000    0.4813781   -9.3126904    479.84824 0.0083760689 0.0061228872         3949 
 4775000   0.48495139   -9.3186449    478.87826 0.0083573867 0.0061205386         3943 
 4776000   0.48242174   -9.3192688    479.12048 0.0083598633 0.0061181907         3950 
 4777000   0.48713676   -9.3206194    477.78243 0.0083347714 0.0061158458         3948 
 4778000   0.48275149   -9.3039801    478.79516   0.00835069 0.0061134994         3955 
 4779000   0.48559086   -9.3225981     478.8117  0.008349231 0.0061111565         3941 
 4780000   0.48228713    -9.323792    478.56902 0.0083432535 0.0061088132         3940 
 4781000   0.48590543   -9.3176777    478.67494 0.0083433546 0.0061064736         3938 
 4782000    0.4916416   -9.3129753    478.61788 0.0083406156 0.0061041347         3940 
 4783000   0.49796076   -9.3206429    479.10004 0.0083472722  0.006101796         3946 
 4784000   0.48238094   -9.3167131    479.42517  0.008351191 0.0060994596         3931 
 4785000   0.49292986   -9.3133392     479.3975 0.0083489637 0.0060971239         3943 
 4786000   0.49244208   -9.3234455    478.40667  0.008329967 0.0060947913         3941 
 4787000   0.47463319   -9.3056205    478.99589 0.0083384842 0.0060924582         3934 
 4788000   0.48416771   -9.3293859    478.82635  0.008333792 0.0060901239         3930 
 4789000   0.47995508   -9.3245104    479.00364 0.0083351368 0.0060877915         3940 
 4790000     0.494577   -9.3005819    478.44185 0.0083236231 0.0060854593         3924 
 4791000   0.47823373   -9.3167258    478.85088 0.0083290001 0.0060831298         3949 
 4792000   0.47993831   -9.3295592     478.6502 0.0083237723 0.0060808018         3934 
 4793000   0.47709039   -9.3155563    478.30865 0.0083160973 0.0060784741         3947 
 4794000   0.48249566    -9.326051    479.07048 0.0083276053 0.0060761469         3927 
 4795000   0.48416758   -9.3173294    479.02114 0.0083250112 0.0060738222         3939 
 4796000   0.48407056   -9.3160709    479.08024 0.0083243022  0.006071497         3957 
 4797000   0.48238586    -9.304185    479.88591  0.008336563 0.0060691758         3935 
 4798000   0.48551181   -9.3153935    478.37952 0.0083086619 0.0060668539         3929 
 4799000   0.47652318   -9.3263691    478.78939 0.0083140479 0.0060645318         3948 
 4800000   0.48149786   -9.3292049    479.09519 0.0083176247  0.006062212         3937 
 4801000   0.47285144    -9.332204       479.26  0.008318753 0.0060598951         3939 
 4802000   0.48355735   -9.3230405    478.75814 0.0083083115 0.0060575787         3947 
 4803000   0.48954659   -9.3250963    478.89151 0.0083088957 0.0060552638         3944 
 4804000    0.4815294   -9.3105467     478.7993 0.0083055666 0.0060529492         3920 
 4805000   0.47948698   -9.3002555    479.33981  0.008313212  0.006050636         3942 
 4806000   0.48298493   -9.3181109     478.8317  0.008302672 0.0060483247         3927 
 4807000   0.47901396   -9.3156362    479.30484  0.008309147 0.0060460153         3948 
 4808000    0.4799492   -9.3027465    478.53834 0.0082941337  0.006043705         3934 
 4809000   0.49340308    -9.309276    478.56444 0.0082928613 0.0060413975         3932 
 4810000   0.48168284   -9.3359996      477.828 0.0082783784   0.00603909         3947 
 4811000   0.49221444   -9.3153749    479.07219 0.0082982087 0.0060367843         3930 
 4812000    0.4893341   -9.3231314    478.91486 0.0082937596 0.0060344805         3919 
 4813000   0.48404924   -9.3250703    478.53628 0.0082854816 0.0060321782         3945 
 4814000   0.47780644   -9.3405448    478.46422 0.0082825131 0.0060298744         3942 
 4815000   0.47972827   -9.3222861    478.32043 0.0082783044 0.0060275746         3952 
 4816000   0.48400164   -9.3275239    478.63193 0.0082819756 0.0060252766         3946 
 4817000   0.48307698    -9.327184    478.70262 0.0082814792 0.0060229787         3933 
 4818000   0.48382259    -9.336887    478.94802 0.0082840048 0.0060206833         3924 
 4819000   0.48545334   -9.3255673     478.2865 0.0082708463 0.0060183874         3939 
 4820000   0.47643089   -9.3135952    478.50748  0.008272951 0.0060160927         3944 
 4821000   0.48004187   -9.3463585    479.14867 0.0082823181 0.0060137976         3921 
 4822000   0.47921075   -9.3389763     478.1284 0.0082629683 0.0060115037         3923 
 4823000   0.48294871   -9.3195356    478.94923 0.0082754376  0.006009213         3934 
 4824000   0.47569391   -9.3330908    479.10158  0.008276354 0.0060069226         3954 
 4825000   0.48649776   -9.3317168    478.62746   0.00826645 0.0060046338         3939 
 4826000   0.48411391   -9.3279827    478.61491 0.0082645205 0.0060023464         3938 
 4827000   0.47575453   -9.3233602    479.09853 0.0082711575 0.0060000609         3942 
 4828000   0.47999479   -9.3246868    478.93593 0.0082666378 0.0059977742         3932 
 4829000   0.47431586   -9.3172651      478.188  0.008252019 0.0059954888         3934 
 4830000   0.47935203   -9.3340678    478.16644 0.0082499386 0.0059932063         3927 
 4831000   0.47674699   -9.3359456    479.10474 0.0082644163 0.0059909243         3931 
 4832000   0.48068239   -9.3312446    478.29881 0.0082488067 0.0059886431         3938 
 4833000   0.47864995   -9.3241009    478.55791 0.0082515675 0.0059863636         3928 
 4834000   0.46977797   -9.3175007    478.72263 0.0082527001 0.0059840852         3934 
 4835000   0.47529257   -9.3451587    478.74354 0.0082513536  0.005981808         3935 
 4836000    0.4754037   -9.3260308    477.49005 0.0082280474 0.0059795316         3938 
 4837000    0.4829821   -9.3304931    478.47837 0.0082433735 0.0059772559         3946 
 4838000    0.4763215   -9.3360798    478.70917 0.0082456451 0.0059749817         3930 
 4839000   0.47980462   -9.3275463    478.59247 0.0082419314 0.0059727104         3936 
 4840000    0.4866081   -9.3339933    477.95167 0.0082291954 0.0059704388         3942 
 4841000   0.47246191    -9.318602      478.165 0.0082311678 0.0059681687         3950 
 4842000   0.47542027   -9.3224393    478.80429 0.0082404703 0.0059658992         3927 
 4843000   0.47200276   -9.3370315    478.44571 0.0082325988 0.0059636313         3935 
 4844000   0.47477835   -9.3270447     478.4943 0.0082317351 0.0059613643         3951 
 4845000   0.48551429   -9.3348283    478.06324 0.0082226219 0.0059590969         3937 
 4846000   0.48032942   -9.3335102    478.59373 0.0082300476  0.005956834         3935 
 4847000   0.47890573   -9.3384029    477.97352 0.0082176866 0.0059545713         3940 
 4848000    0.4831388    -9.328357    478.21884 0.0082202084 0.0059523077         3937 
 4849000   0.49084239   -9.3239647     477.7578 0.0082105898 0.0059500456         3931 
 4850000   0.47458667   -9.3304503    478.65209 0.0082242627 0.0059477857         3950 
 4851000   0.47243787   -9.3408212    478.81902 0.0082254349 0.0059455259         3934 
 4852000   0.47350948   -9.3180279     477.9648 0.0082090685 0.0059432675         3944 
 4853000   0.47581512    -9.333385    478.40803 0.0082149879 0.0059410097         3934 
 4854000   0.48200909   -9.3288751    477.31052 0.0081944534 0.0059387552         3931 
 4855000   0.47572211   -9.3427685    478.62651 0.0082153538 0.0059365022         3936 
 4856000   0.47546269   -9.3292968    478.13577 0.0082052404 0.0059342487         3941 
 4857000   0.47637597   -9.3273824    478.82067 0.0082153021 0.0059319962         3934 
 4858000   0.46852599   -9.3434961    478.21376 0.0082032003 0.0059297439         3958 
 4859000   0.46976807      -9.3343    478.44903 0.0082055469 0.0059274939         3938 
 4860000   0.47199902   -9.3292842    477.75813 0.0081920118 0.0059252438         3941 
 4861000   0.47543274   -9.3341531    478.30181  0.008199647 0.0059229967         3945 
 4862000   0.47020342   -9.3243969    478.15413 0.0081954293 0.0059207514         3936 
 4863000   0.48072042   -9.3261214    478.80105 0.0082048298 0.0059185081         3931 
 4864000   0.47804697   -9.3389581    478.60078 0.0081997117 0.0059162641         3929 
 4865000   0.47579774   -9.3441831    478.73404 0.0082003091  0.005914022         3942 
 4866000   0.46615512   -9.3338333    478.44792 0.0081937238 0.0059117806         3949 
 4867000    0.4675983   -9.3350032    478.68903 0.0081961685 0.0059095402         3948 
 4868000   0.47515222   -9.3350884    478.71574 0.0081949421 0.0059073008         3948 
 4869000   0.47958093   -9.3327626    477.70579 0.0081759738 0.0059050629         3946 
 4870000   0.47428727   -9.3425137    478.36223 0.0081855276 0.0059028256         3940 
 4871000   0.48270891   -9.3203861    477.85479 0.0081751658 0.0059005897         3945 
 4872000    0.4698491   -9.3300882     478.6619  0.008187293 0.0058983539         3944 
 4873000   0.46928566   -9.3348837    478.68076 0.0081859355 0.0058961201         3944 
 4874000   0.47989156   -9.3318449     477.8039 0.0081692638  0.005893886         3942 
 4875000   0.47689017   -9.3365191    478.99895 0.0081880162 0.0058916562         3939 
 4876000   0.47842285   -9.3362937    478.68254 0.0081809293 0.0058894256         3940 
 4877000   0.46899338   -9.3442745    479.04958 0.0081855236 0.0058871963         3952 
 4878000   0.47547447   -9.3408861    478.57986 0.0081758211 0.0058849674         3947 
 4879000   0.47577119   -9.3511462    477.81032 0.0081610017 0.0058827394         3943 
 4880000   0.47345006   -9.3458763    477.99932 0.0081625568 0.0058805139         3929 
 4881000   0.46420587   -9.3187684    478.22986 0.0081648203 0.0058782907         3953 
 4882000   0.47674086   -9.3299401    477.95487  0.008158454 0.0058760673         3941 
 4883000   0.46919646   -9.3406299    478.61086 0.0081679783 0.0058738452         3933 
 4884000   0.47734905     -9.34539    478.02526 0.0081563141 0.0058716229         3937 
 4885000   0.47229839   -9.3297287    478.93099 0.0081700953 0.0058694046         3940 
 4886000   0.47876976   -9.3394568    478.47386 0.0081606267  0.005867185         3950 
 4887000   0.47194866   -9.3377422    478.64494  0.008161874 0.0058649661         3950 
 4888000   0.47741536   -9.3471146    478.14896 0.0081517485 0.0058627493         3951 
 4889000   0.46023234   -9.3461611    478.53735 0.0081567013 0.0058605326         3941 
 4890000   0.45979727   -9.3456904    478.20493 0.0081493682 0.0058583193         3931 
 4891000   0.46765231   -9.3472659    477.68443 0.0081388337 0.0058561061         3942 
 4892000   0.46545757   -9.3601206     478.0424  0.008143268 0.0058538933         3937 
 4893000   0.46570961   -9.3353923    478.43768 0.0081483357 0.0058516822         3944 
 4894000   0.46790548   -9.3370119    478.09922 0.0081409076 0.0058494732         3949 
 4895000   0.47156664   -9.3536181    478.90665 0.0081529903 0.0058472655         3948 
 4896000   0.47439004   -9.3516458    478.27356 0.0081405494 0.0058450579         3945 
 4897000    0.4694089   -9.3410305    478.51904 0.0081430644 0.0058428504         3936 
 4898000   0.47242051   -9.3418529    477.65926 0.0081267738 0.0058406439         3937 
 4899000    0.4695309   -9.3587605    477.85472 0.0081284398 0.0058384394         3931 
 4900000   0.47099419   -9.3467921    478.14419 0.0081317039 0.0058362361         3931 
 4901000   0.46609111   -9.3540215    478.04643 0.0081283824 0.0058340353         3940 
 4902000   0.46914861   -9.3720732    478.08676 0.0081274099 0.0058318337         3949 
 4903000   0.46511078   -9.3461504    478.36073 0.0081304087 0.0058296338         3943 
 4904000   0.45720452   -9.3358933    478.51886  0.008131438 0.0058274358         3944 
 4905000   0.47076928   -9.3472562    478.57211 0.0081306849 0.0058252364         3948 
 4906000   0.46013849   -9.3428689    477.98313 0.0081190231 0.0058230397         3943 
 4907000   0.46621049   -9.3569259     478.2698  0.008122237  0.005820847         3936 
 4908000   0.46329274   -9.3505173    477.59373 0.0081091031 0.0058186533         3945 
 4909000   0.47042635   -9.3373242    477.96267 0.0081137141 0.0058164607         3945 
 4910000   0.47050535   -9.3517339    477.55464 0.0081051365 0.0058142676         3946 
 4911000   0.47034388    -9.336886     477.5168 0.0081028439 0.0058120773         3943 
 4912000    0.4631569   -9.3661543    478.76547 0.0081223784 0.0058098884         3948 
 4913000    0.4684601   -9.3559975    477.93664 0.0081066667 0.0058077004         3935 
 4914000   0.46702184   -9.3438884    477.66711 0.0081004461 0.0058055121         3935 
 4915000   0.46798608   -9.3541979    478.12398 0.0081065443 0.0058033275         3939 
 4916000   0.46908486   -9.3439574    478.38298 0.0081092856 0.0058011425         3944 
 4917000   0.46874871   -9.3428638    478.38493 0.0081076694 0.0057989594         3941 
 4918000    0.4608552   -9.3372649    478.18089 0.0081025635 0.0057967766         3941 
 4919000   0.47038082    -9.361903    477.58875 0.0080908848 0.0057945939         3957 
 4920000   0.45580713   -9.3411374    478.77229 0.0081092868 0.0057924127         3918 
 4921000   0.46026909   -9.3765009    478.05665 0.0080955201  0.005790232         3950 
 4922000   0.46639211   -9.3494225    478.18429 0.0080960364 0.0057880541         3950 
 4923000   0.47129525   -9.3487873    478.33758 0.0080969865 0.0057858765         3958 
 4924000   0.46495782   -9.3482295    478.05672  0.008090589 0.0057836992         3931 
 4925000   0.47091335   -9.3488016    477.73455 0.0080834949 0.0057815245         3945 
 4926000   0.45336477   -9.3600183    477.89976 0.0080846488 0.0057793498         3949 
 4927000   0.46121972   -9.3450867    478.39357 0.0080913601 0.0057771758         3958 
 4928000   0.45780883   -9.3542504    478.62547 0.0080936396  0.005775004         3954 
 4929000   0.47705163   -9.3451222    478.27887 0.0080861377 0.0057728343         3952 
 4930000   0.47749591   -9.3547508    478.57237 0.0080894585 0.0057706647         3940 
 4931000    0.4645535   -9.3441143    477.69501 0.0080729908 0.0057684959         3930 
 4932000   0.45863911   -9.3597867    477.86548 0.0080742343 0.0057663284         3923 
 4933000   0.45143953    -9.354238    478.72003 0.0080870333 0.0057641615         3931 
 4934000   0.46214082    -9.353583    477.68192  0.008067861 0.0057619956         3927 
 4935000    0.4653624   -9.3599803    477.59127 0.0080646956 0.0057598315         3951 
 4936000   0.46007361   -9.3507459    478.43526 0.0080773107 0.0057576687         3941 
 4937000   0.47006031   -9.3482822    478.40616 0.0080751833 0.0057555073         3940 
 4938000   0.47360889   -9.3576957    478.98255 0.0080832751 0.0057533463         3930 
 4939000   0.45126529   -9.3583353    477.85098 0.0080625461 0.0057511876         3953 
 4940000   0.46519892   -9.3661956    478.15564 0.0080660534 0.0057490288         3947 
 4941000   0.46455541   -9.3566513    478.62467 0.0080723313 0.0057468718         3945 
 4942000   0.45217318   -9.3422059    477.78824 0.0080565939 0.0057447146         3936 
 4943000   0.46649835   -9.3501402    478.33837 0.0080642384 0.0057425588         3952 
 4944000   0.45421215   -9.3713435    478.05459 0.0080578242 0.0057404034         3949 
 4945000   0.45505955   -9.3495608    478.11127 0.0080571497 0.0057382489         3943 
 4946000   0.45740654   -9.3509806    478.26366 0.0080580884 0.0057360969         3950 
 4947000   0.45618869   -9.3532586    477.98514 0.0080517677 0.0057339466         3950 
 4948000   0.45651816   -9.3550624    477.87218  0.008048238 0.0057317969         3942 
 4949000   0.45502467    -9.362732    478.15288 0.0080513383 0.0057296489         3945 
 4950000   0.45897137     -9.35524    478.15735  0.008049787 0.0057275027         3945 
 4951000   0.45519987   -9.3469541     477.6265  0.008039226 0.0057253545         3947 
 4952000   0.44040906   -9.3461187    477.60258    0.0080372 0.0057232085         3946 
 4953000   0.46902564    -9.345493    477.72903 0.0080377048 0.0057210629         3928 
 4954000   0.46065919   -9.3636926    477.84778 0.0080380801 0.0057189201         3939 
 4955000    0.4569839   -9.3613137    477.85158 0.0080365218 0.0057167783         3936 
 4956000   0.46267847   -9.3607769    478.43198 0.0080446594 0.0057146371         3941 
 4957000   0.45806756   -9.3472438    478.76292 0.0080485999 0.0057124961         3940 
 4958000   0.45170954   -9.3665989    478.51071 0.0080427374 0.0057103582         3939 
 4959000   0.45808701   -9.3624162    478.30715  0.008037695 0.0057082211         3944 
 4960000   0.46053258   -9.3579872    478.06095  0.008031938 0.0057060836         3956 
 4961000   0.46062027   -9.3607561    478.05701 0.0080302528 0.0057039481         3955 
 4962000   0.46467065   -9.3624479    477.43668 0.0080182164 0.0057018133         3939 
 4963000   0.45240036   -9.3628577    477.42123 0.0080163414  0.005699679         3943 
 4964000   0.45183757   -9.3472182    478.43217 0.0080316977 0.0056975468         3948 
 4965000   0.46342826   -9.3667066    478.67363 0.0080341327 0.0056954145         3947 
 4966000   0.45215212   -9.3605365    478.30589  0.008026344 0.0056932835         3948 
 4967000   0.45285432    -9.369185    477.78202 0.0080159388  0.005691154         3943 
 4968000   0.46093514   -9.3633408    477.97523 0.0080175662 0.0056890265         3943 
 4969000   0.44970402   -9.3692397    477.48395 0.0080077137 0.0056868984         3960 
 4970000   0.45691361   -9.3511161    477.56565 0.0080074723 0.0056847708         3941 
 4971000   0.45845286   -9.3604196    477.86933 0.0080109524 0.0056826451         3932 
 4972000   0.46066363   -9.3637411    477.74054 0.0080071826 0.0056805209         3936 
 4973000   0.45030347   -9.3633455    477.26657 0.0079976301  0.005678397         3931 
 4974000   0.46575746   -9.3620943    477.53518 0.0080005224 0.0056762747         3941 
 4975000   0.45292457   -9.3478608    477.50297 0.0079983746 0.0056741533         3935 
 4976000   0.45235279   -9.3652502    478.38332 0.0080115107 0.0056720333         3955 
 4977000   0.45877506   -9.3725745    478.24029  0.008007506 0.0056699151         3949 
 4978000   0.45273164   -9.3605828    477.90926 0.0080003559 0.0056677971         3939 
 4979000   0.46454639   -9.3703158    478.00196 0.0080003007  0.005665681         3948 
 4980000     0.451964   -9.3552203    477.80883 0.0079954624  0.005663566         3948 
 4981000   0.45189421   -9.3597763    477.50272 0.0079887359 0.0056614537         3944 
 4982000   0.45712654   -9.3663954    478.07537  0.007996711 0.0056593398         3942 
 4983000   0.45037998   -9.3614891    477.84946 0.0079913282 0.0056572278         3946 
 4984000   0.45880477   -9.3684529    478.05785  0.007993209 0.0056551151         3950 
 4985000   0.45175772   -9.3613599    477.51136 0.0079824701 0.0056530036         3931 
 4986000   0.44667713   -9.3622992    477.09522 0.0079739139 0.0056508961         3946 
 4987000   0.45635447   -9.3671842    477.92855   0.00798624 0.0056487882         3948 
 4988000   0.45139948   -9.3555476    478.11122 0.0079876907 0.0056466821         3948 
 4989000   0.45477412   -9.3421353    477.93622 0.0079831666 0.0056445762         3944 
 4990000   0.46508123   -9.3744707    478.03587 0.0079832309 0.0056424723         3949 
 4991000   0.45851253   -9.3561619    477.42594 0.0079714477 0.0056403694         3950 
 4992000   0.45741038   -9.3525131    477.99411 0.0079793355 0.0056382674         3950 
 4993000   0.44993854   -9.3678508    477.44146 0.0079685136 0.0056361671         3940 
 4994000   0.44350238   -9.3693949    477.83606 0.0079735026 0.0056340672         3949 
 4995000   0.46016059   -9.3651756    478.16982 0.0079774744 0.0056319662         3956 
 4996000   0.45444543   -9.3672828    477.83363   0.00797027 0.0056298682         3939 
 4997000   0.45026246   -9.3709345    478.29198 0.0079763187 0.0056277723         3950 
 4998000   0.45075751   -9.3633723    477.92288 0.0079685688 0.0056256775         3943 
 4999000    0.4483882   -9.3661116     477.8615 0.0079659515 0.0056235818         3946 
 5000000   0.45899123   -9.3729727     478.1105 0.0079685083 0.0056214877         3946 
 5001000   0.45473815   -9.3549634     477.7461 0.0079608429 0.0056193941         3939 
 5002000   0.44949317   -9.3503676    477.61387 0.0079570484  0.005617302         3949 
 5003000    0.4552953   -9.3687296    478.02161 0.0079622494 0.0056152106         3938 
 5004000    0.4469462   -9.3717876    477.57051 0.0079531459 0.0056131207         3950 
 5005000   0.45344246   -9.3623673    477.62955   0.00795254 0.0056110332         3936 
 5006000   0.45143432   -9.3782318    477.82868 0.0079542663 0.0056089449         3949 
 5007000   0.44419348   -9.3753794    477.55198 0.0079480724 0.0056068587         3928 
 5008000   0.43617565    -9.362828    477.56688 0.0079467332 0.0056047721         3957 
 5009000   0.45710847   -9.3739162    477.92428 0.0079510927 0.0056026872         3939 
 5010000   0.45644874   -9.3710608    478.30447 0.0079558294  0.005600604         3935 
 5011000   0.45077274   -9.3654281    477.70481 0.0079442694 0.0055985222         3943 
 5012000   0.44348975    -9.366595     478.1619 0.0079502844 0.0055964401         3947 
Loop time of 13254.9 on 48 procs for 5000000 steps with 4000 atoms

Performance: 65183.583 tau/day, 377.220 timesteps/s
99.4% CPU use with 48 MPI tasks x no OpenMP threads

MPI task timing breakdown:
Section |  min time  |  avg time  |  max time  |%varavg| %total
---------------------------------------------------------------
Pair    | 984.12     | 1112       | 1200       | 176.5 |  8.39
Neigh   | 92.609     | 98.971     | 102.12     |  20.9 |  0.75
Comm    | 853.37     | 947.55     | 1113.1     | 207.8 |  7.15
Output  | 18.599     | 18.605     | 18.746     |   0.5 |  0.14
Modify  | 10871      | 10949      | 11002      |  31.1 | 82.60
Other   |            | 129.2      |            |       |  0.97

Nlocal:        83.3333 ave          90 max          75 min
Histogram: 2 0 2 3 8 10 13 6 3 1
Nghost:        2455.83 ave        2481 max        2437 min
Histogram: 2 6 10 3 4 16 1 3 1 2
Neighs:        17148.4 ave       19252 max       14019 min
Histogram: 1 0 1 7 10 9 3 5 6 6
FullNghs:      34296.8 ave       37139 max       29749 min
Histogram: 2 0 0 4 2 13 12 10 3 2

Total # of neighbors = 1646247
Ave neighs/atom = 411.56175
Neighbor list builds = 265817
Dangerous builds = 2

#clear
#
#next RN
#
#jump SELF
Total wall time: 3:40:58
