
units lj                  # Use reduced LJ style units
atom_style atomic         # Uncharged point particles
atom_modify map hash      # Needed for indexing of clusters etc
                          # Used to be able to find where atoms are in relation to each other.

lattice fcc 1.0 spacing 1 1 1
Lattice spacing in x,y,z = 1.5874011 1.5874011 1.5874011
region box block 0 10 0 10 0 10 units lattice
create_box 2 box
Created orthogonal box = (0.0000000 0.0000000 0.0000000) to (15.874011 15.874011 15.874011)
  3 by 4 by 4 MPI processor grid
create_atoms 1 box
Created 4000 atoms
  using lattice units in orthogonal box = (0.0000000 0.0000000 0.0000000) to (15.874011 15.874011 15.874011)
  create_atoms CPU = 0.002 seconds
set type 1 type/fraction 2 0.09 78393
Setting atom values ...
  390 settings made for type/fraction
mass 1 1.0
mass 2 1.0
pair_style lj/cut  3.5
pair_modify tail  yes
pair_coeff 1  1  1.0  1.0   # Intearaction between 1 and 1 set with epsilon = 1 and sigma = 1
pair_coeff 1  2  1.5  0.8
pair_coeff 2  2  0.5  0.88

write_data data.0
System init for write_data ...
Neighbor list info ...
  update every 1 steps, delay 10 steps, check yes
  max neighbors/atom: 2000, page size: 100000
  master list distance cutoff = 3.8
  ghost atom cutoff = 3.8
  binsize = 1.9, bins = 9 9 9
  1 neighbor lists, perpetual/occasional/extra = 1 0 0
  (1) pair lj/cut, perpetual
      attributes: half, newton on
      pair build: half/bin/atomonly/newton
      stencil: half/bin/3d
      bin: standard
WARNING: Not all mixed pair coeffs generated from mixing. Use write_data with 'pair ij' option to store all pair coeffs. (../write_data.cpp:312)


#############################
#   M E L T   S Y S T E M   #
#############################

velocity all create 2.4 2750902 mom yes dist gaussian # Assign velocities
                                                    # Temperature 2.4, random number seed, zero linear momentum
                                                                                # Gaussian distribution

timestep 0.002   # simulation timestep
thermo 1000       # output thermodynamic data every 1000 steps bf 100

# Define a fix  in this case with index 1 applied to all
# particles in the simulation. This fix is for simulations
# in the anisotropic NPT ensemble. Note that we use the MTK
# correction.
fix 1 all npt temp 2.4 2.4 0.1 iso 5.68 5.68 0.5 mtk yes tchain 5 pchain 5 # Use NPT ensemble
                                                                         # Set temperature and pressure and damping
                                                                         # Numbers of thermostats in chain and in barostat
run 10000          # run for 10000 steps
Per MPI rank memory allocation (min/avg/max) = 3.642 | 3.644 | 3.648 Mbytes
Step Temp E_pair E_mol TotEng Press Volume 
       0          2.4   -7.7460071            0   -4.1469071   -2.9736732         4000 
    1000      2.43161   -4.6055977            0  -0.95909453    5.5999737    4868.8748 
    2000    2.3853816   -4.5854959            0   -1.0083181    5.6310088    4871.9698 
    3000     2.434958   -4.5984344            0  -0.94691053    5.5175358     4888.471 
    4000    2.3841654   -4.5833461            0    -1.007992    5.6941198    4867.9395 
    5000    2.4345153   -4.6723615            0   -1.0215015    5.6618183     4828.129 
    6000    2.4075354   -4.5467302            0   -0.9363299    5.8012343     4878.669 
    7000    2.4301013   -4.5978153            0  -0.95357471    5.7142696    4868.2731 
    8000    2.4023417   -4.5928931            0  -0.99028145    5.5927528    4883.8747 
    9000    2.3722623   -4.6367393            0   -1.0792354    5.5651519    4860.5034 
   10000    2.3542911   -4.6184207            0   -1.0878668    5.4841158    4878.1282 
Loop time of 2.19978 on 48 procs for 10000 steps with 4000 atoms

Performance: 785534.212 tau/day, 4545.916 timesteps/s
99.6% CPU use with 48 MPI tasks x no OpenMP threads

MPI task timing breakdown:
Section |  min time  |  avg time  |  max time  |%varavg| %total
---------------------------------------------------------------
Pair    | 0.91686    | 0.96093    | 1.1081     |   3.4 | 43.68
Neigh   | 0.18976    | 0.19857    | 0.23183    |   1.7 |  9.03
Comm    | 0.64785    | 0.7818     | 0.87015    |   5.3 | 35.54
Output  | 0.00023928 | 0.00024454 | 0.00030659 |   0.0 |  0.01
Modify  | 0.18775    | 0.24396    | 0.29618    |   6.8 | 11.09
Other   |            | 0.01427    |            |       |  0.65

Nlocal:        83.3333 ave          93 max          76 min
Histogram: 2 11 4 3 10 8 2 4 3 1
Nghost:        1441.42 ave        1470 max        1419 min
Histogram: 4 4 6 7 8 7 4 5 0 3
Neighs:        7811.81 ave        9032 max        6736 min
Histogram: 3 3 6 10 3 10 4 4 3 2

Total # of neighbors = 374967
Ave neighs/atom = 93.741750
Neighbor list builds = 906
Dangerous builds = 221

# Equilibrate just above the melting temperature to avoid step fn in T

fix 1 all npt temp 1.25 1.25 0.1 iso 5.68 5.68 0.5 mtk yes tchain 5 pchain 5
run 2000
Per MPI rank memory allocation (min/avg/max) = 3.642 | 3.644 | 3.648 Mbytes
Step Temp E_pair E_mol TotEng Press Volume 
   10000    2.3542911   -4.6184207            0   -1.0878668    5.4841158    4878.1282 
   11000    1.2569479   -6.1921653            0   -4.3072148    5.2667685    4031.6353 
   12000    1.2328903   -6.1989869            0   -4.3501137    5.1814084    4037.6937 
Loop time of 0.526413 on 48 procs for 2000 steps with 4000 atoms

Performance: 656518.261 tau/day, 3799.295 timesteps/s
99.4% CPU use with 48 MPI tasks x no OpenMP threads

MPI task timing breakdown:
Section |  min time  |  avg time  |  max time  |%varavg| %total
---------------------------------------------------------------
Pair    | 0.20741    | 0.2237     | 0.24654    |   1.7 | 42.50
Neigh   | 0.031017   | 0.032903   | 0.036527   |   0.6 |  6.25
Comm    | 0.16175    | 0.18247    | 0.2066     |   2.7 | 34.66
Output  | 5.1101e-05 | 5.2684e-05 | 7.1184e-05 |   0.0 |  0.01
Modify  | 0.061869   | 0.082815   | 0.095817   |   2.6 | 15.73
Other   |            | 0.004476   |            |       |  0.85

Nlocal:        83.3333 ave          91 max          73 min
Histogram: 2 1 2 3 5 11 9 9 4 2
Nghost:        1631.15 ave        1663 max        1609 min
Histogram: 2 1 9 8 14 11 2 0 0 1
Neighs:        9454.98 ave       10445 max        8210 min
Histogram: 3 1 1 7 8 8 5 7 4 4

Total # of neighbors = 453839
Ave neighs/atom = 113.45975
Neighbor list builds = 142
Dangerous builds = 12

#############################
# L I N E A R  Q U E N C H  #
#############################

# Define solid atoms. This closely follows ten Wolde  Ruiz-Montero and Frenkel  Faraday Discuss  1996  104  93-110
# Compute components of the per-atom q6 vector
compute q6 all orientorder/atom degrees 1 6 components 6 nnn NULL cutoff 1.3 # compute the Q6 parameter.
                                                                             # Use all neighbours within 1.3 unit cell.

# get number of connections
compute coord_number all coord/atom orientorder q6 0.5

# An atom is solid if it has 8 or more connections (of a possible 14)
variable is_solid atom c_coord_number>=8
group solid dynamic all var is_solid    # Must be dynamic to update
dynamic group solid defined

# do clustering
compute cluster solid cluster/atom 1.3 # Create a cluster where all atoms within are solid and max 1.3 units from another member

# define chunks one chunk per cluster
compute clus_chunks solid chunk/atom c_cluster nchunk every compress yes  # Says which atoms are in which chunk

# count the size of each chunk
compute size_chunks solid property/chunk clus_chunks count


# Find the maximum entry in the vector of chunk sizes
variable max_n equal max(c_size_chunks)


# Thermo style which includes this variable
# thermo_style custom step temp pe vol v_max_n

thermo ${N}  # Print the thermo information every 100 steps
thermo 1000  

# Reset the npt fix at a lower temperature (below freezing)
fix 1  all npt temp  ${temp} ${temp}  0.1  iso  5.68  5.68  0.5  mtk yes tchain  5  pchain  5
fix 1  all npt temp  0.45 ${temp}  0.1  iso  5.68  5.68  0.5  mtk yes tchain  5  pchain  5
fix 1  all npt temp  0.45 0.45  0.1  iso  5.68  5.68  0.5  mtk yes tchain  5  pchain  5

dump dmp2 all dcd ${N} traj.dcd
dump dmp2 all dcd 1000 traj.dcd


compute msd all msd com yes
variable twopoint equal c_msd[4]/6/(step*dt+1.0e-6)
fix 9 all vector 10 c_msd[4]
variable fit equal slope(f_9)/6/(10*dt)
thermo_style custom step temp pe c_msd[4] v_twopoint v_fit v_max_n

fix 1 all npt temp 1.25 ${temp} 0.1 iso 5.68 5.68 0.5 mtk yes tchain 5 pchain 5
fix 1 all npt temp 1.25 0.45 0.1 iso 5.68 5.68 0.5 mtk yes tchain 5 pchain 5
run 500000 # 5000000  # Run for this many steps
Neighbor list info ...
  update every 1 steps, delay 10 steps, check yes
  max neighbors/atom: 2000, page size: 100000
  master list distance cutoff = 3.8
  ghost atom cutoff = 3.8
  binsize = 1.9, bins = 9 9 9
  4 neighbor lists, perpetual/occasional/extra = 1 3 0
  (1) pair lj/cut, perpetual
      attributes: half, newton on
      pair build: half/bin/atomonly/newton
      stencil: half/bin/3d
      bin: standard
  (2) compute orientorder/atom, occasional
      attributes: full, newton on
      pair build: full/bin/atomonly
      stencil: full/bin/3d
      bin: standard
  (3) compute coord/atom, occasional
      attributes: full, newton on
      pair build: full/bin/atomonly
      stencil: full/bin/3d
      bin: standard
  (4) compute cluster/atom, occasional
      attributes: full, newton on
      pair build: full/bin/atomonly
      stencil: full/bin/3d
      bin: standard
Per MPI rank memory allocation (min/avg/max) = 9.746 | 9.751 | 9.756 Mbytes
Step Temp PotEng c_msd[4] v_twopoint v_fit v_max_n 
   12000    1.2328903   -6.1989869 4.6166112e-30 3.2059799e-32 8.3333333e+20            1 
   13000     1.277645   -6.1777292   0.54366934 0.0034850598  0.044786045            2 
   14000    1.2237761   -6.1764943    1.1044876 0.0065743306  0.045546766            2 
   15000    1.2377771    -6.199716    1.5893804 0.0088298906  0.044429599            3 
   16000    1.2583582   -6.1725516     2.071209  0.010787547  0.042494324            5 
   17000    1.2478988     -6.20042    2.5834194   0.01266382  0.042264022            4 
   18000    1.2414372   -6.2351054     3.168837  0.014670541  0.042676409            3 
   19000    1.2535194   -6.2049142    3.6636076  0.016068454  0.043155509            2 
   20000      1.25692   -6.2256379    4.2071981  0.017529992  0.043307732            2 
   21000    1.2426512    -6.213162    4.8164056   0.01911272  0.043594991            2 
   22000    1.2282936   -6.1540018     5.352998  0.020276507  0.044035162            2 
   23000    1.2654733   -6.1941041    5.8896877  0.021339448  0.044348291            2 
   24000    1.2177842   -6.1752366     6.497302  0.022560076  0.044682129            2 
   25000    1.2576086   -6.1773707    7.0197308  0.023399102  0.044928547            4 
   26000    1.2454345   -6.2015355    7.5654128  0.024248117  0.045067566            2 
   27000    1.2352075   -6.2516101    8.1393426  0.025121427   0.04526146            2 
   28000    1.2221445   -6.2156416    8.5759544  0.025523673  0.045281416            4 
   29000    1.2410074   -6.2023674    9.1582999  0.026316953  0.045213231            3 
   30000    1.2123237   -6.2494491    9.5805091  0.026612525  0.045118125            4 
   31000    1.2129462   -6.2265713    10.090808  0.027125828  0.044939823            2 
   32000     1.202878   -6.2683253    10.503818  0.027353692  0.044732146            4 
   33000    1.2406563   -6.2282295    10.927759   0.02759535  0.044466767            4 
   34000    1.2112047   -6.2239263    11.415511  0.027979194  0.044138032            2 
   35000    1.1970082   -6.2483446    12.006442  0.028586767  0.043907533            3 
   36000    1.2258564   -6.2579846    12.432886  0.028779828  0.043730834            3 
   37000    1.2266587   -6.2402492    12.910958  0.029078734  0.043567426            6 
   38000    1.1969164   -6.2291677    13.467024  0.029532947  0.043397317            3 
   39000    1.2035177   -6.2873188    13.789767  0.029465314  0.043200761            1 
   40000    1.2073317   -6.2889201    14.376462  0.029950963  0.043021526            3 
   41000    1.2186336   -6.2988613    14.763631  0.030007379  0.042862268            3 
   42000    1.2105363   -6.2688001    15.357453  0.030471137  0.042705726            2 
   43000    1.2123154   -6.2571077    15.825884  0.030670317  0.042597036            3 
   44000    1.2173013   -6.2758161     16.37097  0.031005625   0.04248715            2 
   45000    1.1845014   -6.2871491    16.872517  0.031245402  0.042417107            2 
   46000    1.2022837   -6.2674911    17.318674  0.031374409   0.04235478            4 
   47000    1.2017996   -6.2338054    17.670996  0.031331554  0.042239215            3 
   48000    1.2211246   -6.2674456    18.073329  0.031377308  0.042093223            2 
   49000    1.1863357   -6.2804518    18.609084  0.031648102  0.041950423            6 
   50000    1.1906862   -6.2864151    18.953982   0.03158997  0.041797424            3 
   51000     1.182574   -6.2614702    19.265822  0.031480102  0.041617925            5 
   52000    1.1884259   -6.2651885    19.759896  0.031666499  0.041440343            2 
   53000    1.2128563      -6.2675    20.221874  0.031795399   0.04128287            3 
   54000    1.1477478   -6.2883906    20.531306  0.031684114  0.041119478            4 
   55000    1.1727523   -6.3083045    20.885544  0.031644763  0.040928437            2 
   56000    1.1784363   -6.3113207    21.279847  0.031666439  0.040741389            2 
   57000    1.1859902   -6.2813856    21.795303  0.031864478  0.040566831            4 
   58000    1.2024039   -6.3407751    22.232507  0.031943256  0.040409062            3 
   59000    1.1590968   -6.3189666    22.617467  0.031945574  0.040268744            4 
   60000     1.204335    -6.328714    23.191173  0.032209963    0.0401406            2 
   61000    1.1672496   -6.3452975    23.604581  0.032246695  0.040016754            3 
   62000    1.1406144   -6.3419878    23.844872  0.032049558  0.039881418            5 
   63000     1.163036    -6.322714    24.318353  0.032167133  0.039748199            5 
   64000    1.1795227   -6.3354198    24.712874  0.032178221  0.039620553            2 
   65000    1.1872724   -6.3622964    25.107749  0.032189422  0.039498025            1 
   66000    1.1795023   -6.3426437     25.44322  0.032125278  0.039362009            2 
   67000    1.1777838   -6.3366118    25.866205  0.032171896  0.039234071            2 
   68000    1.1676402   -6.3026027    26.611333  0.032611927   0.03912766            3 
   69000     1.159765   -6.3679274    26.751643  0.032308748  0.039033003            3 
   70000    1.1587143   -6.2900879    27.102493  0.032264873  0.038908547            3 
   71000    1.1581768   -6.3365152     27.64781  0.032450481  0.038788321            3 
   72000    1.1392439   -6.3301345    28.050362  0.032465697  0.038685791            3 
   73000    1.1629297   -6.3684011    28.556904  0.032599206  0.038601362            3 
   74000    1.1517024   -6.3374589    28.990683  0.032647165  0.038512842            2 
   75000    1.1572247   -6.3504804    29.449682  0.032721868   0.03843436            1 
   76000    1.1507495   -6.3456355    29.828358  0.032706533  0.038365014            3 
   77000    1.1472498   -6.3403064     30.39518  0.032895217   0.03830207            2 
   78000    1.1116407   -6.3757036    30.720283  0.032820814  0.038229691            3 
   79000    1.1372698   -6.3737293    30.997182  0.032697449  0.038155878            2 
   80000    1.1320178   -6.3646378    31.365362  0.032672252  0.038076433            2 
   81000    1.1267865   -6.3266201    31.715423  0.032629036  0.037985086            4 
   82000    1.1644135   -6.3906279    32.078398  0.032599997  0.037888267            2 
   83000    1.1538185   -6.4080064    32.358599  0.032488553  0.037794732            3 
   84000    1.1474691   -6.4429267    32.873934  0.032613029  0.037705523           13 
   85000     1.107979   -6.3747296    33.248365  0.032596436  0.037617397            4 
   86000    1.1385814   -6.4233271    33.618997  0.032576548  0.037534449            3 
   87000    1.1313055   -6.3810149    33.830755  0.032404937  0.037443866            2 
   88000    1.1364598   -6.4137274    34.443367  0.032616825  0.037361694            2 
   89000    1.1421117   -6.4032972    34.615806  0.032411803  0.037275873            4 
   90000    1.1402125   -6.4216444    35.008541  0.032415316   0.03718503            3 
   91000    1.1207995   -6.4031177    35.438607  0.032452937  0.037092514            6 
   92000     1.139095   -6.4338071    35.795539  0.032423495  0.037008791            4 
   93000      1.13098   -6.3797648    36.200976   0.03243815  0.036923838            3 
   94000    1.1036401   -6.4016621    36.580364  0.032429401  0.036837354            3 
   95000    1.1183786    -6.430288    36.864836  0.032337575  0.036751081            3 
   96000    1.1173503   -6.4286624    37.134114  0.032234474  0.036665111            2 
   97000    1.1105754   -6.4256576    37.594309  0.032297516   0.03657642            3 
   98000    1.1028478   -6.4789885    38.040904  0.032347707  0.036492345            3 
   99000    1.1312605    -6.441476    38.315898  0.032252439  0.036412456            1 
  100000    1.1086678   -6.4501718    38.705034  0.032254195  0.036334556            3 
  101000    1.1132482   -6.4282534    39.142301  0.032295628  0.036254547            2 
  102000    1.0744038   -6.3814034    39.556395  0.032317316   0.03617921            4 
  103000    1.1202571     -6.44734    39.986207    0.0323513  0.036114884            2 
  104000    1.1106538   -6.4164637    40.557444  0.032497952   0.03605855            4 
  105000    1.1213322   -6.4484559    40.809279  0.032388317   0.03600517            2 
  106000    1.1069614   -6.4226903    41.261071  0.032437949  0.035948666            3 
  107000    1.1010705   -6.4396173     41.66773  0.032451503  0.035890157            2 
  108000    1.1054252    -6.498514    42.052489  0.032447908  0.035836976            5 
  109000    1.0738915   -6.4530578     42.66148  0.032615811  0.035786509            3 
  110000    1.0915571   -6.4504152    42.936549  0.032527689  0.035741841            4 
  111000    1.1050697   -6.5156194      43.2756  0.032489189  0.035693462            4 
  112000    1.0802533   -6.4285578    43.770418  0.032567275  0.035646468            5 
  113000    1.0967465    -6.462131    43.973299  0.032428686  0.035598724            4 
  114000    1.1045557   -6.4199951    44.596863  0.032600046  0.035552766           12 
  115000    1.0956946   -6.4561176    44.746201  0.032424783   0.03550446            4 
  116000     1.084714   -6.4944594    44.996498   0.03232507  0.035447518            4 
  117000    1.0437805    -6.515544    45.105405  0.032126357  0.035386365            3 
  118000    1.0779179   -6.4876428    45.645713  0.032235673  0.035325086            3 
  119000    1.0579575   -6.4571848    46.104669  0.032286183  0.035268993            4 
  120000    1.0741975   -6.4852592    46.470028  0.032270853  0.035217324            6 
  121000    1.0594535   -6.5049096    46.903314  0.032302557  0.035167398            4 
  122000    1.0891752   -6.4918333    47.260725  0.032281916  0.035121725            2 
  123000    1.0624199   -6.5236529    47.557833  0.032220754  0.035073927            2 
  124000     1.055644   -6.4918243    48.066216  0.032302564  0.035024402            3 
  125000    1.0590065   -6.5141363    48.196324  0.032130882  0.034975803            5 
  126000    1.0576785   -6.4857412    48.512239  0.032084814  0.034923213            4 
  127000    1.0761014   -6.4940783    48.791262  0.032015263  0.034867828            3 
  128000     1.069975   -6.5227958    49.127145  0.031983818  0.034810675            3 
  129000    1.0804968   -6.5051768    49.721066  0.032119552  0.034753755            6 
  130000    1.0698733    -6.484886    50.028672  0.032069661  0.034701916            5 
  131000    1.0791863   -6.5623021    50.233816  0.031955354  0.034648675            4 
  132000    1.0463816     -6.55882    50.402856  0.031819985  0.034590713            4 
  133000    1.0550634   -6.4944543    50.775393  0.031814156  0.034528353            3 
  134000    1.0487669   -6.5173597    50.923195  0.031668654  0.034467021            6 
  135000    1.0676721   -6.5209382    51.234718  0.031626369   0.03440096            7 
  136000    1.0509177   -6.5066128    51.665676   0.03165789  0.034336185            2 
  137000    1.0590916   -6.5503819     51.92746  0.031586046  0.034271443            3 
  138000    1.0756088   -6.5575176     52.39957  0.031642252  0.034208609            2 
  139000    1.0464535   -6.5855221    52.448658  0.031444039  0.034146018            5 
  140000    1.0558557   -6.5595689    52.773589   0.03141285  0.034079391            4 
  141000    1.0214483   -6.5910956    53.084138  0.031373604  0.034013484            6 
  142000    1.0297355   -6.5543524    53.605259  0.031458485  0.033950176            3 
  143000    1.0445759    -6.552388    53.887877  0.031403192  0.033889951            4 
  144000    1.0167728   -6.5693211    54.267366  0.031404726  0.033830409            4 
  145000    1.0408968   -6.5609534    54.624667  0.031393486  0.033772889            4 
  146000    1.0532911   -6.5356421    54.758968  0.031255119  0.033717493            3 
  147000    1.0299707   -6.5541873      55.1778  0.031279932  0.033657087            3 
  148000    1.0342335   -6.5869789    55.439094  0.031215706   0.03359344            4 
  149000    1.0194301   -6.5897803    55.844667  0.031233035  0.033533406            4 
  150000    1.0463709   -6.5551597    56.128903  0.031182724  0.033474792            3 
  151000    1.0471364   -6.5731086     56.46542  0.031161931  0.033416293            5 
  152000    1.0201088    -6.599657    56.861855  0.031174263  0.033361589            3 
  153000    1.0181626   -6.5795941    57.177275  0.031142307  0.033307289           11 
  154000   0.99800946   -6.5749875    57.727484  0.031237816  0.033254746            5 
  155000    1.0081853   -6.5876993    57.886098  0.031121558  0.033202341            6 
  156000    1.0006371    -6.553046    58.100486  0.031036584  0.033148453            3 
  157000    1.0063702   -6.6152615    58.148365  0.030864313  0.033092541            5 
  158000    1.0357505   -6.6190441    58.518529  0.030864203  0.033036285            4 
  159000    1.0202239   -6.6301783    58.981096  0.030912524  0.032982651            3 
  160000    1.0200045   -6.6160846    59.295808  0.030883233  0.032927325           10 
  161000   0.99200752   -6.5995732    59.630494  0.030864645  0.032872301            6 
  162000    1.0073594    -6.594516    59.849531  0.030786796   0.03281967            7 
  163000   0.99542898   -6.6009057    59.828333  0.030587082  0.032762121            7 
  164000    1.0064439   -6.6124121    59.970741  0.030472937  0.032699631           10 
  165000   0.97839572   -6.6385403     60.31867  0.030463974  0.032635889            4 
  166000   0.99832019   -6.5882749    60.440184  0.030341458  0.032569409            4 
  167000   0.99160295    -6.591586    60.734913  0.030306843  0.032502392            2 
  168000    1.0038314   -6.6499285    61.166533  0.030340542  0.032436214            5 
  169000    0.9889027   -6.6346715    61.207078  0.030181005  0.032369606            6 
  170000   0.98955206   -6.6545477    61.340236  0.030068743  0.032300968            6 
  171000    1.0017945   -6.6021425    61.637117  0.030037581  0.032233302            4 
  172000   0.99058814   -6.6333984    62.014684  0.030045874  0.032165037            7 
  173000   0.98974936   -6.6851097    62.183236  0.029953389  0.032098459            3 
  174000   0.99834639   -6.6890179    62.697834  0.030027698  0.032034643            6 
  175000    0.9816826   -6.6686002     62.96398  0.029982847  0.031972201            5 
  176000   0.98579302   -6.6464956    63.237408  0.029941955  0.031908087            7 
  177000    1.0025792   -6.6519298    63.454601  0.029875048   0.03184377            2 
  178000   0.97585545   -6.6365684     63.64027  0.029794134  0.031779692            8 
  179000    1.0026698    -6.654967    63.947485   0.02977071  0.031714936            4 
  180000   0.95511408   -6.6743596    64.150682   0.02969939  0.031650355            2 
  181000   0.98044211   -6.6945707    64.099141  0.029511575  0.031582678            4 
  182000   0.97633988   -6.7045263    64.463447   0.02951623  0.031514805            4 
  183000    0.9851908   -6.6568253    65.162696  0.029673359  0.031449055            8 
  184000   0.98333482   -6.6968677     65.19775  0.029527966  0.031385603            5 
  185000   0.99569894    -6.713443     65.47165  0.029491734  0.031321066            4 
  186000   0.98136811   -6.7108991    65.767771  0.029465847   0.03125865           10 
  187000   0.95368596   -6.6989581    65.999809   0.02941168   0.03119712            6 
  188000   0.95771781   -6.7411299    66.361185  0.029415419  0.031135826            4 
  189000   0.94502206    -6.684386    66.587093  0.029359389  0.031074619            4 
  190000   0.96906854   -6.7346444    66.726078  0.029265824   0.03101213           10 
  191000   0.96198756    -6.725363     66.91952  0.029196998  0.030949231            6 
  192000   0.93871908   -6.7276727    67.280028  0.029201401  0.030887826            6 
  193000   0.94211432   -6.6890164    67.350723  0.029080623  0.030825944            3 
  194000   0.93233636   -6.7253364     67.47661  0.028984798   0.03076189            6 
  195000   0.93504467      -6.6944    67.942179  0.029035119  0.030699012            9 
  196000   0.91417752   -6.7786566    67.999504  0.028911354  0.030635749            5 
  197000   0.98011179   -6.7151537    68.514728  0.028982541  0.030573511            4 
  198000   0.93004261   -6.6924516    68.381597  0.028780134  0.030511844            3 
  199000   0.92663398   -6.7099417    68.941276  0.028869881  0.030448799            6 
  200000   0.95143773    -6.760859    68.900729  0.028708637  0.030384762            6 
  201000    0.9633042   -6.7504297    69.325179  0.028741782  0.030320719            8 
  202000   0.93329655   -6.6972769    69.526571  0.028682579  0.030258017            7 
  203000   0.94017678   -6.7372052    69.641129  0.028588312  0.030195074            4 
  204000   0.95707344   -6.7396212    69.755488  0.028494889  0.030129156            5 
  205000   0.93227336    -6.738164    69.739174  0.028349258  0.030061919            6 
  206000   0.94593869   -6.7560273    69.878748  0.028268102  0.029994272            6 
  207000   0.93141312    -6.759246    69.978527   0.02817171   0.02992433            7 
  208000   0.95764673   -6.7663571    70.243929    0.0281426     0.029856            3 
  209000   0.92457059   -6.7240383    70.515637  0.028116283  0.029788267            8 
  210000    0.9340921   -6.7550706    70.882494  0.028127974  0.029720939            4 
  211000   0.92541188    -6.786346    70.993115  0.028038355   0.02965434            4 
  212000   0.94627267   -6.7930776    71.176315  0.027978111  0.029587903            6 
  213000   0.92920951   -6.7901738    71.464157  0.027959373   0.02952061            7 
  214000   0.93274923   -6.8023966      71.2172  0.027732555   0.02945233            3 
  215000   0.91940059   -6.8082422      71.6495  0.027771124  0.029383285            7 
  216000   0.93942971   -6.8167069    71.728025  0.027672849  0.029313776            5 
  217000   0.94287354   -6.7853069    71.845816  0.027590559  0.029244078            9 
  218000   0.90890811   -6.7742373    72.013417  0.027528064  0.029175084            5 
  219000   0.89253724   -6.8187393    72.053524  0.027417627  0.029105058            8 
  220000   0.92063245   -6.7662852    72.683523  0.027531638  0.029035041            4 
  221000    0.9116427   -6.8068548    72.586802  0.027370589  0.028964716            4 
  222000   0.90553849   -6.7902694    72.706162  0.027292103  0.028894283            6 
  223000   0.89708738   -6.8071058    73.074185  0.027307244  0.028823768            3 
  224000     0.905145   -6.7999757    73.054201  0.027177902  0.028754113            7 
  225000   0.88135048   -6.8186992    73.090066  0.027070395  0.028684526            7 
  226000   0.90895413   -6.8346525    73.167439  0.026979144  0.028614821            7 
  227000   0.91344336   -6.7799295    73.555829  0.027002874  0.028544016            7 
  228000    0.9363197   -6.8293175    73.602052  0.026901335  0.028473016            4 
  229000   0.90217988   -6.8147777    73.607363  0.026785794  0.028400548           14 
  230000   0.90592177   -6.8236486    73.862525  0.026761784  0.028329255            3 
  231000   0.91222636   -6.8421434    73.826387  0.026632896  0.028257467            8 
  232000    0.8982619   -6.8584577    74.212858  0.026656917  0.028184665            3 
  233000   0.88762471   -6.8666682    74.354548  0.026593186  0.028113102            6 
  234000   0.88572972   -6.8462148    74.509394  0.026534684  0.028041391            8 
  235000   0.88178416    -6.839798    74.842936  0.026540048   0.02797107            2 
  236000   0.89206189   -6.8386569    74.696827  0.026375998  0.027900586            3 
  237000   0.89505483   -6.8498026    75.009382  0.026374607  0.027830041            6 
  238000   0.89850828   -6.8402126    75.286651  0.026360872  0.027760103            4 
  239000   0.89420499   -6.8697382    75.295687  0.026253726  0.027690249            8 
  240000   0.88705493   -6.8888824    75.284621  0.026140493  0.027619506            5 
  241000   0.88215252   -6.8952399    75.650645  0.026158591  0.027549037            7 
  242000   0.87406423   -6.8712139    75.956611  0.026155858  0.027479612            6 
  243000   0.88022677   -6.8589531    75.961484  0.026049892  0.027409815           11 
  244000   0.88078383   -6.8571383    75.988527  0.025952366  0.027339976            8 
  245000   0.88244445   -6.8869277    76.081121  0.025877932  0.027270094           11 
  246000   0.89289625   -6.8563539    76.207361  0.025815502  0.027199972            7 
  247000   0.86467676   -6.8761829    76.272589  0.025732992  0.027128621            8 
  248000   0.86364347    -6.901523    76.752908  0.025790628  0.027058423            8 
  249000   0.86454034   -6.8824921    76.614755  0.025640815  0.026988451            7 
  250000   0.86955608   -6.9291039    76.782822  0.025594274  0.026917555            4 
  251000   0.85758064   -6.9280303    76.819221  0.025504389  0.026846513           10 
  252000   0.84854159   -6.8910994    77.264049  0.025550281  0.026775964            8 
  253000   0.86446951   -6.8989644    77.134396  0.025406586  0.026706194            6 
  254000   0.86452082   -6.8926612    77.359741  0.025380493  0.026636452            5 
  255000   0.86560568   -6.9295569    77.480219  0.025320333  0.026565807            6 
  256000    0.8524694   -6.9001279    77.311889  0.025166631  0.026493764            5 
  257000   0.83928888   -6.9307752    77.642591  0.025175937  0.026422311            4 
  258000    0.8243025   -6.8949525    77.950194  0.025177711  0.026352239            5 
  259000   0.86102973   -6.9242422    77.954236    0.0250818  0.026283638            4 
  260000   0.86933679   -6.9127564    78.122026  0.025039111  0.026215212           13 
  261000   0.85165271   -6.9292024     78.13352  0.024946845  0.026145852            7 
  262000   0.82270991   -6.9233379    78.374531  0.024928286  0.026076667           11 
  263000   0.84482913   -6.9500144    78.299691  0.024809788   0.02600762            5 
  264000   0.85787591   -6.9810109    78.316958  0.024721262  0.025938746            4 
  265000   0.82939671    -6.930299    78.686527  0.024744191  0.025871061            4 
  266000   0.84746754   -6.9362646    78.869482  0.024708484  0.025803049            7 
  267000   0.83304835   -6.9494725    78.909846  0.024628541  0.025734907            9 
  268000   0.84646654   -6.9483206    79.143638   0.02460934  0.025667413            5 
  269000   0.83860326   -6.9705498    79.207722  0.024537708  0.025600464            9 
  270000   0.83317228   -6.9385953    79.262546  0.024463749  0.025533567            4 
  271000   0.82916007   -6.9874494    79.428895  0.024424629  0.025465829            7 
  272000   0.83873152    -6.982453    79.523135  0.024363706  0.025397581            7 
  273000   0.83709739   -6.9628689    79.527625  0.024275832   0.02532981            9 
  274000   0.83937015   -6.9633821    79.581544  0.024203633  0.025261938            4 
  275000   0.82119319   -6.9659704    79.891394  0.024209513  0.025194156            4 
  276000    0.8329753    -6.986571    79.889085  0.024121101  0.025126748            8 
  277000   0.81866779   -6.9833592    80.070663  0.024088647  0.025059236            5 
  278000   0.82608576   -6.9754875    80.106174  0.024012642  0.024991891            8 
  279000   0.84172401   -6.9855216    80.218844  0.023960228    0.0249254            7 
  280000   0.82256506   -6.9749615    80.410839  0.023931797  0.024858398           12 
  281000   0.82029804   -6.9850959    80.497753  0.023872406  0.024791511           10 
  282000   0.81033235   -6.9817496    80.486286  0.023784364  0.024724626            7 
  283000   0.80949316   -6.9928369    80.261083  0.023634005  0.024657407            7 
  284000   0.82715209   -7.0169466    80.477495  0.023614288  0.024589804            7 
  285000   0.81031138   -7.0324421    80.471843  0.023529779  0.024522494           14 
  286000   0.78027103   -6.9969533     80.79174  0.023540717  0.024454445           10 
  287000   0.81185468   -7.0049677    80.559932  0.023391385  0.024386275           19 
  288000   0.81651428   -7.0085195    80.703957  0.023351839  0.024318413            9 
  289000   0.80833951   -7.0323336    80.910131  0.023330487    0.0242501           13 
  290000   0.78975816    -7.029661    81.230991  0.023342239  0.024182759            6 
  291000   0.81213756   -7.0067325     81.05494  0.023211609  0.024115998            4 
  292000   0.81106944   -7.0211785    81.066501  0.023135417  0.024048842           13 
  293000   0.78612752    -7.002538    81.297592  0.023122182  0.023982111            9 
  294000    0.8128979   -7.0274908    81.200563  0.023016033  0.023915238            4 
  295000   0.79405644   -7.0262124    81.249895  0.022951948  0.023847974           18 
  296000   0.81078287   -7.0301221    81.177386  0.022853994  0.023780759            8 
  297000   0.79273916   -7.0636124    81.353824   0.02282655  0.023713426            3 
  298000   0.77754317   -7.0359774    81.358042   0.02275113  0.023645622            3 
  299000   0.77918382   -7.0485845    81.687665  0.022766908  0.023578125            5 
  300000   0.77101804   -7.0527066    81.583813   0.02266217  0.023510723           14 
  301000   0.78757791   -7.0389429    81.496111    0.0225626  0.023442848           13 
  302000   0.80597465    -7.071315    81.366131  0.022452023  0.023375117           10 
  303000   0.77805677   -7.0476947    81.668241  0.022461012  0.023307083            8 
  304000   0.78698097   -7.0843356    81.667654  0.022386967  0.023239136            4 
  305000   0.79771593   -7.0808171    81.791173  0.022347315  0.023171285            7 
  306000    0.7820285   -7.0654217    81.983292  0.022326604  0.023104316           11 
  307000   0.76214193   -7.0654145    82.068203  0.022276928  0.023037995           12 
  308000   0.77434364   -7.0415498    82.126107  0.022220267  0.022971897           11 
  309000   0.77008208   -7.0514566     82.02668  0.022121543  0.022905692           15 
  310000   0.78418072   -7.0892373    82.224416  0.022103337  0.022839634            6 
  311000   0.77834482   -7.0719077    82.448775  0.022092383  0.022774198            9 
  312000   0.76949537   -7.0906361    82.374351  0.022001696  0.022709211           21 
  313000   0.75857928   -7.0868186    82.434638  0.021947454   0.02264405           25 
  314000   0.77649856   -7.0900349    82.463069  0.021885103  0.022579091            9 
  315000     0.754746   -7.1395322      82.4887  0.021822407  0.022513422            9 
  316000   0.75895346   -7.1078648    82.460812  0.021745995  0.022447316            9 
  317000   0.74941301   -7.1301306    82.557057  0.021702696  0.022381747           21 
  318000   0.77388412   -7.1338579    82.395775  0.021592184  0.022315885           21 
  319000    0.7505068   -7.1211017     82.56479   0.02156865  0.022250387           11 
  320000   0.76122104   -7.1436539    82.649725  0.021523366  0.022185526           17 
  321000   0.74764477   -7.1314262    82.847503  0.021507659   0.02212068           18 
  322000   0.77013919   -7.1690908    82.749888  0.021415603  0.022055778           13 
  323000   0.75301983   -7.1301664    82.822593  0.021368058  0.021991011            9 
  324000   0.75807657   -7.1232162    83.010721  0.021350494  0.021926585           12 
  325000   0.74716538   -7.1458222     83.01497   0.02128589  0.021862103           11 
  326000   0.74734163   -7.1438544    82.935023  0.021200159  0.021798013            8 
  327000    0.7438043   -7.1318476    83.243745  0.021214002  0.021734088           14 
  328000   0.75301324   -7.1802791    83.034219  0.021096092  0.021670029            8 
  329000   0.74116524   -7.1871704    83.223741  0.021079975  0.021605656            5 
  330000   0.73848581   -7.1679732    83.239229  0.021020007  0.021541721            5 
  331000   0.72652604   -7.1688106    83.020624  0.020901466  0.021477806           13 
  332000   0.76082372   -7.1584895    83.315034  0.020912408  0.021413973           12 
  333000   0.73722144   -7.1552633    83.169757  0.020813252  0.021350399            5 
  334000   0.73356475   -7.2061966    83.271103  0.020776223  0.021286835            8 
  335000   0.74034853   -7.1741238    83.291324  0.020719235  0.021223211           19 
  336000   0.73547504    -7.174396     83.19282   0.02063314  0.021159587            7 
  337000   0.71767018   -7.1596593    83.394316   0.02062174  0.021096312           11 
  338000   0.73225607   -7.1699853    83.335005  0.020546106   0.02103331           13 
  339000   0.70534712   -7.1879691    83.326208  0.020483335  0.020970398           22 
  340000   0.72671527   -7.1951135    83.482377  0.020461367   0.02090751            8 
  341000   0.72955267   -7.2338594    83.430146  0.020388599  0.020844605           14 
  342000   0.70808675    -7.210993    83.547992  0.020357698  0.020781945           16 
  343000   0.70807359   -7.2160451    83.576182  0.020305195  0.020719845           14 
  344000   0.70423608    -7.222917     83.54023  0.020237459  0.020657748           12 
  345000   0.71099633   -7.1981587    83.758182  0.020231445  0.020595725           21 
  346000   0.71870716   -7.2275845    83.684471  0.020155219  0.020533955           28 
  347000   0.72757784    -7.226854    83.723612  0.020106535  0.020472274            8 
  348000   0.71007791   -7.2128919    84.103705  0.020139776   0.02041133           23 
  349000   0.71082102   -7.2290668    83.886174  0.020030128  0.020350242           47 
  350000   0.72912504   -7.2216951    83.887525   0.01997322   0.02028934           26 
  351000   0.70708451   -7.2096865    83.907007  0.019920942   0.02022862           37 
  352000   0.71662487   -7.2245997    83.808084  0.019840929  0.020168045           34 
  353000    0.6983567   -7.2353493    84.051528  0.019842193   0.02010751           19 
  354000    0.7071578   -7.2497285     83.91916  0.019754981  0.020047136           20 
  355000   0.71619327   -7.2389052    83.936563  0.019703418  0.019987119           12 
  356000     0.692446   -7.2498213    83.991247  0.019660872  0.019926736           10 
  357000    0.7094043   -7.1993633    84.130404  0.019638283  0.019866753           17 
  358000   0.69007776   -7.2378277    84.148917  0.019587737  0.019806849           15 
  359000   0.69706768   -7.2754281    84.075538  0.019516141  0.019746891           17 
  360000   0.69536999   -7.2608882    84.083725  0.019463825  0.019686742           17 
  361000   0.69868457   -7.2844019    83.958699  0.019381048  0.019626864           13 
  362000   0.69037349   -7.2843393      84.1554   0.01937279  0.019567221           14 
  363000   0.69179371   -7.2455351    84.183374  0.019325843  0.019508156           10 
  364000    0.6707253   -7.2771428    84.166908  0.019268981  0.019449401           14 
  365000   0.69609433   -7.2794292    84.500421  0.019292334   0.01939097            6 
  366000   0.67556889   -7.2914128    84.443921  0.019226758  0.019332521           27 
  367000   0.67801622   -7.2733397    84.195609  0.019117986  0.019274103            8 
  368000   0.68266082   -7.2779689    84.305127  0.019090835   0.01921604           16 
  369000   0.66681639   -7.3008962    84.349649  0.019049153  0.019157951           24 
  370000   0.67488407   -7.2973446    84.380268  0.019004565  0.019100321           34 
  371000   0.66459474    -7.289219    84.377507  0.018952719  0.019042629           27 
  372000   0.66834273   -7.2944675    84.396088  0.018905934  0.018985115           44 
  373000   0.68023399   -7.2990347    84.559969  0.018891861  0.018927369           30 
  374000   0.66947473   -7.3154941    84.486954  0.018825079  0.018869938           31 
  375000   0.67514729   -7.3238246    84.424305  0.018760957   0.01881267           43 
  376000   0.66082587    -7.328255    84.233296  0.018668727  0.018755174           40 
  377000   0.66204178   -7.3309407    84.462911  0.018669963    0.0186981           29 
  378000   0.67232764   -7.3281191    84.419998  0.018611111  0.018641304           48 
  379000   0.66239711   -7.3282767    84.268987  0.018528801  0.018584435           12 
  380000   0.65772323     -7.35242    84.331964  0.018493852  0.018527527           27 
  381000   0.65415067    -7.336168    84.547137  0.018492375   0.01847081           11 
  382000   0.65061594   -7.3207705    84.355847  0.018402235  0.018414327           27 
  383000   0.65120702   -7.3391508    84.376249  0.018358627  0.018357913           28 
  384000    0.6740506   -7.3370673    84.526855  0.018343501  0.018301761           21 
  385000   0.66076905   -7.3579084    84.464299  0.018282316  0.018245741           25 
  386000   0.64174051   -7.3631991     84.68206  0.018281965  0.018190004           29 
  387000   0.64752443   -7.3712301    84.347866  0.018162762  0.018134218           20 
  388000   0.65152072   -7.3684425    84.518285  0.018152553  0.018078547           19 
  389000   0.63343344   -7.3643381    84.467011  0.018094904  0.018022936           22 
  390000   0.63536974   -7.3748862    84.306228  0.018014151  0.017967383           31 
  391000   0.65504591   -7.3903847    84.357724  0.017979055  0.017911958           21 
  392000   0.64626141   -7.3612301    84.601796  0.017985076  0.017856563           24 
  393000   0.62798254   -7.3756964    84.428669  0.017902602  0.017801218           42 
  394000   0.64651763   -7.3694139    84.532215  0.017879064  0.017745976           29 
  395000   0.63343866   -7.3789304    84.397654  0.017805412  0.017691016           29 
  396000   0.64353463   -7.3755082    84.426894  0.017766602  0.017636108           21 
  397000   0.64709757   -7.3632185    84.471683  0.017731252  0.017581411           22 
  398000   0.63213615   -7.3916097    84.303097  0.017651402  0.017526561           18 
  399000   0.62057448   -7.3970097    84.304319  0.017607418  0.017471832           26 
  400000   0.62812133   -7.3918025    84.332798  0.017569333   0.01741721           11 
  401000   0.62875744   -7.3853119    84.296736  0.017518025  0.017362781           24 
  402000   0.63159537    -7.417976    84.280156  0.017471011  0.017308452           20 
  403000   0.61994907   -7.4117238    84.348385  0.017441767  0.017254071           32 
  404000   0.61222273   -7.4067451    84.430672  0.017415568  0.017199965           42 
  405000    0.6198807   -7.4135535    84.259632  0.017337373   0.01714592           32 
  406000   0.61006384   -7.4139209    84.336011  0.017310347  0.017092043           19 
  407000   0.61040213   -7.4432207    84.099005  0.017219288  0.017038235           40 
  408000   0.61765467   -7.4374781    84.140472  0.017185554  0.016984584           18 
  409000   0.61528163   -7.4495952    84.090953  0.017133446  0.016931112           18 
  410000   0.61545432   -7.4322552    84.328658  0.017139971   0.01687781           44 
  411000   0.61001645   -7.4233734    84.290407  0.017090512  0.016824743           40 
  412000   0.60554805   -7.4462692    84.353275  0.017061746  0.016771882           50 
  413000   0.60592431   -7.4507874    84.314665  0.017012644  0.016719217           20 
  414000   0.60694794   -7.4255501    84.098413  0.016928022  0.016666772           45 
  415000   0.60789291   -7.4512781    84.116108  0.016890785  0.016614443           35 
  416000   0.60861858   -7.4721299    84.250353  0.016877074   0.01656225           37 
  417000   0.60586979   -7.4595394    84.286827   0.01684389  0.016510285           52 
  418000   0.59974957   -7.4783631    84.228315  0.016791929  0.016458372           28 
  419000   0.59836967   -7.4705756     84.32718  0.016771516  0.016406578           22 
  420000   0.60897505   -7.4593249    84.287998  0.016723809  0.016355026           40 
  421000   0.59813535   -7.4690047    84.277204  0.016681949  0.016303902           20 
  422000    0.6067135   -7.4873715    84.203461  0.016627856  0.016252731           50 
  423000   0.58686094   -7.4983405    84.398801  0.016627029  0.016201814           33 
  424000    0.5892105   -7.4775863    84.320356  0.016572397   0.01615098           38 
  425000   0.59725115   -7.4806577    84.383737  0.016545831  0.016100483           27 
  426000   0.59396451    -7.465359    84.182346  0.016467595  0.016050062           23 
  427000   0.57770541   -7.4901857    84.348004  0.016461359  0.015999736           42 
  428000   0.58742586   -7.4904665    84.216312  0.016397257  0.015949591           42 
  429000   0.57770477   -7.4969226    84.256485  0.016366839  0.015899539           21 
  430000   0.57413522   -7.4834279    84.329502  0.016342927  0.015849631          104 
  431000   0.57502378   -7.4958582    84.273573  0.016294194  0.015799808           96 
  432000   0.57138259   -7.5324483    84.209737  0.016244162  0.015750074           62 
  433000    0.5848503   -7.5056071    84.156127  0.016196329  0.015700453           92 
  434000    0.5763236   -7.5073606    84.140671  0.016156043  0.015650991           69 
  435000   0.58133255   -7.5096687    84.229923  0.016136001  0.015601753           74 
  436000   0.57304569   -7.4980982    84.183113  0.016090044   0.01555268           70 
  437000   0.57573653   -7.5082301    84.157787  0.016048396  0.015503676           64 
  438000   0.59289199   -7.5074481    84.196516  0.016019124  0.015455022           36 
  439000   0.55363215   -7.5128052    84.062682  0.015957229  0.015406408           47 
  440000   0.56593594   -7.5143032    84.183688   0.01594388  0.015358067           78 
  441000   0.56213453    -7.538619    84.210527  0.015912798  0.015309774           64 
  442000   0.57405243   -7.5151496    84.183676  0.015871734  0.015261685           67 
  443000   0.55864057   -7.5357728    83.962834  0.015794363  0.015213728           58 
  444000   0.55504897   -7.5338226    84.232939  0.015809486   0.01516588           47 
  445000   0.55191108   -7.5101098    84.162417  0.015760752  0.015118118           85 
  446000   0.55034858   -7.5526414    84.076136  0.015709293  0.015070494           58 
  447000     0.556468   -7.5337012     84.05288  0.015669814  0.015023065           69 
  448000   0.55175987   -7.5316861    83.986118  0.015622418  0.014975675           60 
  449000   0.55199987   -7.5572027    83.976644  0.015585866  0.014928446           88 
  450000   0.54130751   -7.5531876    83.889985  0.015535182  0.014881414           63 
  451000   0.55798994   -7.5524885    84.036627  0.015527832  0.014834511           78 
  452000   0.53105866   -7.5369828     84.08138  0.015501729   0.01478783           63 
  453000   0.54505696   -7.5567103    83.997316  0.015452045  0.014741233           62 
  454000   0.54004403   -7.5757642    83.836528  0.015388496   0.01469482           60 
  455000   0.54060326   -7.5539446    83.960104  0.015377308  0.014648576          107 
  456000   0.54410899   -7.5834335    83.979139  0.015347065  0.014602415           68 
  457000    0.5320959   -7.5612196    83.978072  0.015313288  0.014556387           69 
  458000   0.53245044   -7.5812804    83.919769  0.015269245  0.014510481          112 
  459000   0.52374444    -7.573031    83.845727  0.015222536  0.014464742          108 
  460000   0.53583517   -7.5806729    83.887044  0.015196928  0.014419103          115 
  461000   0.52914427   -7.5682163    83.778921  0.015144418  0.014373601          112 
  462000   0.52677839   -7.5798254    83.913965  0.015135997  0.014328276           76 
  463000   0.52618905   -7.5776318    83.757986  0.015075231  0.014283119           68 
  464000   0.52752461   -7.5993684    83.868074  0.015062513  0.014238151           68 
  465000   0.52745658   -7.5976172    83.767672  0.015012128  0.014193342           61 
  466000   0.52820254   -7.5893076    83.752557   0.01497721  0.014148601          125 
  467000   0.52731186   -7.6111115    83.945735   0.01497961  0.014104016          133 
  468000   0.52133749    -7.600064    83.846537  0.014929939  0.014059595           70 
  469000   0.51304216   -7.6083261    83.853517  0.014899346   0.01401539          123 
  470000   0.52010653   -7.6234087    83.803265  0.014858735  0.013971362           65 
  471000   0.51524918   -7.5991421    83.784579  0.014823882   0.01392756          134 
  472000   0.49459672   -7.6284328    83.863884  0.014806477  0.013883852           70 
  473000   0.52178138   -7.5994293    83.839244  0.014770832  0.013840368           59 
  474000   0.50701388   -7.6319796    83.859388  0.014743212    0.0137971           83 
  475000   0.50855586   -7.6324395    83.769891  0.014696472  0.013753917           92 
  476000   0.50203082   -7.6354954    83.791245  0.014669336  0.013710898          107 
  477000   0.50916215   -7.6222576    83.914941  0.014660192  0.013667989           84 
  478000    0.5130171   -7.6205688    83.536647  0.014563572  0.013625174           89 
  479000   0.50106226   -7.6225301    83.740341  0.014568605  0.013582474           65 
  480000   0.49399372   -7.6293822    83.691533   0.01452978   0.01353992          120 
  481000   0.49780279   -7.6309306    83.760854  0.014511582  0.013497614           49 
  482000   0.50507428   -7.6370328    83.722017  0.014474761  0.013455409           23 
  483000   0.49291796   -7.6304823    83.721074   0.01444463  0.013413498           56 
  484000   0.49091466   -7.6437904     83.75322   0.01442032  0.013371643           58 
  485000   0.48116972   -7.6512526    83.793411  0.014397493  0.013329964           85 
  486000   0.49353568   -7.6424621    83.675802  0.014347703  0.013288494           84 
  487000   0.47994979   -7.6343713    83.718724  0.014325586  0.013247263          116 
  488000   0.48604493   -7.6571194    83.646333  0.014283868  0.013206131           69 
  489000    0.5049042   -7.6598984    83.772359  0.014276135  0.013165101           75 
  490000   0.49097357   -7.6611163    83.647897  0.014225833  0.013124192           60 
  491000   0.48839027   -7.6597271    83.660568   0.01419901  0.013083513          153 
  492000   0.47954203   -7.6532663     83.46113   0.01413637  0.013042881          109 
  493000   0.47916106   -7.6672699    83.582144  0.014128151  0.013002313          131 
  494000   0.48294762   -7.6657164    83.590818  0.014101015  0.012961916          147 
  495000    0.4738308   -7.6851082    83.714935  0.014093423  0.012921694           85 
  496000    0.4859413   -7.6682316    83.637433  0.014051988  0.012881671           74 
  497000   0.46539376   -7.6725483    83.587802  0.014015393   0.01284176           78 
  498000   0.47439929   -7.6533483    83.691564  0.014004612  0.012801995           44 
  499000   0.48043202   -7.6857022    83.505563  0.013945485  0.012762299           87 
  500000   0.47107896    -7.696499    83.482336  0.013913723  0.012722765           92 
  501000   0.45836373   -7.6836209    83.397575  0.013871852  0.012683272           72 
  502000   0.46034153   -7.6950076    83.491888  0.013859875  0.012644005           79 
  503000   0.45350347    -7.688378    83.364089  0.013811148  0.012604803          104 
  504000   0.47905682   -7.6888539    83.364684  0.013783843  0.012565767           53 
  505000   0.47186026   -7.6960034     83.39431  0.013761437  0.012526837           70 
  506000   0.46203319    -7.677494    83.405298   0.01373605  0.012488057          119 
  507000   0.47244064   -7.6896917    83.515373   0.01372705  0.012449416          175 
  508000   0.45453532   -7.7069339    83.404805  0.013681891  0.012410944          117 
  509000   0.45949103   -7.6978578    83.410853  0.013656001  0.012372573           85 
  510000   0.44865287   -7.7125622    83.411463  0.013629324  0.012334362           99 
  511000   0.44565514   -7.7051398    83.428796  0.013605479  0.012296318          111 
  512000   0.44413976   -7.7033907    83.232692  0.013546988  0.012258367          103 
Loop time of 1079.41 on 48 procs for 500000 steps with 4000 atoms

Performance: 80043.381 tau/day, 463.214 timesteps/s
99.4% CPU use with 48 MPI tasks x no OpenMP threads

MPI task timing breakdown:
Section |  min time  |  avg time  |  max time  |%varavg| %total
---------------------------------------------------------------
Pair    | 67.452     | 71.211     | 75.087     |  16.5 |  6.60
Neigh   | 6.7955     | 6.933      | 7.117      |   2.8 |  0.64
Comm    | 59.461     | 63.449     | 66.954     |  24.9 |  5.88
Output  | 0.86058    | 0.86111    | 0.87131    |   0.2 |  0.08
Modify  | 920.52     | 924.57     | 929.17     |   7.4 | 85.65
Other   |            | 12.39      |            |       |  1.15

Nlocal:        83.3333 ave          91 max          75 min
Histogram: 2 2 2 5 7 15 7 4 2 2
Nghost:        1805.35 ave        1833 max        1780 min
Histogram: 5 4 4 9 5 1 7 3 8 2
Neighs:        11105.1 ave       12283 max        9501 min
Histogram: 2 1 1 4 13 5 4 11 4 3
FullNghs:      22211.5 ave       24412 max       19548 min
Histogram: 1 1 4 3 9 12 6 8 2 2

Total # of neighbors = 1066152
Ave neighs/atom = 266.53800
Neighbor list builds = 26969
Dangerous builds = 0

#clear
#
#next RN
#
#jump SELF
Total wall time: 0:18:02
