
units lj                  # Use reduced LJ style units
atom_style atomic         # Uncharged point particles
atom_modify map hash      # Needed for indexing of clusters etc
                          # Used to be able to find where atoms are in relation to each other.

lattice fcc 1.0 spacing 1 1 1
Lattice spacing in x,y,z = 1.5874011 1.5874011 1.5874011
region box block 0 10 0 10 0 10 units lattice
create_box 2 box
Created orthogonal box = (0.0000000 0.0000000 0.0000000) to (15.874011 15.874011 15.874011)
  3 by 4 by 4 MPI processor grid
create_atoms 1 box
Created 4000 atoms
  using lattice units in orthogonal box = (0.0000000 0.0000000 0.0000000) to (15.874011 15.874011 15.874011)
  create_atoms CPU = 0.015 seconds
set type 1 type/fraction 2 0.37 78393
Setting atom values ...
  1496 settings made for type/fraction
mass 1 1.0
mass 2 1.0
pair_style lj/cut  3.5
pair_modify tail  yes
pair_coeff 1  1  1.0  1.0   # Intearaction between 1 and 1 set with epsilon = 1 and sigma = 1
pair_coeff 1  2  1.5  0.8
pair_coeff 2  2  0.5  0.88

write_data data.0
System init for write_data ...
Neighbor list info ...
  update every 1 steps, delay 10 steps, check yes
  max neighbors/atom: 2000, page size: 100000
  master list distance cutoff = 3.8
  ghost atom cutoff = 3.8
  binsize = 1.9, bins = 9 9 9
  1 neighbor lists, perpetual/occasional/extra = 1 0 0
  (1) pair lj/cut, perpetual
      attributes: half, newton on
      pair build: half/bin/atomonly/newton
      stencil: half/bin/3d
      bin: standard
WARNING: Not all mixed pair coeffs generated from mixing. Use write_data with 'pair ij' option to store all pair coeffs. (../write_data.cpp:312)


#############################
#   M E L T   S Y S T E M   #
#############################

velocity all create 2.4 3143649 mom yes dist gaussian # Assign velocities
                                                    # Temperature 2.4, random number seed, zero linear momentum
                                                                                # Gaussian distribution

timestep 0.002   # simulation timestep
thermo 1000       # output thermodynamic data every 1000 steps bf 100

# Define a fix  in this case with index 1 applied to all
# particles in the simulation. This fix is for simulations
# in the anisotropic NPT ensemble. Note that we use the MTK
# correction.
fix 1 all npt temp 2.4 2.4 0.1 iso 5.68 5.68 0.5 mtk yes tchain 5 pchain 5 # Use NPT ensemble
                                                                         # Set temperature and pressure and damping
                                                                         # Numbers of thermostats in chain and in barostat
run 10000          # run for 10000 steps
Per MPI rank memory allocation (min/avg/max) = 3.642 | 3.644 | 3.648 Mbytes
Step Temp E_pair E_mol TotEng Press Volume 
       0          2.4   -6.0326183            0   -2.4335183   -4.1254262         4000 
    1000    2.4060025   -5.0753035            0    -1.467202    5.3066672    3977.3361 
    2000    2.3397452   -5.0222788            0   -1.5135385    5.8543695    3953.3517 
    3000    2.4193877   -5.0693168            0   -1.4411425    5.4364724    3974.2114 
    4000    2.4290951   -5.0586122            0   -1.4158804     5.774434    3946.4109 
    5000    2.3765775   -5.0259167            0   -1.4619417    5.9978976    3939.8625 
    6000    2.3734377   -5.0187654            0    -1.459499    5.3700159     3993.035 
    7000    2.3524235   -5.0184314            0   -1.4906783    5.7103873    3958.2163 
    8000    2.3621449   -5.0423204            0   -1.4999888     5.925474    3938.9885 
    9000    2.3996699   -5.0687786            0   -1.4701737    5.3530838    3975.6189 
   10000    2.3952468   -5.0872739            0    -1.495302    6.0034025    3907.1144 
Loop time of 2.4813 on 48 procs for 10000 steps with 4000 atoms

Performance: 696409.606 tau/day, 4030.148 timesteps/s
99.6% CPU use with 48 MPI tasks x no OpenMP threads

MPI task timing breakdown:
Section |  min time  |  avg time  |  max time  |%varavg| %total
---------------------------------------------------------------
Pair    | 1.0687     | 1.1629     | 1.2547     |   3.4 | 46.87
Neigh   | 0.20008    | 0.21388    | 0.22351    |   1.1 |  8.62
Comm    | 0.74781    | 0.83833    | 0.93625    |   4.5 | 33.79
Output  | 0.00024555 | 0.0002515  | 0.00031885 |   0.0 |  0.01
Modify  | 0.21567    | 0.25061    | 0.29647    |   4.9 | 10.10
Other   |            | 0.01534    |            |       |  0.62

Nlocal:        83.3333 ave          91 max          73 min
Histogram: 1 1 4 4 8 6 11 4 5 4
Nghost:        1667.96 ave        1689 max        1644 min
Histogram: 3 1 6 2 6 8 9 5 7 1
Neighs:        9752.31 ave       11153 max        8292 min
Histogram: 2 2 5 1 14 7 10 3 3 1

Total # of neighbors = 468111
Ave neighs/atom = 117.02775
Neighbor list builds = 902
Dangerous builds = 187

# Equilibrate just above the melting temperature to avoid step fn in T

fix 1 all npt temp 1.25 1.25 0.1 iso 5.68 5.68 0.5 mtk yes tchain 5 pchain 5
run 2000
Per MPI rank memory allocation (min/avg/max) = 3.643 | 3.645 | 3.649 Mbytes
Step Temp E_pair E_mol TotEng Press Volume 
   10000    2.3952468   -5.0872739            0    -1.495302    6.0034025    3907.1144 
   11000    1.2355795   -6.9665831            0   -5.1136772     5.824837    3155.6928 
   12000    1.2575598   -7.0451738            0   -5.1593057     5.781719    3139.3763 
Loop time of 0.599049 on 48 procs for 2000 steps with 4000 atoms

Performance: 576914.646 tau/day, 3338.626 timesteps/s
99.6% CPU use with 48 MPI tasks x no OpenMP threads

MPI task timing breakdown:
Section |  min time  |  avg time  |  max time  |%varavg| %total
---------------------------------------------------------------
Pair    | 0.26663    | 0.28851    | 0.32448    |   2.2 | 48.16
Neigh   | 0.038249   | 0.040805   | 0.043881   |   0.6 |  6.81
Comm    | 0.184      | 0.2197     | 0.24412    |   2.6 | 36.68
Output  | 5.2801e-05 | 5.3837e-05 | 7.0042e-05 |   0.0 |  0.01
Modify  | 0.039515   | 0.045118   | 0.051598   |   1.7 |  7.53
Other   |            | 0.004856   |            |       |  0.81

Nlocal:        83.3333 ave          89 max          77 min
Histogram: 5 1 7 2 3 12 3 6 4 5
Nghost:        1933.96 ave        1955 max        1916 min
Histogram: 3 4 5 10 5 7 4 7 2 1
Neighs:        12170.5 ave       13386 max       10594 min
Histogram: 1 2 3 5 6 9 7 8 4 3

Total # of neighbors = 584185
Ave neighs/atom = 146.04625
Neighbor list builds = 142
Dangerous builds = 7

#############################
# L I N E A R  Q U E N C H  #
#############################

# Define solid atoms. This closely follows ten Wolde  Ruiz-Montero and Frenkel  Faraday Discuss  1996  104  93-110
# Compute components of the per-atom q6 vector
compute q6 all orientorder/atom degrees 1 6 components 6 nnn NULL cutoff 1.3 # compute the Q6 parameter.
                                                                             # Use all neighbours within 1.3 unit cell.

# get number of connections
compute coord_number all coord/atom orientorder q6 0.5

# An atom is solid if it has 8 or more connections (of a possible 14)
variable is_solid atom c_coord_number>=8
group solid dynamic all var is_solid    # Must be dynamic to update
dynamic group solid defined

# do clustering
compute cluster solid cluster/atom 1.3 # Create a cluster where all atoms within are solid and max 1.3 units from another member

# define chunks one chunk per cluster
compute clus_chunks solid chunk/atom c_cluster nchunk every compress yes  # Says which atoms are in which chunk

# count the size of each chunk
compute size_chunks solid property/chunk clus_chunks count


# Find the maximum entry in the vector of chunk sizes
variable max_n equal max(c_size_chunks)


# Thermo style which includes this variable
# thermo_style custom step temp pe vol v_max_n

thermo ${N}  # Print the thermo information every 100 steps
thermo 1000  

# Reset the npt fix at a lower temperature (below freezing)
fix 1  all npt temp  ${temp} ${temp}  0.1  iso  5.68  5.68  0.5  mtk yes tchain  5  pchain  5
fix 1  all npt temp  0.45 ${temp}  0.1  iso  5.68  5.68  0.5  mtk yes tchain  5  pchain  5
fix 1  all npt temp  0.45 0.45  0.1  iso  5.68  5.68  0.5  mtk yes tchain  5  pchain  5

dump dmp2 all dcd ${N} traj.dcd
dump dmp2 all dcd 1000 traj.dcd


compute msd all msd com yes
variable twopoint equal c_msd[4]/6/(step*dt+1.0e-6)
fix 9 all vector 10 c_msd[4]
variable fit equal slope(f_9)/6/(10*dt)
thermo_style custom step temp pe c_msd[4] v_twopoint v_fit v_max_n

fix 1 all npt temp 1.25 ${temp} 0.1 iso 5.68 5.68 0.5 mtk yes tchain 5 pchain 5
fix 1 all npt temp 1.25 0.45 0.1 iso 5.68 5.68 0.5 mtk yes tchain 5 pchain 5
run 500000 # 5000000  # Run for this many steps
Neighbor list info ...
  update every 1 steps, delay 10 steps, check yes
  max neighbors/atom: 2000, page size: 100000
  master list distance cutoff = 3.8
  ghost atom cutoff = 3.8
  binsize = 1.9, bins = 8 8 8
  4 neighbor lists, perpetual/occasional/extra = 1 3 0
  (1) pair lj/cut, perpetual
      attributes: half, newton on
      pair build: half/bin/atomonly/newton
      stencil: half/bin/3d
      bin: standard
  (2) compute orientorder/atom, occasional
      attributes: full, newton on
      pair build: full/bin/atomonly
      stencil: full/bin/3d
      bin: standard
  (3) compute coord/atom, occasional
      attributes: full, newton on
      pair build: full/bin/atomonly
      stencil: full/bin/3d
      bin: standard
  (4) compute cluster/atom, occasional
      attributes: full, newton on
      pair build: full/bin/atomonly
      stencil: full/bin/3d
      bin: standard
Per MPI rank memory allocation (min/avg/max) = 9.820 | 9.826 | 9.831 Mbytes
Step Temp PotEng c_msd[4] v_twopoint v_fit v_max_n 
   12000    1.2575598   -7.0451738            0            0 8.3333333e+20            1 
   13000    1.2465982   -7.0415412   0.46511425 0.0029815015  0.038114768            1 
   14000    1.2370772   -7.0609559    0.8900257 0.0052977719  0.035591658            2 
   15000    1.2203431   -7.0873169    1.3087821 0.0072710114  0.035361174            2 
   16000    1.2603472    -7.075731    1.7691299 0.0092142181  0.035655158            1 
   17000    1.2356839   -7.0768216    2.2180107  0.010872601  0.036115611            1 
   18000    1.2332374   -7.0639284    2.6437025  0.012239363  0.036283827            1 
   19000    1.2423751   -7.0952432     3.090344   0.01355414  0.036540515            2 
   20000    1.2095614   -7.1105434    3.5389279  0.014745533   0.03662629            3 
   21000     1.246912   -7.1049912     4.018571   0.01594671  0.036916698            2 
   22000    1.2368252   -7.0898234    4.5262273    0.0171448  0.037209079            1 
   23000    1.2137497   -7.0414764    4.9770764  0.018032885  0.037369493            1 
   24000    1.2594391   -7.1154239    5.3900723  0.018715529  0.037420799            2 
   25000     1.242243   -7.0968991    5.7694056  0.019231352  0.037403549            1 
   26000    1.2336134   -7.0299589    6.2495058  0.020030467  0.037289258            1 
   27000    1.2353521   -7.1239961    6.6373421  0.020485623  0.037216801            2 
   28000    1.2708319   -7.1422936    7.0925233    0.0211087  0.037148108            1 
   29000    1.2286255    -7.121351    7.5005993  0.021553446  0.037041401            2 
   30000    1.2185645   -7.1210356    7.9150769  0.021986324  0.036939477            2 
   31000    1.2016744   -7.0826157    8.5199906    0.0229032   0.03694187            1 
   32000    1.2169623   -7.1119701    8.9337381  0.023264943  0.037050516            2 
   33000    1.2391161   -7.1040636    9.3390232  0.023583391  0.037050964            4 
   34000    1.2313838   -7.1101933     9.714118  0.023809112  0.037030357            2 
   35000    1.2189081    -7.156534    10.082183  0.024005197  0.036915171            1 
   36000     1.220442   -7.1306127    10.560394  0.024445355  0.036861859            1 
   37000    1.2227987   -7.1528605    10.958342  0.024680951  0.036797518            1 
   38000    1.2026793   -7.1100345    11.345169  0.024879755  0.036688954            1 
   39000    1.1923402   -7.1103843    11.608899   0.02480534   0.03653347            1 
   40000    1.2096455   -7.1726361    11.946034  0.024887571   0.03632583            5 
   41000    1.2111389   -7.1668918    12.370808  0.025143918  0.036124563            4 
   42000    1.2106655   -7.1652121     12.60447  0.025008868  0.035917399            2 
   43000    1.1904278   -7.1264047    12.920548  0.025039821  0.035632749            3 
   44000    1.1759151   -7.1468402    13.286018  0.025162913  0.035395465            2 
   45000    1.1933863   -7.1598277    13.639795  0.025258879  0.035166805            2 
   46000     1.216964   -7.1461914    14.190598  0.025707605  0.035002236            1 
   47000    1.1913522   -7.1202328    14.619271  0.025920693  0.034862736            2 
   48000    1.2133291   -7.1596157    15.048585  0.026126016  0.034752541            2 
   49000     1.185848    -7.165756    15.497313  0.026355974  0.034667965            1 
   50000    1.1713693   -7.2123802    15.869946   0.02644991  0.034605498            4 
   51000    1.1935734   -7.1755157    16.121448  0.026342236  0.034506834            2 
   52000    1.2013477   -7.1565977    16.397345  0.026277795  0.034374927            1 
   53000     1.187973   -7.1865783    16.738035  0.026317665  0.034228056            2 
   54000    1.1773089   -7.1856017    17.098062  0.026385897  0.034102135            3 
   55000    1.1929823   -7.1760693    17.443149  0.026429013  0.033971676            4 
   56000    1.1817786   -7.1700978    17.948057  0.026708418  0.033863387            1 
   57000    1.1730543   -7.2689058    18.234783  0.026659039  0.033770254            1 
   58000    1.1757499   -7.2152911    18.712324  0.026885523  0.033683026            1 
   59000    1.1673044   -7.1674606    19.273571  0.027222557  0.033628231            2 
   60000    1.1600972   -7.1996052     19.58248  0.027197889  0.033586211            2 
   61000    1.1775326   -7.2684899    19.870957  0.027146116  0.033533165            3 
   62000    1.1476225   -7.2646368    20.160115  0.027096928  0.033470215            1 
   63000    1.1753086   -7.2267142    20.447899  0.027047486   0.03338651            2 
   64000    1.1746491   -7.2323342    20.855945  0.027156178  0.033300921            2 
   65000    1.1561818   -7.2087597    21.187753  0.027163786  0.033215195            1 
   66000     1.167606   -7.2245406    21.456894  0.027092037  0.033117225            3 
   67000    1.1642975   -7.2406025    21.787567  0.027098963  0.033020397            2 
   68000    1.1650183   -7.2607285     22.05267   0.02702533  0.032921105            4 
   69000    1.1554682    -7.205468    22.586904  0.027278869  0.032824616            1 
   70000     1.149963   -7.2478254    22.791404  0.027132623  0.032741891            2 
   71000    1.1474992   -7.2384853    23.218289  0.027251513  0.032654149            1 
   72000    1.1517646   -7.2441085    23.517446  0.027219266  0.032564977            3 
   73000    1.1738067   -7.2954572    23.774732  0.027140105  0.032477626            1 
   74000    1.1499321   -7.2926976    24.137626  0.027182011  0.032391897            1 
   75000    1.1466266   -7.2433737    24.454533  0.027171704   0.03229595            1 
   76000     1.122159   -7.3140653    24.826142  0.027221647  0.032211075            4 
   77000    1.1673192   -7.3205112    25.093883  0.027157882  0.032126095            4 
   78000    1.1280365    -7.269776    25.587546  0.027337122  0.032045275            1 
   79000    1.1355624   -7.2982758    25.823274  0.027239741  0.031967987            3 
   80000     1.157294    -7.309913    26.255282  0.027349252  0.031898355            2 
   81000    1.1103255   -7.3208213    26.551049  0.027315894  0.031824843            2 
   82000     1.172151    -7.315047    26.911244  0.027348825  0.031763879            2 
   83000    1.1255026   -7.2938968     27.34352  0.027453333  0.031696297            1 
   84000    1.1142866   -7.2845716    27.671832  0.027452214  0.031637066            6 
   85000    1.1195312   -7.3031511    27.935871  0.027388109  0.031576502            1 
   86000    1.1279037   -7.3339768    28.273441  0.027396745  0.031517224            2 
   87000    1.1365465   -7.2650831    28.697858  0.027488369  0.031454045            4 
   88000    1.1395807   -7.3193191    28.998309   0.02746052  0.031398278            1 
   89000    1.1466347   -7.3490285    29.305984   0.02744006  0.031338731            1 
   90000    1.1286112   -7.3230506    29.382254  0.027205791  0.031275688            1 
   91000    1.1170789   -7.3510126    29.742035  0.027236296   0.03120304            2 
   92000    1.1189188   -7.3649443    30.192756  0.027348511  0.031129783            2 
   93000     1.123392   -7.3509343    30.530538  0.027357112  0.031064203            2 
   94000    1.1205663   -7.3467813    30.810721  0.027314469  0.031001378            2 
   95000    1.1188716   -7.3627885    31.023835   0.02721389  0.030933646            3 
   96000    1.0792575   -7.4140411       31.302  0.027171875  0.030864793            1 
   97000     1.100943   -7.4203663    31.435827  0.027006724  0.030795624            2 
   98000    1.0965005    -7.351466    31.926083  0.027148029  0.030724266            1 
   99000    1.1152414   -7.3503749    32.328234  0.027212318  0.030655867            2 
  100000    1.1118868   -7.3316912     32.58314  0.027152617  0.030587556            3 
  101000     1.118843   -7.3420692    32.871185   0.02712144  0.030524115            2 
  102000    1.1200605   -7.3498668    33.066135  0.027014816   0.03045729            1 
  103000    1.0878321   -7.3998308    33.311612  0.026951142  0.030386713       -1e+20 
  104000    1.1066403   -7.3771259    33.629394   0.02694663   0.03031093            4 
  105000    1.0806195   -7.3818312    33.853185  0.026867607  0.030235305            1 
  106000    1.0863607   -7.3999369    34.091491  0.026801487  0.030158994            2 
  107000    1.1097419   -7.3811429    34.373031  0.026770273  0.030084305            4 
  108000    1.1002359   -7.3864818    34.758996  0.026820213  0.030012832            3 
  109000    1.0783872   -7.4650217    34.841453  0.026637196  0.029942056            1 
  110000    1.1031346   -7.4589726    35.270273  0.026719904  0.029870289            3 
  111000    1.0734359   -7.3915577    35.625005  0.026745499  0.029799103            2 
  112000    1.0535445   -7.4378839    35.690247  0.026555243  0.029724485            2 
  113000    1.0872547   -7.4300501    36.132666  0.026646509  0.029651972            2 
  114000    1.0993967   -7.3832557    36.545073  0.026714235  0.029584194            3 
  115000    1.0783781   -7.4156959    36.785904  0.026656452  0.029520813            4 
  116000    1.0792696   -7.4420385    37.032152  0.026603557  0.029456047            3 
  117000    1.0774093   -7.4147946    37.224203  0.026512965  0.029384326            2 
  118000    1.0690436   -7.4573371    37.298788  0.026340952  0.029308065            1 
  119000    1.0596651   -7.4485108    37.343893  0.026151186  0.029231159            2 
  120000    1.0943084   -7.4852614    37.898901  0.026318681  0.029150516            1 
  121000    1.0725801   -7.4261706    38.113836  0.026249198  0.029076778            4 
  122000    1.0771962   -7.4180092    38.489769  0.026290826  0.029003616            1 
  123000    1.0566829   -7.4351748    38.724784  0.026236303  0.028929933            1 
  124000    1.0820591    -7.429203    38.875975  0.026126327  0.028856171            1 
  125000    1.0713061   -7.4825373    39.030612  0.026020408  0.028780052            1 
  126000    1.0620475   -7.4585585    39.518604  0.026136643  0.028708318            2 
  127000    1.0591448    -7.451961     39.62956  0.026003648  0.028634292            3 
  128000    1.0839737   -7.5139893    39.926493   0.02599381  0.028561621            1 
  129000    1.0602768   -7.5002531    40.240146  0.025994926  0.028491654            1 
  130000     1.071188   -7.4730141    40.256806  0.025805645  0.028418724            1 
  131000    1.0810053   -7.5271544    40.366725  0.025678578    0.0283438            1 
  132000    1.0322041   -7.4728146    40.676823  0.025679812  0.028265733            2 
  133000    1.0301653   -7.4660438    41.056309  0.025724504  0.028189666            2 
  134000    1.0428972   -7.4961807    41.199449  0.025621548  0.028114163            1 
  135000    1.0396943   -7.4896104    41.378976  0.025542578  0.028036337            2 
  136000    1.0712537   -7.4830734    41.619207  0.025501965  0.027958325            1 
  137000    1.0529803   -7.4970325     41.88767  0.025479118  0.027881309            1 
  138000     1.027537   -7.5109327    42.074362  0.025407223  0.027806145            5 
  139000    1.0406784   -7.5529192    42.228957   0.02531712  0.027728739            2 
  140000    1.0329533   -7.5111685    42.370085  0.025220289  0.027651012            1 
  141000    1.0635227   -7.4718871    42.769516  0.025277491  0.027573619            2 
  142000    1.0303824   -7.5481488    42.850893  0.025147238  0.027495821            2 
  143000    1.0607648    -7.532659    43.003193  0.025060135  0.027413869            1 
  144000    1.0369119   -7.5493713    42.982513   0.02487414   0.02732908            2 
  145000    1.0151976   -7.5422072    43.351463  0.024914634  0.027246624            1 
  146000    1.0387379   -7.5947916    43.541244  0.024852308  0.027166086            2 
  147000     1.025696   -7.5103046     43.83714  0.024850986  0.027084853            2 
  148000    1.0188183   -7.5413762     43.94319  0.024742787  0.027005909            1 
  149000    1.0398802   -7.5727196     44.12337    0.0246775  0.026925365            3 
  150000    1.0511572   -7.5603465    44.330773  0.024628207  0.026844985            1 
  151000    1.0161636   -7.5957949    44.591399   0.02460894   0.02676385            2 
  152000    1.0303114   -7.5762855    44.862224  0.024595518  0.026684626            1 
  153000    1.0230938   -7.5750565    45.042424  0.024532911  0.026605714            2 
  154000     1.033845   -7.5886522    45.314134  0.024520635  0.026529098            2 
  155000    1.0163923   -7.5722533      45.6829  0.024560699  0.026455129            3 
  156000    1.0247673     -7.58755    45.833358  0.024483631  0.026383808            3 
  157000    1.0283541   -7.6129146    46.194678  0.024519468   0.02631376            2 
  158000    1.0061792    -7.628013    46.240367  0.024388379  0.026244081            1 
  159000    1.0169358   -7.6054739    46.471463  0.024356112  0.026174371            2 
  160000   0.99874967   -7.5930721      46.6987  0.024322239  0.026105445            1 
  161000    1.0369832   -7.5861202    46.763339  0.024204627  0.026035163            1 
  162000    1.0202202   -7.6157225    46.938569  0.024145354  0.025962263            1 
  163000    1.0111108    -7.609426    47.112535  0.024086163  0.025889627            2 
  164000   0.99430527   -7.6034766    47.106894   0.02393643  0.025817321            1 
  165000   0.99590566   -7.6052668    47.498708  0.023989247  0.025744597            2 
  166000    1.0097842   -7.6164773     47.61591  0.023903569  0.025672034            2 
  167000    1.0070594   -7.6427623    47.769845  0.023837248  0.025599911            1 
  168000    1.0185677   -7.6351963    48.121045  0.023869566  0.025529221            2 
  169000   0.99768223   -7.6186772    48.329901  0.023831312  0.025458366            1 
  170000    1.0130628   -7.6742233    48.286262  0.023669736  0.025387346            2 
  171000    1.0032661   -7.6454855    48.451262  0.023611726  0.025314841            2 
  172000   0.98967939   -7.6370913    48.745994  0.023617245  0.025241907            2 
  173000    1.0018562   -7.5965063    48.926813  0.023567829    0.0251682            1 
  174000   0.98009007   -7.6600217    48.971961  0.023454004  0.025095878            2 
  175000    1.0055834   -7.6713219    49.197251  0.023427262   0.02502463            2 
  176000   0.97621742    -7.697454    49.252637  0.023320377  0.024951962            1 
  177000   0.98400954   -7.6808486    49.322136  0.023221345  0.024878871            2 
  178000   0.97105973   -7.7013258     49.28652  0.023074213    0.0248049            2 
  179000   0.98893973   -7.6607636    49.731992  0.023152696  0.024729896            1 
  180000   0.97730265   -7.7170541    49.920629  0.023111402  0.024655149            2 
  181000   0.99553146   -7.6914332    49.937245  0.022991365  0.024582657            2 
  182000   0.98505666   -7.6904253    50.221843  0.022995349  0.024511272            2 
  183000   0.95987323   -7.7015021    50.624342  0.023052979  0.024440161            1 
  184000   0.96001407   -7.7321382     50.68224  0.022953913  0.024369534            2 
  185000   0.95241016   -7.6922703    50.789509  0.022878157  0.024297531            2 
  186000   0.97209538   -7.7174968    50.707603   0.02271846  0.024224912            3 
  187000    0.9638562   -7.7429214    50.995343  0.022725197  0.024152488            1 
  188000   0.94861028   -7.7016767    51.069413  0.022637151  0.024080499            2 
  189000   0.98191291   -7.7087712    51.367413  0.022648771  0.024010159            1 
  190000   0.96961393   -7.7219047    51.489981  0.022583325  0.023939991            1 
  191000   0.95427529   -7.7083452    51.598126  0.022512271  0.023869313            2 
  192000   0.95325723   -7.7054798    51.745828  0.022459127  0.023799971            3 
  193000    0.9395382   -7.6938624    51.967615  0.022438521  0.023730426            1 
  194000   0.95830263   -7.7408833    51.971034  0.022324327  0.023661364            2 
  195000   0.94696145   -7.7279243    52.187048  0.022302157  0.023591093            1 
  196000    0.9487433   -7.7530596    52.443689  0.022297487  0.023522694            1 
  197000   0.95508536   -7.7268777     52.58631  0.022244632  0.023454937            4 
  198000    0.9306768   -7.7475044    52.832489  0.022235896  0.023388614            2 
  199000   0.95972407   -7.7385987    53.077377  0.022226707  0.023322484            1 
  200000   0.95081341    -7.764116     53.04066  0.022100275  0.023256457            2 
  201000   0.94641446   -7.7826137    53.130376  0.022027519  0.023190322            2 
  202000   0.95015084   -7.7762832    53.363203  0.022014523  0.023123187            2 
  203000   0.94246459   -7.7658867    53.724494   0.02205439  0.023057549            2 
  204000   0.96705994   -7.7564243    53.778218  0.021968226  0.022993949            3 
  205000   0.94563184   -7.7606643    54.155078  0.022014259  0.022931526            3 
  206000   0.95875048   -7.7839763    53.968654   0.02183198  0.022869138            3 
  207000   0.93313432   -7.7915358    54.383225  0.021893408    0.0228075            2 
  208000   0.92821683   -7.7973225    54.303493  0.021756207  0.022745328            2 
  209000   0.93561361    -7.784862    54.494848  0.021728408  0.022682297            2 
  210000   0.94310499   -7.8333434    54.783893   0.02173964  0.022619872            3 
  211000   0.92084477   -7.8114001     54.74516  0.021621311  0.022557544            2 
  212000   0.93717822   -7.8124778    54.832068  0.021553486  0.022493993            2 
  213000   0.93857038   -7.7914182    55.062466  0.021542436  0.022429757            1 
  214000   0.93108883   -7.8188912    55.212201  0.021500078  0.022367645            1 
  215000   0.93074133   -7.8740636    55.035553   0.02133161   0.02230445            1 
  216000   0.93309167   -7.8821899    55.297405  0.021333875  0.022242384            1 
  217000   0.92422897   -7.8351326    55.436152  0.021288845  0.022179229            1 
  218000   0.94002873   -7.8571737    55.483801  0.021209404  0.022116653            3 
  219000   0.92634176   -7.8362089     55.62078   0.02116468  0.022053689            1 
  220000   0.92532419   -7.8146833    55.878735  0.021166187  0.021991119            1 
  221000   0.90410127   -7.8448806    55.845094  0.021057728  0.021928914            1 
  222000   0.89033798   -7.8288563    56.045011  0.021037917  0.021867299            1 
  223000   0.92715532   -7.8642384    56.260744  0.021024194  0.021805372            1 
  224000   0.90821007    -7.859061    56.255357  0.020928332   0.02174363            2 
  225000   0.90948117   -7.8401152    56.264118  0.020838562  0.021681016            3 
  226000   0.92257449   -7.9255542    56.251426  0.020741676  0.021618041            1 
  227000    0.9024351   -7.8744565    56.522892   0.02074996  0.021554675            1 
  228000   0.88243665   -7.8427088    56.691306  0.020720507  0.021492301            3 
  229000   0.90543299   -7.8720647    56.670145  0.020622323  0.021429982            3 
  230000   0.90684086   -7.8750947    56.909822  0.020619501  0.021367221            3 
  231000   0.89544981   -7.8698928    57.060524  0.020584604  0.021305477            2 
  232000   0.89843925   -7.9000214    57.035864   0.02048702  0.021245356            3 
  233000    0.8678865   -7.8808438    57.393591  0.020527035  0.021186127            3 
  234000   0.91092783   -7.8756217    57.734241  0.020560627  0.021127416            2 
  235000    0.9070802   -7.8753697    57.496975  0.020388998  0.021068223            2 
  236000   0.90389737   -7.8727818    57.693077  0.020371849  0.021008458            2 
  237000   0.91035718   -7.9005015     57.65481  0.020272437  0.020948599            2 
  238000   0.89324628    -7.932608    57.738063  0.020216409  0.020887887            3 
  239000   0.88349612   -7.9015157    57.952083  0.020206445  0.020828277            3 
  240000   0.89907813   -7.9228319    57.998916  0.020138512  0.020768826            3 
  241000   0.89800457   -7.9280734    58.091097  0.020086825  0.020709231            1 
  242000   0.88597951   -7.9390507    58.083892   0.02000134  0.020648863            5 
  243000   0.88582726   -7.9466559    58.173286  0.019949686  0.020588763            2 
  244000   0.86875961    -7.951848    58.231803  0.019887911  0.020528503            2 
  245000   0.86712004   -7.9418496    58.451886  0.019881594   0.02046842            2 
  246000   0.88855844   -7.9289459    58.444239  0.019798184  0.020408838            2 
  247000   0.86764183   -7.9730329    58.395989  0.019701751  0.020348773            3 
  248000   0.86415791      -7.9556     58.77702  0.019750343  0.020288448            1 
  249000   0.86085538   -7.9715897    58.687926  0.019641207  0.020228116            4 
  250000   0.86773471   -7.9399635    58.674036  0.019558012  0.020168248            3 
  251000   0.86546321   -7.9648224    58.674593  0.019480277  0.020107814            1 
  252000   0.86665357   -7.9694124    58.775556  0.019436361  0.020047514            1 
  253000   0.87797905   -7.9651432    58.989219  0.019429914  0.019987315            6 
  254000   0.85317111   -7.9429432    59.039153  0.019369801  0.019927391            2 
  255000   0.87466802   -7.9804358    59.096288  0.019312512  0.019867712            1 
  256000   0.85436182   -7.9784822    59.244504   0.01928532  0.019807848            5 
  257000    0.8597605   -7.9899764    59.181602  0.019189884  0.019747906            1 
  258000   0.87534726   -8.0098492    59.181647  0.019115519  0.019687863            4 
  259000   0.83974398   -8.0292489    59.326768  0.019088407  0.019628026            1 
  260000   0.84910716   -8.0013839    59.420721  0.019045103  0.019568278            6 
  261000   0.87020843   -8.0213705    59.343311  0.018947417  0.019508661            6 
  262000    0.8310066   -7.9861544     59.63615  0.018968241  0.019449204            2 
  263000   0.84960247   -8.0387517    59.491272  0.018850213  0.019390355            3 
  264000   0.82244049   -8.0548401    59.651038  0.018829242  0.019331231            1 
  265000    0.8444082   -8.0192196    59.959675  0.018855244  0.019272516            3 
  266000   0.82708779    -8.016544    59.945716  0.018779986  0.019214408            2 
  267000    0.8460761   -8.0403526    60.148705  0.018773004  0.019156679            2 
  268000   0.83549722   -8.0190672    60.142771   0.01870111  0.019099203            4 
  269000   0.83311076   -8.0591148    60.040635  0.018599949  0.019041288            2 
  270000   0.84242102   -8.0948614    60.108135  0.018551893  0.018982805            4 
  271000   0.83356772   -8.0508712    60.384649  0.018568465  0.018924442            2 
  272000   0.82878734   -8.0851432    60.271458   0.01846552  0.018866267            2 
  273000   0.83378009   -8.1046332      60.0322  0.018324847  0.018807359            3 
  274000   0.83129759   -8.0895523    60.279507  0.018333183  0.018748451            4 
  275000   0.81732681   -8.0774204      60.0577  0.018199303   0.01868974            5 
  276000   0.83995703   -8.0765679     60.18754  0.018172566  0.018629777            2 
  277000   0.80575917    -8.077664    60.263813  0.018129908  0.018570099            3 
  278000   0.83280986   -8.0923376    60.359397  0.018093344  0.018510449            1 
  279000   0.82826262   -8.1081496    60.249702  0.017995729  0.018450835            6 
  280000   0.81422126   -8.1072656     60.37077  0.017967491  0.018391484            3 
  281000   0.81519464   -8.0683723    60.455366  0.017928638  0.018332469            2 
  282000   0.81744968   -8.0937161    60.343734  0.017832073  0.018273416            2 
  283000   0.80724851   -8.1177763    60.484771  0.017810592  0.018214365            3 
  284000   0.80710361   -8.0941966    60.533357  0.017762135  0.018155927            2 
  285000   0.81485426   -8.1133006    60.615928  0.017723956  0.018097516            4 
  286000   0.82750338   -8.0868123     60.70004  0.017686492  0.018039361            4 
  287000   0.80986405   -8.0531268    60.940105  0.017694572  0.017981112            2 
  288000   0.79396679   -8.1032863    60.844432  0.017605449  0.017923466            3 
  289000   0.80775497   -8.1408582    60.636128  0.017484466   0.01786592            2 
  290000   0.81924456   -8.1071753    60.991042  0.017526161  0.017807992            3 
  291000   0.80265538    -8.111102     61.13848  0.017508156  0.017750306            2 
  292000   0.81083058   -8.1562009    60.963569  0.017398279   0.01769339            1 
  293000   0.78830929   -8.1145512    61.085638  0.017373617  0.017636673            3 
  294000   0.80817644   -8.1763154    60.947826  0.017275461  0.017579589            2 
  295000   0.81093142   -8.1721982    60.982579  0.017226717  0.017522409            2 
  296000   0.80927768   -8.1516033     61.19211  0.017227508  0.017465547            2 
  297000   0.78478014   -8.1382471    61.214061  0.017175663  0.017408855            4 
  298000   0.80564136   -8.1676262    61.086782  0.017082434  0.017352444            3 
  299000   0.80989398   -8.1953239    61.145981  0.017041801  0.017296117            3 
  300000   0.78909065    -8.188726    61.331069  0.017036408  0.017240046            4 
  301000   0.77725259   -8.1974619    61.366766  0.016989691  0.017184049            3 
  302000   0.78319338   -8.2060275    61.358042  0.016931027  0.017128348            2 
  303000   0.78454486   -8.2077802    61.432245  0.016895557  0.017072805            3 
  304000   0.78113134   -8.2096901    61.350735  0.016817636  0.017016875            3 
  305000   0.78988157   -8.2050265    61.562917  0.016820469  0.016961428            3 
  306000   0.78643523   -8.2233904    61.573131  0.016768282  0.016906625            2 
  307000   0.77626657   -8.2330428    61.563051  0.016710926  0.016852008            3 
  308000   0.78879425   -8.2259061    61.760899    0.0167102  0.016797564            2 
  309000   0.77963595   -8.2006505    61.765586  0.016657385  0.016743473            1 
  310000   0.76867253    -8.212885    61.631494  0.016567606  0.016689679            2 
  311000   0.76886032   -8.2096864    61.680934  0.016527582  0.016635532            4 
  312000   0.75595599   -8.2449475    61.737376  0.016489684  0.016581583            1 
  313000   0.77727369   -8.2417288    61.524219   0.01638025  0.016527059            5 
  314000   0.76624494   -8.2301354     61.71121   0.01637771  0.016472392            2 
  315000   0.76729219   -8.2316032    61.748707  0.016335637  0.016417955            2 
  316000   0.76381622   -8.2510964    61.547946  0.016230998  0.016363706            5 
  317000   0.76082751   -8.2638695    61.723194  0.016225866  0.016309376            8 
  318000   0.76834291   -8.2812097    61.656548  0.016157376  0.016254954            1 
  319000   0.75586559   -8.2628051    61.704702  0.016119306  0.016200388            4 
  320000   0.74625411   -8.2752046    61.624608  0.016048075  0.016145908            6 
  321000   0.75877377   -8.2453656    61.756431  0.016032303   0.01609168            2 
  322000   0.74368924   -8.3020194    61.784206  0.015989701  0.016037418            4 
  323000   0.77347188   -8.2881009    61.608789   0.01589494  0.015983312            3 
  324000   0.76354993   -8.3305012    61.613062  0.015846981  0.015929203            4 
  325000   0.74728953   -8.2846889    61.821367  0.015851633  0.015875244            2 
  326000   0.75217112   -8.2983307    61.849937  0.015810311  0.015821511            4 
  327000   0.76049831    -8.321401     61.79209   0.01574722  0.015767823            4 
  328000   0.73954013   -8.3239655    61.773263  0.015694427  0.015714426            4 
  329000   0.73088664   -8.2956614    61.882988  0.015674516  0.015661011            5 
  330000    0.7456582   -8.3135415    61.783705  0.015601946  0.015608142            1 
  331000   0.73350927   -8.3202125       61.876  0.015578046  0.015555454            4 
  332000   0.73452879   -8.3093909    61.913148  0.015540449  0.015502947            2 
  333000   0.73058814   -8.3156096    61.991204  0.015513314  0.015450395            4 
  334000   0.72968625   -8.3224565    61.965553  0.015460467  0.015397952            2 
  335000   0.73234389   -8.3178942    61.854114  0.015386596  0.015345863            5 
  336000   0.72323176   -8.3265574     61.97226  0.015370104  0.015293693            6 
  337000   0.72606523   -8.3709739    61.962781  0.015322152  0.015241778            1 
  338000   0.74659641   -8.3495018    61.824333  0.015242686  0.015189867            2 
  339000   0.73345662   -8.3655272    61.955801  0.015230039   0.01513781            3 
  340000   0.72353287   -8.3449282    61.911104   0.01517429  0.015085896            4 
  341000   0.72417094   -8.3456887    61.971225  0.015144483  0.015034289            4 
  342000   0.72370854   -8.3551939    61.883076  0.015078722  0.014982713            2 
  343000   0.70832681   -8.3815188    61.787371  0.015011509  0.014931075            2 
  344000    0.7064803   -8.3942878    61.784074  0.014967072   0.01487941            1 
  345000   0.71053699   -8.3612862    61.776647  0.014921895  0.014827893            5 
  346000   0.71396535   -8.3619324    61.954232  0.014921539  0.014776697            4 
  347000   0.71897793   -8.3747024    61.960806  0.014880117  0.014725569            2 
  348000     0.697493    -8.343922    62.034946  0.014855112  0.014674937            4 
  349000   0.70324376   -8.3571718    62.020202  0.014809026  0.014624461            2 
  350000   0.69587031   -8.3832222    62.020091  0.014766688  0.014574188            2 
  351000    0.7226279    -8.379347    61.964434  0.014711404  0.014524108            4 
  352000   0.70350189   -8.4010992    61.913724  0.014657605  0.014474059            4 
  353000   0.71660934   -8.3640005    61.987164  0.014633419  0.014424147            4 
  354000   0.70071434   -8.3978818    62.018057  0.014599354  0.014374573            6 
  355000   0.70145781   -8.4389342    62.021941  0.014559141   0.01432534            3 
  356000   0.69341268   -8.4314217    61.921117  0.014494643  0.014275946            2 
  357000   0.70988292    -8.398199    61.993337    0.0144709  0.014226736            6 
  358000   0.68935606   -8.4504823    61.788612  0.014382824  0.014177394            2 
  359000   0.71212847   -8.4093152    61.958268  0.014382142  0.014128242            2 
  360000   0.69026371   -8.4415436    61.880853  0.014324271  0.014079327            4 
  361000   0.68766961   -8.4118035    62.013072  0.014315114  0.014030724            1 
  362000   0.69119981   -8.4547419    61.871033  0.014242871  0.013982039            2 
  363000   0.67318829   -8.4417434    61.879913  0.014205673  0.013933213            7 
  364000   0.67231232   -8.4620255    61.986641  0.014191081  0.013884605            2 
  365000    0.6819171   -8.4473316    61.954033  0.014144756   0.01383621            3 
  366000   0.69737549   -8.4378192     61.90977  0.014096031  0.013787972            1 
  367000   0.68345883   -8.4645511    61.849609  0.014043962  0.013739928            4 
  368000     0.679966   -8.4845681    62.117223    0.0140664  0.013692095            3 
  369000    0.6637183   -8.4635139    61.999551  0.014001705  0.013644321            2 
  370000   0.67288142   -8.4636326    62.014382  0.013967203  0.013596981            1 
  371000   0.66744264   -8.4526049    62.043207   0.01393603  0.013549891            4 
  372000   0.66919809   -8.4602384    62.113379  0.013914287  0.013502841            3 
  373000   0.67796911   -8.4529378    61.970722  0.013845112  0.013455977            2 
  374000   0.66211732   -8.5018029    61.906731  0.013793835  0.013409244            4 
  375000   0.66039357   -8.4826624    61.927457  0.013761657  0.013362509            5 
  376000   0.66897382   -8.4838454    61.891167  0.013717014  0.013315979            3 
  377000   0.67656557   -8.4799628    61.933806  0.013690054  0.013269774            2 
  378000   0.66527654   -8.4912997    62.057208  0.013681042  0.013223582            1 
  379000   0.66154848   -8.4854918    61.997867  0.013631897   0.01317753            2 
  380000   0.64843507   -8.4966044    61.981015  0.013592328  0.013131577            1 
  381000    0.6853226    -8.499625    61.949371  0.013549731  0.013085801            4 
  382000    0.6529721   -8.4699172    61.955431  0.013515583  0.013040412            4 
  383000    0.6435872   -8.5085693    61.975577  0.013484677  0.012995033            1 
  384000   0.65139258   -8.4956848    61.941457  0.013442156  0.012949889            3 
  385000     0.652147   -8.4828708    62.149052  0.013452176  0.012904938            1 
  386000   0.63050778   -8.5110264    61.993991  0.013383849  0.012860119            3 
  387000   0.63473191   -8.5073446    61.920997  0.013333548  0.012815238            2 
  388000    0.6461927   -8.5239447    61.852177  0.013284402  0.012770651            2 
  389000   0.65661304   -8.5114132    61.957601  0.013272836  0.012726216            3 
  390000   0.65043877   -8.5346545    61.946071   0.01323634  0.012682104            5 
  391000   0.66066096   -8.5207448     61.96332  0.013206164  0.012638209            4 
  392000   0.65108193   -8.5443363    62.065692  0.013194237  0.012594461            1 
  393000    0.6379463   -8.5463702    62.089566  0.013165726  0.012551219            3 
  394000   0.63802402   -8.5486058     62.00187  0.013113763   0.01250797            9 
  395000   0.63651007   -8.5554342    61.981568   0.01307628  0.012464709            2 
  396000   0.61844863   -8.5503511    62.116284  0.013071609  0.012421581            1 
  397000    0.6322339   -8.5621574    61.955626  0.013004959  0.012378779            3 
  398000    0.6401734   -8.5526848    62.082597  0.012998869   0.01233615            3 
  399000    0.6343815   -8.5611846    62.032702  0.012955869  0.012293688            2 
  400000   0.62178572   -8.5740619    61.987513  0.012914065  0.012251276            2 
  401000   0.63410814   -8.5895883    61.995466  0.012883513  0.012208995            3 
  402000   0.61756665   -8.5759464    62.027039   0.01285801  0.012166833            2 
  403000   0.61716653   -8.5743454    61.846677  0.012788808  0.012124817            1 
  404000   0.61409335   -8.5602591    61.940127  0.012776429  0.012083006            2 
  405000   0.63020054   -8.5988128    61.984926    0.0127541  0.012041277            1 
  406000   0.60958552   -8.5754205    61.842672  0.012693488  0.011999631            3 
  407000   0.60142495   -8.5703197     61.99478  0.012693444  0.011958129            2 
  408000   0.60452713   -8.6092538    61.972905  0.012657865  0.011916746            4 
  409000   0.60198893   -8.6190057    61.992882  0.012630987  0.011875492            2 
  410000   0.62858444    -8.609456    61.898727  0.012581042  0.011834374            3 
  411000   0.61367201   -8.6187666    61.932357   0.01255725  0.011793525            1 
  412000   0.59400772   -8.6065936    61.897409  0.012519702   0.01175289            2 
  413000   0.61334752   -8.6168514    61.965702  0.012503168  0.011712403            2 
  414000   0.60499281   -8.6125152    61.934108  0.012466608  0.011671944            3 
  415000   0.60969479    -8.611013    61.981961  0.012446177   0.01163179            3 
  416000   0.60168238   -8.6419935    61.989902  0.012417849  0.011591715            3 
  417000   0.61024224   -8.6564876    61.726127  0.012335357  0.011551803            2 
  418000    0.6021222   -8.6402115     61.85059   0.01233066  0.011511984            4 
  419000   0.59823111   -8.6406952    61.851332  0.012301379  0.011472332            3 
  420000    0.6016401   -8.6623845    61.835991  0.012269046  0.011432762            1 
  421000   0.58819142    -8.640054    61.926501  0.012257819  0.011393515            2 
  422000   0.59900176   -8.6467992    61.883725  0.012220325  0.011354357            3 
  423000   0.59609142   -8.6546075    61.890945  0.012192858  0.011315358            1 
  424000   0.58801502   -8.6475958    61.882685  0.012162477  0.011276502            3 
  425000   0.57927496   -8.6730659    61.894036  0.012136085  0.011237714            4 
  426000   0.58817271   -8.6604601       61.815  0.012092136  0.011199121            2 
  427000     0.592884   -8.6377087    61.813795  0.012063582  0.011160713            2 
  428000   0.58872417   -8.6571911     61.81489  0.012035609  0.011122412            3 
  429000   0.58008219   -8.6462019     61.83372  0.012011212  0.011084136            2 
  430000   0.59342384    -8.676608    61.806294  0.011977964  0.011046072            3 
  431000   0.56893269   -8.6844442    61.697217  0.011929083   0.01100815            2 
  432000   0.57812846   -8.6702899    61.809607   0.01192315  0.010970299            1 
  433000   0.56902046    -8.685037    61.720434  0.011878451  0.010932594            3 
  434000   0.57506017   -8.6960189    61.736748  0.011854214  0.010895111            2 
  435000    0.5757491    -8.680392    61.808354  0.011840681  0.010857742            2 
  436000   0.57618864    -8.684151    61.728771  0.011798312  0.010820431            4 
  437000   0.57142808   -8.6800791     61.75065  0.011775486  0.010783289            5 
  438000   0.56684507   -8.7033817    61.709082  0.011740693  0.010746384            3 
  439000    0.5673739   -8.6807304     61.78769  0.011728871  0.010709617            7 
  440000   0.57391625   -8.7049413    61.677609  0.011681365  0.010672973            1 
  441000   0.55744456   -8.7017116    61.721284   0.01166313  0.010636492            1 
  442000   0.55069796   -8.6957909    61.621035  0.011617842   0.01060006            1 
  443000   0.55381508    -8.699707    61.562815  0.011580665  0.010563808            2 
  444000    0.5537532   -8.6917016    61.552326  0.011552614  0.010527635            2 
  445000   0.54681591   -8.7216406    61.666658  0.011548063  0.010491585            2 
  446000   0.54897668   -8.7049242    61.587957  0.011507466  0.010455602            2 
  447000   0.55562993   -8.7361349     61.59397  0.011482843  0.010419826            2 
  448000   0.54935949   -8.7377281     61.50062  0.011439847  0.010384088            4 
  449000   0.56728294    -8.732176    61.554314  0.011424335  0.010348527            2 
  450000   0.54720267   -8.7211968    61.420722  0.011374208  0.010313136            5 
  451000   0.55530495    -8.726266    61.619496  0.011385716  0.010277852            1 
  452000   0.54881624   -8.7276036    61.410396  0.011321976  0.010242705            3 
  453000   0.53735892   -8.7319843    61.531631  0.011319285  0.010207794            2 
  454000   0.53142452   -8.7364742     61.47117  0.011283254   0.01017295            1 
  455000   0.54123272   -8.7312414     61.54997  0.011272888  0.010138232            1 
  456000   0.54639313   -8.7624167    61.507076  0.011240328  0.010103683            2 
  457000   0.54111994   -8.7556438    61.543965  0.011222459  0.010069218            2 
  458000   0.52740462   -8.7284676    61.462879  0.011183202  0.010034977            2 
  459000   0.53264749   -8.7550318    61.538116  0.011172498  0.010000891            2 
  460000   0.52817096    -8.744188    61.589781  0.011157569 0.0099669873            2 
  461000   0.52814883   -8.7505113    61.488952   0.01111514 0.0099332078            2 
  462000    0.5392704   -8.7602519    61.521459  0.011096944  0.009899573            3 
  463000   0.52695236   -8.7625014    61.539066  0.011076146 0.0098660852            1 
  464000   0.51488492   -8.7522924    61.495515  0.011044453 0.0098327781            1 
  465000   0.52728631   -8.7808723    61.497778  0.011021107 0.0097995747            3 
  466000   0.52029557   -8.7766606    61.578568  0.011011904  0.009766551            2 
  467000   0.52605517   -8.7722279    61.404968  0.010957346 0.0097336974            3 
  468000   0.51934377    -8.780241    61.400603  0.010933156 0.0097009382            2 
  469000   0.51936952   -8.7692862    61.487869   0.01092535 0.0096683701            3 
  470000   0.51738863   -8.7743359    61.552465  0.010913558 0.0096358985            2 
  471000   0.51536045   -8.7654375    61.441823  0.010870811 0.0096035391            5 
  472000   0.50763806   -8.7799828    61.470434  0.010852831 0.0095712574            4 
  473000    0.5061897   -8.7996538    61.442385  0.010824944 0.0095391747            1 
  474000   0.51680827   -8.7928064    61.432881  0.010800436 0.0095071873            1 
  475000   0.50197569   -8.8132873    61.296879  0.010753838 0.0094753926            1 
  476000    0.5113713   -8.7697055    61.371996  0.010744397 0.0094436986            1 
  477000   0.50544713   -8.7959933    61.505343  0.010745168 0.0094121523            3 
  478000   0.49902073   -8.8043944    61.386359  0.010701945 0.0093806546            4 
  479000   0.51532437   -8.7904209    61.331719  0.010670097 0.0093493194            2 
  480000   0.50011353    -8.798761    61.416139  0.010662524 0.0093181151            2 
  481000   0.50788884   -8.8183215    61.349143   0.01062875 0.0092870789            3 
  482000   0.49817255   -8.8079773    61.468485  0.010627331 0.0092561385            1 
  483000   0.48830002    -8.798828    61.443703  0.010601053 0.0092253777            2 
  484000   0.49451556   -8.8077691     61.42171  0.010575363 0.0091947037            2 
  485000   0.49261762   -8.8062238    61.251688  0.010524345 0.0091641026            2 
  486000   0.48197259    -8.811104    61.431311   0.01053349  0.009133638            2 
  487000    0.4959734   -8.8184235    61.328578  0.010494281 0.0091033405            1 
  488000   0.48763054   -8.8453908    61.315945  0.010470619 0.0090731052            1 
  489000   0.48352638   -8.8340045    61.291741  0.010445082 0.0090430001            2 
  490000   0.48254752   -8.8416461    61.262349  0.010418767 0.0090130523            4 
  491000   0.48183656     -8.82852    61.284384  0.010401287 0.0089831502            3 
  492000   0.47876201   -8.8323749     61.38411  0.010397038 0.0089534705            5 
  493000   0.47908214   -8.8277281    61.373762  0.010374199 0.0089238718            1 
  494000   0.48600809   -8.8498516    61.369815  0.010352533 0.0088944082            2 
  495000   0.47085676   -8.8288365    61.249041  0.010311286 0.0088649732            2 
  496000   0.48400429   -8.8610186    61.168732  0.010277005 0.0088357155            4 
  497000   0.47223727    -8.845081    61.309075  0.010279858 0.0088065404            2 
  498000   0.46972874    -8.853864    61.230233  0.010246023 0.0087775715            4 
  499000   0.47240617    -8.843893    61.228202  0.010225151 0.0087487155            2 
  500000   0.46860409    -8.846713    61.261344  0.010210224 0.0087199056            1 
  501000   0.45588224   -8.8722911    61.347346  0.010204149 0.0086912513            2 
  502000   0.46851443   -8.8540074    61.195456  0.010158608 0.0086627043            2 
  503000   0.45773676   -8.8510357    61.232408  0.010144534 0.0086343146            1 
  504000   0.45692988   -8.8489592    61.207382  0.010120268 0.0086059897            2 
  505000   0.44875536   -8.8732057    61.200812  0.010099144 0.0085777712            2 
  506000   0.45708235   -8.8723154    61.227417  0.010083567 0.0085496838            1 
  507000   0.46087382   -8.8791341    61.141699  0.010049589 0.0085217273            1 
  508000   0.44845179   -8.8820469    61.129283  0.010027769 0.0084938217            4 
  509000   0.46651271   -8.8739832    61.112497   0.01000532  0.008466082            2 
  510000   0.45926825   -8.8923761     61.15006 0.0099918398 0.0084384653            2 
  511000   0.45045221   -8.9102337    61.158157 0.0099736068 0.0084109501            2 
  512000   0.45754615   -8.8731461    61.146053 0.0099521571 0.0083835354            1 
Loop time of 1219.3 on 48 procs for 500000 steps with 4000 atoms

Performance: 70860.226 tau/day, 410.071 timesteps/s
99.4% CPU use with 48 MPI tasks x no OpenMP threads

MPI task timing breakdown:
Section |  min time  |  avg time  |  max time  |%varavg| %total
---------------------------------------------------------------
Pair    | 77.537     | 85.074     | 91.58      |  35.5 |  6.98
Neigh   | 8.0922     | 8.3882     | 8.7399     |   6.1 |  0.69
Comm    | 79.417     | 85.229     | 93.625     |  37.8 |  6.99
Output  | 0.84336    | 0.84398    | 0.85379    |   0.2 |  0.07
Modify  | 1025.6     | 1028.1     | 1031       |   4.0 | 84.32
Other   |            | 11.65      |            |       |  0.96

Nlocal:        83.3333 ave          90 max          78 min
Histogram: 8 3 4 7 2 8 5 7 3 1
Nghost:        2145.85 ave        2178 max        2131 min
Histogram: 6 14 9 5 4 5 2 0 1 2
Neighs:        14161.2 ave       15991 max       12822 min
Histogram: 3 5 4 11 8 7 7 0 2 1
FullNghs:      28322.1 ave       30944 max       26013 min
Histogram: 2 7 3 10 4 4 7 7 3 1

Total # of neighbors = 1359462
Ave neighs/atom = 339.86550
Neighbor list builds = 26715
Dangerous builds = 0

#clear
#
#next RN
#
#jump SELF
Total wall time: 0:20:22
