
units lj                  # Use reduced LJ style units
atom_style atomic         # Uncharged point particles
atom_modify map hash      # Needed for indexing of clusters etc
                          # Used to be able to find where atoms are in relation to each other.

lattice fcc 1.0 spacing 1 1 1
Lattice spacing in x,y,z = 1.5874011 1.5874011 1.5874011
region box block 0 10 0 10 0 10 units lattice
create_box 2 box
Created orthogonal box = (0.0000000 0.0000000 0.0000000) to (15.874011 15.874011 15.874011)
  3 by 4 by 4 MPI processor grid
create_atoms 1 box
Created 4000 atoms
  using lattice units in orthogonal box = (0.0000000 0.0000000 0.0000000) to (15.874011 15.874011 15.874011)
  create_atoms CPU = 0.003 seconds
set type 1 type/fraction 2 1.0 78393
Setting atom values ...
  4000 settings made for type/fraction
mass 1 1.0
mass 2 1.0
pair_style lj/cut  3.5
pair_modify tail  yes
pair_coeff 1  1  1.0  1.0   # Intearaction between 1 and 1 set with epsilon = 1 and sigma = 1
pair_coeff 1  2  1.5  0.8
pair_coeff 2  2  0.5  0.88

write_data data.0
System init for write_data ...
Neighbor list info ...
  update every 1 steps, delay 10 steps, check yes
  max neighbors/atom: 2000, page size: 100000
  master list distance cutoff = 3.8
  ghost atom cutoff = 3.8
  binsize = 1.9, bins = 9 9 9
  1 neighbor lists, perpetual/occasional/extra = 1 0 0
  (1) pair lj/cut, perpetual
      attributes: half, newton on
      pair build: half/bin/atomonly/newton
      stencil: half/bin/3d
      bin: standard
WARNING: Not all mixed pair coeffs generated from mixing. Use write_data with 'pair ij' option to store all pair coeffs. (../write_data.cpp:312)


#############################
#   M E L T   S Y S T E M   #
#############################

velocity all create 2.4 9622624 mom yes dist gaussian # Assign velocities
                                                    # Temperature 2.4, random number seed, zero linear momentum
                                                                                # Gaussian distribution

timestep 0.002   # simulation timestep
thermo 1000       # output thermodynamic data every 1000 steps bf 100

# Define a fix  in this case with index 1 applied to all
# particles in the simulation. This fix is for simulations
# in the anisotropic NPT ensemble. Note that we use the MTK
# correction.
fix 1 all npt temp 2.4 2.4 0.1 iso 5.68 5.68 0.5 mtk yes tchain 5 pchain 5 # Use NPT ensemble
                                                                         # Set temperature and pressure and damping
                                                                         # Numbers of thermostats in chain and in barostat
run 10000          # run for 10000 steps
Per MPI rank memory allocation (min/avg/max) = 3.642 | 3.644 | 3.648 Mbytes
Step Temp E_pair E_mol TotEng Press Volume 
       0          2.4   -2.7016284            0   0.89747158   -1.6956087         4000 
    1000    2.4088381   -1.4461542            0    2.1661997    5.5567007    4281.7357 
    2000    2.3538995   -1.4322627            0    2.0977038    5.6957852    4253.0221 
    3000     2.389228    -1.415528            0    2.1674182     5.770494    4257.0236 
    4000    2.3168177   -1.4220732            0    2.0522846    5.6273759    4276.7258 
    5000    2.4930869   -1.4123024            0    2.3263931    5.7340147    4288.8582 
    6000    2.3640469   -1.4195332            0    2.1256507    5.7374146    4252.2119 
    7000    2.4233252   -1.4818005            0    2.1522785    5.4789356    4269.0395 
    8000    2.4398088    -1.389874            0    2.2689243    6.0371014    4245.1515 
    9000    2.3979638   -1.4381016            0     2.157945    5.6912754    4256.7972 
   10000    2.3997353   -1.4239645            0    2.1747385    5.6941671    4268.5061 
Loop time of 2.434 on 48 procs for 10000 steps with 4000 atoms

Performance: 709943.142 tau/day, 4108.467 timesteps/s
99.6% CPU use with 48 MPI tasks x no OpenMP threads

MPI task timing breakdown:
Section |  min time  |  avg time  |  max time  |%varavg| %total
---------------------------------------------------------------
Pair    | 1.0237     | 1.0965     | 1.2439     |   3.5 | 45.05
Neigh   | 0.20099    | 0.21026    | 0.2316     |   1.2 |  8.64
Comm    | 0.66273    | 0.83372    | 0.90605    |   4.4 | 34.25
Output  | 0.00024082 | 0.00024795 | 0.0003126  |   0.0 |  0.01
Modify  | 0.2431     | 0.2782     | 0.3097     |   3.4 | 11.43
Other   |            | 0.01504    |            |       |  0.62

Nlocal:        83.3333 ave          93 max          75 min
Histogram: 3 5 3 9 6 11 4 2 1 4
Nghost:        1580.08 ave        1595 max        1562 min
Histogram: 2 6 1 5 6 5 10 3 5 5
Neighs:        8938.75 ave       10313 max        7737 min
Histogram: 1 5 7 6 11 7 3 3 3 2

Total # of neighbors = 429060
Ave neighs/atom = 107.26500
Neighbor list builds = 906
Dangerous builds = 198

# Equilibrate just above the melting temperature to avoid step fn in T

fix 1 all npt temp 1.25 1.25 0.1 iso 5.68 5.68 0.5 mtk yes tchain 5 pchain 5
run 2000
Per MPI rank memory allocation (min/avg/max) = 3.643 | 3.645 | 3.649 Mbytes
Step Temp E_pair E_mol TotEng Press Volume 
   10000    2.3997353   -1.4239645            0    2.1747385    5.6941671    4268.5061 
   11000    1.2335545   -2.2172863            0   -0.3674171    5.5964009    3351.9712 
   12000    1.2262447   -2.2129337            0  -0.37402644    5.6995896    3342.4782 
Loop time of 0.577147 on 48 procs for 2000 steps with 4000 atoms

Performance: 598807.992 tau/day, 3465.324 timesteps/s
99.6% CPU use with 48 MPI tasks x no OpenMP threads

MPI task timing breakdown:
Section |  min time  |  avg time  |  max time  |%varavg| %total
---------------------------------------------------------------
Pair    | 0.25415    | 0.27594    | 0.30831    |   2.1 | 47.81
Neigh   | 0.037364   | 0.039516   | 0.045085   |   0.6 |  6.85
Comm    | 0.17888    | 0.21027    | 0.23831    |   2.8 | 36.43
Output  | 5.1649e-05 | 5.3759e-05 | 6.7829e-05 |   0.0 |  0.01
Modify  | 0.040021   | 0.046555   | 0.051593   |   1.5 |  8.07
Other   |            | 0.00482    |            |       |  0.84

Nlocal:        83.3333 ave          91 max          75 min
Histogram: 1 3 2 8 7 5 16 2 2 2
Nghost:        1857.75 ave        1883 max        1837 min
Histogram: 5 3 3 9 9 6 6 2 3 2
Neighs:        11426.0 ave       13175 max        9629 min
Histogram: 3 0 4 8 7 7 10 7 1 1

Total # of neighbors = 548450
Ave neighs/atom = 137.11250
Neighbor list builds = 141
Dangerous builds = 14

#############################
# L I N E A R  Q U E N C H  #
#############################

# Define solid atoms. This closely follows ten Wolde  Ruiz-Montero and Frenkel  Faraday Discuss  1996  104  93-110
# Compute components of the per-atom q6 vector
compute q6 all orientorder/atom degrees 1 6 components 6 nnn NULL cutoff 1.3 # compute the Q6 parameter.
                                                                             # Use all neighbours within 1.3 unit cell.

# get number of connections
compute coord_number all coord/atom orientorder q6 0.5

# An atom is solid if it has 8 or more connections (of a possible 14)
variable is_solid atom c_coord_number>=8
group solid dynamic all var is_solid    # Must be dynamic to update
dynamic group solid defined

# do clustering
compute cluster solid cluster/atom 1.3 # Create a cluster where all atoms within are solid and max 1.3 units from another member

# define chunks one chunk per cluster
compute clus_chunks solid chunk/atom c_cluster nchunk every compress yes  # Says which atoms are in which chunk

# count the size of each chunk
compute size_chunks solid property/chunk clus_chunks count


# Find the maximum entry in the vector of chunk sizes
variable max_n equal max(c_size_chunks)


# Thermo style which includes this variable
# thermo_style custom step temp pe vol v_max_n

thermo ${N}  # Print the thermo information every 100 steps
thermo 1000  

# Reset the npt fix at a lower temperature (below freezing)
fix 1  all npt temp  ${temp} ${temp}  0.1  iso  5.68  5.68  0.5  mtk yes tchain  5  pchain  5
fix 1  all npt temp  0.45 ${temp}  0.1  iso  5.68  5.68  0.5  mtk yes tchain  5  pchain  5
fix 1  all npt temp  0.45 0.45  0.1  iso  5.68  5.68  0.5  mtk yes tchain  5  pchain  5

dump dmp2 all dcd ${N} traj.dcd
dump dmp2 all dcd 1000 traj.dcd


compute msd all msd com yes
variable twopoint equal c_msd[4]/6/(step*dt+1.0e-6)
fix 9 all vector 10 c_msd[4]
variable fit equal slope(f_9)/6/(10*dt)
thermo_style custom step temp pe c_msd[4] v_twopoint v_fit v_max_n

fix 1 all npt temp 1.25 ${temp} 0.1 iso 5.68 5.68 0.5 mtk yes tchain 5 pchain 5
fix 1 all npt temp 1.25 0.45 0.1 iso 5.68 5.68 0.5 mtk yes tchain 5 pchain 5
run 500000 # 5000000  # Run for this many steps
Neighbor list info ...
  update every 1 steps, delay 10 steps, check yes
  max neighbors/atom: 2000, page size: 100000
  master list distance cutoff = 3.8
  ghost atom cutoff = 3.8
  binsize = 1.9, bins = 8 8 8
  4 neighbor lists, perpetual/occasional/extra = 1 3 0
  (1) pair lj/cut, perpetual
      attributes: half, newton on
      pair build: half/bin/atomonly/newton
      stencil: half/bin/3d
      bin: standard
  (2) compute orientorder/atom, occasional
      attributes: full, newton on
      pair build: full/bin/atomonly
      stencil: full/bin/3d
      bin: standard
  (3) compute coord/atom, occasional
      attributes: full, newton on
      pair build: full/bin/atomonly
      stencil: full/bin/3d
      bin: standard
  (4) compute cluster/atom, occasional
      attributes: full, newton on
      pair build: full/bin/atomonly
      stencil: full/bin/3d
      bin: standard
Per MPI rank memory allocation (min/avg/max) = 9.809 | 9.816 | 9.819 Mbytes
Step Temp PotEng c_msd[4] v_twopoint v_fit v_max_n 
   12000    1.2262447   -2.2129337 8.3954522e-31 5.8301749e-33 8.3333333e+20            1 
   13000    1.2618221   -2.2408681    1.2041534 0.0077189321   0.10305158            1 
   14000    1.2553843   -2.2537573    2.5834964  0.015377954    0.1094803            1 
   15000    1.2389527   -2.2157426    3.9935589  0.022186438   0.11269498            1 
   16000    1.2422804   -2.2255575    5.2955572  0.027581026   0.11331035            2 
   17000    1.2201999   -2.2276921    6.7124346   0.03290409   0.11288836            1 
   18000    1.2373038   -2.2187284    7.9528272  0.036818644    0.1127013            1 
   19000    1.2306785   -2.2270151    9.3677939  0.041086814   0.11213641            1 
   20000     1.221598   -2.2156158    10.732986  0.044720773   0.11216958            1 
   21000    1.2586462   -2.2386559    12.014331  0.047675917   0.11245403            2 
   22000    1.2231379   -2.2590497    13.429403   0.05086895   0.11249118            1 
   23000    1.2083862   -2.2006854     14.67376  0.053165796   0.11232713            1 
   24000    1.2326552   -2.2402637    15.952327  0.055390022   0.11198121            2 
   25000    1.2363077   -2.2549928    17.083259  0.056944196   0.11149461            1 
   26000    1.2310338   -2.2318963    18.411272  0.059010486   0.11098118            1 
   27000    1.2311743   -2.2732189    19.706185  0.060821558   0.11070882            2 
   28000    1.1989378   -2.2099887    21.035951  0.062606995   0.11045028            1 
   29000    1.2455826   -2.2624316    22.207046  0.063813349   0.11000171            1 
   30000    1.2431567   -2.2602855    23.416776  0.065046598   0.10957405            1 
   31000    1.2306452   -2.2288414    24.696326  0.066387972    0.1091622            2 
   32000    1.2319798   -2.2775748    26.211331  0.068258674   0.10896951            1 
   33000    1.1968934   -2.2783623    27.231003  0.068765158   0.10884939            2 
   34000    1.1867437   -2.2979718    28.742508  0.070447322   0.10872409            2 
   35000    1.2017734   -2.2606053    30.124698   0.07172547   0.10866122            2 
   36000    1.2305958   -2.2518362    31.386032  0.072652851   0.10858619            2 
   37000    1.2199327   -2.2563989    32.697323  0.073642618   0.10861659            1 
   38000    1.1842871   -2.2937788    33.973492   0.07450327   0.10857845            1 
   39000     1.219297   -2.2779529    35.098782  0.074997395   0.10847234            2 
   40000    1.1960813   -2.2837251    36.446098  0.075929369   0.10843469            1 
   41000    1.1984078   -2.2719967    38.053026  0.077343548   0.10843979            1 
   42000    1.1889874   -2.2814608    39.285477  0.077947375   0.10853198            1 
   43000    1.1946039   -2.2125301    40.761363  0.078994889   0.10867853            1 
   44000    1.1830751   -2.2470892     42.04495  0.079630586   0.10872191            1 
   45000    1.1798765   -2.2848376    42.987126  0.079605787   0.10862418            2 
   46000    1.2058091    -2.264459    44.023251  0.079752266   0.10845747            1 
   47000    1.1876051   -2.2556421     45.28919  0.080299981   0.10830181            1 
   48000    1.2037048   -2.2649167    46.224237  0.080250411   0.10809239            2 
   49000    1.1747166   -2.2572032    47.202963  0.080277147   0.10779268            1 
   50000    1.2080561   -2.2937978    48.257739  0.080429564   0.10747411            2 
   51000    1.1813951   -2.2960431    49.328879  0.080602742   0.10707591            1 
   52000    1.1821839   -2.3157993    50.528953  0.080975885   0.10673175            1 
   53000    1.1618449   -2.2818634    51.658004  0.081223275   0.10637881            1 
   54000    1.1419983   -2.2712777    52.582784  0.081146271   0.10603323            2 
   55000    1.1851943   -2.3122429    54.022292  0.081851956   0.10571989       -1e+20 
   56000     1.159578   -2.2922712    55.702691  0.082890908   0.10548459            2 
   57000     1.176843   -2.2987041    56.802088  0.083043988   0.10529927            1 
   58000    1.1957065   -2.3021254    58.161433  0.083565276    0.1051747            3 
   59000    1.1967056   -2.3104927    59.265308  0.083708061   0.10505162            1 
   60000     1.179507   -2.2962441    60.256655  0.083689798   0.10489584            3 
   61000    1.1624434   -2.2876012    61.586862  0.084135057   0.10475906            1 
   62000    1.1702044   -2.3079101    63.150749  0.084880038   0.10463883            1 
   63000    1.1646693   -2.3132981    64.163577  0.084872455   0.10454238            2 
   64000    1.1522068   -2.3208244    65.619047  0.085441467   0.10445566            1 
   65000    1.1657354   -2.2876538    66.476395  0.085226147   0.10436017            2 
   66000    1.1335726   -2.3146662    67.683312  0.085458727   0.10423248            1 
   67000    1.1864974   -2.2971522    68.656038  0.085393081   0.10413956            2 
   68000    1.2159941   -2.3092358    70.416229  0.086294398   0.10403796            1 
   69000    1.1749461   -2.3323581    71.161041  0.085943286   0.10390731            1 
   70000    1.1616023   -2.3178988    72.123358   0.08586114   0.10375041            1 
   71000     1.164517   -2.3380459    73.006053  0.085687855   0.10356713            1 
   72000     1.141666   -2.3039745    73.799506  0.085416094   0.10334636            2 
   73000     1.162275   -2.3270623    74.876219  0.085475135   0.10312235            2 
   74000    1.1462717   -2.3501284     75.85438  0.085421599   0.10289786            3 
   75000     1.154235   -2.3274503     76.42435  0.084915944   0.10264864            3 
   76000    1.1258172   -2.3417865     77.85921   0.08537194   0.10239456            2 
   77000     1.148221   -2.3240687    79.176742  0.085689114   0.10217068            2 
   78000    1.1426751   -2.3325204    80.239922  0.085726412   0.10196645            1 
   79000    1.1513682   -2.3450805    81.095806  0.085544099   0.10176162            2 
   80000    1.1132646    -2.350458    82.375464  0.085807775   0.10155735            2 
   81000     1.150823   -2.3557424    83.700326  0.086111446   0.10137492            2 
   82000    1.1165174   -2.3241571    84.897566  0.086278014   0.10118486            1 
   83000    1.1396543   -2.3266199    86.178688  0.086524787   0.10101346            1 
   84000    1.1322123   -2.3236743    87.041617   0.08635081    0.1008489            5 
   85000     1.147787   -2.3315201    88.105662    0.0863781   0.10068139            1 
   86000    1.1467897   -2.3366459    89.128559  0.086364882   0.10050928            1 
   87000    1.1467372   -2.3657728    89.850938  0.086064116   0.10032533            3 
   88000    1.1533936   -2.3257483    90.732302   0.08592074   0.10012396            1 
   89000    1.1207705   -2.3373275    92.246114  0.086372766  0.099927695            2 
   90000    1.1156197   -2.3737956    92.626756  0.085765515  0.099716911            2 
   91000    1.1418484   -2.3432809    94.162324  0.086229234  0.099508882            2 
   92000    1.1262777   -2.3319242     95.22079  0.086250715  0.099311465            2 
   93000    1.1305898   -2.3705332    95.694862  0.085748084  0.099108138            3 
   94000    1.1242152   -2.3887831    96.570596   0.08561223  0.098901263            2 
   95000    1.1019577   -2.3824909    97.196864  0.085260407  0.098676935            1 
   96000    1.0805578   -2.3653256     98.59614  0.085586927   0.09845546            2 
   97000    1.1271962   -2.3352837    100.10894  0.086004247  0.098238651            2 
   98000    1.1193617    -2.397889    100.68564  0.085617044   0.09804138            1 
   99000    1.1293292   -2.3658808    102.55139  0.086322717  0.097866676            1 
  100000    1.1037962   -2.4003337    102.96356  0.085802969  0.097682175            1 
  101000    1.1290372   -2.3888118    104.32401  0.086075915  0.097515242            1 
  102000    1.1077874   -2.3527575    105.30225   0.08603125  0.097354189            1 
  103000    1.0859867    -2.381628    106.13478  0.085869566   0.09720054            2 
  104000    1.1089778   -2.3907315    107.68839  0.086288771  0.097042062            2 
  105000    1.0832777   -2.3713493    108.65318   0.08623268  0.096877606            2 
  106000    1.0635086   -2.3757963    109.14226  0.085803663  0.096729859            4 
  107000    1.0861953   -2.3639944    110.42537  0.086001067  0.096581349            2 
  108000    1.1123979    -2.384813    112.21998  0.086589487  0.096437467            3 
  109000     1.091378    -2.356888    112.69038  0.086154723  0.096291749            2 
  110000    1.0709227   -2.3880394    113.98614  0.086353139  0.096144227            2 
  111000    1.1006536   -2.3783868    114.67249  0.086090461  0.095998304            2 
  112000    1.0747313   -2.3834673    115.50956  0.085944613  0.095858385            2 
  113000    1.0929129   -2.3672667    116.57285  0.085968182  0.095712328            3 
  114000    1.1025037   -2.3814232    117.38421  0.085807173  0.095557658            2 
  115000    1.0765044   -2.3782715    119.42057  0.086536645  0.095420166            1 
  116000      1.09623   -2.3882338    119.23946   0.08566053  0.095286138            2 
  117000    1.0668684   -2.3821664    121.45134  0.086503804  0.095156266            2 
  118000    1.0746157    -2.390174    121.57609   0.08585882  0.095032483            2 
  119000    1.0837058   -2.3815656    122.70563  0.085928312  0.094906264            1 
  120000    1.0889135   -2.4068457    123.01839  0.085429437   0.09475656            2 
  121000    1.0702962   -2.3691298    123.58116  0.085110993  0.094595997            2 
  122000    1.0548614    -2.394122    125.06844  0.085429262  0.094442545            1 
  123000    1.0852676   -2.3982435    125.73439    0.0851859   0.09430076            2 
  124000    1.0741232   -2.4110927    127.06993  0.085396459  0.094150656            1 
  125000    1.0718259   -2.4027141    127.75652  0.085171012   0.09400403            2 
  126000    1.0525101   -2.4002477    128.24534  0.084818345   0.09385046            1 
  127000    1.0805952   -2.4068428    129.47513  0.084957432  0.093680596            3 
  128000     1.044935   -2.4222379    130.13771   0.08472507  0.093505671            2 
  129000    1.0620956   -2.4140642     131.2293   0.08477345  0.093347184            1 
  130000    1.0461915    -2.433255    132.16952   0.08472405  0.093189771            2 
  131000    1.0905667   -2.4197319    133.58185  0.084975729  0.093046209            2 
  132000    1.0693289   -2.4227159    134.68158  0.085026252   0.09290437            3 
  133000    1.0704268   -2.4241691    135.56588  0.084941028  0.092776177            2 
  134000    1.0448128    -2.427383    136.75964  0.085049526  0.092649018            1 
  135000    1.0594147   -2.4380856    137.91588  0.085133257  0.092522379            2 
  136000    1.0518684   -2.4133151    138.95825  0.085145986  0.092407748            2 
  137000    1.0456507   -2.4401862    139.60303  0.084916685  0.092290476            1 
  138000    1.0402881   -2.4603352    140.81729  0.085034598  0.092181931            2 
  139000     1.039043   -2.4240382    141.47056  0.084814483  0.092079037            3 
  140000    1.0559198   -2.4213928    143.25101  0.085268456   0.09196482            1 
  141000    1.0514987    -2.457326    143.78047  0.084976635  0.091853317            2 
  142000    1.0389053   -2.4374395    144.97304  0.085078075  0.091748034            2 
  143000     1.032156   -2.4495815    145.83917   0.08498786  0.091653339            3 
  144000     1.044473   -2.4464782     147.4675   0.08533999  0.091557991            2 
  145000    1.0541279   -2.4195262    148.35357  0.085260672  0.091460218            3 
  146000    1.0186202   -2.4212561    149.13964  0.085125365  0.091355093            2 
  147000    1.0299718   -2.4419735    148.59952   0.08424009   0.09124608            2 
  148000    1.0195149    -2.437566    149.90547  0.084406234  0.091129849            3 
  149000    1.0393074   -2.4477043    151.30595  0.084623015  0.091013064            2 
  150000    1.0215697   -2.4671572    152.10126  0.084500699   0.09090252            1 
  151000    1.0193297   -2.4400841    152.22454   0.08400913  0.090790232            1 
  152000    1.0336642   -2.4646768     153.3087  0.084050821  0.090669396            2 
  153000    0.9973107   -2.4419934    155.17762  0.084519403  0.090556071            1 
  154000    1.0447555   -2.4516086    155.71018  0.084258757  0.090448246            3 
  155000     1.005167   -2.4588129    156.56618  0.084175366  0.090337262            1 
  156000    1.0352787    -2.458636    157.90225  0.084349491  0.090230016            4 
  157000     1.033304   -2.4742849    158.78404  0.084280277  0.090117839            1 
  158000    1.0048281   -2.4551105    159.07346  0.083899504  0.090006056            5 
  159000    1.0109864   -2.4807154    160.10901  0.083914577  0.089895487            1 
  160000    1.0150748   -2.4786943      160.686  0.083690627  0.089781541            3 
  161000    1.0118865   -2.4924982    161.80703  0.083751048  0.089668579            1 
  162000    1.0241362   -2.4612658     163.1719  0.083936163  0.089563039            2 
  163000    1.0197103   -2.4864496    163.79222  0.083738354  0.089455046            8 
  164000    1.0208863   -2.4700071    164.81344  0.083746665  0.089350834            2 
  165000   0.99543009   -2.4875166     165.1108  0.083389293  0.089242407            2 
  166000    1.0099307   -2.4648324    166.68824  0.083678835  0.089135887            1 
  167000   0.99330021   -2.4750098    167.36792  0.083516927  0.089030332            3 
  168000   0.97728833   -2.4858728    168.19165  0.083428399  0.088929055            2 
  169000   0.98861536   -2.4868709    168.87663  0.083272501  0.088822771            1 
  170000   0.98629523   -2.4698819    169.99173  0.083329278  0.088715025            2 
  171000    1.0066933   -2.4781317    170.93813  0.083303184  0.088598748            3 
  172000   0.95596193   -2.4940239    171.57807  0.083128907  0.088481573            1 
  173000   0.99629894   -2.5021013    172.19072  0.082943509  0.088369852            4 
  174000   0.99341548   -2.4821621    172.50726  0.082618418  0.088250785            3 
  175000    0.9977378    -2.468137    173.97205  0.082843831   0.08812532            2 
  176000    1.0048114   -2.5026021    173.25946  0.082035731  0.087998141            5 
  177000   0.97783416   -2.4952271    174.26742  0.082046808  0.087864633            2 
  178000   0.96522346   -2.5112851     174.8185  0.081843865  0.087733307            1 
  179000   0.99528052   -2.4901171     176.1346  0.081999349  0.087605968            2 
  180000    0.9794151   -2.4672906    176.41976  0.081675817  0.087474936            1 
  181000   0.97144335   -2.4949641    177.74809  0.081836138  0.087340881            1 
  182000   0.99573203    -2.500616    178.04284  0.081521445  0.087207643            1 
  183000    0.9640285   -2.4531709    179.93858  0.081939243  0.087075638            3 
  184000   0.98117121   -2.5266215    180.56005  0.081775383  0.086946666            2 
  185000   0.98430049   -2.5132935    180.22179  0.081180988   0.08681533            3 
  186000   0.96674639   -2.5027942     181.9749  0.081529974  0.086685617            1 
  187000    0.9359097    -2.515324    182.04802  0.081126569  0.086558168            4 
  188000   0.96873031    -2.529564     181.6281   0.08050891  0.086421968            2 
  189000   0.96504333   -2.5030049    183.25977  0.080802368  0.086276341            2 
  190000   0.97022314   -2.5326623    183.44015  0.080456205  0.086133522            3 
  191000   0.95832284   -2.5299389    185.00112  0.080716022  0.085991136            2 
  192000   0.95896094   -2.5498694    184.77516  0.080197553  0.085847969            2 
  193000   0.94379018   -2.5335624    186.02581  0.080322025  0.085706345            3 
  194000   0.96456103    -2.523427    186.94938  0.080304714  0.085566562            1 
  195000   0.96687878   -2.5491368    187.09585  0.079955489  0.085425806            3 
  196000   0.96767537   -2.5459436    188.15408  0.079997482  0.085288782            2 
  197000   0.95238224   -2.5434209    189.49234  0.080157505  0.085153674            1 
  198000   0.93967105   -2.5222155    190.74149  0.080278404  0.085023051            4 
  199000   0.96332117     -2.54886    190.47137  0.079761881  0.084893416            2 
  200000   0.93659732   -2.5231695    192.32222   0.08013426  0.084757873            1 
  201000   0.92788362   -2.5408797    192.29293  0.079723439   0.08462139            2 
  202000    0.9518608   -2.5386941    192.12507  0.079259517  0.084480315            1 
  203000   0.93325248    -2.559748     193.5196  0.079441545  0.084341064            3 
  204000   0.93260585   -2.5770833    193.25159  0.078942642  0.084198945            5 
  205000   0.93274273   -2.5679042     194.5038  0.079066586  0.084051707            2 
  206000    0.9637221   -2.5558746    194.96373  0.078868821  0.083908026            3 
  207000   0.93952864   -2.5488762    195.28061  0.078615381  0.083761274            1 
  208000   0.95949685   -2.5699466    195.61714   0.07837225  0.083616539            2 
  209000   0.94329584   -2.5596391    197.20943  0.078632148   0.08347309            2 
  210000   0.93998425   -2.5475071    196.70718  0.078058403   0.08332957            4 
  211000   0.93178251   -2.5572492    198.45294  0.078377938   0.08318605            1 
  212000   0.91659427   -2.5653354    198.73594  0.078119473  0.083047093            1 
  213000   0.94566356   -2.5503947    200.10681   0.07828905  0.082911043            3 
  214000   0.89309835   -2.5580088    200.81996  0.078200917  0.082772394            5 
  215000   0.91613865   -2.5623335    201.32669  0.078033601  0.082630471            6 
  216000   0.90650162   -2.5721454    201.84839  0.077873606  0.082487438            1 
  217000   0.92311194   -2.5593327    202.49134   0.07776165  0.082348251            2 
  218000   0.93045308   -2.5834598    202.67205  0.077474024   0.08220693            2 
  219000   0.92443777   -2.5744531    204.60368  0.077855283  0.082069831            3 
  220000   0.92790338   -2.5754568    204.74779  0.077555979  0.081935184            3 
  221000    0.9020606   -2.5945118    204.20232  0.076999365  0.081792517            3 
  222000   0.89650938   -2.5823569    205.73838  0.077229122   0.08164892            7 
  223000   0.93030401   -2.5677713    205.75955  0.076890714  0.081507498            3 
  224000   0.92526931   -2.5756488    207.10386  0.077047565   0.08136437            1 
  225000   0.89075672   -2.5799541    207.55208  0.076871142  0.081225287            4 
  226000   0.90948006   -2.5760682    208.35398  0.076826688  0.081082073            3 
  227000    0.8985839   -2.6047082    208.15941  0.076416818  0.080936942            2 
  228000   0.90768425   -2.6252855    208.95136  0.076371111  0.080791006            3 
  229000   0.89456739    -2.578781    208.86949  0.076007819  0.080644262            3 
  230000   0.89771933   -2.6144989    210.27673   0.07618722   0.08050024            4 
  231000   0.90528625   -2.5942437    210.80603  0.076048352  0.080355888            2 
  232000   0.89470861   -2.5973822    211.55479  0.075989509  0.080211816            3 
  233000   0.90689527   -2.5953463    211.74023  0.075729694  0.080068329            2 
  234000   0.89364382   -2.6116618    212.24763  0.075586764  0.079925123            3 
  235000   0.87890574   -2.6095249    212.61077  0.075393889  0.079780202            4 
  236000   0.89246865   -2.6096438     214.3007   0.07567115  0.079635768            4 
  237000   0.89242109   -2.6066099    214.33303  0.075363231  0.079490268            1 
  238000   0.90924538   -2.6091832     214.9084  0.075248037  0.079344102            2 
  239000    0.8880623   -2.6289859    215.96488  0.075301561  0.079199864            2 
  240000   0.88050444   -2.6254556    216.39717  0.075137906  0.079059291            3 
  241000   0.88021872   -2.6094203    217.16873   0.07509292  0.078927099            2 
  242000   0.88397191    -2.606726    217.89652  0.075033236  0.078787558            5 
  243000   0.87019001   -2.6241969    218.01819  0.074766182   0.07864822            3 
  244000   0.86434261   -2.6504302    217.81137  0.074389128  0.078509246            4 
  245000   0.89857882    -2.626615    219.16481  0.074545852  0.078368587            3 
  246000   0.88123097    -2.642239    219.26219  0.074275809  0.078230134            2 
  247000    0.8925609   -2.6265696    219.41121  0.074025374  0.078088777            2 
  248000    0.8562859   -2.6341192    220.71302  0.074164322   0.07794719            2 
  249000   0.87249817   -2.6728524    221.11003  0.073999341  0.077802912            3 
  250000   0.87852049   -2.6305367    222.57437  0.074191455  0.077663627            3 
  251000   0.86961972    -2.623836    222.44762  0.073853792   0.07752752            3 
  252000   0.86447737   -2.6294575     222.8656  0.073698942  0.077389827            2 
  253000   0.87073395   -2.6166812    224.23154  0.073857555  0.077251597            2 
  254000     0.851133   -2.6375957    223.42133  0.073300963  0.077109034            4 
  255000   0.86072119   -2.6529255    223.98005  0.073196095   0.07696895            3 
  256000   0.86502428   -2.6546307    224.89931   0.07320941  0.076828217            3 
  257000   0.87142851   -2.6371792    225.47509   0.07311125   0.07668735            3 
  258000   0.86027589   -2.6641287    225.97225  0.072988454  0.076548057            2 
  259000   0.84200388   -2.6362469    227.56682  0.073219697  0.076409862            2 
  260000   0.85269402   -2.6506469    227.06949  0.072778683  0.076271041            2 
  261000   0.85496499   -2.6709914    227.67445  0.072692992  0.076131415            2 
  262000   0.84102179   -2.6617617    228.25689  0.072600792  0.075995903            3 
  263000   0.84936448   -2.6611257    229.41587  0.072691975  0.075862967            2 
  264000   0.84848227   -2.6763838    230.28352  0.072690504   0.07573162            6 
  265000   0.85535824   -2.6781866    230.09702  0.072357552   0.07559909            3 
  266000   0.84046321   -2.6751579    231.16405  0.072419814  0.075468009            3 
  267000   0.85146532   -2.6837648    231.82775  0.072355727   0.07534115            8 
  268000   0.84724934   -2.6843932    233.10813  0.072483873  0.075214142            2 
  269000   0.85378714   -2.6745584    233.18192  0.072237273  0.075085693            1 
  270000   0.82489386   -2.6700578    233.76569  0.072149903  0.074959605            6 
  271000   0.84956067   -2.6848609    234.97798  0.072256451  0.074834737            3 
  272000   0.83987382    -2.679819    235.25162  0.072074638   0.07471115            2 
  273000    0.8193186    -2.677432    236.77597  0.072275936   0.07459153            5 
  274000   0.83057168   -2.6830206    236.14136  0.071819148  0.074468932            3 
  275000   0.83151764   -2.6940244    235.94864  0.071499589  0.074344571            4 
  276000   0.83150891   -2.7066679    236.90106  0.071528098  0.074219465            3 
  277000   0.80986677   -2.6812245    238.27217   0.07168236  0.074096224            5 
  278000   0.82626211   -2.7012076    238.46665  0.071482809  0.073972035            2 
  279000   0.82739369   -2.7003455    238.94887   0.07137063  0.073850866            8 
  280000   0.82525534    -2.686465    240.40918   0.07155035  0.073731187            2 
  281000   0.82401413   -2.6628975    240.85852   0.07142898  0.073613461            6 
  282000   0.83034587   -2.6886587    240.27353  0.071002816  0.073495625            3 
  283000   0.81351639   -2.6992249    239.97143  0.070662965  0.073374676            4 
  284000   0.83233666   -2.7165931    241.52259  0.070869306    0.0732553            4 
  285000    0.8057756   -2.6924547    242.81856   0.07099958  0.073135704            2 
  286000   0.81408923   -2.7124469    242.99591  0.070803004  0.073019865            5 
  287000   0.79805162   -2.6976618    244.07858  0.070870666  0.072904873            7 
  288000   0.81507434   -2.7214065     244.4835  0.070741754  0.072788116            2 
  289000   0.80025978   -2.7144428    244.08811   0.07038296   0.07266895            5 
  290000   0.78735047   -2.7187941    245.34192  0.070500551  0.072549841            5 
  291000   0.80861506   -2.7281812    244.71132  0.070077699  0.072429542            2 
  292000    0.8051787   -2.7216056     245.4854  0.070058618  0.072311632            4 
  293000   0.79361146   -2.7434465    246.11713  0.069999182  0.072194244            5 
  294000   0.79301799   -2.7168428    246.98383  0.070006753   0.07207639            3 
  295000   0.81392111   -2.7145312    247.89957  0.070028126  0.071960841            6 
  296000   0.80719102   -2.7285593    247.32387  0.069629469  0.071843141            4 
  297000   0.80171991   -2.7395617    248.40054  0.069697122   0.07172571            7 
  298000   0.78981695   -2.7250293     249.8781  0.069876427  0.071610459            5 
  299000   0.78021479   -2.7254024     249.5512  0.069551615  0.071493164            2 
  300000   0.80036307   -2.7455686    250.70215  0.069639486  0.071378536            5 
  301000   0.77260854    -2.743736    249.97493  0.069206792  0.071261666            5 
  302000    0.7817813    -2.761924    249.94135  0.068968362  0.071143616            7 
  303000   0.78202781    -2.733223    251.24297  0.069098726  0.071025294            3 
  304000   0.78657185   -2.7220691    251.10471  0.068833528   0.07090741            2 
  305000    0.7779542   -2.7422111    250.95007  0.068565593  0.070788471            3 
  306000   0.77061591   -2.7381686    251.77443  0.068566022  0.070668547            6 
  307000   0.76889374   -2.7505316    252.35052  0.068499055  0.070546541            4 
  308000   0.77205036   -2.7666782    252.48978  0.068314335  0.070424735            7 
  309000   0.78427367   -2.7769247    252.64523  0.068135176  0.070307178            3 
  310000   0.78177412   -2.7567687    254.26249  0.068350131   0.07019058            2 
  311000   0.77071436   -2.7680551    254.45807  0.068182763  0.070075423            3 
  312000     0.766889    -2.777377    254.78867  0.068052529  0.069959201            4 
  313000   0.79407734   -2.7877489    255.88922  0.068128119  0.069842421            4 
  314000   0.74457509   -2.7603761    255.07683   0.06769555  0.069724848            7 
  315000   0.77999541   -2.7845312    255.01413  0.067464055  0.069607625            4 
  316000   0.78342393   -2.7726892    257.35917   0.06786898  0.069489605            3 
  317000   0.76658622   -2.7882145    256.97276  0.067553301  0.069370535            3 
  318000   0.75984207    -2.773788    256.45253  0.067204541  0.069250658           10 
  319000   0.76150952   -2.7875934    257.47761  0.067261653  0.069129331            2 
  320000   0.77091056   -2.7774294     258.0698  0.067205678   0.06900793            2 
  321000   0.74658356   -2.7871141    257.69982  0.066900265  0.068887258            4 
  322000   0.75763409   -2.7896338    258.20181  0.066822414  0.068766054            7 
  323000   0.76240464   -2.7890632    258.25231  0.066628563  0.068645086           11 
  324000   0.73336176   -2.7953481     259.4711  0.066736394   0.06852262            4 
  325000   0.75301224   -2.8172031    258.52787  0.066289198  0.068400192            3 
  326000    0.7420149   -2.7883953    259.79375  0.066409444   0.06827762            5 
  327000   0.73252115   -2.8064002    259.23342  0.066063563  0.068156767            3 
  328000   0.75544228   -2.8298692    260.16305  0.066098336  0.068035007            8 
  329000   0.73736371    -2.810349    260.60802  0.066010137  0.067913097            4 
  330000   0.73771574   -2.7998589    261.79518  0.066109893  0.067792632            4 
  331000   0.72045463     -2.79386    261.87776  0.065930955  0.067672842            6 
  332000   0.73390995   -2.8027038    261.39502    0.0656112  0.067552498            4 
  333000   0.72074965    -2.821919    261.66791  0.065482461  0.067430506            6 
  334000   0.72710246   -2.7999869     261.9001  0.065344337  0.067309341            4 
  335000   0.74429294   -2.8094121    262.44034  0.065283666  0.067187649            5 
  336000   0.73810561   -2.8035591    262.57643  0.065123123  0.067064877            4 
  337000   0.73066314   -2.8289974    262.31105  0.064864257  0.066942165            3 
  338000   0.71897895   -2.8110285    263.27921  0.064911047  0.066820103            4 
  339000   0.73513849   -2.8170769    263.39298  0.064747538  0.066698368            8 
  340000   0.72375042   -2.8146855    264.50736  0.064830234  0.066576536            4 
  341000   0.74820588   -2.8251105    264.94572  0.064747242  0.066455302            4 
  342000   0.71915908   -2.8359594    265.27513   0.06463819  0.066334928            3 
  343000   0.69808136   -2.8321803    265.51974  0.064509169  0.066212599            7 
  344000   0.70517754   -2.8372598     265.8194  0.064394235  0.066092203            5 
  345000   0.72427691   -2.8665797    266.09778  0.064274826  0.065971344            7 
  346000   0.71073446   -2.8385984    266.57557  0.064204134  0.065850145            5 
  347000   0.71382128   -2.8472474    267.31405  0.064196457  0.065730244            5 
  348000    0.7341547   -2.8375969    266.83723  0.063897805  0.065609912            5 
  349000   0.70272279   -2.8329813    267.63761  0.063905827  0.065492329            3 
  350000   0.70833366   -2.8451796    268.19627  0.063856255  0.065374855            5 
  351000   0.70901373   -2.8533853    267.88564  0.063600579  0.065255555            2 
  352000   0.70674563   -2.8485921    267.98483  0.063443377    0.0651359            3 
  353000    0.6919649   -2.8439666    269.56365  0.063636366  0.065018352            5 
  354000   0.70898107   -2.8604276    268.82518  0.063282763  0.064899143            6 
  355000   0.69599853   -2.8804371    269.70667  0.063311424  0.064780542            5 
  356000   0.71422792   -2.8510403    269.31514  0.063041933  0.064660266            9 
  357000   0.69078815   -2.8744824    269.28341  0.062857938  0.064540915            5 
  358000    0.6811862   -2.8628436    269.81907  0.062807046  0.064422589            4 
  359000   0.70409321   -2.8807412    270.71097  0.062839129  0.064302104            4 
  360000   0.69483815   -2.8742391    270.95117  0.062720178  0.064181754            4 
  361000   0.69131424   -2.8465635    271.17271  0.062597579  0.064062029            6 
  362000   0.71844597   -2.8926005    271.08531  0.062404537  0.063943413            7 
  363000   0.69860921    -2.902565    271.59645  0.062349966  0.063823864            5 
  364000   0.68783303   -2.9027616    271.96195   0.06226235   0.06370344            5 
  365000   0.66939606   -2.8768217    272.25075  0.062157705  0.063584708            4 
  366000   0.66916072   -2.8970553    271.84157   0.06189471  0.063465308            4 
  367000    0.6859936   -2.9007122     273.1135  0.062014872  0.063346586            7 
  368000    0.6905382   -2.8970325    272.49549  0.061706407  0.063227725            3 
  369000   0.67904434   -2.8722315    273.72524    0.0618169  0.063108822            7 
  370000   0.68259245   -2.8839116    274.35881  0.061792525  0.062991317            2 
  371000    0.6656317    -2.919818    273.46043  0.061424175  0.062872721            4 
  372000   0.67856137   -2.9119352    274.01472  0.061383226  0.062755369            5 
  373000   0.68166919   -2.9148003    274.64988  0.061360563  0.062637518           10 
  374000   0.66136953    -2.920409    274.90281  0.061252853   0.06252004            6 
  375000   0.66113301   -2.9018677    275.43809  0.061208464  0.062403201            6 
  376000    0.6573687   -2.9074978    274.51933  0.060842049  0.062284774            4 
  377000   0.66344872   -2.9086222     275.1914  0.060829222  0.062167065            6 
  378000   0.64625634   -2.9330378    275.88348  0.060820873  0.062049374            4 
  379000   0.65624757   -2.9381011    275.20916  0.060512128  0.061930878            7 
  380000     0.665817   -2.9187005    276.63196  0.060664903  0.061813298            7 
  381000    0.6677344      -2.9278     276.3957  0.060454003  0.061696231            5 
  382000   0.66984657   -2.9422822    276.55398  0.060330274  0.061579615            5 
  383000   0.65555273   -2.9390426    276.22662  0.060101528  0.061462021            5 
  384000   0.65801304   -2.9378788    277.62092  0.060247595  0.061345333           11 
  385000   0.64529039   -2.9434158    278.28512  0.060234873  0.061230446            8 
  386000   0.65320471   -2.9473541    277.74975  0.059963246  0.061113662            4 
  387000   0.65453821   -2.9263344    277.24547  0.059699713  0.060996942            5 
  388000   0.64523021   -2.9423022    278.21014  0.059753036  0.060881009            7 
  389000   0.64607903   -2.9480683    277.57193  0.059462709  0.060763377            7 
  390000   0.64110177    -2.930985    278.04272  0.059410838  0.060646025            3 
  391000   0.63436397   -2.9461307    278.35102    0.0593246   0.06052888            7 
  392000   0.67081601   -2.9399037    278.93808  0.059298061   0.06041118            5 
  393000   0.63238494   -2.9585308    278.99081  0.059158356  0.060293355            3 
  394000   0.62003634   -2.9522794    278.25337  0.058852235  0.060175524            3 
  395000    0.6421895   -2.9514448    278.29269  0.058711538  0.060058271            4 
  396000   0.62244502   -2.9549747    279.58674  0.058835592  0.059941679            5 
  397000   0.62340316   -2.9577833    280.22605  0.058821589  0.059825159            6 
  398000   0.63242413   -2.9476152    279.54147  0.058530458  0.059708623            5 
  399000   0.61803574   -2.9751257    279.45918  0.058366579   0.05959214            5 
  400000   0.62433762   -2.9635857    281.30001   0.05860417  0.059476011            5 
  401000   0.62544178   -2.9759378    279.97595  0.058182866  0.059358873            6 
  402000   0.62470605   -2.9728987    281.10685  0.058272565   0.05924127            7 
  403000   0.63158533   -2.9583688    280.55413  0.058013674  0.059123408            5 
  404000   0.61513065   -2.9888254    281.47567  0.058060163  0.059005921            7 
  405000   0.63388291   -2.9741962    280.81684  0.057781242  0.058888624            6 
  406000   0.62125647   -2.9845682    280.94569  0.057665371  0.058771955            6 
  407000   0.61038075    -2.977486    282.67022  0.057876785  0.058655111            4 
  408000   0.61168879   -2.9889369    281.92935  0.057583609  0.058538937            5 
  409000   0.62120303   -2.9918435    283.19117  0.057699912  0.058423754            8 
  410000   0.61094255    -2.978759     281.7562   0.05726752  0.058306808           19 
  411000   0.63089667   -2.9788312     281.9697  0.057171473  0.058190823           16 
  412000   0.61493928   -2.9908384    282.31137  0.057101815  0.058072891            4 
  413000   0.61161324   -3.0142114    281.58602  0.056817195  0.057955461           12 
  414000   0.60823347   -3.0041969    281.55905  0.056674527  0.057837386            5 
  415000   0.60455019   -3.0061531    281.78266  0.056582863  0.057719874            7 
  416000    0.5997139   -3.0060475    282.06363   0.05650313  0.057602689            9 
  417000   0.59742873    -3.008719    283.32179  0.056619063   0.05748545           10 
  418000    0.6129377   -3.0056017    281.58602  0.056137563  0.057368401            3 
  419000   0.60925133   -3.0211092    281.98314  0.056082565  0.057250422            8 
  420000   0.58736057   -3.0155683      283.157  0.056181945  0.057133351            6 
  421000   0.60631862   -3.0345442    282.31449  0.055881727  0.057015027           10 
  422000   0.59810958   -3.0272105    283.19237  0.055922663  0.056896742            8 
  423000   0.59476115    -3.023277    283.13278  0.055778719  0.056777934           15 
  424000   0.59595862   -3.0245175    282.84111   0.05558984  0.056659995           20 
  425000   0.58227382   -3.0419457    282.53953  0.055399908  0.056542045           14 
  426000   0.58464588    -3.042933    282.87025  0.055334557  0.056424342           12 
  427000   0.57807823   -3.0324519    283.74058  0.055374821  0.056306981           21 
  428000   0.57508979   -3.0409562    283.24788   0.05514951  0.056190379            8 
  429000   0.58190347   -3.0556617    283.46206   0.05506256  0.056074148           18 
  430000    0.5842358    -3.047862    283.48498   0.05493895  0.055956444            6 
  431000   0.58164923   -3.0480032    283.66364  0.054846025  0.055838868            9 
  432000   0.56068603   -3.0433454    284.11479  0.054806093  0.055721512            9 
  433000   0.59412907   -3.0562924    283.13542  0.054491034  0.055603568           22 
  434000   0.57648299   -3.0571746    283.86811  0.054506165  0.055486211            8 
  435000   0.56536275   -3.0742614    283.90866  0.054388632  0.055368937            9 
  436000   0.57764977   -3.0546569    284.31127   0.05434084  0.055252095           11 
  437000   0.55786077   -3.0506006     284.4359  0.054240256  0.055136093            7 
  438000   0.57075197   -3.0618662    285.41988  0.054303629  0.055019601           11 
  439000   0.57252926   -3.0635313    285.00519  0.054101213  0.054903212            6 
  440000   0.56340987   -3.0788224    285.36221  0.054045874  0.054787238           16 
  441000   0.57431641   -3.0712136    285.43054  0.053936231  0.054670478            8 
  442000   0.56451112   -3.0693436    285.20796   0.05377224  0.054554557            8 
  443000   0.55524763   -3.0719023    285.20595  0.053650479  0.054437578            8 
  444000    0.5655384   -3.0719593    284.49594  0.053396385   0.05432061           11 
  445000   0.55681264   -3.0919923    284.73392  0.053320958  0.054203707            9 
  446000   0.54871786   -3.0802658     284.4624  0.053150672  0.054085852           13 
  447000   0.55889581   -3.0953237    284.31446  0.053004186  0.053967992            9 
  448000   0.54757938   -3.0820885    285.19845  0.053050307  0.053849842           19 
  449000   0.55530203   -3.0950204    285.13843  0.052921015  0.053731597           14 
  450000   0.54727442    -3.077101    285.39958  0.052851775    0.0536142           12 
  451000   0.54453933   -3.0856727    284.82131  0.052627736  0.053496334           13 
  452000   0.54470393   -3.0852536    283.83771  0.052329962  0.053378702            6 
  453000   0.54519913   -3.0778112    284.74843  0.052381978  0.053260613           27 
  454000   0.54266906   -3.1119253    285.45104  0.052395565  0.053142397           12 
  455000   0.54697138   -3.1192347    284.33356  0.052075744  0.053023448           14 
  456000   0.53364496   -3.1303496    285.09232  0.052100205  0.052904898            8 
  457000   0.53416204   -3.1128248    284.52329  0.051882437  0.052785762           12 
  458000   0.54540179    -3.103742    284.44663   0.05175521  0.052667063           15 
  459000   0.54265937   -3.1309836     285.0134  0.051745352  0.052548369            7 
  460000   0.53175749   -3.1244452    283.76578  0.051406845  0.052429605            4 
  461000   0.54662935    -3.121633    284.54269  0.051435771  0.052310652           14 
  462000   0.53409551    -3.107404    284.23084  0.051268188  0.052192268            6 
  463000   0.52583468   -3.1382691    284.24149  0.051159375  0.052073805            7 
  464000   0.51720909   -3.1298166    284.74177  0.051138967  0.051955372           10 
  465000   0.52977204   -3.1105859    284.70588   0.05102256  0.051837229            8 
  466000   0.53190326   -3.1434081    284.93182  0.050953472  0.051719211           12 
  467000    0.5161552    -3.143225    285.19511  0.050891347  0.051600614           17 
  468000   0.52324124    -3.125726    285.22699  0.050788282  0.051483183           15 
  469000   0.52138383   -3.1368949    284.40478  0.050533899  0.051366112           14 
  470000    0.5050379   -3.1446868    285.93354  0.050697435  0.051248506           20 
  471000   0.51809351   -3.1357925    285.42733  0.050500236  0.051131665           12 
  472000   0.50933142   -3.1457034    284.69401  0.050263773  0.051015204           22 
  473000   0.51285818   -3.1526655    285.58541  0.050314554  0.050898596            7 
  474000   0.50621883   -3.1739488    285.60447  0.050211756  0.050782869           13 
  475000    0.5081071   -3.1476188    285.60159  0.050105542  0.050667327           14 
  476000   0.50760078   -3.1755483    285.68037   0.05001407  0.050551519           20 
  477000   0.51935754   -3.1680517    285.86348  0.049941209  0.050435623           16 
  478000   0.50649088   -3.1669831    284.97365  0.049681598  0.050319624           25 
  479000   0.50503887   -3.1723207    284.46169  0.049488812  0.050203324           13 
  480000    0.5159759   -3.1884118    284.84652   0.04945252  0.050086656           19 
  481000   0.49270966   -3.1690399    285.64917  0.049488767   0.04997029           22 
  482000   0.49269635   -3.1674316    284.25438  0.049144947  0.049854008           24 
  483000   0.49679849   -3.1828292    285.20384  0.049207012  0.049738211           10 
  484000   0.50457063   -3.1907616    285.30571  0.049122883   0.04962275           15 
  485000   0.50043249   -3.1997483    284.52553  0.048887548  0.049507239            8 
  486000   0.49031251   -3.1970895    285.10831  0.048886885  0.049392002            9 
  487000   0.48931513    -3.189969    285.29154  0.048817854  0.049276558           16 
  488000   0.48596439   -3.2011799    285.22156  0.048705867  0.049161261           12 
  489000   0.49364417   -3.2011261    284.33599   0.04845535   0.04904601           15 
  490000   0.48572913   -3.2019621    285.18357  0.048500607  0.048930873           15 
  491000   0.47948205   -3.1945792    284.67185  0.048314978  0.048816565           16 
  492000   0.48056083   -3.2191804     285.5489  0.048365329   0.04870253           43 
  493000   0.47925841   -3.2130382    284.99529  0.048173646  0.048588824           11 
  494000   0.48314823    -3.214648    285.86934  0.048223572  0.048475609           12 
  495000   0.46586667   -3.2061526    285.84433  0.048121941  0.048362711           23 
  496000   0.48424963   -3.2020868    285.66797  0.047995291  0.048249899           27 
  497000   0.47134825   -3.2130202    285.17344  0.047815801  0.048137296           12 
  498000   0.48042906   -3.2100606    284.55735  0.047616692  0.048024163            7 
  499000   0.46899804   -3.2201536    285.05572  0.047604495  0.047911329           18 
  500000   0.47438058   -3.2295486    285.29402  0.047549004  0.047798547           14 
  501000   0.46943923   -3.2386172     285.1755  0.047434381  0.047685813           17 
  502000   0.47187077   -3.2368223    285.37539  0.047373073  0.047573892           15 
  503000   0.45822018   -3.2405995    285.45196  0.047291578  0.047461844           31 
  504000    0.4600431   -3.2465609    284.66219   0.04706716  0.047349975           23 
  505000   0.46679254    -3.233281     285.1726  0.047058185  0.047238457           45 
  506000   0.46581703   -3.2379568    285.52426    0.0470231  0.047127138           21 
  507000   0.46214474   -3.2332719    285.64659  0.046950458  0.047016287           15 
  508000   0.46180123   -3.2349876    285.19424  0.046783832  0.046905168           16 
  509000   0.45487938   -3.2505859    285.22939  0.046697674  0.046794487           27 
  510000   0.44363524    -3.253181    285.52375  0.046654208  0.046684029           30 
  511000   0.45060869   -3.2502849    286.10963  0.046658452  0.046573881           33 
  512000   0.45337985   -3.2419608     285.2976  0.046435156  0.046464008           19 
Loop time of 1201.6 on 48 procs for 500000 steps with 4000 atoms

Performance: 71904.161 tau/day, 416.112 timesteps/s
99.4% CPU use with 48 MPI tasks x no OpenMP threads

MPI task timing breakdown:
Section |  min time  |  avg time  |  max time  |%varavg| %total
---------------------------------------------------------------
Pair    | 77.011     | 82.351     | 89.053     |  36.4 |  6.85
Neigh   | 8.0736     | 8.4073     | 8.9958     |   6.2 |  0.70
Comm    | 75.61      | 82.896     | 89.474     |  39.4 |  6.90
Output  | 0.95768    | 0.9581     | 0.96679    |   0.1 |  0.08
Modify  | 1014.1     | 1016.3     | 1019.4     |   3.8 | 84.58
Other   |            | 10.73      |            |       |  0.89

Nlocal:        83.3333 ave          91 max          75 min
Histogram: 1 3 1 8 5 14 5 8 2 1
Nghost:        2158.31 ave        2185 max        2136 min
Histogram: 1 3 7 9 9 11 3 2 1 2
Neighs:        14227.5 ave       15985 max       12890 min
Histogram: 4 3 6 8 9 10 4 3 0 1
FullNghs:      28456.1 ave       31018 max       25604 min
Histogram: 2 1 5 4 9 11 3 10 2 1

Total # of neighbors = 1365891
Ave neighs/atom = 341.47275
Neighbor list builds = 27199
Dangerous builds = 0

#clear
#
#next RN
#
#jump SELF
Total wall time: 0:20:04
