
units lj                  # Use reduced LJ style units
atom_style atomic         # Uncharged point particles
atom_modify map hash      # Needed for indexing of clusters etc
                          # Used to be able to find where atoms are in relation to each other.

lattice fcc 1.0 spacing 1 1 1
Lattice spacing in x,y,z = 1.5874011 1.5874011 1.5874011
region box block 0 10 0 10 0 10 units lattice
create_box 2 box
Created orthogonal box = (0.0000000 0.0000000 0.0000000) to (15.874011 15.874011 15.874011)
  3 by 4 by 4 MPI processor grid
create_atoms 1 box
Created 4000 atoms
  using lattice units in orthogonal box = (0.0000000 0.0000000 0.0000000) to (15.874011 15.874011 15.874011)
  create_atoms CPU = 0.002 seconds
set type 1 type/fraction 2 0.98 78393
Setting atom values ...
  3920 settings made for type/fraction
mass 1 1.0
mass 2 1.0
pair_style lj/cut  3.5
pair_modify tail  yes
pair_coeff 1  1  1.0  1.0   # Intearaction between 1 and 1 set with epsilon = 1 and sigma = 1
pair_coeff 1  2  1.5  0.8
pair_coeff 2  2  0.5  0.88

write_data data.0
System init for write_data ...
Neighbor list info ...
  update every 1 steps, delay 10 steps, check yes
  max neighbors/atom: 2000, page size: 100000
  master list distance cutoff = 3.8
  ghost atom cutoff = 3.8
  binsize = 1.9, bins = 9 9 9
  1 neighbor lists, perpetual/occasional/extra = 1 0 0
  (1) pair lj/cut, perpetual
      attributes: half, newton on
      pair build: half/bin/atomonly/newton
      stencil: half/bin/3d
      bin: standard
WARNING: Not all mixed pair coeffs generated from mixing. Use write_data with 'pair ij' option to store all pair coeffs. (../write_data.cpp:312)


#############################
#   M E L T   S Y S T E M   #
#############################

velocity all create 2.4 6229865 mom yes dist gaussian # Assign velocities
                                                    # Temperature 2.4, random number seed, zero linear momentum
                                                                                # Gaussian distribution

timestep 0.002   # simulation timestep
thermo 1000       # output thermodynamic data every 1000 steps bf 100

# Define a fix  in this case with index 1 applied to all
# particles in the simulation. This fix is for simulations
# in the anisotropic NPT ensemble. Note that we use the MTK
# correction.
fix 1 all npt temp 2.4 2.4 0.1 iso 5.68 5.68 0.5 mtk yes tchain 5 pchain 5 # Use NPT ensemble
                                                                         # Set temperature and pressure and damping
                                                                         # Numbers of thermostats in chain and in barostat
run 10000          # run for 10000 steps
Per MPI rank memory allocation (min/avg/max) = 3.642 | 3.644 | 3.648 Mbytes
Step Temp E_pair E_mol TotEng Press Volume 
       0          2.4   -2.7962588            0   0.80284124   -1.8826162         4000 
    1000    2.4011142   -1.5794999            0     2.021271    5.7573696    4201.4283 
    2000    2.4153563   -1.5912984            0    2.0308304    5.6799952    4213.4467 
    3000    2.4223673    -1.569891            0    2.0627517    5.7481958    4217.7586 
    4000    2.4091213   -1.5983607            0    2.0144178    5.5789877    4212.6588 
    5000    2.4484697   -1.5765613            0    2.0952251    5.8528169    4194.5957 
    6000    2.3919501   -1.5925756            0    1.9944525    5.7276421    4196.7604 
    7000    2.4091692   -1.5688778            0    2.0439725    5.8196037    4197.8168 
    8000    2.4260431   -1.5450339            0    2.0931209    6.0487242    4188.4939 
    9000     2.367565   -1.5058476            0     2.044612    5.8797261    4241.9174 
   10000    2.4393634   -1.5562282            0    2.1019022    5.8734596    4219.4311 
Loop time of 2.38321 on 48 procs for 10000 steps with 4000 atoms

Performance: 725071.895 tau/day, 4196.018 timesteps/s
99.6% CPU use with 48 MPI tasks x no OpenMP threads

MPI task timing breakdown:
Section |  min time  |  avg time  |  max time  |%varavg| %total
---------------------------------------------------------------
Pair    | 1.0443     | 1.0959     | 1.1526     |   2.5 | 45.99
Neigh   | 0.20518    | 0.21118    | 0.23668    |   1.1 |  8.86
Comm    | 0.7494     | 0.81854    | 0.88173    |   3.5 | 34.35
Output  | 0.00023841 | 0.00024377 | 0.00030444 |   0.0 |  0.01
Modify  | 0.20262    | 0.24279    | 0.27695    |   4.8 | 10.19
Other   |            | 0.01454    |            |       |  0.61

Nlocal:        83.3333 ave          94 max          74 min
Histogram: 3 3 6 12 6 2 3 5 3 5
Nghost:        1578.38 ave        1608 max        1545 min
Histogram: 1 1 5 6 7 11 8 3 5 1
Neighs:        9051.67 ave       10608 max        7617 min
Histogram: 2 5 4 11 7 4 5 3 4 3

Total # of neighbors = 434480
Ave neighs/atom = 108.62000
Neighbor list builds = 912
Dangerous builds = 236

# Equilibrate just above the melting temperature to avoid step fn in T

fix 1 all npt temp 1.25 1.25 0.1 iso 5.68 5.68 0.5 mtk yes tchain 5 pchain 5
run 2000
Per MPI rank memory allocation (min/avg/max) = 3.643 | 3.645 | 3.649 Mbytes
Step Temp E_pair E_mol TotEng Press Volume 
   10000    2.4393634   -1.5562282            0    2.1019022    5.8734596    4219.4311 
   11000    1.2398305   -2.4496141            0  -0.59033326     5.537477    3293.7896 
   12000    1.2793419   -2.4466007            0  -0.52806763    5.7593064    3277.9568 
Loop time of 0.573003 on 48 procs for 2000 steps with 4000 atoms

Performance: 603138.409 tau/day, 3490.384 timesteps/s
99.7% CPU use with 48 MPI tasks x no OpenMP threads

MPI task timing breakdown:
Section |  min time  |  avg time  |  max time  |%varavg| %total
---------------------------------------------------------------
Pair    | 0.2537     | 0.27305    | 0.29939    |   2.1 | 47.65
Neigh   | 0.037786   | 0.039554   | 0.043585   |   0.6 |  6.90
Comm    | 0.18008    | 0.21104    | 0.23501    |   2.7 | 36.83
Output  | 5.0699e-05 | 5.2268e-05 | 6.8372e-05 |   0.0 |  0.01
Modify  | 0.041613   | 0.04469    | 0.048875   |   0.9 |  7.80
Other   |            | 0.004611   |            |       |  0.80

Nlocal:        83.3333 ave          91 max          71 min
Histogram: 1 0 3 1 7 7 8 9 9 3
Nghost:        1876.00 ave        1894 max        1853 min
Histogram: 1 0 6 5 7 10 5 3 8 3
Neighs:        11647.4 ave       13210 max        9070 min
Histogram: 1 0 1 3 5 8 17 6 5 2

Total # of neighbors = 559074
Ave neighs/atom = 139.76850
Neighbor list builds = 142
Dangerous builds = 14

#############################
# L I N E A R  Q U E N C H  #
#############################

# Define solid atoms. This closely follows ten Wolde  Ruiz-Montero and Frenkel  Faraday Discuss  1996  104  93-110
# Compute components of the per-atom q6 vector
compute q6 all orientorder/atom degrees 1 6 components 6 nnn NULL cutoff 1.3 # compute the Q6 parameter.
                                                                             # Use all neighbours within 1.3 unit cell.

# get number of connections
compute coord_number all coord/atom orientorder q6 0.5

# An atom is solid if it has 8 or more connections (of a possible 14)
variable is_solid atom c_coord_number>=8
group solid dynamic all var is_solid    # Must be dynamic to update
dynamic group solid defined

# do clustering
compute cluster solid cluster/atom 1.3 # Create a cluster where all atoms within are solid and max 1.3 units from another member

# define chunks one chunk per cluster
compute clus_chunks solid chunk/atom c_cluster nchunk every compress yes  # Says which atoms are in which chunk

# count the size of each chunk
compute size_chunks solid property/chunk clus_chunks count


# Find the maximum entry in the vector of chunk sizes
variable max_n equal max(c_size_chunks)


# Thermo style which includes this variable
# thermo_style custom step temp pe vol v_max_n

thermo ${N}  # Print the thermo information every 100 steps
thermo 1000  

# Reset the npt fix at a lower temperature (below freezing)
fix 1  all npt temp  ${temp} ${temp}  0.1  iso  5.68  5.68  0.5  mtk yes tchain  5  pchain  5
fix 1  all npt temp  0.45 ${temp}  0.1  iso  5.68  5.68  0.5  mtk yes tchain  5  pchain  5
fix 1  all npt temp  0.45 0.45  0.1  iso  5.68  5.68  0.5  mtk yes tchain  5  pchain  5

dump dmp2 all dcd ${N} traj.dcd
dump dmp2 all dcd 1000 traj.dcd


compute msd all msd com yes
variable twopoint equal c_msd[4]/6/(step*dt+1.0e-6)
fix 9 all vector 10 c_msd[4]
variable fit equal slope(f_9)/6/(10*dt)
thermo_style custom step temp pe c_msd[4] v_twopoint v_fit v_max_n

fix 1 all npt temp 1.25 ${temp} 0.1 iso 5.68 5.68 0.5 mtk yes tchain 5 pchain 5
fix 1 all npt temp 1.25 0.45 0.1 iso 5.68 5.68 0.5 mtk yes tchain 5 pchain 5
run 500000 # 5000000  # Run for this many steps
Neighbor list info ...
  update every 1 steps, delay 10 steps, check yes
  max neighbors/atom: 2000, page size: 100000
  master list distance cutoff = 3.8
  ghost atom cutoff = 3.8
  binsize = 1.9, bins = 8 8 8
  4 neighbor lists, perpetual/occasional/extra = 1 3 0
  (1) pair lj/cut, perpetual
      attributes: half, newton on
      pair build: half/bin/atomonly/newton
      stencil: half/bin/3d
      bin: standard
  (2) compute orientorder/atom, occasional
      attributes: full, newton on
      pair build: full/bin/atomonly
      stencil: full/bin/3d
      bin: standard
  (3) compute coord/atom, occasional
      attributes: full, newton on
      pair build: full/bin/atomonly
      stencil: full/bin/3d
      bin: standard
  (4) compute cluster/atom, occasional
      attributes: full, newton on
      pair build: full/bin/atomonly
      stencil: full/bin/3d
      bin: standard
Per MPI rank memory allocation (min/avg/max) = 9.813 | 9.818 | 9.822 Mbytes
Step Temp PotEng c_msd[4] v_twopoint v_fit v_max_n 
   12000    1.2793419   -2.4466007            0            0 8.3333333e+20            2 
   13000    1.2299296    -2.425893    1.1384138 0.0072975244  0.096828938            1 
   14000    1.2622654   -2.4382608    2.4282186  0.014453682   0.10244465            1 
   15000    1.2580677   -2.4283841    3.7171821  0.020651011   0.10531463            2 
   16000    1.2519314   -2.4303115    5.0071916  0.026079122   0.10642124            1 
   17000     1.236763   -2.3948032    6.2929715  0.030847898   0.10625333            2 
   18000    1.2674205   -2.4808501    7.6271695  0.035310969   0.10684372            2 
   19000    1.2353777   -2.4476013    9.0016522  0.039480929   0.10737276            2 
   20000    1.2426823   -2.4386828    10.257862   0.04274109    0.1079264            3 
   21000    1.2091653   -2.4336536    11.653518  0.046244116   0.10851298            3 
   22000    1.2324335   -2.4663614    12.801424  0.048490242   0.10861206            2 
   23000    1.2317343   -2.4384346     14.24383  0.051608079   0.10847751            2 
   24000    1.2397612   -2.4595832    15.336901  0.053253126   0.10834092            2 
   25000    1.2382825    -2.463193     16.67773  0.055592433   0.10804511            2 
   26000    1.2287987   -2.4451694    18.155568   0.05819092   0.10811557            1 
   27000    1.2203197   -2.4732113    19.334953   0.05967578   0.10822866            2 
   28000    1.2153396   -2.4864845    20.731487  0.061700853   0.10836371            2 
   29000    1.2328316    -2.458214    21.881227  0.062877088   0.10847817            5 
   30000    1.2092514   -2.4895553    23.196456  0.064434598   0.10838602            3 
   31000    1.1919156   -2.4454484    24.683699  0.066354027   0.10838996            2 
   32000    1.2384774   -2.4921116    25.812033  0.067218836   0.10851379            2 
   33000    1.2280418   -2.4845039    27.148902  0.068557832   0.10839193            3 
   34000    1.2174091      -2.4869    28.331585  0.069440158   0.10835868            1 
   35000    1.2018834   -2.4703255    29.597125  0.070469344   0.10829712            1 
   36000    1.1963645   -2.4616936    31.098937  0.071988278   0.10824244            2 
   37000    1.2218216   -2.4701565    32.250803  0.072636943   0.10821478            3 
   38000    1.2201951   -2.4647506    33.550004  0.073574568   0.10812508            2 
   39000     1.192892   -2.4835446    34.924367  0.074624716   0.10808333            1 
   40000    1.2046577   -2.4778502    36.224769  0.075468268   0.10810052            3 
   41000     1.181556   -2.5041292    37.542204  0.076305291   0.10816831            1 
   42000    1.2118732    -2.493102    39.072742   0.07752528   0.10831008            1 
   43000    1.1984492   -2.4765962    40.384326  0.078264196   0.10844036            1 
   44000    1.2031183    -2.467852    41.413725  0.078435085   0.10849709            1 
   45000    1.1859411   -2.5020869    43.045295  0.079713509   0.10853765            1 
   46000    1.1936698   -2.4774315    44.255249  0.080172552   0.10860963            2 
   47000     1.223054   -2.4550696    45.418933  0.080530023   0.10864084            1 
   48000     1.173524   -2.5262528    46.321228  0.080418797   0.10856918            2 
   49000    1.1597877    -2.472384    47.847606  0.081373479   0.10844403            2 
   50000    1.1700886    -2.500414     48.64479  0.081074649   0.10834808            1 
   51000    1.1917453   -2.5602824     49.56464  0.080987973   0.10817122            4 
   52000    1.2030554   -2.4830286    51.366044  0.082317378   0.10798405            2 
   53000    1.1694795   -2.5139626    52.147208  0.081992465   0.10778486            2 
   54000    1.1961554   -2.4955587    53.295297  0.082245828   0.10754844            3 
   55000    1.1576513   -2.4831084    54.629059  0.082771301    0.1073088            2 
   56000     1.186087   -2.5189275    55.663711  0.082832902   0.10706725            4 
   57000    1.1798814   -2.5349493    56.880605  0.083158778   0.10679811            1 
   58000    1.1905213   -2.5185398    57.875853  0.083154961    0.1065412            1 
   59000    1.1802292   -2.4791524     59.05233  0.083407246    0.1062792            2 
   60000     1.170444   -2.4940605    59.492527  0.082628509   0.10599926            1 
   61000    1.1705359   -2.5100398    60.949023  0.083263692   0.10567694            3 
   62000    1.1811865   -2.5300087    61.886037  0.083180156   0.10535065            3 
   63000    1.1892035   -2.5155572     63.25738  0.083673783   0.10505456            2 
   64000    1.1518212    -2.521849    64.909659  0.084517784   0.10482408            2 
   65000    1.1460377   -2.5120757    65.766026  0.084315417   0.10461394            1 
   66000    1.1690046   -2.5160485     67.13059  0.084760846    0.1043961            2 
   67000    1.1611008    -2.536647    67.923065  0.084481424   0.10417774            1 
   68000     1.143655   -2.5132099     69.15855  0.084753124   0.10393607            2 
   69000     1.163175    -2.540907    70.418667  0.085046699    0.1037204            1 
   70000    1.1661377   -2.5287608    70.829098  0.084320355   0.10348304            1 
   71000    1.1607835   -2.5366704    72.329961   0.08489432   0.10322837            3 
   72000    1.1656456   -2.5275556    73.357659  0.084904697    0.1029715            1 
   73000    1.1589484   -2.5421428    73.978201      0.08445   0.10270834            1 
   74000    1.1623399   -2.5516588    75.138831    0.0846158    0.1024231            1 
   75000    1.1567931   -2.5464319     75.96745  0.084408278   0.10213094            3 
   76000    1.1566179   -2.5372235    77.112727  0.084553428   0.10183034            1 
   77000    1.1553749   -2.5645241     77.93625   0.08434659   0.10153453            2 
   78000    1.1573067    -2.536761    79.013678  0.084416322   0.10126512            1 
   79000      1.14923   -2.5574508    80.208855  0.084608497    0.1010031            1 
   80000    1.1122785   -2.5484657    81.486485  0.084881754   0.10076665            3 
   81000    1.1167604   -2.5272443    82.847215   0.08523376   0.10056106            1 
   82000    1.1440314   -2.5682934    83.644434  0.085004506   0.10035915            1 
   83000    1.1523799   -2.5527262    84.704462   0.08504464   0.10014653            3 
   84000    1.1070144    -2.539394    85.988972  0.085306519  0.099952536            1 
   85000    1.1306245    -2.584322    86.971084  0.085265768  0.099766822            1 
   86000    1.1343205   -2.5921879    88.135412  0.085402531  0.099597162            3 
   87000    1.1227307   -2.5590226    89.842037  0.086055591  0.099437512            2 
   88000    1.1258143   -2.5339182    91.067228  0.086237905  0.099301476            1 
   89000    1.1282606    -2.565096    91.708635  0.085869508  0.099170848            2 
   90000    1.1172608   -2.6089532    93.834708  0.086883988  0.099069335            3 
   91000    1.1353895   -2.6036544    94.674558  0.086698313  0.098971244            1 
   92000    1.1523488   -2.5651568    95.339492  0.086358235  0.098878318            2 
   93000    1.1129023   -2.5805938    96.714101   0.08666138  0.098758999            3 
   94000    1.1424066   -2.5813798     98.11496  0.086981347  0.098665931            2 
   95000    1.1252498    -2.575933    98.878362  0.086735405  0.098574873            3 
   96000    1.0972524   -2.5652653    100.28039  0.087048949  0.098485418            2 
   97000      1.10258    -2.590738     101.2223   0.08696074   0.09838367            1 
   98000    1.1321067   -2.5680419    101.47686  0.086289843  0.098257074            1 
   99000    1.0871113   -2.5314523    103.12357  0.086804352  0.098135802            1 
  100000    1.1152624   -2.5679101    103.83029  0.086525239  0.098009841            1 
  101000    1.1302223   -2.6140588    104.26546  0.086027604  0.097857226            3 
  102000    1.1007441   -2.6062935    105.69268  0.086350231  0.097707655            1 
  103000    1.1116353   -2.6026671    106.86351  0.086459149  0.097556946            3 
  104000    1.0961772    -2.573835    107.45878  0.086104793  0.097405834            2 
  105000    1.1060542   -2.5891559    108.47886   0.08609433  0.097263175            3 
  106000    1.0779991   -2.5864747    109.05507   0.08573512  0.097098068            2 
  107000    1.1027755   -2.5948132    110.24039  0.085857004  0.096930787            1 
  108000    1.0904388   -2.5689922    111.42244  0.085974108  0.096766176            1 
  109000     1.092496   -2.5760854     112.5902  0.086078135  0.096610704            2 
  110000    1.0747137   -2.6302513    113.34586  0.085868074  0.096472038            1 
  111000    1.0793546   -2.6127671    115.16344  0.086459036  0.096341206            2 
  112000    1.0926222   -2.6055836    116.55467  0.086722224  0.096230323            2 
  113000    1.0771886    -2.629356    117.34144  0.086534987  0.096118632            2 
  114000    1.0832391   -2.6106527    118.08206  0.086317298   0.09600151            2 
  115000    1.0849023    -2.610805    118.76432  0.086061098  0.095876065            2 
  116000    1.0871427   -2.5880203    119.93196  0.086158016  0.095737465            2 
  117000    1.0729946   -2.5864967    120.37243  0.085735351  0.095591535            2 
  118000    1.0912772   -2.6438873    121.24938   0.08562809  0.095439771            3 
  119000    1.0623263   -2.6083719    122.18337  0.085562587  0.095278304            3 
  120000    1.0753522   -2.6181292    122.69326  0.085203651   0.09512686            1 
  121000    1.0653443   -2.6265998    124.40813  0.085680528  0.094990642            3 
  122000    1.0628229   -2.6365108    125.72201  0.085875692   0.09485657            1 
  123000     1.086215   -2.6140076    126.29619  0.085566525  0.094724933            2 
  124000    1.1060596   -2.6338299    127.45991   0.08565854  0.094588414            2 
  125000    1.0804861   -2.6004779    129.13028  0.086086853  0.094457805            1 
  126000    1.0712258   -2.6290208    129.79895  0.085845863  0.094326143            1 
  127000    1.0591558   -2.6322668    130.16469  0.085409904  0.094190875            1 
  128000    1.0886787   -2.6455458    130.74121  0.085117975  0.094054866            2 
  129000    1.0637131   -2.6377663    131.57431  0.084996321  0.093910061            1 
  130000    1.0919852   -2.6468888    132.51913  0.084948157  0.093755775            2 
  131000    1.0752867   -2.6568398    133.49531  0.084920681   0.09360488            3 
  132000    1.0678523   -2.6516296    134.58953  0.084968136   0.09345416            6 
  133000    1.0575201   -2.6187918    135.82679  0.085104504  0.093301496            4 
  134000    1.0614706    -2.664076    136.14013  0.084664261  0.093148826            4 
  135000    1.0528458   -2.6456816    137.34885  0.084783241   0.09300324            3 
  136000    1.0616777   -2.6261982    138.31777  0.084753534  0.092858239            3 
  137000     1.065687   -2.6615492    139.43045  0.084811708  0.092716241            5 
  138000    1.0459046   -2.6702292    139.82947  0.084438088  0.092571718            3 
  139000    1.0241492   -2.6515117     141.3661  0.084751858  0.092433256            1 
  140000     1.066457   -2.6639072    142.86428  0.085038263  0.092301357            1 
  141000    1.0141366   -2.6783368    142.99808  0.084514232  0.092167441            2 
  142000    1.0620106   -2.6694247    143.44265   0.08417996  0.092030871            3 
  143000    1.0324589    -2.660705    144.09724  0.083972749  0.091889517            4 
  144000    1.0285179   -2.6673285     145.4512  0.084173148  0.091746588            2 
  145000    1.0472817   -2.6710432    146.19582  0.084020585  0.091595853            1 
  146000    1.0316631   -2.6692643    147.28956  0.084069381  0.091450247            2 
  147000    1.0215657   -2.6809351    147.93846  0.083865342  0.091311059            3 
  148000    1.0406592   -2.6434883    149.31873  0.084075861  0.091176272            1 
  149000    1.0299211   -2.6802049    150.34579  0.084086013  0.091039567            3 
  150000    1.0282351   -2.6843952    151.08336    0.0839352   0.09090851            2 
  151000    1.0429206    -2.695204    151.29689  0.083497181  0.090772119            2 
  152000    1.0277065    -2.672965     152.1897  0.083437337  0.090636378            1 
  153000    1.0265107    -2.670641    153.45234  0.083579707  0.090491323            4 
  154000    1.0360154   -2.6609289    154.64004  0.083679673   0.09035014            2 
  155000    1.0328533   -2.6788683    155.47734  0.083589967  0.090205219            2 
  156000    1.0158012   -2.6866309    156.22617   0.08345415  0.090066583            2 
  157000    1.0151708   -2.6991305    156.60942   0.08312602  0.089923056            1 
  158000    1.0122874   -2.7002248    157.40223  0.083018054  0.089777123            3 
  159000    1.0259285   -2.7067753    158.40613  0.083022082  0.089636613            1 
  160000    1.0066377   -2.6832919    158.65315  0.082631847  0.089494769            3 
  161000    1.0028785   -2.6941375    160.31127  0.082976849  0.089356771            2 
  162000    1.0238572   -2.6960642     160.4169  0.082518981  0.089221203            2 
  163000    1.0110421   -2.6736214    161.81533  0.082727672  0.089084786            2 
  164000   0.98792299   -2.7197925    162.08831  0.082361944  0.088950549            3 
  165000    1.0252535   -2.7116182    162.85258  0.082248776  0.088804548            2 
  166000    1.0081237   -2.7293537    162.89255  0.081773366  0.088657243            2 
  167000   0.98462706   -2.6836602    164.23003  0.081951112  0.088507331            6 
  168000   0.97990994    -2.728737    165.27089  0.081979607  0.088355027            3 
  169000   0.99221221   -2.7207139    165.33448  0.081525875  0.088202017            1 
  170000    1.0131881   -2.7143531    167.21411  0.081967701  0.088051899            2 
  171000   0.98108556   -2.7394592    166.86547  0.081318457  0.087900466            3 
  172000   0.99511415    -2.720092    168.53372  0.081653935  0.087750228            5 
  173000   0.98991189   -2.6913852    170.07396  0.081923873  0.087615055            3 
  174000   0.97389489    -2.722791    170.87792  0.081838085    0.0874845            3 
  175000   0.96597946   -2.7026573    171.78739   0.08180352  0.087352464            1 
  176000   0.98117046   -2.7247708     172.1311  0.081501466   0.08721992            1 
  177000   0.99818007   -2.7339657    173.22057  0.081553941  0.087085726            4 
  178000   0.98977769   -2.7114121    173.36447  0.081163143  0.086950228            2 
  179000   0.98032326   -2.7285223    174.30951  0.081149677   0.08681324            4 
  180000    1.0080516   -2.7227278    175.11191   0.08107033  0.086676256            2 
  181000   0.97844161   -2.7308415    175.41692  0.080762856  0.086543363            3 
  182000   0.96146331    -2.695192    177.37346  0.081214952  0.086405633            4 
  183000   0.97890138   -2.7543465     177.7394  0.080937794  0.086268897            3 
  184000   0.96063198   -2.7388735    177.07523  0.080197116  0.086129704            5 
  185000   0.98951913   -2.7534499    179.64879  0.080922879  0.085987023            2 
  186000   0.97556331    -2.725523    178.98133  0.080188768  0.085845492            1 
  187000   0.98253323   -2.7736598    180.45204  0.080415348  0.085712063            5 
  188000   0.96889042   -2.7564919    181.85177  0.080608053  0.085579738            6 
  189000    0.9684782   -2.7533017    182.11644  0.080298255  0.085445122            2 
  190000    0.9749876   -2.7475884    183.63566  0.080541955  0.085318977            2 
  191000   0.96341421   -2.7861455    184.24386  0.080385627  0.085191838            2 
  192000   0.97216163   -2.7548729    185.11446  0.080344816  0.085064557            4 
  193000     0.979024   -2.7436031    186.00766  0.080314189  0.084935627            3 
  194000   0.93299517   -2.7633123    186.30221  0.080026722  0.084811628            2 
  195000   0.96475402   -2.7443966     186.8148  0.079835384  0.084688832            3 
  196000   0.94970538   -2.7639125    187.32233  0.079643849  0.084558006            2 
  197000   0.95034889   -2.7550714    187.85635  0.079465461  0.084425929            2 
  198000   0.95404214   -2.7614118    188.26342  0.079235448  0.084288361            2 
  199000   0.95404075   -2.7839246    189.23921  0.079245901   0.08414474            2 
  200000   0.95085036   -2.7811266    189.24108  0.078850451   0.08400509            2 
  201000   0.96571078   -2.7745805    190.12404  0.078824227  0.083862887            6 
  202000   0.94815082   -2.7948831    192.57299  0.079444302   0.08372807            1 
  203000   0.94724932   -2.7854177    192.79347  0.079143458  0.083601617            2 
  204000   0.92235216   -2.7936371    192.88629  0.078793419  0.083473682            2 
  205000   0.94071349   -2.7789519    194.14785  0.078921891  0.083347242            3 
  206000   0.92720371    -2.789326     194.0668  0.078505986  0.083219097            2 
  207000   0.93633135   -2.7905822    195.92518   0.07887487  0.083087432            1 
  208000   0.94988266   -2.7815289     195.8032  0.078446795  0.082950232            4 
  209000   0.93026764   -2.8096735    195.92244  0.078118996   0.08281429            5 
  210000    0.9310775   -2.7991749    196.92383  0.078144376   0.08267939            2 
  211000   0.92591732   -2.7753404    198.05331  0.078220106  0.082543206            1 
  212000   0.92814581   -2.8152723    198.15258  0.077890164   0.08240567            3 
  213000   0.90503475   -2.8137936    198.78982  0.077773795  0.082274088            2 
  214000   0.92382928   -2.7888559     200.6844  0.078148131  0.082142137            2 
  215000   0.91070258     -2.81694    200.47839    0.0777048  0.082007233            1 
  216000   0.93037905   -2.8052088    200.87202  0.077496921  0.081871918            2 
  217000    0.9180935   -2.8059348    202.10497  0.077613274  0.081734972            3 
  218000   0.92795968   -2.7685395    202.48526  0.077402621  0.081602897            3 
  219000   0.90886036   -2.8103743    203.36187  0.077382752  0.081467003            4 
  220000   0.92312126   -2.8069187    202.98271  0.076887391  0.081328327            2 
  221000   0.92308557   -2.8055411    202.90244  0.076509214  0.081187938            3 
  222000   0.89573956   -2.8341904    204.48477  0.076758548  0.081050993            2 
  223000   0.89864407   -2.8379957    205.29283  0.076716305  0.080917309            4 
  224000   0.89517919    -2.820237    205.68707  0.076520487   0.08078226            4 
  225000   0.90999145   -2.8247256    206.98827  0.076662323  0.080640987            4 
  226000   0.90548688   -2.8319663    206.77729  0.076245313  0.080499452            3 
  227000   0.91350074   -2.8254611    207.70957  0.076251678  0.080362898            2 
  228000   0.90931004    -2.793147    208.70774  0.076282067  0.080229196            2 
  229000    0.9067083   -2.8484504    208.43107   0.07584828   0.08009828            2 
  230000   0.89366576   -2.8067847     210.1952  0.076157681   0.07996509            3 
  231000   0.88873514   -2.8469499    209.35964  0.075526565  0.079829498            5 
  232000   0.91226406   -2.8474397    211.32947  0.075908576  0.079695392            2 
  233000   0.89015013   -2.8385042    212.49618  0.076000063  0.079563463            2 
  234000   0.90697402   -2.8372507    212.10008  0.075534215  0.079433403            4 
  235000   0.90531476   -2.8346768    213.35798  0.075658857  0.079299721            3 
  236000    0.9036681   -2.8496237    213.52265  0.075396415  0.079167958            4 
  237000   0.90398225   -2.8472408    214.99382  0.075595575  0.079036067            2 
  238000   0.87924872   -2.8459635    215.08074  0.075308381   0.07890802            2 
  239000   0.87957453   -2.8520606    215.86307  0.075266065  0.078781524            2 
  240000   0.91215183   -2.8652017    216.87034    0.0753022  0.078653628            3 
  241000   0.89620454   -2.8507719    216.75754  0.074950739  0.078525942            5 
  242000   0.87168309   -2.8358729    217.37914  0.074855077  0.078403922            4 
  243000   0.88624515   -2.8630678    218.69156  0.074997105  0.078277937            2 
  244000      0.87736   -2.8634818    219.70545  0.075036013  0.078155734            1 
  245000   0.87454828   -2.8592101    219.23874  0.074570999  0.078030871            4 
  246000   0.87232532   -2.8732751    220.13531  0.074571583  0.077903013            3 
  247000   0.87646869   -2.8500575    220.55762  0.074412154  0.077773685            4 
  248000   0.90331332   -2.8945517    220.07448  0.073949759  0.077646496            5 
  249000    0.8578278   -2.8791125    221.07163  0.073986489  0.077512608            4 
  250000    0.8795475    -2.863953     221.5481  0.073849366  0.077379766            2 
  251000   0.87991579   -2.8627292    221.75454  0.073623684  0.077245401            3 
  252000   0.83860902   -2.8775188    222.18217  0.073472941  0.077109998            2 
  253000   0.85310069   -2.8791842    223.14857  0.073500847  0.076976999            6 
  254000   0.86221314   -2.8599867    223.33162  0.073271528     0.076841            4 
  255000    0.8538243   -2.8997161     224.1662  0.073256928  0.076708019            4 
  256000   0.85623428   -2.8786082    225.12403  0.073282563  0.076571638            3 
  257000   0.86125681   -2.8672633    224.72097  0.072866721  0.076438682            6 
  258000   0.84004403   -2.8980356    225.02402  0.072682177  0.076302274            4 
  259000     0.837917   -2.9038894    225.46988  0.072545006  0.076164192            2 
  260000   0.85050355   -2.8871351    225.77592  0.072364075  0.076024173            2 
  261000   0.85068904   -2.8665667    227.48583  0.072632769  0.075885294            3 
  262000   0.83754756   -2.9209085    227.55235  0.072376701  0.075749751            3 
  263000   0.83439629   -2.9051596    227.77247   0.07217125  0.075610207            4 
  264000   0.84767775   -2.8915783     229.1768  0.072341163  0.075472216            3 
  265000   0.83980638    -2.909176    228.96545  0.072001713  0.075339102            2 
  266000   0.85078426   -2.8974152    229.72157   0.07196791  0.075202668            3 
  267000   0.83462274   -2.9014894    230.18837  0.071844059  0.075067934            4 
  268000   0.84300065   -2.9080016    230.29408  0.071608857  0.074931516            4 
  269000   0.84712017   -2.8877116    231.25771  0.071641174  0.074794349            2 
  270000   0.83363596   -2.9100366    229.49371  0.070831392  0.074654273            5 
  271000   0.83348034   -2.9229167    231.07254  0.071055516  0.074515767           11 
  272000   0.83453563   -2.9261492    231.60523  0.070957486  0.074375765            4 
  273000   0.84399664   -2.9096965    231.54946  0.070680543  0.074233268            3 
  274000   0.83597419   -2.9190772    232.57629   0.07073488  0.074090619            3 
  275000   0.83841936   -2.9461935    232.59399  0.070483026  0.073949171            4 
  276000   0.81608418   -2.9228534    233.69123  0.070558947  0.073809456            3 
  277000   0.81185616   -2.9235716    234.46416  0.070536752  0.073668038            7 
  278000   0.81344249   -2.9308973    233.80288  0.070084796   0.07352762            3 
  279000   0.85257234    -2.937848    234.50782  0.070044151  0.073387249            3 
  280000   0.82546389   -2.9411389    234.84462  0.069894232  0.073245209            7 
  281000   0.81395367   -2.9481616    234.81656  0.069637178  0.073104028            6 
  282000   0.82667791   -2.9069225    235.41078  0.069565832  0.072963041            1 
  283000    0.7938873   -2.9479574     236.6696  0.069690693  0.072822202            2 
  284000   0.81489177   -2.9525306    236.11866  0.069283644  0.072680095            3 
  285000   0.80553026   -2.9505119    236.24943  0.069078782   0.07253712            9 
  286000   0.81960567   -2.9379985    237.42397  0.069179478  0.072395359            3 
  287000   0.81671783   -2.9434981    237.72076  0.069024612  0.072255175            9 
  288000   0.81454693   -2.9429463    239.49615  0.069298655  0.072113238            7 
  289000   0.82910667   -2.9714523    239.22497  0.068980672  0.071975532            4 
  290000    0.8058918   -2.9126203     240.0972  0.068993449  0.071836662            4 
  291000   0.82984952   -2.9671606    240.43754  0.068853821   0.07169867            6 
  292000   0.80317932    -2.960141    240.74179  0.068704848  0.071559889            4 
  293000    0.7776755   -2.9628605    240.64523  0.068442897  0.071421082            4 
  294000    0.8082513   -2.9793281    240.48032  0.068163356  0.071278853            4 
  295000   0.80407083   -2.9703241    241.11098  0.068110447  0.071139776            8 
  296000   0.79837848   -2.9692802    241.72965  0.068054518  0.070999917            4 
  297000   0.79047515   -2.9834915    242.16547  0.067947661  0.070859857            4 
  298000   0.78962449   -2.9812566    242.50143    0.0678136  0.070718007            7 
  299000   0.80265783   -2.9564641    241.92048  0.067424882  0.070577152            2 
  300000   0.77983187   -2.9890178    242.49383  0.067359398  0.070433828            2 
  301000   0.78019312   -3.0057213    243.18663  0.067327418  0.070291318            3 
  302000   0.78773445   -2.9713742    243.67586  0.067239476  0.070150188            4 
  303000   0.78658652    -3.014789    244.28092  0.067183971  0.070008183            4 
  304000   0.80117606   -2.9851327    244.33671  0.066978263  0.069865968            8 
  305000   0.76207977   -3.0043556    244.26141   0.06673809  0.069723481            4 
  306000   0.78850881   -2.9880098    244.71512  0.066643551  0.069579926            3 
  307000   0.78861121   -2.9965296     244.8464  0.066462107  0.069435567            2 
  308000   0.76945825   -3.0085659     244.6668  0.066197727   0.06929061            3 
  309000   0.77610082   -3.0086106    245.70695  0.066264011  0.069146451            5 
  310000   0.77476534   -2.9947407    245.31968  0.065946149  0.069002361            3 
  311000   0.78121215   -3.0064755    247.28229  0.066259992  0.068858465            3 
  312000   0.78369995   -2.9869174    246.56302  0.065855506  0.068716453            3 
  313000   0.75049084   -3.0385958    246.81868  0.065713172  0.068574093            4 
  314000   0.75368869   -3.0173889    247.33579  0.065641133  0.068433061            3 
  315000   0.76179534   -3.0351319    248.07599   0.06562857  0.068291113            5 
  316000   0.77418909   -3.0377865    248.09051  0.065424712  0.068148914            9 
  317000   0.76148933     -3.02122    249.50262  0.065589544  0.068008264            4 
  318000   0.74465548   -3.0422257    248.34881  0.065080925  0.067868182            4 
  319000   0.75623552   -3.0239886    249.69427  0.065228387  0.067729234            7 
  320000   0.74334081   -3.0280182    249.67189  0.065018721  0.067589934            4 
  321000   0.77872365   -3.0331723     250.0416  0.064912149  0.067450008            4 
  322000    0.7506031   -3.0393449    250.11334  0.064729126  0.067310023            4 
  323000   0.76284101   -3.0398552    250.51194  0.064631563  0.067169651            3 
  324000   0.76014889   -3.0490351    251.01757  0.064562131  0.067029937            5 
  325000   0.75468733   -3.0225147    250.76066  0.064297605  0.066889131           12 
  326000   0.75435746   -3.0531844    250.96206  0.064151855  0.066747487            2 
  327000   0.73644516   -3.0351172    251.20137  0.064016659  0.066604813            3 
  328000   0.74611766   -3.0532241    251.22079  0.063826419  0.066463146            5 
  329000   0.73688877   -3.0631373    251.69992  0.063753779  0.066322208            6 
  330000   0.73070981   -3.0556222    252.98483  0.063885059  0.066180437            7 
  331000   0.74701793   -3.0631224    252.56422  0.063586157  0.066040955            4 
  332000     0.733284   -3.0654365    253.06392  0.063520059  0.065901991            6 
  333000   0.72829212   -3.0673635     252.9784  0.063307907  0.065761538            8 
  334000   0.72653113   -3.0462879    253.67236  0.063291506  0.065622402            3 
  335000   0.75062598   -3.0720374    253.83425  0.063142849  0.065481497            4 
  336000    0.7309516    -3.069452    253.92169  0.062976609  0.065341367            7 
  337000   0.72970469   -3.1047864    254.25021  0.062870973  0.065200345            3 
  338000   0.72758667   -3.0685648    254.75033  0.062808267  0.065061144            3 
  339000   0.71618669   -3.0744568    254.17312  0.062481102  0.064922498            7 
  340000   0.72332239   -3.0588941    256.29943  0.062818489  0.064785754            4 
  341000   0.71353109   -3.0715151    255.77328   0.06250569  0.064650839            6 
  342000   0.72805107    -3.073832    255.98955  0.062375622  0.064515594            6 
  343000    0.7306322   -3.0717367    256.59077  0.062339838  0.064379554            7 
  344000   0.71967085   -3.0920001    256.95825  0.062247638  0.064244701            3 
  345000   0.71100516   -3.0820078     257.1657  0.062117318  0.064109327            6 
  346000   0.71705342    -3.094669    257.00371  0.061898774  0.063973664            3 
  347000   0.71565984   -3.1070828    257.13947  0.061752993  0.063836792            8 
  348000   0.69969546   -3.0935045    257.25013  0.061602044  0.063698952            5 
  349000   0.70880356   -3.0954082    256.87285  0.061335447  0.063562044            4 
  350000   0.69801273   -3.0883738    257.23408  0.061246209  0.063424245            4 
  351000   0.70463803   -3.0826344    258.44161  0.061358408  0.063287559            5 
  352000   0.71395763   -3.1008942    258.63011  0.061228719  0.063150565            5 
  353000   0.68681737   -3.0945069    258.56784  0.061040566  0.063015169            4 
  354000   0.69950209   -3.0880824    258.14729  0.060769135  0.062878508            3 
  355000   0.69820486   -3.1189001    259.13132  0.060828949  0.062743962            4 
  356000   0.68875027   -3.0877968    258.97324  0.060621077  0.062607886            3 
  357000   0.70372413   -3.1260833     258.1634  0.060262232  0.062472257            5 
  358000    0.6888398   -3.1048918    259.37336  0.060375548  0.062335637            5 
  359000   0.71137774   -3.1250315     259.6115   0.06026265  0.062198442            6 
  360000   0.69491728   -3.1190657    259.60264  0.060093203  0.062062836            4 
  361000    0.6871858   -3.1206519    260.36989  0.060103852  0.061927492            5 
  362000   0.70715878    -3.132293    260.65875  0.060004317  0.061792895            4 
  363000   0.67246559   -3.1305959    260.56349  0.059817147  0.061658558            3 
  364000   0.67863245   -3.1406419     261.2946  0.059820193   0.06152366            5 
  365000   0.69162288   -3.1279227    262.02319  0.059822645  0.061390978            6 
  366000   0.67105611   -3.1499763    261.64197  0.059572396  0.061256943            9 
  367000   0.69177849    -3.126091    261.99823  0.059490969  0.061122355            9 
  368000   0.69082609   -3.1357047    262.27683  0.059392398  0.060991117            4 
  369000   0.68430539   -3.1418257    262.50193  0.059282279  0.060859398            7 
  370000    0.6871741   -3.1547562    262.64078  0.059153329  0.060728272            4 
  371000   0.66894979   -3.1605135    262.22174  0.058899762  0.060596508           12 
  372000   0.67168074   -3.1636379    262.90979  0.058895563   0.06046563            9 
  373000   0.67778805   -3.1490657    263.59225  0.058890137  0.060335587            3 
  374000   0.67251823   -3.1543698    263.97388   0.05881771   0.06020629            5 
  375000   0.67823251    -3.156131    263.70315  0.058600701  0.060077526            5 
  376000   0.66416215    -3.158184     264.0623  0.058524446  0.059948289            8 
  377000   0.67385323   -3.1673921    265.14479  0.058608485  0.059818309            5 
  378000   0.66419537   -3.1732012     263.8325  0.058164131  0.059688178            7 
  379000   0.68277886    -3.167698    264.58362  0.058175818  0.059560401           13 
  380000   0.65816031   -3.1756696    264.87451  0.058086515  0.059433273            4 
  381000   0.66662355   -3.1563816    266.01163  0.058182772  0.059306648            7 
  382000   0.66889087   -3.1708382    265.86045  0.057997481  0.059180596            7 
  383000   0.66770254   -3.1956568    266.34307  0.057951061  0.059053455            9 
  384000   0.65638369   -3.2054665    265.47229  0.057611174  0.058926208            6 
  385000   0.64720126   -3.1967734    266.20242  0.057619571  0.058798972            5 
  386000   0.65931143   -3.1873189     266.5508  0.057545508  0.058671427            3 
  387000   0.64704888   -3.1959991    265.73443  0.057221022  0.058544478            3 
  388000   0.65179962   -3.1998083    266.08367  0.057148554   0.05841803            5 
  389000    0.6464349   -3.1943913    266.55364  0.057102322  0.058291964            6 
  390000   0.65399821   -3.1975288    266.82965  0.057014882  0.058164649            7 
  391000   0.64223081   -3.1845414    266.96817  0.056898586  0.058037378            6 
  392000   0.63269456   -3.2111213    266.60246  0.056675692  0.057910034            4 
  393000   0.63890191   -3.1910335    266.52244  0.056514512  0.057782471            8 
  394000   0.64033731   -3.1997839    267.34988  0.056546084  0.057654832            7 
  395000   0.62223527   -3.1960956    267.37542  0.056408317  0.057526855            6 
  396000   0.65288017   -3.2143672    266.60336    0.0561034  0.057397645            5 
  397000    0.6392422    -3.199416    267.32708  0.056113996  0.057269415           11 
  398000   0.61493374   -3.2168697     267.3169  0.055970875   0.05714009            7 
  399000     0.616787   -3.2124338    267.14834  0.055795392  0.057011073            6 
  400000   0.62891748   -3.2117577    266.92572  0.055609525  0.056882659            5 
  401000   0.62056404   -3.2231167    267.54716  0.055599991  0.056754825            9 
  402000   0.62622229   -3.2360479    268.40425  0.055639355  0.056627908           11 
  403000   0.62382002   -3.2278484     268.0885  0.055436002  0.056499822            6 
  404000   0.63949498   -3.2298968    268.45139  0.055373637  0.056372439            4 
  405000   0.61946781   -3.2374074    267.42112  0.055024923  0.056246085           15 
  406000   0.61822769   -3.2362953    268.23119  0.055055663  0.056118807            9 
  407000   0.61600627   -3.2479718    269.66027  0.055212996  0.055992774           11 
  408000   0.61355475    -3.247385    268.31725  0.054803359  0.055867082           10 
  409000   0.61863041   -3.2571713    268.69432  0.054746194  0.055740016           11 
  410000   0.62692112    -3.233796    268.15382  0.054502809  0.055613525            7 
  411000   0.61031592   -3.2424231    268.23864  0.054387397  0.055486849            6 
  412000    0.6136953   -3.2424615    268.87695  0.054384497   0.05536034            5 
  413000   0.61506188   -3.2487064    269.22092  0.054322219  0.055234159            7 
  414000   0.60547069    -3.246287    269.29019   0.05420495   0.05510815            6 
  415000   0.60002713    -3.267913    269.20434  0.054057096  0.054982506            9 
  416000   0.60538059   -3.2550597     269.4441   0.05397518  0.054856402            7 
  417000   0.61016903    -3.282322    269.25672  0.053808298  0.054729588            8 
  418000   0.59423531   -3.2712473     269.9415  0.053816089  0.054604022            8 
  419000   0.60152906   -3.2899382    269.31164  0.053562379  0.054478146            7 
  420000   0.59755356     -3.26959     269.7561  0.053523037   0.05435178            8 
  421000   0.57183542   -3.2736734    269.51083  0.053347354  0.054225917            6 
  422000   0.59526659   -3.2841329    269.14124  0.053147954  0.054099939            7 
  423000   0.60001811   -3.2812634    269.43321  0.053079829  0.053973188           14 
  424000   0.59317615   -3.2861075    269.79827   0.05302639  0.053847616            6 
  425000   0.58815062   -3.2885346    269.48407  0.052840013  0.053722277            3 
  426000   0.59833103   -3.2821791    270.11325  0.052839056  0.053595616            5 
  427000    0.5800822   -3.3020763    269.77208  0.052648727  0.053470312           20 
  428000   0.57330876   -3.2861554    270.19116  0.052607313  0.053345814           10 
  429000   0.58135074   -3.3015377    269.97918  0.052443509  0.053221757           21 
  430000   0.58550858   -3.3018785     270.4218  0.052407325   0.05309796            8 
  431000   0.56786818   -3.3015736    270.62265  0.052324564  0.052974413            6 
  432000   0.58243969   -3.3281535    269.61095  0.052008285  0.052850956            8 
  433000   0.57175124   -3.3212325    270.40458  0.052040912  0.052726646            4 
  434000   0.57699626   -3.3161152    271.09193  0.052052982  0.052603815           25 
  435000   0.58118009   -3.3026385    271.06861  0.051928852  0.052481343            5 
  436000   0.57801956    -3.304982    271.45219  0.051883063   0.05235855            9 
  437000   0.57025131   -3.3065377    270.56539   0.05159523  0.052236497            7 
  438000   0.56591716   -3.3407863     270.3454  0.051435578  0.052113988            5 
  439000   0.55574854   -3.3133349    271.23541   0.05148736  0.051990826            4 
  440000    0.5689852   -3.3238572     270.7176  0.051272272  0.051869357            6 
  441000   0.57050258   -3.3333415    272.13196  0.051423272  0.051748219           11 
  442000   0.56095959   -3.3207403    272.05434  0.051292297   0.05162815            6 
  443000   0.57024954   -3.3251351    271.94745  0.051156405  0.051508256           11 
  444000   0.56113957   -3.3217065     272.3311  0.051113194  0.051388218            6 
  445000   0.55908252   -3.3483145    272.35382  0.051002588  0.051269068           10 
  446000   0.56320459   -3.3359959    272.41528  0.050899717  0.051150649            9 
  447000   0.55816853   -3.3570588    273.41232  0.050971723  0.051032359            8 
  448000   0.56099748   -3.3602036    272.50069  0.050688373  0.050914275            9 
  449000   0.54750445     -3.36343    272.14187  0.050508884  0.050795686            8 
  450000   0.54666778   -3.3536681    272.50386  0.050463677  0.050677068           32 
  451000   0.55114225   -3.3413576    272.56767  0.050363576  0.050559069           14 
  452000    0.5383808   -3.3662125    272.52095  0.050243538  0.050441661           20 
  453000   0.54637405   -3.3646361    272.54731  0.050137474  0.050323859           13 
  454000   0.54003901   -3.3519338    272.65451  0.050046716  0.050206268           11 
  455000   0.54024441   -3.3661424    272.46652  0.049902293  0.050089242           24 
  456000   0.53970584   -3.3787405    271.56723  0.049628514  0.049972155            9 
  457000   0.54580113   -3.3779414    273.28312  0.049832809  0.049854344           12 
  458000   0.53451692   -3.3838572    272.47735  0.049577393    0.0497365           16 
  459000   0.53107303   -3.3750616    273.04604  0.049572628  0.049618831            9 
  460000   0.53619854   -3.3822378    273.30765  0.049512255  0.049501429           21 
  461000   0.52347523   -3.3697885    272.17239  0.049199637  0.049385233           11 
  462000   0.52897049   -3.4025842     272.7393  0.049195401  0.049269115           11 
  463000    0.5351386   -3.3749873    273.17003  0.049166672  0.049153058           10 
  464000   0.52717967   -3.3904462    272.46153  0.048933464  0.049036337            6 
  465000   0.52307616   -3.4068628    273.55744  0.049024632  0.048920429           17 
  466000   0.51968072    -3.387754    272.80382   0.04878466  0.048804844           13 
  467000   0.51293666   -3.3881755    272.86875  0.048691783  0.048689416           13 
  468000   0.52454629   -3.4113139    273.23289   0.04865258  0.048574312            9 
  469000   0.51690874   -3.3970219    272.92881  0.048494814  0.048459361           18 
  470000   0.52695525   -3.4154678    273.02775  0.048409175  0.048344194            8 
  471000   0.51579815   -3.4088157    273.84889  0.048451679  0.048230142           10 
  472000   0.51865266   -3.4146758     273.8792  0.048354379  0.048116631           20 
  473000   0.51309004   -3.4015597    273.06854  0.048109328  0.048002741            8 
  474000   0.51412753   -3.4040591    273.05523  0.048005491  0.047889213           13 
  475000    0.5033757   -3.4287237    273.12956  0.047917467  0.047775583            6 
  476000   0.50750058    -3.407101    272.87719  0.047772618  0.047661749           19 
  477000   0.50752374   -3.4267018    273.09629  0.047710743  0.047548161            8 
  478000   0.51007783   -3.4319161    273.16455  0.047622829  0.047435089            8 
  479000   0.51331862   -3.4456398    273.06073  0.047505346  0.047321743           13 
  480000   0.49698872   -3.4437566    273.71986   0.04752081  0.047208458           12 
  481000   0.50569178   -3.4467101    273.64868  0.047409681   0.04709573           11 
  482000   0.49610851   -3.4345243    273.42288  0.047272282  0.046982618            7 
  483000   0.49179385   -3.4385849    273.63619  0.047211212  0.046870153           11 
  484000   0.49949828   -3.4507276     273.7402  0.047131577  0.046758305           16 
  485000   0.49095341   -3.4586718    273.34017  0.046965665  0.046646289            9 
  486000   0.49896566   -3.4355552    273.40886  0.046880806  0.046534089           27 
  487000   0.48860853   -3.4462777     273.5364  0.046806366  0.046422459           18 
  488000   0.48577934   -3.4713201    274.17919  0.046820216  0.046311488           31 
  489000   0.47943169   -3.4675531    273.52714   0.04661335  0.046200675           12 
  490000   0.48700877   -3.4770682    273.90948  0.046583245  0.046089408           12 
  491000   0.47742778   -3.4544284    273.30287  0.046385415  0.045978611           28 
  492000   0.48585406   -3.4740293    273.47891  0.046320954  0.045867767           28 
  493000   0.48104139   -3.4648825    274.24763  0.046356935  0.045757135           41 
  494000   0.47488524   -3.4819397    273.16895  0.046081132  0.045646817           17 
  495000   0.47465139   -3.4809544    273.24151  0.046000254  0.045536148           14 
  496000   0.47265969   -3.4941725    273.44548   0.04594178  0.045425666           16 
  497000   0.47488313   -3.4780341    273.35175  0.045833626  0.045316196           14 
  498000   0.46298415   -3.4879149    274.50677  0.045934868  0.045206985           20 
  499000   0.47530564   -3.4842272    273.92226    0.0457452  0.045098475            6 
  500000   0.46023963   -3.4931912    273.45512  0.045575853   0.04498949            8 
  501000   0.48068451   -3.5028503    273.95212  0.045567551  0.044881157           27 
  502000   0.45134912    -3.491406     273.6651  0.045429133  0.044773087           15 
  503000   0.47602004    -3.509652    273.46413  0.045305521  0.044664966           14 
  504000   0.46702407    -3.487782    273.70795  0.045255944  0.044557228           14 
  505000    0.4694172   -3.4982081    274.40944  0.045282086   0.04445001           11 
  506000   0.45811755   -3.5095835    274.11183  0.045143583  0.044343005            6 
  507000   0.45838081   -3.5155631    273.98081  0.045033007   0.04423603           31 
  508000    0.4606366   -3.5261367    272.91587  0.044769664  0.044128985           28 
  509000   0.44968329   -3.5150175    273.10406  0.044712519  0.044021927           56 
  510000   0.44801116    -3.523638    273.49764  0.044689157  0.043915513           38 
  511000     0.450874   -3.5259749    273.43573  0.044591607  0.043809093           42 
  512000   0.44963782    -3.535119    273.74693  0.044555164  0.043703129           29 
Loop time of 1201.78 on 48 procs for 500000 steps with 4000 atoms

Performance: 71893.524 tau/day, 416.050 timesteps/s
99.4% CPU use with 48 MPI tasks x no OpenMP threads

MPI task timing breakdown:
Section |  min time  |  avg time  |  max time  |%varavg| %total
---------------------------------------------------------------
Pair    | 77.043     | 82.326     | 87.162     |  28.3 |  6.85
Neigh   | 8.1268     | 8.4521     | 8.7297     |   6.2 |  0.70
Comm    | 76.773     | 81.353     | 87.385     |  28.5 |  6.77
Output  | 0.86531    | 0.86574    | 0.8742     |   0.1 |  0.07
Modify  | 1015       | 1018.2     | 1020.5     |   3.7 | 84.73
Other   |            | 10.56      |            |       |  0.88

Nlocal:        83.3333 ave          92 max          78 min
Histogram: 2 3 14 9 7 6 4 1 1 1
Nghost:        2171.71 ave        2189 max        2152 min
Histogram: 1 2 5 6 5 11 6 9 2 1
Neighs:        14376.9 ave       16302 max       13279 min
Histogram: 6 6 7 9 7 7 3 1 1 1
FullNghs:      28753.2 ave       31881 max       26866 min
Histogram: 2 6 11 9 10 3 4 1 0 2

Total # of neighbors = 1380154
Ave neighs/atom = 345.03850
Neighbor list builds = 27154
Dangerous builds = 0

#clear
#
#next RN
#
#jump SELF
Total wall time: 0:20:05
