
units lj                  # Use reduced LJ style units
atom_style atomic         # Uncharged point particles
atom_modify map hash      # Needed for indexing of clusters etc
                          # Used to be able to find where atoms are in relation to each other.

lattice fcc 1.0 spacing 1 1 1
Lattice spacing in x,y,z = 1.5874011 1.5874011 1.5874011
region box block 0 10 0 10 0 10 units lattice
create_box 2 box
Created orthogonal box = (0.0000000 0.0000000 0.0000000) to (15.874011 15.874011 15.874011)
  3 by 4 by 4 MPI processor grid
create_atoms 1 box
Created 4000 atoms
  using lattice units in orthogonal box = (0.0000000 0.0000000 0.0000000) to (15.874011 15.874011 15.874011)
  create_atoms CPU = 0.002 seconds
set type 1 type/fraction 2 0.89 78393
Setting atom values ...
  3550 settings made for type/fraction
mass 1 1.0
mass 2 1.0
pair_style lj/cut  3.5
pair_modify tail  yes
pair_coeff 1  1  1.0  1.0   # Intearaction between 1 and 1 set with epsilon = 1 and sigma = 1
pair_coeff 1  2  1.5  0.8
pair_coeff 2  2  0.5  0.88

write_data data.0
System init for write_data ...
Neighbor list info ...
  update every 1 steps, delay 10 steps, check yes
  max neighbors/atom: 2000, page size: 100000
  master list distance cutoff = 3.8
  ghost atom cutoff = 3.8
  binsize = 1.9, bins = 9 9 9
  1 neighbor lists, perpetual/occasional/extra = 1 0 0
  (1) pair lj/cut, perpetual
      attributes: half, newton on
      pair build: half/bin/atomonly/newton
      stencil: half/bin/3d
      bin: standard
WARNING: Not all mixed pair coeffs generated from mixing. Use write_data with 'pair ij' option to store all pair coeffs. (../write_data.cpp:312)


#############################
#   M E L T   S Y S T E M   #
#############################

velocity all create 2.4 9580093 mom yes dist gaussian # Assign velocities
                                                    # Temperature 2.4, random number seed, zero linear momentum
                                                                                # Gaussian distribution

timestep 0.002   # simulation timestep
thermo 1000       # output thermodynamic data every 1000 steps bf 100

# Define a fix  in this case with index 1 applied to all
# particles in the simulation. This fix is for simulations
# in the anisotropic NPT ensemble. Note that we use the MTK
# correction.
fix 1 all npt temp 2.4 2.4 0.1 iso 5.68 5.68 0.5 mtk yes tchain 5 pchain 5 # Use NPT ensemble
                                                                         # Set temperature and pressure and damping
                                                                         # Numbers of thermostats in chain and in barostat
run 10000          # run for 10000 steps
Per MPI rank memory allocation (min/avg/max) = 3.642 | 3.644 | 3.648 Mbytes
Step Temp E_pair E_mol TotEng Press Volume 
       0          2.4   -3.2438273            0   0.35527274   -2.6679874         4000 
    1000    2.4225445   -2.3152958            0    1.3176124    5.7615502    3984.6224 
    2000    2.4262276   -2.3470676            0     1.291364    5.7210158    3963.7766 
    3000    2.5011283   -2.3129238            0    1.4378306    5.8572648    3968.4249 
    4000    2.4032285   -2.3322226            0    1.2717189    5.5197751    3989.2646 
    5000    2.3695819   -2.3349764            0    1.2185079    5.8858833    3923.1375 
    6000     2.404285   -2.3346933            0    1.2708326     5.568159    3999.0301 
    7000    2.4513336   -2.3037721            0     1.372309    5.7510721    3988.2503 
    8000    2.3830227   -2.3140833            0    1.2595571    5.5687553    4000.3482 
    9000     2.420962   -2.3087928            0    1.3217423    5.7929861    3970.7643 
   10000    2.4001317   -2.3001973            0    1.2991002    5.6963727     4013.777 
Loop time of 2.58952 on 48 procs for 10000 steps with 4000 atoms

Performance: 667305.379 tau/day, 3861.721 timesteps/s
99.6% CPU use with 48 MPI tasks x no OpenMP threads

MPI task timing breakdown:
Section |  min time  |  avg time  |  max time  |%varavg| %total
---------------------------------------------------------------
Pair    | 1.1098     | 1.1701     | 1.3965     |   4.2 | 45.19
Neigh   | 0.20821    | 0.21699    | 0.25253    |   1.4 |  8.38
Comm    | 0.7286     | 0.90753    | 1.0348     |   6.9 | 35.05
Output  | 0.00024914 | 0.00025347 | 0.00032362 |   0.0 |  0.01
Modify  | 0.19614    | 0.27925    | 0.36968    |  11.6 | 10.78
Other   |            | 0.01536    |            |       |  0.59

Nlocal:        83.3333 ave          98 max          70 min
Histogram: 2 1 3 13 6 11 6 5 0 1
Nghost:        1645.42 ave        1700 max        1586 min
Histogram: 1 1 0 13 7 12 4 6 3 1
Neighs:        9515.54 ave       11982 max        7561 min
Histogram: 2 2 7 10 8 7 7 4 0 1

Total # of neighbors = 456746
Ave neighs/atom = 114.18650
Neighbor list builds = 906
Dangerous builds = 204

# Equilibrate just above the melting temperature to avoid step fn in T

fix 1 all npt temp 1.25 1.25 0.1 iso 5.68 5.68 0.5 mtk yes tchain 5 pchain 5
run 2000
Per MPI rank memory allocation (min/avg/max) = 3.643 | 3.645 | 3.649 Mbytes
Step Temp E_pair E_mol TotEng Press Volume 
   10000    2.4001317   -2.3001973            0    1.2991002    5.6963727     4013.777 
   11000    1.2700203   -3.4567238            0   -1.5521697    5.3870312    3105.5229 
   12000    1.2496321    -3.450049            0   -1.5760695    5.8789539    3070.5601 
Loop time of 0.618714 on 48 procs for 2000 steps with 4000 atoms

Performance: 558577.765 tau/day, 3232.510 timesteps/s
99.7% CPU use with 48 MPI tasks x no OpenMP threads

MPI task timing breakdown:
Section |  min time  |  avg time  |  max time  |%varavg| %total
---------------------------------------------------------------
Pair    | 0.26875    | 0.29803    | 0.3304     |   2.7 | 48.17
Neigh   | 0.039047   | 0.042316   | 0.047714   |   0.8 |  6.84
Comm    | 0.19135    | 0.22784    | 0.26118    |   3.5 | 36.82
Output  | 5.3878e-05 | 5.7134e-05 | 0.0001716  |   0.0 |  0.01
Modify  | 0.040664   | 0.04563    | 0.05044    |   1.4 |  7.37
Other   |            | 0.004844   |            |       |  0.78

Nlocal:        83.3333 ave          92 max          76 min
Histogram: 3 5 6 10 3 6 6 3 4 2
Nghost:        1958.88 ave        1987 max        1938 min
Histogram: 2 7 7 7 5 10 6 0 3 1
Neighs:        12433.4 ave       14272 max       10912 min
Histogram: 5 2 3 10 8 9 5 3 1 2

Total # of neighbors = 596802
Ave neighs/atom = 149.20050
Neighbor list builds = 144
Dangerous builds = 8

#############################
# L I N E A R  Q U E N C H  #
#############################

# Define solid atoms. This closely follows ten Wolde  Ruiz-Montero and Frenkel  Faraday Discuss  1996  104  93-110
# Compute components of the per-atom q6 vector
compute q6 all orientorder/atom degrees 1 6 components 6 nnn NULL cutoff 1.3 # compute the Q6 parameter.
                                                                             # Use all neighbours within 1.3 unit cell.

# get number of connections
compute coord_number all coord/atom orientorder q6 0.5

# An atom is solid if it has 8 or more connections (of a possible 14)
variable is_solid atom c_coord_number>=8
group solid dynamic all var is_solid    # Must be dynamic to update
dynamic group solid defined

# do clustering
compute cluster solid cluster/atom 1.3 # Create a cluster where all atoms within are solid and max 1.3 units from another member

# define chunks one chunk per cluster
compute clus_chunks solid chunk/atom c_cluster nchunk every compress yes  # Says which atoms are in which chunk

# count the size of each chunk
compute size_chunks solid property/chunk clus_chunks count


# Find the maximum entry in the vector of chunk sizes
variable max_n equal max(c_size_chunks)


# Thermo style which includes this variable
# thermo_style custom step temp pe vol v_max_n

thermo ${N}  # Print the thermo information every 100 steps
thermo 1000  

# Reset the npt fix at a lower temperature (below freezing)
fix 1  all npt temp  ${temp} ${temp}  0.1  iso  5.68  5.68  0.5  mtk yes tchain  5  pchain  5
fix 1  all npt temp  0.45 ${temp}  0.1  iso  5.68  5.68  0.5  mtk yes tchain  5  pchain  5
fix 1  all npt temp  0.45 0.45  0.1  iso  5.68  5.68  0.5  mtk yes tchain  5  pchain  5

dump dmp2 all dcd ${N} traj.dcd
dump dmp2 all dcd 1000 traj.dcd


compute msd all msd com yes
variable twopoint equal c_msd[4]/6/(step*dt+1.0e-6)
fix 9 all vector 10 c_msd[4]
variable fit equal slope(f_9)/6/(10*dt)
thermo_style custom step temp pe c_msd[4] v_twopoint v_fit v_max_n

fix 1 all npt temp 1.25 ${temp} 0.1 iso 5.68 5.68 0.5 mtk yes tchain 5 pchain 5
fix 1 all npt temp 1.25 0.45 0.1 iso 5.68 5.68 0.5 mtk yes tchain 5 pchain 5
run 2000000 # 5000000  # Run for this many steps
Neighbor list info ...
  update every 1 steps, delay 10 steps, check yes
  max neighbors/atom: 2000, page size: 100000
  master list distance cutoff = 3.8
  ghost atom cutoff = 3.8
  binsize = 1.9, bins = 8 8 8
  4 neighbor lists, perpetual/occasional/extra = 1 3 0
  (1) pair lj/cut, perpetual
      attributes: half, newton on
      pair build: half/bin/atomonly/newton
      stencil: half/bin/3d
      bin: standard
  (2) compute orientorder/atom, occasional
      attributes: full, newton on
      pair build: full/bin/atomonly
      stencil: full/bin/3d
      bin: standard
  (3) compute coord/atom, occasional
      attributes: full, newton on
      pair build: full/bin/atomonly
      stencil: full/bin/3d
      bin: standard
  (4) compute cluster/atom, occasional
      attributes: full, newton on
      pair build: full/bin/atomonly
      stencil: full/bin/3d
      bin: standard
Per MPI rank memory allocation (min/avg/max) = 9.825 | 9.830 | 9.834 Mbytes
Step Temp PotEng c_msd[4] v_twopoint v_fit v_max_n 
   12000    1.2496321    -3.450049 1.1282683e-30 7.8351963e-33 8.3333333e+20            2 
   13000    1.2464154   -3.4829753   0.94873839 0.0060816561  0.080369601            3 
   14000    1.2509624   -3.4800223    1.9677065  0.011712539  0.081958514            2 
   15000    1.2458328   -3.4306035    3.1037633  0.017243129  0.086131753            1 
   16000    1.2539533   -3.5142499      4.27389  0.022259843  0.089893859            2 
   17000    1.2385676   -3.4611848    5.2617988  0.025793131  0.090778102            5 
   18000     1.246299   -3.4291666    6.2740333   0.02904645  0.089703628            2 
   19000     1.251755   -3.4290781    7.3526157  0.032248314  0.088864978            2 
   20000    1.2163815   -3.4999761    8.3261294  0.034692205  0.088610494            3 
   21000    1.2434737   -3.4477581    9.4741251  0.037595734  0.088335352       -1e+20 
   22000    1.2399562   -3.4683724     10.65705  0.040367612  0.088700761            5 
   23000    1.2676213   -3.4406308    11.855585  0.042955016   0.08931611            2 
   24000    1.2263475   -3.5013819    12.864871  0.044669691  0.089621631            3 
   25000     1.282007    -3.476824    13.763718  0.045879061  0.089810978            2 
   26000    1.2389506   -3.4615451    14.740176  0.047244153  0.089551022            2 
   27000    1.2484883   -3.4528243    15.970594  0.049291956   0.08932878            2 
   28000    1.2269076   -3.5165689    16.763344  0.049890905  0.089086445            1 
   29000    1.2448127   -3.4623085    17.808569  0.051174049  0.088759546            1 
   30000    1.2212295   -3.4432542    18.872744  0.052424289  0.088500376            1 
   31000    1.2764238   -3.4476281    19.982721   0.05371699   0.08835261            1 
   32000    1.2639956   -3.5144865    20.839597  0.054269784   0.08814605            3 
   33000    1.2230204   -3.4610988    22.027106  0.055624005  0.087905982            3 
   34000    1.2711424   -3.4494433    22.909739  0.056151321  0.087717194            1 
   35000     1.231307    -3.468042    24.074215  0.057319558  0.087543308            1 
   36000    1.2482809   -3.4745163    25.027569  0.057934186  0.087414388            1 
   37000    1.2260112   -3.4379609    26.259428  0.059142856  0.087314319            2 
   38000    1.2319655   -3.4551916    27.300846  0.059870275  0.087226696            2 
   39000    1.2274887   -3.4792347    28.199327   0.06025497  0.087235949            1 
   40000    1.2256931   -3.4329897    29.393867  0.061237221  0.087202922            4 
   41000    1.2680728   -3.4634357     29.98781  0.060950833  0.087098552            1 
   42000    1.2383956   -3.4883172    31.077946   0.06166259  0.086927953            1 
   43000    1.2532498   -3.4824896    32.126634  0.062260917    0.0867657            2 
   44000    1.2309679   -3.5093255    33.046147    0.0625874  0.086572871            1 
   45000    1.2509431   -3.4602401    34.173191  0.063283686  0.086440711            1 
   46000      1.22566   -3.4494947    35.143839  0.063666375   0.08634606            1 
   47000    1.2507996   -3.4914974      36.1719  0.064134574  0.086256256            3 
   48000    1.2509489   -3.4594648    37.514533  0.065129396  0.086224262            4 
   49000    1.2253704   -3.4474345    38.639155  0.065712848  0.086248585            3 
   50000    1.2174831   -3.4823386    39.657162  0.066095269    0.0863054            1 
   51000    1.2498742   -3.4805819    40.504313  0.066183518  0.086333556            1 
   52000    1.2256173   -3.4704456    41.748266  0.066904272  0.086350881            2 
   53000    1.2045493   -3.4769704    42.816176   0.06732103   0.08639134            1 
   54000     1.229592   -3.4939379    43.648431  0.067358689  0.086407818            2 
   55000    1.2319751    -3.499679    44.993279  0.068171634  0.086420027            2 
   56000    1.2607983   -3.4914488    45.979053   0.06842121  0.086447804            2 
   57000    1.2433053   -3.4548436    46.618233  0.068155311  0.086451729            1 
   58000     1.216208   -3.4885841    47.639093  0.068446972  0.086422891            1 
   59000    1.2657587   -3.4400295    48.526978  0.068540929  0.086347841            1 
   60000    1.2327954   -3.4896822    49.484604  0.068728616  0.086290512            2 
   61000    1.2249894   -3.4368854    50.644189   0.06918605  0.086216193            3 
   62000    1.2239247   -3.4779429    51.522663   0.06925089  0.086143702            4 
   63000    1.2163826   -3.4849785    52.392271  0.069301945   0.08605034            1 
   64000    1.1994524   -3.4818972    53.077055  0.069110749  0.085932766            3 
   65000    1.2134256   -3.5168646     54.01794  0.069253769  0.085797133            2 
   66000       1.2256   -3.5181235    54.896918   0.06931429    0.0856491            2 
   67000     1.238434   -3.5100776    55.880087  0.069502595  0.085491588            4 
   68000    1.2646968   -3.4815098    57.080597  0.069951712  0.085375023            2 
   69000    1.2249669   -3.4995016    58.345018  0.070464997   0.08528264            2 
   70000    1.1894732    -3.506982    59.208905  0.070486792  0.085205685            2 
   71000    1.2305534    -3.489876    60.157957  0.070607931  0.085125036            2 
   72000    1.2598416   -3.5126402    61.162552   0.07078999  0.085058275            1 
   73000    1.2202775   -3.4633923    62.353751  0.071180081  0.084980439            2 
   74000    1.2127051   -3.4790325    63.573637  0.071591933  0.084928361            2 
   75000    1.2193587    -3.509128    64.903281  0.072114757  0.084918791            1 
   76000     1.251573   -3.5111173    65.713696  0.072054491  0.084907606            3 
   77000    1.2121618   -3.4973826    66.436065  0.071900502  0.084890464            1 
   78000    1.2362287   -3.4761899    67.267325    0.0718668   0.08488644            2 
   79000    1.2374435   -3.4734229    68.804877  0.072578984  0.084846085            1 
   80000    1.2078181   -3.5029496    69.193773  0.072076847  0.084806429            2 
   81000    1.2364626   -3.5195728    70.696059  0.072732571  0.084766551            2 
   82000    1.2183159   -3.5217753    71.235716   0.07239402  0.084747662            4 
   83000    1.2140832   -3.5477022    72.452839  0.072743814  0.084737776            1 
   84000     1.210105   -3.5032909    73.586134  0.073002116  0.084725591            3 
   85000     1.201033   -3.5238617    74.893832  0.073425325  0.084739975            3 
   86000    1.2131747   -3.4853441    75.696731  0.073349546  0.084739564            1 
   87000    1.2026306   -3.5102106    76.624431  0.073395048  0.084717963            1 
   88000    1.2065197   -3.5085961    77.399069  0.073294573  0.084685764            1 
   89000    1.1986708   -3.5194416    78.056698  0.073086796  0.084644342            1 
   90000    1.2313659   -3.4939247    79.052463  0.073196724  0.084590354            2 
   91000      1.20667   -3.5041366     79.60481  0.072898177    0.0845354            5 
   92000    1.2260829   -3.4982051    80.767534  0.073158997  0.084466127            1 
   93000    1.2423427   -3.4863713    81.732792  0.073237268  0.084405065            3 
   94000    1.2205596   -3.5038519    82.552972  0.073185259  0.084357112            2 
   95000    1.2168364   -3.5063907    83.963516  0.073652207  0.084297428            2 
   96000    1.2430918    -3.494275    85.640674  0.074340862  0.084267632            1 
   97000    1.1866827   -3.5212105    86.165653  0.074025474  0.084246009            1 
   98000      1.17104   -3.4998094    87.133468  0.074093085  0.084222458            4 
   99000    1.2083514   -3.5209348     88.48596  0.074483131  0.084208188            2 
  100000    1.1929839   -3.4875492    89.951515  0.074959596  0.084212176            5 
  101000    1.2110049    -3.484971    90.897651  0.074998062  0.084210863            1 
  102000     1.221911   -3.5050848    91.316232  0.074604764  0.084205294            2 
  103000    1.1812888   -3.5266513    92.450953  0.074798505  0.084200766            4 
  104000    1.2174051   -3.5326032    93.681121     0.075065  0.084191249            1 
  105000    1.2258704   -3.5306735    94.595733  0.075075978  0.084192694            2 
  106000    1.2395334   -3.5471007    95.495577  0.075075139  0.084193292            3 
  107000    1.2063401   -3.4874148    96.627675  0.075255198  0.084204226            1 
  108000    1.1922978   -3.4891199    97.945244  0.075575034   0.08419751            1 
  109000    1.2292212   -3.5064304    98.394467  0.075225127  0.084188125            1 
  110000    1.2148452   -3.5183916    99.258456    0.0751958  0.084168995            1 
  111000    1.1937662   -3.5273552     99.98965  0.075067305  0.084143431            2 
  112000    1.2265408   -3.5035888    101.01972   0.07516348  0.084111138            3 
  113000    1.1794492   -3.5035921    101.87124  0.075126283  0.084077633            4 
  114000    1.2158465   -3.4815289    103.87363  0.075931016  0.084067377            2 
  115000    1.2135659   -3.5148862    104.29955  0.075579386  0.084061703            1 
  116000    1.2269279   -3.5262116     105.2962  0.075643822  0.084059663            1 
  117000    1.1815235   -3.5120962    106.57554  0.075908507  0.084060726            2 
  118000    1.1925213   -3.5401488    107.22143   0.07572135  0.084050377            1 
  119000    1.2000462   -3.5238308    108.41087  0.075917976  0.084032137            2 
  120000    1.2032542    -3.531382    109.52746  0.076060734  0.084012306            1 
  121000    1.1873187    -3.458045    110.26151  0.075937679  0.083988871            1 
  122000    1.2250209   -3.4768176    110.80344  0.075685411  0.083968052            2 
  123000    1.2183648   -3.5007204    112.20834  0.076021913  0.083941974            5 
  124000    1.1910644   -3.5065522    112.64816  0.075704407  0.083910249            2 
  125000    1.2105648   -3.5070844    113.41322  0.075608812  0.083880476            3 
  126000    1.1802204   -3.5522922    115.22609  0.076207729  0.083855316            2 
  127000    1.2065815   -3.5299411    115.92137  0.076063891  0.083837613            2 
  128000    1.2020313    -3.534311    116.83849  0.076066724   0.08382316            3 
  129000    1.2263563   -3.5357452    118.01727  0.076238545  0.083805851            2 
  130000    1.1908289   -3.5000776    118.81659   0.07616448  0.083775835            2 
  131000    1.1972417   -3.4905621    119.56223  0.076057398  0.083738538            3 
  132000    1.2015987     -3.50279    119.99775  0.075756152  0.083687793            1 
  133000    1.2116561   -3.5262621    121.62345  0.076205171  0.083645007            1 
  134000    1.1951114   -3.5207925    121.98275   0.07585992  0.083605225            2 
  135000    1.2153454   -3.5174354    122.78875  0.075795525   0.08357041            2 
  136000     1.219029   -3.5438044    123.79347  0.075853843  0.083528189            2 
  137000    1.2016449   -3.5172732    124.63786  0.075813785  0.083490853            1 
  138000    1.1939043   -3.5431415    126.23073  0.076226287  0.083459122            2 
  139000    1.1783179   -3.5317157    127.45399  0.076411263  0.083428082            2 
  140000    1.1975966   -3.4946213    129.23927  0.076928136  0.083404856            2 
  141000    1.1991179   -3.5097058    129.29098  0.076413108  0.083395135            3 
  142000     1.213354   -3.5401236    130.54655  0.076611822  0.083384999            3 
  143000    1.1895312    -3.519457    131.69011  0.076742485  0.083378223            1 
  144000    1.1872365   -3.5349928     132.5665  0.076716725  0.083371487            2 
  145000    1.2128094   -3.5015594    133.70038  0.076839297  0.083360689            1 
  146000    1.2096742   -3.5265392    135.05474  0.077086039  0.083350216            3 
  147000    1.1925247   -3.5429663    134.92306  0.076486993  0.083333404            3 
  148000    1.1993191   -3.5440329    136.42986  0.076818612  0.083323964            1 
  149000    1.1987456   -3.5455964    137.92367   0.07713852  0.083311131            2 
  150000    1.1910247   -3.5178858    138.76299  0.077090551  0.083294278            1 
  151000    1.1700404   -3.5276958    138.95432  0.076685607  0.083270319            4 
  152000    1.2211549    -3.542142    140.37591  0.076960479  0.083248987            3 
  153000    1.1815937   -3.5798217     140.6617  0.076613125  0.083229571            3 
  154000     1.202012   -3.5216404    142.84477  0.077296951  0.083215478            1 
  155000    1.1945865    -3.564378    143.61432  0.077211998  0.083205101            4 
  156000    1.1953359   -3.5425767    144.73132  0.077313741  0.083194717            2 
  157000    1.1731746   -3.5322817    145.45715  0.077206554  0.083182093            6 
  158000    1.1680938   -3.5500622    146.17758  0.077097882  0.083161597            2 
  159000    1.2030475   -3.5305124    146.71502  0.076894664  0.083133484            4 
  160000    1.1969492   -3.5284634    148.60241  0.077397088  0.083110319            2 
  161000    1.1956855   -3.4849079    149.02918  0.077137257  0.083088371            3 
  162000    1.1822904   -3.5574917    149.15058  0.076723549  0.083060895            2 
  163000    1.1980287   -3.5598462    149.76731  0.076568156  0.083022677            2 
  164000    1.2106268   -3.5438224    150.60975  0.076529344  0.082980907            2 
  165000    1.1855367   -3.5715073    150.66768  0.076094788  0.082937109            2 
  166000    1.1839501   -3.5170574    151.96846  0.076289387  0.082891836            3 
  167000    1.1682728   -3.5373241    153.98649  0.076839567  0.082848961            4 
  168000    1.1913761   -3.5316454    154.27843     0.076527  0.082808662            2 
  169000    1.1785769   -3.5600486    155.64256  0.076746825   0.08276509            3 
  170000    1.1692917   -3.5109411    156.77451  0.076850248   0.08272388            7 
  171000    1.1629224   -3.5447218    157.15918  0.076588294  0.082681123            4 
  172000    1.1632499    -3.544874    158.49946  0.076792376  0.082641892            3 
  173000    1.1880862   -3.5406305    159.33679  0.076751823  0.082605016            3 
  174000    1.1722133   -3.5402292    160.18224  0.076715634  0.082569809            1 
  175000    1.2171813   -3.5375465    160.35154  0.076357875  0.082529086            2 
  176000    1.1706202   -3.5507881    161.29005  0.076368396  0.082484164            2 
  177000    1.1786303     -3.55877    163.22623  0.076848509   0.08244695            2 
  178000    1.1804077   -3.5751537    163.67995  0.076629189  0.082414332            1 
  179000    1.1836183    -3.577688    165.21215  0.076914411  0.082382545            3 
  180000    1.1820353   -3.5416462    166.33241  0.077005744  0.082355667            2 
  181000    1.1748461   -3.5429899    167.27086  0.077012364  0.082331614            3 
  182000     1.189509   -3.5401733    169.06688  0.077411573  0.082313277            1 
  183000    1.1446395   -3.5489727    169.96365  0.077396925  0.082296703            2 
  184000    1.1932662   -3.5373737    170.49405  0.077216507  0.082284691            2 
  185000    1.1786369   -3.5924361    171.80852  0.077391225   0.08226698            2 
  186000    1.1644552   -3.5661333    173.02199  0.077518813  0.082250295            2 
  187000    1.1651397   -3.5495294    174.39726   0.07771714  0.082238557            4 
  188000    1.1931171   -3.5776824    175.07019  0.077602035  0.082234979            1 
  189000    1.1717718   -3.5582936    177.01677  0.078049722  0.082233109            4 
  190000    1.2044719   -3.5822822    177.19562  0.077717379  0.082232669            1 
  191000    1.1782933   -3.5695722    178.27672  0.077782165  0.082231442            3 
  192000    1.1644177   -3.5852587    178.30634  0.077389905  0.082229395            1 
  193000    1.1691441   -3.5548973    179.91178  0.077682116  0.082231171            3 
  194000    1.1770325   -3.5384863    181.41596  0.077927817  0.082233188            3 
  195000    1.1761034   -3.5614055    183.27349  0.078322005  0.082234501            1 
  196000    1.1765552   -3.5333858    183.76598  0.078131793   0.08223795            1 
  197000    1.1824741   -3.5393784     184.3965  0.078001902  0.082236762            1 
  198000    1.1552789   -3.5503432    185.38536  0.078024143  0.082232831            1 
  199000    1.1969998   -3.5630932     186.0061     0.077892  0.082231484            1 
  200000    1.1830556   -3.5746444    187.85125  0.078271352    0.0822253            1 
  201000    1.1603168   -3.5817713    188.69788   0.07823295  0.082225555            1 
  202000     1.206846   -3.5650538    188.95548  0.077951932  0.082222818            1 
  203000    1.1847043     -3.54149    189.69301  0.077870692  0.082222397            2 
  204000    1.1603876   -3.5556462    190.92958  0.077994108  0.082221252            1 
  205000    1.1708003   -3.5175837    192.15683  0.078112533  0.082218979            3 
  206000     1.178374   -3.5763609    191.08772  0.077300855   0.08220731            2 
  207000    1.1745479   -3.5488071    192.93168  0.077669757  0.082192295            2 
  208000    1.1811274   -3.5518506    194.35886  0.077868134  0.082178093            2 
  209000    1.1719243   -3.5469958    194.88052  0.077703555  0.082167658            1 
  210000    1.2026948   -3.5598351    196.29176  0.077893555  0.082161103            3 
  211000    1.1586388   -3.5643267    196.74686   0.07770413  0.082148973            2 
  212000     1.156585   -3.5895418    197.88011  0.077783062  0.082129534            2 
  213000    1.2119776   -3.5698277    199.19254  0.077931352  0.082118211            2 
  214000    1.1423449   -3.5861151    200.57161   0.07810421  0.082107508            4 
  215000    1.1743543   -3.5852893    200.97976  0.077899133  0.082097455            1 
  216000    1.1698441   -3.5565608    203.90979  0.078668899  0.082094623            2 
  217000    1.1575718   -3.6040158    203.88314  0.078296136  0.082089354            1 
  218000    1.1689538    -3.599258    204.37768  0.078126024   0.08208348            2 
  219000    1.1508599   -3.5808957    204.91287  0.077972935  0.082075421            2 
  220000    1.1818277   -3.5792304    206.44354  0.078198312  0.082066304            3 
  221000    1.1391405   -3.5558714    207.04461  0.078071121  0.082063504            2 
  222000    1.1549981   -3.5723741    207.95799  0.078062307  0.082057615            2 
  223000    1.1558925   -3.5900657    209.47811   0.07828031   0.08205241            2 
  224000    1.1877005   -3.5695904     209.1945  0.077825336  0.082042592            4 
  225000    1.1609881   -3.5706004     210.5532  0.077982668  0.082033677            2 
  226000    1.1625697   -3.6122576    210.30376  0.077545633  0.082020965            2 
  227000    1.1500721   -3.5358216     212.2394  0.077914611   0.08200472            2 
  228000    1.1553386   -3.5602925    213.15619  0.077907964  0.081990298            1 
  229000    1.1749126   -3.5813339    214.05471  0.077894727  0.081973345            4 
  230000    1.1671735   -3.5692626    214.50339  0.077718619  0.081958095            4 
  231000    1.1579604   -3.6013258    215.56999  0.077766953  0.081939286            1 
  232000    1.1596762   -3.5911928    216.62129  0.077809372  0.081917676            3 
  233000    1.1799514   -3.5539453    217.42181  0.077761735  0.081895699            2 
  234000    1.1608788   -3.5729237    218.72953  0.077895132  0.081877452            2 
  235000     1.162183   -3.5744443    219.23139  0.077741628  0.081858267            1 
  236000    1.1635498   -3.5632177     219.7519  0.077596009  0.081839833            2 
  237000    1.1359388   -3.6205967    220.50588  0.077533712   0.08181914            5 
  238000    1.1776454    -3.578302    221.27314  0.077476589  0.081793347            3 
  239000    1.1751633   -3.5858872    220.98908  0.077053375  0.081765571            9 
  240000    1.1593195   -3.6066589    222.38861  0.077218266  0.081737649            1 
  241000    1.1801838   -3.5802168    223.96083  0.077441504  0.081705981            1 
  242000    1.1706237   -3.5889169     223.9479  0.077117047  0.081676557            2 
  243000    1.1477374   -3.5851366    225.32605  0.077272308  0.081643917            4 
  244000     1.168305    -3.614864    226.56072  0.077377294  0.081609008            1 
  245000    1.1814872   -3.5575437    228.54747  0.077737233   0.08157859            1 
  246000     1.153545   -3.5809745    227.72141  0.077141399  0.081551055            1 
  247000    1.1409903   -3.5891186    229.01374  0.077265095  0.081521923            2 
  248000    1.1727005   -3.5919095    230.12638  0.077327413  0.081494652            2 
  249000    1.1862072   -3.6110407    230.59831  0.077174802  0.081468723            3 
  250000     1.150982   -3.5897691    232.33328  0.077444425  0.081442329            2 
  251000    1.1638712   -3.5924409    232.17523  0.077083408  0.081416485            2 
  252000    1.1477596   -3.5643265    234.64937   0.07759569  0.081386844            3 
  253000    1.1698423   -3.5623672    234.15063  0.077124714  0.081358779            1 
  254000    1.1781259   -3.5938187    234.96745  0.077089058  0.081328014            3 
  255000    1.1411494   -3.6093095    235.35497  0.076913388  0.081291486            1 
  256000    1.1339668   -3.5694888    235.56483   0.07668126  0.081253986            1 
  257000    1.1481868   -3.5818256    238.22562  0.077245662  0.081222174            4 
  258000    1.1459763   -3.5947029     239.9041  0.077488405  0.081192317            1 
  259000    1.1673149   -3.5746139    239.14407  0.076944682  0.081158073            3 
  260000    1.1640948    -3.581463    240.15917  0.076974093  0.081122233            3 
  261000    1.1363835   -3.6314018    240.02519  0.076636397  0.081089678            3 
  262000    1.1725457   -3.5978158    241.85343  0.076925393  0.081054674            3 
  263000    1.1421122   -3.5919985    243.03507  0.077007309  0.081021012            1 
  264000     1.157989   -3.5782327    243.33354  0.076809829  0.080985449            2 
  265000    1.1229315   -3.5586022    244.56439   0.07690704  0.080951937            1 
  266000    1.1312041   -3.6029017    244.45709  0.076584303  0.080915761            2 
  267000     1.173162   -3.6108357     245.0894  0.076494817  0.080875477            1 
  268000    1.1292606   -3.6133643    246.15552  0.076540896  0.080833434            2 
  269000    1.1557682   -3.5787178    247.41678  0.076647081  0.080794809            3 
  270000    1.1284346    -3.615709    247.88282  0.076507042  0.080753212            2 
  271000     1.152529   -3.6036519    247.76859  0.076189602  0.080708517            5 
  272000    1.1558906   -3.6041653     248.3006  0.076072488  0.080663415            1 
  273000    1.1626529   -3.6163823    249.11643  0.076042865  0.080618425            2 
  274000    1.1333993    -3.590404    250.61323  0.076220568  0.080574824            1 
  275000     1.142634   -3.5948419    251.19731  0.076120397  0.080532032            4 
  276000    1.1189657   -3.5813556    253.09925  0.076418857  0.080490758            2 
  277000    1.1610503   -3.6257903    253.11525   0.07614779   0.08044238            5 
  278000    1.1453406   -3.5736103    254.39464  0.076257385  0.080394809            2 
  279000    1.1713274   -3.6079643    254.68273   0.07607011   0.08034787            4 
  280000    1.1095383   -3.6054709    254.93896   0.07587469  0.080299994            2 
  281000     1.116165   -3.6063792    254.97802  0.075616256  0.080251954            2 
  282000    1.1636344   -3.5608624    257.68982  0.076149475  0.080202248            2 
  283000    1.1566589   -3.6096561    256.96618  0.075667307  0.080152117            1 
  284000    1.0984013    -3.599456    258.02993  0.075713007  0.080102873            3 
  285000    1.1488222   -3.6155757    258.16752  0.075487579  0.080052338            2 
  286000    1.1333418   -3.6290572     258.8201  0.075413783  0.079999139            2 
  287000    1.1586931   -3.6360974    259.91084  0.075467725  0.079946321            3 
  288000    1.1572599   -3.6146419    260.12168  0.075266689  0.079893248            4 
  289000    1.1438624   -3.6279493    261.33591  0.075356375  0.079838361            1 
  290000    1.1588849   -3.6184878    262.01953  0.075292968  0.079784898            3 
  291000    1.1514045   -3.6079774    263.06138  0.075332584  0.079732817            2 
  292000    1.1810252   -3.6339607    264.33747  0.075438775  0.079683354            4 
  293000    1.1491344   -3.6292901    264.69836  0.075283948  0.079631953            2 
  294000    1.1659976   -3.6139525     266.5282  0.075546542  0.079582702            2 
  295000    1.1281063   -3.6433815    266.38936  0.075251231  0.079536315            3 
  296000    1.1460003   -3.6320024    267.42014  0.075287202  0.079489177            2 
  297000    1.1537822    -3.631825    268.00243  0.075197089  0.079438456            3 
  298000    1.1326204   -3.6369084    269.00173  0.075224196  0.079393508            5 
  299000    1.1423267    -3.611162    270.16114  0.075295747  0.079346405            1 
  300000    1.1462294   -3.6061435    271.53383  0.075426063  0.079301217            1 
  301000    1.1232629   -3.6243774    272.22237  0.075366104   0.07925829            3 
  302000    1.1441048   -3.6248559    272.74015  0.075259424  0.079214915            5 
  303000    1.1010674   -3.5934553    274.97201  0.075624866  0.079174033            2 
  304000    1.1308058   -3.5856075    276.06068  0.075674528  0.079134415            1 
  305000    1.1086268   -3.6083588    277.51456  0.075823651   0.07909298            2 
  306000    1.1398494   -3.6335667    277.09575  0.075461806  0.079051773            2 
  307000    1.1358933   -3.6482596    278.05721  0.075476985  0.079010168            5 
  308000    1.1004763   -3.6078548     279.9265   0.07573769  0.078971158            2 
  309000    1.1365255   -3.6189309    278.90988  0.075218413  0.078929719            2 
  310000    1.1426648   -3.5998951    280.36025  0.075365659  0.078890012            2 
  311000    1.1128412   -3.6186164     282.5358  0.075706269  0.078851981            1 
  312000     1.145185   -3.6209115    281.36855  0.075151855  0.078814078            2 
  313000    1.1631162   -3.6133757    283.53317  0.075488064  0.078777343            2 
  314000    1.1452021   -3.6166057    284.32346  0.075457394  0.078741085            1 
  315000    1.1129826   -3.6135978    285.29722  0.075475456  0.078707731            5 
  316000    1.1304036   -3.6524203    285.43462  0.075272844  0.078672419            2 
  317000    1.1171163   -3.6157772    285.73069  0.075113219  0.078637204            3 
  318000    1.1141091    -3.627272    286.58962  0.075102103  0.078598817            4 
  319000    1.1015136   -3.5814597    289.15457  0.075536721  0.078562675            2 
  320000    1.1140162   -3.6089272    290.74999  0.075716142    0.0785292            3 
  321000    1.0933771   -3.6113161    292.63368  0.075969283  0.078496641            2 
  322000      1.14521   -3.6619085    291.33942  0.075398399  0.078466949            2 
  323000    1.1377926   -3.6496544    291.11224  0.075106358  0.078435527            3 
  324000    1.1274174   -3.6372538    292.49198  0.075229418  0.078401492            3 
  325000    1.1199613   -3.5820765    293.24399  0.075190767  0.078367802            2 
  326000    1.0895597   -3.6332919    293.37324  0.074993159  0.078333283            4 
  327000    1.1108887   -3.6260573    296.56902  0.075578241  0.078298227            2 
  328000    1.1213887   -3.6338146    297.29099  0.075531246  0.078266255            2 
  329000    1.1190757    -3.618897    297.66198  0.075395637  0.078236865            4 
  330000     1.106066   -3.6422638    298.64686  0.075415874  0.078206934            2 
  331000    1.1187315   -3.6158215    299.88884  0.075500714  0.078178134            3 
  332000    1.1064608   -3.6719948      299.353  0.075138806   0.07815097            2 
  333000    1.1308691   -3.6666635    302.69863  0.075750407  0.078123557            1 
  334000    1.1252339   -3.6191713    302.38144  0.075444471  0.078097113            3 
  335000    1.1285713   -3.6473632    302.91197  0.075351237  0.078068695            4 
  336000    1.1350814   -3.6640197    302.78222  0.075094797  0.078041074            2 
  337000    1.1211287   -3.6085098    305.42974  0.075526643  0.078014834            1 
  338000    1.1469785   -3.6305337    305.09878  0.075221594  0.077987172            3 
  339000    1.1288423    -3.642547    306.41813  0.075324025  0.077956934            2 
  340000    1.1238264   -3.6594663    306.44781  0.075109756  0.077926823            1 
  341000    1.0911589   -3.6483115    308.28693  0.075338936  0.077897429            2 
  342000    1.1404535   -3.6616584    308.05783  0.075062825  0.077864398            5 
  343000    1.1193478    -3.608611    308.83018  0.075031629  0.077829328            1 
  344000    1.1099642   -3.6253104     308.6996   0.07478188  0.077795879            2 
  345000    1.1408354   -3.6609204    310.11011  0.074905823  0.077762499            1 
  346000    1.1213879    -3.652077    310.72808   0.07483817  0.077729963            1 
  347000    1.1217169   -3.6406327    312.65468  0.075085178  0.077697266            2 
  348000    1.1152891    -3.632748    313.33799  0.075033043  0.077666256            3 
  349000    1.1045338   -3.6803549    312.04073  0.074508292  0.077633684            5 
  350000    1.1252117   -3.6374411     313.6389  0.074675929  0.077599285            2 
  351000    1.0957769   -3.6296023    315.53386  0.074913072  0.077567331            1 
  352000    1.1065133   -3.6482809    315.74653  0.074750599  0.077535554            2 
  353000    1.1069336   -3.6588362    315.40189  0.074457481  0.077501005            3 
  354000    1.1047166   -3.6174131     317.1076  0.074648681  0.077466006            5 
  355000    1.1062678   -3.6419788    318.20645  0.074696351  0.077432774            3 
  356000    1.1187112    -3.598334    318.67922  0.074597196  0.077399087            5 
  357000     1.104141    -3.629134    319.99063  0.074694359  0.077365486            3 
  358000    1.1256528   -3.6325751    320.98069  0.074716175  0.077333491            2 
  359000    1.1240244    -3.680298    321.32255  0.074587406  0.077300839            2 
  360000    1.1144706   -3.6510043    321.88313  0.074509985  0.077266984            1 
  361000    1.1183588   -3.6725695    323.19682  0.074606837  0.077233203            2 
  362000    1.1385486   -3.6444717    323.25996  0.074415276  0.077202951            5 
  363000    1.1150896   -3.6548659     324.0054  0.074381405  0.077172117            5 
  364000    1.1342577   -3.6428915    326.07208  0.074650202  0.077140189            5 
  365000    1.0945466   -3.6609834    326.34182  0.074507265  0.077108699            2 
  366000    1.1127073   -3.6541616    327.26257  0.074513336  0.077074671            5 
  367000    1.0842836   -3.6307086    328.23985   0.07453221  0.077042955            2 
  368000    1.1319573   -3.6293553    329.04727  0.074512516  0.077010964            3 
  369000    1.0973555   -3.6683191    328.94069  0.074286515   0.07697751            2 
  370000     1.108417   -3.6848499    328.50527  0.073987674  0.076942706            3 
  371000    1.1072124   -3.6492881    330.54822  0.074247129  0.076910191            2 
  372000    1.1016638   -3.6352779    332.79283  0.074550366   0.07687699            1 
  373000     1.130538   -3.6927361    332.04967  0.074184466  0.076842695            2 
  374000    1.1134733   -3.6602695    333.03726  0.074206162  0.076810095            1 
  375000     1.094866   -3.6640991    333.23341  0.074051869  0.076779595            3 
  376000     1.111637   -3.6703007    335.47607  0.074351965  0.076749071            2 
  377000    1.0996597   -3.6559458    337.40602  0.074581347  0.076718463            3 
  378000    1.0997473   -3.6438805    336.41787  0.074166197  0.076688963            4 
  379000    1.0861171   -3.6558337    338.15319  0.074352065  0.076659966            4 
  380000    1.1033533    -3.681255    337.87082  0.074094479  0.076631384            4 
  381000    1.0861267   -3.6881958    340.21661  0.074413082  0.076604945            1 
  382000    1.0957892   -3.6692943    341.49708  0.074497617  0.076577122            2 
  383000    1.0863674   -3.6540257    341.71072  0.074349591  0.076549476            3 
  384000    1.1054642   -3.6319773     341.3865  0.074085612  0.076519469            2 
  385000    1.0966581   -3.6723845    341.89155    0.0740025  0.076489569            4 
  386000    1.1110578   -3.6740488    342.33632  0.073906806  0.076458303            3 
  387000    1.0948144   -3.6829633    344.58133  0.074199253  0.076428102            2 
  388000    1.1070598   -3.6873985    343.92257  0.073866531   0.07639707            1 
  389000    1.0993003   -3.6756013    345.48708    0.0740118  0.076367327            2 
  390000       1.1228   -3.6341873    348.03023  0.074365433   0.07633852            3 
  391000    1.0830141   -3.6702743    347.87835   0.07414287  0.076308788            3 
  392000    1.0859662   -3.6699347    347.32633  0.073836379  0.076275841            2 
  393000     1.119498   -3.6626172    349.03627  0.074011084  0.076243769            2 
  394000    1.0954143   -3.7027005    347.87042  0.073576654  0.076212618            2 
  395000    1.0897568    -3.641394    350.16932  0.073875385  0.076182112            3 
  396000     1.107626   -3.6634683    350.40746  0.073738944  0.076150334            2 
  397000    1.0784129   -3.6828397    350.28239   0.07352695   0.07611784            2 
  398000     1.096934      -3.6927    350.64533  0.073418202  0.076084854            3 
  399000    1.1106802   -3.7063419    352.10344   0.07353873  0.076050572            3 
  400000     1.103133   -3.6870545    353.25521  0.073594835  0.076015618            3 
  401000    1.0825492   -3.6666739    352.94192  0.073346201  0.075981149            4 
  402000    1.0819927   -3.6660739    355.12301   0.07361588  0.075944135            3 
  403000    1.0905366   -3.6654285    354.09182  0.073219978  0.075909514            5 
  404000     1.086142   -3.6752367    356.66039  0.073568562  0.075873939            1 
  405000    1.0831881    -3.679232    355.65243  0.073179513  0.075840264            2 
  406000     1.089368   -3.6766658    357.75626  0.073431089  0.075805788            2 
  407000    1.0861472   -3.6661478    358.01212  0.073303055  0.075771903            4 
  408000    1.0858751   -3.6622383    358.84853  0.073294225  0.075736477            3 
  409000    1.0948919   -3.6818252    358.64958  0.073074486   0.07570127            3 
  410000    1.0741528   -3.7060898    359.97818  0.073166297  0.075665626            2 
  411000    1.0744324   -3.6576583    362.27221  0.073453409  0.075630395            3 
  412000    1.0727979    -3.693517    361.05924  0.073029781   0.07559534            3 
  413000    1.0943064   -3.6802467    363.37934  0.073321094   0.07556288            4 
  414000    1.0867899   -3.6679449     364.0871  0.073286453  0.075531681            4 
  415000     1.102269   -3.7083232    363.86432  0.073065124  0.075501127            3 
  416000    1.0920722   -3.6694522    367.43619  0.073605006  0.075472439            5 
  417000    1.1065956   -3.6719092    368.44208  0.073629512  0.075445119            1 
  418000    1.0912457    -3.718631    367.65537  0.073296525  0.075415554            2 
  419000    1.0916249   -3.6801758    370.42732  0.073672895  0.075385791            2 
  420000    1.0842862    -3.692422    370.61232   0.07353419  0.075356234            2 
  421000    1.0793017   -3.6881311    370.93343  0.073423086  0.075329003            2 
  422000    1.1229222   -3.7068294    370.29081  0.073122198  0.075301676            2 
  423000     1.078953   -3.6861251    373.17063  0.073516672  0.075275045            1 
  424000    1.0730442   -3.6830503    373.83227  0.073473323  0.075247766            5 
  425000    1.0990933   -3.6759646    374.33788  0.073399585  0.075220768            2 
  426000    1.0938448   -3.7054771    373.46612  0.073056752  0.075195313            3 
  427000    1.0790158   -3.7122978    375.48799  0.073280247  0.075167411            2 
  428000    1.0627882   -3.7023048    375.51516  0.073114322  0.075139411            3 
  429000    1.0878152   -3.6975318    377.09478  0.073250734  0.075111444            6 
  430000     1.070822   -3.6807015    377.00148  0.073062302  0.075084402            4 
  431000    1.0655988   -3.7269435    378.44887  0.073172635  0.075057018            2 
  432000    1.0888482   -3.7061378    379.96039  0.073294828  0.075030195            2 
  433000    1.0813811   -3.7059465    380.23946  0.073179265  0.075003714            4 
  434000    1.0786764   -3.6783434    382.04114  0.073356595  0.074975646            3 
  435000    1.0592858   -3.7060684     383.4218  0.073452452  0.074950631            2 
  436000    1.0970018   -3.6679007    383.55991   0.07331038  0.074924502            1 
  437000    1.0549285   -3.7304526    383.49871  0.073130951  0.074899957            3 
  438000    1.0853156   -3.6724582    386.47391  0.073530043  0.074874614            1 
  439000    1.0899813   -3.6686426    384.78693  0.073042318  0.074850029            2 
  440000    1.0808232   -3.6893854    385.78534  0.073065405  0.074823778            3 
  441000    1.1016161   -3.7040736    387.61614   0.07324568  0.074796631            3 
  442000    1.0630874    -3.700198    384.97641  0.072582279    0.0747698            3 
  443000    1.0776604   -3.7222448    386.86222  0.072773178  0.074741723            3 
  444000    1.0837903   -3.7001007    385.86323  0.072421778  0.074713559            2 
  445000    1.0719435   -3.7083367    388.50253  0.072753283  0.074685196            2 
  446000    1.0559871   -3.6637187    391.36128  0.073124304  0.074657168            2 
  447000    1.0781411   -3.6917961    390.39323  0.072780244  0.074629911            4 
  448000    1.0811117   -3.6747894    390.36735  0.072612974  0.074600503            3 
  449000    1.0972051   -3.6918444    392.44576     0.072837  0.074570407            2 
  450000    1.0717062    -3.695871    392.53738  0.072692108  0.074541677            2 
  451000    1.0659015   -3.7371088    392.46482   0.07251752  0.074511041            6 
  452000    1.0839515   -3.6917464    392.88083  0.072433782  0.074479416            3 
  453000    1.0771373   -3.6950701    394.73485  0.072614946  0.074451386            1 
  454000    1.0709107   -3.6855669    396.38612  0.072758098  0.074424749            1 
  455000    1.0722762    -3.721922    397.52403  0.072806599  0.074398629            2 
  456000    1.0480833   -3.7035842    396.59213  0.072476632  0.074372197            1 
  457000    1.0726364   -3.6686525    400.30666  0.072995379  0.074346811            2 
  458000     1.069715   -3.6883732    399.96725  0.072774245  0.074321786            2 
  459000    1.0718734   -3.7125433    401.52554  0.072898609  0.074297563            2 
  460000    1.0799385   -3.7043535    400.77933  0.072604951  0.074271723            2 
  461000    1.0617939   -3.7109611    401.57452    0.0725912  0.074246514            3 
  462000    1.1012074   -3.6970267    402.19955  0.072546817  0.074220988            5 
  463000    1.0702422   -3.6907187    404.21693  0.072753227  0.074197227            1 
  464000    1.0604516   -3.7315342     404.1233  0.072579615  0.074172895            4 
  465000    1.0597494    -3.706274     406.3707  0.072826291  0.074149615            2 
  466000    1.0659979   -3.7402433    404.29836  0.072299421   0.07412304            2 
  467000    1.0777516     -3.72501    405.17581  0.072301179  0.074096443            1 
  468000    1.0878651   -3.7583854    406.13731  0.072317897  0.074070152            1 
  469000    1.0661198   -3.7486116    409.00653  0.072673512  0.074045368            2 
  470000     1.076177   -3.7195571    409.30997   0.07257269  0.074019658            3 
  471000    1.0594283   -3.7230685     410.8896  0.072698089  0.073995363            4 
  472000    1.0560795   -3.7271329    410.60559  0.072493925  0.073971072            2 
  473000    1.0868776   -3.7090334    412.70337  0.072710248  0.073948217            4 
  474000    1.0821987   -3.7610452    412.25442  0.072477922  0.073925961            5 
  475000    1.0887421   -3.6967873    413.98493  0.072628935  0.073903926            2 
  476000    1.0680584    -3.709567    415.06265   0.07266503  0.073883071            2 
  477000     1.071366   -3.7392739    417.47294  0.072933777  0.073862266            2 
  478000    1.0563115   -3.7609766    416.08075  0.072538485  0.073841618            2 
  479000    1.0493628   -3.7237405    416.14944  0.072398997  0.073821045            4 
  480000    1.0764021   -3.7461176    418.23333  0.072609953  0.073800919            3 
  481000    1.0492293   -3.6803344     418.8074  0.072558455  0.073781942            1 
  482000    1.0891637    -3.696646    420.37859  0.072679562  0.073762685            6 
  483000    1.0436996   -3.7176712    421.34525  0.072695868   0.07374224            2 
  484000    1.0583896   -3.7129659    421.29669  0.072537308  0.073720996            2 
  485000    1.0843106   -3.6935026    423.14009  0.072704482  0.073699769            1 
  486000    1.0712619   -3.7139243    422.00715  0.072360622   0.07367743            3 
  487000    1.0359111   -3.7363246    422.78721  0.072345519  0.073655658            2 
  488000     1.041303   -3.7381413    423.52366  0.072323029  0.073633785            3 
  489000    1.0662178   -3.7239066    425.02903  0.072431668  0.073611719            2 
  490000    1.0733107   -3.7362972    425.93857  0.072438532  0.073589222            2 
  491000    1.0396528   -3.7393564    423.75195  0.071919884  0.073566285            1 
  492000    1.0530845   -3.7338756    425.74899  0.072111956  0.073543405            2 
  493000    1.0701167   -3.7145644    427.16709   0.07220539   0.07352132            2 
  494000    1.0599716   -3.7459535    426.90618  0.072015213  0.073498678            2 
  495000    1.0513248   -3.7344523    428.80126  0.072188764  0.073474659            3 
  496000    1.0801516   -3.7711722    428.35749  0.071968664  0.073450842            4 
  497000    1.0643683   -3.7342598       427.96  0.071757209  0.073426346            2 
  498000    1.0861088   -3.7542143    428.72312  0.071740816  0.073400951            2 
  499000    1.0707418   -3.6901243    431.02604  0.071981637  0.073376043            8 
  500000    1.0606251   -3.7275997    431.65031  0.071941718  0.073351213            2 
  501000    1.0599958   -3.7066565    433.13771  0.072045527  0.073326087            2 
  502000     1.041192   -3.7307815    431.28896  0.071595113   0.07329959            3 
  503000    1.0158079   -3.7102552    431.57072  0.071499457  0.073271547            4 
  504000     1.029482   -3.7796093    430.80321  0.071230689  0.073241984            2 
  505000    1.0598432   -3.7357691    433.80174  0.071584446   0.07321313            1 
  506000    1.0703256   -3.7718512    432.01025  0.071147934  0.073184025            2 
  507000     1.039818   -3.7269107    433.41613   0.07123868  0.073154744            2 
  508000    1.0329967   -3.7268509     436.4296  0.071592782  0.073126364            3 
  509000    1.0301603   -3.7589214     436.0698  0.071393222  0.073098071            2 
  510000    1.0295194    -3.738481    436.21115  0.071276332  0.073069866            3 
  511000    1.0602701   -3.7464832    437.90195  0.071412582  0.073041249            2 
  512000    1.0422111   -3.7470973    438.37792  0.071350573  0.073011461            1 
  513000    1.0393237   -3.7810153    437.23503  0.071025833   0.07298197            3 
  514000    1.0644803   -3.7334313    439.54677  0.071262447  0.072952339            2 
  515000    1.0316747   -3.7401958    439.29466  0.071083278  0.072921441            3 
  516000    1.0484155   -3.7278959    442.69193  0.071494175  0.072891899            3 
  517000    1.0668549     -3.71647    442.80224  0.071373668  0.072861979            3 
  518000    1.0384121   -3.7275783    442.42368   0.07117498  0.072832813            3 
  519000    1.0229287   -3.7525093    442.52245  0.071053701  0.072804945            2 
  520000    1.0409995   -3.7473843    441.78128  0.070798283  0.072775877            5 
  521000    1.0792428    -3.756455    444.26819  0.071060171  0.072747146            2 
  522000     1.047298   -3.7497492    444.62907  0.070981653  0.072717597            2 
  523000    1.0437379   -3.7259655    446.04207  0.071071075  0.072688739            4 
  524000    1.0570596   -3.7681586    445.44316  0.070840197  0.072661135            4 
  525000    1.0373133   -3.7366787    448.24844  0.071150546  0.072632374            2 
  526000    1.0494704   -3.7459784    448.87359   0.07111432  0.072602975            4 
  527000    1.0408407    -3.750833    449.30614  0.071047777  0.072574039            2 
  528000    1.0528637   -3.7569455    448.77703  0.070829709  0.072545413            2 
  529000    1.0377253   -3.7561617    448.79266  0.070698277  0.072515327            4 
  530000    1.0518611   -3.7350056    451.28992  0.070957535  0.072485871            2 
  531000    1.0141543   -3.7227192    450.67482  0.070727373  0.072457381            3 
  532000    1.0623876   -3.7414957    450.96406  0.070639734  0.072428363            2 
  533000    1.0407934   -3.7510197    453.22354  0.070860466  0.072398775            2 
  534000    1.0350401   -3.7466372     452.6215  0.070633817  0.072369227            2 
  535000    1.0345543    -3.732438    454.79271  0.070839985  0.072340233            1 
  536000    1.0427144   -3.7497198    452.41299   0.07033784  0.072310436            4 
  537000    1.0410949   -3.7451585    455.24116  0.070645741  0.072281241            3 
  538000     1.035163   -3.7525037    456.37082  0.070689408  0.072252085            5 
  539000    1.0641445   -3.7779832    454.94477  0.070337781  0.072221873            4 
  540000    1.0267562   -3.7533921    458.93113  0.070822705  0.072192187            3 
  541000    1.0275884   -3.7480749    459.09045  0.070716335   0.07216353            3 
  542000    1.0286066   -3.7971419     458.6778  0.070522417  0.072134183            1 
  543000    1.0214262   -3.7428581    460.49404  0.070671277  0.072106482            2 
  544000    1.0369476   -3.7601148    459.97043  0.070461157  0.072078385            3 
  545000    1.0264646   -3.7466791    462.93818  0.070785654  0.072051291            2 
  546000    1.0291494   -3.7856497    463.01433  0.070667632  0.072024409            4 
  547000    1.0603143   -3.7604309    462.09156  0.070397861  0.071994973            1 
  548000    1.0102536   -3.7664652    464.60583  0.070651738  0.071966613            3 
  549000    1.0615416   -3.7328429     463.8079  0.070401927  0.071937199            3 
  550000    1.0411236   -3.7663287    463.88304  0.070285309  0.071908269            1 
  551000    1.0359828   -3.7708773    465.75501  0.070440867  0.071878636            2 
  552000    1.0085564   -3.7637594    465.26058  0.070238614   0.07184915            3 
  553000    0.9953993   -3.7590817    466.16889  0.070248476  0.071820688            2 
  554000    1.0427078   -3.7722501    466.07235  0.070107152  0.071792293            2 
  555000    1.0308225   -3.7724892    467.15973  0.070144103  0.071761336            2 
  556000    1.0143568   -3.7793754    467.37513  0.070050229  0.071732168            2 
  557000    1.0317347   -3.7701051     468.9986  0.070167355  0.071701918            3 
  558000    1.0116858   -3.7649282     468.3198  0.069940233   0.07167188            2 
  559000     1.035877   -3.7629447    470.72904  0.070174275  0.071642625            2 
  560000    1.0468755   -3.7661993    469.65587  0.069889266  0.071612603            2 
  561000    1.0437914    -3.784821    470.04539  0.069822547  0.071583497            4 
  562000    1.0330537   -3.7844869    472.76374  0.070101385  0.071553054            3 
  563000    1.0333057   -3.7333463    474.16628  0.070184469  0.071522631            1 
  564000    1.0371754   -3.7589307    473.28124  0.069929261  0.071492956            2 
  565000    1.0331063   -3.7606491    474.84593  0.070036273  0.071465179            3 
  566000    1.0161176   -3.7967147    475.04194  0.069941392  0.071436198            2 
  567000    1.0277689   -3.7796689    473.88682  0.069648268  0.071407084            3 
  568000    1.0291865    -3.783301    476.40183  0.069894635  0.071376929            2 
  569000    1.0354288   -3.7864487    476.80419  0.069830724  0.071347873            5 
  570000    1.0094479   -3.7553576    478.17796  0.069909059  0.071317745            2 
  571000    1.0216484   -3.7584891    476.95906  0.069608736  0.071288147            2 
  572000     1.053859   -3.8151263    478.33212   0.06968708  0.071259023            5 
  573000    1.0140205   -3.7513009    479.81964  0.069781798  0.071228987            1 
  574000    1.0115257   -3.7676285    481.69102  0.069931913  0.071199352            3 
  575000    1.0338082    -3.767463    482.16282   0.06987867   0.07117026            3 
  576000    1.0075772   -3.7890244    478.88146  0.069282619  0.071139652            4 
  577000     1.033102   -3.7584134    480.23836  0.069358516   0.07110902            3 
  578000    1.0324907   -3.7772685    482.30253  0.069536121  0.071077325            2 
  579000    1.0381013   -3.7525778    482.65842  0.069467245  0.071046333            2 
  580000     1.040777   -3.7904375     481.4308  0.069171092  0.071015161            2 
  581000    1.0295892   -3.7954559    483.06213   0.06928602  0.070983505            7 
  582000    1.0156651   -3.7702825    483.02905  0.069162235  0.070950228            3 
  583000    1.0369278   -3.7663628    484.47951   0.06925093    0.0709181            1 
  584000    1.0239776   -3.7673082     484.6633  0.069158576   0.07088606            3 
  585000    1.0086027   -3.8027372    484.61259  0.069033132  0.070854399            2 
  586000    1.0059429   -3.7513522    486.00922   0.06911394  0.070822737            1 
  587000    1.0451385   -3.8132649    486.41864  0.069054322  0.070791134            2 
  588000    1.0255724   -3.7708113    487.75996  0.069126979   0.07075921            6 
  589000    1.0140813   -3.7585126     486.7083  0.068860823  0.070726579            2 
  590000    1.0111058    -3.768564    488.97966  0.069064923  0.070695714            2 
  591000    1.0157174   -3.7719896    488.13044  0.068828319  0.070664184            3 
  592000    1.0197367   -3.7718654    488.37254  0.068746135  0.070631968            3 
  593000    1.0188486   -3.8107801    489.86817  0.068840383  0.070599694            2 
  594000    1.0122897   -3.8057646    489.78768  0.068713198  0.070566937            1 
  595000    1.0536328   -3.7755852    490.74934    0.0687324  0.070534835            2 
  596000   0.99340949    -3.819946    489.97384  0.068508647  0.070501674            2 
  597000    1.0137487   -3.7922971    491.61176  0.068622524  0.070468817            4 
  598000    1.0005704   -3.7597161    492.36707  0.068613025  0.070436218            2 
  599000   0.97821081   -3.7929475    492.58386   0.06852864  0.070402871            2 
  600000     1.004847   -3.8247428     493.2758  0.068510527   0.07036874            5 
  601000   0.99583288   -3.7833071    494.07758  0.068507706  0.070334183            4 
  602000    1.0419943   -3.7620022    493.05582  0.068252466  0.070299283            6 
  603000    1.0057908   -3.7814527    491.41245  0.067912168  0.070263238            5 
  604000    1.0185769   -3.7695226    495.81989  0.068407821  0.070227182            5 
  605000    1.0103218   -3.7800861    495.81686  0.068294333  0.070191153            3 
  606000    1.0081974    -3.848513    494.25419  0.067966747  0.070154548            2 
  607000    1.0332693   -3.7692791    497.56525  0.068309343  0.070118035            3 
  608000    1.0325905   -3.8016004    496.25948  0.068018021  0.070082343            3 
  609000    1.0139411   -3.7847539    498.12021  0.068160948  0.070046392            3 
  610000    1.0102403   -3.7827727    496.32311  0.067803704  0.070009442            6 
  611000    1.0008287   -3.7824183    498.56931  0.067999088  0.069971934            4 
  612000    1.0072295   -3.7958994    498.50739  0.067879547  0.069934871            2 
  613000    1.0226134   -3.8459728    498.09585  0.067712867  0.069896926            1 
  614000    1.0226862   -3.8198416    498.91143  0.067713277  0.069859257            4 
  615000     1.026808   -3.8261891    499.66916  0.067705848  0.069821645            4 
  616000    0.9695314   -3.8163084    498.45992  0.067432348  0.069784926            3 
  617000    1.0045545   -3.8226119    501.47265  0.067729963   0.06974714            3 
  618000    1.0268764   -3.8093876    500.05468  0.067429163   0.06970843            3 
  619000   0.99613425   -3.7774975     500.7895  0.067419158  0.069670266            1 
  620000   0.98148782   -3.8250649    502.37614  0.067523674  0.069632971            3 
  621000    0.9957353   -3.8187924    502.79358  0.067470958  0.069595073            3 
  622000    1.0160145   -3.7985639    502.21499  0.067284967   0.06955775            5 
  623000    1.0018261   -3.7936651    505.23674  0.067581158  0.069520136            2 
  624000   0.98707055   -3.8148613    506.52473  0.067644863  0.069482968            2 
  625000    1.0155484   -3.8215162    504.83626  0.067311502  0.069445879            1 
  626000   0.98778408   -3.8294219    507.22756  0.067522306  0.069409373            3 
  627000    1.0103565   -3.8074182    507.62115  0.067466925  0.069372959            3 
  628000    1.0065205   -3.8342095    507.80889  0.067384407  0.069337291            3 
  629000     1.000623   -3.8162603    507.38391  0.067220973  0.069300277            3 
  630000   0.99183542   -3.8262108    507.15701  0.067084261   0.06926205            5 
  631000     1.013582   -3.8341138    509.57949  0.067297873  0.069224298            4 
  632000    1.0078094    -3.816827    508.28913  0.067021246  0.069187198            3 
  633000   0.99856008   -3.8208698    508.78476  0.066980616  0.069149766            4 
  634000   0.99870768   -3.8443544    510.58046  0.067110997  0.069112826            2 
  635000     1.005456   -3.8028482    511.13411  0.067077968  0.069075457            2 
  636000   0.99550575   -3.7790773    513.26495  0.067251697  0.069038334            2 
  637000   0.99842074   -3.7882376    513.34201  0.067156202  0.069000705            2 
  638000    1.0087975     -3.83148    512.11564  0.066890758  0.068963652            1 
  639000   0.99084865   -3.8150259    514.02619  0.067035235  0.068926064            3 
  640000     1.013537   -3.8220484    512.73004  0.066761724  0.068889493            4 
  641000   0.99413843   -3.8188098    515.13749  0.066970552  0.068852924            3 
  642000   0.97964786    -3.805996    516.19336  0.067003292  0.068815871            5 
  643000   0.99741829   -3.8227458    515.73476  0.066839653  0.068778624            5 
  644000   0.98998345   -3.8258982     516.3703  0.066818103   0.06874128            2 
  645000   0.99543319   -3.8076305    515.15436  0.066557411  0.068704309            2 
  646000    1.0407818   -3.8123062    519.33951  0.066994261  0.068668493            2 
  647000    1.0034543   -3.8334907     516.7577  0.066558179  0.068632307            2 
  648000     1.002476   -3.8344195    520.61956  0.066952104  0.068596813            4 
  649000    1.0017077   -3.8065302    519.16123  0.066661688  0.068561196            3 
  650000    0.9799982   -3.8465817    520.60776  0.066744585   0.06852529            4 
  651000   0.99101637   -3.8298868    520.62315  0.066644029   0.06848973            4 
  652000    1.0070671   -3.8342028    521.96034  0.066712723  0.068454491            4 
  653000   0.98581774   -3.8612346     520.7017  0.066449937  0.068418247            2 
  654000   0.98935848    -3.824107    521.59503   0.06646216  0.068383243            3 
  655000    1.0082431   -3.8173126    523.80673  0.066642077  0.068348084            2 
  656000   0.97254024   -3.8302805     525.5802  0.066765778  0.068313815            3 
  657000   0.99833655   -3.8110624    526.67981  0.066803629  0.068279697            3 
  658000   0.98544549   -3.8372267    526.22771  0.066644847  0.068245071            3 
  659000   0.99256696   -3.8348608    525.45319  0.066445775  0.068210643            3 
  660000   0.97873266   -3.8420273    525.53232  0.066355091  0.068175071            1 
  661000   0.97674677   -3.8421682    525.58967  0.066261935  0.068138404            2 
  662000    1.0090762   -3.8536442    526.05023  0.066219817  0.068101331            6 
  663000   0.97200018    -3.849763    528.83631  0.066470125   0.06806484            3 
  664000   0.98686382   -3.8243342    527.46769  0.066198254  0.068028244            3 
  665000    1.0046067   -3.8562477    528.20584  0.066191208   0.06799202            4 
  666000   0.99255534    -3.840665    528.46361  0.066124075  0.067955867            3 
  667000   0.98518879   -3.8233939    529.50573  0.066155139  0.067919291            2 
  668000    1.0060587   -3.8268462    527.29287  0.065780049  0.067882647            4 
  669000   0.99350612   -3.8462549    530.45365  0.066075442  0.067846653            5 
  670000   0.99178156    -3.847353    530.59579  0.065994501  0.067810102            1 
  671000   0.99330869   -3.8231956    533.01951  0.066197158  0.067774609            2 
  672000   0.99113065   -3.7806452    532.71781  0.066061236  0.067739455            4 
  673000    1.0091261   -3.8730525    532.02493  0.065877282  0.067703762            3 
  674000    0.9919955   -3.8414792    532.77061  0.065871737  0.067667669            3 
  675000   0.98327732   -3.8151372    534.25978  0.065957998  0.067631596            2 
  676000   0.99894716   -3.8549338    533.36905  0.065750622   0.06759434            6 
  677000   0.99598427   -3.8476482    535.16378  0.065874419  0.067557378            2 
  678000   0.98324949   -3.8518127    533.07744  0.065520826  0.067520369            4 
  679000   0.97504568   -3.8565822    535.98406  0.065781058  0.067484068            2 
  680000   0.98031413    -3.865568    533.98125  0.065438878  0.067447909            2 
  681000   0.96246631   -3.8346802    539.68083  0.066040239  0.067412036            8 
  682000   0.98376819   -3.8400827     538.3095  0.065775844  0.067376443            4 
  683000   0.97595233   -3.8328788    539.03711  0.065768315  0.067340922            3 
  684000   0.98425842   -3.8317016     538.8427  0.065648478   0.06730637            3 
  685000   0.99355953   -3.8265916    539.18316  0.065594059  0.067272401            2 
  686000   0.99285385   -3.8629087    539.14781  0.065494146   0.06723779            6 
  687000   0.97062646   -3.8461404    542.67655   0.06582685   0.06720244            7 
  688000   0.98221101   -3.8667533     540.3649  0.065451175  0.067168112            2 
  689000    0.9703294   -3.8499281    543.48875  0.065734005   0.06713313            2 
  690000    1.0076435   -3.8436405    543.56607  0.065648076   0.06709891            2 
  691000   0.97455537   -3.8556025    544.91653  0.065715934   0.06706371            2 
  692000   0.96398037   -3.8331466    544.80683  0.065607759  0.067029827            3 
  693000   0.97073437   -3.8280125    544.05641  0.065422849   0.06699549            1 
  694000   0.95188301   -3.8395876    545.82138  0.065540512  0.066960271            4 
  695000   0.96709479   -3.8818953    544.06335  0.065235414  0.066925821            3 
  696000   0.98017622   -3.8487878    546.73815  0.065461943  0.066890621            4 
  697000   0.96641899   -3.8739601    545.56602  0.065227884  0.066856381            2 
  698000   0.99946899   -3.8446726    547.26624  0.065337422  0.066822459            2 
  699000   0.97709859   -3.8592141    547.15371  0.065230533  0.066787772            4 
  700000   0.97062945   -3.8680475    549.33551  0.065397084  0.066753026            7 
  701000   0.98402683    -3.824627    547.18946  0.065048676  0.066717812            2 
  702000   0.97731267   -3.8452778     549.1588   0.06518979  0.066683973            4 
  703000   0.96683917   -3.8783125    548.77194  0.065051202  0.066649578            2 
  704000   0.97221461    -3.866677    549.99901   0.06510405   0.06661516            3 
  705000   0.97452836   -3.8725599    550.80657   0.06510716  0.066580992            2 
  706000   0.96789913    -3.869248    552.51256  0.065216308  0.066547296            3 
  707000   0.95402673   -3.8547207    553.34008  0.065221603  0.066514064            2 
  708000   0.97852463   -3.8316305    551.80992  0.064949379   0.06648063            2 
  709000   0.97782993   -3.8795941    553.22719  0.065024353   0.06644736            4 
  710000   0.95967331   -3.8506364    554.67209  0.065102358  0.066413922            1 
  711000   0.96464882   -3.8367702    556.37326  0.065210181  0.066380294            3 
  712000   0.97027536   -3.8615949    555.41364  0.065006278   0.06634683            2 
  713000   0.96487063   -3.8874892    551.81191  0.064494145  0.066312103            4 
  714000   0.99615302   -3.8503079     554.5151  0.064719316   0.06627673            5 
  715000   0.97439877   -3.8696168    553.80956  0.064546569  0.066241778            3 
  716000   0.95513903   -3.8565907    554.74599  0.064565408  0.066207008            3 
  717000   0.93498681   -3.9029591    556.53677  0.064683492  0.066171974            2 
  718000   0.96913955   -3.8406954    558.45717  0.064816292  0.066137133            3 
  719000   0.96738742   -3.8675866    557.47385  0.064612175  0.066102237            4 
  720000   0.96733343   -3.8506874    559.01353   0.06470064   0.06606714            1 
  721000   0.95455591   -3.8538863    556.28766  0.064295846   0.06603188            2 
  722000   0.96085133   -3.8512826    559.25772  0.064549598  0.065996413            5 
  723000   0.96240478   -3.8587677    557.73528  0.064284841  0.065960823            3 
  724000   0.95518555   -3.8580085    559.16422  0.064360523  0.065926592            2 
  725000   0.96967019   -3.8548648    559.90092  0.064356427  0.065891949            1 
  726000    0.9672932   -3.8537349    560.33517  0.064317627  0.065856562            2 
  727000   0.95223128   -3.8687707    559.08677  0.064086057  0.065820504            2 
  728000   0.94888523   -3.8840385    561.78676  0.064307093  0.065784337            1 
  729000   0.98389054   -3.8622509    560.41151  0.064061672  0.065747679            3 
  730000   0.96911058   -3.8391118    562.07902  0.064164272  0.065711203            5 
  731000   0.95247965   -3.8774116    561.48908  0.064009243  0.065675633            2 
  732000   0.94284342   -3.8603339    561.90604  0.063969266  0.065639369            5 
  733000   0.94901566   -3.8794934    562.56103   0.06395646  0.065603788            4 
  734000   0.97345939    -3.859157    562.74347   0.06389004  0.065567411            2 
  735000   0.94074369   -3.8554432    562.63671   0.06379101  0.065531797            2 
  736000   0.95689683    -3.898707    563.43991  0.063795279  0.065496227            6 
  737000    0.9417761   -3.8769418     566.5292  0.064058028  0.065461439            2 
  738000   0.95890216   -3.8925439    566.35182  0.063951199  0.065426124            4 
  739000   0.97159522   -3.8507491    569.12864   0.06417779  0.065391469            3 
  740000   0.97005943    -3.900644    567.24747  0.063879219  0.065357183            5 
  741000   0.97739767   -3.8680749    567.65346  0.063838671   0.06532214            3 
  742000   0.96766931   -3.8991412    570.07379  0.064024459  0.065287359            5 
  743000   0.96195475   -3.8747234    568.92439  0.063809376  0.065252708            3 
  744000    0.9579245    -3.863718    572.73959   0.06415094  0.065217687            3 
  745000   0.94444135   -3.8545885    569.46924   0.06369902  0.065182732            2 
  746000   0.95984631   -3.8716427    568.65488  0.063522663  0.065147615            3 
  747000   0.94143401   -3.8865077    571.52792  0.063758135   0.06511255            5 
  748000   0.94556573   -3.8770633    571.51906  0.063671909  0.065078456            3 
  749000   0.94483645   -3.8870653    572.84922  0.063734893  0.065043779            3 
  750000   0.97075883   -3.8777703    574.44618  0.063827353  0.065009174            2 
  751000   0.94004873   -3.9101358    569.60085  0.063204711  0.064974648            4 
  752000   0.94572398   -3.9095315    572.43708   0.06343496   0.06493944            4 
  753000   0.94456189   -3.9033595    573.65734  0.063485761  0.064904627            2 
  754000   0.95173257   -3.8674418     574.6182  0.063507758  0.064870039            2 
  755000   0.94954461   -3.8803873    574.16825  0.063373979  0.064835437            8 
  756000    0.9575105   -3.8808194    575.32556   0.06341772  0.064800099            3 
  757000   0.95767209   -3.9035726    575.26289  0.063327046  0.064765132            2 
  758000   0.94465954   -3.8949415    574.99081  0.063213589  0.064730034            6 
  759000   0.95408524   -3.9127318    575.49114  0.063185238  0.064695172            2 
  760000   0.93861279   -3.8782922    576.58965   0.06322255  0.064661009            2 
  761000   0.95859573   -3.8662475     577.9394  0.063287276  0.064627066            2 
  762000    0.9429969   -3.9133268    577.19368  0.063122668  0.064592881            4 
  763000   0.94411589   -3.8762624    578.36664  0.063168047  0.064558023            5 
  764000   0.95151659   -3.9041238    578.36425  0.063085105  0.064524199            5 
  765000   0.94553689   -3.9105875    577.57953   0.06291716  0.064489783            3 
  766000   0.92714539   -3.9049306    580.62512  0.063166354  0.064455723            2 
  767000   0.94279825   -3.8972595    580.22129  0.063040122  0.064421244            2 
  768000   0.94504695     -3.92127    578.38247  0.062758514  0.064386909            4 
  769000   0.95819908   -3.9039077    579.85154  0.062836101  0.064351843            5 
  770000   0.95348109   -3.9153344    583.02645  0.063098101  0.064317436            4 
  771000    0.9517364   -3.9021036    582.28552  0.062936178   0.06428335            4 
  772000   0.94122488   -3.8858299    584.30934  0.063073115  0.064249025            3 
  773000   0.94758784    -3.903109    582.45157  0.062791243  0.064214452            1 
  774000   0.94059058   -3.9302078    582.70561  0.062737468  0.064180376            3 
  775000   0.95923949   -3.9161256    585.78116  0.062987221     0.064146            3 
  776000   0.94510621   -3.9189243    586.59377  0.062993317  0.064112571            3 
  777000   0.95083662   -3.9116456    585.49005  0.062793871  0.064079229            2 
  778000   0.93686661   -3.9062022     586.1525  0.062784115  0.064045763            4 
  779000     0.935168   -3.9141205    586.70031  0.062762121  0.064012257            4 
  780000   0.94423321   -3.8805205     588.7827  0.062904134  0.063979291            4 
  781000   0.95756597   -3.9340414     589.0616   0.06285335  0.063946124            5 
  782000   0.95362717    -3.915031    589.57177  0.062827341  0.063913601            3 
  783000   0.92811823    -3.891837    591.63812   0.06296702  0.063881376            2 
  784000   0.94903271   -3.8939061    590.56438  0.062772574  0.063848681            2 
  785000   0.93313979   -3.9206866    590.91618  0.062729955  0.063816384            5 
  786000   0.92333964   -3.9332578    590.36712  0.062591933  0.063783543            3 
  787000    0.9232609    -3.890192    590.28055  0.062503235  0.063750297            2 
  788000   0.95703345   -3.9025667    592.24313  0.062631464  0.063716557            5 
  789000   0.94563157   -3.9115895    589.69577  0.062283034  0.063683319            4 
  790000   0.95204047   -3.8950476    593.10249  0.062563554  0.063650014            3 
  791000   0.93153892   -3.9195177    594.65065  0.062647561   0.06361701            2 
  792000   0.94357804   -3.9150748    594.44273  0.062546584  0.063583328            2 
  793000   0.93602904   -3.9173255    593.31665  0.062349375   0.06355034            4 
  794000   0.94241592   -3.9149683    595.06505  0.062454351  0.063516907            9 
  795000   0.94938589   -3.8986873    595.40289  0.062411205  0.063484033            4 
  796000   0.92891613    -3.929755    593.90548  0.062176035  0.063450704            3 
  797000   0.95331686    -3.890098    597.35316  0.062458506  0.063417264            6 
  798000   0.95407734   -3.9133869    596.43869  0.062284742  0.063384287            9 
  799000   0.91845843   -3.9407153    595.99833   0.06216086  0.063351231            3 
  800000   0.95548293   -3.9006995    599.11977   0.06240831  0.063318098            3 
  801000   0.92675787   -3.9259314     597.1274  0.062123117  0.063285483            3 
  802000    0.9324797   -3.9123178    597.77964  0.062113429  0.063252307            6 
  803000   0.94408207     -3.92601    599.18569  0.062181994  0.063220046            3 
  804000   0.93889281   -3.9029001    599.13388  0.062099283  0.063187075            4 
  805000    0.9205025   -3.9552038    601.14793  0.062230634  0.063154885            3 
  806000    0.9483358   -3.8994799    603.53975  0.062400718  0.063122907            4 
  807000   0.94571538   -3.9307369    598.68255  0.061821825  0.063090816            7 
  808000   0.91108822   -3.9365842    601.95526  0.062082844  0.063057643            3 
  809000   0.93719252   -3.8818778    602.75663  0.062088652   0.06302559            2 
  810000   0.92159162   -3.9392473    601.19157  0.061850985  0.062993115            4 
  811000   0.93094067    -3.931255     601.6191   0.06181865  0.062960545            4 
  812000   0.92286329   -3.9348533    601.40006  0.061720039  0.062927046            7 
  813000   0.92561573   -3.9402632    601.99809  0.061705421  0.062893136            2 
  814000   0.92787993   -3.9238379    602.42358  0.061673176  0.062860452            3 
  815000   0.91156904   -3.9310194    603.86594  0.061744983  0.062827974            3 
  816000   0.91229538   -3.9244423    604.27874  0.061711473  0.062795042            5 
  817000   0.93676697    -3.943121     603.0574  0.061511363  0.062761906            4 
  818000   0.91940889    -3.909525    606.20796  0.061757127  0.062728957            5 
  819000   0.93296338   -3.9332109    607.02064  0.061764412  0.062696138            8 
  820000   0.91962332   -3.9241739    606.45081   0.06163118   0.06266341            1 
  821000   0.92439763   -3.9143365    606.02277  0.061512664  0.062629874            2 
  822000   0.93467371   -3.9288386    607.90216  0.061628361   0.06259729            3 
  823000   0.93236148   -3.9455265     607.9313  0.061556429  0.062564368            2 
  824000   0.91931936   -3.9179805    611.04109  0.061796227  0.062531735            2 
  825000   0.91511776   -3.9490779    609.39674  0.061555227  0.062498478            4 
  826000   0.91854279    -3.920142    608.56553  0.061396846  0.062464928            6 
  827000   0.92754158   -3.9351655    608.81917  0.061348163  0.062431841            5 
  828000   0.93253726   -3.9409364    609.39235  0.061331758   0.06239822            5 
  829000   0.92266152   -3.9658011     609.6786   0.06128655  0.062364772            3 
  830000   0.94425908   -3.9284826    611.99741  0.061445523  0.062331896            3 
  831000   0.93991326   -3.9395481    609.17964  0.061089013  0.062298863            4 
  832000   0.91942709   -3.9346983    609.84387  0.061082119  0.062266099            3 
  833000   0.92794994   -3.9467974     611.9276  0.061217247  0.062232856            3 
  834000   0.92326901   -3.9459073    610.40552  0.060991758  0.062199671            3 
  835000   0.91470873   -3.9423446    613.16336  0.061193948  0.062167076            3 
  836000   0.93872047   -3.9281384    615.04156   0.06130797  0.062134347            9 
  837000   0.92011905   -3.9296557    614.74825   0.06120552  0.062102334            5 
  838000   0.91724546   -3.9112757    614.58618  0.061116366  0.062069401            3 
  839000    0.9208065    -3.970831    613.86929  0.060972317  0.062036815            5 
  840000   0.91577122   -3.9388549    615.49011  0.061060527  0.062003533            2 
  841000   0.91766447   -3.9644196    612.96806  0.060738016  0.061969615            2 
  842000   0.91375035   -3.9347297    616.86282  0.061051348  0.061936221            4 
  843000   0.88665935    -3.951738     616.3983  0.060933007  0.061903189            1 
  844000    0.9146881   -3.9139019    614.32241  0.060655846  0.061869801           10 
  845000   0.90857403   -3.9312325    617.98409  0.060945176  0.061835708            4 
  846000   0.92877187   -3.9584001    615.86732   0.06066463  0.061801627            3 
  847000   0.90437636   -3.9348118    617.22118  0.060726208  0.061767377            2 
  848000   0.90477024   -3.9566167    617.61892  0.060693684  0.061733133            3 
  849000   0.93667658   -3.9372637    614.93344  0.060358602  0.061699092            3 
  850000   0.91936801   -3.9674439    617.82742  0.060571316  0.061664627            3 
  851000   0.90650592   -3.9654172    617.86625  0.060503942  0.061630441            2 
  852000     0.905178   -3.9595768     618.5305  0.060497897  0.061596393            5 
  853000   0.90934692   -3.9692772    617.93325  0.060368625   0.06156267            7 
  854000   0.92189109   -3.9493994    617.22104  0.060228439   0.06152864            4 
  855000   0.92144414   -3.9492134    616.68385  0.060105638  0.061495055            5 
  856000   0.91809308   -3.9502846    621.10796  0.060466118  0.061460771            3 
  857000   0.91377495    -3.966009    620.95762  0.060380943  0.061426858            7 
  858000   0.92776252   -3.9886365    619.26411  0.060146087  0.061392948            2 
  859000   0.91452955   -3.9462247    618.11228  0.059964326  0.061358535            1 
  860000    0.9156772   -3.9447518    621.66589  0.060238943  0.061324509            3 
  861000   0.92088892   -3.9331106    622.17261  0.060218023  0.061290475            2 
  862000   0.90149777   -3.9551023    622.20849  0.060151632  0.061256762            5 
  863000   0.89757414   -3.9639456     623.8472   0.06024017  0.061222495            4 
  864000   0.90336579   -3.9570921    621.92729  0.059985271  0.061188399            4 
  865000   0.91945355   -3.9503319    623.16989  0.060035635  0.061154382            2 
  866000   0.90646672   -3.9377076    623.70464  0.060017767  0.061120117            7 
  867000   0.89202379   -3.9741837    625.45585  0.060116864  0.061085788            3 
  868000   0.91706306   -3.9613956    624.13327  0.059920629  0.061051563            3 
  869000   0.91793278   -3.9883558    624.58139  0.059894648  0.061017026            2 
  870000   0.90336633   -3.9675623    621.54484  0.059534946  0.060982086            5 
  871000   0.90276619    -3.956849    625.06326   0.05980322  0.060947889            3 
  872000   0.91453286   -3.9858618    623.01197  0.059538605  0.060913523            7 
  873000   0.91024991   -3.9691314    624.07826   0.05957219  0.060879488            4 
  874000   0.89277342   -3.9542045    626.18617  0.059705012  0.060845646            6 
  875000   0.89953703   -3.9749304    626.10125   0.05962869  0.060811467            3 
  876000   0.90361792   -3.9638631    626.21144  0.059571103  0.060777333            2 
  877000   0.89727441   -3.9675874    630.49718  0.059910412  0.060743391            7 
  878000    0.8831116   -3.9319928    628.29126  0.059632807   0.06070991            4 
  879000   0.92315984   -3.9508446    627.01627  0.059444091  0.060675829            2 
  880000   0.89173607   -3.9483202    629.25578  0.059588615  0.060641881            5 
  881000   0.88897876   -3.9736166    629.57751   0.05955141  0.060607953            5 
  882000    0.9088588   -3.9807473     629.2065  0.059448838  0.060573946            2 
  883000   0.89709885   -3.9633928    631.49763  0.059597738  0.060540002            4 
  884000   0.88295961   -4.0016575    629.95143  0.059384561  0.060506643            4 
  885000   0.89696513   -3.9571886    632.80269   0.05958594  0.060473549            4 
  886000   0.88116051   -3.9540331    631.71335  0.059416229  0.060440093            3 
  887000   0.91071748   -3.9722713    631.35233  0.059315326  0.060406329            2 
  888000   0.88941952   -3.9474855    632.54606  0.059360554  0.060372825            4 
  889000   0.88553307    -3.951141    634.16214   0.05944527  0.060339375            6 
  890000   0.89193327   -4.0106692    631.30467  0.059110924  0.060305526            6 
  891000   0.88919922   -3.9670983     634.2082  0.059316143  0.060271434            3 
  892000   0.89649436   -3.9665907    632.79194  0.059117334  0.060237773            4 
  893000   0.91163569   -4.0015703     633.6499  0.059131196  0.060203844            3 
  894000   0.89437625   -3.9866102    633.90444  0.059088781  0.060170424            1 
  895000   0.89613611   -3.9856951    633.77175  0.059010405  0.060137812            3 
  896000   0.88871132   -3.9960094    638.63055  0.059396443    0.0601047            4 
  897000   0.88699843   -3.9897145    634.96497  0.058989685   0.06007188            4 
  898000   0.90252995   -3.9628152    638.66505  0.059267358  0.060038688            3 
  899000   0.89958726   -3.9819284    640.58527  0.059379428   0.06000624            6 
  900000   0.86711416   -3.9624806    640.18353  0.059276253  0.059974032            2 
  901000   0.89208394   -3.9774717    640.67014   0.05925547  0.059941574            5 
  902000   0.87094566   -3.9870861    642.54474  0.059362965  0.059909423            4 
  903000   0.87674056   -4.0122665    640.26703  0.059087028  0.059877503            4 
  904000   0.89465555   -4.0128449    641.45487  0.059131164  0.059846213            3 
  905000    0.9013589   -3.9630397    643.66029  0.059268904  0.059814968            2 
  906000   0.89957968   -4.0043111     645.2348  0.059348308  0.059784083            3 
  907000   0.89738712   -3.9931165    644.72954  0.059236451  0.059753561            3 
  908000   0.89508331   -3.9915353    643.20388  0.059031193  0.059722046            5 
  909000   0.88859411   -3.9997226    641.92789  0.058849275  0.059690658            2 
  910000   0.89247656   -3.9870568    645.28949  0.059092444  0.059659078            3 
  911000   0.89782958   -4.0141566    644.50287  0.058955623   0.05962865            4 
  912000   0.88534131   -4.0165988    645.65811  0.058996538  0.059597292            4 
  913000   0.89446075   -3.9992842    647.95613   0.05914167  0.059566635            3 
  914000   0.86183472   -4.0065786    646.80117   0.05897166  0.059535773            7 
  915000    0.8853909   -4.0147365    648.00822  0.059017142   0.05950451            7 
  916000   0.89194507   -4.0137805    645.20572  0.058697754  0.059474134            2 
  917000   0.87893731   -4.0018421     647.4323  0.058836087  0.059442867            3 
  918000   0.90021025   -4.0286648    647.60162  0.058787366  0.059412161            3 
  919000   0.87736959   -4.0041685    647.96985  0.058756787  0.059381162            5 
  920000     0.872219   -4.0376077    646.72996  0.058580612  0.059349916            2 
  921000   0.88827527   -4.0143723    646.73886  0.058517812  0.059318836            5 
  922000   0.88841683   -3.9941114    647.44537    0.0585182  0.059287635            2 
  923000   0.87632001   -3.9738848    651.03576   0.05877896  0.059256718            1 
  924000   0.89027905    -4.003113    649.45547  0.058572824  0.059225196            3 
  925000   0.89700068    -3.994354    650.12842  0.058570128  0.059193728            4 
  926000   0.89442041   -4.0115467    650.74062  0.058561971  0.059162112            3 
  927000   0.89223833   -3.9923469     651.8959  0.058602652  0.059130668            4 
  928000   0.89923681   -3.9781411    651.52193  0.058505921  0.059099277            5 
  929000   0.87772521   -4.0154415    653.54169   0.05862412  0.059067826            4 
  930000   0.87414651   -4.0161571    649.51136  0.058199943   0.05903623            3 
  931000   0.88423349   -4.0216708    653.41613  0.058486943  0.059004545            3 
  932000   0.89230391   -4.0188318    653.46049  0.058428155  0.058973942            3 
  933000   0.86515063   -3.9875106    654.87034  0.058491456  0.058943182            3 
  934000   0.89693414   -3.9882113    655.26705  0.058464226  0.058912691            5 
  935000   0.88044971   -3.9890803    654.81822  0.058361695  0.058882063            3 
  936000   0.86262274   -4.0342913     652.9888  0.058136467  0.058851748            4 
  937000   0.88460286   -4.0239549    654.03905  0.058167828  0.058820487           14 
  938000   0.89186718   -4.0280557    656.16577  0.058294756  0.058789523            5 
  939000   0.90628801   -4.0245154    652.04184  0.057866688   0.05875835            2 
  940000   0.86690141   -4.0063933     655.3183  0.058095594   0.05872709            6 
  941000   0.87612463    -4.020675    656.39224  0.058128962  0.058696235            1 
  942000   0.88399083   -3.9984179    658.28409  0.058234616  0.058665212            5 
  943000   0.87134717   -3.9987982    658.81869  0.058220103  0.058634377            1 
  944000   0.88428082   -4.0349309    657.26489  0.058021265  0.058603365            5 
  945000   0.87525693   -4.0200181    660.66439  0.058259646   0.05857272            7 
  946000   0.87724477   -4.0158531    658.58047  0.058014488  0.058541889            4 
  947000   0.88383631   -3.9960999    660.40473  0.058113757  0.058511578            4 
  948000   0.86860951   -4.0084089    660.93298   0.05809889  0.058481543            3 
  949000   0.88126535   -4.0099888    661.83755  0.058117101  0.058451244            8 
  950000   0.87722968   -4.0080018      660.192  0.057911579   0.05842104            8 
  951000   0.87014583   -4.0252085    659.95147  0.057829606  0.058390373            4 
  952000   0.87461511   -4.0150502    660.35815   0.05780446  0.058359713            8 
  953000   0.88022673    -4.019622    661.89074  0.057877819  0.058329034            2 
  954000   0.87108344    -4.037203     661.1139  0.057749292  0.058298166            6 
  955000   0.87977929   -4.0243801    659.95818  0.057587974  0.058267092            4 
  956000   0.89235197   -3.9956163    662.65478  0.057762794  0.058236188            5 
  957000   0.87722594   -4.0202334    660.89029  0.057548788  0.058205242            4 
  958000   0.87038017   -4.0270904    661.68512  0.057557856  0.058173928            5 
  959000    0.8470536   -4.0309015    662.16605  0.057539629  0.058143085            3 
  960000   0.87577452    -4.034714    663.25858  0.057574529  0.058112142            4 
  961000   0.86775228   -4.0302913    665.77377  0.057732724  0.058081757            3 
  962000   0.87126142    -4.037048     664.6086  0.057571777  0.058051316            4 
  963000   0.86685755   -4.0229274     664.6628  0.057516684  0.058020855            4 
  964000   0.85902373   -4.0134891     667.1894  0.057675432  0.057990289            2 
  965000   0.88235847   -4.0473031    666.14578  0.057525543   0.05795953            5 
  966000   0.87940766   -4.0391927    665.60884  0.057419672  0.057928972            3 
  967000   0.85525444     -3.99404    667.16234  0.057494169  0.057898489            4 
  968000    0.8513623   -4.0527332    663.95314  0.057158501  0.057867763            3 
  969000   0.86516529   -4.0156918    667.86522   0.05743595  0.057837776            3 
  970000   0.86146719   -4.0527377    667.70189  0.057362705  0.057807294            4 
  971000   0.86830333   -4.0332352    668.05066  0.057333562  0.057777174            2 
  972000   0.86411865   -4.0334879    669.08612  0.057363351  0.057747637            4 
  973000    0.8557811   -4.0517615    669.32279  0.057324665   0.05771766            5 
  974000    0.8628391   -4.0017995    671.17678  0.057424433  0.057687951            3 
  975000   0.88307878   -4.0484163    668.33275  0.057122457  0.057658211            6 
  976000   0.86455304   -4.0413869    671.41463  0.057327069  0.057628031            3 
  977000   0.87345519   -4.0107773     670.7647  0.057212956  0.057598533            3 
  978000   0.87839589   -4.0287501    671.28544  0.057198827  0.057568751           19 
  979000   0.86060507   -4.0183539    673.04152  0.057289881  0.057538999            8 
  980000    0.8481748   -4.0097156    673.34975  0.057257632  0.057509081            5 
  981000   0.86775798   -4.0488925    672.77808  0.057150703  0.057479532            5 
  982000   0.87378904   -4.0417891    673.11607  0.057121187  0.057449259            7 
  983000    0.8590988   -4.0679159    672.96379  0.057050169  0.057419042            2 
  984000   0.88039378   -4.0304453    673.30296  0.057020914  0.057389131            3 
  985000   0.86038567   -4.0350293    674.76801  0.057086972  0.057359272            5 
  986000   0.84732783   -3.9999637    674.80736  0.057032401  0.057329321            4 
  987000   0.85562667   -4.0536155    672.55913  0.056784796  0.057298928            3 
  988000   0.84957491   -4.0523906    677.01523  0.057103174  0.057268855            3 
  989000   0.85260285   -4.0603043    673.08317   0.05671412  0.057239096            4 
  990000   0.86115838   -4.0487812    674.90264  0.056809986   0.05720914            5 
  991000   0.84494372   -4.0513287    676.10714  0.056853947  0.057178831            4 
  992000   0.84189779   -4.0761414    676.58211  0.056836535  0.057148719            2 
  993000   0.86979879   -4.0565143     675.9097  0.056722869  0.057118823            3 
  994000   0.86733198   -4.0351826    677.42903  0.056793179  0.057089167            2 
  995000   0.85393193   -4.0501245     677.2876  0.056724255  0.057059392           10 
  996000   0.85148801   -4.0860997    676.31979  0.056586327   0.05702923            4 
  997000   0.85139956   -4.0354523    679.60589  0.056804237  0.056999476            3 
  998000   0.86622937   -4.0423689    681.23996  0.056883764  0.056969977            3 
  999000   0.84707351   -4.0412258    680.53174  0.056767746  0.056940999            3 
 1000000   0.85275894   -4.0436361    680.18279  0.056681899  0.056911763            4 
 1001000   0.84092796   -4.0505291    680.12847  0.056620752  0.056882268            3 
 1002000   0.85146976   -4.0333197    681.61771    0.0566881  0.056852928            6 
 1003000   0.85318581   -4.0180579     682.4418   0.05670005  0.056823526            9 
 1004000    0.8637144   -4.0574145    680.33388  0.056468616  0.056794118            5 
 1005000   0.84858342   -4.0549537    680.65539  0.056439087  0.056764409            3 
 1006000   0.84288482   -4.0567427    681.13191  0.056422457   0.05673474            4 
 1007000   0.83926106   -4.0370488    682.64478  0.056491624   0.05670443            4 
 1008000   0.84191645   -4.0683007    681.75817  0.056362282  0.056674528            3 
 1009000   0.84879848   -4.0790446    681.49571  0.056284747  0.056644406            5 
 1010000   0.83274349   -4.0581929    681.02871  0.056190487  0.056614651            4 
 1011000   0.86555788   -4.0569361    683.05452  0.056301889  0.056584333            6 
 1012000   0.87547386   -4.0458396    682.45663  0.056197021  0.056554325            4 
 1013000   0.85621326   -4.0514831    681.71598  0.056080617  0.056523995            4 
 1014000   0.87520431   -4.0908083    683.52755  0.056174191  0.056493635            4 
 1015000   0.85459082   -4.0759634    683.60594  0.056125282  0.056463454            3 
 1016000   0.84727178   -4.0512571    683.92296  0.056096043  0.056433413            3 
 1017000   0.84006845   -4.0548149    684.97685  0.056127241  0.056403746            6 
 1018000   0.85368048   -4.0826542    683.72469  0.055969605  0.056373935            3 
 1019000   0.84443772   -4.0674085    682.72866  0.055833224  0.056344292            4 
 1020000   0.85090718   -4.0611869    682.87547  0.055790479  0.056314266            5 
 1021000   0.82299019   -4.0793496    687.78147  0.056136261  0.056284806            3 
 1022000   0.85002591   -4.0754776    685.44714  0.055890993  0.056255271            7 
 1023000   0.83375214    -4.064927    686.99643  0.055962564   0.05622523            4 
 1024000   0.82650973   -4.0622699    688.81311  0.056055754  0.056195409            3 
 1025000   0.84281807   -4.0705897    686.54762  0.055816879  0.056165743            4 
 1026000   0.83060794   -4.0644376    685.36591  0.055666497  0.056135829            3 
 1027000   0.84245651   -4.0765863    687.80923  0.055810551  0.056105864            7 
 1028000   0.86377143   -4.0643168    687.31011    0.0557158  0.056075643            3 
 1029000    0.8379823   -4.0855133     686.8723  0.055626199  0.056045882            5 
 1030000   0.80613897   -4.0644336    688.00051  0.055663472  0.056015914            3 
 1031000    0.8571694   -4.0666349    690.90311  0.055844093  0.055986461            6 
 1032000   0.81295287   -4.0776472    690.27646  0.055739378   0.05595669            5 
 1033000   0.82537282   -4.1034947    687.69637   0.05547728  0.055926977            4 
 1034000   0.83636478   -4.0539466    691.26183  0.055710979  0.055897468            7 
 1035000   0.84553122   -4.0853804    687.86547  0.055383693  0.055867599            4 
 1036000   0.83596295   -4.0865146    688.32071  0.055366853  0.055837975            6 
 1037000   0.84025891   -4.0795713    688.08693  0.055294674  0.055808346            5 
 1038000   0.84072422   -4.0918138    692.13005  0.055565997   0.05577881            3 
 1039000   0.81767247   -4.0774917    691.12495  0.055431902  0.055749439            6 
 1040000   0.83593457    -4.070498    694.55964  0.055653817  0.055720173            7 
 1041000   0.83392708   -4.0916908    690.99865  0.055315294  0.055690645            3 
 1042000   0.83627195   -4.0892278    692.60871  0.055390972  0.055661543            4 
 1043000   0.82594342   -4.1112541    692.97002  0.055366732  0.055631827            6 
 1044000   0.83755579   -4.0995366    691.82826  0.055222562  0.055602171            3 
 1045000   0.84341665   -4.1210085     693.4144  0.055296204  0.055572596           10 
 1046000   0.84820177    -4.066567    693.92282  0.055283845  0.055542838            4 
 1047000   0.83448513   -4.0853408    694.00213  0.055237355  0.055513304            6 
 1048000   0.83043262   -4.1125469    694.58022  0.055230615  0.055483414            4 
 1049000   0.83636989   -4.0666416    694.59815  0.055179389  0.055453279            6 
 1050000   0.83939842   -4.0860695    694.28902  0.055102303  0.055423548            4 
 1051000   0.83844016   -4.0675201    695.36042  0.055134825  0.055393436            4 
 1052000   0.83474285   -4.0901611    698.77551   0.05535294  0.055364165            4 
 1053000   0.83792218   -4.1006076     696.7171  0.055137473  0.055334397            3 
 1054000   0.83388557   -4.1140263    694.03871  0.054873395  0.055304816            3 
 1055000   0.82578221    -4.063485    697.21699  0.055072432   0.05527535            6 
 1056000   0.82215656   -4.0598215    694.71603  0.054822919  0.055245536            3 
 1057000   0.83581753   -4.1006103    696.34563  0.054899529  0.055215589            4 
 1058000   0.84081657   -4.0908224    698.21611  0.054994968  0.055185624            4 
 1059000   0.82663376   -4.1303641    695.94436  0.054764271  0.055155438            3 
 1060000    0.8397004   -4.1134323    696.60717  0.054764715  0.055125526            5 
 1061000   0.83683583   -4.0865024    699.57272   0.05494602  0.055095934            4 
 1062000   0.83169532   -4.1174657    700.25712  0.054947985  0.055066336            6 
 1063000   0.81389918   -4.1053181    699.79674  0.054860202  0.055036863            2 
 1064000   0.82052968   -4.0833388    700.38689  0.054854863    0.0550074            5 
 1065000   0.83738098   -4.1030319    698.03405  0.054619252  0.054978141            3 
 1066000   0.80878944   -4.0994331    701.44291  0.054834499  0.054948782            2 
 1067000   0.83946034   -4.1030998    699.03553   0.05459509  0.054919407            5 
 1068000   0.82578549   -4.0958193    700.68267  0.054672493  0.054890113            4 
 1069000   0.81413971   -4.0841801    704.73648  0.054937362  0.054860757            5 
 1070000   0.82416817   -4.1050901     700.7633  0.054576581  0.054831555            3 
 1071000   0.83229033   -4.1250148    698.83402  0.054375507  0.054802466            7 
 1072000   0.82754576   -4.0828855    703.05784  0.054653128  0.054773096            2 
 1073000   0.81665188   -4.1537913    699.36174   0.05431514  0.054743562            2 
 1074000   0.81510828   -4.1042096    702.41424  0.054501415  0.054713793            6 
 1075000   0.83362296   -4.0797686    703.35729  0.054523821  0.054684745           13 
 1076000   0.82022185    -4.138871    703.07147  0.054451012   0.05465545            7 
 1077000   0.81812895   -4.1147552    702.95906  0.054391756  0.054626285            5 
 1078000   0.82309742   -4.1069871    704.37584  0.054450822  0.054597014            5 
 1079000   0.83793245   -4.0803909    705.81304  0.054511356  0.054568089            6 
 1080000   0.81590695   -4.1193258    703.89318  0.054312746  0.054538761            4 
 1081000    0.8211352    -4.117325    704.70313  0.054324941  0.054509187            7 
 1082000   0.79902566   -4.0860476    705.89893   0.05436683  0.054480014            2 
 1083000   0.82849481    -4.092176    707.28939  0.054423622  0.054450782            5 
 1084000   0.81719802   -4.0894817    705.61068  0.054244363  0.054421809            2 
 1085000   0.81817066   -4.1075366    705.44638   0.05418175   0.05439254            4 
 1086000   0.82847904   -4.1095945    707.37486  0.054279839  0.054363233            7 
 1087000   0.81890164   -4.1285956    703.52388  0.053934673  0.054333554            3 
 1088000   0.81920933    -4.101162    708.82529  0.054291153  0.054304502            2 
 1089000   0.81625702   -4.1060086    708.29523  0.054200737  0.054275431            3 
 1090000   0.81372259   -4.1010178    708.92071  0.054198831  0.054246558            9 
 1091000   0.80993544   -4.1118431    708.48992  0.054116248  0.054217695            4 
 1092000    0.8081347   -4.0984897    711.77077  0.054317061  0.054188833            6 
 1093000    0.8156818   -4.1028773    710.79723   0.05419314  0.054160213            5 
 1094000   0.82649885    -4.150611    708.26239  0.053950517  0.054131203            3 
 1095000   0.82891019    -4.137768    708.98904  0.053956548  0.054102048            8 
 1096000   0.83075404   -4.0873777    711.01824  0.054061606  0.054073325            3 
 1097000   0.79833278   -4.1195452    710.94077  0.054006439   0.05404458            5 
 1098000   0.83061554   -4.1347847    707.83383   0.05372145  0.054015536            4 
 1099000    0.7928361    -4.112355    710.75816   0.05389431  0.053986501            3 
 1100000   0.81053802   -4.1204564    709.33269  0.053737325  0.053957436            2 
 1101000   0.81661638   -4.1345881    708.78931  0.053647389  0.053928194            5 
 1102000   0.80346411   -4.1382374    710.48097  0.053726631  0.053899098            4 
 1103000   0.80858444   -4.1177587    710.56905  0.053684576  0.053870051            5 
 1104000   0.80416923   -4.1296703    712.38889  0.053773316  0.053841041            7 
 1105000   0.82875673   -4.1286444    711.13829  0.053630338  0.053811566            4 
 1106000   0.82086764   -4.1018371    710.85031   0.05356015  0.053782567            4 
 1107000   0.80262706   -4.1299123    712.25204  0.053617287   0.05375344            6 
 1108000   0.81211126   -4.1310589    710.65117  0.053448494  0.053724054            6 
 1109000   0.80920557    -4.121618    711.02382    0.0534283  0.053694944            5 
 1110000   0.81972471   -4.1232616    713.96789  0.053601193  0.053666011            6 
 1111000   0.79355096   -4.0975803    712.13891   0.05341576  0.053637032            4 
 1112000   0.80954797    -4.127709    713.81017  0.053492968  0.053608143            2 
 1113000   0.82055226   -4.1454173    714.33182  0.053483963  0.053579401            5 
 1114000   0.82153944   -4.1339513    715.32619  0.053510337  0.053550789            5 
 1115000   0.79773729   -4.1751563    716.73639  0.053567742  0.053522197            5 
 1116000   0.81305629   -4.1445713    715.71359  0.053443369  0.053493372            5 
 1117000   0.79312835   -4.1320151    716.11466  0.053425444  0.053465058            4 
 1118000   0.81039092   -4.1453701    714.74242  0.053275374  0.053436368            6 
 1119000    0.7975555   -4.1167179    717.37915  0.053424125  0.053408015            5 
 1120000   0.81579506   -4.1444853    715.05885  0.053203783  0.053379702            4 
 1121000   0.79541719    -4.142046    717.93842  0.053370385  0.053351245            7 
 1122000   0.81848439   -4.1328615    718.63147  0.053374292  0.053322718            5 
 1123000   0.79865764   -4.1285885     717.4215  0.053236977  0.053294359           21 
 1124000   0.82516412    -4.126921    716.45003  0.053117589  0.053265743            5 
 1125000   0.79167867   -4.0982158    718.64823  0.053233202  0.053237354            8 
 1126000   0.80325786   -4.1386049     716.7905  0.053048439  0.053208751            4 
 1127000   0.81048305   -4.1415876    716.86189  0.053006646  0.053180045            3 
 1128000   0.79204295   -4.1690549    718.77526  0.053101009  0.053151027            3 
 1129000    0.8245061   -4.1308623    716.39662  0.052878404  0.053122267            8 
 1130000   0.81501116   -4.1476584    717.47024  0.052910785  0.053093619            8 
 1131000   0.81973199    -4.149466    718.20714  0.052918298  0.053064835            2 
 1132000    0.7932755    -4.129933    721.76467  0.053133442  0.053036317            6 
 1133000   0.79287066   -4.1344267    720.16112  0.052968603  0.053007865            5 
 1134000   0.80513939   -4.1266469    722.16849  0.053069407  0.052979236            3 
 1135000   0.77759501   -4.1564761    717.87982  0.052707769  0.052950656            5 
 1136000    0.8218791   -4.1432348    720.92035  0.052884416  0.052922059            6 
 1137000   0.80515087   -4.1215306    721.71271  0.052895977   0.05289315            4 
 1138000   0.80315378   -4.1490534    722.64805  0.052917988  0.052864389            3 
 1139000   0.80126777   -4.1577592    720.79864  0.052736219  0.052835241            3 
 1140000   0.78081929   -4.1424554    722.23674  0.052795083  0.052806639            6 
 1141000   0.80253778   -4.1324834    722.89202  0.052796671  0.052778049            8 
 1142000   0.79791181   -4.1433168    718.76383    0.0524492  0.052749322            8 
 1143000   0.80055364   -4.1534218    723.54185  0.052751666  0.052720965            4 
 1144000   0.78919982    -4.152914    721.88115  0.052584583  0.052692389            4 
 1145000   0.81009978   -4.1530778     724.0115  0.052693704  0.052663897            4 
 1146000   0.80557709   -4.1472701     723.0986  0.052581341   0.05263558            3 
 1147000   0.81109313   -4.1832338    722.00275  0.052455881  0.052607043            5 
 1148000     0.787343   -4.1265517    724.36426   0.05258161  0.052578428            8 
 1149000   0.80089568   -4.1653216    723.78966  0.052494173  0.052550021            5 
 1150000   0.80540774   -4.1538211    724.66503  0.052511959   0.05252156            5 
 1151000   0.78862812   -4.1687856    723.71959  0.052397885  0.052492967            4 
 1152000   0.80104427   -4.1706534    724.22278  0.052388801  0.052464264            9 
 1153000   0.78971364   -4.1516976    724.24308  0.052344831  0.052435694            6 
 1154000   0.78325854   -4.1429049    726.18615  0.052439785  0.052407474            7 
 1155000   0.79908286    -4.138682    728.95304  0.052594015  0.052378902            6 
 1156000   0.80978262   -4.1823913    724.65917  0.052238983   0.05235041            4 
 1157000   0.77756903   -4.1550171    726.14855  0.052301106  0.052321941            3 
 1158000   0.78172993   -4.1969582    725.27241  0.052192891  0.052293476            6 
 1159000   0.77917381   -4.1588665    726.95731  0.052269005  0.052264824            6 
 1160000   0.79337837   -4.1446704    726.18672  0.052168586  0.052236357            4 
 1161000   0.77721658   -4.1789954     726.4031  0.052139183  0.052207541            8 
 1162000   0.78534572   -4.1421182    725.62892  0.052038792  0.052178619            8 
 1163000    0.7819614   -4.1562627    728.29166  0.052184842  0.052150205            3 
 1164000   0.79404634   -4.1591291    725.60313  0.051947532  0.052121424            3 
 1165000   0.79409604   -4.1762759    725.31887  0.051882609  0.052092506            4 
 1166000   0.77936777   -4.1576064    727.65188  0.052004851  0.052063601            7 
 1167000   0.77954912   -4.1706199    727.30681  0.051935648  0.052034416            4 
 1168000    0.7913591   -4.1707358    726.25023  0.051815798  0.052005354            4 
 1169000   0.77804102   -4.1575452    728.43262  0.051927047  0.051976318            7 
 1170000   0.78285179   -4.1877114    729.34409  0.051947585  0.051947451            8 
 1171000   0.77731481   -4.1877087    729.49399   0.05191389  0.051918793            3 
 1172000   0.77731712   -4.1716348    730.51238  0.051942007  0.051889882            4 
 1173000   0.79129016   -4.1788856    727.26478  0.051667006   0.05186104            5 
 1174000   0.78857614   -4.1760543      728.993   0.05174567  0.051832488            3 
 1175000   0.79950527   -4.2076669    730.14703  0.051783477  0.051803638            3 
 1176000   0.78316588   -4.1758233    728.74856  0.051640346  0.051774857            5 
 1177000   0.77630725   -4.1621821    731.73241  0.051807732  0.051746351            3 
 1178000   0.78090947   -4.1769093    730.13289    0.0516506  0.051717806            4 
 1179000   0.79000075   -4.1906332    729.07519  0.051532032  0.051689174            5 
 1180000   0.80288191   -4.1549077    732.27538  0.051714363  0.051661007            3 
 1181000   0.78512034   -4.1596977    733.84973  0.051781663  0.051632949            6 
 1182000   0.77593383   -4.1830046    732.56759  0.051647461  0.051604612            3 
 1183000   0.80350777   -4.1547131    733.37189   0.05166046  0.051576521            4 
 1184000   0.78479757   -4.1890939    731.35078  0.051474576  0.051548217            3 
 1185000   0.77917212   -4.1879633    730.58519  0.051377299  0.051520114            5 
 1186000   0.77130483   -4.1850766    733.08418  0.051509569  0.051492029            6 
 1187000   0.77610162   -4.1910727    732.79497   0.05144587  0.051463721            6 
 1188000   0.79181914   -4.1667456    734.79009  0.051542515  0.051435562            5 
 1189000   0.76862056   -4.2002704    733.38699  0.051400826  0.051407068            7 
 1190000   0.77830919   -4.2013807    733.10302  0.051337746  0.051378469            4 
 1191000   0.78122019   -4.1504713    735.80919  0.051483991  0.051350206            4 
 1192000   0.80509473   -4.1864441    734.41922  0.051343625  0.051322021           12 
 1193000   0.79032912   -4.2121992     733.9399  0.051267107  0.051293406           12 
 1194000   0.77434174   -4.1755093    734.41535  0.051257353  0.051264926            4 
 1195000   0.77610325    -4.186038    735.96104  0.051322248  0.051236202           15 
 1196000   0.78329793   -4.2126139    732.76116   0.05105638  0.051207531            3 
 1197000   0.78840954   -4.1839183    734.12669  0.051108792  0.051178607            7 
 1198000   0.77126716   -4.1886858    733.19175  0.051001095  0.051149956            5 
 1199000   0.76367705   -4.1867178    734.03308  0.051017033    0.0511211            8 
 1200000   0.74867288   -4.1997388    733.77269  0.050956437  0.051092396            3 
 1201000   0.77406556   -4.2168108    734.04742  0.050933071  0.051063594            3 
 1202000   0.76577593   -4.2122732    732.33206  0.050771773  0.051034518            4 
 1203000   0.76099963   -4.2012524    734.78688  0.050899618  0.051005412            2 
 1204000    0.7651041   -4.1843905    734.68979  0.050850622  0.050976663            4 
 1205000   0.78539384   -4.1821472    736.11326  0.050906865  0.050947727            2 
 1206000   0.75861361   -4.2223644     735.1946  0.050801175  0.050918641            5 
 1207000   0.77954823   -4.2099544    733.15933  0.050618567   0.05088937            4 
 1208000   0.77220378   -4.2218263    734.18111  0.050647151  0.050860186            4 
 1209000   0.76026339   -4.1933043    735.97449  0.050728873   0.05083085            4 
 1210000   0.78391278   -4.2136206    737.36276  0.050782559  0.050801812            3 
 1211000   0.77012829    -4.208337    735.25899  0.050595857   0.05077309            4 
 1212000   0.75788283   -4.2081254    734.49741  0.050501747  0.050743988            3 
 1213000   0.74371624   -4.2108538    734.85804  0.050484889  0.050714923            4 
 1214000     0.762396   -4.2015752    736.43378  0.050551467  0.050686066            4 
 1215000   0.77158229   -4.2082332    739.15615  0.050696581   0.05065696            4 
 1216000   0.76318795   -4.1919456    738.43625  0.050605555  0.050627818            7 
 1217000   0.76872501   -4.1746793     737.7632  0.050517886  0.050598868            4 
 1218000   0.77928831   -4.2098204    738.17773  0.050504771  0.050569724            9 
 1219000   0.74818201   -4.1818384    737.79979  0.050437502  0.050540545            5 
 1220000   0.75680318   -4.2003646    736.47593  0.050305733   0.05051117            5 
 1221000   0.76110343   -4.2203561    737.93089  0.050363834  0.050481879            5 
 1222000   0.76411459   -4.1855757    738.84482  0.050384944   0.05045276            5 
 1223000   0.75109898   -4.2316349    738.33171  0.050308784  0.050423415            8 
 1224000   0.76711794    -4.223245    737.82725  0.050233337  0.050394266           11 
 1225000   0.76154159   -4.2021027    739.82958  0.050328543  0.050365291            4 
 1226000   0.74344137   -4.2109853    741.13061  0.050375925  0.050336186            8 
 1227000   0.75262698   -4.2352483    738.78354  0.050175464  0.050307034            5 
 1228000   0.76280329   -4.2255408    739.02402  0.050150924  0.050277857            3 
 1229000   0.77491929   -4.2085807    739.48169  0.050141151  0.050249067            5 
 1230000    0.7779442   -4.2111919     740.6025  0.050176321   0.05022012            4 
 1231000    0.7655156   -4.2187509    740.80853  0.050149508  0.050191129            5 
 1232000   0.76049816   -4.2343712    739.56068  0.050024397  0.050162139            6 
 1233000   0.76166282    -4.214398    740.49138  0.050046727  0.050133365            6 
 1234000   0.76088061   -4.2096224    739.84354  0.049962422  0.050104999            3 
 1235000   0.76681134   -4.2113242    741.49642  0.050033497  0.050076456            7 
 1236000   0.75139938   -4.2233243    743.19903  0.050107809  0.050047949           10 
 1237000   0.75107989   -4.2148326     742.7828  0.050039261  0.050019605            4 
 1238000   0.75879846   -4.2186716    743.03855  0.050016057  0.049990849            5 
 1239000   0.75717671   -4.2228754    741.26089  0.049856126  0.049962273            6 
 1240000   0.76392053   -4.2224955    742.44372  0.049895411  0.049933784            5 
 1241000   0.75496563    -4.193129    744.20035  0.049973163  0.049905413            8 
 1242000   0.74802104   -4.2091763    742.25609  0.049802475  0.049876824            4 
 1243000   0.75941408   -4.2144838    744.57463  0.049917849  0.049848365            8 
 1244000   0.76035315   -4.2106378    744.44441  0.049868998  0.049819882            6 
 1245000   0.74757557   -4.2397218      744.838  0.049855288  0.049791663            4 
 1246000   0.74790796    -4.232859    747.03022  0.049961893   0.04976359            5 
 1247000   0.76123976   -4.2185679    745.84619  0.049842702  0.049735551            7 
 1248000   0.77105852   -4.2244911    744.74369  0.049729146  0.049707507            4 
 1249000   0.75167726   -4.2128411     744.1438  0.049649306  0.049679427            5 
 1250000    0.7355605   -4.1977795    744.84888  0.049656592  0.049651103            2 
 1251000   0.76176189   -4.2314343    744.73117  0.049609058  0.049622994            6 
 1252000   0.73521473   -4.1954535    748.24802  0.049803515  0.049594996            3 
 1253000   0.75465508    -4.230287    747.17847  0.049692636  0.049567029            7 
 1254000   0.75087967    -4.223875    746.75911   0.04962514   0.04953883            4 
 1255000   0.74696037   -4.2273622    746.82515  0.049589983  0.049510648            3 
 1256000   0.76170033   -4.2470091    747.96255  0.049625965  0.049482571           11 
 1257000   0.75418198   -4.2409305    747.17534  0.049534298   0.04945412            5 
 1258000   0.76610332   -4.2175367    748.37342  0.049574286  0.049426237            3 
 1259000   0.76664352   -4.2433441     746.6995  0.049424113  0.049398291            6 
 1260000   0.75192393   -4.2324505    748.66826  0.049515097  0.049370184            4 
 1261000   0.75036211   -4.2301604    747.55581  0.049402313  0.049342387           11 
 1262000   0.73966385   -4.2225555    748.15501  0.049402735  0.049314314            4 
 1263000    0.7607046   -4.2371665    748.46447  0.049384037  0.049286041            6 
 1264000   0.73831301   -4.2319571    749.30874  0.049400629  0.049258117            6 
 1265000   0.74856036    -4.233426     752.2691  0.049556594  0.049230328            4 
 1266000    0.7639661   -4.1954187    751.19032   0.04944644  0.049202492            4 
 1267000   0.74147333   -4.2424225    750.96672  0.049392707  0.049174638            6 
 1268000   0.75790999   -4.2592779    750.13679  0.049299211   0.04914688            3 
 1269000    0.7420784   -4.2648436    749.89915  0.049244756  0.049118853            4 
 1270000   0.72740887   -4.2637101     748.3982  0.049107494   0.04909081           13 
 1271000     0.746605    -4.237291    750.44842  0.049203279  0.049062552            3 
 1272000   0.75088852    -4.232856    749.70803  0.049116092  0.049034486           10 
 1273000   0.75111418   -4.2365269    751.37772  0.049186811  0.049006246            3 
 1274000   0.75212542   -4.2475193    749.69893  0.049038391  0.048978319            4 
 1275000   0.74515058   -4.2423682    749.96988  0.049017639   0.04895038            5 
 1276000   0.74967724   -4.2593946    751.76621  0.049096539   0.04892237            6 
 1277000   0.75196322   -4.2363665    748.50468  0.048845254   0.04889458           10 
 1278000   0.73243106   -4.2513295    752.01175  0.049035716  0.048866668            4 
 1279000   0.74406093   -4.2412923    751.92929  0.048992005  0.048838464            5 
 1280000   0.73251168   -4.2520908    751.02736   0.04889501  0.048810416            8 
 1281000   0.73735383   -4.2547105    752.07209  0.048924804  0.048782265           10 
 1282000   0.75776246   -4.2517529    750.58808  0.048790177  0.048753943            5 
 1283000   0.75667278     -4.27992    750.93669  0.048774791  0.048725322            4 
 1284000    0.7292139   -4.2788817    751.27211  0.048758574  0.048696953           10 
 1285000   0.72963401   -4.2888796    751.19745  0.048715788  0.048668687           10 
 1286000   0.74572916   -4.2193485    751.71987  0.048711759  0.048640319            4 
 1287000   0.73970051   -4.2561463    753.53053  0.048791151  0.048612373            4 
 1288000   0.72890651   -4.2306046    753.40095  0.048744886  0.048584451            9 
 1289000   0.74316545    -4.228923    753.58758  0.048719135  0.048556476            6 
 1290000   0.74595646   -4.2664848    752.59943  0.048617534  0.048528547            3 
 1291000   0.74082865   -4.2818432    752.73269  0.048588477  0.048500588            8 
 1292000   0.73172182   -4.2643639    752.81214  0.048555995  0.048472998            7 
 1293000   0.76018848   -4.2561143    755.15804  0.048669634  0.048445255            5 
 1294000    0.7302437   -4.2478496    754.76684  0.048606829  0.048417496            8 
 1295000   0.73181288   -4.2250072    754.78526   0.04857048  0.048389986            8 
 1296000   0.73946534   -4.2773451    753.25376  0.048434527  0.048362192            5 
 1297000   0.73403996   -4.2868916    753.78653  0.048431414   0.04833438            6 
 1298000   0.73249584    -4.265917    755.44616  0.048500652  0.048306455            4 
 1299000   0.73071209   -4.2562028    754.41107  0.048396913  0.048278859            9 
 1300000   0.74730819   -4.2572903    755.69303  0.048441861  0.048251077            5 
 1301000   0.73605304   -4.3056797    754.30432  0.048315675  0.048223537           13 
 1302000   0.73495733   -4.2728185    755.73989  0.048370449  0.048195912            6 
 1303000   0.73473046   -4.2802415     756.8494  0.048404285  0.048168347            7 
 1304000   0.73510221   -4.2604911     755.8437  0.048302895  0.048140742            5 
 1305000   0.73192442    -4.236169    758.14048  0.048412546  0.048113273            5 
 1306000   0.74492126   -4.2618927    758.65595  0.048408368  0.048085953            5 
 1307000   0.74104494   -4.2598772    756.27451  0.048219492  0.048058498            6 
 1308000   0.73012117   -4.2730359    756.59506  0.048203049   0.04803085            5 
 1309000   0.73983093   -4.2690643    756.66451  0.048170646  0.048003283           14 
 1310000   0.70462902   -4.2926399    756.38089  0.048115832  0.047975642            8 
 1311000   0.73815425   -4.2765771    758.15369  0.048191819  0.047948073           11 
 1312000   0.71338563    -4.264024    756.70649  0.048063166  0.047920471            4 
 1313000   0.72378193   -4.2807982    757.63367  0.048085407  0.047892939            8 
 1314000    0.7466895   -4.2700499    755.71718  0.047927269  0.047865418            9 
 1315000   0.73298948    -4.268847    757.65918   0.04801389  0.047837616            5 
 1316000   0.72044797   -4.2777616    756.71482  0.047917605  0.047809884           23 
 1317000   0.72412236   -4.2706058    758.82441  0.048014706  0.047782358           12 
 1318000   0.72785656   -4.3010394    758.18298   0.04793772  0.047754638            5 
 1319000   0.72010211   -4.2782578    760.75578  0.048063923  0.047726916            5 
 1320000   0.73563003   -4.2792006    758.54301  0.047887817  0.047699061            8 
 1321000   0.73037194   -4.2986234    757.15688  0.047764123  0.047671236            4 
 1322000   0.73729511   -4.2852922     759.1943  0.047856423  0.047643454            9 
 1323000   0.73095381   -4.2944562    759.58012  0.047844553  0.047615838           10 
 1324000   0.72115825   -4.3031554    759.97021  0.047832969  0.047588136            3 
 1325000   0.72711868   -4.2952936    759.19646  0.047748205  0.047560469            9 
 1326000   0.72252096   -4.2927472    761.87643   0.04788062  0.047533057            7 
 1327000   0.73742693   -4.2924755    761.08084  0.047794577  0.047505742            3 
 1328000   0.72614697   -4.2923093    760.92973  0.047749104  0.047478427           11 
 1329000   0.73198034    -4.289556    761.66199  0.047759091  0.047450993            7 
 1330000   0.73196153   -4.2822246    760.44962  0.047647219  0.047423565            5 
 1331000    0.7257211   -4.2761935    760.57353  0.047619179  0.047396259            5 
 1332000   0.72204556   -4.2712822    761.27951  0.047627597   0.04736898            6 
 1333000   0.71056432   -4.2678693    763.70471   0.04774348   0.04734187            4 
 1334000   0.71367129   -4.3089188    763.54243  0.047697553  0.047314867            4 
 1335000   0.72230923   -4.2783082    763.86336  0.047681858  0.047287801            3 
 1336000   0.72369143   -4.2975512    762.89956   0.04758605  0.047260842           11 
 1337000   0.73070723   -4.2868732    762.50363  0.047525781  0.047233855            8 
 1338000   0.72384523   -4.2898458    763.85485  0.047574418  0.047207012            4 
 1339000   0.70983753   -4.2923364    764.87749  0.047602532  0.047180207            7 
 1340000   0.71775258   -4.3220869    763.70167  0.047493885  0.047153505            8 
 1341000   0.72618168   -4.2897477    767.76863    0.0477112  0.047126705            8 
 1342000   0.72755896   -4.2895061     765.2755  0.047520833  0.047100097            5 
 1343000   0.72540648    -4.310661    762.77668  0.047330397  0.047073347            2 
 1344000   0.72755183   -4.3202829     764.3282  0.047391381  0.047046363            6 
 1345000   0.69886567   -4.3098583    764.10571  0.047342361  0.047019155            6 
 1346000   0.72218016   -4.3014215    765.53116  0.047395441  0.046992093            3 
 1347000   0.70983873    -4.305773    765.86433  0.047380866  0.046965178            5 
 1348000   0.71854214   -4.3128921    762.04421  0.047109558  0.046937894            3 
 1349000   0.70830109   -4.3099105    765.13747  0.047265719  0.046910879           11 
 1350000   0.71914081   -4.3215935    762.27035  0.047053725  0.046883591            9 
 1351000   0.71383693   -4.2981574    762.92838  0.047059485  0.046856248            3 
 1352000   0.70799203   -4.3220971     765.1043  0.047158796  0.046828992            8 
 1353000   0.71379762    -4.324776    761.91912  0.046927761    0.0468017           21 
 1354000   0.70844466   -4.3136819    761.89431  0.046891575  0.046774258           11 
 1355000   0.71289803   -4.2975854    765.21145  0.047060975  0.046747148            6 
 1356000   0.69699538   -4.2886104    766.56859  0.047109673  0.046719922            4 
 1357000   0.70923756   -4.3101183    765.36817  0.047001238    0.0466927            5 
 1358000   0.70580639   -4.3238472    765.81267  0.046993905   0.04666541            5 
 1359000   0.69759358   -4.3256183    763.72607  0.046831375  0.046638258            4 
 1360000   0.71257806   -4.3368274    765.92846  0.046931891  0.046611205            4 
 1361000   0.70817199   -4.2985257    767.76731      0.04701  0.046584173            6 
 1362000   0.70223035   -4.3009694    768.53808  0.047022643  0.046557243           11 
 1363000   0.72796529    -4.329546     767.1012  0.046900294   0.04653022            4 
 1364000   0.72799287   -4.3036543    767.10655  0.046866236  0.046503236            9 
 1365000   0.70878586   -4.3080344    766.27249  0.046780982  0.046476269            7 
 1366000   0.70182439     -4.33305    765.60609  0.046706082  0.046449282            6 
 1367000   0.70278014   -4.3253719    768.11937  0.046825126  0.046422262           11 
 1368000   0.70728476   -4.3226228    765.95514  0.046659061  0.046395269            5 
 1369000   0.70122854   -4.3309039    767.51039  0.046719649  0.046368233           11 
 1370000   0.69022028   -4.3343699     766.6573  0.046633656  0.046341111            3 
 1371000   0.69732324    -4.320669     766.6478  0.046599064  0.046314128           10 
 1372000   0.70207256   -4.2953955    769.50901  0.046738885  0.046287275            5 
 1373000   0.68870346   -4.3485734    768.02752  0.046614926  0.046260386           10 
 1374000   0.68895988   -4.3002625    768.64293  0.046618324  0.046233508           11 
 1375000   0.70685736   -4.3291832     766.3779  0.046447145  0.046206334           10 
 1376000   0.69839685   -4.3228997    769.32663  0.046591971  0.046179301            7 
 1377000   0.69436834   -4.2983009     769.8244  0.046588259  0.046152452            5 
 1378000   0.70627956   -4.3359547    768.25528  0.046459559  0.046125582            7 
 1379000   0.69694734   -4.3361563    769.22618   0.04648454  0.046098657            8 
 1380000   0.70928022   -4.2822202    770.92496   0.04655344  0.046072104           16 
 1381000   0.68732952   -4.3123182     770.0785  0.046468652  0.046045502            5 
 1382000    0.7116565    -4.331775    768.18457  0.046320825  0.046018717            6 
 1383000   0.70492618   -4.3297761    769.64766  0.046375492   0.04599173            8 
 1384000   0.69470103   -4.3250832    769.85891  0.046354703  0.045964784            7 
 1385000   0.70468382   -4.3331554    770.71623  0.046372818  0.045937898            7 
 1386000   0.70030161   -4.3547397     766.2929  0.046073407  0.045910949            6 
 1387000    0.6931917   -4.3374532    769.74362  0.046247514  0.045884082           11 
 1388000   0.70116627   -4.3179036      771.209  0.046302174  0.045857224           12 
 1389000   0.71074854    -4.345294    770.60825  0.046232797  0.045830425           11 
 1390000   0.69600304    -4.307769    771.33321  0.046242998  0.045803632           12 
 1391000   0.71281593    -4.351724    770.10898  0.046136411  0.045776923            5 
 1392000   0.70111637   -4.3203633    773.30937  0.046294862  0.045750384            4 
 1393000   0.69069612   -4.3396881    771.93256  0.046179263  0.045723674            6 
 1394000   0.69783174   -4.3247849    774.38176  0.046292549  0.045697238            6 
 1395000   0.68430223   -4.3352314    773.18083  0.046187624  0.045670785            9 
 1396000   0.69147511   -4.3499102     772.1569  0.046093416  0.045644323            7 
 1397000    0.7007621    -4.327143     772.0661  0.046055005  0.045617543            7 
 1398000   0.69614154   -4.3508866    771.33384  0.045978412  0.045590781            9 
 1399000   0.69810867   -4.3645323    772.48326  0.046014014  0.045564154            6 
 1400000   0.70924704   -4.3443814    772.15557  0.045961641  0.045537653            3 
 1401000   0.69243927   -4.3372241    775.88995  0.046150961  0.045511148            4 
 1402000   0.68313976   -4.3593451    771.24867   0.04584217  0.045484713           11 
 1403000    0.7169006    -4.349703    770.87645  0.045787387  0.045458135            3 
 1404000   0.69665303   -4.3581925    773.72938  0.045924109  0.045431667            4 
 1405000   0.68668132   -4.3481856    772.38533  0.045811704  0.045405219           16 
 1406000   0.69060833   -4.3450824    773.03034  0.045817351  0.045378433            5 
 1407000   0.69712361   -4.3166487    772.73259  0.045767151  0.045351737            5 
 1408000   0.69173574   -4.3269764     770.7175  0.045615382  0.045324972            3 
 1409000   0.69286712   -4.3497216      772.246  0.045673409  0.045298376            5 
 1410000    0.6793064   -4.3173734    775.31507  0.045822404  0.045271785            4 
 1411000    0.6737194   -4.3560803    772.60449  0.045629843   0.04524534            8 
 1412000   0.68285696   -4.3350968    771.67811  0.045542853  0.045218454           17 
 1413000   0.67393506   -4.3526083    772.80821  0.045577271  0.045191712            5 
 1414000     0.677944   -4.3416869    772.73449  0.045540694  0.045164987            3 
 1415000   0.69366378   -4.3476286    771.58959  0.045441083  0.045137978            8 
 1416000   0.69600244   -4.3663898    773.16785  0.045501874  0.045111091            8 
 1417000   0.66810207   -4.3249445    776.23081  0.045649895  0.045084403            7 
 1418000   0.69938921   -4.3341261    769.89644  0.045245442  0.045057661           12 
 1419000   0.68149053   -4.3558982    774.32716  0.045473759  0.045031003           11 
 1420000   0.68871781    -4.344128    773.45167  0.045390356   0.04500415            5 
 1421000   0.68070514   -4.3575048    773.84343  0.045381388  0.044977182            9 
 1422000   0.68963248   -4.3501157    771.04272  0.045185345  0.044950148            4 
 1423000   0.68286307   -4.3466262    773.52975  0.045299236  0.044923387            7 
 1424000   0.68753674   -4.3503036    775.51921  0.045383849   0.04489665            7 
 1425000   0.69274724   -4.3453146    774.88862  0.045315124  0.044869903            8 
 1426000    0.6766157   -4.3633252    775.18292  0.045300545  0.044843231            4 
 1427000   0.67367689    -4.330794    775.88651  0.045309887  0.044816504            6 
 1428000   0.67394797   -4.3495767    772.05365  0.045054485  0.044789814            6 
 1429000   0.70199065   -4.3599599    775.15433  0.045203775  0.044762921            5 
 1430000   0.68149544   -4.3600372    773.75303  0.045090503  0.044736256           12 
 1431000   0.67641683   -4.3594152    775.09808  0.045137321  0.044709466            6 
 1432000   0.68580849   -4.3472707    774.19986   0.04505353  0.044682733            7 
 1433000   0.69902715   -4.3726457    773.99751  0.045010322  0.044655981            9 
 1434000   0.67983124   -4.3532621    774.61733  0.045014954  0.044629272            6 
 1435000   0.68881528    -4.348311     776.1397  0.045071992  0.044602539            7 
 1436000   0.67759289   -4.3851272    772.54669  0.044832097  0.044575755           10 
 1437000   0.67168325   -4.3592546    776.92332  0.045054704  0.044548922            7 
 1438000   0.68158137   -4.3626625    774.72233  0.044895824  0.044522144           14 
 1439000    0.6756296   -4.3795944    774.89071  0.044874375  0.044495549            5 
 1440000   0.67172631   -4.3419711    775.31448  0.044867736  0.044469048            6 
 1441000   0.67776346   -4.3517854    776.84114  0.044924887  0.044442475            7 
 1442000   0.66470903   -4.3829389    776.68107  0.044884481  0.044415999            7 
 1443000   0.67356682    -4.359008    779.09629  0.044992856  0.044389488            6 
 1444000   0.67826884   -4.3950928    774.74624  0.044710655  0.044363045           14 
 1445000   0.65515631   -4.3914299    777.02973  0.044811403  0.044336406           10 
 1446000   0.66884807   -4.3928401    775.84717  0.044712262  0.044309885            8 
 1447000   0.68109533   -4.3672169    777.17094  0.044757599  0.044283385           10 
 1448000   0.68238941   -4.3939446    776.18986  0.044670227  0.044256815           12 
 1449000   0.67822531   -4.3807672    778.33955  0.044763029  0.044230328            6 
 1450000   0.67510085   -4.3997944    774.61111   0.04451788   0.04420368            4 
 1451000   0.69483898   -4.3691795    778.66021  0.044719745  0.044177144           10 
 1452000    0.6762538   -4.3904875    778.38046  0.044672892  0.044150596            7 
 1453000   0.66218238   -4.3767032    778.58748   0.04465402  0.044124221            4 
 1454000   0.66491651   -4.3952936    777.63111  0.044568495  0.044097869            8 
 1455000   0.67036273   -4.3830847    776.54643   0.04447574  0.044071547           20 
 1456000   0.66828227   -4.3977595    776.15512  0.044422798  0.044045041           19 
 1457000   0.66954376   -4.3770917     778.3631  0.044518594  0.044018448            9 
 1458000   0.65592194   -4.3792989    778.17426  0.044477267  0.043991967            7 
 1459000   0.66911121   -4.3724552    778.47324  0.044463859  0.043965694            8 
 1460000    0.6814446   -4.3894838    777.78368  0.044394046    0.0439393            6 
 1461000    0.6628485   -4.3668861    779.46934  0.044459807  0.043912991            7 
 1462000   0.66535473   -4.3880544    776.73158  0.044273346  0.043886778            5 
 1463000   0.67947662   -4.3804696    780.25632  0.044443855  0.043860607            9 
 1464000   0.66310661   -4.3820568    779.83847  0.044389712  0.043834518            5 
 1465000   0.66436346   -4.3808373    780.60062  0.044402766  0.043808313           12 
 1466000   0.67016768   -4.3806828    777.98168  0.044223606  0.043782223           14 
 1467000   0.64957561   -4.3817222    779.73149  0.044292859  0.043756144            7 
 1468000   0.67111417   -4.4095058    777.53403  0.044137944      0.04373            6 
 1469000   0.65012117   -4.3838086    780.45585  0.044273647  0.043703847            3 
 1470000   0.64579054   -4.3594397    781.98129  0.044330005  0.043677924            6 
 1471000   0.68291307   -4.3884123    781.01634  0.044245204  0.043651996           16 
 1472000    0.6552091   -4.4071469    780.67034  0.044195558  0.043626108           11 
 1473000   0.67184755   -4.3955363    780.21002  0.044139512   0.04360001           10 
 1474000   0.66792313   -4.4248011    780.91609  0.044149485  0.043574041           10 
 1475000   0.65506456    -4.393365    779.78947  0.044055902  0.043548005           14 
 1476000   0.65849255   -4.4120506    781.55036  0.044125472  0.043522017            7 
 1477000   0.65774048   -4.3995639    782.35396  0.044140936  0.043496147            8 
 1478000    0.6660425   -4.3885408    782.73301  0.044132443  0.043470287           10 
 1479000   0.66536591   -4.3926808    779.98622  0.043947837  0.043444505            5 
 1480000   0.65670191   -4.3963878    780.94887  0.043972347  0.043418768            6 
 1481000   0.67761134    -4.407627    783.51245  0.044086904  0.043392995            8 
 1482000   0.66065543   -4.4187435    782.00913  0.043972623  0.043367321            7 
 1483000   0.65315692   -4.4013766     785.9688  0.044165475  0.043341663            4 
 1484000   0.64645817   -4.3949244    783.57973  0.044001557  0.043316318            4 
 1485000   0.65830249     -4.40824    783.13241  0.043946824  0.043291048            7 
 1486000   0.66546129   -4.3937271    783.94548  0.043962847  0.043265693           15 
 1487000   0.66528767   -4.4133427    782.34062  0.043843343  0.043240316            6 
 1488000    0.6644024   -4.4163232    784.87954  0.043956067  0.043214824            6 
 1489000   0.66130267   -4.4214663    782.40821  0.043788236  0.043189387           12 
 1490000   0.64658593   -4.4155762    785.36872  0.043924425  0.043163942           13 
 1491000   0.66063663   -4.4044195    784.90321  0.043868947  0.043138642           24 
 1492000   0.65576136    -4.422555     785.0374   0.04384704  0.043113069            7 
 1493000   0.66654447   -4.4276315    784.57343  0.043791774  0.043087567            5 
 1494000   0.65385727   -4.4078301    783.54384  0.043705033  0.043062131            8 
 1495000   0.65821456   -4.3910676    787.72569  0.043908901  0.043036717            6 
 1496000   0.63399187   -4.3968666    785.76968  0.043770592  0.043011324            9 
 1497000   0.66032661   -4.4007586    786.22708  0.043766816  0.042986132           11 
 1498000   0.65328348   -4.4011194    786.44833  0.043749907  0.042960919           12 
 1499000   0.65207524   -4.4180056    784.04394  0.043587055  0.042935636            8 
 1500000   0.64206299   -4.4200047    786.16965  0.043676092   0.04291034           10 
 1501000   0.66073908   -4.4296281    783.20709  0.043482517  0.042884919           10 
 1502000   0.65615587   -4.4297169    784.51378  0.043526064  0.042859492            6 
 1503000    0.6654343   -4.4333265    785.90615  0.043574304  0.042834107            7 
 1504000   0.65595048   -4.4103413     786.6256  0.043585195  0.042808837           12 
 1505000   0.66756093   -4.4148105      786.541   0.04355155  0.042783675           13 
 1506000    0.6388993   -4.4150878    784.93748  0.043433902  0.042758492            8 
 1507000   0.65535298   -4.4281671     785.9182  0.043459312  0.042733302            8 
 1508000   0.65155456   -4.4126251    788.00066  0.043545572  0.042708037           10 
 1509000   0.64277228   -4.4271558    788.04191  0.043518992  0.042683024            4 
 1510000   0.63616472   -4.4235109    787.33975  0.043451421  0.042657946            8 
 1511000   0.66861565   -4.4135274    788.20883  0.043470595  0.042632731           16 
 1512000   0.63822186   -4.4493259    786.35249  0.043339533  0.042607616           13 
 1513000   0.64501066   -4.4384618    785.95419  0.043288951  0.042582264            8 
 1514000   0.64626033    -4.413248    788.17774  0.043382746  0.042557194            9 
 1515000   0.65041571   -4.4191941    785.11189  0.043185473   0.04253219           10 
 1516000   0.63043067   -4.4406938    788.40109  0.043337791  0.042507175            7 
 1517000    0.6407815   -4.4108454    787.03887  0.043234392  0.042482111            8 
 1518000   0.64953345   -4.4237739    788.96814  0.043311822  0.042457058            5 
 1519000   0.63964715   -4.4352772    787.03933  0.043177493  0.042431992           11 
 1520000   0.64503055   -4.4342291    788.09099  0.043206743   0.04240678            8 
 1521000   0.65053628   -4.4209651    789.89901  0.043277395  0.042381656            6 
 1522000   0.64010982   -4.4084041    787.49238  0.043117191  0.042356571            7 
 1523000     0.633156    -4.448194    787.61672  0.043095684  0.042331503            7 
 1524000   0.65197648   -4.4151639     787.5535  0.043063949  0.042306392           13 
 1525000   0.65459427   -4.4096015    788.91187  0.043109938  0.042281419            4 
 1526000   0.64191396    -4.463488    789.09021  0.043091427   0.04225643            5 
 1527000   0.64703492   -4.4725481    786.18326  0.042904566  0.042231281            5 
 1528000   0.64428377   -4.4353983    790.48588  0.043111141   0.04220628           11 
 1529000   0.66063069   -4.4338662    790.18099  0.043066328  0.042181398            7 
 1530000    0.6437494   -4.4418586     790.6557  0.043064036  0.042156249            7 
 1531000    0.6535703   -4.4260563     787.9234  0.042887187   0.04213123            7 
 1532000   0.63858821   -4.4180953    788.26329  0.042877681  0.042106213            6 
 1533000   0.65202271   -4.4361436    787.26972  0.042795701  0.042081118           12 
 1534000   0.63719875   -4.4505294    788.52053  0.042835752  0.042056033           17 
 1535000   0.63975744   -4.4493949    787.69919  0.042763257  0.042031009            6 
 1536000   0.65136749    -4.452041    787.70114  0.042735522  0.042005821            8 
 1537000   0.63931757   -4.4506101    790.60056  0.042864918  0.041980786            7 
 1538000   0.61947076   -4.4314871    788.74399  0.042736453  0.041955866            6 
 1539000   0.62238196   -4.4350896     789.8655  0.042769412  0.041931007           11 
 1540000   0.63521051   -4.4465932    788.87205  0.042687882  0.041906113           12 
 1541000   0.64127929   -4.4364927    787.67838   0.04259563  0.041881119            7 
 1542000    0.6550879   -4.4424677     789.3449  0.042658069  0.041856265           12 
 1543000   0.62995501   -4.4568437    788.62875  0.042591745  0.041831454            8 
 1544000   0.63116004   -4.4439833    791.09428   0.04269723  0.041806639            9 
 1545000   0.64510949   -4.4376179    789.92528  0.042606542  0.041781695           12 
 1546000   0.64983783    -4.454356    789.18045  0.042538834  0.041756818            7 
 1547000   0.63874193   -4.4455627    787.93359  0.042444171  0.041731823           11 
 1548000   0.63906882   -4.4697769    790.86375  0.042574491  0.041706803            8 
 1549000   0.64958513    -4.466354    788.23627  0.042405652  0.041681726            4 
 1550000   0.63192966   -4.4477127    786.69407   0.04229538  0.041656493           18 
 1551000   0.64320874   -4.4374796    790.60139  0.042478046  0.041631405           14 
 1552000   0.63650527   -4.4535289    791.35089   0.04249092  0.041606379            9 
 1553000   0.63622932   -4.4634638    787.51094  0.042257509  0.041581381            5 
 1554000   0.63994071   -4.4627618    789.10232  0.042315654  0.041556281            7 
 1555000   0.62313683   -4.4709943    789.17843   0.04229252   0.04153124           10 
 1556000   0.63841994   -4.4702554    789.42676  0.042278639  0.041506213           14 
 1557000   0.64272788   -4.4387779    789.29154  0.042244248  0.041481188            7 
 1558000   0.61966546   -4.4604646    790.33019  0.042272689  0.041456194           14 
 1559000   0.62816971   -4.4551747    789.71855  0.042212879  0.041431316            7 
 1560000   0.64098969   -4.4692684    788.83543  0.042138645  0.041406518            7 
 1561000   0.61979118   -4.4771929    789.97479  0.042172474  0.041381492            4 
 1562000   0.63219789   -4.4576725    791.71302  0.042238211   0.04135661           19 
 1563000    0.6222437   -4.4771378    789.58033   0.04209748  0.041331694            8 
 1564000   0.64062528   -4.4658392    791.16234  0.042154856  0.041306767           11 
 1565000   0.63516831   -4.4511997    790.58869  0.042097375  0.041281988            6 
 1566000   0.62279168    -4.452721    792.02537  0.042146944  0.041257386            7 
 1567000   0.63290794   -4.4664337    792.50384  0.042145493   0.04123275            6 
 1568000   0.63730736   -4.4749377    791.37684  0.042058718  0.041207939            9 
 1569000   0.62949613   -4.4715885    791.56821  0.042042076  0.041183223            6 
 1570000   0.62191217   -4.4657278     791.4888  0.042011083  0.041158466            7 
 1571000   0.63096336   -4.4601091    793.63049  0.042097947  0.041133845            8 
 1572000   0.62519079   -4.4679862    791.83087  0.041975767  0.041109282           10 
 1573000   0.62694555   -4.4579313    792.89176  0.042005285  0.041084742            6 
 1574000   0.62347613   -4.4699439    791.40567  0.041899919  0.041060169           10 
 1575000   0.62000235   -4.4596901    792.31264  0.041921304  0.041035566           29 
 1576000     0.623321   -4.4797847    791.90912  0.041873367  0.041011013           13 
 1577000   0.63116383   -4.4860319    791.84659  0.041843511    0.0409864            8 
 1578000    0.6353801   -4.4659233    792.36322  0.041844276  0.040961785            7 
 1579000   0.62945086    -4.490663    791.42908  0.041768476  0.040937329           10 
 1580000   0.62520549    -4.482434    792.52962  0.041800086  0.040912856           12 
 1581000   0.61484668   -4.4770832    792.62895  0.041778882   0.04088849            9 
 1582000   0.62798307   -4.4828314    794.72643   0.04186296  0.040864148            9 
 1583000   0.61933852   -4.4699829    794.94939  0.041848252    0.0408397            7 
 1584000    0.6150826   -4.4734556    793.80447  0.041761599  0.040815393           23 
 1585000   0.62513301   -4.4742928     793.3576  0.041711756  0.040790954           17 
 1586000   0.62622621   -4.4726459    794.58427  0.041749909  0.040766621            5 
 1587000     0.625417   -4.4818599    792.87651  0.041633927  0.040742322            7 
 1588000   0.62368756   -4.4931736    794.83721  0.041710601  0.040718182           10 
 1589000   0.61340371   -4.4768433    794.08963  0.041645145  0.040694068            9 
 1590000    0.6150172   -4.4676559    793.14167   0.04156927  0.040669675            8 
 1591000   0.62411996   -4.4752859    794.02477  0.041589397  0.040645343            9 
 1592000   0.60931053   -4.4935522    792.43594  0.041480105  0.040620897            9 
 1593000   0.60956345   -4.4637966    794.77404  0.041576378  0.040596528            9 
 1594000   0.63421281   -4.4842686     794.2827  0.041524608  0.040572361            9 
 1595000   0.61596274   -4.4973438     796.4953  0.041614175  0.040548162           20 
 1596000   0.63488874   -4.4808705    794.11549  0.041463841  0.040523926           14 
 1597000   0.63312751    -4.484785    796.32806  0.041553332  0.040499872            7 
 1598000   0.61063682    -4.488107     795.5744  0.041488027  0.040475842           28 
 1599000   0.61326931   -4.4843902    795.00479  0.041432395  0.040451942            7 
 1600000   0.60820152   -4.4838542    795.85815  0.041450945  0.040427884            8 
 1601000   0.62161204   -4.4968749    793.45668  0.041300056  0.040403635           13 
 1602000    0.6063543   -4.5039958    796.82511  0.041449496  0.040379444           17 
 1603000   0.61136548   -4.4926949    795.81954  0.041371363  0.040355254           11 
 1604000   0.61412529   -4.5038712     792.6692  0.041181899  0.040331035           19 
 1605000   0.61254593   -4.4839059    796.20365  0.041339753  0.040306821           13 
 1606000   0.60995276   -4.4951877    796.41283  0.041324866   0.04028269           18 
 1607000   0.61405235   -4.4930988    797.03952  0.041331649  0.040258687            7 
 1608000   0.61455403   -4.5142827    796.09407  0.041256948  0.040234597           12 
 1609000   0.62353942   -4.5055202    796.54067  0.041254437  0.040210456            7 
 1610000   0.59977166   -4.5085101    793.63556  0.041078445  0.040186372           10 
 1611000   0.62403891   -4.5000746     795.6181  0.041155499  0.040162259            5 
 1612000   0.59602676   -4.4992081    795.81194  0.041139989  0.040138306           25 
 1613000   0.60348559   -4.5193219    794.56685  0.041050157  0.040114172            7 
 1614000   0.60703643    -4.514082    794.04876  0.040997974  0.040089949           11 
 1615000   0.60381234   -4.5024697    797.24536  0.041137532  0.040065777           14 
 1616000   0.60692872   -4.5028814    794.90018   0.04099114  0.040041697           14 
 1617000   0.59810413   -4.4978776    797.90768  0.041120783  0.040017611            6 
 1618000   0.62141697   -4.4801948    797.98974  0.041099595  0.039993739            6 
 1619000   0.60404709   -4.4780072    795.75661  0.040959266  0.039969896           13 
 1620000   0.60516417   -4.5253457    797.23069  0.041009809  0.039946038            8 
 1621000   0.60824609    -4.520261    798.61346  0.041055597   0.03992223           17 
 1622000   0.61425104   -4.4976604    795.27936  0.040858989  0.039898257            7 
 1623000   0.61281281   -4.5103339    796.49718  0.040896343  0.039874166            7 
 1624000   0.61136393     -4.53259    794.35524   0.04076125  0.039850103            7 
 1625000   0.59569941   -4.4977712    796.83983  0.040863581  0.039826141           13 
 1626000    0.6085606   -4.5205908    796.25281  0.040808364  0.039802198           12 
 1627000   0.61582018   -4.5280275    795.77666  0.040758895  0.039778085           10 
 1628000   0.60356004   -4.5235346    797.21664  0.040807567  0.039754104           14 
 1629000   0.59895948   -4.5182724      796.037  0.040722171   0.03973011           17 
 1630000   0.59649374   -4.5142623    796.92286  0.040742478  0.039706263            8 
 1631000   0.60485565   -4.5167593    797.62574   0.04075341  0.039682409           19 
 1632000   0.61778187   -4.5235989    797.09402  0.040701288  0.039658508           14 
 1633000   0.59775659   -4.5112744    797.06692  0.040674981  0.039634595           10 
 1634000   0.58562904   -4.5488058    796.60815   0.04062669  0.039610594            5 
 1635000    0.5843481   -4.5461309    796.31333  0.040586816  0.039586538            5 
 1636000   0.60371069   -4.5280933    799.22461    0.0407103  0.039562674           11 
 1637000   0.58216286   -4.5138493    798.71502   0.04065949  0.039538931           18 
 1638000   0.60249386   -4.5431154    799.54179  0.040676729  0.039515234           11 
 1639000   0.59939055   -4.5496608    797.85805  0.040566303   0.03949148           16 
 1640000   0.60079457   -4.5292148    797.26629  0.040511498  0.039467711           37 
 1641000   0.60080848   -4.5211391    796.35481  0.040440525  0.039444054           10 
 1642000   0.60267187   -4.5370524    799.11554  0.040556006  0.039420291            9 
 1643000   0.59704615   -4.5509615    798.05071  0.040477313  0.039396528            9 
 1644000   0.60973094   -4.5405535    798.66789  0.040483976  0.039372714           11 
 1645000   0.59787181   -4.5350346    798.27331  0.040439377  0.039348942           24 
 1646000   0.59047941   -4.5305521     796.9076  0.040345666  0.039325191           12 
 1647000   0.59681363   -4.5503262     796.4945  0.040300268   0.03930143           10 
 1648000   0.59573852   -4.5150154    798.70441  0.040387561  0.039277602            6 
 1649000   0.59581964   -4.5520612    798.03289  0.040329133  0.039253897           21 
 1650000   0.60952654   -4.5233615    801.14533  0.040461885  0.039230273           16 
 1651000   0.59406619   -4.5151269    799.48753  0.040353701  0.039206634           13 
 1652000   0.60862518   -4.5227542    798.43864  0.040276364  0.039183055           16 
 1653000   0.59725304   -4.5271704    798.76606  0.040268505  0.039159402            9 
 1654000   0.59042704   -4.5451099    798.05085  0.040208124  0.039135627           30 
 1655000   0.58235349   -4.5441618    799.19351  0.040241365  0.039111885            6 
 1656000   0.59671306   -4.5288987    797.48634  0.040131156  0.039088237           11 
 1657000   0.59424641   -4.5319425    798.95709  0.040180904  0.039064621           14 
 1658000   0.58445037   -4.5386744    798.46862  0.040132118  0.039041038           19 
 1659000   0.58268628   -4.5458042    798.55269   0.04011215  0.039017408            7 
 1660000   0.60332744   -4.5343839    797.39485  0.040029862  0.038993767            8 
 1661000   0.60127696    -4.553585    797.85423   0.04002881   0.03897011           12 
 1662000   0.59329192   -4.5417098    798.38778  0.040031477  0.038946562            6 
 1663000   0.59819984   -4.5264569    798.67696  0.040021896  0.038923054           10 
 1664000   0.58565329   -4.5522837    797.85797  0.039956829  0.038899502           16 
 1665000   0.58867051   -4.5359831    799.55813  0.040017924  0.038876037           14 
 1666000   0.59727458   -4.5440773     798.6806   0.03995001  0.038852546           17 
 1667000   0.58674576   -4.5461264    799.92779  0.039988392  0.038829042            8 
 1668000   0.59616326   -4.5529061    798.01064  0.039868637   0.03880555           16 
 1669000   0.59811529   -4.5618856    798.85445  0.039886881  0.038782069            7 
 1670000    0.5905236   -4.5338347    800.99396  0.039969758  0.038758629            5 
 1671000   0.58253405   -4.5536369    799.20163  0.039856454  0.038735395            9 
 1672000   0.57655086   -4.5343147    799.34486  0.039839756  0.038712106           10 
 1673000   0.58804477   -4.5701383    799.45328  0.039821343  0.038688729           18 
 1674000   0.58860986   -4.5494096    801.63547  0.039906186  0.038665549            5 
 1675000   0.58764105    -4.563689    800.86225  0.039843893  0.038642368            9 
 1676000   0.56123882   -4.5307272    801.47434  0.039850554  0.038619223            9 
 1677000    0.5741391   -4.5586181    801.55994  0.039831044  0.038596171            9 
 1678000   0.57886761   -4.5580739      800.225  0.039741011  0.038573009            9 
 1679000   0.58435761   -4.5631846     801.8523  0.039798109  0.038549823           25 
 1680000   0.57782985   -4.5675829    799.45337  0.039655425  0.038526592           12 
 1681000    0.5770079    -4.567935    799.90296  0.039654123  0.038503412           14 
 1682000   0.56083019   -4.5662302    799.99278  0.039634997  0.038480201           11 
 1683000    0.5759122    -4.566134    801.86644  0.039704221  0.038456984            6 
 1684000    0.5767608   -4.5628338     799.6738   0.03957214  0.038433752            8 
 1685000   0.58337277   -4.5543425    800.04962  0.039567242  0.038410629           16 
 1686000   0.58560766   -4.5381103    801.13444  0.039597392  0.038387478            6 
 1687000   0.58070582   -4.5685951    802.14007  0.039623596  0.038364382            6 
 1688000    0.5756509   -4.5686599    799.32786  0.039461288  0.038341207            7 
 1689000   0.57108075   -4.5626303    800.52105  0.039496796  0.038317963           10 
 1690000   0.58106717   -4.5760217    799.10104  0.039403404   0.03829488           15 
 1691000    0.5834215   -4.5822643    799.82324  0.039415693  0.038271676           34 
 1692000   0.58230428   -4.5676043    803.18067  0.039557755  0.038248489           10 
 1693000   0.56331831   -4.5656157    802.88053  0.039519617  0.038225455           12 
 1694000   0.59270734   -4.5800717    800.88377   0.03939806  0.038202424           31 
 1695000   0.58621645   -4.5632747    803.06532  0.039482071  0.038179446            7 
 1696000   0.57554443   -4.5543769    801.65698  0.039389592  0.038156715           10 
 1697000   0.56474684   -4.5717631    802.39364  0.039402556  0.038133906           16 
 1698000   0.58751154   -4.5647075    802.31178  0.039375333  0.038111011            7 
 1699000   0.58971817   -4.5961581    803.66125  0.039418347   0.03808818           17 
 1700000   0.58611667   -4.5992145    801.60249   0.03929424  0.038065239           13 
 1701000   0.57863341    -4.590803    799.29339  0.039158014  0.038042189           19 
 1702000   0.57782864   -4.5716205    802.88006  0.039310618  0.038019305           17 
 1703000   0.57464814   -4.5937512    803.29293  0.039307738  0.037996449            8 
 1704000   0.58993589   -4.5775683    802.97745  0.039269241  0.037973603           15 
 1705000    0.5736364   -4.5907183     803.4728  0.039270421   0.03795072           10 
 1706000   0.57704989   -4.5787388    801.38553  0.039145444  0.037927858            7 
 1707000   0.56632375    -4.577131    801.97847  0.039151458  0.037905024           12 
 1708000   0.56410474   -4.5705379    803.97754  0.039226071  0.037882286           11 
 1709000   0.56538415    -4.553397    804.18413  0.039213191  0.037859637            9 
 1710000   0.56906819   -4.5843328    803.52894   0.03915833  0.037836975            8 
 1711000   0.56861395    -4.584116    803.95586  0.039156237  0.037814246           11 
 1712000   0.57237707   -4.5833415    804.30359  0.039150292  0.037791485           12 
 1713000   0.57300952   -4.5940526    800.39887  0.038937481  0.037768675           16 
 1714000   0.56357746   -4.5884396    802.52941   0.03901835  0.037745846            5 
 1715000   0.56490515   -4.6050912     802.2272  0.038980914  0.037723084           20 
 1716000    0.5699319   -4.5908349     804.4403  0.039065671  0.037700315           15 
 1717000   0.57167169   -4.5691453    804.61717  0.039051503  0.037677591            7 
 1718000   0.57112697   -4.5953076    803.86702  0.038992386  0.037654925           13 
 1719000   0.57369692   -4.5740696    804.50886  0.039000817  0.037632324           11 
 1720000   0.55226152   -4.5871325    802.67776  0.038889427  0.037609647           35 
 1721000   0.55542234   -4.5856915    801.22261  0.038796369  0.037586854           25 
 1722000   0.56271305   -4.6121625    802.03206  0.038813011  0.037564131           14 
 1723000   0.56474665   -4.5993731    802.95148  0.038834952  0.037541338           18 
 1724000   0.55532218   -4.5837451    802.58548  0.038794735  0.037518577            7 
 1725000   0.55661013   -4.5978711    803.82295  0.038832027  0.037495896           22 
 1726000   0.55989742   -4.5675128    805.17552  0.038874832  0.037473303           15 
 1727000   0.57161829   -4.5970499    803.13043   0.03875364  0.037450712           11 
 1728000   0.55952591   -4.5938135    802.62147  0.038706668  0.037428116           13 
 1729000   0.57890929   -4.5853156    804.36212  0.038768176  0.037405452           11 
 1730000   0.55441788   -4.6161586    802.39953   0.03865123  0.037382816           14 
 1731000   0.56260593   -4.5702038    803.25482  0.038670076   0.03736024           16 
 1732000   0.56394568   -4.5868694    804.99909  0.038731673  0.037337794           11 
 1733000   0.56527574    -4.613142    802.80999  0.038604058  0.037315238           15 
 1734000    0.5611331    -4.602116     804.9762    0.0386859  0.037292607           22 
 1735000   0.56374042   -4.5932261    805.76682  0.038701576  0.037270022           19 
 1736000   0.56109709   -4.6321135    804.10293  0.038599411  0.037247512           10 
 1737000   0.56036748   -4.6140505     804.6287  0.038602413  0.037224977           12 
 1738000   0.55163862    -4.609878    804.40597  0.038569523  0.037202455           10 
 1739000   0.55945684   -4.6116389    802.79208  0.038470006  0.037179834           20 
 1740000   0.55829147   -4.6099944    803.94628  0.038503175  0.037157305           13 
 1741000   0.55978684   -4.5929586    805.71201  0.038565576  0.037134941           11 
 1742000   0.56381037   -4.6090823    804.73221  0.038496566  0.037112603            7 
 1743000   0.54244205   -4.6295199     805.2319  0.038498369  0.037090212            7 
 1744000   0.56090736   -4.6344613    804.77773  0.038454594  0.037067752           13 
 1745000   0.55526148   -4.6077635    803.72145  0.038382113  0.037045262            8 
 1746000   0.56378257   -4.6178791    806.06154  0.038471818  0.037022823            9 
 1747000   0.55238333   -4.6078458    805.67552  0.038431383   0.03700045           16 
 1748000   0.54666233   -4.6288043    805.63092  0.038407271     0.036978           12 
 1749000   0.55423898   -4.6277855    803.56073  0.038286675  0.036955533           13 
 1750000   0.56474186   -4.6296629    804.29243  0.038299639  0.036933038           20 
 1751000   0.56333648   -4.6372734    804.52439  0.038288806  0.036910593           14 
 1752000   0.53586532   -4.6212316    803.68347  0.038226953  0.036888221           11 
 1753000    0.5579497   -4.6145198    804.52291  0.038245052  0.036865772           16 
 1754000   0.55697497   -4.6056368     804.1698  0.038206471  0.036843494            5 
 1755000   0.55449817   -4.6138784    805.11285   0.03822948  0.036821298           18 
 1756000   0.56255558   -4.6100953    804.72274  0.038189196  0.036798988            7 
 1757000    0.5550483   -4.6334366    804.96961  0.038179169  0.036776581           15 
 1758000   0.56031906   -4.6031251    806.74635  0.038241674  0.036754292            9 
 1759000   0.55891087   -4.6290521    804.94758  0.038134716  0.036732102           10 
 1760000   0.54631056   -4.6218173    806.28258  0.038176259  0.036709839           10 
 1761000   0.54388683   -4.6274423    804.60766   0.03807532  0.036687566           15 
 1762000   0.55969821   -4.6344223    804.96549  0.038070634  0.036665304           12 
 1763000   0.55607454   -4.6344313    803.67547  0.037988063  0.036643063           19 
 1764000   0.55518525   -4.6296838    804.93943  0.038026239  0.036620714           16 
 1765000   0.54977834   -4.6176992    807.31542  0.038116875  0.036598474           23 
 1766000   0.55319998   -4.6360006    805.23193  0.037996977  0.036576247           12 
 1767000    0.5396542   -4.6229844    805.93815  0.038008779  0.036554149           21 
 1768000   0.53832329   -4.6291556    806.03112  0.037991663  0.036532194           17 
 1769000   0.54906806   -4.6359107    807.64786  0.038046347  0.036510137           15 
 1770000   0.53742669   -4.6089631    806.88611  0.037988988   0.03648808            6 
 1771000   0.54524956   -4.6507173    805.32019  0.037893854  0.036466068           10 
 1772000    0.5520122   -4.6508117    806.24068  0.037915758  0.036443932           19 
 1773000   0.54713007   -4.6329304    808.71073  0.038010469  0.036421834           14 
 1774000   0.54491164   -4.6372972    808.15496  0.037962935  0.036399757           21 
 1775000    0.5395366   -4.6208312    805.60541   0.03782185  0.036377744           21 
 1776000   0.54934571   -4.6541656    805.61687  0.037801092  0.036355621           30 
 1777000   0.54203389   -4.6543753    805.50086  0.037774379  0.036333496           26 
 1778000   0.54683493   -4.6423029    805.81773  0.037767985  0.036311413           23 
 1779000   0.54437983   -4.6241661    806.86765  0.037795936  0.036289497           23 
 1780000   0.54558262   -4.6267618    806.75862  0.037769598  0.036267557           39 
 1781000    0.5426985   -4.6342055    807.17066  0.037767671  0.036245557           18 
 1782000   0.54791314   -4.6378217    806.07755  0.037695359   0.03622371           14 
 1783000   0.54149934   -4.6423887    807.12116  0.037722993  0.036201913           11 
 1784000   0.54578589   -4.6386606    807.96877  0.037741441  0.036179943            6 
 1785000   0.53888163   -4.6372098    806.98705  0.037674466  0.036158096            6 
 1786000   0.54878584    -4.667601    806.20394  0.037616832  0.036136278            8 
 1787000   0.53708355   -4.6428507    808.88725  0.037720913  0.036114407           19 
 1788000   0.53592957   -4.6414195    808.39228  0.037676747  0.036092539           13 
 1789000   0.54685869   -4.6501005    806.67455  0.037575673  0.036070601            9 
 1790000   0.52952527   -4.6599429    804.86596  0.037470482  0.036048655           12 
 1791000   0.53794207   -4.6698901    805.84509  0.037495118  0.036026748           11 
 1792000   0.53641184   -4.6457242    806.62877  0.037510639  0.036004786            7 
 1793000   0.52469613   -4.6452472    806.31091  0.037474944  0.035982938           41 
 1794000   0.54328674   -4.6743962    807.57941  0.037512979  0.035961114           17 
 1795000   0.53262851   -4.6653525    805.30945  0.037386697  0.035939195           11 
 1796000   0.54080246   -4.6577664    807.23766  0.037455348  0.035917286           25 
 1797000    0.5463931   -4.6693101    806.60623  0.037405223  0.035895305           37 
 1798000   0.52643646   -4.6690481    805.27718  0.037322821  0.035873281           21 
 1799000     0.533803   -4.6649165    806.88271  0.037376446  0.035851386            9 
 1800000   0.53103961   -4.6652506    805.03631  0.037270199  0.035829489           40 
 1801000   0.52723443    -4.672635    807.75714    0.0373754   0.03580765           18 
 1802000   0.53479695   -4.6736813    806.60533  0.037301393   0.03578584           23 
 1803000   0.53900258   -4.6613503    808.87243  0.037385488  0.035764079           23 
 1804000   0.53185341   -4.6598027    808.07198  0.037327789  0.035742355           30 
 1805000   0.52088542   -4.6526869    807.63391  0.037286884  0.035720551           29 
 1806000   0.53014786   -4.6609589    804.92637  0.037141305   0.03569883           30 
 1807000   0.52849456   -4.6634444    807.54582  0.037241552  0.035677063            9 
 1808000   0.53637002   -4.6635157    807.26979  0.037208232  0.035655298           12 
 1809000   0.53892725   -4.6600892    807.19402  0.037184173  0.035633566           21 
 1810000    0.5353568   -4.6469081    806.90176  0.037150173  0.035611806           17 
 1811000   0.54236583   -4.6800881    805.98605  0.037087523  0.035589962           34 
 1812000   0.53048743   -4.6763535    806.68554  0.037099225  0.035568005            9 
 1813000   0.53832649   -4.6699904    806.19841  0.037056371  0.035546047           18 
 1814000   0.53424189   -4.6673434     804.8254  0.036972868  0.035524172           11 
 1815000   0.52563453   -4.6839256    804.39258  0.036932626  0.035502196           21 
 1816000   0.52673826   -4.6720945    804.43075   0.03691404  0.035480244           20 
 1817000    0.5354177   -4.6809108    804.48334  0.036896136  0.035458267           23 
 1818000   0.52072596   -4.6777556    805.33831  0.036915031  0.035436277           16 
 1819000    0.5151944   -4.6663426    804.45965  0.036854483  0.035414322           36 
 1820000   0.52489182   -4.6693317    805.74771   0.03689321  0.035392458           11 
 1821000   0.51623977   -4.6549689    803.32121  0.036761908  0.035370582           32 
 1822000   0.52805034   -4.6888773    805.94611  0.036861787  0.035348669           10 
 1823000   0.53200373   -4.6891974    804.53086  0.036776872  0.035326774           14 
 1824000   0.53534162   -4.6706704    805.79953  0.036814671  0.035304824           26 
 1825000   0.52450255   -4.6824116    806.71603  0.036836348  0.035282935           39 
 1826000   0.53541004   -4.6737248    804.96824  0.036736411  0.035261094           21 
 1827000   0.51912892   -4.6905045     806.8195  0.036800743  0.035239298           13 
 1828000   0.51772776   -4.6833863     806.2234  0.036753437  0.035217502           13 
 1829000    0.5400081   -4.6643944    807.54566  0.036793587  0.035195846           19 
 1830000   0.51625503   -4.6609875    806.44727  0.036723464  0.035174265           13 
 1831000   0.52319014   -4.6665848    806.53116  0.036707225  0.035152588           12 
 1832000   0.52647126   -4.6779694    806.67316  0.036693648    0.0351309           11 
 1833000   0.52075241   -4.6799087    805.01216  0.036598116  0.035109237           24 
 1834000   0.50774185   -4.6848444    807.11037  0.036673499  0.035087554           27 
 1835000   0.52194891   -4.6624999    806.87825  0.036642972  0.035065804           31 
 1836000   0.52554295   -4.6663189    806.96416  0.036626913  0.035044188           12 
 1837000   0.52082865   -4.6792251    805.68288  0.036548851  0.035022493           13 
 1838000   0.51478853   -4.6710013    804.53462  0.036476905  0.035000697           16 
 1839000   0.51458177   -4.6924923    804.13374  0.036438904  0.034978946           17 
 1840000   0.53419686   -4.6897816    804.19635  0.036421936  0.034957157            8 
 1841000   0.51305406   -4.6868047    804.73723  0.036426635  0.034935337           30 
 1842000   0.53200655   -4.7187559    804.52538  0.036397276   0.03491356           34 
 1843000   0.51906439   -4.7033365    806.89844  0.036484827  0.034891788           13 
 1844000   0.51670378   -4.7013552    805.65515  0.036408855  0.034870118           19 
 1845000   0.50016549   -4.6930844    805.11342  0.036364653  0.034848465           31 
 1846000   0.51350039   -4.6944158    805.29025  0.036352937  0.034826731           64 
 1847000   0.52511117   -4.7198006    804.40161  0.036293161   0.03480498           45 
 1848000   0.51145284   -4.6873091     806.1454  0.036352156  0.034783226           21 
 1849000   0.51799825   -4.6862669    804.36335  0.036252179  0.034761618           25 
 1850000   0.50611277    -4.695735     805.0251  0.036262392   0.03473998           17 
 1851000   0.51112077    -4.699853    805.16477  0.036249089  0.034718265           17 
 1852000   0.51111125   -4.7114541    806.29754  0.036280487  0.034696604           22 
 1853000    0.5128611   -4.7005054    804.16135  0.036164839  0.034674868           41 
 1854000   0.51230681   -4.7185055    806.71976  0.036260327  0.034653201           19 
 1855000   0.50842695   -4.6983375    803.52212   0.03609713  0.034631541           18 
 1856000   0.50832387   -4.7094466    804.56041    0.0361243  0.034609845           13 
 1857000   0.52434031   -4.7071832     802.5957   0.03601668  0.034588164           24 
 1858000   0.51171926   -4.7137216    804.71886  0.036092522  0.034566489           29 
 1859000    0.5154608   -4.6990363    805.00987  0.036086152  0.034544801           24 
 1860000   0.50622893   -4.7178481       804.47  0.036042563  0.034523237           20 
 1861000   0.51304312   -4.7130903    805.43351   0.03606634  0.034501702           54 
 1862000   0.50719626   -4.7223617    804.23336  0.035993258  0.034480137           52 
 1863000   0.51528434   -4.7213943    804.50219  0.035985963  0.034458523           47 
 1864000    0.5138706   -4.7085694    804.90623  0.035984721   0.03443693           21 
 1865000   0.51480117    -4.714465     803.3861  0.035897502  0.034415284           37 
 1866000   0.50803285   -4.7092414    804.12827  0.035911409   0.03439363           33 
 1867000   0.50518379   -4.7189233    804.46054  0.035907005  0.034371969           41 
 1868000   0.50146062   -4.7113543    805.28759  0.035924678  0.034350366           34 
 1869000   0.52192565     -4.71545    804.19496   0.03585674  0.034328686           25 
 1870000   0.51383231   -4.7140757    805.27954  0.035885897  0.034307088            6 
 1871000    0.5071069   -4.6923178    806.67393  0.035928823  0.034285612           12 
 1872000   0.50056171   -4.7133911     805.9309  0.035876554  0.034264172           19 
 1873000   0.50594631   -4.7195619    804.31996  0.035785725  0.034242705           36 
 1874000   0.50602378   -4.7238707    805.96027  0.035839571  0.034221292           15 
 1875000    0.5135706   -4.7109402    805.47959  0.035799093  0.034199921           42 
 1876000    0.5063237    -4.727132    804.72819  0.035746632  0.034178476           27 
 1877000   0.50015956   -4.7300049    804.27309  0.035707383  0.034156954           27 
 1878000   0.50507294   -4.7326284    805.71075  0.035752163  0.034135476           20 
 1879000   0.49966586   -4.7335544    806.13005  0.035751732  0.034114076           32 
 1880000   0.50551433    -4.728559    804.47362  0.035659292  0.034092654           27 
 1881000   0.50255606    -4.721217    806.45789  0.035728243  0.034071206           43 
 1882000   0.48941595   -4.7145677    805.94612  0.035686598  0.034049903           11 
 1883000   0.50348673    -4.718422    804.89864  0.035621289  0.034028588           20 
 1884000   0.51557448   -4.7211661    805.70993  0.035638267  0.034007266           20 
 1885000   0.49286356   -4.7182371    806.42228  0.035650852  0.033986013           18 
 1886000    0.5025496   -4.7331484    805.09065  0.035573111  0.033964674           12 
 1887000   0.50249001   -4.7165354     804.2801  0.035518464  0.033943302           25 
 1888000   0.48973107   -4.7452897     805.6849  0.035561657   0.03392194           20 
 1889000   0.50388946   -4.7271157    805.93688  0.035553947  0.033900598           20 
 1890000   0.49068855   -4.7408176    802.47768  0.035382614  0.033879213           30 
 1891000   0.49983224   -4.7410208    805.89901  0.035514675  0.033857766           45 
 1892000   0.51013488   -4.7392627     804.0126  0.035412817  0.033836418           37 
 1893000   0.48605778   -4.7380538    803.94396  0.035391088   0.03381506           35 
 1894000   0.49115535   -4.7446588     805.3511  0.035434314  0.033793774           16 
 1895000    0.5072994    -4.730745    805.64322  0.035428462  0.033772586           36 
 1896000      0.50226   -4.7463778    807.11178  0.035474322  0.033751404           36 
 1897000   0.49767843   -4.7390412    804.37286  0.035335304  0.033730165           24 
 1898000   0.49377281   -4.7359561    806.58519  0.035413821  0.033708989           62 
 1899000   0.49351234    -4.715093    806.87933   0.03540808  0.033687931           32 
 1900000   0.49607158   -4.7432544    806.66499  0.035380043  0.033666887           26 
 1901000    0.4972874   -4.7293146     807.3719  0.035392421  0.033645872           11 
 1902000   0.49942442   -4.7232669    806.25191  0.035324742  0.033624902            9 
 1903000   0.49561564   -4.7274181    808.87506  0.035421048  0.033603933           21 
 1904000   0.49426677   -4.7189297    805.91682   0.03527297  0.033582978           11 
 1905000   0.49198132   -4.7522712    806.22575  0.035267968   0.03356197           10 
 1906000   0.49895777   -4.7329178    805.51273   0.03521829  0.033540962            8 
 1907000   0.49019352   -4.7412252    805.31644  0.035191244  0.033519987           32 
 1908000   0.48914636   -4.7326122    806.73258  0.035234651   0.03349901           14 
 1909000   0.48312788   -4.7521511    804.96057  0.035138841  0.033478025           12 
 1910000   0.49175598   -4.7379796    805.22952  0.035132178  0.033456955           20 
 1911000   0.49178641   -4.7226913    806.76836  0.035180898  0.033435963            7 
 1912000   0.48882995    -4.746796    805.61303  0.035112144  0.033414973           24 
 1913000   0.48550652   -4.7509141     806.0728  0.035113818  0.033393975           19 
 1914000   0.49107236   -4.7441697    805.73897  0.035080938  0.033372968           17 
 1915000    0.4876684   -4.7403403    805.19217  0.035038824  0.033351958           24 
 1916000   0.48858114    -4.763404    806.88479  0.035094154  0.033331038           12 
 1917000   0.48267836   -4.7536763    805.40589  0.035011559   0.03331011           18 
 1918000   0.49456916    -4.746764    805.53491   0.03499891  0.033289173           19 
 1919000   0.49003146   -4.7569258    803.76406  0.034903772  0.033268162           19 
 1920000   0.48786048   -4.7442602    805.94276  0.034980154  0.033247253           47 
 1921000   0.48632349   -4.7571197    805.65448  0.034949439  0.033226395           71 
 1922000   0.48226121   -4.7643024    804.76902  0.034892864  0.033205495          105 
 1923000    0.5010874   -4.7642295    805.25495  0.034895777  0.033184571           70 
 1924000    0.4945441   -4.7439038    805.44903  0.034886046  0.033163715           62 
 1925000   0.47552347   -4.7736208    804.83973  0.034841547  0.033142857           92 
 1926000   0.49158187   -4.7661103    804.73366  0.034818867  0.033121995           33 
 1927000   0.47673665   -4.7508866    806.37809  0.034871912  0.033101121           28 
 1928000   0.47558033   -4.7666147    804.07672  0.034754354  0.033080242           47 
 1929000   0.48804924   -4.7676034    804.87119  0.034770658   0.03305933           80 
 1930000   0.46821982   -4.7743185    804.21354  0.034724246  0.033038408           35 
 1931000   0.47895452   -4.7833968    805.40263  0.034757579  0.033017498           86 
 1932000    0.4818532   -4.7710008    803.96765  0.034677694  0.032996558           50 
 1933000   0.47385251   -4.7678427    803.79777   0.03465243  0.032975686           15 
 1934000   0.47676467   -4.7660447    804.66497  0.034671879  0.032954797           27 
 1935000   0.48462431   -4.7875831    805.04252   0.03467022  0.032933936           31 
 1936000   0.48379261    -4.781852    804.72547  0.034638665  0.032913091           20 
 1937000    0.4835008   -4.7692527    806.55891  0.034699661  0.032892304           40 
 1938000   0.48332144   -4.7701162    804.96344  0.034613151  0.032871476           75 
 1939000   0.48105679   -4.7598469    805.19595  0.034605293  0.032850678           47 
 1940000   0.47783582   -4.7618895    804.55579  0.034559957  0.032829898           65 
 1941000    0.4766413   -4.7573782    803.14303  0.034481497  0.032809129           28 
 1942000   0.48701876   -4.7749708    806.28201  0.034598438  0.032788372           25 
 1943000   0.48285006   -4.7821029    802.98006  0.034439015  0.032767573           16 
 1944000   0.48573871   -4.7630485    803.99497  0.034464805  0.032746784           52 
 1945000   0.47787346   -4.7768104    803.63495   0.03443166  0.032726047           35 
 1946000   0.47751312    -4.769124     804.9105  0.034468589  0.032705392           50 
 1947000   0.47252452   -4.7678632    805.26056  0.034465869  0.032684746          108 
 1948000   0.46945813   -4.7774799    806.32224  0.034493593  0.032664058           61 
 1949000    0.4701278   -4.7806897    802.83618  0.034326842  0.032643322          126 
 1950000   0.47981335   -4.7899636    803.66561  0.034344684  0.032622583           89 
 1951000   0.47821472   -4.7775909    805.02942  0.034385333  0.032601899           91 
 1952000    0.4833206   -4.7770748    804.83911  0.034359593  0.032581195           83 
 1953000   0.47117989    -4.774088    804.33331  0.034320418  0.032560485           99 
 1954000   0.46840251   -4.7815654    803.81069  0.034280565  0.032539764           54 
 1955000   0.46493455   -4.7739775    805.29674  0.034326374  0.032519123           34 
 1956000   0.48244536   -4.7926907    802.55019  0.034191811  0.032498474           23 
 1957000    0.4724878   -4.8015394    804.67486  0.034264813  0.032477823           20 
 1958000   0.46680096   -4.7827664    804.76712  0.034251239  0.032457161           21 
 1959000   0.46930061   -4.7838572    803.86186  0.034195247  0.032436552           44 
 1960000   0.46957688    -4.784407    805.26674  0.034237531  0.032416008           47 
 1961000   0.48353231   -4.7832507    804.04194  0.034168024  0.032395434           30 
 1962000   0.47623255   -4.8044181    804.48691  0.034169509  0.032374856           90 
 1963000   0.47096495   -4.7761411    804.34344  0.034146011  0.032354264           83 
 1964000   0.47177799   -4.7908475    804.25712  0.034124963  0.032333697           32 
 1965000   0.46819046   -4.7885732    806.07725  0.034184786  0.032313095           70 
 1966000   0.46927306   -4.7938561     803.3514  0.034051857  0.032292506           94 
 1967000   0.47893944   -4.7956423    803.41808   0.03403737  0.032271937           17 
 1968000   0.46295915   -4.7827902    803.48342  0.034022841  0.032251365           16 
 1969000   0.46548925   -4.8150339    803.23177  0.033994911  0.032230794           18 
 1970000   0.46591102   -4.7934903    804.76253  0.034042408  0.032210203           21 
 1971000   0.47088392   -4.8037192    803.02685  0.033951753  0.032189677           40 
 1972000   0.46984074   -4.7878534    804.68528  0.034004618   0.03216917           37 
 1973000   0.46619176   -4.8282743     802.8732  0.033910847  0.032148727           34 
 1974000   0.46286262   -4.7975244    803.78987  0.033932365  0.032128217           15 
 1975000   0.46344027   -4.8092228     802.1612  0.033846464  0.032107708           55 
 1976000   0.46547614   -4.8100074    801.72622  0.033810991  0.032087157           41 
 1977000   0.46486756   -4.8228536    803.83914  0.033882952  0.032066609           47 
 1978000   0.46256071   -4.8224219    803.58399  0.033855072  0.032046062           44 
 1979000   0.47277146   -4.8152791    802.65415  0.033798811  0.032025531           98 
 1980000   0.45749444   -4.8297895     802.6556  0.033781801  0.032004953           31 
 1981000   0.45696556   -4.8117764     802.9112  0.033775501  0.031984443           31 
 1982000   0.45398802   -4.8066976    802.77648  0.033752795  0.031963993           60 
 1983000   0.45482615   -4.8190859     805.1315  0.033834741  0.031943559           31 
 1984000   0.46681424   -4.8149734    803.57523   0.03375232  0.031923077           51 
 1985000   0.46638361   -4.8245177    803.46441  0.033730664   0.03190263           49 
 1986000   0.46144436   -4.8256314    803.66386  0.033722048  0.031882229           27 
 1987000   0.46508331   -4.8280159     804.2062  0.033727823  0.031861879           28 
 1988000    0.4712359   -4.8235749    804.49326   0.03372289  0.031841503           24 
 1989000   0.47609696   -4.8183844    802.75154  0.033632962  0.031821113           68 
 1990000    0.4602637    -4.820804    804.20911  0.033677099  0.031800736           48 
 1991000   0.45532255   -4.8185007     803.7075  0.033639189  0.031780379           71 
 1992000   0.45477319   -4.8189255    805.28935  0.033688477  0.031760034           84 
 1993000   0.46536548   -4.8258515    803.50149  0.033596818    0.0317397           64 
 1994000   0.45259783    -4.810445    802.79157    0.0335503   0.03171937           73 
 1995000   0.46517383   -4.8499737    802.32082  0.033513819  0.031699004          123 
 1996000   0.45104498   -4.8283157    803.05853  0.033527828  0.031678623           73 
 1997000   0.45263389   -4.8179549    802.52809  0.033488904  0.031658256           40 
 1998000   0.45725539   -4.8328583     804.5012  0.033554438  0.031637885           23 
 1999000   0.46409834   -4.8123368     804.7882  0.033549616  0.031617625           79 
 2000000   0.45996465   -4.8232012    803.03171  0.033459655  0.031597368           38 
 2001000   0.44504703   -4.8350929    801.37839  0.033374079  0.031577045           54 
 2002000   0.45101318   -4.8321138    804.14668  0.033472639  0.031556779           45 
 2003000   0.45701187   -4.8219627    803.29582  0.033420528   0.03153654           59 
 2004000   0.46078886   -4.8461744    802.30391  0.033362605  0.031516255           37 
 2005000    0.4450799   -4.8317365    802.82455  0.033367604  0.031495977           61 
 2006000   0.45375729   -4.8486408    802.91581  0.033354761   0.03147572           65 
 2007000   0.43796458   -4.8347181    802.91036  0.033337915   0.03145541           44 
 2008000   0.45789108   -4.8477598    803.04896  0.033327065  0.031435134           86 
 2009000   0.44993219   -4.8362972    800.53673  0.033206269  0.031414889           60 
 2010000   0.45023535   -4.8361158     803.4025  0.033308562  0.031394684           34 
 2011000   0.44785397   -4.8499167    802.34287  0.033248088  0.031374485           48 
 2012000   0.45139978   -4.8383374    802.72536  0.033247406   0.03135428           45 
Loop time of 4959.12 on 48 procs for 2000000 steps with 4000 atoms

Performance: 69689.767 tau/day, 403.297 timesteps/s
99.4% CPU use with 48 MPI tasks x no OpenMP threads

MPI task timing breakdown:
Section |  min time  |  avg time  |  max time  |%varavg| %total
---------------------------------------------------------------
Pair    | 337.54     | 357.4      | 378.16     |  49.8 |  7.21
Neigh   | 33.468     | 34.777     | 36.024     |  12.0 |  0.70
Comm    | 312.5      | 338.5      | 364.38     |  64.3 |  6.83
Output  | 4.202      | 4.2036     | 4.2363     |   0.2 |  0.08
Modify  | 4161.2     | 4178.1     | 4190.9     |   9.3 | 84.25
Other   |            | 46.16      |            |       |  0.93

Nlocal:        83.3333 ave          94 max          76 min
Histogram: 2 4 8 15 6 3 5 4 0 1
Nghost:        2273.96 ave        2291 max        2250 min
Histogram: 2 1 3 4 1 10 13 6 4 4
Neighs:        15287.4 ave       17445 max       13387 min
Histogram: 3 2 3 7 15 9 4 2 1 2
FullNghs:      30575.4 ave       34853 max       27426 min
Histogram: 1 4 5 13 11 4 5 4 0 1

Total # of neighbors = 1467618
Ave neighs/atom = 366.90450
Neighbor list builds = 108014
Dangerous builds = 0

#clear
#
#next RN
#
#jump SELF
Total wall time: 1:22:42
