
units lj                  # Use reduced LJ style units
atom_style atomic         # Uncharged point particles
atom_modify map hash      # Needed for indexing of clusters etc
                          # Used to be able to find where atoms are in relation to each other.

lattice fcc 1.0 spacing 1 1 1
Lattice spacing in x,y,z = 1.5874011 1.5874011 1.5874011
region box block 0 10 0 10 0 10 units lattice
create_box 2 box
Created orthogonal box = (0.0000000 0.0000000 0.0000000) to (15.874011 15.874011 15.874011)
  3 by 4 by 4 MPI processor grid
create_atoms 1 box
Created 4000 atoms
  using lattice units in orthogonal box = (0.0000000 0.0000000 0.0000000) to (15.874011 15.874011 15.874011)
  create_atoms CPU = 0.028 seconds
set type 1 type/fraction 2 0.85 78393
Setting atom values ...
  3394 settings made for type/fraction
mass 1 1.0
mass 2 1.0
pair_style lj/cut  3.5
pair_modify tail  yes
pair_coeff 1  1  1.0  1.0   # Intearaction between 1 and 1 set with epsilon = 1 and sigma = 1
pair_coeff 1  2  1.5  0.8
pair_coeff 2  2  0.5  0.88

write_data data.0
System init for write_data ...
Neighbor list info ...
  update every 1 steps, delay 10 steps, check yes
  max neighbors/atom: 2000, page size: 100000
  master list distance cutoff = 3.8
  ghost atom cutoff = 3.8
  binsize = 1.9, bins = 9 9 9
  1 neighbor lists, perpetual/occasional/extra = 1 0 0
  (1) pair lj/cut, perpetual
      attributes: half, newton on
      pair build: half/bin/atomonly/newton
      stencil: half/bin/3d
      bin: standard
WARNING: Not all mixed pair coeffs generated from mixing. Use write_data with 'pair ij' option to store all pair coeffs. (../write_data.cpp:312)


#############################
#   M E L T   S Y S T E M   #
#############################

velocity all create 2.4 2750902 mom yes dist gaussian # Assign velocities
                                                    # Temperature 2.4, random number seed, zero linear momentum
                                                                                # Gaussian distribution

timestep 0.002   # simulation timestep
thermo 1000       # output thermodynamic data every 1000 steps bf 100

# Define a fix  in this case with index 1 applied to all
# particles in the simulation. This fix is for simulations
# in the anisotropic NPT ensemble. Note that we use the MTK
# correction.
fix 1 all npt temp 2.4 2.4 0.1 iso 5.68 5.68 0.5 mtk yes tchain 5 pchain 5 # Use NPT ensemble
                                                                         # Set temperature and pressure and damping
                                                                         # Numbers of thermostats in chain and in barostat
run 10000          # run for 10000 steps
Per MPI rank memory allocation (min/avg/max) = 3.642 | 3.644 | 3.648 Mbytes
Step Temp E_pair E_mol TotEng Press Volume 
       0          2.4   -3.4381692            0   0.16093083   -2.9520202         4000 
    1000    2.3791677   -2.6546925            0   0.91316684    5.6834789    3874.6986 
    2000    2.3323429    -2.630852            0   0.86678766    5.6008892    3901.8246 
    3000    2.4282169   -2.5608366            0    1.0805782    5.9163858    3916.4669 
    4000    2.4186078   -2.6024776            0    1.0245271    5.7632901    3901.9397 
    5000    2.4115835   -2.6258571            0   0.99061376    5.7015265    3887.4984 
    6000    2.4436187   -2.6338752            0    1.0306365    5.7760473    3894.5047 
    7000    2.3907747   -2.6335342            0   0.95173137    5.7730676    3883.8072 
    8000    2.3655052   -2.6794813            0   0.86788935    5.3208368    3903.0058 
    9000    2.3902291   -2.6329027            0   0.95154461    5.5788154    3915.7951 
   10000    2.4342264   -2.6222516            0    1.0281751    5.5028065    3935.9277 
Loop time of 2.4985 on 48 procs for 10000 steps with 4000 atoms

Performance: 691613.984 tau/day, 4002.396 timesteps/s
99.6% CPU use with 48 MPI tasks x no OpenMP threads

MPI task timing breakdown:
Section |  min time  |  avg time  |  max time  |%varavg| %total
---------------------------------------------------------------
Pair    | 1.1254     | 1.1775     | 1.2468     |   2.5 | 47.13
Neigh   | 0.21149    | 0.21778    | 0.22835    |   0.7 |  8.72
Comm    | 0.78881    | 0.84909    | 0.89438    |   2.9 | 33.98
Output  | 0.00024654 | 0.00024998 | 0.00031362 |   0.0 |  0.01
Modify  | 0.2157     | 0.23882    | 0.25203    |   1.9 |  9.56
Other   |            | 0.01507    |            |       |  0.60

Nlocal:        83.3333 ave          96 max          71 min
Histogram: 1 0 6 6 11 6 11 5 1 1
Nghost:        1656.27 ave        1680 max        1634 min
Histogram: 1 8 3 8 5 6 8 2 4 3
Neighs:        9677.85 ave       11158 max        7993 min
Histogram: 1 1 3 8 9 8 9 5 1 3

Total # of neighbors = 464537
Ave neighs/atom = 116.13425
Neighbor list builds = 911
Dangerous builds = 240

# Equilibrate just above the melting temperature to avoid step fn in T

fix 1 all npt temp 1.25 1.25 0.1 iso 5.68 5.68 0.5 mtk yes tchain 5 pchain 5
run 2000
Per MPI rank memory allocation (min/avg/max) = 3.643 | 3.645 | 3.649 Mbytes
Step Temp E_pair E_mol TotEng Press Volume 
   10000    2.4342264   -2.6222516            0    1.0281751    5.5028065    3935.9277 
   11000    1.2337357   -3.9020922            0   -2.0519513     5.641108    3008.7363 
   12000    1.2728702   -3.9313018            0   -2.0224739    5.7374478    2996.3249 
Loop time of 0.621782 on 48 procs for 2000 steps with 4000 atoms

Performance: 555822.027 tau/day, 3216.563 timesteps/s
99.6% CPU use with 48 MPI tasks x no OpenMP threads

MPI task timing breakdown:
Section |  min time  |  avg time  |  max time  |%varavg| %total
---------------------------------------------------------------
Pair    | 0.27671    | 0.30036    | 0.32828    |   2.3 | 48.31
Neigh   | 0.040222   | 0.042528   | 0.045303   |   0.6 |  6.84
Comm    | 0.20083    | 0.22997    | 0.25621    |   2.9 | 36.98
Output  | 5.216e-05  | 5.3922e-05 | 7.0292e-05 |   0.0 |  0.01
Modify  | 0.041321   | 0.044092   | 0.047229   |   0.9 |  7.09
Other   |            | 0.004785   |            |       |  0.77

Nlocal:        83.3333 ave          93 max          76 min
Histogram: 4 8 6 2 8 9 3 4 3 1
Nghost:        1995.33 ave        2025 max        1966 min
Histogram: 2 2 4 9 11 7 3 4 4 2
Neighs:        12758.6 ave       14378 max       10913 min
Histogram: 1 5 5 4 3 11 6 5 4 4

Total # of neighbors = 612414
Ave neighs/atom = 153.10350
Neighbor list builds = 145
Dangerous builds = 24

#############################
# L I N E A R  Q U E N C H  #
#############################

# Define solid atoms. This closely follows ten Wolde  Ruiz-Montero and Frenkel  Faraday Discuss  1996  104  93-110
# Compute components of the per-atom q6 vector
compute q6 all orientorder/atom degrees 1 6 components 6 nnn NULL cutoff 1.3 # compute the Q6 parameter.
                                                                             # Use all neighbours within 1.3 unit cell.

# get number of connections
compute coord_number all coord/atom orientorder q6 0.5

# An atom is solid if it has 8 or more connections (of a possible 14)
variable is_solid atom c_coord_number>=8
group solid dynamic all var is_solid    # Must be dynamic to update
dynamic group solid defined

# do clustering
compute cluster solid cluster/atom 1.3 # Create a cluster where all atoms within are solid and max 1.3 units from another member

# define chunks one chunk per cluster
compute clus_chunks solid chunk/atom c_cluster nchunk every compress yes  # Says which atoms are in which chunk

# count the size of each chunk
compute size_chunks solid property/chunk clus_chunks count


# Find the maximum entry in the vector of chunk sizes
variable max_n equal max(c_size_chunks)


# Thermo style which includes this variable
# thermo_style custom step temp pe vol v_max_n

thermo ${N}  # Print the thermo information every 100 steps
thermo 1000  

# Reset the npt fix at a lower temperature (below freezing)
fix 1  all npt temp  ${temp} ${temp}  0.1  iso  5.68  5.68  0.5  mtk yes tchain  5  pchain  5
fix 1  all npt temp  0.45 ${temp}  0.1  iso  5.68  5.68  0.5  mtk yes tchain  5  pchain  5
fix 1  all npt temp  0.45 0.45  0.1  iso  5.68  5.68  0.5  mtk yes tchain  5  pchain  5

dump dmp2 all dcd ${N} traj.dcd
dump dmp2 all dcd 1000 traj.dcd


compute msd all msd com yes
variable twopoint equal c_msd[4]/6/(step*dt+1.0e-6)
fix 9 all vector 10 c_msd[4]
variable fit equal slope(f_9)/6/(10*dt)
thermo_style custom step temp pe c_msd[4] v_twopoint v_fit v_max_n

fix 1 all npt temp 1.25 ${temp} 0.1 iso 5.68 5.68 0.5 mtk yes tchain 5 pchain 5
fix 1 all npt temp 1.25 0.45 0.1 iso 5.68 5.68 0.5 mtk yes tchain 5 pchain 5
run 500000 # 5000000  # Run for this many steps
Neighbor list info ...
  update every 1 steps, delay 10 steps, check yes
  max neighbors/atom: 2000, page size: 100000
  master list distance cutoff = 3.8
  ghost atom cutoff = 3.8
  binsize = 1.9, bins = 8 8 8
  4 neighbor lists, perpetual/occasional/extra = 1 3 0
  (1) pair lj/cut, perpetual
      attributes: half, newton on
      pair build: half/bin/atomonly/newton
      stencil: half/bin/3d
      bin: standard
  (2) compute orientorder/atom, occasional
      attributes: full, newton on
      pair build: full/bin/atomonly
      stencil: full/bin/3d
      bin: standard
  (3) compute coord/atom, occasional
      attributes: full, newton on
      pair build: full/bin/atomonly
      stencil: full/bin/3d
      bin: standard
  (4) compute cluster/atom, occasional
      attributes: full, newton on
      pair build: full/bin/atomonly
      stencil: full/bin/3d
      bin: standard
Per MPI rank memory allocation (min/avg/max) = 9.829 | 9.836 | 9.842 Mbytes
Step Temp PotEng c_msd[4] v_twopoint v_fit v_max_n 
   12000    1.2728702   -3.9313018 5.9655634e-30 4.1427522e-32 8.3333333e+20            2 
   13000    1.2665027   -3.8987827    0.8724902 0.0055928857  0.073663128            2 
   14000    1.2672772   -3.9292504    1.7730016  0.010553581  0.073834632            1 
   15000    1.2338206    -3.915021    2.6907702  0.014948723  0.075070593            4 
   16000    1.2427828   -3.9642337    3.7338262  0.019447011  0.077263484            2 
   17000    1.2759983   -3.9178425    4.7693849  0.023379337  0.079414692            2 
   18000    1.2332434   -3.9021863    5.7350771  0.026551282  0.080645735            1 
   19000    1.2468993   -3.9361743    6.6247991  0.029056136  0.080635342            2 
   20000    1.2277299   -3.9287578    7.5107227  0.031294677  0.080454218            1 
   21000    1.2140868   -3.9268666    8.3645583  0.033192691  0.079696509            2 
   22000     1.239504   -3.9313515    9.2655716  0.035096861  0.078897405            7 
   23000    1.2179924   -3.9659669    10.105726  0.036614948  0.078070111            3 
   24000    1.2373392   -3.9455364    10.922428  0.037925097   0.07739966            2 
   25000    1.2523933   -3.9279633    11.851847  0.039506156  0.076864495            3 
   26000    1.2383598   -3.9404038    12.793391  0.041004458  0.076497124            3 
   27000    1.2477515   -3.9509373    13.789369   0.04255978  0.076290907            3 
   28000    1.2294999   -3.9568876    14.743001  0.043877978  0.076284565            1 
   29000    1.2088957   -3.9208459    15.653275  0.044980674  0.076388289            2 
   30000    1.2135657   -3.9531696     16.51917  0.045886584  0.076388528            1 
   31000    1.1995977   -3.9274766    17.364494  0.046678746  0.076327024            2 
   32000    1.2277751   -3.9594168    18.207664  0.047415792  0.076193004            2 
   33000    1.2042848   -3.9502009    19.175204  0.048422231  0.076056914            1 
   34000    1.2294358   -3.9274808    20.206455  0.049525624  0.075988609            1 
   35000    1.2186557   -3.9510205    21.210459  0.050501091  0.076001555            2 
   36000    1.1818998   -4.0194636     22.00286  0.050932545  0.075968944            3 
   37000    1.1985818    -3.967725     23.08386  0.051990675  0.076078336            3 
   38000    1.2169602    -3.963917    23.891627  0.052393918  0.076214037            1 
   39000    1.2180836   -4.0039582    24.765936  0.052918667  0.076257132            1 
   40000    1.1855882   -3.9929806    25.652846  0.053443429  0.076273811            2 
   41000    1.2018808   -4.0131435    26.798861  0.054469228  0.076302408            2 
   42000    1.1980129    -3.976198    27.567988  0.054698388  0.076343094            1 
   43000    1.1966297   -3.9873906    28.466837  0.055168288  0.076395087            2 
   44000    1.1804717   -3.9785435    29.419032  0.055717863  0.076410797            1 
   45000    1.1839686    -4.026779    30.269675  0.056054953  0.076383329            5 
   46000    1.2089494   -3.9746704    31.379296   0.05684655  0.076401868            4 
   47000    1.2054537   -4.0023159    32.314337  0.057294924  0.076473173            3 
   48000    1.2068198   -3.9660727    33.108938  0.057480795  0.076516106            2 
   49000    1.1676631   -3.9770612    34.168862  0.058110309   0.07655831            3 
   50000    1.2045992   -4.0164426    34.834173  0.058056955  0.076557062            2 
   51000    1.2166327   -4.0016997    35.784943  0.058472129  0.076509579            1 
   52000    1.1972415    -4.041479    36.496769  0.058488411  0.076446291            2 
   53000    1.1804944   -4.0194822    37.510383  0.058978589  0.076413762            1 
   54000    1.2238353   -4.0398715    38.264404  0.059050006  0.076357823            1 
   55000    1.2034952   -4.0313719    39.361388  0.059638466  0.076305929            4 
   56000    1.1866686   -4.0436203    40.203757  0.059827019  0.076262439            4 
   57000    1.2165753   -4.0349094    40.787662  0.059631085   0.07618283            2 
   58000    1.1925479   -4.0404325    41.771125  0.060015983  0.076089709            2 
   59000     1.158663   -4.0081671    42.553944   0.06010444  0.076012194            2 
   60000    1.1731915   -4.0416911    43.154207  0.059936398  0.075882057            3 
   61000    1.1620442   -4.0246952    44.092973  0.060236302   0.07574351            2 
   62000    1.1616818   -4.0937997    44.569283   0.05990495  0.075569928            4 
   63000    1.1487889   -4.0569779    45.579044   0.06028974  0.075413037            2 
   64000    1.1707031   -4.0387657      46.6838  0.060786198  0.075296297            4 
   65000     1.178658   -4.0235301    47.767226  0.061240032  0.075192209            2 
   66000    1.1641829   -4.0266576     48.15192  0.060797878  0.075071051            4 
   67000    1.1416774   -4.0751687    48.865318  0.060777758   0.07496081            1 
   68000    1.1621062   -4.0521755    50.143441  0.061450295  0.074863795            1 
   69000    1.1485834   -4.0502708    50.767064  0.061312879  0.074764453            2 
   70000    1.1333035   -4.0598255    51.632247  0.061466961  0.074658447            3 
   71000    1.1601302   -4.0459516    52.280131  0.061361656  0.074533614            2 
   72000    1.1886731   -4.1130502     52.85243  0.061171794  0.074392103            2 
   73000    1.1390321    -4.050699    53.431352  0.060994694  0.074216792            2 
   74000    1.1177534   -4.0831075    53.908025  0.060707235  0.074005695            2 
   75000    1.1377812   -4.1018168     54.75358  0.060837311  0.073793233            1 
   76000    1.1371793   -4.0376963    55.449858  0.060800282  0.073567633            2 
   77000    1.1225303   -4.0724119    56.161059  0.060780366  0.073353426            2 
   78000    1.1597309   -4.0789784    57.229866  0.061143018  0.073159511            1 
   79000    1.1445686   -4.0850238    58.038226  0.061221757  0.072987845            5 
   80000    1.1430418   -4.0397831    59.362629  0.061836071  0.072839626            1 
   81000    1.1477898   -4.0633478    60.088558  0.061819503  0.072716711            3 
   82000    1.1380349   -4.1156686    60.823553  0.061812554  0.072594703            3 
   83000    1.1368257    -4.112356    61.533146  0.061780267  0.072478173            1 
   84000    1.1359163   -4.0715421    62.019539   0.06152732  0.072358283            2 
   85000    1.1144958   -4.0790194    62.684494  0.061455386   0.07221874            3 
   86000    1.1446434   -4.0708923     63.93977  0.061957141  0.072083189            2 
   87000    1.1252846   -4.0989433    64.200673  0.061494897  0.071958224            2 
   88000    1.1258204    -4.084947    65.370117   0.06190352  0.071840708            2 
   89000    1.1128673   -4.1156517     65.80686   0.06161691  0.071725361            2 
   90000    1.1186421   -4.1190009    67.061489  0.062093971  0.071608719            2 
   91000    1.1238412   -4.1003776    67.824266  0.062110133  0.071511199            5 
   92000     1.134693   -4.1502175    68.226341  0.061799221  0.071401632            3 
   93000    1.1494738    -4.123956    68.964802  0.061796417  0.071283832            3 
   94000    1.1307667   -4.0977776    70.045401  0.062096986  0.071164753            2 
   95000    1.1128947   -4.1210952    70.724265  0.062038829  0.071053005            2 
   96000    1.1486702   -4.1045593    71.793907  0.062321099  0.070948127            5 
   97000    1.1417595    -4.162869    72.119664  0.061958474   0.07084508            3 
   98000    1.1003559   -4.1556651    72.799418  0.061904266   0.07073426            5 
   99000    1.1146794   -4.1414724    73.708394  0.062044102  0.070638619            1 
  100000    1.1146149    -4.130122    74.210901  0.061842417  0.070540674            2 
  101000    1.1012794   -4.1238169    74.941678  0.061833068  0.070438667            3 
  102000    1.0676318   -4.1373711    75.293236  0.061514081  0.070315254            4 
  103000    1.1010556   -4.1592286    75.864853  0.061379331  0.070175667            1 
  104000    1.1056406   -4.1610152    76.908152  0.061625122  0.070039958            2 
  105000    1.1186409   -4.1015373    78.028839   0.06192765  0.069924152            2 
  106000    1.1170792    -4.145353     78.45628  0.061679465  0.069809531            2 
  107000    1.1039224   -4.1496059    78.740552  0.061324417  0.069687077            2 
  108000    1.0797368   -4.1529381    79.442675   0.06129836  0.069552768            4 
  109000    1.1060491   -4.1665599    80.138632  0.061268067   0.06941569            7 
  110000    1.0647018   -4.1315871    81.005725  0.061367973   0.06926919            2 
  111000    1.0940422   -4.1334502    81.804353  0.061414679  0.069131776            2 
  112000    1.0836385   -4.1290153    82.224659  0.061179061  0.068995338            4 
  113000    1.1083618   -4.1939242    82.611236   0.06092274   0.06884588            2 
  114000    1.0949851   -4.1836048    82.916653  0.060611588  0.068695812            2 
  115000    1.0820885   -4.1324276    84.454138  0.061198651  0.068544386            3 
  116000    1.1046835   -4.1776785    84.462629  0.060677176  0.068397705            3 
  117000    1.0901584   -4.1820733    85.226412  0.060702573  0.068252774            2 
  118000    1.0985577   -4.1830561    85.740868   0.06055146   0.06810942            2 
  119000    1.0843428   -4.1968063    86.283239  0.060422436  0.067956503            2 
  120000    1.0725211    -4.165256    86.713006  0.060217365   0.06780118            1 
  121000    1.1024442   -4.1805947    87.072439  0.059967244  0.067643086            3 
  122000    1.0632109   -4.2006386    87.987132    0.0601005  0.067481958            2 
  123000    1.0659675   -4.2008704    88.105215   0.05969188  0.067311469            1 
  124000    1.0572768   -4.1872036    89.176744  0.059930607  0.067148778            2 
  125000    1.0726504   -4.1829377    89.703882  0.059802588  0.066987545            5 
  126000    1.0691631   -4.2018039    89.946394  0.059488355  0.066818479            3 
  127000    1.0659078   -4.1894411    90.341409   0.05927914  0.066640164            2 
  128000    1.0653754   -4.1772426    91.095872  0.059307208  0.066459754            3 
  129000    1.0784362   -4.2078267    91.599701  0.059172934   0.06628049            2 
  130000    1.0637348   -4.2122803    92.789186  0.059480247  0.066115385            4 
  131000    1.0504987   -4.2129287    93.027587  0.059177854  0.065960501            1 
  132000    1.0576239   -4.2489249    94.141085  0.059432503  0.065811031            2 
  133000    1.0231245   -4.1877817    94.028907  0.058915355  0.065657879            3 
  134000    1.0396173   -4.2014864    95.005205  0.059082839  0.065502801            3 
  135000    1.0516178   -4.2378993    95.695695  0.059071417  0.065355521            3 
  136000     1.078398   -4.2150707    95.942163   0.05878809  0.065204018            2 
  137000    1.0626214   -4.2303487    96.942621  0.058967531  0.065058145            1 
  138000    1.0666876    -4.223767    97.435924  0.058838118  0.064911704            2 
  139000     1.054692   -4.2396039    98.450775  0.059023246  0.064770277            2 
  140000    1.0429865   -4.2684795    98.600803  0.058690954  0.064631333            2 
  141000    1.0582181    -4.257378     99.46248  0.058783971  0.064498754            1 
  142000     1.049284   -4.2516289    100.02986   0.05870297  0.064368179            2 
  143000    1.0459781   -4.2111888    100.64691  0.058652045  0.064234459            4 
  144000    1.0627146   -4.2352633    101.40423  0.058683005  0.064097315            2 
  145000    1.0178107   -4.2945791    101.23926  0.058183482  0.063955677            3 
  146000    1.0474048   -4.2806518    101.89521  0.058159364  0.063806183            2 
  147000    1.0188407   -4.2512791    102.43975  0.058072421  0.063659358            5 
  148000    1.0396166   -4.2835635    102.92507  0.057953302  0.063512555            3 
  149000    1.0301402   -4.2673981    103.98628  0.058157875  0.063367962            4 
  150000     1.030286   -4.2777302     103.7823  0.057656834  0.063227396            3 
  151000    1.0239256   -4.2901457     104.4182  0.057625939  0.063084449            4 
  152000    1.0536291   -4.2550453    105.76719  0.057986396  0.062948821            6 
  153000    1.0188493   -4.2836178    105.76585  0.057606675  0.062813223            6 
  154000    1.0265903   -4.2830627    107.01702  0.057909642  0.062678795            2 
  155000   0.99678953   -4.2861863    106.80921  0.057424305  0.062543883            3 
  156000    1.0224793   -4.2868709    107.78326  0.057576527  0.062407974            2 
  157000   0.98829836    -4.306122    108.06919  0.057361567  0.062271241            2 
  158000    1.0344554   -4.2708561    108.96809  0.057472622  0.062144089            3 
  159000    1.0153835   -4.2704284    109.47855  0.057378694  0.062011215            3 
  160000    1.0095529   -4.3088564    109.80556  0.057190397  0.061878439            3 
  161000    1.0146921   -4.2904734    109.82685  0.056846197  0.061740882            6 
  162000    1.0078218   -4.2747593    110.14099   0.05665689  0.061601633            3 
  163000    1.0006139   -4.3031707    111.26293  0.056882888  0.061461887            6 
  164000   0.99157795   -4.3137088    111.54309  0.056678398  0.061322114            4 
  165000   0.98472281    -4.295496    112.22352  0.056678545  0.061188794            1 
  166000    1.0228472   -4.3218035    112.59023  0.056521201  0.061055528            5 
  167000   0.98571052   -4.2899492    113.23013   0.05650206  0.060925147            3 
  168000   0.98302321   -4.3203506    114.05881   0.05657679  0.060801258            1 
  169000    1.0046195   -4.3565967    114.22073  0.056321858  0.060676076            3 
  170000   0.99904639   -4.3205223    114.87896  0.056313214  0.060549068            3 
  171000    1.0136944   -4.3224541    115.51332  0.056293042  0.060425928            2 
  172000   0.99448955   -4.3381089    116.12871  0.056263909  0.060302872            4 
  173000    1.0182178   -4.3304796    116.91093  0.056315476  0.060183452            4 
  174000    1.0115361   -4.3437886    116.54871  0.055818349  0.060059934            2 
  175000   0.96851391    -4.301081    117.68636  0.056041125  0.059932727            3 
  176000   0.99053252   -4.3469398    117.46388  0.055617367  0.059807661            9 
  177000    0.9894184   -4.3371629    118.39075  0.055739525  0.059686634            3 
  178000    1.0170634   -4.3373973    118.76575  0.055601941  0.059563698            5 
  179000   0.99659491   -4.2973697    119.32423  0.055551316  0.059438871            2 
  180000   0.95762337    -4.375863     119.1583  0.055165879  0.059311231            2 
  181000   0.99342581   -4.3510695    119.96394  0.055232015  0.059178039            4 
  182000   0.97144535   -4.3305526    120.81291  0.055317268  0.059052739            3 
  183000   0.97107583   -4.3499044    121.26534  0.055221012  0.058927405            3 
  184000   0.97014231   -4.3501397    121.59562  0.055070479  0.058802722            2 
  185000   0.98584441   -4.3282612    122.23408  0.055060397  0.058677819            1 
  186000   0.98892288   -4.3734363    122.89266  0.055059435  0.058554293            5 
  187000   0.97074485   -4.3862964    123.65843   0.05510625  0.058437683            2 
  188000   0.96008921   -4.3876718    123.61219  0.054792639  0.058317844            3 
  189000   0.96570793    -4.381329     123.8742  0.054618254  0.058196549            3 
  190000   0.98025668    -4.384729     124.0247  0.054396797  0.058072641            3 
  191000   0.96755425    -4.378605    124.76688  0.054435809  0.057946593            2 
  192000   0.95026143   -4.3724894    125.82841  0.054613023  0.057825179            3 
  193000   0.93756242   -4.3706009    125.89748  0.054359877  0.057703294            3 
  194000   0.96281656   -4.4232234    126.05612  0.054147817  0.057582714            3 
  195000   0.97783347   -4.3752863    126.93919  0.054247518   0.05746144            1 
  196000   0.93022946   -4.4050084    126.85023  0.053932921  0.057338199            3 
  197000   0.95739965   -4.3958747    127.28626  0.053843595  0.057216517            3 
  198000   0.95758181   -4.4014847    127.73934   0.05376235  0.057099829            6 
  199000   0.94407611   -4.4321329    128.62177  0.053861711   0.05698087            3 
  200000   0.93075498    -4.419169     128.9082  0.053711749  0.056865255            5 
  201000   0.94400179   -4.4335772    129.82644  0.053825225  0.056751122            6 
  202000   0.93717546    -4.424941    130.34319  0.053771944  0.056639577            3 
  203000   0.94947574   -4.4166327    130.35686   0.05351267  0.056527554            3 
  204000   0.95769777   -4.4515904    130.60745  0.053352718  0.056414747            2 
  205000   0.94592195   -4.3970121    131.14191   0.05330972  0.056298948            5 
  206000   0.94095133   -4.4213657    131.65963  0.053260368  0.056182944            3 
  207000   0.95032732   -4.3817999    132.39908  0.053300756  0.056066567            3 
  208000   0.95674066   -4.4323169    132.61251  0.053130011   0.05594954            3 
  209000   0.92446743   -4.3755443    132.64959  0.052890584  0.055832049            2 
  210000   0.94142537   -4.3970798    133.30579  0.052899123  0.055711813            3 
  211000   0.92893059   -4.4424241    132.94327  0.052505239  0.055589364            3 
  212000   0.92974141   -4.4266061    133.57922  0.052507556  0.055467219            2 
  213000   0.93061465   -4.3968339    134.48339  0.052614786  0.055346262            3 
  214000   0.91113108   -4.4118466    133.90122  0.052142219   0.05522487            5 
  215000   0.92339307   -4.4219006    134.69968  0.052209177  0.055101316            3 
  216000   0.92341137   -4.4604503    134.91533  0.052050669  0.054978659            3 
  217000   0.93899789   -4.4078431     135.5192  0.052042705  0.054855308            3 
  218000   0.89994004   -4.4611643    135.86761  0.051937158  0.054733351            3 
  219000   0.93539823   -4.4682599    136.39479  0.051900604  0.054613242            9 
  220000   0.93948689   -4.4165657    136.38297  0.051660215  0.054492267            9 
  221000   0.92893847   -4.4704698    136.48267  0.051464053  0.054372828            4 
  222000   0.90886517   -4.4704041    137.31406  0.051544317  0.054251318            3 
  223000   0.91616714   -4.4541065    137.35376  0.051328012  0.054129181            4 
  224000   0.91454583   -4.4556162     138.0177   0.05134587  0.054009628            3 
  225000   0.91844389   -4.5017986    137.85478  0.051057325   0.05388909            4 
  226000   0.90757779   -4.4692987    138.32152   0.05100351  0.053767516            7 
  227000   0.89402803   -4.4743232    138.36243  0.050793843  0.053645448            2 
  228000    0.8917755   -4.4642072     139.2726  0.050903729  0.053521884            7 
  229000   0.90535975   -4.5100425    139.17534  0.050646046  0.053398012            4 
  230000   0.88907776   -4.4941856    139.93105  0.050699657  0.053274155            4 
  231000   0.90486277   -4.4827127    139.70199  0.050397543  0.053152085            4 
  232000   0.87592077   -4.5098475    140.22129  0.050366841  0.053030271            4 
  233000   0.90223836   -4.5078277    140.93157  0.050404711  0.052908846            4 
  234000   0.89013037    -4.508364    142.06505  0.050592966  0.052793189            3 
  235000   0.90227068   -4.5099657    142.11176  0.050394242  0.052680901            5 
  236000   0.90539734   -4.5122635    142.55212  0.050336199   0.05256924            3 
  237000   0.89008985   -4.4724433    142.91894  0.050252792  0.052457237            3 
  238000   0.91146789   -4.4672115    143.27277  0.050165536  0.052345369            2 
  239000   0.89051759    -4.496781    143.75705  0.050124496  0.052232941           14 
  240000   0.87417582   -4.5295163    143.93614  0.049977828  0.052119429            3 
  241000   0.87355891   -4.5111029    144.14479  0.049842597  0.052007001            3 
  242000   0.86579544   -4.5201911    144.89345  0.049894439   0.05189382            7 
  243000   0.89131835   -4.5233182     145.1793  0.049787139  0.051783762            4 
  244000   0.87287273   -4.5092548    144.64426  0.049400362  0.051671931            7 
  245000   0.88099659   -4.5457371    145.82087  0.049598936  0.051562372            1 
  246000   0.88955992   -4.5304752    146.15063  0.049509023  0.051451904            2 
  247000   0.84843421   -4.5501425    146.32026  0.049365809  0.051342048            4 
  248000   0.86777843   -4.5211785     147.1462  0.049444286  0.051232689            4 
  249000   0.87089613     -4.55879    146.69622  0.049095122  0.051124593            3 
  250000   0.86824636   -4.5443046    147.13888  0.049046293   0.05101459            4 
  251000   0.85477072   -4.5341071    147.87783  0.049096225  0.050905017           11 
  252000    0.8674094   -4.5703117     147.5444  0.048791136  0.050793798            2 
  253000   0.87773609   -4.5373052    147.95515  0.048733579  0.050682254            4 
  254000   0.85938553   -4.5309588    148.45421  0.048705449  0.050572513            5 
  255000    0.8722534   -4.5434353    148.69681   0.04859373  0.050463253            3 
  256000   0.84449896    -4.576474    149.77154  0.048753758  0.050356507            8 
  257000   0.85283762   -4.5528002    149.69394  0.048538891  0.050251599            3 
  258000   0.85796924   -4.5592179    149.40801    0.0482584   0.05014536            6 
  259000   0.85754494   -4.5674607    150.36399  0.048379661  0.050038871            6 
  260000   0.85345109   -4.6096322    150.35057  0.048189284  0.049931536            4 
  261000   0.86058902   -4.5899376    150.46781  0.048042086  0.049824595            5 
  262000   0.84203259   -4.5813754    150.68219  0.047926905  0.049717038            2 
  263000   0.86390065   -4.5646604    151.47402  0.047995569  0.049610948            9 
  264000   0.84805439   -4.5758336    152.17749  0.048035823  0.049505296            4 
  265000   0.85797849   -4.5756719    152.40148  0.047924994  0.049400086            3 
  266000   0.81964103   -4.5648577    152.93353  0.047911507  0.049294802            4 
  267000   0.85092694   -4.6133412     152.2843  0.047529431  0.049187653           12 
  268000   0.82546777   -4.6262743    152.90099  0.047543841  0.049080286            6 
  269000   0.83073798   -4.6066708    153.47394  0.047544591  0.048975806            5 
  270000   0.82788519   -4.6027077    153.15171  0.047269046  0.048870193            5 
  271000   0.82734826   -4.6287322    153.65004   0.04724786  0.048763247            6 
  272000   0.84792635    -4.621068    153.89261  0.047148472  0.048654376            5 
  273000   0.83369019   -4.6103161       153.72  0.046923078  0.048547374            7 
  274000   0.84216248   -4.5959515    154.03648  0.046848076  0.048439264            7 
  275000   0.83710669   -4.6160061    154.42001  0.046793942  0.048332864            7 
  276000   0.83085707   -4.6228958     154.4523  0.046634148  0.048225865            6 
  277000   0.82526929   -4.6343248    155.12518  0.046668224  0.048120351            5 
  278000   0.83755763   -4.6447545     155.3647  0.046572153  0.048014159            6 
  279000   0.84336905   -4.6642415    155.19154  0.046353507  0.047908337            7 
  280000   0.81001976   -4.6343177    155.42534  0.046257542  0.047800948            2 
  281000   0.81922293    -4.642184    155.63986  0.046156544  0.047694368            2 
  282000   0.81608319   -4.6621802    156.19689  0.046157473  0.047585958            3 
  283000   0.81699204   -4.6516987    156.10369  0.045966929  0.047480535            4 
  284000   0.81268808   -4.6526443    157.06855  0.046088188  0.047375384            7 
  285000   0.81182412   -4.6480973    157.34616  0.046007649  0.047270504            5 
  286000   0.81693844   -4.6481204    157.45675  0.045879007   0.04716473            6 
  287000    0.8037582   -4.6717255    157.28842  0.045670273  0.047058752            4 
  288000   0.81757522   -4.6796008    157.04946  0.045442551  0.046952316            4 
  289000   0.81016755   -4.6480921    157.57136  0.045435801  0.046846371            2 
  290000    0.7950547   -4.6781621    157.70559  0.045317697   0.04674183            4 
  291000   0.79867201   -4.6827751    158.27845  0.045326018  0.046638108            5 
  292000   0.80873505   -4.7000574    158.81977  0.045325276  0.046534677           12 
  293000   0.81216014   -4.7059682    158.89019  0.045190611  0.046431559           14 
  294000   0.79329478   -4.6694943    159.89212  0.045320896  0.046328749            3 
  295000   0.80797196   -4.6599753    160.38258  0.045305814  0.046230169            3 
  296000   0.79253976   -4.6603249    160.91636  0.045303028  0.046131234            5 
  297000   0.78794567   -4.6977639    160.31212  0.044980953  0.046030086            3 
  298000   0.77617509   -4.6963578    160.33361   0.04483602  0.045929728           10 
  299000   0.79293402   -4.6995104    160.62862  0.044768288  0.045827872            4 
  300000    0.7881049   -4.6912563     160.6861  0.044635027  0.045728078            7 
  301000    0.7628389   -4.6955584    161.32782  0.044664401  0.045629084            4 
  302000   0.78670628    -4.688853      161.796  0.044645695  0.045529581            4 
  303000   0.79083903   -4.6723342    161.55098  0.044430964  0.045428292            2 
  304000   0.77249038   -4.7222289    161.62953   0.04430634  0.045326833            3 
  305000   0.78198165   -4.6953867    161.52478  0.044132454  0.045224266            8 
  306000   0.78870351   -4.7102797    161.93222  0.044099187  0.045121091            5 
  307000    0.7979847    -4.685834    162.04105  0.043985084  0.045018975            7 
  308000   0.78491637   -4.7184522    161.68428  0.043745746  0.044916966            6 
  309000   0.77215072   -4.7281785    162.17135   0.04373553  0.044814992            6 
  310000   0.78737403    -4.721836    163.07133  0.043836379  0.044713539            6 
  311000   0.77755524   -4.7163222    163.21939    0.0437351  0.044613122            2 
  312000   0.76374085   -4.7237081    163.84305  0.043761497  0.044513138            8 
  313000   0.77113828   -4.7383599    162.99567  0.043396078  0.044411384            5 
  314000   0.77058619   -4.7326146     163.1032  0.043286413  0.044310332            6 
  315000   0.76127787   -4.7484937    163.45128   0.04324108  0.044209517            4 
  316000   0.75748724   -4.7419923    164.39714  0.043353675  0.044109536            5 
  317000   0.76980036   -4.7642086    163.99485   0.04311116  0.044010771            6 
  318000   0.75865685   -4.7579656    164.47844  0.043102316  0.043910593           10 
  319000    0.7577018   -4.7482393    164.38118  0.042941793  0.043811607            5 
  320000   0.76327411   -4.7819737    164.73962  0.042900942  0.043712297            8 
  321000   0.74814442   -4.7650457    165.07433  0.042854188  0.043613722           11 
  322000   0.75945535   -4.7644178    165.34165  0.042790283  0.043515929           10 
  323000   0.74708941   -4.7956279    165.15425  0.042609455  0.043418064            6 
  324000   0.77192251   -4.7585824    165.32408  0.042521625  0.043321121            6 
  325000   0.76134934   -4.7606218    165.87233  0.042531368  0.043223938            5 
  326000   0.73257053   -4.7892691    165.94239  0.042418812  0.043127691            8 
  327000   0.73045355   -4.7833393    165.87543  0.042272025  0.043031287            4 
  328000   0.74445454   -4.7968776    166.95579  0.042417629  0.042934276            6 
  329000   0.74833084   -4.8111803    167.00743   0.04230178  0.042839512            5 
  330000   0.74798642   -4.7938021    166.81799  0.042125756  0.042744347           16 
  331000   0.73844886   -4.7937589    167.04042  0.042054487  0.042648765            7 
  332000   0.74600122   -4.8013264    166.85681   0.04188173  0.042553319            7 
  333000   0.74026067   -4.7853731    167.01192  0.041794776  0.042457219           14 
  334000   0.73902319   -4.7943242    167.32368  0.041747425   0.04236056            8 
  335000   0.72514703   -4.8154942    167.91164  0.041769064  0.042265525            9 
  336000   0.71838883   -4.8236297    167.82828  0.041624078  0.042170834           10 
  337000   0.73029983   -4.8025038    168.31341  0.041620526  0.042076105            5 
  338000   0.72505148   -4.8518635    168.38353  0.041514676  0.041982545           23 
  339000   0.71953105   -4.8024149    168.51821  0.041425322  0.041889127            7 
  340000   0.73898407   -4.8287392     168.8699   0.04138968  0.041795464           11 
  341000   0.72215824   -4.8291503    169.36838  0.041390122  0.041702608            8 
  342000   0.72863396   -4.8303313    168.91149   0.04115777  0.041610713            4 
  343000   0.72610856   -4.8209072    169.27803   0.04112683    0.0415181           12 
  344000   0.71935184   -4.8404725    169.62566  0.041091487  0.041426404            4 
  345000   0.73261917   -4.8437104    169.86109  0.041029248  0.041334178            6 
  346000   0.71758277   -4.8302755    170.18316  0.040988237  0.041241913           10 
  347000   0.69414183   -4.8533356    170.13802  0.040859274  0.041149272           12 
  348000   0.70834738    -4.856995    169.78327  0.040656913  0.041057295            5 
  349000   0.70480196   -4.8444202     170.4081  0.040689612  0.040965721            7 
  350000   0.70370022   -4.8553958    170.35674  0.040561129  0.040874541           11 
  351000   0.71250239   -4.8430429    170.02297  0.040366327    0.0407832            7 
  352000   0.71367684   -4.8630603    170.32946   0.04032421  0.040691548            6 
  353000   0.70674155   -4.8652529    171.02032  0.040373068  0.040599444            5 
  354000   0.71104999   -4.8705859    171.08945  0.040275293  0.040507327            6 
  355000   0.69753592   -4.8729016    171.58131  0.040277303  0.040416641            8 
  356000   0.69622377   -4.8701594    171.54152  0.040154849  0.040327089            5 
  357000   0.70619893   -4.8703896    171.07386  0.039933206  0.040236176           10 
  358000   0.70487745   -4.9019862    171.07183  0.039821189  0.040145373            9 
  359000   0.69615024   -4.8880229    171.27479   0.03975738  0.040054682            5 
  360000    0.7012897   -4.9027304    171.65837  0.039735733  0.039963419           16 
  361000   0.70288683   -4.9056988    171.63306  0.039619821  0.039872444           11 
  362000   0.70016067   -4.8906776    172.80006  0.039779019  0.039782344            7 
  363000   0.67748079   -4.9116721    172.03243  0.039493211  0.039692542           11 
  364000   0.68130341   -4.9114614     172.3748  0.039463095  0.039602789           10 
  365000   0.67168141   -4.9075065    172.38697  0.039357755  0.039513075            8 
  366000   0.69231038   -4.9034326    172.60762  0.039300461  0.039422525           13 
  367000   0.70265888   -4.9031268    172.69674  0.039213609  0.039332271            7 
  368000   0.68559606   -4.9231908    172.78552  0.039127156  0.039242281            5 
  369000   0.67576205   -4.9198234    173.29252   0.03913562  0.039152185            7 
  370000   0.67477042   -4.9253199    172.84454  0.038928951   0.03906232           18 
  371000    0.6918584   -4.9194822     172.8271  0.038820103  0.038973276            9 
  372000   0.67051562   -4.9344779     173.4087  0.038846034  0.038883654            8 
  373000   0.68033064   -4.9621131    173.21503  0.038698621  0.038793539            9 
  374000   0.67617574   -4.9592653    173.53771  0.038667048   0.03870358           16 
  375000   0.66817533   -4.9304251    173.57693  0.038572651  0.038614204           11 
  376000   0.66332446   -4.9396454    173.94836  0.038552385  0.038526008           15 
  377000   0.67137182   -4.9502122    173.92156  0.038444201  0.038437725            7 
  378000   0.66287359   -4.9542809    174.83896  0.038544744   0.03835097            7 
  379000    0.6636191   -4.9631412    174.36244  0.038338268  0.038264136           15 
  380000   0.67252521   -4.9721706     174.3312  0.038230526  0.038176851           10 
  381000   0.67515645   -4.9547976      174.806  0.038234032  0.038090048           20 
  382000   0.65201925   -4.9711963    174.65163  0.038100268  0.038003564            6 
  383000   0.64726002   -4.9750179    174.65169  0.038000804  0.037917485           11 
  384000   0.64372131   -4.9799407    174.78619  0.037931031  0.037830654            8 
  385000   0.65284725   -4.9657154     174.8163  0.037839026  0.037743701            9 
  386000   0.66077614   -4.9728776    174.92221  0.037763861  0.037657004            8 
  387000   0.65866693   -4.9989248    175.16958  0.037719548  0.037569827           14 
  388000   0.64968213   -4.9806369     175.8585  0.037770296  0.037483745            8 
  389000   0.64822183    -4.976027    175.66387  0.037631506  0.037398577            4 
  390000    0.6410091    -4.986016    176.04868   0.03761724  0.037312923            9 
  391000   0.64888361   -4.9675463    175.88955  0.037487117   0.03722769           10 
  392000   0.64452055   -4.9964971    175.91146  0.037396144  0.037143203           28 
  393000   0.64722051    -4.998244    175.55662  0.037225746  0.037058708           11 
  394000   0.64193334   -4.9919682    175.79715  0.037182139  0.036973978            8 
  395000   0.62689116    -5.021546    175.82046  0.037092924  0.036889172            9 
  396000   0.62960421    -5.003952    175.89734  0.037015434  0.036804433            5 
  397000   0.62920181   -5.0021957     176.1805  0.036981634  0.036720629            8 
  398000   0.63746802   -5.0355152    176.15667  0.036883726  0.036636991           20 
  399000    0.6270111   -5.0169481    176.31265  0.036823861  0.036552965           10 
  400000       0.6231   -5.0345573    176.10045  0.036687594  0.036467962           12 
  401000   0.62443642   -5.0239067    176.88032  0.036758172  0.036383425           17 
  402000    0.6123398   -5.0363264    176.52062  0.036592168  0.036299198           12 
  403000   0.62911257   -4.9996175    176.70398  0.036539283  0.036214968           14 
  404000   0.63477436   -5.0223042    176.60717  0.036428871   0.03613085           11 
  405000   0.63894744   -5.0241006    176.92568  0.036404461  0.036047086            8 
  406000   0.61453941   -5.0329352    176.86573   0.03630249  0.035963518           10 
  407000   0.61390112   -5.0763936    176.55445   0.03614956  0.035879855            8 
  408000     0.620894   -5.0513339    176.61846  0.036074033  0.035795202           14 
  409000   0.60829018   -5.0645149    176.54727  0.035971326  0.035710538           27 
  410000   0.60991878   -5.0614694    176.78343  0.035931591  0.035625753           17 
  411000   0.59896761   -5.0459804    176.79914  0.035847351  0.035541701           19 
  412000    0.6162122   -5.0833753    177.08718  0.035818603  0.035457639           12 
  413000   0.61194255    -5.084561    176.95863  0.035705938  0.035373713           30 
  414000   0.62254392   -5.0753097    176.76128  0.035579969  0.035289589            6 
  415000   0.60382357   -5.0806152    176.98608  0.035539374  0.035205697           10 
  416000   0.60580038   -5.0958411    177.28101  0.035513022  0.035121991           14 
  417000    0.6205948   -5.0870468    177.16111    0.0354039  0.035038108           22 
  418000   0.59784561   -5.0848049    177.58626  0.035403958  0.034954713           10 
  419000   0.60697353   -5.0811094    177.43259  0.035288899  0.034871893            6 
  420000   0.59846316   -5.0849641    177.58127  0.035234379  0.034789358           16 
  421000   0.57843536   -5.1019217    177.63018  0.035160367  0.034706892            7 
  422000   0.59143758   -5.0856093    177.36072  0.035023839  0.034624412           12 
  423000   0.60071504   -5.1030259    177.77229  0.035022122  0.034542412            8 
  424000   0.58776509   -5.1324537    177.55438  0.034896694  0.034460435           21 
  425000   0.59279557   -5.1309475    178.25093  0.034951163  0.034378692           27 
  426000   0.59228656   -5.1272359    177.70282  0.034761898  0.034296877           17 
  427000   0.58369983   -5.1186486    178.26889  0.034790962  0.034215211           11 
  428000   0.58028714   -5.1320797    177.72233  0.034603258  0.034134024           22 
  429000   0.58650878   -5.1232807     177.4848  0.034476458  0.034052439            9 
  430000   0.58234325   -5.1058609    178.14364  0.034523962  0.033971091           16 
  431000   0.56841436   -5.1279512    177.80619  0.034378614  0.033889616           10 
  432000   0.56671393   -5.1109725    177.84111   0.03430577  0.033807489           24 
  433000   0.56907045   -5.1424017    177.89603  0.034237111  0.033725577            7 
  434000   0.57590696   -5.1470246    178.12746  0.034202661  0.033643751           19 
  435000   0.56652577   -5.1295677    178.09199  0.034117239  0.033561785           12 
  436000   0.57464036   -5.1444047    177.79331  0.033981903  0.033479871           10 
  437000   0.55744756   -5.1438809    177.70896  0.033888056  0.033397946           14 
  438000   0.56352885   -5.1520913    177.95693  0.033857864  0.033316371           20 
  439000   0.57634468   -5.1441259    178.10003  0.033807902  0.033235114           13 
  440000   0.55781581   -5.1646796    177.72081  0.033659243  0.033153594           28 
  441000   0.56854014   -5.1514992    178.09633   0.03365388  0.033072508           18 
  442000   0.55271505   -5.1726025    177.57712   0.03347985  0.032991161           13 
  443000   0.56756083   -5.1750887    177.58811  0.033406341  0.032909524           38 
  444000   0.55795748   -5.1903023    177.75766  0.033362923  0.032828011           72 
  445000   0.55981431   -5.1734224      177.482   0.03323633  0.032746518           18 
  446000   0.55914004   -5.2023019    177.48533  0.033162431  0.032664924           17 
  447000   0.55639524    -5.200814    178.00595    0.0331853   0.03258308           35 
  448000   0.55067746   -5.2019532     177.9798  0.033106362  0.032501853           15 
  449000   0.55726805   -5.2004951    177.83862  0.033006426  0.032420796           13 
  450000   0.55056207   -5.2030471    177.38013  0.032848172  0.032339874           27 
  451000   0.54954595   -5.2121677    177.74378  0.032842532  0.032258737           12 
  452000   0.54932073   -5.2007438    178.16336  0.032847227  0.032177804           17 
  453000   0.55643659   -5.2062365    177.73677  0.032696243   0.03209701           12 
  454000   0.54036849    -5.186437    177.08019  0.032503706  0.032016487           13 
  455000   0.53899709     -5.20865    177.73702  0.032552568  0.031936031           15 
  456000   0.53246067   -5.2250367    177.36542  0.032413271  0.031855101           19 
  457000   0.53874713   -5.2136131    177.53206  0.032372732  0.031774688           21 
  458000   0.53864521   -5.2251673    177.78102  0.032347346  0.031694493           21 
  459000   0.53364429   -5.2184395    177.69487  0.032261232  0.031614722            8 
  460000   0.54339744   -5.2195477    178.02478  0.032250867  0.031535488           11 
  461000    0.5394294   -5.2310671    177.83032  0.032145755  0.031455974           15 
  462000   0.52083128   -5.2402279    177.80945  0.032072412   0.03137613           17 
  463000    0.5280646   -5.2272123    177.68758  0.031981206  0.031296648           24 
  464000   0.52456626   -5.2535497    177.84254  0.031940112   0.03121699           14 
  465000   0.52896754   -5.2401911    177.53354  0.031816046  0.031137298           32 
  466000   0.52715018   -5.2297079    177.98738   0.03182893  0.031058129           35 
  467000   0.52307103   -5.2478074    177.72459   0.03171388  0.030978987           39 
  468000   0.52372228   -5.2538473    178.33117  0.031754126  0.030900439           30 
  469000   0.50796076   -5.2443487     177.7852   0.03158941  0.030822149           25 
  470000    0.5144775   -5.2566294    177.94109  0.031549839  0.030744131           23 
  471000   0.51201145   -5.2624615    177.87402  0.031470987  0.030666275           13 
  472000    0.5167412   -5.2603684    177.66219  0.031366912  0.030588403           46 
  473000   0.51289494     -5.27964    177.53847    0.0312788  0.030510252           27 
  474000   0.51576138   -5.2708317    177.63543  0.031229858  0.030432296           31 
  475000   0.50967856   -5.2749782     177.7356  0.031181684  0.030354214           30 
  476000   0.52203434   -5.2901241    177.17265  0.031017621  0.030276188           37 
  477000   0.49866857   -5.2819332    177.47059  0.031004645  0.030198061           18 
  478000   0.49981136   -5.2901534    177.40285  0.030927973  0.030119798           41 
  479000   0.50254247   -5.2925266    177.31364  0.030847885  0.030041903           15 
  480000   0.50870987   -5.2995533    177.21781  0.030766981  0.029963928           49 
  481000   0.50046379   -5.3040644    177.20768  0.030701262  0.029886446           53 
  482000   0.49964543   -5.3156857     177.5321  0.030693655  0.029809057          105 
  483000   0.49871846   -5.3044328     177.3175  0.030593081  0.029731682           19 
  484000    0.4931402   -5.3152651    177.14486  0.030500147  0.029654511           35 
  485000   0.49647626   -5.3341835    177.14301  0.030436943  0.029577332           58 
  486000   0.49155821   -5.3157785    177.14029  0.030373849  0.029499986           74 
  487000   0.48957438   -5.3130574    176.91659  0.030273201  0.029422827           42 
  488000   0.48275031   -5.3371176    176.98133  0.030222221  0.029345655           32 
  489000   0.49890892   -5.3251769    177.10091  0.030180795  0.029268891           23 
  490000   0.47908366   -5.3352918    177.10611  0.030120087   0.02919252           14 
  491000   0.48496404   -5.3411547    177.53209   0.03013104  0.029116135           77 
  492000   0.47344102   -5.3366209    176.95449  0.029971966  0.029040228           70 
  493000    0.4829495   -5.3382091    177.18297  0.029949793  0.028964423           34 
  494000   0.48109288   -5.3415755    177.28224  0.029905911  0.028888917           74 
  495000   0.46600865   -5.3514818    177.09187  0.029813446  0.028813516          106 
  496000   0.47413593   -5.3463019    176.79415  0.029703319  0.028738283           32 
  497000   0.47212377   -5.3359102    177.63152  0.029783956  0.028663393          106 
  498000   0.47745487   -5.3512008    177.14338  0.029642466  0.028588674           56 
  499000   0.47789214   -5.3578024    177.32645  0.029613635  0.028513914          114 
  500000   0.45999431   -5.3565823    177.02169  0.029503614  0.028439014           52 
  501000   0.48087144   -5.3584585    176.90725  0.029425691  0.028364466           58 
  502000   0.47485223   -5.3545048     176.9281  0.029370535  0.028290115           61 
  503000   0.45973771   -5.3802059    176.99814  0.029323748  0.028216156           39 
  504000   0.45646597   -5.3919729    177.18469  0.029296411  0.028142297           52 
  505000    0.4615929   -5.3824482    176.85452  0.029183914  0.028068454           61 
  506000   0.45880208   -5.3947986    176.75821  0.029110378   0.02799484           36 
  507000   0.45989485   -5.3950382    177.06229   0.02910294  0.027921624           21 
  508000   0.46678538   -5.4004309    177.15338  0.029060593  0.027848474           29 
  509000   0.46342857   -5.3981299    176.84886  0.028953644  0.027775279           28 
  510000   0.45345809   -5.4032752    176.83707  0.028894947  0.027702363           86 
  511000   0.44935339   -5.4020121     177.0613  0.028874968  0.027629576           85 
  512000   0.45031997   -5.4174754     176.7456  0.028767187  0.027556993           61 
Loop time of 1257.18 on 48 procs for 500000 steps with 4000 atoms

Performance: 68725.378 tau/day, 397.716 timesteps/s
99.4% CPU use with 48 MPI tasks x no OpenMP threads

MPI task timing breakdown:
Section |  min time  |  avg time  |  max time  |%varavg| %total
---------------------------------------------------------------
Pair    | 83.838     | 90.657     | 95.833     |  26.3 |  7.21
Neigh   | 8.4701     | 8.8071     | 9.0667     |   5.3 |  0.70
Comm    | 80.097     | 85.652     | 92.445     |  28.6 |  6.81
Output  | 0.86662    | 0.86737    | 0.8894     |   0.3 |  0.07
Modify  | 1056.5     | 1059.5     | 1061.6     |   3.9 | 84.28
Other   |            | 11.65      |            |       |  0.93

Nlocal:        83.3333 ave          90 max          77 min
Histogram: 4 5 3 8 4 5 10 3 3 3
Nghost:        2304.50 ave        2327 max        2284 min
Histogram: 2 5 6 7 6 7 7 3 2 3
Neighs:        15676.0 ave       17020 max       14164 min
Histogram: 2 4 7 4 6 4 8 3 5 5
FullNghs:      31352.8 ave       33934 max       28741 min
Histogram: 5 3 5 3 8 3 7 7 5 2

Total # of neighbors = 1504935
Ave neighs/atom = 376.23375
Neighbor list builds = 26935
Dangerous builds = 0

#clear
#
#next RN
#
#jump SELF
Total wall time: 0:21:00
