
units lj                  # Use reduced LJ style units
atom_style atomic         # Uncharged point particles
atom_modify map hash      # Needed for indexing of clusters etc
                          # Used to be able to find where atoms are in relation to each other.

lattice fcc 1.0 spacing 1 1 1
Lattice spacing in x,y,z = 1.5874011 1.5874011 1.5874011
region box block 0 10 0 10 0 10 units lattice
create_box 2 box
Created orthogonal box = (0.0000000 0.0000000 0.0000000) to (15.874011 15.874011 15.874011)
  3 by 4 by 4 MPI processor grid
create_atoms 1 box
Created 4000 atoms
  using lattice units in orthogonal box = (0.0000000 0.0000000 0.0000000) to (15.874011 15.874011 15.874011)
  create_atoms CPU = 0.002 seconds
set type 1 type/fraction 2 0.42 78393
Setting atom values ...
  1685 settings made for type/fraction
mass 1 1.0
mass 2 1.0
pair_style lj/cut  3.5
pair_modify tail  yes
pair_coeff 1  1  1.0  1.0   # Intearaction between 1 and 1 set with epsilon = 1 and sigma = 1
pair_coeff 1  2  1.5  0.8
pair_coeff 2  2  0.5  0.88

write_data data.0
System init for write_data ...
Neighbor list info ...
  update every 1 steps, delay 10 steps, check yes
  max neighbors/atom: 2000, page size: 100000
  master list distance cutoff = 3.8
  ghost atom cutoff = 3.8
  binsize = 1.9, bins = 9 9 9
  1 neighbor lists, perpetual/occasional/extra = 1 0 0
  (1) pair lj/cut, perpetual
      attributes: half, newton on
      pair build: half/bin/atomonly/newton
      stencil: half/bin/3d
      bin: standard
WARNING: Not all mixed pair coeffs generated from mixing. Use write_data with 'pair ij' option to store all pair coeffs. (../write_data.cpp:312)


#############################
#   M E L T   S Y S T E M   #
#############################

velocity all create 2.4 5833274 mom yes dist gaussian # Assign velocities
                                                    # Temperature 2.4, random number seed, zero linear momentum
                                                                                # Gaussian distribution

timestep 0.002   # simulation timestep
thermo 1000       # output thermodynamic data every 1000 steps bf 100

# Define a fix  in this case with index 1 applied to all
# particles in the simulation. This fix is for simulations
# in the anisotropic NPT ensemble. Note that we use the MTK
# correction.
fix 1 all npt temp 2.4 2.4 0.1 iso 5.68 5.68 0.5 mtk yes tchain 5 pchain 5 # Use NPT ensemble
                                                                         # Set temperature and pressure and damping
                                                                         # Numbers of thermostats in chain and in barostat
run 10000          # run for 10000 steps
Per MPI rank memory allocation (min/avg/max) = 3.642 | 3.644 | 3.648 Mbytes
Step Temp E_pair E_mol TotEng Press Volume 
       0          2.4   -5.7538232            0   -2.1547232    -4.186528         4000 
    1000    2.3598361   -4.9873681            0   -1.4484989    5.5730916    3876.5806 
    2000    2.4450892   -5.0625184            0   -1.3958016    5.4528185    3846.5178 
    3000    2.3712986   -5.0818319            0   -1.5257733    5.3796726     3849.223 
    4000    2.4193174   -5.0471301            0   -1.4190612    5.6662822    3841.6313 
    5000    2.3579661   -5.0824384            0   -1.5463735    5.6589843    3815.9349 
    6000     2.394545   -4.9802023            0   -1.3892827    5.5754068    3876.1105 
    7000    2.3795143    -4.981766            0   -1.4133869    5.7714119    3857.1572 
    8000    2.4571195   -4.9779942            0   -1.2932364    5.6975674    3871.6961 
    9000    2.3952536   -4.9953717            0   -1.4033895    6.0086743    3832.9884 
   10000    2.4127258   -5.0485742            0   -1.4303902    5.9184082    3813.3282 
Loop time of 2.54566 on 48 procs for 10000 steps with 4000 atoms

Performance: 678802.999 tau/day, 3928.258 timesteps/s
99.6% CPU use with 48 MPI tasks x no OpenMP threads

MPI task timing breakdown:
Section |  min time  |  avg time  |  max time  |%varavg| %total
---------------------------------------------------------------
Pair    | 1.1257     | 1.188      | 1.2954     |   2.8 | 46.67
Neigh   | 0.21068    | 0.21773    | 0.23809    |   0.9 |  8.55
Comm    | 0.71457    | 0.8519     | 0.94532    |   4.3 | 33.46
Output  | 0.00023814 | 0.00024283 | 0.0003065  |   0.0 |  0.01
Modify  | 0.24373    | 0.27272    | 0.30907    |   3.4 | 10.71
Other   |            | 0.01506    |            |       |  0.59

Nlocal:        83.3333 ave          90 max          76 min
Histogram: 1 3 8 3 4 9 6 9 4 1
Nghost:        1700.04 ave        1728 max        1682 min
Histogram: 5 5 12 5 5 6 3 3 2 2
Neighs:        10010.0 ave       11005 max        8727 min
Histogram: 1 1 4 3 7 12 8 6 3 3

Total # of neighbors = 480480
Ave neighs/atom = 120.12000
Neighbor list builds = 909
Dangerous builds = 215

# Equilibrate just above the melting temperature to avoid step fn in T

fix 1 all npt temp 1.25 1.25 0.1 iso 5.68 5.68 0.5 mtk yes tchain 5 pchain 5
run 2000
Per MPI rank memory allocation (min/avg/max) = 3.643 | 3.645 | 3.649 Mbytes
Step Temp E_pair E_mol TotEng Press Volume 
   10000    2.4127258   -5.0485742            0   -1.4303902    5.9184082    3813.3282 
   11000    1.2367894   -7.0651439            0   -5.2104236    5.7677082    3033.7402 
   12000    1.2609911   -7.1323917            0    -5.241378     5.798755    3015.7564 
Loop time of 0.609468 on 48 procs for 2000 steps with 4000 atoms

Performance: 567052.363 tau/day, 3281.553 timesteps/s
99.6% CPU use with 48 MPI tasks x no OpenMP threads

MPI task timing breakdown:
Section |  min time  |  avg time  |  max time  |%varavg| %total
---------------------------------------------------------------
Pair    | 0.27414    | 0.29522    | 0.33647    |   2.3 | 48.44
Neigh   | 0.039184   | 0.041636   | 0.048073   |   0.8 |  6.83
Comm    | 0.17735    | 0.22503    | 0.24919    |   3.1 | 36.92
Output  | 5.0127e-05 | 5.2442e-05 | 6.6569e-05 |   0.0 |  0.01
Modify  | 0.040112   | 0.042778   | 0.046684   |   0.9 |  7.02
Other   |            | 0.004743   |            |       |  0.78

Nlocal:        83.3333 ave          94 max          75 min
Histogram: 2 3 6 7 11 11 4 3 0 1
Nghost:        1987.75 ave        2024 max        1960 min
Histogram: 3 3 8 5 14 5 3 5 1 1
Neighs:        12667.3 ave       14712 max       10743 min
Histogram: 1 1 7 9 8 11 5 3 2 1

Total # of neighbors = 608029
Ave neighs/atom = 152.00725
Neighbor list builds = 143
Dangerous builds = 10

#############################
# L I N E A R  Q U E N C H  #
#############################

# Define solid atoms. This closely follows ten Wolde  Ruiz-Montero and Frenkel  Faraday Discuss  1996  104  93-110
# Compute components of the per-atom q6 vector
compute q6 all orientorder/atom degrees 1 6 components 6 nnn NULL cutoff 1.3 # compute the Q6 parameter.
                                                                             # Use all neighbours within 1.3 unit cell.

# get number of connections
compute coord_number all coord/atom orientorder q6 0.5

# An atom is solid if it has 8 or more connections (of a possible 14)
variable is_solid atom c_coord_number>=8
group solid dynamic all var is_solid    # Must be dynamic to update
dynamic group solid defined

# do clustering
compute cluster solid cluster/atom 1.3 # Create a cluster where all atoms within are solid and max 1.3 units from another member

# define chunks one chunk per cluster
compute clus_chunks solid chunk/atom c_cluster nchunk every compress yes  # Says which atoms are in which chunk

# count the size of each chunk
compute size_chunks solid property/chunk clus_chunks count


# Find the maximum entry in the vector of chunk sizes
variable max_n equal max(c_size_chunks)


# Thermo style which includes this variable
# thermo_style custom step temp pe vol v_max_n

thermo ${N}  # Print the thermo information every 100 steps
thermo 1000  

# Reset the npt fix at a lower temperature (below freezing)
fix 1  all npt temp  ${temp} ${temp}  0.1  iso  5.68  5.68  0.5  mtk yes tchain  5  pchain  5
fix 1  all npt temp  0.45 ${temp}  0.1  iso  5.68  5.68  0.5  mtk yes tchain  5  pchain  5
fix 1  all npt temp  0.45 0.45  0.1  iso  5.68  5.68  0.5  mtk yes tchain  5  pchain  5

dump dmp2 all dcd ${N} traj.dcd
dump dmp2 all dcd 1000 traj.dcd


compute msd all msd com yes
variable twopoint equal c_msd[4]/6/(step*dt+1.0e-6)
fix 9 all vector 10 c_msd[4]
variable fit equal slope(f_9)/6/(10*dt)
thermo_style custom step temp pe c_msd[4] v_twopoint v_fit v_max_n

fix 1 all npt temp 1.25 ${temp} 0.1 iso 5.68 5.68 0.5 mtk yes tchain 5 pchain 5
fix 1 all npt temp 1.25 0.45 0.1 iso 5.68 5.68 0.5 mtk yes tchain 5 pchain 5
run 500000 # 5000000  # Run for this many steps
Neighbor list info ...
  update every 1 steps, delay 10 steps, check yes
  max neighbors/atom: 2000, page size: 100000
  master list distance cutoff = 3.8
  ghost atom cutoff = 3.8
  binsize = 1.9, bins = 8 8 8
  4 neighbor lists, perpetual/occasional/extra = 1 3 0
  (1) pair lj/cut, perpetual
      attributes: half, newton on
      pair build: half/bin/atomonly/newton
      stencil: half/bin/3d
      bin: standard
  (2) compute orientorder/atom, occasional
      attributes: full, newton on
      pair build: full/bin/atomonly
      stencil: full/bin/3d
      bin: standard
  (3) compute coord/atom, occasional
      attributes: full, newton on
      pair build: full/bin/atomonly
      stencil: full/bin/3d
      bin: standard
  (4) compute cluster/atom, occasional
      attributes: full, newton on
      pair build: full/bin/atomonly
      stencil: full/bin/3d
      bin: standard
Per MPI rank memory allocation (min/avg/max) = 9.828 | 9.833 | 9.837 Mbytes
Step Temp PotEng c_msd[4] v_twopoint v_fit v_max_n 
   12000    1.2609911   -7.1323917 7.6302571e-31 5.2987894e-33 8.3333333e+20            1 
   13000    1.2360509   -7.1349049   0.49868163  0.003196677  0.040336155            2 
   14000    1.2397708   -7.1215138   0.96333581 0.0057341415  0.039781797            2 
   15000    1.2343949    -7.115834    1.3804083 0.0076689349  0.038358072            2 
   16000    1.2765867   -7.1584865    1.7939456 0.0093434664  0.037218523            2 
   17000    1.2550375    -7.100556    2.1846294  0.010708967  0.036081477            2 
   18000    1.2427599   -7.1167521    2.6016443  0.012044649  0.035597287            1 
   19000    1.2568002   -7.1645992    3.0096413  0.013200181  0.035046088            2 
   20000    1.2326054   -7.1078512    3.4019084  0.014174618  0.034721231            2 
   21000    1.2355514   -7.2015632    3.8441394  0.015254521  0.034529961            1 
   22000    1.2438108   -7.1751799    4.3063759  0.016312029   0.03469481            1 
   23000    1.2397533   -7.1989042    4.7385695   0.01716873   0.03487257            3 
   24000    1.2601743    -7.145439    5.2508948  0.018232273  0.035115756            1 
   25000    1.2417104   -7.1750603    5.7004723  0.019001574  0.035497011            2 
   26000     1.234567   -7.1551259    6.1355678  0.019665281  0.035769998            1 
   27000    1.2521318   -7.1815045    6.4689368  0.019965854  0.035863435            3 
   28000    1.2353766   -7.1874113    6.9624587  0.020721603  0.035936554            1 
   29000    1.2264514   -7.1338876    7.3898248  0.021235128  0.035967025            1 
   30000    1.1852308   -7.2055529    7.7427625  0.021507673  0.035951579            2 
   31000    1.2263743   -7.1915246    8.1433293   0.02189067  0.035808063            1 
   32000    1.2442361   -7.1646799    8.5851185  0.022357079  0.035714288            2 
   33000    1.2280207     -7.21961    8.8742079  0.022409616  0.035601697            4 
   34000    1.1968395   -7.2329179    9.2781069  0.022740458   0.03544646       -1e+20 
   35000    1.1976141   -7.2215327    9.6724063  0.023029538  0.035297571            2 
   36000    1.1807033    -7.261629    9.9916043  0.023128713  0.035115142            1 
   37000    1.2249245   -7.2104484    10.444321  0.023523244  0.034934103       -1e+20 
   38000    1.2119224   -7.2176162    10.806865  0.023699266  0.034792982            2 
   39000     1.206555    -7.214128    11.255471  0.024050152  0.034669864            1 
   40000     1.206049   -7.2191071    11.676431  0.024325899  0.034581209            1 
   41000    1.2188796   -7.2041457    12.029754   0.02445072  0.034492542            1 
   42000    1.1954065   -7.2466882    12.229522  0.024264924  0.034320091            2 
   43000    1.1986877   -7.2688502    12.530615  0.024284137  0.034119981            2 
   44000     1.199868   -7.2674965    12.887306  0.024407776  0.033919738            2 
   45000    1.1998809   -7.1964475    13.231966   0.02450364  0.033725946            3 
   46000    1.2121853   -7.3168966    13.450908  0.024367587  0.033516568            5 
   47000    1.1719714   -7.2244957    13.880429  0.024610689   0.03331456            1 
   48000    1.1576186   -7.2706724    14.220448  0.024688278  0.033121409            2 
   49000    1.1821335   -7.2845422    14.629147  0.024879502  0.032972815            1 
   50000    1.1736709   -7.2686773    14.887692   0.02481282  0.032833303            1 
   51000    1.1957471   -7.2669946    15.251978  0.024921532  0.032684651            1 
   52000    1.1971242   -7.2535551    15.638399  0.025061536  0.032546212            2 
   53000    1.1778384   -7.2982384    16.000886  0.025158625  0.032424848            3 
   54000    1.1661018   -7.2401782    16.405983  0.025317876  0.032310706            1 
   55000    1.1717222   -7.2921044    16.681987  0.025275738  0.032197679            1 
   56000    1.2018416   -7.3124872    16.865201  0.025097025  0.032071376            2 
   57000    1.1805598   -7.2952039    17.239517  0.025203972  0.031934936            1 
   58000    1.1748925   -7.3325894    17.626003  0.025324717  0.031813063            2 
   59000    1.1654622   -7.3117538    17.867057  0.025235956  0.031691323            2 
   60000    1.1639843   -7.2863791    18.190977  0.025265246  0.031559089            1 
   61000    1.1672246   -7.2849321    18.454886  0.025211593  0.031431568            4 
   62000    1.1901204   -7.2949065    18.787943  0.025252611  0.031289638            2 
   63000    1.1628009   -7.3284169    19.087306  0.025247759   0.03115231            1 
   64000    1.1773679   -7.3077354    19.404675  0.025266503  0.031027856            2 
   65000    1.1589297   -7.2967547    19.750773  0.025321504  0.030903455            3 
   66000     1.146835   -7.2819803    20.150653  0.025442744  0.030797895            2 
   67000    1.1781693   -7.3358576    20.397846  0.025370455  0.030698535            1 
   68000    1.1585277   -7.3619448    20.625358  0.025276174  0.030591155            1 
   69000    1.1318695    -7.312551    20.967511   0.02532308  0.030479541            2 
   70000    1.1530005   -7.3151298    21.379232  0.025451466  0.030381609            1 
   71000    1.1343321   -7.3447123    21.575409   0.02532325  0.030274758            1 
   72000     1.141222   -7.3636947    21.936659  0.025389652   0.03016927            2 
   73000    1.1375413   -7.3192244    22.211933  0.025356088  0.030066093            1 
   74000    1.1693002   -7.3451392    22.560511  0.025405981  0.029976391            3 
   75000    1.1597674   -7.3638897    22.765474  0.025294971  0.029881759            1 
   76000    1.1554638   -7.3689251     23.10713  0.025336765  0.029779857            1 
   77000    1.1096765   -7.3525998    23.358492  0.025279754  0.029688107            2 
   78000    1.1436577   -7.3857314    23.668669  0.025287039   0.02959293            1 
   79000    1.1187933   -7.4046565    23.985976  0.025301662  0.029506762            1 
   80000    1.1475366   -7.3985305    24.194606  0.025202714  0.029413095            1 
   81000    1.1537312    -7.393839    24.321683  0.025022308  0.029306697            2 
   82000    1.1367675   -7.4165268     24.62373  0.025024116  0.029203329            1 
   83000    1.1506214   -7.3278673    25.185562  0.025286709  0.029108574            3 
   84000    1.1220172    -7.386254    25.372352  0.025170984  0.029020132            1 
   85000    1.1412725   -7.3890539    25.651931  0.025148952  0.028932034            2 
   86000     1.141842   -7.4158185     25.93439  0.025130223  0.028849931            3 
   87000    1.1312765   -7.3844508    26.273275  0.025165972  0.028765349            3 
   88000    1.1293775   -7.3635017    26.531924  0.025124928  0.028677609            1 
   89000    1.1222057    -7.425882    26.732092  0.025030048  0.028589649            4 
   90000    1.1492955   -7.4601039    26.924287  0.024929895  0.028495899            4 
   91000    1.1084733   -7.3900604    27.283791  0.024985156  0.028410147            1 
   92000    1.1153035   -7.4585689    27.618735   0.02501697  0.028323852            2 
   93000    1.0956802   -7.4443362    27.918508  0.025016584  0.028250925            2 
   94000    1.1116931   -7.4310224    28.143965  0.024950324   0.02817699            1 
   95000    1.0949862   -7.4596745    28.627152  0.025111537  0.028109079            2 
   96000    1.1319033   -7.4315462      28.8361  0.025031336  0.028040478            2 
   97000    1.1001157   -7.4329118    29.114313  0.025012296  0.027968521            1 
   98000    1.1039573   -7.4728383    29.206901    0.0248358  0.027893501            2 
   99000    1.0994231   -7.4319479    29.390945  0.024739853   0.02781779            2 
  100000    1.0952502   -7.4382468     29.74119  0.024784325  0.027742223            1 
  101000    1.1112747   -7.5333748    29.950123  0.024711323   0.02766552            1 
  102000    1.0830685   -7.4405984    30.140683  0.024624741  0.027587786            4 
  103000    1.0960614   -7.4721332    30.431316  0.024620806  0.027507201            7 
  104000    1.1140588   -7.5204216    30.562095  0.024488858  0.027427234            3 
  105000    1.1211299   -7.4268548    30.932644  0.024549718  0.027349426            1 
  106000    1.1056575   -7.5122451    31.024831  0.024390591  0.027271377            3 
  107000    1.1059944   -7.5118428      31.3657  0.024428115  0.027194832            2 
  108000    1.1065292   -7.4544005    31.737812  0.024489052  0.027115558            3 
  109000    1.1328258   -7.4710666    31.911078  0.024396848  0.027041714            1 
  110000    1.0886895   -7.4803307    32.080713   0.02430357   0.02696005            1 
  111000    1.1019615   -7.5075767    32.146768   0.02413421  0.026874023            2 
  112000    1.0815728   -7.5226818    32.252856  0.023997661  0.026785062            3 
  113000    1.0980263    -7.539517      32.4245  0.023911873  0.026693024            3 
  114000    1.0863613   -7.5108294    32.766727  0.023952285  0.026601607            2 
  115000     1.089195   -7.4683566    33.033238  0.023937129  0.026515592            2 
  116000    1.0856974   -7.4505974    33.380882  0.023980519  0.026428793            2 
  117000    1.0752028   -7.5415629    33.601727  0.023932854  0.026345475            2 
  118000      1.04467   -7.4976943     33.93343  0.023964287  0.026266311            1 
  119000    1.0919249   -7.5291213    34.134144  0.023903462  0.026190274            3 
  120000    1.1086612   -7.5544018    34.292575  0.023814288  0.026114163            1 
  121000    1.1016967   -7.5312113    34.530561  0.023781378  0.026036285            1 
  122000    1.0791241   -7.4948533    34.971541  0.023887664  0.025960943            2 
  123000    1.0728814   -7.5386789    35.035983  0.023737115  0.025887504            1 
  124000    1.0591544   -7.5596629    35.137643  0.023614008  0.025812261            1 
  125000    1.0729735    -7.556593     35.51622   0.02367748  0.025737429            1 
  126000    1.0887683   -7.5530458    35.683866   0.02360044  0.025665286            4 
  127000    1.0456393   -7.5823792    35.937252  0.023580874  0.025595223            2 
  128000      1.08233   -7.5598289    36.109726  0.023508936  0.025523021            3 
  129000    1.0606143   -7.5804478    36.203875  0.023387516  0.025446181            3 
  130000    1.0861617    -7.531756    36.604223  0.023464245  0.025374845            3 
  131000    1.0566568   -7.5809615    36.773121  0.023392571  0.025303557            3 
  132000    1.0536737   -7.5799485    36.911659  0.023302815  0.025229663            4 
  133000    1.0676082   -7.5798532      37.2387  0.023332519  0.025159509       -1e+20 
  134000    1.0480015   -7.6001398    37.460749  0.023296486  0.025089271            2 
  135000    1.0495157   -7.6231663    37.577373  0.023195909  0.025018809            1 
  136000     1.055478   -7.6049139    37.693744  0.023096657  0.024947548            2 
  137000    1.0383719   -7.5783804    37.971336   0.02309692  0.024877785            1 
  138000     1.032226   -7.6201031    37.993982  0.022943226  0.024807336            1 
  139000    1.0600611   -7.6363797    38.336189  0.022983327  0.024734805            2 
  140000    1.0311256   -7.5901185    38.593543  0.022972347  0.024664993            1 
  141000     1.035843   -7.6354653    38.714229   0.02288075  0.024594064            1 
  142000    1.0134686   -7.6151317    38.843254  0.022795337  0.024522693            1 
  143000     1.031799   -7.6354329    39.096763  0.022783661  0.024452927            1 
  144000    1.0551123   -7.6028601    39.452717  0.022831434  0.024385553            4 
  145000    1.0411379   -7.6186637    39.650926  0.022787888  0.024320748            5 
  146000    1.0277143   -7.6645012    39.675742  0.022645971  0.024253587            4 
  147000    1.0227815   -7.6773821    39.876645  0.022605808  0.024184364            2 
  148000    1.0374501     -7.61439    40.090898  0.022573704  0.024115264            3 
  149000    1.0357404   -7.6618121     40.40091  0.022595587  0.024047881            1 
  150000    1.0321543   -7.6622726    40.556814  0.022531563  0.023982732            2 
  151000    1.0453174   -7.6425377     40.75809  0.022493427  0.023919068            2 
  152000    1.0292123   -7.6569591    40.845444  0.022393336  0.023854871            1 
  153000    1.0114451   -7.6580712    40.950448  0.022304166  0.023786137            6 
  154000    1.0210238    -7.675089    41.130649  0.022256844  0.023718056            2 
  155000     1.015409   -7.7119363    41.328945  0.022219863  0.023650146            1 
  156000    1.0292187   -7.6801489    41.423533  0.022127956  0.023581041            3 
  157000    1.0103774   -7.7100506     41.79177  0.022182468  0.023513031            3 
  158000    1.0063251   -7.6975159    41.838907  0.022066934  0.023446865            2 
  159000    1.0190476   -7.6689283    42.293893   0.02216661  0.023383779            3 
  160000    1.0056007   -7.7141374    42.410423  0.022088762  0.023321946            1 
  161000    1.0176224   -7.7064176    42.517019  0.022006738   0.02325955            1 
  162000    1.0019088   -7.6888828    42.714452  0.021972454  0.023197607            1 
  163000    1.0002186   -7.7142137    42.864502  0.021914367  0.023134779            1 
  164000   0.97831637   -7.7116983    42.972098  0.021835415  0.023071793            4 
  165000   0.99509057   -7.6742871     43.32601  0.021881823  0.023010768            4 
  166000    1.0137439   -7.7028203    43.543084  0.021858978  0.022950025            2 
  167000     1.005441   -7.7139916    43.703308  0.021808038  0.022889461            1 
  168000   0.98035612   -7.7278477    43.666317   0.02165988  0.022827358            2 
  169000   0.98986681   -7.7673359     43.70899  0.021552756   0.02276356            3 
  170000    1.0116646   -7.7593784    43.839017  0.021489714  0.022699437            3 
  171000   0.99627077    -7.748986    43.859632  0.021374089  0.022633499            2 
  172000   0.98879628   -7.7364081    44.175718  0.021402964  0.022567501            2 
  173000   0.99613532    -7.757975    44.468564   0.02142031  0.022504158            1 
  174000   0.99668006   -7.7864141    44.549265  0.021335855  0.022442782            9 
  175000   0.98958439   -7.8242308    44.577808  0.021227528   0.02238069            1 
  176000    1.0091601   -7.8358302    44.686422  0.021158344  0.022317343            2 
  177000   0.98728731   -7.7649978    45.210753  0.021285665  0.022254959            3 
  178000   0.96912666   -7.7898946    45.337111  0.021225239  0.022195643            2 
  179000   0.97596594   -7.7762008    45.580778  0.021220101  0.022137217            1 
  180000   0.96208721   -7.7872862    45.747778  0.021179527  0.022080194            1 
  181000   0.99500929   -7.7951394    45.823628  0.021097435  0.022022327            2 
  182000   0.97325248   -7.7827697    45.998848  0.021061744   0.02196424            1 
  183000   0.98192256   -7.8413664    46.031563  0.020961549    0.0219047            1 
  184000   0.97015203   -7.8201432    46.134569  0.020894279  0.021845351            2 
  185000   0.94952454   -7.8302194    46.367227  0.020886138   0.02178525            1 
  186000   0.94806243    -7.817982    46.696369  0.020921312  0.021726771            4 
  187000   0.95965508   -7.8177737    46.719069  0.020819549  0.021669894            3 
  188000    0.9730742   -7.7892015    46.891237  0.020785123  0.021612904            3 
  189000   0.95387056   -7.8016847    47.040801  0.020741094    0.0215551            2 
  190000   0.96145073   -7.8252526    47.188348  0.020696644  0.021498385            3 
  191000   0.94836285   -7.8242957    47.317466  0.020644619  0.021442022            1 
  192000   0.96215261   -7.8209191    47.486569   0.02061049  0.021385345            2 
  193000   0.94681147    -7.862807    47.625048  0.020563492  0.021328969            3 
  194000    0.9511075   -7.8184795    47.817592  0.020540203   0.02127188            2 
  195000   0.95896891   -7.8618179    47.811206  0.020432139  0.021215159            1 
  196000   0.94679248   -7.8668192    47.901563  0.020366311  0.021157942            3 
  197000   0.94616767   -7.8318477    48.095473  0.020344955    0.0211002            1 
  198000   0.93396472   -7.8499173    48.335804  0.020343352  0.021043075            2 
  199000   0.95955753   -7.8700464     48.38652  0.020262362  0.020985482            5 
  200000   0.96621227   -7.8928081    48.517639  0.020215683  0.020927813            3 
  201000   0.94892724   -7.8853216    48.508208  0.020111197  0.020870506            2 
  202000   0.93251694   -7.8573103    48.847472  0.020151597  0.020811939            2 
  203000   0.94412591   -7.8834978    48.603161  0.019952036  0.020752896            2 
  204000   0.97255982    -7.852629    48.892393  0.019972383  0.020695146            4 
  205000   0.93488401   -7.9026664    48.913208  0.019883418  0.020636667            2 
  206000   0.95111374   -7.8909798    49.117866  0.019869687  0.020578052            3 
  207000   0.93038393   -7.8997415    49.118781  0.019774066   0.02051952            3 
  208000   0.93558281   -7.9272146    49.229595  0.019723395  0.020460826            4 
  209000   0.95143079   -7.9046191    49.434293  0.019710643  0.020401333            2 
  210000   0.94497266   -7.9066259    49.478488  0.019634321  0.020342158            2 
  211000   0.93338359   -7.9347506    49.274902  0.019460862  0.020281843            1 
  212000    0.9289578   -7.9317221    49.586548  0.019491568    0.0202203            2 
  213000    0.9227641   -7.9566363    49.522176  0.019374873  0.020159456            4 
  214000   0.95093961   -7.8968505    49.845741  0.019410335  0.020099379            1 
  215000   0.91855914   -7.9403036    49.678059  0.019255061   0.02003822            5 
  216000   0.91879135   -7.9510433    49.772252  0.019202258  0.019976648            2 
  217000   0.91773411   -7.9791801    49.954488  0.019183751  0.019915755            3 
  218000   0.92654927   -7.9664747    49.829961   0.01904815  0.019853375            1 
  219000   0.92930754   -7.9454274    50.023047  0.019034645   0.01979115            1 
  220000   0.91974984   -7.9423639    50.077974   0.01896893   0.01972936            1 
  221000    0.9161836   -7.9500289    50.243085  0.018945356   0.01966751            1 
  222000   0.91329049   -7.9547646    50.210762  0.018847884  0.019604767            3 
  223000   0.92102032    -7.967589    50.292954  0.018794079  0.019541671            2 
  224000   0.89158537   -7.9951123    50.364349  0.018736737  0.019478098            3 
  225000   0.90064854   -7.9844556    50.358351  0.018651241  0.019414222            2 
  226000   0.89509022   -8.0016707    50.365395  0.018571311  0.019351236            2 
  227000   0.91999093   -8.0333322    50.554082  0.018558767  0.019288352            2 
  228000    0.9201516   -7.9885478    50.666164  0.018518335  0.019226248            1 
  229000   0.90578869   -7.9886552     50.80918  0.018489513  0.019163832            4 
  230000   0.89022691   -8.0231943    50.916283  0.018447929  0.019102239            2 
  231000   0.90951505   -7.9833977    51.041976  0.018413411  0.019040577            1 
  232000   0.90913726   -8.0229114    51.001187  0.018319392  0.018979383            2 
  233000   0.89355462   -7.9826853    51.075085  0.018267198  0.018918413            2 
  234000   0.92021916   -8.0260618    51.111243   0.01820201  0.018856295            5 
  235000   0.89872565   -8.0180104    51.185554  0.018150906  0.018793862            4 
  236000   0.87624601   -7.9973523    51.261007  0.018100638  0.018732162            3 
  237000   0.89727399   -8.0481613    51.222119   0.01801059   0.01867013            5 
  238000   0.89783444   -8.0197517    51.341674  0.017976777  0.018607758            2 
  239000    0.8881176   -8.0198429    51.395764   0.01792042   0.01854589           10 
  240000   0.89072297   -8.0288695    51.663564  0.017938737  0.018484915            2 
  241000   0.88753726    -8.094175    51.404571  0.017774748  0.018423412            4 
  242000   0.87473451   -8.0736443    51.640976  0.017782705  0.018361793            2 
  243000   0.87221767   -8.0416553     51.97894  0.017825425  0.018301079            2 
  244000   0.88976667   -8.0586166    51.695507  0.017655569  0.018240167            2 
  245000   0.87189635   -8.0761575    51.715014  0.017590141  0.018179717            3 
  246000    0.8763204   -8.0997954    51.926602  0.017590312  0.018119209            1 
  247000   0.86035772   -8.0792469    52.053694  0.017561975  0.018059127            1 
  248000   0.87910231   -8.0840564    52.030375  0.017483325  0.017999276            2 
  249000   0.86334249   -8.0741961    52.174182  0.017461239  0.017938974            4 
  250000   0.87373252   -8.1280693    52.062991   0.01735433  0.017878566            2 
  251000   0.85315416   -8.0614358    52.298075  0.017363239  0.017819117            3 
  252000   0.86904416    -8.099651    52.361937  0.017315455  0.017758722            2 
  253000   0.84909763   -8.1192398    52.315866   0.01723184  0.017698217            1 
  254000   0.84702663   -8.1399612    52.379468  0.017184865  0.017638162            2 
  255000   0.86635654    -8.130932    52.416812  0.017129677   0.01757879            2 
  256000    0.8696345   -8.0991948    52.582032  0.017116547  0.017519922            4 
  257000   0.84249161   -8.1343325    52.492679  0.017020973  0.017461052            3 
  258000   0.85448608   -8.1429213    52.637832  0.017001884   0.01740236            4 
  259000   0.85143256   -8.1442111    52.562106  0.016911874   0.01734325            4 
  260000   0.85580645    -8.135847     52.72087  0.016897715  0.017284179            5 
  261000   0.87139232   -8.1553844    52.777315  0.016850994  0.017225321            3 
  262000   0.84741041   -8.1783457    52.698498  0.016761609  0.017166438            5 
  263000   0.85731307   -8.1655336    52.817856  0.016735696   0.01710795            3 
  264000   0.83899751   -8.1297681    52.869596  0.016688635  0.017050125            6 
  265000   0.83069077   -8.1549271     52.87895  0.016628601  0.016992156            2 
  266000   0.84218921   -8.1866634    52.804914  0.016542893  0.016934381            1 
  267000   0.85172786   -8.1611477    53.075355  0.016565342  0.016876503            6 
  268000   0.85619385   -8.1869628    53.183097  0.016537033  0.016818683            5 
  269000   0.85335801   -8.1818246    53.162729  0.016469247  0.016761976            2 
  270000   0.83388041   -8.1593482    53.384306  0.016476638  0.016705006            5 
  271000   0.83561985   -8.1849637    53.340561  0.016402387  0.016648704            5 
  272000    0.8525885   -8.1945659    53.262964   0.01631831  0.016592587            2 
  273000   0.83397472   -8.1842519    53.425049  0.016308013   0.01653635            3 
  274000     0.839805   -8.1930897     53.41176  0.016244453  0.016480099            2 
  275000    0.8329872   -8.1576652    53.545588  0.016225936  0.016424061            7 
  276000   0.83977843   -8.2160018    53.427816  0.016131587  0.016368105            5 
  277000   0.84104203   -8.1970655    53.522137  0.016101726  0.016312265            2 
  278000   0.82831185   -8.2061095    53.523948  0.016044349  0.016256972            1 
  279000   0.83135893   -8.1959467     53.48779  0.015976043  0.016201356            3 
  280000   0.83089829   -8.1958639     53.69277  0.015979991  0.016145864            2 
  281000   0.82664746     -8.21827    53.763328  0.015944047  0.016090631            2 
  282000   0.80170739   -8.2163824    53.724027  0.015875894  0.016035411            3 
  283000    0.8431197   -8.2544803    53.712159  0.015816301  0.015979916            2 
  284000   0.79582259   -8.2315914    53.750183  0.015771767  0.015924686            3 
  285000   0.80640891   -8.2534039    53.859142  0.015748287  0.015869729           11 
  286000   0.80855702   -8.2364723    53.818708  0.015681442  0.015815266            5 
  287000    0.8048009   -8.2804984    53.717744  0.015597486   0.01576077            3 
  288000   0.81821514   -8.2624025    53.678626   0.01553201  0.015706152            1 
  289000   0.79366615    -8.230475    54.068553  0.015590702  0.015652564            5 
  290000   0.81425486   -8.2598203    54.022287  0.015523646  0.015599284            6 
  291000   0.79387438   -8.2737096    54.052488  0.015478948   0.01554559            6 
  292000   0.80720249   -8.2811207    54.089315  0.015436448  0.015492036            1 
  293000   0.79380994   -8.2621958    54.072486  0.015378978  0.015438565            5 
  294000   0.82427232   -8.2686896    54.140934   0.01534607  0.015385379            2 
  295000   0.78408316   -8.2652175    54.122194  0.015288755  0.015332396            2 
  296000   0.80897487    -8.282234    54.086686  0.015227108  0.015279532            3 
  297000   0.79313813   -8.2827089    54.104183  0.015180747    0.0152269            1 
  298000    0.7862945   -8.2788376    54.251755  0.015171072  0.015174564            2 
  299000   0.81165969   -8.2890894    54.245242  0.015118518  0.015122805            7 
  300000   0.77776069   -8.3096824    54.330081  0.015091689  0.015071019            5 
  301000   0.77858943   -8.3026806    54.347986  0.015046508  0.015019448            2 
  302000    0.7740873   -8.2877841    54.290305  0.014980768  0.014967753            3 
  303000   0.78442942    -8.305684    54.428688  0.014969386  0.014916082            5 
  304000   0.77240952   -8.3433599    54.488812  0.014936626    0.0148651            3 
  305000   0.78803749   -8.3412683    54.499408  0.014890549  0.014814073            2 
  306000   0.78233936   -8.3551474    54.405328  0.014816266  0.014762692            4 
  307000   0.77292533    -8.359913    54.389538  0.014763718  0.014711464            4 
  308000   0.77454419   -8.3605109    54.550819  0.014759421  0.014660136            6 
  309000   0.78445022    -8.355502    54.517775  0.014702744   0.01460924            4 
  310000   0.78710359    -8.378222     54.58153  0.014672454  0.014558523            4 
  311000   0.77881688   -8.3717751    54.398819  0.014576318  0.014507883            6 
  312000     0.782255   -8.3868238    54.539709   0.01456723    0.0144572            5 
  313000    0.7808777   -8.3643647    54.540627  0.014520934   0.01440654            4 
  314000   0.76714988     -8.39125    54.523946  0.014470262  0.014356148            3 
  315000   0.77010912   -8.3916287    54.615274  0.014448485   0.01430579            3 
  316000   0.77131421   -8.3908398    54.579156  0.014393237  0.014255745            2 
  317000     0.757583   -8.4144752    54.605786  0.014354833  0.014205973            6 
  318000   0.75702427   -8.3900295    54.597962  0.014307642  0.014156429            8 
  319000   0.75514526   -8.3974571    54.673328  0.014282478  0.014106704            3 
  320000   0.77685781   -8.4614374    54.589627  0.014216049  0.014057003            7 
  321000   0.74420939   -8.4018058    54.706018  0.014201978  0.014007821            5 
  322000   0.75761401   -8.3934357    54.860257  0.014197789  0.013959139            3 
  323000   0.75317916   -8.3990308    54.804186  0.014139367  0.013910409            4 
  324000   0.75918576   -8.4177144    54.869291  0.014112472  0.013862094            5 
  325000   0.75232395   -8.4254664    54.728942  0.014033062  0.013813785            5 
  326000   0.73883204   -8.4456163    54.760624  0.013998115  0.013765601            5 
  327000   0.73933733   -8.4365427    54.750921  0.013952834  0.013717254            4 
  328000    0.7590361   -8.4321578    54.679796  0.013892225  0.013669201            5 
  329000   0.75581969   -8.4424083    54.750252  0.013867845  0.013621082            5 
  330000   0.73455092   -8.4461061    54.867926  0.013855537   0.01357329            5 
  331000   0.72265003   -8.4261131    54.743754  0.013782415  0.013525594            4 
  332000   0.72299859   -8.4549442    54.793002  0.013753263  0.013477845            3 
  333000   0.74444159   -8.4638676    54.856676  0.013727897  0.013430443            5 
  334000   0.74284049   -8.4807365    54.658516  0.013637354  0.013383278            2 
  335000   0.73579733   -8.4505188     54.82057  0.013636958  0.013336061            3 
  336000   0.74324156   -8.4574217    54.814228  0.013594799  0.013289224            3 
  337000   0.71899167   -8.4559087    54.815658  0.013554812  0.013242703            3 
  338000   0.72707274   -8.4838125    54.894892  0.013534244  0.013196136            3 
  339000   0.73797749   -8.4878197    54.921988   0.01350098  0.013149648            4 
  340000   0.73116835   -8.4953572    54.938339  0.013465279   0.01310323            5 
  341000   0.71826595    -8.505498    54.820137  0.013396905  0.013057007            4 
  342000   0.71801178     -8.48707     54.98154  0.013397061  0.013010735            6 
  343000   0.72387207   -8.5458294    54.858629  0.013328141  0.012964756            9 
  344000   0.71828891   -8.5277847    54.855304  0.013288591  0.012918851            4 
  345000   0.71135889    -8.530579    54.834145  0.013244962  0.012872844            6 
  346000    0.7212396   -8.5168323    54.860145  0.013212944  0.012827233            3 
  347000    0.7278232   -8.5148017    54.815106   0.01316405  0.012781656            3 
  348000   0.71215688   -8.5237276    54.885592  0.013143102  0.012736267            2 
  349000   0.72480368    -8.531399    54.815103  0.013088611  0.012690947            5 
  350000    0.7141124   -8.5161686    54.900285  0.013071496  0.012645956            1 
  351000   0.70234789   -8.5229114    54.839823  0.013019901  0.012601415            2 
  352000   0.72086611   -8.5254608    55.009339  0.013023044  0.012556938            8 
  353000   0.71160583   -8.5325077     54.97594  0.012978267  0.012512648            6 
  354000   0.72085019   -8.5365763     55.03098  0.012954562  0.012468677            5 
  355000   0.70383486   -8.5382432    54.981251  0.012906397  0.012424907            2 
  356000   0.69304358   -8.5264058    55.006079  0.012875955  0.012381151            4 
  357000   0.69695914   -8.5164339    55.008588  0.012840473  0.012337612           11 
  358000   0.68638334   -8.5353737    55.135561  0.012834162  0.012294077            7 
  359000   0.69208387   -8.5613911    55.063029  0.012781576  0.012250821            4 
  360000   0.68957625   -8.5554043    55.110271  0.012757007  0.012207577            7 
  361000   0.70297072    -8.581992    55.026019   0.01270222  0.012164656           10 
  362000   0.70390808   -8.5550227    54.907145  0.012639766  0.012121665            7 
  363000   0.68628652   -8.5598011      54.9656  0.012618365  0.012078806            5 
  364000    0.6954506   -8.5613549    55.024593  0.012597205  0.012036167            6 
  365000   0.68634327   -8.5681331    55.086132  0.012576742  0.011993804            2 
  366000   0.68082888   -8.5837314    55.076615  0.012540213  0.011951452            8 
  367000   0.68492234   -8.5888991    54.960967  0.012479784   0.01190923            7 
  368000   0.65820699   -8.6003082     55.01849  0.012458897  0.011867185            4 
  369000    0.6669078   -8.5898863    54.883829  0.012394722  0.011825093            4 
  370000   0.67726188   -8.5883248    54.994453  0.012386138  0.011783144           17 
  371000   0.65818317   -8.6068756    54.912205  0.012334278  0.011741351            5 
  372000   0.67931705   -8.6073366    54.914866  0.012301717   0.01169982            4 
  373000   0.65966609   -8.6133629    54.949637  0.012276505  0.011658349            7 
  374000   0.66210489   -8.6424131    54.852396  0.012222013  0.011617019            3 
  375000   0.68975791   -8.6061776    54.910793  0.012202398  0.011575873            4 
  376000   0.67387487   -8.6320106    54.993961  0.012188378  0.011534791            4 
  377000    0.6739103   -8.6203056    54.980042  0.012152971  0.011493838            6 
  378000   0.66855052   -8.6231583    55.011728  0.012127806  0.011453095            4 
  379000    0.6810428    -8.638428    55.043264  0.012102741  0.011412432            3 
  380000   0.66932352   -8.6487439    55.006002   0.01206272  0.011372034            4 
  381000   0.65087611   -8.6321544    54.933832  0.012015274    0.0113317            5 
  382000   0.66291862   -8.6449411    54.995018  0.011997168  0.011291496            2 
  383000    0.6438174   -8.6713315    54.859662  0.011936393  0.011251505            5 
  384000   0.66797123   -8.6447681      54.9599  0.011927062   0.01121178            3 
  385000   0.65977476    -8.671131    54.855088  0.011873396  0.011172062            4 
  386000   0.65110392   -8.6639855    54.980692  0.011869752  0.011132558            3 
  387000   0.63993879   -8.6604458    55.019662  0.011847472  0.011093345            3 
  388000   0.63870872     -8.68731    54.987724  0.011810078  0.011054183            2 
  389000   0.64721657   -8.6696938    54.928473  0.011767025  0.011015188            3 
  390000   0.65311696   -8.6885103    55.027861   0.01175809  0.010976257            3 
  391000   0.63284564   -8.6993705     55.05539  0.011733885  0.010937606            2 
  392000   0.64959184   -8.6865939    55.047027  0.011702174  0.010899112            5 
  393000   0.65024459   -8.6893364    55.033626  0.011669556  0.010860717            2 
  394000   0.64832742   -8.6996982    54.805428  0.011591673  0.010822319            2 
  395000   0.65330212   -8.6893642    54.885709  0.011579263  0.010784147            2 
  396000   0.63115453   -8.6958874    55.006119  0.011575362  0.010745943            6 
  397000   0.63968338   -8.6895472    55.006876  0.011546363  0.010708128            2 
  398000   0.63952688   -8.7037128    54.850725  0.011484658  0.010670404            2 
  399000   0.63958448   -8.7174384    55.012104  0.011489579  0.010632987            5 
  400000   0.60676074   -8.7087841    54.971129  0.011452318  0.010595628            3 
  401000   0.63738821   -8.7139434    54.947321  0.011418812  0.010558402            3 
  402000   0.64218719   -8.7292375    54.976895  0.011396537  0.010521264            3 
  403000   0.62250674   -8.7104746    54.954613   0.01136365  0.010484292            4 
  404000   0.61444536   -8.7382934    54.917404  0.011327847  0.010447457            1 
  405000   0.61080798   -8.7566089    54.911248  0.011298611  0.010410669            5 
  406000   0.63188064   -8.7254491    54.898441  0.011268153  0.010374091            2 
  407000   0.62466345   -8.7534047      54.8586   0.01123231  0.010337639            3 
  408000   0.61645736   -8.7495384    54.866023  0.011206295  0.010301357            3 
  409000   0.60378238   -8.7348624    54.885881  0.011182942  0.010265175            7 
  410000   0.59879349   -8.7471863    54.956722  0.011170065  0.010229217            5 
  411000   0.61328137   -8.7753753    54.809812  0.011113101   0.01019332            9 
  412000   0.61279707   -8.7741084    54.762804  0.011076619  0.010157433            2 
  413000   0.60173798   -8.7534711    54.853398  0.011068079   0.01012173            5 
  414000   0.60944876    -8.768514    54.933339  0.011057435  0.010086189            3 
  415000   0.60790478   -8.7683231     54.89285  0.011022661  0.010050887            8 
  416000   0.60803642   -8.7738106    54.805812  0.010978728   0.01001564            9 
  417000   0.60067405   -8.7663297    54.903335  0.010971889 0.0099805523            4 
  418000   0.60494232   -8.7655043    54.939712  0.010952893 0.0099456238            5 
  419000   0.59914217    -8.792277    54.764976     0.010892 0.0099108634            5 
  420000   0.60001487   -8.7923182    54.803978  0.010873805 0.0098761488            3 
  421000   0.59263969   -8.7845297    54.835942  0.010854304 0.0098416409            8 
  422000   0.60038937   -8.7991147    54.930769  0.010847308 0.0098072538            7 
  423000   0.58591805   -8.7860815     54.83383  0.010802567 0.0097730019            5 
  424000   0.58964187   -8.7777071     54.90548  0.010791171 0.0097388901            8 
  425000   0.58911996   -8.8108683    54.711952  0.010727834  0.009704938            4 
  426000   0.58653269   -8.8091448    54.811495  0.010722123 0.0096710641            4 
  427000   0.58588691   -8.7797444    54.819171  0.010698511 0.0096373563            6 
  428000   0.57726437   -8.7959958    54.832843  0.010676177 0.0096039034            5 
  429000    0.6038601   -8.8018886    54.797441  0.010644414 0.0095705433            7 
  430000   0.57607703    -8.818055    54.806282  0.010621372 0.0095372926            2 
  431000   0.58349388   -8.8240548    54.714128  0.010578911 0.0095041451            7 
  432000   0.57439004   -8.8237902      54.8524  0.010581096 0.0094710774            6 
  433000   0.57452055    -8.816959    54.825224  0.010551429 0.0094381829            8 
  434000   0.56919609   -8.8112761    54.828044  0.010527658 0.0094054285            2 
  435000   0.58288924   -8.8049817    54.629691  0.010465458 0.0093727492           12 
  436000   0.57573996   -8.8289136    54.741002   0.01046273 0.0093401575            4 
  437000   0.56932747   -8.8235363    54.661398  0.010423608 0.0093076951            8 
  438000   0.57334089   -8.8410171    54.671771  0.010401783 0.0092753295            5 
  439000   0.56832599    -8.853483     54.55774  0.010356443 0.0092431256            5 
  440000   0.56138648    -8.842843    54.533166  0.010328251 0.0092110214            2 
  441000   0.56038705    -8.824071     54.62986  0.010323103 0.0091790218            7 
  442000   0.55581101    -8.829136    54.708409  0.010314557 0.0091471102            4 
  443000   0.55526614   -8.8540471     54.64665  0.010279656 0.0091153263            3 
  444000   0.54533153   -8.8756081    54.528529  0.010234334 0.0090835539            2 
  445000   0.55534499   -8.8513501    54.496199  0.010205281  0.009051908            3 
  446000   0.55516111   -8.8642471    54.530399  0.010188789  0.009020411            6 
  447000   0.55275517    -8.848331    54.559056  0.010171338  0.008988989            4 
  448000    0.5498273   -8.8594313    54.585806   0.01015361 0.0089577211            5 
  449000   0.54712581   -8.8558154    54.578687  0.010129675 0.0089265599            5 
  450000   0.54967314   -8.8817115    54.538886  0.010099794 0.0088955637            4 
  451000   0.53425126   -8.8805655    54.480591  0.010066628 0.0088647338            3 
  452000   0.54933534   -8.8661513    54.615144  0.010069164 0.0088340064            5 
  453000    0.5472899   -8.8845517    54.517737  0.010029017 0.0088034117           13 
  454000   0.53892152   -8.8799789    54.468556 0.0099978995 0.0087729689            3 
  455000   0.53460155   -8.8887548    54.524332 0.0099861413 0.0087426667            5 
  456000   0.54209495   -8.8787132    54.592464 0.0099766929 0.0087124684            4 
  457000    0.5309761   -8.8924689    54.541646 0.0099455956  0.008682397            6 
  458000    0.5255062   -8.8899223    54.547122 0.0099248766 0.0086524695            3 
  459000   0.53868562    -8.884471    54.463663 0.0098881015 0.0086225761            4 
  460000   0.53104355   -8.9011781    54.459905 0.0098659248 0.0085928812            5 
  461000   0.53578493   -8.8994413    54.447099 0.0098422087 0.0085632502            4 
  462000   0.53994031   -8.8962982    54.379433    0.0098087 0.0085337665            5 
  463000   0.54096169   -8.9101227    54.358115  0.009783678 0.0085043728            5 
  464000   0.53273013    -8.916032    54.365575 0.0097639323 0.0084750997            6 
  465000   0.51737143   -8.9205911    54.440861 0.0097564267 0.0084459829            6 
  466000   0.52489646   -8.9147938    54.446854 0.0097365619 0.0084170062            6 
  467000   0.52005838   -8.9011145    54.463467 0.0097186772 0.0083881793            3 
  468000   0.52329213   -8.9188351    54.483902 0.0097015494 0.0083594739            4 
  469000   0.53156564   -8.9209497      54.4272  0.009670789 0.0083308734            6 
  470000   0.50582812   -8.9385616    54.400689 0.0096455122 0.0083023072            4 
  471000   0.51663763   -8.9177173     54.42941 0.0096301151  0.008273961            9 
  472000   0.51724067   -8.9190878    54.438758 0.0096113626 0.0082457142            8 
  473000   0.50965819   -8.9279838    54.476444 0.0095976822 0.0082175799            8 
  474000   0.50412028   -8.9494277    54.469365 0.0095761893 0.0081896017            3 
  475000    0.5158845   -8.9474253    54.388783 0.0095418917 0.0081616536            7 
  476000   0.50979558   -8.9400053    54.372226 0.0095189471 0.0081338874            6 
  477000   0.51538963    -8.920726    54.419237 0.0095072042 0.0081061616            8 
  478000   0.49893895   -8.9516009    54.360108 0.0094770062 0.0080785698            2 
  479000   0.49451926   -8.9422141    54.266041 0.0094408561 0.0080511995            2 
  480000   0.49587595   -8.9631914    54.313279 0.0094293887 0.0080238591            8 
  481000   0.49911953   -8.9558721    54.403788 0.0094254657 0.0079966825            2 
  482000   0.49689155   -8.9584714    54.328444 0.0093928844 0.0079695624            3 
  483000   0.48015609   -8.9518713    54.254055  0.009360603 0.0079425967            4 
  484000   0.49571645   -8.9530823    54.343213 0.0093566138 0.0079157785            3 
  485000   0.48817777   -8.9658959     54.23469 0.0093186752  0.007889057            9 
  486000   0.48827167   -8.9880422     54.29366 0.0093096124 0.0078624593            8 
  487000   0.48646627   -8.9774611    54.238402 0.0092810406 0.0078359969            7 
  488000   0.48566497   -8.9628572    54.350855 0.0092812253 0.0078096434            4 
  489000   0.49215957   -8.9613589    54.321183 0.0092571886 0.0077833383           10 
  490000   0.48587833   -8.9927545    54.257574 0.0092274786 0.0077571743            6 
  491000    0.4785471   -8.9827482    54.334763 0.0092217859 0.0077310994            5 
  492000   0.47446082   -8.9922375    54.227237 0.0091848301 0.0077051171            7 
  493000    0.4861994   -8.9859445    54.264429 0.0091724863 0.0076792435           15 
  494000   0.48167133   -9.0042788     54.25882 0.0091529723 0.0076534972            4 
  495000   0.47971581     -8.98919    54.187874 0.0091225376 0.0076278239            2 
  496000   0.48239617   -8.9919268    54.143927 0.0090967619  0.007602291            8 
  497000   0.47403675   -9.0073984    54.204127 0.0090885525 0.0075768232            5 
  498000   0.46327095    -9.000209    54.382313 0.0091001193 0.0075515211            4 
  499000   0.48021171   -8.9946275    54.196507 0.0090508528 0.0075262993            3 
  500000   0.46612375   -9.0023085    54.261298 0.0090435497 0.0075012196            3 
  501000   0.47621779   -9.0160589    54.292641  0.009030712 0.0074762607            3 
  502000   0.46508523   -8.9890419    54.210198 0.0089990368 0.0074513532            3 
  503000   0.46272815   -9.0163344    54.215725 0.0089820618 0.0074265836            7 
  504000   0.45556288   -9.0204232    54.127987 0.0089497333 0.0074018961           13 
  505000   0.46827571   -9.0079674    54.135971 0.0089333286 0.0073773303            6 
  506000   0.45572582   -8.9985623    54.273132 0.0089382628 0.0073528667            8 
  507000   0.46572259   -9.0358808     54.17547 0.0089045808 0.0073285119            5 
  508000   0.45922135   -9.0117287    54.192479 0.0088898424 0.0073042896            6 
  509000    0.4596455   -9.0287569     54.08096 0.0088541192 0.0072801109            3 
  510000   0.45315774   -9.0411479    54.200742 0.0088563305  0.007256065           11 
  511000   0.44908648   -9.0232732     54.20861 0.0088402821 0.0072320978           14 
  512000    0.4549022   -9.0240419     54.12926 0.0088101009 0.0072082265            8 
Loop time of 1247.42 on 48 procs for 500000 steps with 4000 atoms

Performance: 69262.721 tau/day, 400.826 timesteps/s
99.4% CPU use with 48 MPI tasks x no OpenMP threads

MPI task timing breakdown:
Section |  min time  |  avg time  |  max time  |%varavg| %total
---------------------------------------------------------------
Pair    | 82.948     | 87.963     | 95.772     |  28.9 |  7.05
Neigh   | 8.2432     | 8.6171     | 8.9279     |   6.2 |  0.69
Comm    | 78.109     | 86.269     | 91.561     |  29.1 |  6.92
Output  | 0.84722    | 0.84764    | 0.85601    |   0.1 |  0.07
Modify  | 1048.3     | 1051.7     | 1054.8     |   4.9 | 84.31
Other   |            | 12.02      |            |       |  0.96

Nlocal:        83.3333 ave          90 max          77 min
Histogram: 2 2 5 12 8 3 7 5 1 3
Nghost:        2211.12 ave        2224 max        2193 min
Histogram: 2 2 2 7 6 7 3 4 8 7
Neighs:        14813.1 ave       16472 max       13330 min
Histogram: 3 0 5 12 9 9 3 3 3 1
FullNghs:      29625.0 ave       31782 max       27364 min
Histogram: 2 3 5 5 13 3 5 4 4 4

Total # of neighbors = 1422000
Ave neighs/atom = 355.50000
Neighbor list builds = 26707
Dangerous builds = 0

#clear
#
#next RN
#
#jump SELF
Total wall time: 0:20:50
