
units lj                  # Use reduced LJ style units
atom_style atomic         # Uncharged point particles
atom_modify map hash      # Needed for indexing of clusters etc
                          # Used to be able to find where atoms are in relation to each other.

lattice fcc 1.0 spacing 1 1 1
Lattice spacing in x,y,z = 1.5874011 1.5874011 1.5874011
region box block 0 10 0 10 0 10 units lattice
create_box 2 box
Created orthogonal box = (0.0000000 0.0000000 0.0000000) to (15.874011 15.874011 15.874011)
  3 by 4 by 4 MPI processor grid
create_atoms 1 box
Created 4000 atoms
  using lattice units in orthogonal box = (0.0000000 0.0000000 0.0000000) to (15.874011 15.874011 15.874011)
  create_atoms CPU = 0.026 seconds
set type 1 type/fraction 2 0.22 78393
Setting atom values ...
  910 settings made for type/fraction
mass 1 1.0
mass 2 1.0
pair_style lj/cut  3.5
pair_modify tail  yes
pair_coeff 1  1  1.0  1.0   # Intearaction between 1 and 1 set with epsilon = 1 and sigma = 1
pair_coeff 1  2  1.5  0.8
pair_coeff 2  2  0.5  0.88

write_data data.0
System init for write_data ...
Neighbor list info ...
  update every 1 steps, delay 10 steps, check yes
  max neighbors/atom: 2000, page size: 100000
  master list distance cutoff = 3.8
  ghost atom cutoff = 3.8
  binsize = 1.9, bins = 9 9 9
  1 neighbor lists, perpetual/occasional/extra = 1 0 0
  (1) pair lj/cut, perpetual
      attributes: half, newton on
      pair build: half/bin/atomonly/newton
      stencil: half/bin/3d
      bin: standard
WARNING: Not all mixed pair coeffs generated from mixing. Use write_data with 'pair ij' option to store all pair coeffs. (../write_data.cpp:312)


#############################
#   M E L T   S Y S T E M   #
#############################

velocity all create 2.4 9622624 mom yes dist gaussian # Assign velocities
                                                    # Temperature 2.4, random number seed, zero linear momentum
                                                                                # Gaussian distribution

timestep 0.002   # simulation timestep
thermo 1000       # output thermodynamic data every 1000 steps bf 100

# Define a fix  in this case with index 1 applied to all
# particles in the simulation. This fix is for simulations
# in the anisotropic NPT ensemble. Note that we use the MTK
# correction.
fix 1 all npt temp 2.4 2.4 0.1 iso 5.68 5.68 0.5 mtk yes tchain 5 pchain 5 # Use NPT ensemble
                                                                         # Set temperature and pressure and damping
                                                                         # Numbers of thermostats in chain and in barostat
run 10000          # run for 10000 steps
Per MPI rank memory allocation (min/avg/max) = 3.642 | 3.644 | 3.648 Mbytes
Step Temp E_pair E_mol TotEng Press Volume 
       0          2.4   -6.9213593            0   -3.3222593   -3.6990896         4000 
    1000    2.4305552   -4.9106424            0    -1.265721    5.5620119    4397.5351 
    2000    2.3521078   -4.8419357            0    -1.314656    6.0594638     4386.725 
    3000    2.3994499   -4.8918351            0   -1.2935601    5.8947234    4376.2993 
    4000    2.3748965   -4.8650088            0   -1.3035547    5.7636907    4397.0556 
    5000     2.359651   -4.8538152            0   -1.3152236    5.3815546    4442.4142 
    6000     2.389346   -4.8185497            0   -1.2354267    5.7492617    4419.6832 
    7000    2.4174109   -4.9163021            0   -1.2910922    5.8266255    4369.5221 
    8000    2.3358887   -4.8830204            0   -1.3800633    5.4264809    4421.9354 
    9000    2.3801759   -4.9398593            0   -1.3704881     5.572777    4382.6811 
   10000    2.4130819   -4.8377685            0   -1.2190505    5.5144207    4441.5844 
Loop time of 2.35142 on 48 procs for 10000 steps with 4000 atoms

Performance: 734876.135 tau/day, 4252.755 timesteps/s
99.6% CPU use with 48 MPI tasks x no OpenMP threads

MPI task timing breakdown:
Section |  min time  |  avg time  |  max time  |%varavg| %total
---------------------------------------------------------------
Pair    | 0.95711    | 1.0549     | 1.1814     |   3.8 | 44.86
Neigh   | 0.19571    | 0.20537    | 0.22659    |   1.3 |  8.73
Comm    | 0.68507    | 0.82666    | 0.94821    |   4.7 | 35.16
Output  | 0.00024364 | 0.00024735 | 0.00031585 |   0.0 |  0.01
Modify  | 0.21301    | 0.24932    | 0.31948    |   5.0 | 10.60
Other   |            | 0.01487    |            |       |  0.63

Nlocal:        83.3333 ave          91 max          74 min
Histogram: 2 3 2 3 11 10 2 7 4 4
Nghost:        1531.58 ave        1558 max        1497 min
Histogram: 3 0 2 5 11 7 7 3 3 7
Neighs:        8588.75 ave        9729 max        7537 min
Histogram: 4 4 5 5 8 5 9 2 3 3

Total # of neighbors = 412260
Ave neighs/atom = 103.06500
Neighbor list builds = 902
Dangerous builds = 178

# Equilibrate just above the melting temperature to avoid step fn in T

fix 1 all npt temp 1.25 1.25 0.1 iso 5.68 5.68 0.5 mtk yes tchain 5 pchain 5
run 2000
Per MPI rank memory allocation (min/avg/max) = 3.643 | 3.645 | 3.649 Mbytes
Step Temp E_pair E_mol TotEng Press Volume 
   10000    2.4130819   -4.8377685            0   -1.2190505    5.5144207    4441.5844 
   11000    1.2528398   -6.5949335            0   -4.7161436    5.6497771    3592.7223 
   12000    1.2685254   -6.5915021            0   -4.6891897    5.5579663    3602.2731 
Loop time of 0.513978 on 48 procs for 2000 steps with 4000 atoms

Performance: 672402.121 tau/day, 3891.216 timesteps/s
99.6% CPU use with 48 MPI tasks x no OpenMP threads

MPI task timing breakdown:
Section |  min time  |  avg time  |  max time  |%varavg| %total
---------------------------------------------------------------
Pair    | 0.22933    | 0.24972    | 0.27609    |   2.1 | 48.59
Neigh   | 0.032783   | 0.034397   | 0.038096   |   0.6 |  6.69
Comm    | 0.14428    | 0.17468    | 0.19494    |   2.5 | 33.99
Output  | 5.1669e-05 | 5.2694e-05 | 6.8248e-05 |   0.0 |  0.01
Modify  | 0.042689   | 0.050481   | 0.063026   |   2.1 |  9.82
Other   |            | 0.004647   |            |       |  0.90

Nlocal:        83.3333 ave          92 max          77 min
Histogram: 5 6 4 6 10 4 5 4 1 3
Nghost:        1768.17 ave        1793 max        1737 min
Histogram: 2 3 3 6 7 3 8 6 8 2
Neighs:        10612.0 ave       11929 max        9682 min
Histogram: 6 8 4 8 5 5 3 2 3 4

Total # of neighbors = 509378
Ave neighs/atom = 127.34450
Neighbor list builds = 141
Dangerous builds = 13

#############################
# L I N E A R  Q U E N C H  #
#############################

# Define solid atoms. This closely follows ten Wolde  Ruiz-Montero and Frenkel  Faraday Discuss  1996  104  93-110
# Compute components of the per-atom q6 vector
compute q6 all orientorder/atom degrees 1 6 components 6 nnn NULL cutoff 1.3 # compute the Q6 parameter.
                                                                             # Use all neighbours within 1.3 unit cell.

# get number of connections
compute coord_number all coord/atom orientorder q6 0.5

# An atom is solid if it has 8 or more connections (of a possible 14)
variable is_solid atom c_coord_number>=8
group solid dynamic all var is_solid    # Must be dynamic to update
dynamic group solid defined

# do clustering
compute cluster solid cluster/atom 1.3 # Create a cluster where all atoms within are solid and max 1.3 units from another member

# define chunks one chunk per cluster
compute clus_chunks solid chunk/atom c_cluster nchunk every compress yes  # Says which atoms are in which chunk

# count the size of each chunk
compute size_chunks solid property/chunk clus_chunks count


# Find the maximum entry in the vector of chunk sizes
variable max_n equal max(c_size_chunks)


# Thermo style which includes this variable
# thermo_style custom step temp pe vol v_max_n

thermo ${N}  # Print the thermo information every 100 steps
thermo 1000  

# Reset the npt fix at a lower temperature (below freezing)
fix 1  all npt temp  ${temp} ${temp}  0.1  iso  5.68  5.68  0.5  mtk yes tchain  5  pchain  5
fix 1  all npt temp  0.45 ${temp}  0.1  iso  5.68  5.68  0.5  mtk yes tchain  5  pchain  5
fix 1  all npt temp  0.45 0.45  0.1  iso  5.68  5.68  0.5  mtk yes tchain  5  pchain  5

dump dmp2 all dcd ${N} traj.dcd
dump dmp2 all dcd 1000 traj.dcd


compute msd all msd com yes
variable twopoint equal c_msd[4]/6/(step*dt+1.0e-6)
fix 9 all vector 10 c_msd[4]
variable fit equal slope(f_9)/6/(10*dt)
thermo_style custom step temp pe c_msd[4] v_twopoint v_fit v_max_n

fix 1 all npt temp 1.25 ${temp} 0.1 iso 5.68 5.68 0.5 mtk yes tchain 5 pchain 5
fix 1 all npt temp 1.25 0.45 0.1 iso 5.68 5.68 0.5 mtk yes tchain 5 pchain 5
run 2000000 # 5000000  # Run for this many steps
Neighbor list info ...
  update every 1 steps, delay 10 steps, check yes
  max neighbors/atom: 2000, page size: 100000
  master list distance cutoff = 3.8
  ghost atom cutoff = 3.8
  binsize = 1.9, bins = 9 9 9
  4 neighbor lists, perpetual/occasional/extra = 1 3 0
  (1) pair lj/cut, perpetual
      attributes: half, newton on
      pair build: half/bin/atomonly/newton
      stencil: half/bin/3d
      bin: standard
  (2) compute orientorder/atom, occasional
      attributes: full, newton on
      pair build: full/bin/atomonly
      stencil: full/bin/3d
      bin: standard
  (3) compute coord/atom, occasional
      attributes: full, newton on
      pair build: full/bin/atomonly
      stencil: full/bin/3d
      bin: standard
  (4) compute cluster/atom, occasional
      attributes: full, newton on
      pair build: full/bin/atomonly
      stencil: full/bin/3d
      bin: standard
Per MPI rank memory allocation (min/avg/max) = 9.779 | 9.785 | 9.790 Mbytes
Step Temp PotEng c_msd[4] v_twopoint v_fit v_max_n 
   12000    1.2685254   -6.5915021 2.2131493e-30 1.5369092e-32 8.3333333e+20            1 
   13000    1.2491095   -6.6476506   0.54015187 0.0034625119   0.04449224            2 
   14000    1.2573714   -6.6442251    1.0306211 0.0061346494  0.042400051            1 
   15000    1.2394254   -6.5986629     1.584807 0.0088044828  0.043001283            4 
   16000    1.2595701   -6.6614517    2.1343974  0.011116653  0.043745345            1 
   17000    1.2485072    -6.617446    2.6563283  0.013021217  0.044484738            1 
   18000    1.2536357    -6.628193    3.0923699  0.014316527  0.043773971            5 
   19000     1.225551   -6.6358819    3.6693949  0.016093837  0.043420776            2 
   20000    1.2427666   -6.6110855    4.1817007  0.017423752  0.043495646            1 
   21000    1.2463085   -6.6953416    4.6765101  0.018557579  0.043416789            1 
   22000    1.2076206    -6.644447    5.2081867  0.019727979  0.043308598            2 
   23000    1.2377925   -6.6509643    5.7134696  0.020700976   0.04320366            1 
   24000     1.227851   -6.6107081    6.2429619   0.02167695  0.043130413            1 
   25000    1.2383981   -6.6406427    6.6692527  0.022230842  0.042947284            2 
   26000    1.2575029   -6.6290192    7.2213429  0.023145329  0.042862867            1 
   27000    1.2485571   -6.5954006    7.7495066   0.02391823  0.042778817            2 
   28000    1.2398084   -6.6486243    8.2455526  0.024540335  0.042780481            3 
   29000     1.220893   -6.6249745    8.7590146  0.025169582  0.042765278            2 
   30000    1.2309996   -6.6367394    9.3603947  0.026001096  0.042813268            1 
   31000    1.2435743   -6.6467446    10.007381  0.026901562  0.043011477            4 
   32000    1.2431056   -6.6290385    10.481035   0.02729436   0.04316907            2 
   33000    1.2529126   -6.6554417    11.037629  0.027872799  0.043330939            2 
   34000    1.2084199   -6.5966622    11.515692  0.028224734  0.043423847            2 
   35000    1.2520427   -6.6642608    11.986527  0.028539349  0.043445685            1 
   36000    1.2557019   -6.6186651    12.329048  0.028539463   0.04337739            1 
   37000    1.2209254   -6.6427486     12.85688  0.028956936  0.043271611            2 
   38000    1.2634613   -6.6278288     13.47017  0.029539847  0.043216469            1 
   39000    1.2153509   -6.6613652    13.947007  0.029801296  0.043164935            1 
   40000    1.2652205   -6.6309221     14.50733  0.030223605   0.04314479            2 
   41000    1.2530452   -6.6796034     14.89725  0.030278964  0.043132122            2 
   42000    1.2333615    -6.650158    15.359529  0.030475256  0.043044954            2 
   43000    1.2155687   -6.6217359    15.726376  0.030477472  0.042906658            1 
   44000    1.2444233   -6.6631946    16.397732   0.03105631  0.042808701            1 
   45000    1.2239673   -6.6115965    16.968187  0.031422568  0.042774795            2 
   46000     1.262033   -6.6874093    17.389841  0.031503335  0.042743258            1 
   47000     1.232839    -6.683839    18.080275  0.032057226  0.042744692            2 
   48000    1.2369245   -6.6776847    18.694607  0.032455914  0.042777073            2 
   49000    1.2398571   -6.6516172    19.267004  0.032767014   0.04283172            1 
   50000    1.2165899   -6.6716391     19.94722  0.033245366  0.042922754            1 
   51000    1.2290074   -6.6365679    20.487998  0.033477121  0.043036064            4 
   52000     1.229429   -6.6875658    20.804212  0.033340083  0.043096462            3 
   53000    1.2500446    -6.655382    21.249756  0.033411565  0.043113943            2 
   54000    1.2537769    -6.668892    21.692323  0.033475807  0.043116402            2 
   55000    1.2239319   -6.6282954    22.268488  0.033740132  0.043106885            1 
   56000    1.2513155   -6.6814088    22.511541  0.033499317  0.043072508            2 
   57000    1.2394831   -6.6682605    22.775595  0.033297654  0.042990024            2 
   58000    1.2217501   -6.6247276    23.227966  0.033373514  0.042869906            1 
   59000    1.2341478   -6.7117664    23.565868  0.033285124  0.042727006            2 
   60000      1.23559   -6.6693419    24.230053  0.033652852  0.042606948            2 
   61000    1.2607965   -6.6784762    24.782243  0.033855523  0.042528981            1 
   62000    1.2463709   -6.6558459    25.391798  0.034128761  0.042462444            4 
   63000    1.2341942   -6.6607942    25.999482  0.034390848  0.042422378            1 
   64000    1.2103384   -6.6475679    26.460626   0.03445394  0.042400419            1 
   65000    1.2494357   -6.6894595    27.100479  0.034744204  0.042388713            3 
   66000    1.2540573   -6.6565195    27.592301  0.034838763  0.042395086            4 
   67000    1.2227962   -6.6621977    28.021732    0.0348529  0.042387683            1 
   68000     1.224016   -6.6735913    28.610309  0.035061653  0.042374037            3 
   69000    1.2071718   -6.6985949    29.054125  0.035089522  0.042364581            2 
   70000    1.2519709   -6.6571204    29.487261  0.035103882  0.042347942            1 
   71000    1.2497854   -6.6631701    30.258577  0.035514761  0.042351054            2 
   72000    1.2238537   -6.7124054    30.611628  0.035430125  0.042348567            1 
   73000     1.219328   -6.6649141    30.863301  0.035232078  0.042324199            4 
   74000    1.2449621   -6.6698699    31.395588  0.035355392  0.042294245            1 
   75000    1.2614813   -6.6541164    31.949713   0.03549968  0.042268594            2 
   76000    1.2273321   -6.6676783    32.350226  0.035471739  0.042243808            2 
   77000    1.2320565   -6.6483619    32.838184   0.03553916  0.042212559            1 
   78000    1.2288132   -6.6975135    33.407881  0.035692181  0.042171944            1 
   79000    1.2137652   -6.6543196    33.791922  0.035645487  0.042133329            2 
   80000    1.2338012   -6.6547451    34.252951  0.035680158  0.042100632            1 
   81000    1.2114909   -6.6829671    34.797414  0.035799809  0.042061434            2 
   82000    1.2455411   -6.6597103    35.233608  0.035806512  0.042029413            1 
   83000     1.229403   -6.6670268    35.762626  0.035906251  0.041993661            2 
   84000     1.212266   -6.6719101     36.18484  0.035897659  0.041961521            2 
   85000    1.2044005    -6.687495    36.750563  0.036029963  0.041935328            1 
   86000    1.2102794   -6.6988994    37.059878  0.035910734  0.041898421            3 
   87000    1.2270756   -6.6818049    37.524936  0.035943425  0.041851668            2 
   88000    1.1892075   -6.7114301    37.989812    0.0359752  0.041811572            2 
   89000    1.1982242   -6.6495653    38.463329  0.036014353  0.041776644            1 
   90000    1.2358774   -6.6715527     39.01558  0.036125536  0.041739352            1 
   91000    1.1991232   -6.6694594    39.463397  0.036138641  0.041711586            2 
   92000    1.1929935   -6.7104377    39.724121  0.035981994  0.041669258            2 
   93000    1.2012792   -6.7093623    40.260748  0.036075939  0.041626006            2 
   94000     1.221997   -6.6947568    40.746715  0.036122974  0.041583152            2 
   95000      1.21719   -6.7090576     41.34661  0.036268956  0.041543295            2 
   96000    1.2220135   -6.6809139    41.829555  0.036310377  0.041510489            2 
   97000    1.2021524   -6.7020956    42.373278   0.03640316   0.04147959            2 
   98000    1.2176738   -6.6882663     42.71165   0.03631943  0.041447577            3 
   99000    1.2199245   -6.6946385    43.225567  0.036385157  0.041413909            2 
  100000    1.1918719   -6.7099848    43.570241  0.036308534   0.04138503            4 
  101000    1.1937991   -6.7296498    44.100381  0.036386452  0.041356093            4 
  102000    1.2066044   -6.7236149    44.372396  0.036251957   0.04132478            2 
  103000    1.2407542   -6.6638161    45.173299  0.036547977  0.041290451            2 
  104000    1.2069228   -6.6883991     45.73116  0.036643557  0.041269032            1 
  105000    1.2235618   -6.6921129    46.087232  0.036577168  0.041248262            4 
  106000    1.1928093   -6.6901257    46.535465  0.036584485  0.041220486            2 
  107000    1.2043182   -6.6751459    46.961011  0.036573996  0.041196606            2 
  108000      1.20669   -6.6860216    47.311752  0.036505981  0.041167708            1 
  109000    1.1961033    -6.711248    47.770757  0.036521985  0.041130183            3 
  110000    1.2070093   -6.7124255    48.151828  0.036478658  0.041093705            2 
  111000    1.1916609   -6.6940268    48.703089   0.03656388   0.04105828            1 
  112000    1.2129741   -6.7263825    49.298873  0.036680709  0.041030911            2 
  113000    1.1752091   -6.6977895    49.800901  0.036726328  0.041007935            6 
  114000    1.1956595   -6.7382428    50.290888  0.036762345  0.040983359            1 
  115000    1.1981011   -6.6859182    50.833667   0.03683599  0.040959796            2 
  116000    1.1930681   -6.7408849    51.140751  0.036739045    0.0409381            2 
  117000    1.2077214    -6.692787     51.70327  0.036825691  0.040920582            4 
  118000    1.1977435    -6.710758    51.970588  0.036702392  0.040891177            4 
  119000    1.2148316    -6.689735    52.355846  0.036663758  0.040855762            2 
  120000    1.1913861   -6.7212689    52.903329  0.036738423  0.040824483            3 
  121000     1.237456   -6.7270494    53.291083  0.036701847  0.040793725            2 
  122000    1.2193856   -6.7294581    53.567669  0.036589938  0.040758517            2 
  123000    1.1929383   -6.6935796    54.292295  0.036783398  0.040728522            2 
  124000    1.2109672   -6.6942159    54.686909  0.036751955  0.040702859            3 
  125000    1.2139219   -6.7402998    54.994288  0.036662859  0.040673913            3 
  126000    1.1994001   -6.7308054    55.761563  0.036879341  0.040643748            2 
  127000    1.2010036   -6.6862063    56.303919  0.036944829  0.040616355            2 
  128000    1.2128174    -6.700783    56.465147  0.036761163   0.04059141            3 
  129000    1.1719245   -6.6835671    56.976663   0.03680663  0.040561264            2 
  130000    1.2001248   -6.7424411    57.139702  0.036628014  0.040529656            1 
  131000    1.2231949    -6.678571    57.537436  0.036601422  0.040493734            1 
  132000    1.2006954   -6.7403784    58.123433  0.036694086  0.040460181            1 
  133000    1.1902268   -6.7397729    58.442062  0.036617833  0.040424946            1 
  134000    1.2191468   -6.7181118    59.329644  0.036896545  0.040392576            4 
  135000    1.2193513   -6.7080946     59.70692  0.036856124  0.040362731            1 
  136000    1.1751684   -6.7052556    60.094859   0.03682283  0.040338611            2 
  137000    1.1791016   -6.6778588    60.507346  0.036804955  0.040309705            8 
  138000    1.2409422   -6.7402355    60.701419  0.036655446  0.040280907            1 
  139000    1.2202146   -6.7361705    61.316611  0.036760558  0.040247906            3 
  140000    1.1988872    -6.758599     61.61169  0.036673625   0.04021503            3 
  141000    1.1933544    -6.672795    62.182291  0.036750763  0.040185038            2 
  142000    1.1822772    -6.694426     62.72927  0.036812952  0.040156411            1 
  143000    1.1732067   -6.7372236    63.027978  0.036729591  0.040125633            1 
  144000    1.1918625   -6.7534986    63.270967  0.036615143  0.040088895            1 
  145000    1.1643012   -6.7200317    63.909788  0.036729763  0.040055353            1 
  146000    1.2022237    -6.708795    64.266464  0.036681771  0.040025191            1 
  147000    1.1592633   -6.6994137    64.553904  0.036595184  0.039992512            3 
  148000    1.1952952   -6.7381576    64.897256  0.036541248  0.039957433            2 
  149000    1.1899084   -6.7092078    65.470051   0.03661636  0.039922688            3 
  150000    1.1834862   -6.7221663    65.936753  0.036631529  0.039886115            2 
  151000    1.2251567   -6.7158495    66.353912  0.036619157  0.039853661            2 
  152000    1.1876081    -6.750267    66.807967  0.036627175  0.039821442            3 
  153000    1.1705775   -6.7810394    66.814711  0.036391455  0.039784217            2 
  154000    1.2123685   -6.7352238    67.510283  0.036531538  0.039744773            1 
  155000    1.1864088   -6.7300767    67.765711  0.036433178  0.039703391            1 
  156000    1.1896074   -6.7322836    68.307824  0.036489222  0.039664262            3 
  157000    1.2039865   -6.7768346    68.551021  0.036385892  0.039626409            1 
  158000    1.2091401   -6.7004043    69.139067  0.036465752   0.03959089            1 
  159000    1.1935706   -6.7294092    69.684756  0.036522409  0.039555429            2 
  160000    1.1814336   -6.7239226    69.754296  0.036330362  0.039516825            1 
  161000    1.1808055   -6.7622606    70.178573  0.036324313  0.039476462            2 
  162000    1.2090289   -6.7493295    70.518508  0.036274953  0.039436103            1 
  163000    1.1826801   -6.7393286    70.928446  0.036261987  0.039395479            2 
  164000    1.1838557    -6.763975    71.391314  0.036276074  0.039353013            2 
  165000    1.1940758   -6.7471682    71.674026  0.036199003  0.039312285            1 
  166000    1.1919875   -6.7704394    72.188167   0.03623904  0.039272473            3 
  167000    1.1830344   -6.7853032    72.902773  0.036378629  0.039237329            2 
  168000    1.1623321    -6.774879    73.349709  0.036383784  0.039204938            1 
  169000    1.1794123   -6.7824418    73.721908  0.036352026  0.039174451            2 
  170000    1.1842912   -6.7798691     74.45892   0.03649947  0.039147868            3 
  171000    1.1662797   -6.7528662    74.388286  0.036251601  0.039120686            4 
  172000    1.2145926    -6.768366    75.085061  0.036378421  0.039090808            2 
  173000    1.1766887   -6.7389891    75.364727  0.036302855  0.039060242            2 
  174000    1.1874507   -6.7519173    75.484563   0.03615161  0.039025775            3 
  175000    1.1930583   -6.7559458    76.275817  0.036321818  0.038995889            2 
  176000    1.1790941   -6.7334766    76.529208  0.036235421   0.03896327            3 
  177000    1.1892883   -6.7386459      77.1987  0.036345904  0.038933726            1 
  178000    1.1792934    -6.783166    77.489916  0.036278051  0.038903078            3 
  179000     1.181244   -6.7368251    77.934651  0.036282426  0.038871683            6 
  180000      1.18299   -6.7524577    78.361174  0.036278321   0.03884125            1 
  181000    1.1882458   -6.7506538    78.774356   0.03626812  0.038810598            2 
  182000    1.1746671   -6.7685893    79.097371  0.036216745  0.038780497            1 
  183000    1.1669067   -6.7381878    79.533555  0.036217466  0.038750633            3 
  184000    1.1869569   -6.7481317    80.234781  0.036338216  0.038720614            2 
  185000    1.1604713   -6.7630354    80.387515  0.036210592  0.038689011            1 
  186000    1.1830575   -6.7577278    80.531171  0.036080274  0.038657718            1 
  187000    1.1734097   -6.7715022    81.011668  0.036101456  0.038624958            3 
  188000    1.1724614    -6.770588    81.241497  0.036011302  0.038590446            2 
  189000    1.1761763   -6.8047182    81.577281  0.035968819  0.038556236            2 
  190000    1.1849493   -6.7099694    82.407546   0.03614366  0.038524479            1 
  191000    1.1607949    -6.731425    82.890128  0.036164977  0.038492306            3 
  192000    1.1938302   -6.8055976    82.756629  0.035918676  0.038458907            1 
  193000    1.1659472   -6.7597383    83.286276  0.035961259  0.038423542            1 
  194000     1.181144   -6.7724866    83.627705  0.035922554  0.038388277            2 
  195000    1.1534036   -6.7746003     84.06128  0.035923624  0.038351981            2 
  196000    1.1896966   -6.8002657    84.140991  0.035774231  0.038314408            2 
  197000    1.1780455   -6.8123505    84.572455   0.03577515   0.03827764            2 
  198000    1.1868347   -6.7916289    85.038664  0.035790684   0.03824158            1 
  199000      1.14715   -6.7545224    85.069967  0.035623939  0.038204721            1 
  200000     1.192066    -6.750831    85.699009  0.035707921  0.038167819            2 
  201000    1.1885911    -6.757199    86.199871  0.035737923  0.038131748            1 
  202000    1.1739624   -6.7688225    86.602488  0.035727099  0.038095899            2 
  203000     1.180364   -6.7822766    87.033087  0.035727868  0.038062604            1 
  204000    1.1790036   -6.8128503    87.344547  0.035679962  0.038028261            2 
  205000    1.1621262   -6.8029859    87.758243  0.035674082  0.037994566            3 
  206000    1.2053517   -6.7670255    88.555645  0.035823481  0.037963516            2 
  207000    1.1716897   -6.7909765    88.889462  0.035784808  0.037934739            3 
  208000    1.1828024   -6.7686401    89.724563  0.035947341  0.037905024            4 
  209000    1.1740644   -6.7332751    90.305145  0.036006836  0.037880088            1 
  210000    1.1896401   -6.8000451    90.052202  0.035735001  0.037853117            2 
  211000    1.1582886   -6.7281576    90.715076  0.035827439  0.037821881            3 
  212000    1.1666418   -6.7613699    90.869541  0.035719159  0.037790988            1 
  213000    1.1631217   -6.7934505    91.007211  0.035605325  0.037758071            2 
  214000    1.1647955   -6.7707087    91.118623   0.03548233  0.037723582            2 
  215000    1.1409528   -6.7785058    91.531481  0.035477318  0.037689676            1 
  216000    1.2052876   -6.7733744    92.203984  0.035572524  0.037654467            1 
  217000    1.1721523   -6.7620774     92.40195   0.03548462  0.037618256            3 
  218000    1.1753715   -6.7722576    92.521578  0.035367575  0.037581483            3 
  219000    1.1908499   -6.7887084    92.839613  0.035327098  0.037543772            2 
  220000    1.1619469   -6.8052558    93.299158   0.03534059  0.037506548            2 
  221000    1.1839166   -6.7740264    93.806497  0.035371982  0.037471593            1 
  222000    1.1716051   -6.7669025    94.362297  0.035421283  0.037439193            3 
  223000    1.1496215   -6.7894943     94.58574  0.035345942  0.037407394            3 
  224000    1.1631661   -6.8477452    94.534906  0.035169236  0.037374748            3 
  225000    1.1501373   -6.7613207      95.5972   0.03540637   0.03734345            2 
  226000    1.1582874    -6.784893    96.301816  0.035509519  0.037315447            1 
  227000    1.1606499   -6.7984138    96.468049  0.035414115  0.037285417            1 
  228000    1.1970662   -6.7521207    96.743664  0.035359526  0.037254787            2 
  229000    1.1701106   -6.8046441    96.972705  0.035288466  0.037224328            1 
  230000    1.1496079   -6.7747199    97.755802  0.035418769  0.037193755            1 
  231000    1.1384976   -6.7980656    97.884932  0.035312025    0.0371653            2 
  232000    1.1487105   -6.8033954    98.450072  0.035362813  0.037136508            1 
  233000    1.1687836   -6.8410601    98.935853  0.035384783  0.037109402            2 
  234000    1.1690016   -6.7969731    99.195744   0.03532612  0.037082456            5 
  235000    1.1584348   -6.8243186    99.748729  0.035371889  0.037054244            3 
  236000    1.1584502   -6.8091303    99.962205  0.035297389  0.037024729            4 
  237000    1.1675956   -6.8140047    100.13252   0.03520834  0.036995775            3 
  238000    1.1431502   -6.7819265    100.65233  0.035242414  0.036967357            1 
  239000     1.137859   -6.7924739    100.82484  0.035155104  0.036939055            1 
  240000    1.1344495   -6.8146293    101.39123  0.035205288  0.036910846            1 
  241000    1.1781335   -6.7987868     101.7127  0.035170367  0.036882665            2 
  242000    1.1401785   -6.7763224    102.52042  0.035303174  0.036855151            5 
  243000    1.1599715   -6.7742582    102.98782  0.035318181  0.036828072            2 
  244000    1.1626183   -6.7865682     103.0253  0.035186236  0.036802562            1 
  245000    1.1573935   -6.7959154    103.30413  0.035137458  0.036776812            4 
  246000    1.1662877   -6.8283687    103.36773  0.035016168  0.036749466            4 
  247000    1.1270889   -6.8127607    104.16298  0.035142704  0.036722161            3 
  248000    1.1460146   -6.8575363    104.21733  0.035019263  0.036693759            3 
  249000    1.1442678   -6.8167425    104.49238  0.034970675  0.036666195            2 
  250000     1.141937   -6.8482587    105.12533  0.035041777  0.036639515            1 
  251000    1.1275632   -6.8388562     105.3121  0.034964178  0.036611442            3 
  252000    1.1745914   -6.7892044    106.00771   0.03505546  0.036584939            2 
  253000    1.1589094   -6.7856534    106.71819  0.035150918  0.036559517            2 
  254000    1.1538056   -6.8342119    106.91864  0.035078295  0.036535235            3 
  255000     1.160643   -6.8242372    107.17047  0.035023029  0.036512563            1 
  256000    1.1471116   -6.8061101    108.03914  0.035168992  0.036490118            1 
  257000    1.1695317   -6.8149929    108.06721  0.035041248  0.036467058            1 
  258000     1.170834   -6.8449645      108.243   0.03496221  0.036443175            1 
  259000    1.1368935   -6.8245469    108.97446  0.035062566  0.036418865            4 
  260000    1.1597531   -6.8528998    109.41026  0.035067391  0.036397283            3 
  261000    1.1262991   -6.8455694    109.85535  0.035075143   0.03637601            1 
  262000    1.1199542   -6.7746304    110.98662  0.035301087  0.036356037            2 
  263000    1.1412192   -6.8108512    110.62674  0.035052834  0.036336308            2 
  264000    1.1528762   -6.8386375    111.26396    0.0351212  0.036317441            4 
  265000    1.1444774   -6.8323675     111.6886  0.035122202  0.036298698            2 
  266000    1.1753513   -6.8413188    112.10247  0.035119821  0.036280132            1 
  267000    1.1327645    -6.854376    112.37346  0.035072864  0.036262047            2 
  268000    1.1450921   -6.8375065    112.82563  0.035082596  0.036243885            1 
  269000    1.1158884   -6.8257922    113.65308  0.035208512  0.036226993            2 
  270000    1.1273455   -6.8337744    114.22862  0.035255746  0.036211786            2 
  271000    1.1294561   -6.8474111    114.19292  0.035114674  0.036195781            4 
  272000    1.1382631   -6.8638236    114.50635  0.035081602  0.036180202            3 
  273000    1.1470629   -6.8280393    115.23261  0.035174789   0.03616367            3 
  274000    1.1315696   -6.8418211    115.58594  0.035153874   0.03614719            2 
  275000    1.1420725   -6.8477092    115.86358  0.035110177  0.036129873            1 
  276000    1.1533814   -6.8484052    115.95243  0.035009793   0.03611374            2 
  277000    1.1506538    -6.814519    116.69291   0.03510617  0.036097083            2 
  278000    1.1527278    -6.816658    117.11283  0.035105764  0.036080084            2 
  279000    1.1052843   -6.8375861    117.26393  0.035025068  0.036063224            1 
  280000    1.1160172   -6.8740098    118.02945  0.035127812  0.036046487            1 
  281000     1.137853   -6.8322321    118.07936  0.035017602  0.036029106            2 
  282000      1.11184   -6.8636824     118.4426  0.035000768  0.036011578            2 
  283000    1.1261176   -6.8212018     118.5041  0.034895199  0.035993929            4 
  284000    1.1468428   -6.8273156    119.05508  0.034934003  0.035975606            2 
  285000    1.1511857   -6.8286169    119.21683  0.034858723  0.035956731            2 
  286000    1.1402683   -6.8037959    119.37125  0.034781833  0.035937656            2 
  287000    1.1059606    -6.823986     119.6293  0.034735568  0.035916566            1 
  288000    1.1503085    -6.831517    119.95804  0.034710082  0.035895204            2 
  289000    1.1178766   -6.8311205    120.34306  0.034700998  0.035874156            1 
  290000    1.1482222   -6.8831297    120.51703  0.034631329  0.035852324            1 
  291000    1.1389971   -6.8719223    121.15873  0.034696085  0.035830651            1 
  292000    1.1371271   -6.8573612    121.19202  0.034586763   0.03580962            1 
  293000    1.1320444   -6.8188356    122.12296  0.034733493  0.035788918            2 
  294000    1.1368502   -6.8668343    121.84153  0.034535581  0.035767524            3 
  295000    1.1251662   -6.8494676    122.44671  0.034589465  0.035746969            3 
  296000    1.1286916   -6.8942338    123.00102  0.034628664  0.035726618            2 
  297000    1.1402858   -6.8618884    123.26119  0.034585069  0.035706629            2 
  298000    1.1184052   -6.8520718    123.74806  0.034605163  0.035686772            1 
  299000    1.1581403   -6.8660037    124.14766  0.034600796  0.035666675            2 
  300000    1.1242008   -6.8218228    124.84738  0.034679828  0.035647739            2 
  301000     1.121926   -6.8647637    124.85152  0.034565758  0.035626948            3 
  302000    1.1257488   -6.8071737    125.15831  0.034535958   0.03560664            3 
  303000    1.1298866   -6.8539412    125.83567   0.03460827  0.035586103            3 
  304000     1.126384   -6.8369041    125.98616  0.034535679  0.035567387            1 
  305000    1.1357871   -6.8529695    126.35528  0.034523302  0.035547931            2 
  306000    1.1484498   -6.8404701    126.79528  0.034530304  0.035528724            3 
  307000     1.094971   -6.8733632    127.01533   0.03447756  0.035508065            2 
  308000    1.1286638   -6.8707606    127.41408  0.034473506  0.035488224            2 
  309000    1.1603894   -6.8634946    127.70709  0.034440962  0.035469024            2 
  310000    1.1198213   -6.8870338    128.11898  0.034440585  0.035448283            2 
  311000    1.1188451   -6.8742461    128.50004  0.034431951  0.035427846            1 
  312000    1.1215519   -6.8329239      128.728  0.034382478  0.035408314            2 
  313000    1.1493433   -6.8974086    128.95218  0.034332316  0.035390229            2 
  314000    1.1475808   -6.8589759    129.81538  0.034452065  0.035370448            2 
  315000    1.1195085   -6.8779081    129.76746  0.034330016   0.03535166            5 
  316000    1.1291522   -6.8721633    130.22654  0.034342443  0.035332144            3 
  317000    1.1407589   -6.8233923    130.86799  0.034402732  0.035313806            2 
  318000    1.1198707   -6.9085672    130.90214  0.034303495  0.035295311            3 
  319000    1.1409865   -6.8638246     131.3034  0.034300783  0.035276379            2 
  320000    1.1465633   -6.8475964    131.85563  0.034337403   0.03525764            2 
  321000    1.1244107   -6.8773973    132.13467  0.034302875   0.03523764            3 
  322000     1.097739   -6.8899527    132.40174  0.034265461  0.035218777            1 
  323000    1.1225091    -6.908311    132.51122  0.034187621  0.035198391            4 
  324000    1.1242608   -6.8990264    133.12627  0.034240295  0.035178974            1 
  325000    1.1092426   -6.8686552    133.24346   0.03416499  0.035159804            3 
  326000    1.1436712   -6.8583452    134.41735  0.034360263  0.035141985            2 
  327000    1.1190957   -6.8671763    134.99852  0.034403293  0.035126229            1 
  328000    1.1495948   -6.8324695     135.6843  0.034472637  0.035111996            2 
  329000    1.1213825   -6.8884245    135.54564  0.034332736  0.035097153            1 
  330000    1.1075381   -6.9113702    135.99439  0.034342018  0.035082162            3 
  331000     1.132138   -6.8698646    136.37506  0.034334104  0.035067575            2 
  332000    1.1154042   -6.8766777    136.92707  0.034369244  0.035052141            1 
  333000    1.1033051   -6.8661119    137.33775  0.034368807  0.035036602            2 
  334000    1.1245544    -6.878784    137.07686  0.034200813  0.035019368            1 
  335000    1.1032027   -6.9318608    137.00559  0.034080992  0.035001699            3 
  336000    1.1228004   -6.8709054     137.4043  0.034078448  0.034982253            2 
  337000    1.1205795   -6.9026018    137.13203  0.033909999  0.034962412            2 
  338000    1.1196858   -6.8713573    137.96098  0.034014048  0.034942508            3 
  339000    1.1296687   -6.8935353    137.94654  0.033910161  0.034921918            2 
  340000     1.113504   -6.9222464    138.22202  0.033877946  0.034901555            2 
  341000    1.1224585   -6.8798381    139.36517  0.034057961  0.034882459            2 
  342000    1.1393857   -6.8746615    139.39351   0.03396528  0.034864216            2 
  343000    1.1080552   -6.8603663     140.0549  0.034026943  0.034845671            2 
  344000    1.1173018   -6.8658218    139.97561   0.03390882  0.034826681            4 
  345000    1.1181004    -6.872684    140.61802  0.033965706   0.03480681            3 
  346000    1.1279466    -6.919058    140.46808  0.033831426  0.034787702            1 
  347000    1.1055564   -6.9104461    141.25425  0.033922731  0.034769225            3 
  348000    1.0867112   -6.9053193    141.75901  0.033946123  0.034749634            1 
  349000    1.1042098    -6.886447    141.24305  0.033725656   0.03472996            4 
  350000    1.1133581   -6.8729044    141.70719  0.033739806  0.034708682            2 
  351000    1.1137281   -6.8811954    142.52019  0.033836702  0.034688051            2 
  352000    1.1123109   -6.9117197    142.75477   0.03379611  0.034668486            3 
  353000     1.112869   -6.8812596    143.06598  0.033773839  0.034649318            3 
  354000     1.117203    -6.880128    143.77181  0.033844588  0.034629829            2 
  355000    1.0921751   -6.9184109    143.68529  0.033728941  0.034610547            3 
  356000    1.1229287   -6.8778446    144.11729   0.03373532  0.034592004            2 
  357000     1.113141   -6.8742285    145.08454  0.033866606   0.03457527            2 
  358000    1.0953846   -6.9087368    145.28195  0.033817957  0.034558235            3 
  359000    1.1436485   -6.9000592    145.79254  0.033842279   0.03454152            1 
  360000    1.1028567   -6.8533017    146.34794  0.033876839  0.034525565            1 
  361000    1.1094509   -6.9101352    146.45843  0.033808501  0.034508903            2 
  362000    1.1186768   -6.9331195    147.23498  0.033893871  0.034492473            4 
  363000    1.1222626   -6.9022761    147.41941  0.033842839  0.034476814            1 
  364000    1.0951965   -6.8657666     148.0341  0.033890591   0.03446077            2 
  365000    1.0936859   -6.8925955    147.85658   0.03375721  0.034445562            1 
  366000    1.0930439    -6.918777    148.42311   0.03379397  0.034429683            1 
  367000    1.1246849   -6.9207718    148.88259   0.03380622  0.034414004            3 
  368000    1.1277545   -6.8767878    148.99457  0.033739713   0.03439972            3 
  369000    1.0975794   -6.9105551    149.54184  0.033771869  0.034384825            3 
  370000    1.1235732   -6.8892993     150.4012  0.033874144  0.034370183            1 
  371000    1.1254032   -6.9531105    150.30482  0.033761191  0.034355417            2 
  372000    1.1086462   -6.8931295    150.72592  0.033764768  0.034340918            1 
  373000    1.0878742   -6.9171355      150.835  0.033698615  0.034325567            3 
  374000    1.0887288   -6.9047117    150.80969  0.033602871  0.034310391            2 
  375000    1.0953851   -6.8883691    151.65086  0.033700191  0.034294942            2 
  376000    1.0709462   -6.9286924    151.89037  0.033663646  0.034279032            2 
  377000     1.116057   -6.8898418      152.635  0.033738948  0.034263269            1 
  378000    1.1010921   -6.9425484    152.26504  0.033568132  0.034247685            4 
  379000    1.1102074   -6.9607894    152.53118  0.033538079  0.034231452            1 
  380000     1.108747   -6.9449932    152.98896  0.033550211  0.034214603            2 
  381000    1.1025772   -6.9135636    153.56444  0.033588022  0.034198117            2 
  382000    1.1049724   -6.9319731    153.65388  0.033519607  0.034181824            2 
  383000    1.0898017   -6.9107578    154.21261  0.033553657  0.034164899            1 
  384000    1.0846445   -6.9362189    154.57568   0.03354507  0.034148283            1 
  385000    1.1173922   -6.9061365    154.97189  0.033543698  0.034132741            1 
  386000    1.1099007   -6.9492953    155.09284  0.033482911  0.034116459            3 
  387000    1.1124585   -6.9288319    155.65143  0.033516673  0.034099484            4 
  388000    1.1110012   -6.9168682    155.76069  0.033453756  0.034082513            1 
  389000    1.1135305   -6.9177639    156.13814  0.033448615  0.034066225            2 
  390000    1.1049799   -6.9213966    156.33555  0.033405032   0.03405025            7 
  391000     1.092536   -6.9409879    157.01881  0.033465219  0.034034489            2 
  392000    1.0954772   -6.9384913    157.24778  0.033428526  0.034018797            3 
  393000    1.1083986   -6.9738892    157.76697  0.033453555  0.034003817            2 
  394000    1.0877446   -6.9269137    158.42746  0.033508345  0.033989012            2 
  395000    1.1001365   -6.9445962    158.26783  0.033389838  0.033973291            2 
  396000    1.0767437   -6.8680935    158.92608   0.03344404  0.033957333            2 
  397000    1.0970661   -6.9106377    159.03995  0.033383701  0.033941368            1 
  398000    1.1000347   -6.9164904    159.74336  0.033447102   0.03392576            1 
  399000    1.0837685   -6.8982501    159.34846  0.033280798  0.033909716            2 
  400000    1.0982314   -6.9581226    159.71719  0.033274415  0.033894522            2 
  401000     1.099903   -6.9707374    160.19873  0.033291506  0.033878153            1 
  402000    1.0984551   -6.9298199    160.96015  0.033366532  0.033861864            1 
  403000    1.0872457   -6.9280429    160.80229  0.033251094  0.033846026            3 
  404000    1.1010222   -6.9246837    161.66611   0.03334697  0.033830625            2 
  405000    1.0837682   -6.9269891    161.66014  0.033263403  0.033815105            2 
  406000    1.0779552    -6.985159    161.56293   0.03316152   0.03379866            1 
  407000    1.0745725   -6.9311346     162.4062  0.033252703  0.033782264            3 
  408000    1.0872485   -6.9270791    162.98771  0.033289973  0.033766854            1 
  409000    1.0809181   -6.9551061    162.65686  0.033141169  0.033750342            3 
  410000    1.0837632   -6.9447153    163.13592  0.033157707  0.033733563            3 
  411000    1.0806635   -6.9622877    163.60088  0.033171305  0.033716425            2 
  412000    1.0737707   -6.9157758    163.41949  0.033054105  0.033698802            3 
  413000    1.0719156   -6.9367217    163.47461  0.032985191  0.033681192            2 
  414000    1.0892801   -6.9196134    164.18973  0.033049463  0.033663946            2 
  415000    1.0724777   -6.9067834    164.50425  0.033032982   0.03364765            2 
  416000    1.1091077   -6.9283295    164.78162  0.033009139  0.033630723            2 
  417000    1.0925093   -6.9238652    165.33775  0.033041116  0.033613382            2 
  418000    1.0760769   -6.9508811    165.06887  0.032908467  0.033596196            3 
  419000    1.0904426   -6.9402156     165.8226  0.032979832   0.03357918            2 
  420000    1.0898165   -6.9491117    166.22852   0.03298185  0.033561783            2 
  421000    1.0972519   -6.9384462    165.81666  0.032821983  0.033544306            1 
  422000    1.1017679   -6.9635923    166.86667  0.032951554  0.033526333            3 
  423000    1.0714721   -6.9386032    167.19373  0.032938087   0.03350911            2 
  424000    1.0831749   -6.9754863    166.69074  0.032761544  0.033491995            2 
  425000    1.1034341   -6.9448738    167.37922  0.032819455  0.033474089            3 
  426000     1.096222   -6.9642664    167.61422  0.032788385  0.033456748            2 
  427000    1.0787521   -6.9587344     168.5741  0.032898926  0.033439121            6 
  428000    1.0788441   -6.9720723    168.12796  0.032735195  0.033421129            1 
  429000     1.070954   -6.9393176    168.87368  0.032803745  0.033402637            3 
  430000    1.1061388   -6.9431248    169.05376  0.032762357  0.033384157            7 
  431000    1.0859676   -6.9665233    169.09394  0.032694111  0.033365793            2 
  432000    1.0710485   -6.9862311    169.09904  0.032619413  0.033347085            1 
  433000    1.0927422   -6.9393329    169.98441  0.032714474  0.033328571            4 
  434000    1.0722471   -6.9993733    169.78632  0.032601061  0.033310046            2 
  435000    1.0844397   -6.9786006    169.66657  0.032503175  0.033291291            4 
  436000    1.0772906   -6.9631995     171.0141  0.032686181   0.03327323            1 
  437000    1.0763427   -6.9608212    170.04639  0.032426848  0.033254653            4 
  438000    1.0816116   -6.9732758    170.83411  0.032502685  0.033235562            2 
  439000    1.0522647   -6.9856239    170.93195  0.032447219  0.033216284            2 
  440000    1.0975303   -7.0025071    170.79589  0.032347707  0.033197089            3 
  441000    1.0503445   -7.0042174    171.91433  0.032485701  0.033177159            2 
  442000    1.0807577   -6.9574416     171.7098  0.032373642  0.033157662            3 
  443000    1.0753206   -6.9852566    172.22785  0.032398016  0.033138148            4 
  444000    1.0894834   -6.9767868     172.5914   0.03239328  0.033119111            3 
  445000    1.0813524   -6.9846827    173.02955  0.032402537  0.033100034            2 
  446000    1.0692193   -6.9387148    173.88323  0.032489392  0.033081044            4 
  447000    1.0872929   -6.9908305    173.59256  0.032362521  0.033062775            2 
  448000    1.0466046   -6.9653343    174.28727  0.032419507  0.033043909            1 
  449000    1.0908429   -6.9585188    174.15913  0.032323521  0.033024717            2 
  450000    1.0793284   -6.9840359    174.25399  0.032269258  0.033005968            2 
  451000    1.0620941   -7.0017358    174.82856  0.032303873  0.032987141            2 
  452000    1.0661676   -6.9909098    174.87623  0.032241193  0.032967713            2 
  453000     1.070622   -6.9536739    175.58277  0.032299994    0.0329479            1 
  454000    1.0846474   -6.9737359    175.27579  0.032172502  0.032929018            5 
  455000    1.0769473   -6.9688094    176.07022  0.032247293  0.032909059            1 
  456000    1.0795973   -6.9893842    176.05036  0.032172946  0.032888872            3 
  457000    1.0674899   -6.9541109     176.5293   0.03218988  0.032869396            2 
  458000    1.0776582   -6.9742416    177.04176  0.032212838  0.032850593            2 
  459000    1.0857618   -6.9617079    177.35852  0.032200167  0.032831247            1 
  460000    1.0664025   -7.0065892     177.4277    0.0321427  0.032812098            2 
  461000    1.1000497   -6.9669292    177.44399  0.032075921  0.032792559            2 
  462000    1.0914696   -6.9918326     178.5085  0.032198502  0.032773725            3 
  463000    1.0509415   -6.9654052    178.87705  0.032195294  0.032755469            4 
  464000    1.0824646   -7.0049317    178.45861  0.032050757  0.032736892            2 
  465000    1.0877971    -6.963929    179.27678  0.032128455  0.032718129            3 
  466000     1.063541   -6.9974694    179.46686  0.032093501  0.032699118            2 
  467000     1.089183   -6.9792138    179.93989  0.032109188  0.032681027            3 
  468000    1.0523922   -6.9699675     180.3975  0.032122061   0.03266329            2 
  469000    1.0415972   -7.0155954    180.14749  0.032009149  0.032645286            2 
  470000    1.0691806   -6.9802424    181.00093  0.032092364  0.032627936            6 
  471000    1.0643232   -6.9853247    181.05041  0.032032981  0.032610212            5 
  472000    1.0687453   -7.0130495    181.79944  0.032097359    0.0325924            3 
  473000    1.0723813   -6.9776634    182.35201  0.032126851  0.032575122            5 
  474000    1.0384748   -6.9738843    182.16452   0.03202611  0.032556569            2 
  475000    1.0481983   -6.9682315     182.2923  0.031981106  0.032538861            3 
  476000    1.0961335    -6.980411    182.56775  0.031962141  0.032520724            2 
  477000    1.0664633   -7.0323027    182.72592  0.031922768  0.032502655            5 
  478000    1.0826862   -6.9779945    183.08898  0.031919277  0.032484297            2 
  479000    1.0794254   -7.0043676    183.53467  0.031930178  0.032466161            2 
  480000    1.0561127   -6.9997709    184.14598  0.031969789  0.032448581            2 
  481000    1.0733931   -6.9904822    184.04728  0.031886224   0.03243034            3 
  482000    1.0742231   -7.0329495    184.48133  0.031895113  0.032411792            5 
  483000    1.0945864   -6.9801519    184.26601  0.031791927   0.03239336            2 
  484000    1.0730917   -7.0258132    184.58772  0.031781633   0.03237481            1 
  485000    1.0504839   -6.9829197    185.46938  0.031867591  0.032355979            7 
  486000    1.0448452   -6.9776686    185.48278  0.031804317  0.032337098            2 
  487000    1.0391613   -7.0036018    185.61052  0.031760869  0.032318419            1 
  488000    1.0504757    -6.990167      185.486  0.031674522  0.032298338            3 
  489000    1.0436464   -7.0281486    185.68665  0.031643942  0.032278478            4 
  490000    1.0623811   -7.0338046    185.28295  0.031510705  0.032257989            2 
  491000     1.058569   -7.0631311    185.33386   0.03145517  0.032237597            2 
  492000    1.0511705   -6.9588011    186.90077  0.031656635  0.032217932            3 
  493000    1.0521932   -6.9875143    187.16099  0.031636408  0.032198978            2 
  494000    1.0704357   -7.0285628    186.88668  0.031526094  0.032179839            1 
  495000    1.0374017   -7.0301007    187.62508  0.031586714  0.032160589            2 
  496000    1.0431084   -7.0173418    187.54303  0.031509246   0.03214116            2 
  497000    1.0584003   -7.0209325    188.43013  0.031594588  0.032122851            4 
  498000    1.0394953   -6.9993157    188.20755    0.0314939  0.032104598            1 
  499000    1.0448323   -7.0313079    188.75748  0.031522626  0.032086223            3 
  500000     1.054591   -7.0242453    189.14679  0.031524465  0.032067468            2 
  501000    1.0374467   -7.0020969    189.78423  0.031567571  0.032048745            3 
  502000    1.0579363   -7.0422722    188.97301  0.031370021  0.032029375            2 
  503000    1.0355613   -7.0163929    189.92547  0.031465451  0.032010689            4 
  504000    1.0379067   -7.0120888    190.69791   0.03153074  0.031992165            2 
  505000    1.0771579   -7.0126262    190.48948  0.031433907  0.031973361            4 
  506000      1.05735   -7.0055845    190.76619  0.031417357  0.031954629            2 
  507000    1.0626404   -7.0050909    190.92947  0.031382228  0.031936187            1 
  508000    1.0326665   -7.0037639    191.15882  0.031358074  0.031917505            2 
  509000    1.0416383   -7.0364153    191.26785  0.031314317  0.031898032            3 
  510000    1.0628663   -7.0223274    191.34336  0.031265255   0.03187892            2 
  511000    1.0344252   -7.0458754    191.56614  0.031240401  0.031859341            4 
  512000    1.0284991   -7.0056245      191.925  0.031237793   0.03183931            2 
  513000    1.0715774   -7.0340447    191.81778  0.031159484  0.031819368            2 
  514000    1.0616852   -7.0418361    192.37716  0.031189552  0.031800225            1 
  515000    1.0302187   -7.0305719     192.3427  0.031123414  0.031780921            5 
  516000    1.0555725   -7.0530208     192.7744  0.031132816  0.031761477            3 
  517000    1.0614369   -6.9929992    193.47084  0.031184856  0.031742202            2 
  518000    1.0319609   -7.0212337    193.53769  0.031135407  0.031723115            1 
  519000    1.0390269   -7.0201816    193.22518  0.031025238  0.031703488            3 
  520000    1.0627351    -7.006521    193.57282  0.031021285  0.031683346            2 
  521000    1.0381606    -7.038213     192.9465  0.030861564  0.031663111            2 
  522000    1.0320551   -7.0719314     193.8403  0.030945131  0.031642596            2 
  523000    1.0471489   -7.0357143    194.25355  0.030951808  0.031622446            2 
  524000    1.0494761   -7.0377096    194.58331  0.030945182  0.031601976            2 
  525000    1.0554859   -7.0055999    195.20474   0.03098488  0.031581756            1 
  526000    1.0511649   -7.0596466    195.43748  0.030962845  0.031561671            3 
  527000     1.057584    -7.033145    195.52452  0.030917856  0.031541851            2 
  528000    1.0473472    -7.027155     196.2153  0.030968324  0.031522524            5 
  529000    1.0452883    -7.019839    196.21609  0.030909907  0.031502634            3 
  530000    1.0330698   -7.0490336    195.74334  0.030777254  0.031482625            4 
  531000    1.0540586   -7.0427304    196.45483  0.030830953  0.031462533            2 
  532000    1.0403476    -7.006602    196.95559   0.03085144  0.031442463            3 
  533000    1.0258543   -7.0132415    197.46268  0.030872839  0.031421775            2 
  534000    1.0544081   -7.0432414    196.53467  0.030670204  0.031400624            1 
  535000    1.0260298   -7.0638519    196.87985  0.030666643  0.031379416            3 
  536000    1.0431769   -7.0417644    196.77152  0.030592587  0.031357872            4 
  537000     1.038543   -7.0492961    197.19561  0.030601429    0.0313366            3 
  538000    1.0361626   -7.0713332    197.49784  0.030591364  0.031315324            3 
  539000    1.0634188      -7.0617    196.81577  0.030429155  0.031294005            2 
  540000    1.0417693   -7.0699047    198.22399  0.030590123  0.031272855            5 
  541000     1.029845   -7.0187441    198.42458  0.030564476  0.031251745            1 
  542000    1.0412714   -7.0507811    198.57869  0.030531778  0.031230665            3 
  543000    1.0410428   -7.0925253     199.0331  0.030545288   0.03121027            2 
  544000    1.0618583   -7.1095431    199.26108  0.030524062   0.03119002            1 
  545000    1.0335929   -7.0619517     200.0466  0.030588165   0.03116985            1 
  546000    1.0400336   -7.0800769    200.32872  0.030575202  0.031150089            2 
  547000    1.0161701   -7.0133207    200.84595  0.030598103  0.031130407            1 
  548000    1.0671696   -7.0766129     201.0111  0.030567382  0.031110161            5 
  549000    1.0262989   -7.0440052    200.28565  0.030401586  0.031089216            4 
  550000    1.0272814   -7.0430941    201.16809  0.030480014  0.031068236            6 
  551000     1.050893   -7.0602937    201.41124   0.03046147  0.031047315            1 
  552000    1.0224415   -7.0668728    201.22643  0.030378387  0.031026228            1 
  553000     1.023884    -7.044272    201.64141  0.030385987  0.031005369            3 
  554000    1.0457121   -7.0598278    201.99158  0.030383811  0.030983954            5 
  555000    1.0483377   -7.0625007    201.74659   0.03029228  0.030963447            2 
  556000    1.0284595    -7.059347    202.33493  0.030325979  0.030942431            2 
  557000    1.0424563   -7.0594378    202.88929  0.030354472  0.030921942            1 
  558000    1.0439471   -7.0931956    202.55557  0.030250235  0.030900853            3 
  559000    1.0090721   -7.0426869    203.08758   0.03027543  0.030879857            3 
  560000    1.0388339   -7.0615625    202.76804  0.030173816  0.030858902            2 
  561000    1.0124834   -7.0299381    202.98733  0.030152603  0.030837983            2 
  562000    1.0181184   -7.0801123    204.12681  0.030267914  0.030817637            3 
  563000      1.03716   -7.0629294    204.03669  0.030200812  0.030796796            4 
  564000    1.0271549   -7.0617412    203.80018   0.03011232  0.030776116            2 
  565000    1.0492402   -7.0368525    204.22252  0.030121316  0.030754937            3 
  566000    1.0112918   -7.1147652    204.00973  0.030036768  0.030733792            1 
  567000    1.0492293   -7.1035329    204.13482  0.030002178  0.030712416            2 
  568000    1.0166195    -7.063918    204.70155  0.030032505  0.030691233            2 
  569000    1.0188234   -7.0334581    205.26638  0.030062446  0.030670067            2 
  570000     1.019518   -7.0507329     205.5129  0.030045746  0.030649072            3 
  571000    1.0244008    -7.081703    204.86231  0.029898177  0.030628293            2 
  572000    1.0148139   -7.0649681    205.82049  0.029985502  0.030607113            3 
  573000    1.0290461   -7.0864934    205.50949  0.029887942  0.030585865            2 
  574000    1.0344248   -7.0550033      206.385   0.02996298   0.03056466            2 
  575000    1.0260376   -7.0253129    206.25428  0.029891925  0.030543123            4 
  576000    1.0349176   -7.0624406    206.09292  0.029816683  0.030521117            1 
  577000    1.0111462   -7.0469782    206.25491  0.029788404  0.030498596            2 
  578000    1.0171655   -7.0940776    206.23555  0.029734075  0.030476423            1 
  579000    1.0369256   -7.0792881    206.36321  0.029701096  0.030453906            4 
  580000    0.9879595   -7.1208741    205.97959  0.029594769  0.030431736            1 
  581000    1.0172874   -7.0662587    207.51577  0.029764167  0.030409686            1 
  582000    1.0240764   -7.0993776    206.76542  0.029605587  0.030387968            1 
  583000    1.0287086   -7.0881679    207.72223   0.02969157  0.030365968            3 
  584000     1.025843   -7.1462757    207.67762  0.029634363  0.030343983            1 
  585000    1.0046157   -7.1167888    207.47329    0.0295546   0.03032194            1 
  586000    1.0153429   -7.0436773    209.06476  0.029730484  0.030300221            5 
  587000    1.0193951   -7.0698963    208.58224  0.029611335  0.030278566            2 
  588000    1.0309272   -7.0665987    209.17789  0.029645392  0.030257614            2 
  589000    1.0354489   -7.0623703    209.19802  0.029597908  0.030236057            2 
  590000    1.0251045   -7.1324141    209.20258  0.029548386  0.030214732            2 
  591000    1.0138076   -7.0940862    209.89244  0.029595663  0.030193196            1 
  592000    1.0179539   -7.1052356    210.25542  0.029596766  0.030171666            3 
  593000    1.0207222   -7.0883949    209.78375  0.029480571  0.030150403            2 
  594000    1.0231694   -7.1111257    210.33469  0.029508234  0.030128977            3 
  595000   0.98571564   -7.0600152    210.69096  0.029508538   0.03010753            1 
  596000    1.0279949   -7.0998577    210.59997  0.029446305  0.030085945            2 
  597000     1.010834   -7.0647394    211.19106   0.02947949  0.030064595            1 
  598000    1.0240449   -7.0727207    211.53628  0.029478299  0.030043604            1 
  599000    1.0314758   -7.0625767    212.31179  0.029536977  0.030022982            3 
  600000    1.0091962   -7.0722159    211.94966  0.029437452  0.030002144            3 
  601000    1.0218583    -7.083869    211.83278  0.029372266  0.029980809            2 
  602000     1.010153   -7.1088563    211.53967    0.0292829  0.029959321            3 
  603000    1.0329844   -7.1122998    212.38433  0.029351068  0.029937922            3 
  604000    1.0011595   -7.1003416    212.32142  0.029293795  0.029916212            2 
  605000    1.0082694   -7.0912854    212.57423  0.029280196  0.029894388            2 
  606000    1.0124473   -7.1002388    212.30287  0.029194564  0.029872481            1 
  607000      1.00106   -7.1087801     212.2775  0.029142984  0.029850705            3 
  608000   0.99243709   -7.0793927    213.45263  0.029256117  0.029828855            2 
  609000    1.0329589   -7.0887778    212.89313  0.029131517  0.029807163            2 
  610000    1.0100603   -7.1027757    213.15292  0.029119252  0.029785129            2 
  611000    1.0334552   -7.1061965     213.9223  0.029176528  0.029763181            3 
  612000     1.032083   -7.0867146    213.96371  0.029134492  0.029741975            2 
  613000    1.0222299   -7.0940991    213.73342  0.029055658  0.029720229            3 
  614000    1.0050531   -7.1203068    213.52041  0.028979426  0.029698151            2 
  615000   0.98904087    -7.126227    213.52349  0.028932722  0.029675815            2 
  616000    1.0012214   -7.1214078    213.74906  0.028916269  0.029653367            2 
  617000   0.99501328   -7.1176404    214.29668  0.028943366  0.029630807            4 
  618000    1.0231475   -7.0945479    214.60155  0.028937642  0.029608311            2 
  619000   0.99717374   -7.1166371    214.84165  0.028923216   0.02958622            4 
  620000    1.0288611   -7.1376994    215.08678  0.028909514  0.029564112            3 
  621000     1.000174     -7.14541    214.52332  0.028787349  0.029542001            4 
  622000    1.0149547    -7.102355    215.77814  0.028909183  0.029519665            3 
  623000   0.99079334   -7.1482852    215.76982  0.028861667  0.029497773            6 
  624000   0.99956597   -7.1345089    215.63826  0.028797845  0.029475907            2 
  625000    0.9943198   -7.1299908    216.63261  0.028884348  0.029454301            2 
  626000    1.0014162   -7.1378668    216.56369  0.028829032  0.029432524            2 
  627000    1.0126707   -7.1417311    216.05948   0.02871604  0.029410461            5 
  628000    1.0044386   -7.1184669    216.98999  0.028793789   0.02938881            2 
  629000   0.99761338   -7.1630853    217.51619  0.028817725  0.029367589            1 
  630000    1.0290958   -7.1393884    217.36581  0.028752091  0.029345971            8 
  631000    1.0105234    -7.141004     217.2154  0.028686662   0.02932415            2 
  632000    0.9936811    -7.123363    217.30179  0.028652662  0.029302076            3 
  633000    1.0194197   -7.1239957    216.76842  0.028537181  0.029279778            2 
  634000    1.0256763   -7.1171117    218.14759  0.028673448  0.029257504            2 
  635000   0.97713118   -7.1063328    217.99152  0.028607811  0.029235435            3 
  636000   0.99170759   -7.1046937    218.16579  0.028585664  0.029213268            2 
  637000    1.0061469     -7.14852    218.27167   0.02855464   0.02919123            2 
  638000    1.0040366   -7.1294298     218.2944  0.028512852  0.029168884            3 
  639000   0.99001354   -7.1379295    218.59935     0.028508  0.029146469            4 
  640000   0.98812642   -7.0971126     218.9178  0.028504922  0.029124461            1 
  641000   0.98986925   -7.1040707    219.18321  0.028494958  0.029102955            2 
  642000   0.99432786   -7.1379786    219.04897  0.028433147  0.029081226            3 
  643000   0.99153621   -7.1469242    218.73172  0.028347812   0.02905954            3 
  644000    1.0113532   -7.1494425     219.2995  0.028377265  0.029037532            3 
  645000    1.0015321   -7.1642219    219.63953  0.028377201  0.029015118            3 
  646000    1.0088098   -7.1721573    219.97473  0.028376513  0.028993031            2 
  647000   0.98131149    -7.149752    220.14584  0.028354693  0.028971015            1 
  648000   0.99425368   -7.1203433    219.57025  0.028236914  0.028949067            4 
  649000   0.98312781   -7.1595124    220.28998  0.028285821  0.028926899            1 
  650000    1.0023999    -7.154895    221.01349  0.028335063  0.028905002            3 
  651000   0.99597093   -7.1548018     220.9529  0.028283781  0.028883359            1 
  652000   0.98436033   -7.1499336    221.55149  0.028316908  0.028861483            5 
  653000   0.97974072   -7.1525913    221.84015  0.028310382  0.028839761            1 
  654000   0.98096019   -7.1764855    221.73741  0.028254003  0.028818026            1 
  655000    0.9816953   -7.1393969    221.78441  0.028216845  0.028796232            2 
  656000    1.0089061   -7.1766688     222.1463  0.028219804  0.028774553            8 
  657000   0.99669401   -7.1232573    222.55987  0.028229309  0.028753223            2 
  658000   0.99749378   -7.1407319    222.43336  0.028170386   0.02873234            4 
  659000   0.98901209   -7.1533899    223.28334  0.028235122   0.02871158            2 
  660000   0.99203307   -7.1554681    223.94224  0.028275535  0.028690797            2 
  661000    1.0088408   -7.1263876    223.78513  0.028212951  0.028669811            4 
  662000   0.98553846   -7.1629218    223.45653  0.028128969  0.028649056            1 
  663000    1.0117204   -7.1526341    224.02798  0.028158368  0.028628127            1 
  664000   0.98748309   -7.1636197    224.46495  0.028170801  0.028606873            2 
  665000   0.97451226   -7.1674244    224.25067  0.028101588  0.028585711            5 
  666000   0.96921648   -7.1773038    224.22004  0.028055561  0.028564603            1 
  667000   0.99330258   -7.1650695    224.37101  0.028032361  0.028543239            4 
  668000   0.96732017   -7.1272122    225.27324  0.028102949  0.028522355            2 
  669000   0.99310847   -7.1586828    224.18575   0.02792548  0.028501302            4 
  670000   0.98019574   -7.1744819     225.1353  0.028001902  0.028480194            4 
  671000   0.98394003    -7.175716    225.35008  0.027986845  0.028458708            4 
  672000   0.99044932   -7.1776849    224.84132  0.027882108  0.028437221            5 
  673000    0.9941425   -7.1518435    225.78576  0.027957623  0.028415845            1 
  674000    1.0121461   -7.1361923      225.507  0.027881676  0.028394608            2 
  675000   0.98277847   -7.1272446    225.88435  0.027886956  0.028373752            3 
  676000    1.0005292   -7.1275494    226.15203  0.027878702  0.028352777            2 
  677000   0.98074132    -7.166912    225.78648  0.027792526  0.028331565            1 
  678000   0.99275177   -7.2079481    225.67932  0.027738363  0.028310205            2 
  679000    1.0022342   -7.1628761    227.13119  0.027875699  0.028288988            2 
  680000   0.98317374   -7.1747565     226.6028   0.02776995  0.028267604            2 
  681000     1.009787    -7.129875    227.09374  0.027789249  0.028246555            1 
  682000   0.99773379   -7.1787249    226.58772  0.027686671  0.028225225           11 
  683000    1.0050926     -7.17661    226.90483  0.027684826   0.02820385            2 
  684000    0.9711508   -7.1780846    227.25871  0.027687465  0.028182755            2 
  685000   0.96553359   -7.1563417    228.28177  0.027771505  0.028162074            5 
  686000    0.9607918   -7.1618218     227.8723   0.02768128  0.028141144            2 
  687000   0.98250106   -7.1088502    228.53508  0.027721383  0.028120232            2 
  688000   0.98217228   -7.1933133    227.78196  0.027589869  0.028099456            3 
  689000   0.98500596   -7.1674453    228.18384  0.027598432  0.028078411            5 
  690000   0.98008994    -7.150212    228.51867  0.027598874  0.028057332            4 
  691000    1.0034962   -7.1710829     228.6165  0.027570731  0.028036599            3 
  692000    0.9814611   -7.1851845    228.88546  0.027563278   0.02801558            3 
  693000    0.9627469   -7.1681656     228.4222  0.027467797  0.027994459            3 
  694000   0.97924316   -7.1586167    229.22069  0.027524099  0.027973403            6 
  695000   0.98538826   -7.1584358    229.44665  0.027511588  0.027952331            3 
  696000   0.97173563   -7.1796578    229.42244  0.027469162  0.027931162            2 
  697000   0.99072299   -7.1478113    229.39767  0.027426789  0.027909816            1 
  698000   0.96719395   -7.1578719    229.10237  0.027352241  0.027888434            4 
  699000   0.97815967   -7.2015302    230.14633   0.02743757  0.027866997            3 
  700000   0.96096004   -7.1896876    229.18998  0.027284522  0.027845513            3 
  701000   0.95513762   -7.1849314     229.9007  0.027330088  0.027823927            3 
  702000   0.97546298   -7.1910629    229.93656  0.027295413  0.027802397            5 
  703000   0.95821568   -7.1579496    230.58409  0.027333345  0.027780933            3 
  704000   0.97239406   -7.2128726    230.21001  0.027250238  0.027759573            3 
  705000   0.96578216   -7.2155959    230.72411  0.027272353  0.027738304            3 
  706000   0.95794318   -7.2073739    230.35057  0.027189632    0.0277167            2 
  707000   0.97786069   -7.2092248    230.56598  0.027176566  0.027695331            3 
  708000   0.97570161   -7.2335681    230.06385  0.027079078  0.027673529            4 
  709000   0.98102635   -7.2210825    230.28206  0.027066532  0.027651595            5 
  710000   0.96152311   -7.1671199     231.7545  0.027201232  0.027629928            1 
  711000   0.94672766   -7.2185784    231.27998  0.027107358  0.027608777            4 
  712000    0.9759562   -7.1810958    231.79063  0.027129053   0.02758765            3 
  713000   0.95811587   -7.1599562    231.77868  0.027089607  0.027566659            2 
  714000   0.94779184   -7.1727884    232.42921  0.027127593  0.027545869            3 
  715000   0.96679035   -7.2067865    233.16394  0.027175285  0.027525309            4 
  716000   0.99450919   -7.1897559    232.40804  0.027049352  0.027504942            1 
  717000   0.96686077   -7.1970167    233.78414  0.027171564  0.027484662            2 
  718000   0.97131013   -7.1833779    233.36234  0.027084766  0.027464084            2 
  719000   0.98054831   -7.2061859    233.43054     0.027055  0.027443523            1 
  720000   0.96443886   -7.1785374    234.20722  0.027107317  0.027422941            4 
  721000   0.96059738   -7.1961514    233.96258  0.027041444  0.027402566            3 
  722000   0.95744957   -7.2146554    234.46387   0.02706185   0.02738241            2 
  723000   0.97610405   -7.2263247    234.70648  0.027052384  0.027362355            3 
  724000    0.9742114   -7.2054654    235.01568  0.027050608  0.027342137            1 
  725000   0.97727993   -7.2063087      235.091  0.027021954  0.027321952            2 
  726000   0.94857906   -7.1926698    234.81847  0.026953451  0.027302021            2 
  727000   0.97799378   -7.2216768    235.28559  0.026969921  0.027282091            3 
  728000   0.96495689   -7.2399387    235.75159  0.026986217  0.027261999            4 
  729000   0.96673897   -7.1832998    235.98649  0.026976051  0.027242044            5 
  730000   0.98085836   -7.2042585     235.6238  0.026897694  0.027222158            2 
  731000   0.97839073   -7.2062475    235.85234  0.026886951  0.027202421            5 
  732000   0.95818523   -7.2105663    236.70228   0.02694698  0.027182884            1 
  733000   0.96721505   -7.1677865    237.06734  0.026951721  0.027163267            2 
  734000   0.95455921   -7.2082555    236.46168   0.02684624  0.027143682            1 
  735000   0.95021013   -7.1934336    236.36953  0.026799267  0.027123857            2 
  736000   0.95418808   -7.1934056    237.17362  0.026853897  0.027103912            3 
  737000   0.97073863   -7.2212409    237.11482  0.026810812  0.027084035            5 
  738000   0.97068787   -7.2449639    236.87116  0.026746969  0.027064154            5 
  739000    0.9388547   -7.2056289    237.50445  0.026782189   0.02704454            1 
  740000   0.97283453   -7.2005573    237.49151  0.026744539  0.027024541            4 
  741000   0.96522859   -7.2381636    238.08513  0.026775205   0.02700456            3 
  742000   0.96805894    -7.246162    238.11585  0.026742571  0.026984712            2 
  743000   0.97286365   -7.2218798    238.75769  0.026778565  0.026964842            3 
  744000   0.95696743   -7.2381474    238.34022  0.026695813  0.026945622            6 
  745000   0.94799686   -7.1743514    239.85153   0.02682903  0.026926514            3 
  746000   0.94755546   -7.2120524    239.30702  0.026732241  0.026907465            4 
  747000   0.93811787   -7.2169534    239.16543  0.026680659  0.026888384            2 
  748000   0.94835043   -7.2104193    239.39075  0.026670092  0.026869094            2 
  749000   0.94607381   -7.2170522    238.92659  0.026582842  0.026849587            2 
  750000   0.96262163   -7.2354856    239.54946  0.026616606  0.026830052            1 
  751000   0.95637329   -7.2433324    239.38805  0.026563254  0.026810472            3 
  752000   0.94604945   -7.2103108    240.08083  0.026604702  0.026791083            2 
  753000   0.95394059   -7.2279922    239.27127  0.026479778    0.0267717            5 
  754000   0.94411841   -7.2014016    239.56398  0.026477009   0.02675224            4 
  755000   0.95143805   -7.2449228    239.81577  0.026469732  0.026732614            2 
  756000   0.92595899   -7.2392181    239.89413  0.026443356  0.026712831            2 
  757000   0.95171569   -7.2116932    240.39578  0.026463648  0.026693036            4 
  758000   0.95966649   -7.2249192    240.79169  0.026472262   0.02667354            2 
  759000   0.97177323   -7.2335347    241.35481  0.026499211  0.026654166            4 
  760000   0.95720278   -7.2273036    241.54474  0.026485169  0.026634982            2 
  761000   0.95572997   -7.2347399    241.78791  0.026476994  0.026615659            4 
  762000   0.96801431   -7.2442624    241.65128  0.026427306  0.026596532            2 
  763000   0.93188783   -7.2047236    241.78794  0.026407595  0.026577479            2 
  764000   0.93565513   -7.2018283    242.73555  0.026476391  0.026558633            4 
  765000   0.94647791   -7.2499166    242.49035   0.02641507  0.026540172            2 
  766000   0.95946491   -7.2186557    242.66604  0.026399699  0.026521038            3 
  767000   0.92778977   -7.2361228    242.07147  0.026300681  0.026502134            3 
  768000   0.96146178   -7.2274648    243.19007  0.026387812   0.02648345            2 
  769000   0.94608358    -7.246106    243.10976  0.026344795  0.026464715            3 
  770000   0.96081804   -7.2243553    243.52124  0.026355113  0.026445818            3 
  771000   0.95162127    -7.268622    242.89452   0.02625319  0.026427022            2 
  772000   0.93655274   -7.2542383    243.50369  0.026284941  0.026408146            4 
  773000   0.95279846   -7.2514887    244.04929  0.026309756  0.026389523            2 
  774000   0.91984742   -7.2881363    243.76759  0.026245434  0.026370715            2 
  775000   0.94074662   -7.2956952      243.205  0.026151075  0.026351827            3 
  776000   0.94551216   -7.2539574    244.16609  0.026220585  0.026333081            3 
  777000   0.93749008    -7.276489    244.34476  0.026206001  0.026314257            3 
  778000   0.95425582   -7.2381545     244.7573  0.026216506  0.026295754            3 
  779000   0.93928663   -7.2537213    245.30822  0.026241786  0.026277398            2 
  780000   0.96003522   -7.2327129     245.5204  0.026230812  0.026259042            5 
  781000   0.96383707   -7.2063904    245.40573  0.026184991  0.026240845            2 
  782000   0.94003076   -7.2814791    245.57027   0.02616904  0.026222601            2 
  783000   0.94026948   -7.2736113    245.22777  0.026099167  0.026204096            2 
  784000    0.9349736   -7.2899682    245.49707  0.026094502  0.026185427            2 
  785000   0.93986157   -7.2444935    245.34549  0.026045168  0.026166747            3 
  786000   0.93714551   -7.2884994    245.80838  0.026061109  0.026148011            6 
  787000   0.92529171   -7.2875474    245.73505   0.02602023  0.026129325            2 
  788000   0.93975139   -7.2795896    246.19118  0.026035446  0.026110969            2 
  789000   0.94813821   -7.2612217     246.7297  0.026059326  0.026092863            3 
  790000   0.92333387   -7.2727647    246.60428   0.02601311  0.026074706            2 
  791000   0.94224049   -7.2988286    247.04506  0.026026661  0.026056627            3 
  792000   0.93497515   -7.2703498      247.178  0.026007787  0.026038587            3 
  793000   0.92744045   -7.2606012    247.12606  0.025969532  0.026020441            1 
  794000   0.93240107   -7.1959963    247.42147  0.025967828  0.026002531            7 
  795000   0.93885767    -7.240349    247.87996  0.025983224  0.025984695            3 
  796000    0.9462087     -7.27918    248.11622  0.025975316  0.025966929            4 
  797000    0.9437574   -7.2823064     248.3339  0.025965485  0.025949081            3 
  798000   0.95002975   -7.2702267    248.76727  0.025978203  0.025931361            5 
  799000   0.92253431   -7.2665628    248.53594  0.025921563  0.025913666            1 
  800000   0.92593689   -7.2683188    248.29583  0.025864149  0.025895999            2 
  801000   0.93728927    -7.281764    248.92843  0.025897673  0.025878442            4 
  802000   0.93919652   -7.2649363    249.16527  0.025889991   0.02586075            1 
  803000   0.93196554   -7.2632334    249.80984  0.025924641  0.025843266            2 
  804000   0.92854516   -7.2525918    248.88653  0.025796697  0.025825806            2 
  805000   0.92943967   -7.2478692    250.57838   0.02593979  0.025808091            3 
  806000   0.93539274   -7.2340898    249.50312  0.025796435  0.025790422            3 
  807000   0.93838441   -7.2474904    249.89304  0.025804733   0.02577275            2 
  808000   0.94289257   -7.2818968    249.51765  0.025734081  0.025754989            2 
  809000   0.92688095   -7.2995093    249.55564  0.025706185  0.025737126            1 
  810000   0.94537695   -7.2957407     249.8305  0.025702726  0.025719228            3 
  811000   0.91395996   -7.2872373    249.85511  0.025673562  0.025701034            3 
  812000   0.91524701    -7.275506    249.46841  0.025602259  0.025682897            2 
  813000    0.9279033   -7.2728876    250.08555  0.025634025  0.025664877            1 
  814000   0.93437932   -7.3073327    249.84403  0.025577808  0.025646881            2 
  815000   0.92069615   -7.3113971    249.96336  0.025558626  0.025628786            2 
  816000    0.9358322   -7.2812543    251.18145  0.025651701  0.025610636            3 
  817000    0.9419068   -7.2618672    250.74913  0.025576207  0.025592367            3 
  818000   0.91269859   -7.3139593    250.59522   0.02552926  0.025573994            2 
  819000   0.94674118   -7.2952348     250.9848  0.025537729  0.025555829            2 
  820000   0.94628172   -7.2892851    251.33221  0.025541892  0.025537557            1 
  821000   0.92615431    -7.290109    250.59602  0.025436055    0.0255191            4 
  822000   0.94281339   -7.2799817    250.71297  0.025416968  0.025500688            4 
  823000   0.92815973   -7.2696986    250.64148  0.025378846  0.025482271            2 
  824000   0.94388095   -7.2616107    251.78633  0.025463828  0.025464183            6 
  825000   0.92714614   -7.2846886    251.17677  0.025371391  0.025446187            3 
  826000   0.93398039   -7.3129516    251.51251  0.025374547  0.025428021            4 
  827000   0.91511255   -7.3354955    252.15514   0.02540862  0.025409927            3 
  828000   0.91004181    -7.296459    252.09229  0.025371607  0.025391688            3 
  829000   0.93017907   -7.3084805    252.48252  0.025380229  0.025373634            3 
  830000   0.92952556   -7.2692156    253.11836   0.02541349  0.025355961            3 
  831000   0.91595198   -7.2386235    253.16243  0.025387327  0.025338374            1 
  832000   0.92008856   -7.3058464    252.76886  0.025317394  0.025320712            3 
  833000    0.9122607   -7.2785069    253.70349  0.025380501  0.025303105            2 
  834000    0.9379505   -7.3052397    252.58266  0.025238076  0.025285599            4 
  835000     0.942825   -7.2847264    253.18662  0.025268126  0.025267811            2 
  836000   0.94220646   -7.2820024    253.07334  0.025226609  0.025250023            3 
  837000   0.93714669   -7.2671248    254.21285  0.025309921  0.025232267            3 
  838000    0.9220763   -7.2969413    254.59342  0.025317564  0.025214749            3 
  839000   0.92308574   -7.3183766    254.30305  0.025258547  0.025197332            5 
  840000   0.90578464   -7.3084889    254.87814  0.025285529  0.025179785            1 
  841000   0.92640312   -7.3194699    254.80923  0.025248636  0.025162244            4 
  842000   0.91980974   -7.3092657    254.76542  0.025214313  0.025144673            2 
  843000   0.91827638   -7.2956729    254.96324  0.025203959  0.025127097            2 
  844000    0.9039974   -7.3208678     254.8039  0.025158363  0.025109551            4 
  845000   0.91022867   -7.3230606    254.18771  0.025067821  0.025091995            5 
  846000   0.90857457   -7.3498044    254.98702  0.025116925  0.025074377            2 
  847000    0.9343916   -7.3371206    254.75967  0.025064902  0.025057045           10 
  848000   0.90858724   -7.3382172    254.80742  0.025040037  0.025039369            3 
  849000   0.92090517   -7.3317286    255.91828   0.02511958  0.025021845            6 
  850000   0.91603288   -7.3200874    256.14932  0.025112678  0.025004256            2 
  851000   0.88478927   -7.3231631    255.66933  0.025036167  0.024986878            6 
  852000   0.90361465   -7.2797535    257.00882  0.025137795  0.024969528            4 
  853000   0.93141205   -7.3191117    256.09343  0.025018897  0.024952254            2 
  854000    0.9027537   -7.3398439    256.07204  0.024987514  0.024934965            2 
  855000   0.90808291    -7.320563    256.32602  0.024983042   0.02491773            2 
  856000   0.90535035   -7.3248827    257.20756  0.025039677  0.024900571            1 
  857000   0.91339925   -7.2858236    257.19384  0.025009125  0.024883526            3 
  858000   0.93033048   -7.2999002    257.50459  0.025010158  0.024866346            1 
  859000   0.91427238    -7.333564    257.02942  0.024934945  0.024849142            4 
  860000   0.91400818   -7.3346765    256.48893  0.024853578  0.024831497            3 
  861000    0.8949631   -7.2956977    256.71036  0.024846144  0.024813849            2 
  862000    0.9123417   -7.3279211    255.94293  0.024743129  0.024796159            3 
  863000   0.91436901   -7.3342371    256.51741  0.024769931    0.0247784            4 
  864000   0.90982861   -7.3342432    256.57471  0.024746789  0.024760458            2 
  865000    0.8884439   -7.3090327     256.6965  0.024729913  0.024742652            6 
  866000   0.91296123   -7.3245286    257.16882  0.024746807  0.024724878            1 
  867000   0.90869075   -7.2991499    257.05913  0.024707721  0.024706966            4 
  868000   0.92464557   -7.3641369    256.16661  0.024593568  0.024688945            2 
  869000   0.90546249   -7.3263275    257.18614  0.024663036  0.024670743            4 
  870000   0.91252417   -7.3427656    257.21107  0.024637076  0.024652613            3 
  871000   0.91021812   -7.3108679    258.18899  0.024702353   0.02463464            4 
  872000   0.91979254   -7.3069834    257.24936  0.024584227  0.024616684            2 
  873000   0.88908951   -7.3392286    257.19912  0.024551271  0.024598681            5 
  874000   0.91964583   -7.3227587    258.33413  0.024631401  0.024580792            8 
  875000   0.91554235   -7.3544044     257.7324  0.024545943  0.024562993            4 
  876000   0.92832981   -7.3107315    258.33567  0.024575311  0.024545327            2 
  877000   0.91334612   -7.3287848    258.62423  0.024574708  0.024527539            3 
  878000   0.90078018   -7.3357426    258.45588   0.02453074  0.024509866            1 
  879000   0.90772324   -7.3506788    258.98004  0.024552525  0.024492342            3 
  880000   0.90980094   -7.3516988    258.64052  0.024492473  0.024474693            4 
  881000   0.92148617    -7.339956    259.46232  0.024542406  0.024457218            2 
  882000   0.90895682   -7.3216284     259.4044  0.024509108  0.024439862            2 
  883000   0.92402711   -7.3143173    260.28825  0.024564765   0.02442273            3 
  884000   0.89912643   -7.3571734    259.68373   0.02447999  0.024405553            2 
  885000   0.89844994   -7.3435489    260.42139  0.024521788  0.024388433            4 
  886000   0.89193185   -7.3386833    260.41465  0.024493477  0.024371353            2 
  887000   0.92805545   -7.3393879     261.1918  0.024538876   0.02435439            4 
  888000     0.890756    -7.379943     260.6005  0.024455753  0.024337474            3 
  889000    0.9067172   -7.3490347    260.55072  0.024423577  0.024320585            5 
  890000   0.90977311   -7.3647063     261.1625  0.024453417  0.024303708            3 
  891000   0.89100708   -7.3750644    261.24541  0.024433727  0.024286869            3 
  892000   0.88598624   -7.3144322    261.92495   0.02446982   0.02427009            5 
  893000   0.90466807   -7.3605099    261.71512  0.024422837  0.024253443            6 
  894000   0.88082282   -7.3296834    262.16366  0.024437329  0.024236646            4 
  895000   0.88675046   -7.3331655     262.5159  0.024442821   0.02422001            3 
  896000   0.87580102   -7.3746697    261.57647  0.024328169  0.024203077            4 
  897000   0.89752632   -7.3564836    261.34264  0.024279324  0.024186007            3 
  898000    0.8959092    -7.353483    262.65198  0.024373792  0.024169199            5 
  899000   0.92750811   -7.3472751    263.08735  0.024387037  0.024152474            2 
  900000   0.90259078   -7.3656314    263.24662  0.024374687  0.024135646            2 
  901000   0.90154437   -7.3684996    262.42178  0.024271345  0.024118681            4 
  902000   0.90046551   -7.3861279    262.61202  0.024262012  0.024101826            6 
  903000   0.92614077   -7.3635276    262.58121  0.024232301  0.024085028            4 
  904000   0.89978148   -7.3735783    263.12747  0.024255851  0.024068297            2 
  905000   0.89196564   -7.3719243    263.35076   0.02424961  0.024051595            2 
  906000   0.90668267   -7.3599241    263.03661  0.024193949  0.024035064            1 
  907000   0.87125524   -7.3598219    263.75003  0.024232821  0.024018351            2 
  908000   0.89123871   -7.3545994     263.2519  0.024160416  0.024001591            3 
  909000   0.88289868   -7.3720717    263.60337  0.024166059  0.023984648            5 
  910000   0.87044227   -7.3757311    263.18448  0.024101143  0.023967641            3 
  911000   0.89208844   -7.3445708     263.6422  0.024116557  0.023951059            2 
  912000   0.90270998   -7.3778259    263.92139  0.024115624  0.023934528            3 
  913000     0.879687   -7.3619432    263.56117  0.024056331  0.023917845            3 
  914000   0.87851775    -7.339543    264.05189  0.024074753  0.023901178            4 
  915000   0.88893299   -7.3769267    264.59284  0.024097708  0.023884555            4 
  916000   0.89731222   -7.3671851    264.84228  0.024094094  0.023868001            2 
  917000    0.9076558   -7.3656761    264.17893  0.024007537  0.023851481            3 
  918000   0.89551532   -7.3429507    264.66751  0.024025736  0.023835001            3 
  919000   0.88305818   -7.3593587    265.20899  0.024048693  0.023818491            3 
  920000   0.86411127    -7.374072    265.51133  0.024049939  0.023801847            4 
  921000   0.88422614   -7.4137958    264.88053  0.023966751  0.023785269            4 
  922000   0.88796373   -7.4134103    264.93076  0.023945296  0.023768665            2 
  923000   0.86346589   -7.3909584    264.94908  0.023921008  0.023752089            6 
  924000   0.87984449   -7.3568855    265.40316  0.023936071  0.023735435            4 
  925000   0.88141062   -7.3635871     265.4353   0.02391309   0.02371885            3 
  926000   0.88288177   -7.3582601    265.65384  0.023906933  0.023702302            5 
  927000   0.87613657   -7.3903993    264.80076  0.023804456  0.023685743            7 
  928000   0.88626349   -7.3978821    265.73174  0.023862405  0.023669084            4 
  929000   0.87982679   -7.4361325    265.34476  0.023802005  0.023652289            4 
  930000   0.88775213   -7.4091263    265.75521  0.023813191  0.023635484            3 
  931000    0.8785783   -7.3974381     265.6987  0.023782555  0.023618829            4 
  932000   0.87276698   -7.4151971    266.11505  0.023794264  0.023602183            2 
  933000   0.88159021    -7.395462    265.85511  0.023745544  0.023585551            2 
  934000   0.89719872   -7.3837505    265.68341  0.023704801  0.023568861            4 
  935000   0.88923511   -7.3961973    265.77285   0.02368742  0.023551957            4 
  936000    0.8746783   -7.4104251    266.34929  0.023713434  0.023535149            4 
  937000   0.86674425    -7.407326    266.91241  0.023738208  0.023518442            4 
  938000   0.89322922   -7.4385272    266.07445  0.023638455  0.023501714            3 
  939000   0.89367452    -7.405125    266.61836  0.023661552  0.023485075            3 
  940000   0.87721326   -7.4229367     267.1572  0.023684149  0.023468526            4 
  941000   0.87195973   -7.3884428     267.2065  0.023663346  0.023452066            8 
  942000    0.8883147   -7.3774308    267.57548  0.023670867  0.023435717            2 
  943000   0.86476262   -7.3940379    268.07228  0.023689668  0.023419315            3 
  944000   0.86698231   -7.4052301     267.7707   0.02363795  0.023403068            2 
  945000   0.87417755   -7.4084941    267.70925  0.023607518  0.023386734            2 
  946000   0.86782753    -7.401308    268.36755  0.023640552  0.023370471            3 
  947000   0.86619187   -7.4206539    268.12938   0.02359463  0.023354132            3 
  948000   0.87026398   -7.4112978    268.19109  0.023575166  0.023337904            3 
  949000   0.85978062   -7.3978424    268.24796  0.023555318  0.023321495            2 
  950000   0.86319886   -7.3907645     268.1748  0.023524105  0.023305095            3 
  951000   0.86602607   -7.4194634     269.5701  0.023621635  0.023288873            3 
  952000   0.87417436     -7.38468    268.91283  0.023539288  0.023272645            3 
  953000   0.88979098   -7.4267776    268.78363  0.023503291  0.023256444            3 
  954000   0.85431958    -7.409819    268.39111  0.023444367  0.023240244            2 
  955000    0.8872151   -7.3906026    268.78458  0.023454152  0.023223881            5 
  956000   0.87131032   -7.4080371    268.86026  0.023436215  0.023207566            5 
  957000   0.86021145   -7.3803704    268.97218  0.023421471  0.023191317            3 
  958000   0.85187858   -7.4463832    268.76664  0.023379144  0.023174945            4 
  959000   0.85932628   -7.4177268    269.37389  0.023407533  0.023158687            2 
  960000   0.85683613   -7.4510391    269.46883  0.023391391   0.02314232            4 
  961000   0.87285447   -7.4167217     269.2734  0.023350104  0.023125863            4 
  962000   0.88044601   -7.3932026    269.99853  0.023388646  0.023109455            2 
  963000   0.85524561   -7.4040292    269.86515  0.023352817  0.023093239            2 
  964000   0.86892351   -7.4300533    269.65398  0.023310337  0.023076827            4 
  965000   0.85879987   -7.4333912    269.46106  0.023269521   0.02306053            5 
  966000   0.88556165   -7.3769964    270.30099  0.023317891   0.02304434            3 
  967000   0.86367544   -7.4020093    269.91306  0.023260347  0.023028169            3 
  968000   0.87026154   -7.4181723    269.68416  0.023216612  0.023011928            3 
  969000    0.8701561   -7.4347347    269.89097  0.023210438  0.022995549            7 
  970000   0.87150121   -7.4603722    269.96248  0.023192653  0.022979195            2 
  971000    0.8614191   -7.4047213     270.4373  0.023209518  0.022962811            4 
  972000    0.8591794   -7.4289791    270.07999  0.023155006  0.022946415            2 
  973000   0.87377655   -7.4264172    269.86777  0.023113032  0.022930016            2 
  974000   0.87507519   -7.4168776    270.23178  0.023120446  0.022913635            3 
  975000   0.84563497     -7.41323    270.44868  0.023115272  0.022897281            5 
  976000   0.84838096   -7.4174683    271.94162  0.023219059  0.022881146            4 
  977000   0.86363388   -7.4210351    271.22036  0.023133773  0.022865072            4 
  978000   0.86320954   -7.4632388    270.46466  0.023045728  0.022848653            4 
  979000   0.85019937   -7.4031791    271.29173  0.023092589  0.022832479            2 
  980000   0.88005832   -7.4511153    272.16071  0.023142918   0.02281641            4 
  981000    0.8547152   -7.4210964    272.05632  0.023110459  0.022800306            2 
  982000   0.87931296   -7.4371012    272.17957  0.023097384  0.022784246            7 
  983000   0.85159026   -7.4296138    271.71136  0.023034194  0.022768133            4 
  984000   0.86568257    -7.434636    272.04418  0.023038972  0.022751996            4 
  985000   0.85683559   -7.4880759    271.06549  0.022932782  0.022735778            6 
  986000    0.8526529   -7.4624061    271.42964  0.022940301  0.022719458            5 
  987000   0.86013508   -7.4400079    272.15916  0.022978653  0.022703255            3 
  988000   0.86708334   -7.3945116    272.84809  0.023013503  0.022687169            2 
  989000   0.86731183   -7.4118786    272.93123  0.022997239  0.022671244            6 
  990000   0.86323643   -7.4722028    272.50105  0.022937799  0.022655374            6 
  991000   0.85155799   -7.3973496    273.46271  0.022995519  0.022639408            4 
  992000   0.84922278    -7.440817    272.91852  0.022926623  0.022623559            2 
  993000   0.84312137   -7.4189949    272.75439  0.022889761  0.022607666            2 
  994000   0.84622091   -7.4392342    273.57217  0.022935293  0.022591869            2 
  995000   0.86030146   -7.4466805    273.39679  0.022897553  0.022575996            3 
  996000   0.85982877    -7.441475    273.44157  0.022878311  0.022560066            2 
  997000   0.85420258   -7.4683109    273.15354  0.022831289  0.022544228            3 
  998000   0.86847843   -7.4592796     273.6015  0.022845817  0.022528314            5 
  999000    0.8505176   -7.4744607    273.18887  0.022788528  0.022512384            2 
 1000000   0.87292737   -7.4240498    273.42375  0.022785312  0.022496462            2 
 1001000      0.85156   -7.4864446     273.5684  0.022774592  0.022480626            3 
 1002000   0.84356064   -7.4179662    274.11063  0.022796959  0.022464867            2 
 1003000   0.85229336   -7.4593505    274.17388  0.022779484  0.022449144            4 
 1004000   0.85409876   -7.4832612    274.33981  0.022770568  0.022433353            4 
 1005000   0.84856222    -7.453447      274.572  0.022767164  0.022417594            5 
 1006000   0.85059948   -7.4505354    274.85443  0.022767928  0.022401903            3 
 1007000   0.87756568    -7.457215    274.33555  0.022702379  0.022386213            2 
 1008000   0.83705925    -7.462309    274.71701  0.022711393  0.022370489            1 
 1009000   0.85982032   -7.4446274    274.18544  0.022644982   0.02235481            3 
 1010000    0.8474642   -7.4577157    274.85119  0.022677491  0.022338891            7 
 1011000   0.84313406    -7.481627    273.68267  0.022558743   0.02232302            3 
 1012000   0.84993022   -7.4812345    274.67875  0.022618474  0.022307174            3 
 1013000   0.85531461   -7.4754067    274.94517  0.022618062  0.022291355            4 
 1014000   0.85519037   -7.4728392     274.8706  0.022589629  0.022275589            3 
 1015000    0.8423153   -7.4871805     275.0668  0.022583481  0.022259782            4 
 1016000   0.85269386   -7.4773181    274.67842  0.022529398  0.022243947            3 
 1017000   0.84140718   -7.4739815    275.28926  0.022557298  0.022228161            4 
 1018000   0.85175243   -7.4794921    275.44999  0.022548296    0.0222124            3 
 1019000   0.84844097   -7.4665812    275.31655  0.022515256  0.022196684            4 
 1020000   0.84125389   -7.4633339    275.72255  0.022526352  0.022181097            6 
 1021000   0.86557498   -7.4595463     276.3676  0.022556937   0.02216542            3 
 1022000   0.83697062   -7.4652046    275.93326  0.022499451  0.022149586            3 
 1023000     0.841269   -7.4848982    275.25185  0.022421949  0.022133795            6 
 1024000    0.8537844   -7.4543079    276.07381  0.022466944  0.022117979            6 
 1025000   0.83730754   -7.4493934    276.64326  0.022491322  0.022102172            4 
 1026000   0.82244244   -7.4849565    275.95153  0.022413217  0.022086505            6 
 1027000   0.87194158   -7.4537249     276.7501  0.022456191  0.022070956            3 
 1028000   0.85222167   -7.4552535      276.843  0.022441877  0.022055361            3 
 1029000   0.84107009   -7.4742138    276.90617  0.022425184  0.022039782            2 
 1030000   0.85651205   -7.5214198     276.6794  0.022385065  0.022024142            2 
 1031000   0.84293089    -7.442313    277.59322  0.022437214  0.022008625            6 
 1032000   0.84937179   -7.4659353    276.60079  0.022335335  0.021993112            3 
 1033000   0.82987563   -7.4768189    276.62937  0.022316019  0.021977524            6 
 1034000   0.83911136   -7.4321408    276.72507   0.02230215   0.02196192            2 
 1035000   0.86381183   -7.5146413    276.52739  0.022264685  0.021946246            4 
 1036000   0.85461008   -7.4918575    277.08472  0.022288025  0.021930397            4 
 1037000    0.8454543   -7.4948002     276.4602  0.022216345  0.021914577            2 
 1038000   0.82914739   -7.4913155    277.26847  0.022259832   0.02189863            3 
 1039000   0.83377924    -7.501937    277.09526  0.022224515   0.02188293            4 
 1040000   0.86710607   -7.4795308     276.9749  0.022193502   0.02186713            2 
 1041000   0.85228802   -7.4788475    276.73815   0.02215323  0.021851461            4 
 1042000   0.82537901   -7.4809962    277.30525  0.022177324  0.021835722            7 
 1043000   0.82631862   -7.4638647    277.96546   0.02220881  0.021820124            6 
 1044000   0.82096692   -7.4627154     277.6626  0.022163362  0.021804511            3 
 1045000    0.8434958   -7.4760226    277.81545  0.022154342   0.02178896            4 
 1046000   0.85312005   -7.4787417    277.36814  0.022097525   0.02177326            2 
 1047000   0.81402114   -7.4774463     277.3275  0.022073185  0.021757663            3 
 1048000   0.84823477   -7.4806987    277.28117  0.022048439  0.021742007            6 
 1049000   0.84319793   -7.4981319    277.66894  0.022058225  0.021726363            4 
 1050000    0.8463438   -7.4968848    277.47996  0.022022219  0.021710793            3 
 1051000   0.83196089   -7.5118939    277.81768  0.022028043  0.021695098            4 
 1052000   0.81580324   -7.5332641    277.98948  0.022020713  0.021679373            4 
 1053000   0.85110342   -7.4890784     277.6574   0.02197352  0.021663674            5 
 1054000   0.84094746   -7.5082419    278.40773  0.022011996  0.021648026            5 
 1055000   0.83672903   -7.4998023    278.22819  0.021976951  0.021632407            3 
 1056000   0.82322003    -7.509856    278.06394  0.021943177  0.021616745            2 
 1057000   0.82046919   -7.5248664    278.70429  0.021972902  0.021601027            2 
 1058000   0.82556237    -7.510043    277.87346  0.021886694  0.021585249            3 
 1059000    0.8207697   -7.5256255    278.03721  0.021878911  0.021569524            5 
 1060000   0.81749501   -7.5049712    278.48959  0.021893836  0.021553832            3 
 1061000   0.82733014   -7.5229252    278.44163  0.021869433  0.021538202            3 
 1062000   0.82936432   -7.4959268      278.554  0.021857658  0.021522605            5 
 1063000   0.82486522   -7.4895918    279.22401  0.021889621  0.021507153            3 
 1064000   0.82661614   -7.4987452    279.49567  0.021890325  0.021491825            3 
 1065000   0.85120117   -7.5071404    279.81499  0.021894756  0.021476498            2 
 1066000   0.83726924   -7.5104194    279.28157  0.021832518  0.021461202            4 
 1067000   0.82384297   -7.4779752    279.53734  0.021832032  0.021445927            4 
 1068000   0.83011101   -7.4913721    279.88594   0.02183879  0.021430673            3 
 1069000   0.81643926   -7.4908555    280.51697  0.021867553   0.02141554            3 
 1070000    0.8198595   -7.5300636    279.73856  0.021786492   0.02140026            3 
 1071000   0.81969247    -7.508106    280.19203  0.021801434  0.021384949            2 
 1072000    0.8210281   -7.4965108    280.31588  0.021790725  0.021369706            5 
 1073000   0.82721602   -7.5218315    280.49882  0.021784624  0.021354559            4 
 1074000    0.8474797   -7.5376525    280.09696  0.021733159  0.021339334            4 
 1075000   0.83172702   -7.4999374     280.0968   0.02171293  0.021324202            4 
 1076000   0.81494795   -7.5019613    280.25436  0.021704953  0.021309128            6 
 1077000   0.83277782    -7.528056    280.73627  0.021722088  0.021294012            3 
 1078000   0.80635428   -7.5281478    280.90021  0.021714611  0.021278851            2 
 1079000   0.83789934   -7.5335404    280.56635  0.021668702  0.021263754            2 
 1080000   0.81227263   -7.5258436    280.87689  0.021672599  0.021248603            3 
 1081000   0.82947358   -7.5283329    280.87886  0.021652703  0.021233366            3 
 1082000   0.82603634   -7.5380665    280.92164  0.021635986  0.021218138            5 
 1083000   0.82357887   -7.5583855     281.4508  0.021656725  0.021202876            3 
 1084000   0.81650995   -7.5387019    280.72087  0.021580633  0.021187709            3 
 1085000   0.82481573   -7.5370632    280.70137  0.021559245  0.021172495            4 
 1086000   0.82405946   -7.5148844    281.97446  0.021637083  0.021157405            3 
 1087000   0.83074619   -7.5278798    281.54597  0.021584327  0.021142345            4 
 1088000     0.812144    -7.524161    281.49657  0.021560705  0.021127274            2 
 1089000   0.80430843   -7.5286701     281.9299  0.021574067  0.021112333            5 
 1090000   0.82328226   -7.5071836    282.44712  0.021593816  0.021097526            2 
 1091000   0.83518602   -7.5254777    281.93085   0.02153459  0.021082817            3 
 1092000   0.80850762   -7.5045795    282.68649  0.021572534  0.021068142            2 
 1093000   0.83116732   -7.5410823    282.33438  0.021525952  0.021053306            2 
 1094000     0.828652   -7.5288682    282.40452  0.021511618  0.021038479            4 
 1095000   0.82441949   -7.5238008    282.90236   0.02152986  0.021023673            6 
 1096000   0.81263047   -7.5308482    282.77059  0.021500197  0.021008904            3 
 1097000   0.83154532   -7.5339786    282.20093  0.021437324   0.02099416            5 
 1098000   0.79945377   -7.5244524    282.25029  0.021421546  0.020979241            5 
 1099000   0.80253004   -7.5494285    281.71871  0.021361746  0.020964314            4 
 1100000   0.80587374   -7.5293426    282.10091  0.021371281  0.020949221            3 
 1101000    0.8159972   -7.5433623    282.39903  0.021374435  0.020934202            4 
 1102000   0.83189892   -7.5260873    282.71397  0.021378855  0.020919198            3 
 1103000   0.81182813   -7.5316315    282.89068  0.021372823  0.020904208            3 
 1104000    0.8059146   -7.5448122    282.62484  0.021333397  0.020889198            2 
 1105000   0.81770649   -7.5989568    282.50167  0.021304802   0.02087419            3 
 1106000   0.79398655    -7.579242    282.29947  0.021270304  0.020859093            3 
 1107000   0.81627136   -7.5376867    283.05632  0.021308064  0.020844128            2 
 1108000   0.82805603   -7.5393898    282.79628  0.021269275   0.02082925            6 
 1109000   0.80432289    -7.547187    283.34359  0.021291223  0.020814292            2 
 1110000   0.80314645   -7.5508438    282.55896  0.021213135  0.020799335            3 
 1111000   0.81264496   -7.5760822    282.87398  0.021217671  0.020784351            4 
 1112000   0.81130821   -7.5758704     282.5412  0.021173651   0.02076929            3 
 1113000   0.80039706   -7.5487825    282.93555  0.021184153  0.020754148            2 
 1114000   0.78734106   -7.5448558    282.84083  0.021158051  0.020739173            2 
 1115000    0.8171184   -7.5413892    283.05402  0.021155009  0.020724218            3 
 1116000   0.80779372   -7.5712326    282.42454  0.021089049  0.020709246            5 
 1117000   0.80068722   -7.5671372    282.62099  0.021084825  0.020694182            4 
 1118000   0.80713571   -7.5500342    284.01944  0.021170203  0.020679175            4 
 1119000   0.82331878   -7.5409183    284.15895  0.021161673  0.020664216            2 
 1120000   0.83262173   -7.5534609    282.86992  0.021046869  0.020649263            3 
 1121000   0.79110198   -7.5547137    283.07926  0.021043656  0.020634224            3 
 1122000    0.7988291   -7.5912556    283.41999  0.021050207  0.020619152            3 
 1123000   0.80342165   -7.5919576    283.45021  0.021033705  0.020604089            2 
 1124000   0.81757463   -7.5493615      283.184  0.020995255  0.020589085            3 
 1125000   0.80553612   -7.5743121    283.54819  0.021003569  0.020574062            3 
 1126000   0.81173067   -7.5619034    283.71482  0.020997248  0.020559041            4 
 1127000   0.82430698   -7.5814987    283.57267  0.020968106  0.020544145            2 
 1128000   0.78878265   -7.5597892    284.57913  0.021023872  0.020529299            2 
 1129000   0.81263064   -7.5385621     284.0921  0.020969302   0.02051443            2 
 1130000   0.80812519   -7.5521725     284.3848   0.02097233   0.02049963            3 
 1131000    0.8053783   -7.5488977    284.67009  0.020974808  0.020484786            3 
 1132000    0.8102442    -7.580302    283.93199  0.020901943  0.020469959            3 
 1133000   0.79920203    -7.564557    284.43952  0.020920824   0.02045511            3 
 1134000   0.81201758   -7.5638586     284.2736  0.020890182   0.02044022            3 
 1135000   0.81031812   -7.5715756     284.4352  0.020883642  0.020425397            3 
 1136000    0.7995842   -7.6015937    283.57346  0.020802044  0.020410541            7 
 1137000   0.79962397    -7.597845    284.77325  0.020871683  0.020395641           10 
 1138000    0.7965811   -7.5738185    284.84606  0.020858675  0.020380767            4 
 1139000   0.78248693   -7.5916653    285.07705  0.020857261  0.020365967            3 
 1140000   0.78092147   -7.5712255    284.12565  0.020769419  0.020351154            4 
 1141000   0.79647305   -7.5670715    285.38025  0.020842846  0.020336343            4 
 1142000   0.79229862    -7.584008    284.51251  0.020761275  0.020321553            7 
 1143000   0.80594382   -7.5955738    284.80895  0.020764724  0.020306825            2 
 1144000     0.803831   -7.6038924    284.57068  0.020729216  0.020292021            3 
 1145000   0.79878148   -7.5605358    285.00794  0.020742936   0.02027718            3 
 1146000   0.80708852   -7.5991272    285.20921  0.020739471  0.020262413            3 
 1147000   0.79467553   -7.5968375    284.32701  0.020657295   0.02024744            3 
 1148000   0.78562957   -7.5942013    284.86177  0.020678119  0.020232404            2 
 1149000   0.78543843   -7.6235263    284.40796  0.020627209  0.020217254            7 
 1150000   0.78529946   -7.5863524    284.70436  0.020630751  0.020202185            5 
 1151000   0.79537412   -7.6192361    284.64815  0.020608757  0.020187151            3 
 1152000   0.80481084   -7.5842396    284.92138  0.020610632  0.020172108            4 
 1153000   0.78532029   -7.5821884    285.30631  0.020620577  0.020157199            2 
 1154000   0.79534445   -7.6125313    285.39281  0.020608955  0.020142289            2 
 1155000   0.79397967     -7.60536    285.46825  0.020596555  0.020127434            1 
 1156000   0.79119261   -7.6074654    285.07831  0.020550628  0.020112521            3 
 1157000   0.78544524   -7.5779935    285.94483  0.020595277  0.020097688            5 
 1158000   0.78805547   -7.6002204    285.96115  0.020578666  0.020083025            5 
 1159000   0.78057981    -7.585176    285.15962   0.02050328  0.020068438            3 
 1160000   0.78691585   -7.5870146    285.75405  0.020528308  0.020053737            7 
 1161000   0.80097366   -7.6133244    285.88062  0.020519711  0.020039019            2 
 1162000   0.80388868   -7.6202068     285.6655  0.020486625  0.020024241            3 
 1163000   0.76903425   -7.6163322    286.12213  0.020501729   0.02000951            4 
 1164000   0.79872249   -7.6120383    286.08012  0.020481108  0.019994789            3 
 1165000   0.80943623   -7.5935223    286.37592  0.020484686  0.019979997            3 
 1166000   0.79419464   -7.6049047    286.72652  0.020492176   0.01996532            9 
 1167000   0.78654951   -7.5980502    286.29865  0.020444062  0.019950565            3 
 1168000   0.80147221   -7.5795456    286.72291  0.020456829  0.019935926            3 
 1169000   0.78344289   -7.5963581    286.18607   0.02040106  0.019921347            2 
 1170000   0.79526275   -7.6255341    285.67343   0.02034711  0.019906699            6 
 1171000   0.79129681   -7.5715718    286.20409  0.020367498  0.019892114            5 
 1172000   0.79182546   -7.5770833    287.19379  0.020420491  0.019877552            3 
 1173000   0.77937968   -7.5670306    286.38826  0.020345856  0.019862966            4 
 1174000   0.79674328   -7.5955335    285.44893  0.020261849  0.019848374            4 
 1175000   0.77109987   -7.6187508    286.32301  0.020306597  0.019833736            4 
 1176000   0.77952168   -7.6136965    286.88751   0.02032933  0.019819117            2 
 1177000   0.78358863   -7.6111247    286.61315  0.020292633  0.019804479            6 
 1178000   0.78403125   -7.6027956    287.23881  0.020319667  0.019789921            5 
 1179000   0.78766986   -7.6177894    287.14756  0.020295982  0.019775434            2 
 1180000   0.78604737   -7.5920015    287.16418  0.020279956  0.019760942            4 
 1181000   0.78417353   -7.6099641    286.82619  0.020238935  0.019746497            3 
 1182000   0.78014453   -7.6041606    286.78192  0.020218692  0.019732106            6 
 1183000   0.77484842    -7.600788    287.31087  0.020238861  0.019717707           10 
 1184000   0.78038317   -7.5973126    286.81364  0.020186771  0.019703317            6 
 1185000   0.77915987   -7.6129145    288.04617  0.020256412  0.019689005            4 
 1186000   0.79001768   -7.6146331    287.62675  0.020209862  0.019674737            4 
 1187000   0.77151873   -7.6124118    287.72331  0.020199615  0.019660473            6 
 1188000   0.76917146   -7.6220974    287.87472  0.020193232  0.019646112            5 
 1189000   0.78122181   -7.6307254    287.85476   0.02017485  0.019631789            3 
 1190000   0.77621293   -7.5880474    288.01631  0.020169209  0.019617489            3 
 1191000   0.76666331   -7.6142024    287.94263   0.02014712  0.019603181            4 
 1192000   0.78951226   -7.6160179    288.45093  0.020165753   0.01958895            4 
 1193000   0.76761311   -7.6254235    288.14539  0.020127507  0.019574736            5 
 1194000   0.77932341   -7.6121568    289.25534  0.020188117  0.019560536            3 
 1195000   0.77049624   -7.6396776    288.86585  0.020144062  0.019546371            2 
 1196000   0.75986401    -7.643255    288.92734  0.020131503  0.019532218            3 
 1197000   0.76416222   -7.6426529    288.96035  0.020116983  0.019518083            4 
 1198000   0.77994128   -7.6193067     289.1658  0.020114483  0.019503995            4 
 1199000   0.80120673   -7.6293382    288.83254  0.020074544  0.019489914            5 
 1200000   0.77447293   -7.5894289    289.07814  0.020074871  0.019475809            3 
 1201000   0.76514922   -7.6397176    288.53523  0.020020485  0.019461708            4 
 1202000   0.77666411   -7.6393707    288.71599  0.020016361  0.019447549           12 
 1203000   0.75522859   -7.6544564    288.38268  0.019976633  0.019433315            9 
 1204000    0.7916566   -7.6579112    288.65129  0.019978633  0.019419019            4 
 1205000   0.77590673   -7.6288228    288.68303  0.019964248  0.019404766            2 
 1206000     0.776208   -7.6327302    289.00933  0.019970241  0.019390563            8 
 1207000   0.76495888   -7.6530713    288.85188  0.019942825  0.019376436            5 
 1208000   0.77370215   -7.6320053    289.07141   0.01994146  0.019362326            4 
 1209000    0.7733407   -7.6734646    289.37176  0.019945669  0.019348214            5 
 1210000   0.76419507    -7.649843    288.36141  0.019859601  0.019334034            2 
 1211000   0.77663129   -7.6550068    288.86786  0.019878052  0.019319849            7 
 1212000   0.76829866   -7.6264388    288.97849  0.019869258  0.019305633            3 
 1213000   0.76935358   -7.6427028    288.97464  0.019852613  0.019291539            2 
 1214000   0.74195715   -7.6733288    289.26738  0.019856355  0.019277449            5 
 1215000   0.74743015   -7.6807727    288.30506   0.01977401  0.019263268            1 
 1216000   0.79130975   -7.6662342    289.36592   0.01983045  0.019249067            3 
 1217000   0.76744755   -7.6607354    288.66322  0.019766038  0.019234948            2 
 1218000   0.76127693   -7.6428623    289.48339  0.019805924  0.019220925            1 
 1219000   0.77691696   -7.6217006    290.33858  0.019848139  0.019206943            3 
 1220000   0.76568706   -7.6287188    289.99558  0.019808441  0.019192889            4 
 1221000    0.7595607   -7.6714807    289.85274  0.019782469  0.019178867            3 
 1222000   0.76642939   -7.6180611    290.34657  0.019799957  0.019164894           10 
 1223000    0.7802088   -7.6577156    289.17593  0.019704002  0.019150867            5 
 1224000   0.77341442   -7.6692354    289.33847   0.01969897  0.019136837            2 
 1225000   0.75803271   -7.6458223    289.89563  0.019720791  0.019122839            5 
 1226000   0.77391235   -7.6532856    289.63077  0.019686702  0.019108856            4 
 1227000   0.77129257   -7.6688246    289.67354  0.019673563  0.019094918            6 
 1228000   0.77672996    -7.649445    289.85772  0.019670041  0.019081001            3 
 1229000   0.76204427   -7.6851273    290.53574  0.019700009  0.019067078            7 
 1230000   0.77650439   -7.6723668    290.13942  0.019657142  0.019053091            4 
 1231000   0.77579218   -7.6450232    290.53585  0.019668011  0.019039071            4 
 1232000   0.74557645   -7.6633664    290.34798  0.019639339   0.01902513            3 
 1233000   0.77828859   -7.6890213    290.16557  0.019611082  0.019011217            6 
 1234000   0.75931298   -7.6787928    290.48663  0.019616871  0.018997278            3 
 1235000   0.74185739   -7.6716233    289.67422  0.019546168  0.018983361            6 
 1236000   0.74873891   -7.6497564    290.17029  0.019563801  0.018969473            6 
 1237000   0.76823485   -7.6513666    290.25073  0.019553404  0.018955546            4 
 1238000   0.76645041   -7.6702563    290.17027  0.019532194  0.018941577            5 
 1239000   0.74810937   -7.6667118    290.29874   0.01952507   0.01892762            6 
 1240000   0.76355074   -7.6806246    289.79661  0.019475579  0.018913658            7 
 1241000   0.74210343   -7.6916999    290.00991  0.019474208   0.01889958            3 
 1242000   0.73695617    -7.701032    290.04763   0.01946106  0.018885559            6 
 1243000   0.75146425   -7.6805184    290.58695   0.01948156  0.018871588            4 
 1244000    0.7581706   -7.6839331    290.21218  0.019440795  0.018857586            5 
 1245000   0.75126827     -7.68609    290.32308  0.019432602  0.018843643            6 
 1246000   0.74936738    -7.664671    290.83604  0.019451313  0.018829727            4 
 1247000   0.76211589   -7.7079002    289.85784  0.019370345   0.01881575            2 
 1248000   0.75007434   -7.6774704    290.25362  0.019381252   0.01880171            3 
 1249000   0.74947998   -7.6914433    290.82462  0.019403831  0.018787683            2 
 1250000   0.76599371   -7.6711228    290.56397  0.019370931  0.018773667            5 
 1251000   0.75436125   -7.6632827    290.77645  0.019369601  0.018759689            4 
 1252000   0.74714995   -7.6750352    290.42933  0.019331025  0.018745646            3 
 1253000   0.75212627   -7.7014448    290.09523  0.019293378   0.01873152            2 
 1254000   0.75417262   -7.6897794    290.77368  0.019323078  0.018717536            5 
 1255000   0.75985066   -7.6930195    290.42851  0.019284762  0.018703568            4 
 1256000   0.74597722    -7.693011     290.7336  0.019289649   0.01868963            2 
 1257000   0.75411256   -7.6746922    289.95037  0.019222379  0.018675697            2 
 1258000   0.76076897   -7.6671215    291.58975  0.019315696  0.018661832            6 
 1259000   0.74205512   -7.7087169    290.66641  0.019239238  0.018647877            6 
 1260000   0.74707751   -7.7053633    290.62355  0.019221134  0.018633918            5 
 1261000   0.75225304    -7.711253    290.44158  0.019193866  0.018620009            9 
 1262000   0.74623423   -7.6966158    291.57915  0.019253773   0.01860614            7 
 1263000   0.75326641   -7.7300519    290.09488  0.019140597  0.018592298            5 
 1264000   0.74663796    -7.707731    290.66864   0.01916328  0.018578335            4 
 1265000   0.74896838   -7.7254657    290.83035  0.019158785  0.018564387            4 
 1266000   0.74553193   -7.7152638    290.25398  0.019105712   0.01855041            5 
 1267000   0.75004698   -7.6710728    291.41369  0.019166909  0.018536474            3 
 1268000   0.74148597    -7.713109    290.45138   0.01908855  0.018522514            5 
 1269000   0.72198678   -7.7032827    290.93887  0.019105521   0.01850853            4 
 1270000   0.75853985   -7.7031062    290.96222  0.019092009  0.018494601            3 
 1271000   0.74273931   -7.7448102     291.1228  0.019087517  0.018480739            3 
 1272000   0.73426897   -7.6955451    291.88572  0.019122492   0.01846692            5 
 1273000   0.74853627   -7.7050015    291.27388  0.019067418  0.018453084            7 
 1274000   0.74536336   -7.6996072    291.52772  0.019069055   0.01843933            3 
 1275000   0.73908615   -7.7271659    290.62542  0.018995126  0.018425566            3 
 1276000   0.73863655   -7.7103935    291.18129  0.019016542  0.018411723            2 
 1277000   0.72678814   -7.7506359    290.86352  0.018980913  0.018397954            3 
 1278000   0.74252421   -7.7137114    291.74874  0.019023783  0.018384189            8 
 1279000   0.74596042   -7.7307381    291.39953  0.018986157  0.018370377            5 
 1280000   0.74046966   -7.7174565    291.48214  0.018976702   0.01835653            4 
 1281000   0.76307003   -7.7185776    291.69454  0.018975705  0.018342723            4 
 1282000   0.76444491   -7.7266031    291.90071  0.018974305     0.018329            4 
 1283000   0.75910585    -7.737242    291.77136  0.018951115   0.01831526            6 
 1284000   0.74217523   -7.7364472    291.52644  0.018920459  0.018301534            3 
 1285000   0.74785566    -7.714994    291.47074  0.018902123   0.01828777            6 
 1286000   0.74097735   -7.7144803    292.34745  0.018944236  0.018274033            2 
 1287000   0.73843384   -7.6907436    292.01912  0.018908257  0.018260323            6 
 1288000    0.7595364   -7.7104096    291.02326  0.018829145   0.01824657            3 
 1289000   0.73017727   -7.7184999    290.95025  0.018809817  0.018232744            2 
 1290000    0.7334918   -7.7424106    291.83365  0.018852303  0.018218951            6 
 1291000   0.74673243   -7.7077056    291.65648  0.018826264    0.0182052            6 
 1292000   0.75410676   -7.7106559     291.0798  0.018774497  0.018191469            1 
 1293000   0.74581516   -7.7088511    291.57399  0.018791827  0.018177719            4 
 1294000   0.74965701   -7.7150244    292.11011  0.018811831  0.018164057            7 
 1295000   0.74169678    -7.705618    292.05113  0.018793509  0.018150391            3 
 1296000   0.72197261   -7.7063648    292.86653  0.018831439  0.018136735            2 
 1297000   0.71568692    -7.725297    292.18671   0.01877324  0.018123125            2 
 1298000   0.72075901   -7.7322725     291.8269  0.018735677  0.018109562            5 
 1299000   0.74857672   -7.7233551    293.09166   0.01880239   0.01809601            4 
 1300000   0.72009822   -7.7081932    292.65633  0.018760021  0.018082533            3 
 1301000   0.72901553   -7.7432958    293.66519  0.018810222  0.018069087            4 
 1302000   0.74043067   -7.7083353    293.25562  0.018769561  0.018055616            4 
 1303000   0.72312272   -7.7311568    292.62113  0.018714577  0.018042161            4 
 1304000   0.72534579   -7.7329321    293.30661  0.018744032  0.018028687            3 
 1305000   0.71161349   -7.7440381      292.485  0.018677203  0.018015217            2 
 1306000   0.72368965    -7.725083    292.72466  0.018678194  0.018001762            6 
 1307000   0.72855931   -7.7322081    293.22969  0.018696103  0.017988361            3 
 1308000   0.72864492   -7.7350247    293.29864  0.018686203  0.017974946           10 
 1309000    0.7354548   -7.7257698    293.17044  0.018663766  0.017961494            3 
 1310000   0.74872506   -7.7382301    292.73128  0.018621583  0.017948039            5 
 1311000   0.70947089   -7.7252232    293.04961  0.018627613  0.017934572            2 
 1312000   0.72857103   -7.7293471     292.6374  0.018587233   0.01792115            2 
 1313000   0.72093925   -7.7425033    292.18478   0.01854435  0.017907723            3 
 1314000   0.72933936   -7.7527256    293.40225  0.018607448  0.017894276            2 
 1315000   0.71311547   -7.7074534    293.46268  0.018597128  0.017880873            2 
 1316000   0.70388633   -7.7230623    293.89307   0.01861025  0.017867515            2 
 1317000   0.72989441   -7.7614218    292.62617  0.018515956  0.017854132            6 
 1318000   0.73502701    -7.742803    292.99172   0.01852502  0.017840775            4 
 1319000   0.72318995   -7.7434481    293.24388  0.018526907  0.017827378            4 
 1320000   0.72547954   -7.7618083    293.08564  0.018502881  0.017814008            3 
 1321000   0.73084138   -7.7609738    292.80049  0.018470887   0.01780067            3 
 1322000   0.72693443   -7.7690844    293.58879  0.018506606  0.017787302            5 
 1323000   0.73675706   -7.7715938    292.86129  0.018446793  0.017773915            4 
 1324000   0.71809818   -7.7562278    293.84306  0.018494654  0.017760544            2 
 1325000   0.72149109   -7.7984333    292.99321  0.018427246  0.017747151            4 
 1326000   0.71962398   -7.7653625    292.61164  0.018389369  0.017733822            5 
 1327000   0.72580941   -7.7565369    293.47194  0.018429537  0.017720479            2 
 1328000   0.72259538   -7.7347036      293.445  0.018413968   0.01770719            4 
 1329000   0.71892604    -7.772936    294.11646  0.018442216  0.017693896            6 
 1330000   0.70240807   -7.7640297    293.42696  0.018385148  0.017680622            4 
 1331000   0.72240014   -7.7635304    293.68933  0.018387761  0.017667408            3 
 1332000   0.72736718   -7.7696262     293.5938  0.018367981  0.017654174            4 
 1333000   0.72830271   -7.7815759    293.77291  0.018365398  0.017640911            4 
 1334000   0.71022603   -7.7488243    292.56934  0.018276446  0.017627661            2 
 1335000     0.711863   -7.7891147    293.33101    0.0183103  0.017614446            5 
 1336000   0.71549943   -7.7942008    293.83965  0.018328321    0.0176012            4 
 1337000   0.72454366   -7.7734541    293.78955  0.018311491  0.017587956            5 
 1338000   0.74350667   -7.7659008    293.81165  0.018299181  0.017574768            4 
 1339000   0.71694633   -7.7744202    293.92207  0.018292387  0.017561549            2 
 1340000   0.72180665   -7.7877732    293.28935  0.018239387  0.017548317            4 
 1341000   0.70927013   -7.7723995    293.50675  0.018239296  0.017535114            3 
 1342000   0.71575478   -7.7932839    293.74538  0.018240523   0.01752193            2 
 1343000   0.70962731    -7.789856    294.06648  0.018246865  0.017508733            5 
 1344000   0.72069378    -7.780769    293.96222  0.018226824  0.017495596            4 
 1345000   0.72030619   -7.7796643    293.72295  0.018198448  0.017482415            6 
 1346000   0.73022714   -7.7527363    293.25694  0.018156076  0.017469261            4 
 1347000   0.71994213   -7.7632599    294.32312  0.018208557  0.017456159            4 
 1348000   0.71896132   -7.7580246    294.20265  0.018187602  0.017443051            4 
 1349000    0.7300387   -7.7475207    293.23178  0.018114145  0.017429962            5 
 1350000   0.69596465   -7.7678337    294.28378  0.018165665  0.017416873            4 
 1351000   0.71618809   -7.7646171    294.70767  0.018178366  0.017403793            4 
 1352000   0.72133674   -7.7951418    294.66758  0.018162449  0.017390779            5 
 1353000   0.70719493   -7.7598289    294.20127  0.018120305  0.017377729            4 
 1354000   0.70224575   -7.7792468    294.19145  0.018106318  0.017364686            3 
 1355000   0.69651251   -7.7901867    294.44615  0.018108619  0.017351597            8 
 1356000   0.70499193   -7.7740544    294.49006  0.018097963  0.017338521            3 
 1357000   0.70590812   -7.7687425    294.05854  0.018058127  0.017325473            7 
 1358000   0.70103034   -7.7884545    294.49991  0.018071914   0.01731241            4 
 1359000   0.70012847   -7.7975813    294.63764  0.018067062  0.017299338            2 
 1360000    0.7063285   -7.7935919    294.61235  0.018052227  0.017286264            4 
 1361000    0.7058691   -7.7956069    294.46033  0.018029655  0.017273138            4 
 1362000    0.7009176    -7.795715    294.56431   0.01802278  0.017260025            4 
 1363000   0.70954658   -7.7867872    294.56921  0.018009856  0.017246964            3 
 1364000    0.7074375   -7.7897814    294.69455   0.01800431  0.017233856            4 
 1365000   0.70890933   -7.7843587    294.81602  0.017998536  0.017220838            3 
 1366000   0.70000247   -7.7844648    295.28588  0.018014024  0.017207823            3 
 1367000   0.69160537   -7.7827611    294.62988  0.017960856  0.017194845            3 
 1368000   0.71400449   -7.8080092    294.73383  0.017954059  0.017181878            5 
 1369000   0.72192516   -7.7736084    294.43789   0.01792293  0.017168917            3 
 1370000   0.72282052   -7.7787091    294.40269  0.017907706  0.017155927            1 
 1371000   0.70966009   -7.8022183    294.75012  0.017915762  0.017142973            3 
 1372000   0.70676409    -7.793009    294.19723  0.017869123  0.017130028            7 
 1373000   0.70701261   -7.8014916    295.24058  0.017919433  0.017117117            5 
 1374000   0.70852963   -7.7991874    294.94443   0.01788843  0.017104203            4 
 1375000   0.70960879   -7.7996681    295.19458  0.017890581  0.017091339            4 
 1376000   0.69733673   -7.7845052     295.6882  0.017907473  0.017078498            4 
 1377000   0.69568423    -7.803945    294.87672  0.017845359  0.017065588            5 
 1378000     0.715014   -7.7897406    294.48855  0.017808935  0.017052655            4 
 1379000    0.7114389   -7.8073257    294.43077  0.017792529  0.017039758            3 
 1380000   0.70296856   -7.8045533    295.17274  0.017824441  0.017026882            5 
 1381000   0.72227252   -7.7988725    295.22777  0.017814855  0.017014039            7 
 1382000   0.71871451   -7.8176496    295.46822  0.017816463  0.017001257            4 
 1383000   0.70735168   -7.8004198    294.98564  0.017774502  0.016988463            5 
 1384000   0.70226253   -7.8250833    294.82671   0.01775209  0.016975704            7 
 1385000   0.69679445   -7.8129551    294.54931  0.017722582  0.016962912            5 
 1386000   0.72525756   -7.8031276    294.74261  0.017721417  0.016950128            6 
 1387000   0.70342305   -7.8214217    295.16847  0.017734227  0.016937337            7 
 1388000   0.70569093    -7.801993    295.15217  0.017720471   0.01692456            5 
 1389000   0.70486819   -7.7973475    295.54242  0.017731127  0.016911813            4 
 1390000   0.68076651   -7.8263869    295.00064   0.01768589  0.016899081            4 
 1391000   0.71302333   -7.8289138    294.88137   0.01766603  0.016886337            3 
 1392000   0.69962636   -7.8090175    295.21923  0.017673565  0.016873605            4 
 1393000   0.70436307    -7.815334    295.46667   0.01767568  0.016860824            3 
 1394000   0.69516363   -7.8257962    294.86408  0.017626978  0.016848072            3 
 1395000   0.69004266   -7.8263327    294.90926   0.01761704  0.016835328            6 
 1396000   0.68878749   -7.8084341    295.67399  0.017650071  0.016822626            7 
 1397000   0.70596794   -7.8067164    295.87122  0.017649202  0.016809987            6 
 1398000   0.69965281    -7.823086    295.45205  0.017611591  0.016797341            3 
 1399000   0.68851846   -7.8302547    296.03481  0.017633715  0.016784685            2 
 1400000   0.69736158   -7.8486913     294.8473  0.017550435  0.016771995            4 
 1401000   0.68883637   -7.8144324    295.02584  0.017548527  0.016759328            4 
 1402000   0.70865992    -7.845135    295.31465  0.017553177  0.016746674            3 
 1403000   0.69483279   -7.8524046    294.74556  0.017506864   0.01673393            2 
 1404000   0.70311624   -7.8377608    295.82035  0.017558188  0.016721266            4 
 1405000   0.68060797   -7.8427397    295.00447  0.017497299  0.016708604            2 
 1406000   0.71520977   -7.8203787    295.38563  0.017507446  0.016695933            6 
 1407000   0.69371531   -7.8412591    295.63096  0.017509533  0.016683315            6 
 1408000   0.70827255   -7.8570665    294.78417   0.01744698  0.016670642            2 
 1409000   0.69183431   -7.8474041    295.48908  0.017476288  0.016657951            3 
 1410000   0.68683053   -7.8617934    295.86975  0.017486392  0.016645245            5 
 1411000   0.69874003   -7.8600635    295.29627  0.017440129  0.016632603            4 
 1412000   0.69944084   -7.8444992      295.235  0.017424162  0.016619995            2 
 1413000   0.69745934   -7.8490083    295.51428  0.017428301   0.01660737            3 
 1414000   0.69643272   -7.8873968    295.25675  0.017400799  0.016594766            4 
 1415000   0.69576131   -7.8354079    296.38735  0.017455085  0.016582217           12 
 1416000   0.68322601   -7.8672982    295.87089  0.017412364  0.016569691            4 
 1417000   0.69924995   -7.8414148    295.53361  0.017380241  0.016557126            5 
 1418000   0.69298322   -7.8629731    295.45961  0.017363635  0.016544552            8 
 1419000    0.7021364   -7.8327509    295.67113   0.01736382  0.016531988            2 
 1420000   0.69004045   -7.8696989    295.81465  0.017360015  0.016519457            2 
 1421000   0.68564515   -7.8629501    296.00508  0.017358965  0.016506939            3 
 1422000   0.69925823   -7.8596207    295.81798  0.017335793  0.016494444            3 
 1423000   0.67735308   -7.8546609    296.09786  0.017340001  0.016481924            4 
 1424000   0.67545454   -7.8756034     295.8797  0.017315058  0.016469448            8 
 1425000   0.68894372   -7.8616859    295.98466  0.017309044  0.016456971            4 
 1426000    0.6835024   -7.8767096     295.8127  0.017286857   0.01644449            4 
 1427000   0.68426524   -7.8852915    295.74542  0.017270814  0.016432023            5 
 1428000   0.68852383   -7.8733365    295.61252  0.017250964  0.016419559            4 
 1429000   0.68307094   -7.8263458    296.71155  0.017302983  0.016407162            4 
 1430000   0.70256229   -7.8532538    296.68409  0.017289283  0.016394774            4 
 1431000   0.67650908   -7.8247568    295.94471  0.017234143  0.016382378           11 
 1432000   0.69628638   -7.8484714    296.76003  0.017269555  0.016370015            6 
 1433000   0.66235697   -7.8274301    296.21626  0.017225881  0.016357655            2 
 1434000   0.67636871   -7.8410944    295.53023  0.017174002  0.016345226            5 
 1435000   0.67994702   -7.8589074    295.94099  0.017185888  0.016332797            3 
 1436000   0.69758863   -7.8395562    295.63704  0.017156281  0.016320343            7 
 1437000   0.68742676   -7.8798668    295.98064  0.017164268  0.016307938            5 
 1438000   0.67920278   -7.8511192    295.91725  0.017148658  0.016295552            2 
 1439000   0.67887663   -7.8513284    296.34548   0.01716154  0.016283179            6 
 1440000   0.67231082   -7.8596489    296.08681  0.017134653  0.016270768            4 
 1441000   0.68793237   -7.8618727    295.54232  0.017091274  0.016258362            2 
 1442000   0.67679956   -7.8723801    296.17999  0.017116273  0.016245922            3 
 1443000   0.67357272   -7.8698359    295.55903  0.017068551  0.016233514            4 
 1444000   0.67693755   -7.8589383    295.99715  0.017082014  0.016221087            5 
 1445000   0.66865926   -7.8505373    295.98638  0.017069572   0.01620868            2 
 1446000   0.65141154    -7.868701    295.30693  0.017018611  0.016196288            5 
 1447000   0.68902038   -7.8600683    295.32153   0.01700769  0.016183854            2 
 1448000   0.66472159   -7.8498459    295.21275  0.016989684  0.016171451            3 
 1449000   0.67236173   -7.8579076    296.14344  0.017031484  0.016159012            4 
 1450000   0.66682708   -7.8511155     295.4512  0.016979954  0.016146588            6 
 1451000   0.67098944   -7.8749364     295.6499  0.016979664  0.016134203            2 
 1452000   0.65869488   -7.8853413    295.67946  0.016969666  0.016121768            3 
 1453000   0.68241711   -7.8725378    295.74375  0.016961674  0.016109348            5 
 1454000   0.66078545   -7.8694284    295.35101  0.016927499  0.016096934            3 
 1455000   0.67395696   -7.8834561    295.89331  0.016946925  0.016084542            3 
 1456000   0.67243532   -7.8678224    296.50973  0.016970566  0.016072161            4 
 1457000   0.69087111    -7.884419    295.90443  0.016924298  0.016059761            5 
 1458000   0.67967351   -7.8670496    295.28659  0.016877377  0.016047364            7 
 1459000   0.66010978   -7.9127289    295.46789  0.016876165  0.016034914            5 
 1460000     0.666205   -7.9042804    295.63427  0.016874102  0.016022493            3 
 1461000   0.66183734   -7.8621489    296.47807  0.016910682  0.016010074            4 
 1462000   0.67479461   -7.8955198    295.82842  0.016862085  0.015997703            3 
 1463000   0.65933107   -7.8835492    295.82388  0.016850301  0.015985317            2 
 1464000   0.67169117   -7.8861049    295.60501  0.016826333  0.015972983            4 
 1465000   0.65765977   -7.8955654    295.60804  0.016815019  0.015960647            6 
 1466000   0.66369238   -7.8882057    296.18261   0.01683621   0.01594834            4 
 1467000   0.68011372   -7.8807212    295.66031  0.016795064  0.015936037            2 
 1468000   0.67275851   -7.8906729    295.54836  0.016777268   0.01592376            4 
 1469000   0.67196885   -7.9034957     295.4139   0.01675822  0.015911442            3 
 1470000   0.67995834   -7.8990389    295.94644  0.016777009  0.015899131            3 
 1471000    0.6604275   -7.9084759    295.96388  0.016766592  0.015886813            2 
 1472000   0.67939507   -7.8732147    295.87258  0.016750033    0.0158745            4 
 1473000   0.66035375   -7.9077364    295.77495  0.016733138  0.015862211            4 
 1474000   0.67050131   -7.8920392    295.37247  0.016699031  0.015849894            2 
 1475000   0.67122371   -7.8979474    295.68959  0.016705627  0.015837595            4 
 1476000   0.66313943   -7.9205081    295.34934  0.016675098  0.015825289            6 
 1477000   0.65553329     -7.89672    295.80357  0.016689436  0.015812988            3 
 1478000   0.67495379   -7.8854945    295.55162  0.016663939  0.015800689            6 
 1479000   0.65390353   -7.8952208    295.50549  0.016650073  0.015788396            7 
 1480000   0.66438988   -7.8989178     295.1505  0.016618835  0.015776096            5 
 1481000   0.67757773   -7.9267744    294.76552  0.016585951  0.015763813            9 
 1482000   0.65508274   -7.9082796    295.29371   0.01660446  0.015751502            4 
 1483000   0.66570708   -7.8937933    294.96586   0.01657484  0.015739227            4 
 1484000   0.65663669   -7.9230008    294.99389  0.016565246  0.015726914            7 
 1485000   0.67643356   -7.8921909    294.92037  0.016549964  0.015714599            9 
 1486000   0.65555102   -7.9323765    295.27983  0.016558985  0.015702313            4 
 1487000   0.65123572   -7.9192171    295.03182  0.016533951  0.015690032            4 
 1488000   0.66169851   -7.9285942    295.25462  0.016535317  0.015677766            8 
 1489000   0.66744044   -7.9319335    295.72182  0.016550359   0.01566551            4 
 1490000     0.655664   -7.9500599     295.3078  0.016516096  0.015653274            4 
 1491000   0.65144571   -7.9274541    295.41455  0.016510986  0.015641019            3 
 1492000   0.64930813   -7.9215864    295.85783  0.016524678  0.015628801            3 
 1493000   0.65878058   -7.9106346    295.21249  0.016477589  0.015616554            4 
 1494000   0.65191865   -7.9446279    294.74612  0.016440547  0.015604305            5 
 1495000   0.64352032   -7.9040652    295.29671   0.01646024  0.015592022            3 
 1496000   0.65025771   -7.9083345     295.2862  0.016448652  0.015579755            4 
 1497000   0.65306355   -7.9053897    294.74851  0.016407733  0.015567516            3 
 1498000     0.639529   -7.9500521    295.28345  0.016426538  0.015555278            3 
 1499000   0.66610975   -7.9342412    294.86953  0.016392569   0.01554302            3 
 1500000   0.65318007   -7.9440261    295.46316   0.01641462  0.015530813            3 
 1501000   0.65801099   -7.9363879    295.30606  0.016394962   0.01551862            4 
 1502000   0.66053757   -7.9404213    294.94025  0.016363751  0.015506428            3 
 1503000   0.65397204   -7.9291768    295.63499  0.016391383   0.01549425            9 
 1504000   0.65690384   -7.9643881    295.25511  0.016359437  0.015482048            5 
 1505000   0.64321875   -7.9318524    294.86177  0.016326787  0.015469852            5 
 1506000   0.64558117   -7.9161947    295.15664  0.016332262  0.015457638            5 
 1507000   0.63397298   -7.9363459    294.71738  0.016297135  0.015445434            5 
 1508000   0.66430789     -7.92044    295.45405  0.016327036  0.015433234           10 
 1509000   0.64174703   -7.9645199    295.17264  0.016300676  0.015421043            5 
 1510000    0.6540589   -7.9511931    295.19013  0.016290846  0.015408839            9 
 1511000   0.66872455   -7.9497598    294.80394  0.016258766   0.01539666            4 
 1512000   0.65062019   -7.9585481    295.53871  0.016288509  0.015384499            3 
 1513000   0.64930119   -7.9453825    295.47064  0.016273994  0.015372344            5 
 1514000   0.67751676   -7.9589736    294.71202   0.01622149  0.015360195            4 
 1515000   0.66139438   -7.9628303    295.19817  0.016237523  0.015348034            4 
 1516000   0.63833912   -7.9418116     295.2504  0.016229683  0.015335915            6 
 1517000   0.64716678   -7.9603781    295.36944  0.016225524  0.015323803            3 
 1518000    0.6424348   -7.9552023     295.2194  0.016206599  0.015311683            9 
 1519000   0.63889004   -7.9518765    294.80964   0.01617345  0.015299609            3 
 1520000   0.62812368    -7.951381    295.23779  0.016186283  0.015287547            3 
 1521000   0.63828698    -7.981647    294.87625  0.016155832  0.015275483            5 
 1522000   0.66159142   -7.9725225    295.16027  0.016160768  0.015263391            5 
 1523000   0.63131958   -7.9932771    295.03481  0.016143293  0.015251317            2 
 1524000   0.64667088   -7.9961898    294.91367  0.016126075  0.015239234            6 
 1525000   0.63754067   -7.9613736    295.33675   0.01613862  0.015227212            4 
 1526000   0.64691623   -7.9697645    295.70727  0.016148278  0.015215186            3 
 1527000   0.64338142   -7.9662245    295.65079  0.016134621   0.01520314            3 
 1528000   0.63554143   -7.9684994    294.86687  0.016081309  0.015191098            7 
 1529000   0.63681908   -7.9732947    295.06599  0.016081643  0.015179065            3 
 1530000   0.65286579   -7.9653528    295.71057   0.01610624  0.015167051            5 
 1531000   0.64273981   -7.9652008    295.34271  0.016075697   0.01515506            2 
 1532000   0.63141989   -7.9768241    295.13552  0.016053934  0.015143056            2 
 1533000   0.64047292    -7.986068    295.21454  0.016047757  0.015131066            7 
 1534000   0.64971251    -7.961693    294.63181  0.016005639  0.015119092            4 
 1535000     0.624832   -7.9682629    295.39495  0.016036642  0.015107081            4 
 1536000   0.63916298   -7.9970241    295.09169  0.016009749  0.015095084            4 
 1537000   0.64402429   -7.9504365    295.56831  0.016025174  0.015083126            5 
 1538000   0.63559159   -7.9641326     294.8477   0.01597571  0.015071176            7 
 1539000   0.63793612   -7.9740854    295.14469  0.015981411  0.015059237            5 
 1540000   0.63438153   -7.9843084    295.08293  0.015967691  0.015047291            4 
 1541000   0.63515243   -7.9666443    295.33862  0.015971156  0.015035336            2 
 1542000   0.65177788   -7.9918017    295.04345  0.015944847   0.01502338            4 
 1543000   0.63222177   -7.9929556     295.2768  0.015947116  0.015011396            5 
 1544000   0.63945765   -8.0029081    294.59204   0.01589983  0.014999435            8 
 1545000   0.64093533    -7.991608    295.56981  0.015942277  0.014987533            7 
 1546000    0.6531282   -8.0288957    294.11517  0.015853556   0.01497559            4 
 1547000   0.62624441   -7.9724897    295.11698  0.015897273  0.014963685            3 
 1548000   0.62601475   -7.9822491    294.81256  0.015870616  0.014951782            4 
 1549000   0.63747588   -7.9892714    295.19614  0.015881006  0.014939905            5 
 1550000    0.6364712   -7.9816625    295.06436  0.015863675  0.014928065            5 
 1551000   0.63660725   -7.9888571    295.35857  0.015869255  0.014916257            4 
 1552000   0.61957333   -7.9785833    295.13321  0.015846929  0.014904423            3 
 1553000   0.63446649   -7.9841022    294.75596  0.015816482  0.014892581            7 
 1554000   0.62322214   -7.9808996    294.94002  0.015816174  0.014880758           12 
 1555000   0.63755314   -7.9898518    294.75871  0.015796287   0.01486893            9 
 1556000   0.64469281   -8.0099633    295.13582  0.015806332  0.014857097            6 
 1557000   0.63158467   -7.9834975    295.01894  0.015789924   0.01484528            5 
 1558000   0.63204749   -8.0092572    295.27031  0.015793235  0.014833459           12 
 1559000   0.63552152   -8.0061511    294.46231  0.015739914  0.014821641            3 
 1560000   0.62309296   -7.9943987    294.37933  0.015725391  0.014809862            6 
 1561000   0.63102909   -7.9892961     295.4348  0.015771663  0.014798078            6 
 1562000   0.62490898   -7.9980153    295.20952  0.015749548  0.014786322            4 
 1563000   0.62871777   -7.9743616    295.40071  0.015749665  0.014774575            8 
 1564000   0.62640665   -7.9673163    295.25532  0.015731848  0.014762824            6 
 1565000   0.62915681   -8.0075097    294.87905   0.01570176  0.014751066            7 
 1566000   0.62454749   -7.9787104    294.85974  0.015690706  0.014739344            4 
 1567000   0.62512801   -7.9922994    295.69076  0.015724886  0.014727598            4 
 1568000   0.61857743   -7.9926564    294.63997  0.015659012  0.014715852           12 
 1569000   0.61996683    -8.002975    294.43024  0.015637893  0.014704113            6 
 1570000   0.62818113   -7.9770078    294.91337  0.015653576  0.014692377            7 
 1571000   0.63262682   -8.0039531    294.68595  0.015631548  0.014680631            8 
 1572000   0.62274553   -8.0037399    294.55812  0.015614828  0.014668892            5 
 1573000    0.6252513   -8.0171924    294.89537  0.015622768  0.014657189            4 
 1574000   0.61123772   -8.0115677    294.79017  0.015607273  0.014645505           13 
 1575000   0.62494324   -7.9902423      294.941  0.015605344  0.014633802            7 
 1576000   0.61918826   -8.0209319    294.66575  0.015580888  0.014622117           11 
 1577000   0.61842635   -8.0257187    294.71209  0.015573457   0.01461041            9 
 1578000   0.61776018   -8.0250997    294.45489  0.015550005  0.014598731            4 
 1579000   0.62429092   -7.9994529    294.56986  0.015546224  0.014587036            8 
 1580000   0.62415717   -8.0135306     294.9143  0.015554552  0.014575371            6 
 1581000   0.61099375   -7.9921635    294.52452  0.015524168  0.014563713            7 
 1582000   0.61265927   -8.0055464    294.66484  0.015521747  0.014552047            4 
 1583000   0.62793805   -8.0189451    295.25985  0.015543264  0.014540376           11 
 1584000   0.62372456   -7.9811995    294.71709  0.015504897  0.014528717            7 
 1585000   0.62645529    -8.023827    294.48272  0.015482793  0.014517064            4 
 1586000   0.61974906   -8.0138506    294.79017  0.015489185  0.014505448            6 
 1587000   0.62072161   -8.0008667    294.84619  0.015482367  0.014493853           14 
 1588000    0.6287466   -8.0184123     294.6987  0.015464877  0.014482237            5 
 1589000   0.61241546   -8.0043338    294.48577  0.015443978  0.014470634            8 
 1590000   0.62464737    -8.005068    294.16207  0.015417299  0.014459067            9 
 1591000   0.61499259   -8.0200352    294.61882  0.015431532  0.014447524            6 
 1592000    0.6179664   -8.0327734    294.92429  0.015437829  0.014436013            7 
 1593000   0.62352615   -7.9976351    294.85733  0.015424635  0.014424487            5 
 1594000   0.60676132   -8.0031512     294.7008  0.015406775  0.014412964            2 
 1595000   0.63778275   -8.0229252    295.01577  0.015413572   0.01440148            5 
 1596000   0.62075715   -8.0428303    294.65937  0.015385306  0.014390003            5 
 1597000   0.60922616   -8.0361552    295.09395  0.015398348  0.014378496            7 
 1598000    0.6127506   -8.0328552    294.96538  0.015382008  0.014366999            4 
 1599000   0.60971012   -8.0218885    295.19784  0.015384503  0.014355527            3 
 1600000   0.62843241   -8.0218574    295.41236   0.01538606  0.014344045            2 
 1601000   0.61092899   -8.0484094    294.32251  0.015319722  0.014332567            4 
 1602000   0.63284908   -8.0181638    295.22822  0.015357273  0.014321106            2 
 1603000    0.6191294   -8.0195247    294.86733  0.015328932  0.014309648            4 
 1604000   0.62327018   -8.0189767     294.4046  0.015295335  0.014298189            5 
 1605000   0.60270326   -8.0190621    294.66267  0.015299204  0.014286741            4 
 1606000   0.60415291    -8.027185    295.54391  0.015335404  0.014275297            3 
 1607000   0.63124542   -8.0451257    294.52951  0.015273258  0.014263886            4 
 1608000   0.61723169   -8.0144325    294.77179  0.015276316  0.014252457            3 
 1609000   0.61957235   -8.0305487     293.8039  0.015216693  0.014241038            3 
 1610000   0.60976009   -8.0248017    294.73454  0.015255411  0.014229606            9 
 1611000   0.60809239   -8.0242526     294.8349  0.015251133  0.014218215            2 
 1612000   0.59838559   -8.0333957     294.3812  0.015218218  0.014206823            3 
 1613000   0.60666791   -8.0396652    294.59919  0.015220045  0.014195437            3 
 1614000   0.59956327   -8.0352242    294.93536  0.015227972   0.01418406            9 
 1615000   0.61771287   -8.0449941    294.64642  0.015203634  0.014172692            9 
 1616000   0.60305367    -8.031952    294.31465  0.015177117  0.014161304           17 
 1617000   0.60363418   -8.0375668    294.53351   0.01517901  0.014149942           15 
 1618000   0.61020788     -8.03683    294.53388  0.015169648  0.014138584            9 
 1619000   0.60879351   -8.0361563    294.56612  0.015161937  0.014127226           13 
 1620000   0.59661956   -8.0428613    294.45942  0.015147089  0.014115881           14 
 1621000   0.60803038   -8.0249551    294.61546  0.015145767  0.014104541            2 
 1622000   0.60178814   -8.0258657    294.31668  0.015121079  0.014093201            2 
 1623000   0.61500777   -8.0297149    294.09997  0.015100635  0.014081879           15 
 1624000   0.60398315   -8.0597184    294.62338  0.015118195  0.014070584           10 
 1625000   0.60006783   -8.0416328    294.80941  0.015118431  0.014059285           14 
 1626000   0.60333054   -8.0585087    294.54846   0.01509576  0.014047985            3 
 1627000   0.60656933   -8.0563638    294.09901  0.015063461  0.014036702            8 
 1628000   0.60477979   -8.0562853    294.24561  0.015061712  0.014025415            3 
 1629000   0.60123507   -8.0459297    294.32417  0.015056485  0.014014144            9 
 1630000   0.60474613   -8.0664151    294.59052  0.015060865  0.014002914            7 
 1631000   0.59995307   -8.0685282    294.03808  0.015023405  0.013991677            6 
 1632000   0.60030397   -8.0458669    294.73756  0.015049916   0.01398045            3 
 1633000   0.60481276   -8.0471528    294.69081  0.015038314  0.013969239            2 
 1634000   0.59536997   -8.0543072    294.36513  0.015012501  0.013958021            3 
 1635000   0.59007697   -8.0538804    294.60952  0.015015776  0.013946816            3 
 1636000   0.61399133   -8.0646326    294.40912  0.014996389  0.013935614            2 
 1637000   0.59595445   -8.0374653    294.88307  0.015011356  0.013924426            4 
 1638000   0.59456898   -8.0502436    294.10883  0.014962802  0.013913219            5 
 1639000   0.59344078   -8.0503784     294.5235  0.014974756  0.013902023            4 
 1640000   0.59216091   -8.0616113    294.28703  0.014953609  0.013890834            4 
 1641000   0.59056358   -8.0588118    294.32964   0.01494666  0.013879663            4 
 1642000   0.60266302   -8.0764865    294.90346   0.01496668   0.01386851            8 
 1643000   0.61935152   -8.0230887    293.91895  0.014907636  0.013857383            4 
 1644000   0.60647065   -8.0591451     294.4351  0.014924731  0.013846281            4 
 1645000   0.58918769   -8.0495591    295.04985  0.014946801  0.013835172            2 
 1646000   0.60315487   -8.0648563     293.9136  0.014880194  0.013824085            2 
 1647000   0.58607506   -8.0479064    294.46036  0.014898824  0.013813007            5 
 1648000   0.58194705   -8.0576714    294.27772  0.014880548  0.013801941            6 
 1649000   0.59860436   -8.0742901    293.81478  0.014848129  0.013790871            6 
 1650000   0.58628675   -8.0764487    294.19917  0.014858544  0.013779806            3 
 1651000   0.58844888   -8.0724309    294.61449  0.014870507  0.013768735            5 
 1652000   0.58684407    -8.076647     294.2688  0.014844068  0.013757668            3 
 1653000   0.60267474   -8.0513725    294.49657   0.01484657  0.013746621            4 
 1654000   0.59051466    -8.042404    294.63471  0.014844554  0.013735586            3 
 1655000   0.57468378   -8.0589263    294.69692  0.014838717  0.013724551            7 
 1656000   0.59877249   -8.0867518    293.86535   0.01478791  0.013713516            5 
 1657000    0.5891131   -8.0710517    294.33798  0.014802755  0.013702499            4 
 1658000   0.58297918   -8.0729599    294.58547  0.014806266  0.013691493            3 
 1659000   0.60365309    -8.061853    294.37095  0.014786566  0.013680499            5 
 1660000   0.58905898   -8.0580237    294.27776   0.01477298  0.013669511            3 
 1661000   0.60486201   -8.0556338    293.77569  0.014738897   0.01365853            3 
 1662000   0.59279657   -8.0742335    294.39253  0.014760957  0.013647553            4 
 1663000   0.59636866   -8.0761462    294.58018  0.014761484  0.013636583            7 
 1664000   0.60315434   -8.0705142     294.1803  0.014732587  0.013625611            3 
 1665000   0.59109971   -8.0762083    293.69845  0.014699622  0.013614639            6 
 1666000   0.57470289   -8.0469395    294.18011  0.014714892  0.013603697            3 
 1667000   0.58427568   -8.0898496    293.91714  0.014692919  0.013592734            5 
 1668000   0.58760001   -8.1046462    294.10166  0.014693328  0.013581796            3 
 1669000   0.58480254     -8.08117     293.9212  0.014675514  0.013570855            2 
 1670000   0.58522557   -8.0782591    294.16496   0.01467889  0.013559948            5 
 1671000   0.56674633   -8.0898043    293.69759  0.014646798  0.013549026            5 
 1672000   0.58426146    -8.105408    294.57131  0.014681585  0.013538099            5 
 1673000   0.57853198   -8.0882221    293.61681  0.014625265  0.013527191            5 
 1674000    0.5848409   -8.0986516    294.24078   0.01464759  0.013516293            4 
 1675000   0.58406458   -8.0889335    294.11733  0.014632703  0.013505397            4 
 1676000   0.57997672   -8.0928859    294.41102  0.014638575  0.013494513            3 
 1677000   0.59403385   -8.0882336    293.92195  0.014605543  0.013483667            4 
 1678000   0.57309174   -8.0832166    294.12867  0.014607105  0.013472787            3 
 1679000    0.5988206   -8.0938534    294.05592  0.014594794  0.013461939            8 
 1680000   0.58368716   -8.0631225     293.9791  0.014582297  0.013451087            4 
 1681000   0.59315677   -8.1108068     294.0224  0.014575769  0.013440244            4 
 1682000   0.59674531   -8.0828788    293.54598  0.014543499  0.013429401            4 
 1683000   0.57410162   -8.1069221     294.3223  0.014573297  0.013418574            4 
 1684000    0.5762827   -8.1021933     294.0551   0.01455142  0.013407757            4 
 1685000   0.58780735    -8.085601    293.67693  0.014524082  0.013396955            4 
 1686000   0.56528729   -8.1059683    293.91212  0.014527092  0.013386142            3 
 1687000   0.58155679   -8.0955713    293.74347   0.01451015  0.013375324            7 
 1688000   0.57723311   -8.1022186    293.98025  0.014513243  0.013364527            3 
 1689000   0.57467754   -8.1091794    293.89698  0.014500542  0.013353726            7 
 1690000   0.58147612   -8.0962837    293.61421  0.014478018  0.013342937            2 
 1691000    0.5711602   -8.1037669     293.5584  0.014466706  0.013332156            4 
 1692000    0.5792275   -8.1049965    293.79693  0.014469904  0.013321384            3 
 1693000   0.58512939   -8.0972909    293.98478  0.014470604  0.013310645            8 
 1694000   0.57188172   -8.1059432    293.63046  0.014444631  0.013299914            4 
 1695000   0.58265899   -8.0973238    294.08574  0.014458493  0.013289176            5 
 1696000   0.56957003   -8.1063397    293.56352  0.014424308  0.013278457            3 
 1697000   0.57959174   -8.0978279    293.93541   0.01443407  0.013267735            3 
 1698000   0.58392656   -8.1020091    293.86713  0.014422219  0.013257026            6 
 1699000   0.58790304   -8.1047306    293.71392  0.014406216   0.01324634            6 
 1700000   0.58886014   -8.1033667    293.80712   0.01440231  0.013235694            4 
 1701000   0.56995967   -8.0991758    293.44201  0.014375956  0.013225044            4 
 1702000   0.58282558   -8.1005583    293.79732  0.014384906  0.013214391            4 
 1703000   0.57015035   -8.0906567    293.85836  0.014379446  0.013203737            6 
 1704000   0.57456727   -8.0873086    293.98568  0.014377234  0.013193107            5 
 1705000   0.57951083   -8.1083059    294.57721  0.014397713  0.013182505            5 
 1706000   0.58606212   -8.0916171    293.79266  0.014350951  0.013171922            5 
 1707000   0.57325052   -8.0943951    293.93355  0.014349422   0.01316133            6 
 1708000   0.58580936   -8.1001428    293.86676  0.014337761  0.013150741            4 
 1709000   0.57703413   -8.1143335    293.88353   0.01433019  0.013140168            7 
 1710000   0.56925996   -8.1139615    293.92596  0.014323877  0.013129604            8 
 1711000   0.56981903   -8.1014013    293.66391  0.014302742  0.013119026           18 
 1712000    0.5731449   -8.0891468    294.39966  0.014330201  0.013108469            4 
 1713000   0.56437319   -8.1152297    293.92907  0.014298943  0.013097915            9 
 1714000   0.57773767    -8.099278    293.92934  0.014290613  0.013087357            4 
 1715000   0.57174974   -8.1046362    294.29857  0.014300222  0.013076824            5 
 1716000   0.56597025   -8.1129803    293.89223  0.014272156  0.013066285            3 
 1717000   0.57104659   -8.0952374    293.67851  0.014253471  0.013055773            4 
 1718000   0.57327986   -8.1076789    293.48643  0.014235857  0.013045258            8 
 1719000   0.57419817   -8.1118803    293.72577  0.014239178   0.01303476            9 
 1720000   0.56468012   -8.1241554    293.91989  0.014240305  0.013024264            6 
 1721000   0.56867279    -8.103862    293.69488  0.014221135  0.013013772            7 
 1722000   0.56681949   -8.1186141    293.87812  0.014221744  0.013003291            6 
 1723000   0.58012669   -8.1270809    294.07238  0.014222885  0.012992827           11 
 1724000   0.56285182   -8.1356489    293.44099  0.014184116  0.012982359            3 
 1725000   0.57724758   -8.1014619    293.90302  0.014198213  0.012971906            7 
 1726000   0.55124811   -8.1320666    293.97863  0.014193638  0.012961467            4 
 1727000   0.56633929   -8.0932116    293.86062  0.014179725  0.012951043            4 
 1728000   0.55936751   -8.1426566     293.4876   0.01415353  0.012940635            3 
 1729000   0.54787567   -8.1293119    293.82799   0.01416175  0.012930234            6 
 1730000   0.58305614    -8.111171    293.61319  0.014143217  0.012919858           11 
 1731000   0.56448325   -8.0999932    294.13034  0.014159943  0.012909476            4 
 1732000   0.56005797   -8.1237743    294.19269  0.014154768  0.012899116            5 
 1733000   0.56106279   -8.1305771    293.65091  0.014120548  0.012888761            4 
 1734000    0.5599806   -8.1167981    294.39061  0.014147953  0.012878404            5 
 1735000   0.55355419   -8.1079677    293.67552  0.014105453  0.012868041            6 
 1736000   0.55364469   -8.1301521    293.97564  0.014111734  0.012857686            6 
 1737000   0.56114336   -8.1141528    294.18844  0.014113819   0.01284736            5 
 1738000      0.57179   -8.1304139    293.87564    0.0140907  0.012837037            6 
 1739000   0.55184791   -8.1276369      293.928  0.014085106  0.012826718            5 
 1740000   0.55499069   -8.1226393      293.315  0.014047653  0.012816409            7 
 1741000   0.56044837   -8.1379882    293.82932  0.014064202  0.012806096            4 
 1742000   0.55946325    -8.113328    293.91276  0.014060121  0.012795794            9 
 1743000   0.56105562   -8.1123428    294.33832    0.0140724  0.012785518            7 
 1744000   0.55521856   -8.1261177    293.76695  0.014037029  0.012775242            5 
 1745000   0.56316373    -8.139511    293.48235  0.014015394  0.012764979            4 
 1746000   0.56006032    -8.147902    293.70199   0.01401785  0.012754718            4 
 1747000   0.56151807   -8.1316943    294.24037  0.014035507  0.012744456            4 
 1748000   0.55739754   -8.1351899    293.47267  0.013990879  0.012734211            5 
 1749000   0.56257725   -8.1448248    293.38206  0.013978562  0.012723975            4 
 1750000   0.55013337   -8.1154691    293.53925   0.01397806  0.012713744            6 
 1751000   0.54970319    -8.156682     293.9394  0.013989121  0.012703534            5 
 1752000   0.56034429   -8.1367735    293.49182  0.013959847  0.012693336            4 
 1753000   0.55815811   -8.1342215    293.40075  0.013947554  0.012683145            5 
 1754000   0.54293855   -8.1360904    293.29233  0.013934451  0.012672951            4 
 1755000   0.55040035   -8.1492074    293.70592   0.01394615  0.012662762            4 
 1756000   0.55066478   -8.1605541     293.5032  0.013928588  0.012652589            5 
 1757000    0.5602054   -8.1291331    293.41837  0.013916637   0.01264241            6 
 1758000   0.54661739   -8.1498686    293.46431  0.013910898  0.012632248            7 
 1759000   0.54820568   -8.1747646    293.77075  0.013917507  0.012622088            5 
 1760000    0.5498719    -8.136502    293.82511  0.013912174  0.012611932            4 
 1761000   0.54535694   -8.1467989    293.00845  0.013865628  0.012601782            3 
 1762000   0.55247389   -8.1551865    293.37777  0.013875226  0.012591642            3 
 1763000   0.53972582   -8.1602525    293.05045  0.013851884  0.012581515            5 
 1764000   0.55630078   -8.1502284    292.91366  0.013837569  0.012571398            4 
 1765000   0.55365153   -8.1519677    293.46967  0.013855981  0.012561291            3 
 1766000   0.56497051   -8.1333738    293.39888  0.013844794  0.012551186            4 
 1767000   0.54581762   -8.1614152      293.116  0.013823618  0.012541089            9 
 1768000    0.5428982   -8.1367043    293.62829  0.013839946  0.012531007            5 
 1769000   0.55652937   -8.1731208    293.18666  0.013811318  0.012520912            6 
 1770000   0.53596168   -8.1484741    293.35051  0.013811229  0.012510815            4 
 1771000    0.5392754   -8.1682145    293.03911  0.013788778  0.012500745            5 
 1772000   0.54340154   -8.1622042    292.88161   0.01377359  0.012490673            6 
 1773000   0.55060646   -8.1452618    293.37737  0.013789123  0.012480617           10 
 1774000   0.54653228   -8.1666754    293.56717  0.013790265  0.012470566            5 
 1775000   0.54776916   -8.1748369    293.05549  0.013758474  0.012460509            6 
 1776000   0.54945959   -8.1655037    293.23414   0.01375911  0.012450471            5 
 1777000   0.54267395   -8.1736424    293.77096  0.013776541  0.012440432            5 
 1778000   0.54737973   -8.1661822    293.15823  0.013740075  0.012430405            2 
 1779000   0.54081906   -8.1583587    293.12804  0.013730937  0.012420399            5 
 1780000   0.53348059   -8.1778624    293.06193  0.013720128  0.012410398            4 
 1781000   0.55099774   -8.1751165    293.44872  0.013730522  0.012400414            5 
 1782000   0.53569476   -8.1706678    292.78779  0.013691909  0.012390437            4 
 1783000   0.53950266   -8.1601047    293.69006    0.0137264  0.012380463            4 
 1784000   0.52653883   -8.1582128    293.01061  0.013686968   0.01237049            5 
 1785000   0.54444099   -8.1617735    293.26144   0.01369101  0.012360556            7 
 1786000   0.54180649   -8.1790861    292.48193  0.013646973  0.012350628            5 
 1787000   0.54284384   -8.1672542    292.69926  0.013649471  0.012340683           10 
 1788000   0.55024335   -8.1660347    292.80738  0.013646876  0.012330765            7 
 1789000    0.5501005   -8.1678984    293.13492  0.013654505  0.012320853            5 
 1790000   0.54826568   -8.1896359    292.54048  0.013619203  0.012310939            4 
 1791000   0.54307129   -8.1635166    293.22852  0.013643613  0.012301034            5 
 1792000    0.5493821   -8.1725198    293.28463  0.013638608  0.012291145            7 
 1793000   0.52859833   -8.1634982    293.06755  0.013620912  0.012281262            3 
 1794000   0.54428492    -8.179583    292.70623  0.013596536  0.012271398            5 
 1795000   0.54119075   -8.1753215    292.81747  0.013594126  0.012261535            9 
 1796000   0.53820614   -8.1709804    292.56198  0.013574702  0.012251688            4 
 1797000   0.53906108   -8.1729863     293.2207  0.013597695   0.01224185            5 
 1798000   0.54160621   -8.1833523    293.10207  0.013584634  0.012232013            4 
 1799000   0.52508225   -8.1685048    293.15909  0.013579724  0.012222189            6 
 1800000   0.54483117   -8.1772214    293.44709  0.013585513  0.012212364            3 
 1801000   0.53601433   -8.1870345    293.14249  0.013563876   0.01220255            2 
 1802000   0.53106299   -8.1846832    292.73228  0.013537379  0.012192748            3 
 1803000   0.53640344   -8.1593759    293.31413  0.013556763  0.012182938            7 
 1804000   0.54312927   -8.1918191     292.5313  0.013513087   0.01217316            5 
 1805000   0.54598635   -8.1869332    292.91881  0.013523491  0.012163376            5 
 1806000    0.5246161    -8.184962    293.23975  0.013530812  0.012153605            2 
 1807000   0.53185963   -8.1901505    292.95832  0.013510345   0.01214384            9 
 1808000   0.53867194   -8.1716505    292.81289  0.013496169  0.012134075            3 
 1809000   0.53257119   -8.2081255    293.28422  0.013510421  0.012124329            8 
 1810000   0.54242776   -8.1929229    292.96983  0.013488482  0.012114592            7 
 1811000   0.52451612   -8.1735981     292.4523   0.01345722  0.012104859            3 
 1812000   0.54386753   -8.1880436     293.0681  0.013478114  0.012095145            4 
 1813000   0.52679679    -8.191049    292.83993  0.013460192  0.012085429            7 
 1814000   0.54766051   -8.1892167    292.65982  0.013444497   0.01207573            4 
 1815000   0.54177439   -8.1962009    292.88052  0.013447223  0.012066026            4 
 1816000   0.52337064   -8.1870239    292.81677  0.013436893  0.012056324            3 
 1817000    0.5261102    -8.205661    292.56013  0.013417728  0.012046632            3 
 1818000   0.52969099   -8.1959924    292.81295  0.013421936  0.012036951            4 
 1819000   0.53742852   -8.1916845    292.55383  0.013402686  0.012027272            2 
 1820000   0.53605576    -8.184089    292.55753  0.013395491   0.01201762            5 
 1821000   0.52523561   -8.2005177      292.781  0.013398362  0.012007965            4 
 1822000   0.53294137   -8.1753973    292.72211  0.013388315  0.011998313            3 
 1823000   0.52799439     -8.19402    292.43818  0.013367991  0.011988653            4 
 1824000   0.51383266   -8.1952725    292.40057  0.013358944  0.011979002            4 
 1825000   0.52699605   -8.1956009    293.10114  0.013383614  0.011969368            2 
 1826000   0.52004635   -8.1909441     292.2569  0.013337756  0.011959732            8 
 1827000   0.52696731     -8.20618    292.72946   0.01335201  0.011950125            4 
 1828000   0.53053167   -8.1941796    292.33007  0.013326498  0.011940517            9 
 1829000   0.52055735   -8.2060729    292.37797  0.013321395  0.011930915            5 
 1830000   0.52014078   -8.1906784     292.6442  0.013326239  0.011921339            4 
 1831000   0.52565573   -8.1964363    292.93643  0.013332261  0.011911766            5 
 1832000   0.52315573   -8.1979125    292.41008  0.013301041  0.011902197            6 
 1833000   0.52122678   -8.2134907    292.72696  0.013308191  0.011892626            5 
 1834000   0.52708094   -8.2068301    292.06607  0.013270905  0.011883077            3 
 1835000   0.50408848   -8.2258352    292.41454  0.013279498  0.011873525            3 
 1836000   0.51334766   -8.2012774    292.54404  0.013278143   0.01186398            3 
 1837000   0.52239196   -8.1943559    292.10104  0.013250819  0.011854458            6 
 1838000   0.51520651   -8.2016995    292.10592   0.01324383  0.011844939            7 
 1839000   0.50410511   -8.2196165    292.32888  0.013246732  0.011835426            5 
 1840000   0.51777016   -8.2137297    292.43184  0.013244196  0.011825934            4 
 1841000   0.51815225   -8.2004668    292.41843  0.013236395  0.011816425            4 
 1842000   0.52131224   -8.2037176    292.23791  0.013221042  0.011806939            8 
 1843000   0.51987197   -8.2071778     292.3302  0.013218041  0.011797464            3 
 1844000   0.51654734    -8.217181    292.30124  0.013209564  0.011788002            4 
 1845000   0.50711281   -8.2165558    292.78928  0.013224448  0.011778531            4 
 1846000   0.51685867   -8.2153235     292.3274  0.013196434   0.01176908            4 
 1847000   0.51136909   -8.2070624    292.41789  0.013193372   0.01175963            5 
 1848000   0.51529476   -8.2143021    292.12593  0.013173067  0.011750194            2 
 1849000   0.51788847   -8.2013862    292.47021  0.013181459  0.011740772            5 
 1850000   0.51821157   -8.2248233    291.85866  0.013146786  0.011731345            4 
 1851000   0.51035491   -8.2346459    292.19517  0.013154834  0.011721931            5 
 1852000   0.51219653   -8.2296225    292.78572  0.013174303  0.011712528            3 
 1853000   0.50954647   -8.2263893    292.83953  0.013169614  0.011703124            6 
 1854000   0.50227913   -8.2053254    292.30605  0.013138532   0.01169373            5 
 1855000   0.52103205   -8.2216672    292.40121  0.013135724  0.011684345            5 
 1856000   0.49951497   -8.2310012    292.11897  0.013115974  0.011674973            5 
 1857000    0.5032982   -8.2247177    292.03357  0.013105078  0.011665606            4 
 1858000   0.51346696     -8.23025     292.5547  0.013121399  0.011656241            4 
 1859000   0.50742346   -8.2209502    292.23096  0.013099828  0.011646896            4 
 1860000   0.51517304   -8.2412941    292.49351  0.013104548   0.01163755            4 
 1861000   0.50965857   -8.2201791    292.32227  0.013089839  0.011628222            6 
 1862000   0.50095907   -8.2278254    292.19534  0.013077128    0.0116189            4 
 1863000     0.509973   -8.2299553    292.13105  0.013067233  0.011609589            2 
 1864000    0.5054353   -8.2189058    291.63549  0.013038067  0.011600286            6 
 1865000   0.50393945   -8.2284557    292.25367  0.013058699  0.011590997            4 
 1866000   0.49335528   -8.2451609    291.87911  0.013034973  0.011581703            4 
 1867000   0.52125895   -8.2308489    292.40345  0.013051395  0.011572427            4 
 1868000   0.50263262   -8.2341411    292.15549  0.013033346  0.011563147            7 
 1869000   0.50945376    -8.237344    291.78782  0.013009979  0.011553876            5 
 1870000    0.5058449   -8.2152462    292.20749  0.013021724  0.011544613            3 
 1871000   0.50510778   -8.2336259    291.68591  0.012991533  0.011535353           11 
 1872000   0.49923526   -8.2390951    292.35178  0.013014235  0.011526106            6 
 1873000   0.49929772   -8.2436996    291.90484  0.012987401  0.011516866            4 
 1874000   0.50237717   -8.2458844    291.67992  0.012970469  0.011507628            3 
 1875000   0.50674525   -8.2456371    292.18919  0.012986186  0.011498397            4 
 1876000   0.49779459   -8.2249346    291.74657  0.012959603  0.011489179            9 
 1877000   0.49054738   -8.2363752    292.22643  0.012974003  0.011479973            4 
 1878000   0.49481649     -8.23302    291.89814  0.012952527  0.011470771            4 
 1879000   0.50584347   -8.2420679    292.07674  0.012953554  0.011461576            5 
 1880000   0.50444632   -8.2401016    291.99419  0.012943005  0.011452403            6 
 1881000   0.49956619   -8.2477015    291.72246  0.012924085  0.011443233            3 
 1882000   0.49640093   -8.2555555    291.83908  0.012922382  0.011434066            2 
 1883000   0.49103411   -8.2618148    292.10067  0.012927096  0.011424907            3 
 1884000   0.50085187   -8.2275105    291.96357  0.012914171  0.011415759            3 
 1885000   0.50756197   -8.2665588    291.84065  0.012901885  0.011406618            4 
 1886000   0.48967725   -8.2448623    292.08257  0.012905734  0.011397498           10 
 1887000   0.50796049   -8.2454797    291.82132  0.012887357  0.011388376            9 
 1888000   0.51684383   -8.2509252    291.95505  0.012886434  0.011379264            6 
 1889000   0.50267431   -8.2512272    292.08873  0.012885509  0.011370148            5 
 1890000   0.49969619   -8.2602199    291.58217  0.012856357   0.01136104            9 
 1891000   0.49384731   -8.2493726    291.76517  0.012857622   0.01135195            6 
 1892000   0.50128935   -8.2454571    291.23252  0.012827366  0.011342876            8 
 1893000   0.49978679   -8.2475707     292.0793  0.012857866  0.011333801            6 
 1894000   0.48992393   -8.2426221    292.28695  0.012860214  0.011324749            6 
 1895000   0.49412367   -8.2522108    291.66732   0.01282618  0.011315694            6 
 1896000    0.4892629   -8.2498368    292.18799  0.012842299  0.011306635            3 
 1897000   0.49725222   -8.2571088    291.51407  0.012805925  0.011297593            4 
 1898000   0.49421472   -8.2418719    291.25445  0.012787779  0.011288564            2 
 1899000   0.50010339   -8.2564694     292.0666  0.012816684  0.011279539            5 
 1900000   0.49558564   -8.2612326    291.77603  0.012797194  0.011270525            3 
 1901000   0.49552028   -8.2582461    292.06635  0.012803189  0.011261514            5 
 1902000   0.49122898   -8.2532718    291.82639  0.012785944  0.011252518            3 
 1903000   0.48976256    -8.273397    291.90086  0.012782487  0.011243535            4 
 1904000   0.49289698   -8.2560308    291.36859  0.012752477  0.011234561            5 
 1905000   0.49534102   -8.2606413    292.08211  0.012776995   0.01122559            3 
 1906000   0.49139574   -8.2652017    291.87981  0.012761447  0.011216626            4 
 1907000   0.49259503   -8.2436014     291.6909    0.0127465  0.011207686            5 
 1908000   0.49087712   -8.2619529    291.97266  0.012752125  0.011198757            3 
 1909000   0.48888341   -8.2555969    291.34507  0.012718049  0.011189825            3 
 1910000    0.5037254   -8.2605703    291.78196  0.012730452  0.011180906            4 
 1911000   0.48903449   -8.2367079    291.73933  0.012721931  0.011171998            9 
 1912000   0.49944564   -8.2506871    292.15064  0.012733204  0.011163087            4 
 1913000   0.49093981   -8.2510461    292.02039  0.012720874  0.011154192            9 
 1914000   0.49122863   -8.2694694    291.49713  0.012691446  0.011145308           10 
 1915000   0.47359479   -8.2646677    291.86032  0.012700623  0.011136431            5 
 1916000   0.50458513   -8.2841309    291.82078  0.012692274  0.011127569            3 
 1917000   0.48620508    -8.261351    291.69791  0.012680313  0.011118708            4 
 1918000   0.49477763   -8.2468669    291.26378  0.012654839  0.011109865            3 
 1919000   0.49248101   -8.2587511     291.9078  0.012676211  0.011101023            3 
 1920000   0.48198497   -8.2574971    291.89578  0.012669088  0.011092194            2 
 1921000   0.48747039    -8.246873    291.32953  0.012637929  0.011083372            3 
 1922000   0.47944572   -8.2580861    291.64196  0.012644899  0.011074558            3 
 1923000   0.48351373   -8.2673638    291.83903  0.012646864  0.011065753            4 
 1924000   0.47772308   -8.2652864    291.83968  0.012640319  0.011056954            7 
 1925000   0.48743567   -8.2746071     291.4291  0.012615978  0.011048166            5 
 1926000   0.49603824   -8.2625695    291.68799   0.01262063  0.011039385           10 
 1927000   0.48432162     -8.27747    291.50002  0.012605951  0.011030618            8 
 1928000   0.47203851   -8.2682328    291.74926  0.012610186   0.01102186            4 
 1929000   0.47981958   -8.2681747     291.7489  0.012603633   0.01101311            4 
 1930000   0.47467715   -8.2554687    291.36283  0.012580433  0.011004362            5 
 1931000   0.47324066   -8.2758833    291.23348  0.012568336  0.010995624            6 
 1932000   0.47688342   -8.2626793     291.4605  0.012571623  0.010986903            5 
 1933000   0.46801654   -8.2721161    291.89366  0.012583793  0.010978178            6 
 1934000   0.48409282   -8.2798264    291.30753  0.012552031  0.010969468            6 
 1935000   0.48042334   -8.2536755    291.56017  0.012556424  0.010960768            6 
 1936000   0.48083303   -8.2765093    292.00613  0.012569134  0.010952072            6 
 1937000   0.47571129   -8.2799544    291.14867  0.012525756  0.010943392            4 
 1938000    0.4789948   -8.2608416     291.4002  0.012530108  0.010934723            7 
 1939000   0.47774943   -8.2842429    291.57977  0.012531364  0.010926056            6 
 1940000   0.46929741   -8.2644111    291.69322  0.012529778  0.010917401            3 
 1941000   0.46577216   -8.2887074    291.55984  0.012517596  0.010908755            5 
 1942000   0.47042676   -8.2647925    291.47456   0.01250749  0.010900111            6 
 1943000   0.47320578   -8.2782819    291.59989  0.012506429  0.010891488            3 
 1944000   0.46593717     -8.28103    292.06354   0.01251987  0.010882863            5 
 1945000    0.4791681   -8.2854724    291.64026  0.012495298  0.010874241            3 
 1946000   0.47517871   -8.2662717    291.65675  0.012489583   0.01086563           10 
 1947000   0.47778528   -8.2866006    291.78415  0.012488621  0.010857029            4 
 1948000   0.46999226   -8.2789209    291.69265  0.012478296  0.010848436            6 
 1949000   0.47733929   -8.2771728     291.0946  0.012446323  0.010839844            4 
 1950000   0.48563181   -8.2769318    291.58575   0.01246093  0.010831273            6 
 1951000   0.47846568   -8.2799477    291.32771  0.012443521  0.010822715            4 
 1952000   0.47713345   -8.2805133    291.08777  0.012426903  0.010814156            4 
 1953000   0.47756479   -8.2734248    291.67787  0.012445719  0.010805611            5 
 1954000   0.47182225   -8.2689466    291.66566  0.012438829   0.01079707            7 
 1955000   0.47267803   -8.2801774    291.36163  0.012419507  0.010788532            5 
 1956000   0.47150488   -8.2784739    291.55157   0.01242125  0.010780005            7 
 1957000   0.46960774   -8.2733234    291.56342  0.012415407  0.010771479            3 
 1958000   0.47193947   -8.2820323    290.71854  0.012373108  0.010762962            5 
 1959000   0.46489014   -8.2926707    291.45297  0.012398034  0.010754453            6 
 1960000   0.47565466   -8.2810631    291.39668  0.012389315  0.010745958            6 
 1961000   0.46738441   -8.2745798    291.47372   0.01238627  0.010737468            8 
 1962000   0.45946092   -8.2869078    291.19048  0.012367927   0.01072899            5 
 1963000   0.46658087   -8.2619695    291.71282  0.012383801  0.010720523            4 
 1964000   0.47390783   -8.2940334    291.51113  0.012368938  0.010712064            6 
 1965000   0.46681318   -8.2812844    291.38122  0.012357134  0.010703605           10 
 1966000   0.46862038   -8.2888109    291.36977  0.012350363  0.010695147            6 
 1967000   0.47396381   -8.2807599    291.75425  0.012360373  0.010686709            4 
 1968000   0.46442545   -8.2816162    291.33021  0.012336137  0.010678277            5 
 1969000   0.46736424    -8.291943    291.17137  0.012323149  0.010669849            3 
 1970000   0.47002058   -8.3007847    291.34746  0.012324342  0.010661443            6 
 1971000    0.4639268   -8.2796378    291.16422  0.012310342  0.010653038            5 
 1972000   0.46540871   -8.2952567    291.83837  0.012332588  0.010644643            6 
 1973000   0.46638794   -8.2830774    291.42546  0.012308898  0.010636249            6 
 1974000   0.47863898   -8.2958424    291.21253  0.012293673  0.010627867            5 
 1975000   0.46905648     -8.29541    291.45015  0.012297475  0.010619499            5 
 1976000   0.46197513   -8.2847393    290.94157  0.012269803  0.010611129            6 
 1977000   0.46406032   -8.2951712    291.03827  0.012267673  0.010602767            5 
 1978000   0.45707762   -8.3027157     291.3528  0.012274722  0.010594415           10 
 1979000   0.46204442   -8.2988661    291.34421  0.012268158   0.01058607            4 
 1980000   0.45932604   -8.2892099     291.2283  0.012257083  0.010577727            7 
 1981000   0.45610103   -8.3118697     291.3316  0.012255242  0.010569402            4 
 1982000   0.47311146   -8.3020586    291.31721  0.012248453  0.010561077            5 
 1983000   0.45354632   -8.3052502    291.21511  0.012237986  0.010552762            5 
 1984000   0.44716724   -8.3256083    291.49031  0.012243377  0.010544459            7 
 1985000   0.46744245   -8.3103549     291.2391  0.012226663  0.010536155            6 
 1986000   0.46545438    -8.304941    291.22898  0.012220081  0.010527866            4 
 1987000   0.46920921   -8.2996082    290.89823   0.01220006   0.01051959            5 
 1988000   0.45564104   -8.3012059    291.17362  0.012205467  0.010511316            4 
 1989000    0.4508093   -8.2962475    291.00207  0.012192143   0.01050305            4 
 1990000   0.45602876   -8.3116732     290.7995  0.012177533  0.010494787            4 
 1991000   0.45620681   -8.3121057    291.08031  0.012183171  0.010486535            6 
 1992000   0.45336839   -8.3101302    290.93671  0.012171047  0.010478296            8 
 1993000   0.44849385   -8.3059714    291.04549  0.012169489  0.010470065            8 
 1994000   0.46114968     -8.28713    291.34038   0.01217571  0.010461844            7 
 1995000   0.46408189    -8.301921    291.21475  0.012164359  0.010453632            9 
 1996000   0.45423323   -8.3321239    291.07373  0.012152377  0.010445428           13 
 1997000   0.44548309    -8.307688    291.43121  0.012161209  0.010437229            5 
 1998000   0.45691354   -8.3174597    291.31835  0.012150415   0.01042904            7 
 1999000   0.44988426   -8.3003474    291.05015  0.012133156  0.010420862            6 
 2000000   0.45925572   -8.3020096    291.02115  0.012125881  0.010412686            4 
 2001000   0.45220448    -8.312761    291.21557  0.012127918   0.01040452            6 
 2002000   0.44498348   -8.3078147     291.0035  0.012113033  0.010396364            7 
 2003000   0.44396544   -8.3097858     291.2434  0.012116966  0.010388222            5 
 2004000   0.46009741   -8.2928774    290.89982  0.012096633  0.010380083            6 
 2005000   0.46047511   -8.2989005    290.96943  0.012093492  0.010371943            6 
 2006000   0.44642665   -8.3204929    291.08073  0.012092088  0.010363814            6 
 2007000    0.4524057   -8.3061547    290.61603  0.012066767  0.010355695            6 
 2008000   0.45074691   -8.3279775     290.9954  0.012076502  0.010347581            5 
 2009000   0.44604247    -8.302259    291.25392  0.012081215  0.010339473            3 
 2010000   0.46141121   -8.3089567    291.25951  0.012075436  0.010331382            4 
 2011000   0.45830251   -8.3162674    291.53697  0.012080929    0.0103233            7 
 2012000   0.45863205   -8.3048415    291.11952  0.012057634  0.010315212            4 
Loop time of 4688.7 on 48 procs for 2000000 steps with 4000 atoms

Performance: 73709.104 tau/day, 426.557 timesteps/s
99.4% CPU use with 48 MPI tasks x no OpenMP threads

MPI task timing breakdown:
Section |  min time  |  avg time  |  max time  |%varavg| %total
---------------------------------------------------------------
Pair    | 289.85     | 310.33     | 330.84     |  53.7 |  6.62
Neigh   | 29.91      | 31.182     | 32.364     |  11.1 |  0.67
Comm    | 288.54     | 309.43     | 335.46     |  65.5 |  6.60
Output  | 4.0789     | 4.0805     | 4.1163     |   0.3 |  0.09
Modify  | 3973.1     | 3989.2     | 3999.7     |   9.1 | 85.08
Other   |            | 44.45      |            |       |  0.95

Nlocal:        83.3333 ave          92 max          75 min
Histogram: 1 2 6 3 15 10 4 4 1 2
Nghost:        1956.56 ave        1972 max        1935 min
Histogram: 1 3 5 2 10 3 6 7 5 6
Neighs:        12429.4 ave       14703 max       11269 min
Histogram: 5 11 4 9 7 10 0 1 0 1
FullNghs:      24858.9 ave       27660 max       22206 min
Histogram: 1 1 7 6 11 10 6 3 1 2

Total # of neighbors = 1193225
Ave neighs/atom = 298.30625
Neighbor list builds = 107420
Dangerous builds = 0

#clear
#
#next RN
#
#jump SELF
Total wall time: 1:18:11
