
units lj                  # Use reduced LJ style units
atom_style atomic         # Uncharged point particles
atom_modify map hash      # Needed for indexing of clusters etc
                          # Used to be able to find where atoms are in relation to each other.

lattice fcc 1.0 spacing 1 1 1
Lattice spacing in x,y,z = 1.5874011 1.5874011 1.5874011
region box block 0 10 0 10 0 10 units lattice
create_box 2 box
Created orthogonal box = (0.0000000 0.0000000 0.0000000) to (15.874011 15.874011 15.874011)
  3 by 4 by 4 MPI processor grid
create_atoms 1 box
Created 4000 atoms
  using lattice units in orthogonal box = (0.0000000 0.0000000 0.0000000) to (15.874011 15.874011 15.874011)
  create_atoms CPU = 0.026 seconds
set type 1 type/fraction 2 0.94 78393
Setting atom values ...
  3760 settings made for type/fraction
mass 1 1.0
mass 2 1.0
pair_style lj/cut  3.5
pair_modify tail  yes
pair_coeff 1  1  1.0  1.0   # Intearaction between 1 and 1 set with epsilon = 1 and sigma = 1
pair_coeff 1  2  1.5  0.8
pair_coeff 2  2  0.5  0.88

write_data data.0
System init for write_data ...
Neighbor list info ...
  update every 1 steps, delay 10 steps, check yes
  max neighbors/atom: 2000, page size: 100000
  master list distance cutoff = 3.8
  ghost atom cutoff = 3.8
  binsize = 1.9, bins = 9 9 9
  1 neighbor lists, perpetual/occasional/extra = 1 0 0
  (1) pair lj/cut, perpetual
      attributes: half, newton on
      pair build: half/bin/atomonly/newton
      stencil: half/bin/3d
      bin: standard
WARNING: Not all mixed pair coeffs generated from mixing. Use write_data with 'pair ij' option to store all pair coeffs. (../write_data.cpp:312)


#############################
#   M E L T   S Y S T E M   #
#############################

velocity all create 2.4 3143649 mom yes dist gaussian # Assign velocities
                                                    # Temperature 2.4, random number seed, zero linear momentum
                                                                                # Gaussian distribution

timestep 0.002   # simulation timestep
thermo 1000       # output thermodynamic data every 1000 steps bf 100

# Define a fix  in this case with index 1 applied to all
# particles in the simulation. This fix is for simulations
# in the anisotropic NPT ensemble. Note that we use the MTK
# correction.
fix 1 all npt temp 2.4 2.4 0.1 iso 5.68 5.68 0.5 mtk yes tchain 5 pchain 5 # Use NPT ensemble
                                                                         # Set temperature and pressure and damping
                                                                         # Numbers of thermostats in chain and in barostat
run 10000          # run for 10000 steps
Per MPI rank memory allocation (min/avg/max) = 3.642 | 3.644 | 3.648 Mbytes
Step Temp E_pair E_mol TotEng Press Volume 
       0          2.4   -2.9877486            0    0.6113514   -2.2401145         4000 
    1000    2.3969158   -1.8737707            0    1.7207041    5.7053561    4118.2753 
    2000    2.3553154   -1.9262409            0    1.6058489    5.5372707    4101.3898 
    3000    2.4468816   -1.9079094            0    1.7614954    5.9648783    4058.2637 
    4000    2.3898062   -1.9067257            0    1.6770875    5.7270948    4089.3974 
    5000    2.3679048    -1.926276            0    1.6246933    5.2786589    4148.7037 
    6000    2.3737835   -1.9037613            0    1.6560239    5.8087788    4076.2347 
    7000     2.403008    -1.897676            0    1.7059348    5.6577013    4106.0643 
    8000    2.3524553   -1.8978404            0    1.6299604    5.6282011     4120.129 
    9000    2.4581602   -1.9006374            0    1.7856812    5.7084864    4117.9941 
   10000    2.4410259   -1.8845889            0    1.7760345    5.7331781    4111.2222 
Loop time of 2.50006 on 48 procs for 10000 steps with 4000 atoms

Performance: 691182.748 tau/day, 3999.900 timesteps/s
99.6% CPU use with 48 MPI tasks x no OpenMP threads

MPI task timing breakdown:
Section |  min time  |  avg time  |  max time  |%varavg| %total
---------------------------------------------------------------
Pair    | 1.0712     | 1.1282     | 1.2359     |   3.3 | 45.13
Neigh   | 0.2037     | 0.21302    | 0.23446    |   1.3 |  8.52
Comm    | 0.76759    | 0.86798    | 0.96162    |   5.2 | 34.72
Output  | 0.00024205 | 0.00024625 | 0.00031369 |   0.0 |  0.01
Modify  | 0.21482    | 0.27544    | 0.33223    |   6.9 | 11.02
Other   |            | 0.0152     |            |       |  0.61

Nlocal:        83.3333 ave          94 max          72 min
Histogram: 3 3 3 4 4 13 9 4 3 2
Nghost:        1608.81 ave        1642 max        1579 min
Histogram: 6 3 4 6 5 6 9 5 2 2
Neighs:        9281.90 ave       10595 max        7923 min
Histogram: 4 5 3 3 4 11 6 6 4 2

Total # of neighbors = 445531
Ave neighs/atom = 111.38275
Neighbor list builds = 904
Dangerous builds = 206

# Equilibrate just above the melting temperature to avoid step fn in T

fix 1 all npt temp 1.25 1.25 0.1 iso 5.68 5.68 0.5 mtk yes tchain 5 pchain 5
run 2000
Per MPI rank memory allocation (min/avg/max) = 3.643 | 3.645 | 3.649 Mbytes
Step Temp E_pair E_mol TotEng Press Volume 
   10000    2.4410259   -1.8845889            0    1.7760345    5.7331781    4111.2222 
   11000    1.2650563   -2.8665777            0  -0.96946755    5.6270926    3199.1458 
   12000    1.2239187   -2.8955751            0    -1.060156    5.7004479    3184.1058 
Loop time of 0.592136 on 48 procs for 2000 steps with 4000 atoms

Performance: 583649.381 tau/day, 3377.601 timesteps/s
99.7% CPU use with 48 MPI tasks x no OpenMP threads

MPI task timing breakdown:
Section |  min time  |  avg time  |  max time  |%varavg| %total
---------------------------------------------------------------
Pair    | 0.2655     | 0.2859     | 0.30258    |   1.6 | 48.28
Neigh   | 0.039058   | 0.040981   | 0.043336   |   0.5 |  6.92
Comm    | 0.19604    | 0.21558    | 0.2379     |   2.2 | 36.41
Output  | 5.3277e-05 | 5.4539e-05 | 6.8832e-05 |   0.0 |  0.01
Modify  | 0.041414   | 0.044888   | 0.04796    |   0.9 |  7.58
Other   |            | 0.004741   |            |       |  0.80

Nlocal:        83.3333 ave          93 max          76 min
Histogram: 2 5 6 4 14 11 2 2 1 1
Nghost:        1908.56 ave        1928 max        1884 min
Histogram: 2 3 2 5 5 8 9 7 3 4
Neighs:        11992.8 ave       13468 max       10867 min
Histogram: 4 4 5 5 8 13 6 2 0 1

Total # of neighbors = 575653
Ave neighs/atom = 143.91325
Neighbor list builds = 143
Dangerous builds = 11

#############################
# L I N E A R  Q U E N C H  #
#############################

# Define solid atoms. This closely follows ten Wolde  Ruiz-Montero and Frenkel  Faraday Discuss  1996  104  93-110
# Compute components of the per-atom q6 vector
compute q6 all orientorder/atom degrees 1 6 components 6 nnn NULL cutoff 1.3 # compute the Q6 parameter.
                                                                             # Use all neighbours within 1.3 unit cell.

# get number of connections
compute coord_number all coord/atom orientorder q6 0.5

# An atom is solid if it has 8 or more connections (of a possible 14)
variable is_solid atom c_coord_number>=8
group solid dynamic all var is_solid    # Must be dynamic to update
dynamic group solid defined

# do clustering
compute cluster solid cluster/atom 1.3 # Create a cluster where all atoms within are solid and max 1.3 units from another member

# define chunks one chunk per cluster
compute clus_chunks solid chunk/atom c_cluster nchunk every compress yes  # Says which atoms are in which chunk

# count the size of each chunk
compute size_chunks solid property/chunk clus_chunks count


# Find the maximum entry in the vector of chunk sizes
variable max_n equal max(c_size_chunks)


# Thermo style which includes this variable
# thermo_style custom step temp pe vol v_max_n

thermo ${N}  # Print the thermo information every 100 steps
thermo 1000  

# Reset the npt fix at a lower temperature (below freezing)
fix 1  all npt temp  ${temp} ${temp}  0.1  iso  5.68  5.68  0.5  mtk yes tchain  5  pchain  5
fix 1  all npt temp  0.45 ${temp}  0.1  iso  5.68  5.68  0.5  mtk yes tchain  5  pchain  5
fix 1  all npt temp  0.45 0.45  0.1  iso  5.68  5.68  0.5  mtk yes tchain  5  pchain  5

dump dmp2 all dcd ${N} traj.dcd
dump dmp2 all dcd 1000 traj.dcd


compute msd all msd com yes
variable twopoint equal c_msd[4]/6/(step*dt+1.0e-6)
fix 9 all vector 10 c_msd[4]
variable fit equal slope(f_9)/6/(10*dt)
thermo_style custom step temp pe c_msd[4] v_twopoint v_fit v_max_n

fix 1 all npt temp 1.25 ${temp} 0.1 iso 5.68 5.68 0.5 mtk yes tchain 5 pchain 5
fix 1 all npt temp 1.25 0.45 0.1 iso 5.68 5.68 0.5 mtk yes tchain 5 pchain 5
run 5000000 # 5000000  # Run for this many steps
Neighbor list info ...
  update every 1 steps, delay 10 steps, check yes
  max neighbors/atom: 2000, page size: 100000
  master list distance cutoff = 3.8
  ghost atom cutoff = 3.8
  binsize = 1.9, bins = 8 8 8
  4 neighbor lists, perpetual/occasional/extra = 1 3 0
  (1) pair lj/cut, perpetual
      attributes: half, newton on
      pair build: half/bin/atomonly/newton
      stencil: half/bin/3d
      bin: standard
  (2) compute orientorder/atom, occasional
      attributes: full, newton on
      pair build: full/bin/atomonly
      stencil: full/bin/3d
      bin: standard
  (3) compute coord/atom, occasional
      attributes: full, newton on
      pair build: full/bin/atomonly
      stencil: full/bin/3d
      bin: standard
  (4) compute cluster/atom, occasional
      attributes: full, newton on
      pair build: full/bin/atomonly
      stencil: full/bin/3d
      bin: standard
Per MPI rank memory allocation (min/avg/max) = 9.817 | 9.824 | 9.830 Mbytes
Step Temp PotEng c_msd[4] v_twopoint v_fit v_max_n 
   12000    1.2239187   -2.8955751 3.9876919e-30 2.7692304e-32 8.3333333e+20            4 
   13000     1.243358   -2.8642244    1.0950334 0.0070194446  0.093070696            1 
   14000    1.2562487   -2.8489906    2.2535908   0.01341423  0.095888257            3 
   15000    1.2228602   -2.8757718    3.4741317  0.019300731   0.09716808            1 
   16000    1.2453727   -2.8914297    4.5924552  0.023919037  0.098181797            3 
   17000    1.2961372   -2.8603019    5.6917044  0.027900511  0.096831135            2 
   18000    1.2476945    -2.852086     6.932278  0.032093879   0.09624056            1 
   19000    1.2135054   -2.8354895    8.1136784  0.035586308  0.096770371            3 
   20000    1.2608173   -2.8507164    9.2873086  0.038697118  0.097254001            1 
   21000    1.2563269   -2.8586471    10.476896  0.041574984   0.09716915            3 
   22000    1.2319914   -2.8758538    11.704339  0.044334615   0.09752752            1 
   23000     1.234074   -2.8761324    12.896987  0.046728212  0.097836196            1 
   24000    1.2537933   -2.8398627    14.248535  0.049474078  0.098434742            5 
   25000    1.2521111   -2.8450311    15.597618  0.051992058  0.099209737            1 
   26000    1.2343657   -2.8499416    16.843114  0.053984338   0.09990824            2 
   27000    1.2353882   -2.8811042    17.800081  0.054938522   0.10022624            2 
   28000    1.2146429   -2.8827168     18.94958  0.056397559   0.10017679            2 
   29000     1.275632   -2.8529294    20.434467  0.058719731   0.10014094            1 
   30000    1.2664933   -2.8481611    21.596327  0.059989796   0.10039361            1 
   31000    1.2438626   -2.8997123    22.895608  0.061547333   0.10071435            1 
   32000    1.2295861   -2.8478398     24.04449  0.062615859   0.10087896            2 
   33000    1.2390153   -2.8880141    25.145617  0.063499032   0.10093188            1 
   34000    1.2540682   -2.8741843    26.259711  0.064362035   0.10089886            5 
   35000     1.267279   -2.8826342    27.284358  0.064962756   0.10070429            1 
   36000    1.2069265   -2.8483591    28.341183   0.06560459   0.10048848            2 
   37000    1.2373888    -2.831301    29.624387  0.066721591   0.10018639            3 
   38000    1.2469543    -2.830327    30.679176  0.067278894  0.099972012            1 
   39000    1.2229274   -2.8954856    31.716823  0.067770988  0.099727867            4 
   40000    1.2434485   -2.8602989      33.1331  0.069027291  0.099560395            1 
   41000    1.2530725    -2.857962    34.250985  0.069615823  0.099361401            1 
   42000    1.2628306   -2.8572666    35.348793  0.070136492  0.099207898            2 
   43000    1.2506808   -2.8868663    36.720532  0.071163821  0.099126831            1 
   44000    1.2704756   -2.8727267    37.737616  0.071472756  0.099061791            1 
   45000    1.2440767   -2.8634625    39.094489  0.072397202  0.099007859            3 
   46000    1.2348153   -2.8499789    40.315559  0.073035432  0.098971829            1 
   47000    1.2282588   -2.8786855    41.358731  0.073331083  0.098895493            2 
   48000    1.2509712   -2.8588353    42.400395  0.073611796  0.098878038            1 
   49000    1.2274406   -2.8555845    43.615778  0.074176493  0.098807695            2 
   50000    1.2437343   -2.8528709    44.969517  0.074949194  0.098733001            1 
   51000    1.2329811   -2.8764845    45.922073  0.075036066  0.098704366            1 
   52000    1.2420222   -2.8627267    47.078385  0.075446129  0.098674804            1 
   53000    1.2339999   -2.8913096    48.623785  0.076452492     0.098679            1 
   54000    1.2458766   -2.8631337    50.044876  0.077229747  0.098735394            2 
   55000    1.2416604   -2.8513775    51.140372  0.077485411   0.09882522            3 
   56000    1.2467265   -2.9064949    52.200152  0.077678797  0.098873716            1 
   57000    1.2315276   -2.8342032    54.196465  0.079234598  0.098954313            1 
   58000    1.2352844    -2.901894     54.68532  0.078570861  0.099046712            1 
   59000    1.2356889   -2.9052763    56.028789  0.079136707  0.099054999            2 
   60000      1.28578   -2.8635004    57.082903   0.07928181  0.099060535            1 
   61000    1.2262414   -2.8915827    58.051292  0.079305043  0.099035428            1 
   62000    1.2290286   -2.8816474    58.994887  0.079294202  0.098986951            1 
   63000    1.2437024   -2.8811168    60.067807  0.079454771  0.098917626            1 
   64000    1.2254051   -2.9150461    61.258489  0.079763657  0.098873675            3 
   65000    1.2273121   -2.8863567    62.401025  0.080001313  0.098811796            2 
   66000    1.2351354   -2.9171509     63.96364   0.08076217  0.098797276            1 
   67000    1.2470087   -2.9175829    65.009857  0.080858031  0.098822854            2 
   68000    1.2347292   -2.8929775    66.187479  0.081112106  0.098851274            3 
   69000    1.2317693    -2.879592    67.771145  0.081849208  0.098845683            1 
   70000    1.2211629   -2.8643319     69.09776  0.082259238  0.098853889            4 
   71000    1.2139932    -2.874217    70.512436  0.082761074  0.098925297            1 
   72000    1.2627805   -2.8696098    71.465149  0.082714293  0.099003568            3 
   73000    1.2343562   -2.8847675    72.835388   0.08314542  0.099079544            1 
   74000     1.217937   -2.8979572    73.782532  0.083088436  0.099131705            2 
   75000    1.2171797   -2.8619727    75.161324  0.083512582  0.099160563            1 
   76000    1.2390881   -2.8720313    76.435698  0.083811072  0.099202333            1 
   77000    1.2281042   -2.8929864    77.273965  0.083629831  0.099257034            2 
   78000    1.2338703   -2.8750516     78.40001  0.083760694  0.099272812            1 
   79000      1.23416   -2.8894671    79.651041  0.084020085  0.099257465            3 
   80000    1.2326589   -2.8978418    80.721294  0.084084681  0.099249834            3 
   81000     1.233758   -2.8789087    81.953515  0.084314316  0.099216704            1 
   82000    1.2146987   -2.8785288    83.322528  0.084677365  0.099235367            1 
   83000     1.237362   -2.8633863    84.408399  0.084747388  0.099247582            1 
   84000    1.2509022   -2.8752068    86.059871  0.085376855  0.099257887            2 
   85000    1.2559358   -2.8976639    87.406231  0.085692383  0.099299426            1 
   86000     1.244906   -2.8913897    88.915668  0.086158593   0.09935712            1 
   87000    1.2381896   -2.8676129    90.066647  0.086270734  0.099415616            2 
   88000    1.2614845   -2.8943489    91.251084   0.08641201  0.099468936            1 
   89000    1.2399417   -2.8834513    92.475287  0.086587347  0.099529391            1 
   90000    1.2209862   -2.8685997     93.19529  0.086291935  0.099574429            1 
   91000    1.2229551   -2.8592114    94.303064  0.086358117  0.099593563            1 
   92000    1.2387011   -2.8938879    96.127085  0.087071635  0.099623465            1 
   93000    1.2412988   -2.8622651      96.9769  0.086896863  0.099650324       -1e+20 
   94000    1.2289305   -2.8931264    97.707959  0.086620531  0.099694912            3 
   95000    1.2496052   -2.8821102    99.027323  0.086866072  0.099697976            3 
   96000    1.2339563   -2.8847684    99.976384  0.086785055  0.099697489            2 
   97000    1.2130315   -2.9208694    100.72999  0.086537795  0.099663169            2 
   98000    1.2561334   -2.8948955    101.71008  0.086488167  0.099627152            1 
   99000    1.2303251   -2.9036562     103.0109  0.086709508  0.099595728            1 
  100000    1.2543202   -2.8909136    104.35883  0.086965691  0.099568369            2 
  101000    1.2339071   -2.8807266    105.57474  0.087107872  0.099527858            1 
  102000    1.2415113   -2.8945931    106.63965  0.087123897   0.09949643            2 
  103000    1.2536476   -2.8704479    107.77214  0.087194285  0.099476549            1 
  104000    1.2283132   -2.9039231    109.11953  0.087435521  0.099453034            4 
  105000    1.2421142   -2.8992061    110.30113  0.087540577  0.099425006            4 
  106000     1.227537    -2.897056    111.57475  0.087715997  0.099394478            1 
  107000    1.2181606   -2.8845848    112.53731   0.08764588  0.099372627            1 
  108000    1.2452139   -2.8879281    114.36018  0.088240882  0.099360798            1 
  109000    1.2430949   -2.9030145    114.92825  0.087865631  0.099348532            1 
  110000     1.240338   -2.8669754    116.73425   0.08843504  0.099346214            3 
  111000    1.2284423   -2.9220254    117.17528  0.087969427  0.099346161            1 
  112000     1.249502   -2.8908704     118.9923  0.088535936    0.0993449            1 
  113000    1.2338587    -2.884399    120.34793  0.088752161  0.099356504            2 
  114000    1.2450564   -2.8797875    121.94061  0.089137869  0.099371259            2 
  115000    1.2469646   -2.8912697    123.39901  0.089419575  0.099384877            1 
  116000    1.2578334   -2.9362449    123.56618  0.088768809  0.099383443            3 
  117000    1.2549041   -2.9065337    124.83618  0.088914659  0.099383378            2 
  118000    1.2376818   -2.8739525    125.60791  0.088706153  0.099378031            1 
  119000    1.2348469   -2.8892639    126.67855  0.088710469  0.099351945            1 
  120000    1.2235583   -2.8981168     127.7343  0.088704377  0.099320467            2 
  121000    1.2409537   -2.8771607    128.96787  0.088820848  0.099299569            1 
  122000    1.2423174   -2.8917684     130.8121  0.089352526  0.099287472            2 
  123000    1.2466605   -2.8676253    132.15256  0.089534252   0.09927882            2 
  124000    1.2277092   -2.9179121    132.61165  0.089120731  0.099264867            1 
  125000    1.2369781   -2.8809687    134.67816  0.089785437  0.099256885            4 
  126000    1.2091421   -2.8893092    135.02553  0.089302597  0.099253097            2 
  127000    1.2517104   -2.8825232    137.11862  0.089972846   0.09924283            2 
  128000    1.2223056   -2.8683429    138.04675  0.089874186  0.099231893            2 
  129000    1.2460365   -2.8552164    138.83434  0.089686263  0.099214442            2 
  130000    1.2045535   -2.8863521    140.04596  0.089773052  0.099187491            2 
  131000    1.2598899   -2.8863667    141.61827   0.09008796  0.099154136            1 
  132000    1.2328031   -2.9327226    141.07039  0.089059586  0.099131939            1 
  133000    1.2366177   -2.8838664     143.5607  0.089950312   0.09910359            2 
  134000    1.2330583   -2.8963371    143.99704  0.089550398  0.099086603            2 
  135000    1.2391856   -2.8760183    145.84085  0.090025214  0.099065243            1 
  136000    1.2205549   -2.8916633    146.58265    0.0898178   0.09903876            1 
  137000    1.2406536   -2.8855117    147.54362  0.089746728  0.099019446            1 
  138000    1.2169335   -2.8973049    148.65844  0.089769588  0.098990237            1 
  139000    1.2179694   -2.8750737    149.85645  0.089841997  0.098962757            3 
  140000     1.203163   -2.8758165    151.77203  0.090340494  0.098932369            4 
  141000    1.2123054   -2.8655633    153.02965  0.090443053  0.098913673            1 
  142000    1.2215004   -2.9027084    153.44371  0.090049127   0.09889722            2 
  143000     1.199758   -2.9110807      154.441  0.090000585  0.098868449            1 
  144000    1.2370323   -2.8711765    155.33598  0.089893509   0.09883121            1 
  145000    1.1963641   -2.8981379    156.48504  0.089933928  0.098796235            1 
  146000     1.231575   -2.8676061    158.31581  0.090362904  0.098771302       -1e+20 
  147000    1.2227387   -2.8792228    159.21716  0.090259163  0.098733073            1 
  148000    1.2416855   -2.9096197    159.37618  0.089738838  0.098693929            3 
  149000    1.2113108   -2.8884256    160.54262  0.089788939  0.098648872            2 
  150000    1.2104136   -2.9053144    161.55407  0.089752261  0.098603974       -1e+20 
  151000    1.2370778   -2.8755003    163.26324  0.090101127  0.098558413            1 
  152000    1.2237049   -2.9233185    163.49014  0.089632752  0.098519198            2 
  153000     1.212288   -2.8811152    166.16216  0.090502264  0.098481479            1 
  154000    1.2024233     -2.88069    167.24442  0.090500227  0.098449041            1 
  155000    1.2240287   -2.8708235    168.66093  0.090677922  0.098426716            2 
  156000    1.2217037   -2.8865749    169.93993  0.090779876  0.098410656            1 
  157000    1.2088896    -2.900419    170.29154  0.090388291  0.098391994            3 
  158000    1.2363197   -2.9054246    171.92714  0.090678873  0.098366148            2 
  159000    1.2079783   -2.8831953    172.58895  0.090455425  0.098339707            3 
  160000     1.213524   -2.8738939    174.17135  0.090714243  0.098305076            3 
  161000    1.2136013   -2.9082342    174.32321  0.090229405  0.098277437            1 
  162000    1.2695135   -2.9043541    176.21215  0.090644108  0.098258884            3 
  163000    1.2212814   -2.9211969    177.04378  0.090513177  0.098230261            1 
  164000    1.2260132   -2.8826758    177.86518  0.090378649  0.098198557            2 
  165000    1.2075799   -2.8962307    179.28654  0.090548759  0.098166987            1 
  166000    1.1798184   -2.8750213     180.1414  0.090432429  0.098129641            1 
  167000    1.2066367   -2.8996085    180.09745  0.089868985  0.098081717            3 
  168000    1.2293009   -2.9134751    181.90879  0.090232536  0.098036958            4 
  169000    1.2025698    -2.909383    183.66354  0.090563875  0.097999264            2 
  170000    1.2294413   -2.8681191    184.68626  0.090532478   0.09796673            2 
  171000    1.2038122   -2.9005429    185.80378  0.090547651  0.097939834            1 
  172000    1.2105794   -2.8850297    186.08428  0.090157114  0.097910461            1 
  173000    1.2421095   -2.8937665    187.39516  0.090267416  0.097875201            2 
  174000    1.2058844   -2.8825918    189.31057   0.09066598  0.097843223            1 
  175000    1.2352219   -2.9079812      190.404  0.090668572  0.097814182            1 
  176000    1.2419423   -2.9125261    191.32045  0.090587336  0.097789805            2 
  177000    1.2408544   -2.9030552     193.9176  0.091298305  0.097773859            1 
  178000    1.2036463   -2.8861051    194.80507  0.091200875  0.097769483            2 
  179000    1.2198566    -2.899756    196.62352  0.091537952   0.09776412            1 
  180000    1.2245586    -2.905459    196.62916  0.091032018  0.097754155            1 
  181000    1.2189737   -2.8860342    199.04299   0.09164042  0.097750993            2 
  182000    1.2700854    -2.894426     199.9386  0.091546976  0.097747978            2 
  183000    1.2194636   -2.9248112    201.27923  0.091657208  0.097749389            1 
  184000    1.2265646    -2.897595    202.70459  0.091804615  0.097751001            1 
  185000    1.2350464   -2.8602694    203.80704  0.091804973  0.097751574            1 
  186000    1.2366118   -2.8993914    204.52928  0.091634982  0.097747213            2 
  187000    1.1997788   -2.9042583    206.75052  0.092134811  0.097750685            5 
  188000    1.2093293   -2.8979326    207.81111  0.092114853  0.097750193            3 
  189000    1.2262289    -2.896175    207.91645  0.091673919  0.097746907            1 
  190000    1.2024502   -2.8606969    209.04929  0.091688283  0.097745141            2 
  191000     1.227278   -2.8885822    211.42979  0.092246853    0.0977489            1 
  192000    1.2127718   -2.9097491    214.16082  0.092951746  0.097762902            2 
  193000    1.2195366   -2.9042992    213.91419  0.092363642  0.097778384            1 
  194000    1.1895686   -2.8948227    216.26957  0.092899299  0.097803966            2 
  195000    1.2048723    -2.874913    216.66441  0.092591629  0.097831462            1 
  196000    1.2454541   -2.9150943    217.37044  0.092419404  0.097847125            2 
  197000    1.2146582   -2.8708023    218.63636  0.092485768  0.097854565            1 
  198000    1.2089567   -2.8776787     218.8601  0.092112837  0.097861917            2 
  199000    1.2565456   -2.8957723    220.70385  0.092422049   0.09786598       -1e+20 
  200000    1.1783292   -2.8988839    221.54951  0.092312297  0.097868475            2 
  201000    1.2191457   -2.8669953    222.89072  0.092409087  0.097867349            2 
  202000    1.2141955    -2.868282    224.50049  0.092615712  0.097873546            2 
  203000    1.1957004   -2.8958227    223.79757  0.091870923  0.097875242            2 
  204000    1.2047442    -2.913267    226.49534  0.092522605  0.097874657            1 
  205000    1.2383782   -2.9322202    227.45541  0.092461549  0.097868987            2 
  206000    1.2037115   -2.9011944    228.31589  0.092360795  0.097864755            1 
  207000     1.216667   -2.9210856    229.55918  0.092415128  0.097860027            1 
  208000    1.2198327   -2.9024019    229.28037  0.091859121  0.097855967            3 
  209000    1.2157162   -2.9318417    232.01377  0.092509477  0.097847009            3 
  210000    1.2249093   -2.9249167    232.84806  0.092400023  0.097831323            3 
  211000     1.190032   -2.9213742    233.43309  0.092193164  0.097823235            2 
  212000     1.203917   -2.9094256    235.23901  0.092468164  0.097810566            1 
  213000    1.1966001   -2.9026321    235.60726  0.092178114  0.097800698            2 
  214000    1.2347463   -2.9099677    236.48153  0.092087824  0.097790586            1 
  215000    1.2249542   -2.8998081    237.87921  0.092201244  0.097778395            1 
  216000      1.21475    -2.887583    238.69007  0.092087219  0.097767679            1 
  217000    1.2254953   -2.8927808    240.75015  0.092453975  0.097757045            2 
  218000    1.2113495   -2.8762195    241.02148  0.092133595    0.0977442            1 
  219000     1.223378   -2.9110802    241.60829  0.091936185  0.097726164            1 
  220000    1.1950955   -2.8931661    243.08052  0.092075953  0.097703495            2 
  221000    1.2386208    -2.905043    244.67729  0.092261422  0.097681807            2 
  222000    1.2290954    -2.917171    246.38944  0.092488528  0.097670108            1 
  223000    1.2111573   -2.9074334    246.01476  0.091933768   0.09765735            4 
  224000    1.2398892    -2.924843    247.57689  0.092104496  0.097646198            1 
  225000    1.2102851   -2.9013247    249.76465  0.092505427  0.097634319            1 
  226000    1.2620707   -2.8974153     249.8281  0.092119506  0.097619435            2 
  227000    1.2354405   -2.8904752    252.07826  0.092539744  0.097600672            2 
  228000    1.2144482   -2.8966213    252.24026  0.092193077  0.097584219            1 
  229000    1.1874742   -2.9235715    252.29029  0.091808694  0.097558318            2 
  230000    1.2048392   -2.9096589    254.66651  0.092270474   0.09753442            2 
  231000    1.2369043     -2.86836    254.91423  0.091960399  0.097514204            1 
  232000    1.2087221   -2.8665208    256.65457  0.092189142  0.097491255            2 
  233000    1.2130858   -2.8486379    258.26356   0.09236894  0.097469031            1 
  234000    1.2182746   -2.9315226    258.33909  0.092001101  0.097444507            2 
  235000    1.1843704   -2.8986357    259.94794  0.092180119  0.097416055            1 
  236000    1.2017375   -2.8844749     261.3969  0.092301165  0.097393988            1 
  237000    1.2048471   -2.9135346    262.51478  0.092304775  0.097370796            2 
  238000    1.1974835   -2.9056245    263.24773  0.092173575  0.097347274            2 
  239000    1.2245258   -2.9327246    263.99665   0.09204904  0.097327583            2 
  240000    1.1784016   -2.8938006    263.77854   0.09158977  0.097305263            2 
  241000    1.2022822    -2.924943    266.22544  0.092055823  0.097284164            1 
  242000    1.2188928    -2.910259    266.53784  0.091783002  0.097261781            2 
  243000    1.2210737   -2.8862267    268.47363  0.092069145  0.097237395            2 
  244000    1.2217016   -2.9026507    270.17205  0.092271876  0.097216303            2 
  245000    1.1712337   -2.8570353      271.759  0.092435035   0.09719666            2 
  246000     1.197438   -2.8984601    272.98337  0.092474042  0.097179934            1 
  247000    1.1976199   -2.9216692    274.23895  0.092523262  0.097167102            2 
  248000    1.2251386   -2.9168896    274.21176  0.092141049  0.097151072            1 
  249000    1.2160935   -2.9033895    276.15314  0.092420728  0.097132587            4 
  250000    1.2363286   -2.9313701    276.41963  0.092139875  0.097114173            4 
  251000    1.1993495   -2.9132771    278.43303  0.092441246  0.097098948            1 
  252000     1.202551   -2.9077384    279.81584  0.092531692  0.097087185            3 
  253000    1.2086028   -2.9226833    282.58741  0.093078855  0.097078323            1 
  254000    1.2045573   -2.9147638    281.06426  0.092212682   0.09706678            1 
  255000    1.2069181     -2.91843     283.5598  0.092666601  0.097059118            2 
  256000    1.2102892   -2.9299743    284.35737  0.092564249  0.097054453            1 
  257000    1.2465066   -2.9044056    285.29153  0.092506981  0.097052411            1 
  258000    1.2056346   -2.9249964    286.82942   0.09264516  0.097052891            1 
  259000    1.1986151   -2.9218122    288.30413  0.092761947  0.097046349            2 
  260000    1.2141233   -2.8957466    289.89841  0.092916156  0.097042182            1 
  261000    1.1930405   -2.9143256    290.86159  0.092867684   0.09703809            2 
  262000    1.2081994    -2.909825    291.81945  0.092817892  0.097032024            2 
  263000    1.1888023   -2.8987703    294.68782  0.093373835   0.09703335            2 
  264000    1.2109704   -2.8771446     294.9932   0.09311654  0.097030143            4 
  265000    1.2071774   -2.9265028    294.66457  0.092661814  0.097025552            1 
  266000    1.2307533   -2.9084988    297.98793  0.093354613  0.097019631            2 
  267000    1.1889458   -2.9082177    298.91514  0.093294364   0.09701674            2 
  268000     1.197342   -2.9092135    299.41569  0.093101894  0.097013357            1 
  269000    1.1856942   -2.9171885    299.94381  0.092919397  0.097010748            1 
  270000    1.2131621   -2.9324905    300.76015  0.092827206  0.097008626            1 
  271000    1.2058134   -2.9180396    304.66124  0.093684268  0.097010254            2 
  272000     1.220907   -2.9242845     304.1054  0.093169546  0.097010526            2 
  273000    1.2046776   -2.9190263    305.06383  0.093120828  0.097009393            1 
  274000    1.2017885    -2.941288     304.7181  0.092675822  0.097002074            1 
  275000    1.1966411   -2.9301146     306.4453  0.092862211  0.096995799            2 
  276000    1.2190318    -2.914463    308.07054  0.093016466  0.096992526            2 
  277000    1.1964885   -2.9183232    309.67089  0.093162121  0.096986269            1 
  278000    1.2198649   -2.9303737    311.17371  0.093277492  0.096978476            1 
  279000    1.1983373   -2.9318505    309.76084  0.092521159  0.096970791            2 
  280000    1.2081201   -2.8725738    311.32322  0.092655719  0.096963659            1 
  281000     1.206182   -2.9402221    312.92914  0.092802236  0.096956343            1 
  282000    1.1864151   -2.9255831    314.35149  0.092893466  0.096944443            1 
  283000     1.214065   -2.8848226    316.78156  0.093280788  0.096934816            2 
  284000    1.2066078   -2.9585714    315.81447  0.092668565  0.096927069            3 
  285000    1.2128019    -2.906877    318.75438  0.093203036  0.096923274            1 
  286000    1.1705772   -2.9178509    319.83989  0.093193442  0.096919732            3 
  287000    1.2083878   -2.9365572    319.60164  0.092799547  0.096910364            3 
  288000    1.2012226   -2.8795512    320.61509  0.092770571  0.096900682            3 
  289000    1.1880644   -2.9476672    321.99558  0.092847631  0.096892119            2 
  290000    1.2227407   -2.9405288    324.07501  0.093125004  0.096878718            1 
  291000    1.2124645   -2.9242912    323.67446  0.092690281  0.096865654            1 
  292000     1.206281   -2.9604289     323.5937  0.092349801  0.096849267            3 
  293000    1.2030493   -2.9147638    324.80399  0.092378836  0.096834105            3 
  294000    1.2129286   -2.9124347    329.01619  0.093258558  0.096819944            1 
  295000    1.1960333   -2.8989158    327.40241  0.092486555   0.09680738            3 
  296000    1.2205188     -2.93561    327.75141  0.092272356  0.096793902            2 
  297000    1.1875706   -2.9136014    330.93297  0.092854368  0.096780022            2 
  298000    1.2372111   -2.9317285    330.25091  0.092352044  0.096765954            1 
  299000    1.1727792   -2.9092166       332.43  0.092650502  0.096750008            3 
  300000     1.205812   -2.9287542    331.52932  0.092091477   0.09673147            3 
  301000    1.1893651   -2.9223134      333.169  0.092239479  0.096715488            4 
  302000    1.2187208   -2.9362757     334.8036    0.0923851  0.096696594            2 
  303000    1.2094579   -2.9338744    334.50185  0.091997209  0.096676496            1 
  304000    1.1844589   -2.9200286    337.07605  0.092400233  0.096656655            1 
  305000    1.2059712   -2.9229435    337.13162  0.092112464  0.096632975            2 
  306000    1.1791146   -2.9092658    338.88334   0.09228849  0.096605222            1 
  307000    1.2046069   -2.9059673    338.44788  0.091869674  0.096575259            4 
  308000    1.2137369   -2.9321142     340.2601  0.092061715  0.096548285            4 
  309000    1.1849745   -2.9120816    341.43468  0.092080549  0.096523304            2 
  310000    1.1958277   -2.9140741    342.37114  0.092035252  0.096497846            1 
  311000    1.2011679    -2.894532    345.22499  0.092504015  0.096468573            1 
  312000     1.208016   -2.9007649     343.9985  0.091879941  0.096439989            2 
  313000    1.2124578   -2.9411239    346.32156  0.092204888  0.096410889            2 
  314000    1.2157364   -2.9370647    346.66997  0.092003708  0.096379985            1 
  315000    1.2101708   -2.9169876    347.01091  0.091801829  0.096346575            2 
  316000    1.1767898   -2.9159651    347.53369   0.09164918  0.096313702            1 
  317000    1.2110394   -2.9068568    347.38175  0.091320124   0.09628151            3 
  318000    1.1933835   -2.9156749     351.7313  0.092172773  0.096252673            1 
  319000    1.2215533   -2.9292244    351.12109  0.091724422  0.096225166            2 
  320000    1.2073138    -2.946178    351.84193  0.091625503  0.096197113            4 
  321000    1.1582443   -2.9103687    352.32088  0.091464402  0.096166325            2 
  322000    1.2090578   -2.9015291    355.00314  0.091874519  0.096136388            2 
  323000    1.2263464   -2.9737516    352.95175  0.091060823   0.09610414            1 
  324000    1.2086945   -2.9101437    356.65595  0.091732497   0.09607168            2 
  325000     1.211251   -2.9058445    358.46567  0.091914273  0.096039961            2 
  326000    1.2036381   -2.9223768    358.68456  0.091688283   0.09600817            2 
  327000    1.2094757   -2.9404097    359.00519  0.091489599  0.095980526            2 
  328000    1.2217648   -2.9552898    358.43463  0.091065709  0.095954558            2 
  329000    1.2245832   -2.9293042    361.86165  0.091656954  0.095930058            1 
  330000    1.1962964   -2.9332707    362.82374  0.091622157  0.095904073            4 
  331000    1.1987629   -2.9207698    363.31019  0.091467822  0.095878605            2 
  332000    1.1653922   -2.9160261    362.38357  0.090959732  0.095847501            3 
  333000     1.187477   -2.9099928     365.9096  0.091568969  0.095810026            1 
  334000     1.230469   -2.9305223    367.14279  0.091602492  0.095775123            3 
  335000      1.19011   -2.9352687    366.33683  0.091128566  0.095738793            2 
  336000    1.1865231   -2.9100444     368.6626  0.091434177  0.095701587            6 
  337000    1.1819058   -2.9156402    366.37664  0.090597587  0.095660931            1 
  338000      1.18875   -2.9654313    367.08422  0.090503998  0.095619387            1 
  339000     1.192819   -2.9422995    368.61022  0.090612148  0.095580954            2 
  340000    1.1902509   -2.9169064    371.36839  0.091021663  0.095540176            1 
  341000    1.1979977   -2.9384685    370.20737   0.09047101  0.095501287            2 
  342000    1.1815955   -2.9376677    371.80404  0.090595525  0.095460288            2 
  343000    1.1974187    -2.933241    375.95398  0.091339645  0.095422318            2 
  344000    1.2105893   -2.9347333    373.69779  0.090527566  0.095387328            1 
  345000    1.1873974   -2.9192513    377.50315  0.091184335   0.09535227            1 
  346000    1.1946059   -2.9486597    377.87041   0.09100925  0.095319205            2 
  347000    1.1794561   -2.9274477    380.43506  0.091362888  0.095284082            2 
  348000    1.1881011   -2.9456804    379.82202  0.090953548  0.095247026            1 
  349000    1.1944586   -2.9250494    380.23411  0.090791335  0.095210654            2 
  350000    1.1804121   -2.9398019    381.05906  0.090728347  0.095175775            1 
  351000    1.2101632   -2.9260886    382.08159  0.090712629  0.095140543            2 
  352000    1.1937215   -2.9477498    384.55683  0.091040916  0.095108438            2 
  353000    1.2037294   -2.9436299    385.85623  0.091089762  0.095077755            2 
  354000    1.2107487   -2.9512556    383.69419   0.09032349  0.095044279            2 
  355000     1.185201   -2.9214929    388.45351  0.091186271  0.095011127            1 
  356000    1.2276506   -2.9730083    389.44352  0.091161872  0.094979447            1 
  357000    1.2203016   -2.9618528    390.43556  0.091138087  0.094951032            1 
  358000    1.1663892   -2.9496019    391.70844  0.091179804  0.094921889            1 
  359000    1.2202949   -2.9407233    391.27794  0.090825892  0.094890851            3 
  360000    1.1894297     -2.94726    394.19441  0.091248707  0.094863195            1 
  361000    1.1778692   -2.9396207    391.57477  0.090391222  0.094832379            2 
  362000     1.155679   -2.9280731    394.87404  0.090901021  0.094800557            3 
  363000    1.1885324   -2.9335203    396.82778  0.091099123   0.09476816            3 
  364000    1.1601997   -2.9262882    398.21178  0.091165701   0.09473684            1 
  365000    1.1938749   -2.9160652    397.11354  0.090665192  0.094704103            5 
  366000    1.1843275    -2.923583    398.78344  0.090797686  0.094671548            2 
  367000    1.1998508   -2.9551189     399.1152  0.090625612   0.09463917            2 
  368000    1.1925329    -2.971266    399.24463  0.090408658  0.094602718            3 
  369000    1.1701074   -2.9194533    402.02975  0.090792626  0.094566972            2 
  370000    1.1728623   -2.9120411    402.11732  0.090566964  0.094533228            1 
  371000    1.2230939     -2.95099    403.07835  0.090538712   0.09449797            3 
  372000    1.2026912   -2.9475553    403.53777  0.090398246  0.094462415            5 
  373000    1.2167453   -2.9152504    404.91912  0.090464505   0.09442934            2 
  374000    1.1960059   -2.9606604    405.75316  0.090408457  0.094398015            1 
  375000    1.2082908    -2.975276    407.38827  0.090530727   0.09436936            4 
  376000    1.2259262   -2.9569528    408.02014  0.090429995   0.09433917            1 
  377000    1.1735493   -2.9513871    410.39713  0.090715546   0.09430913            2 
  378000    1.1843689   -2.9384709    410.61732  0.090524101  0.094281943            2 
  379000    1.1897706    -2.908506    412.61169  0.090723767  0.094255258            4 
  380000    1.1791432   -2.9351854    414.11099  0.090813815  0.094226779            3 
  381000    1.1924068    -2.896966    415.25731  0.090826183  0.094200535            1 
  382000    1.1939288   -2.9339936    416.21263  0.090796822  0.094175811            2 
  383000    1.1851081   -2.9496909    417.25525  0.090786607  0.094152228            6 
  384000    1.1922267   -2.9397874    419.07256  0.090944567  0.094130204            1 
  385000    1.2124834   -2.9207931    419.79006   0.09086365  0.094107276            2 
  386000    1.2076123   -2.9383899    421.15548  0.090923032  0.094084505            1 
  387000    1.1871836   -2.9255865     423.0436  0.091094659  0.094059894            1 
  388000    1.1786047   -2.9445706     425.2588  0.091335654  0.094038305            1 
  389000    1.1890208   -2.9277723    425.66538  0.091187955  0.094015818            1 
  390000    1.1698968   -2.9178379     425.5793  0.090935748  0.093991863            1 
  391000    1.1991337   -2.9549599     426.3644  0.090870503  0.093967814            3 
  392000    1.1962878   -2.9225924    427.23803  0.090824411  0.093943332            3 
  393000    1.2201056   -2.9749649    427.68567  0.090688225  0.093919464            1 
  394000     1.176595   -2.9372927    430.61526  0.091077678  0.093895154            1 
  395000    1.1564759     -2.94623    428.40733  0.090381293  0.093871732            2 
  396000    1.1746145   -2.9139694    431.10974  0.090721747  0.093846938            2 
  397000    1.1949384   -2.9693265    430.38469  0.090341034  0.093823436            3 
  398000       1.2107   -2.9610946    432.98903  0.090659345   0.09379951            1 
  399000    1.1995357   -2.9167457    432.84765    0.0904026  0.093773876            1 
  400000    1.2113052   -2.9519003    433.59056  0.090331366  0.093748208            3 
  401000    1.1768546   -2.9559506    433.55025  0.090097725  0.093722352            2 
  402000    1.1768683   -2.9388695    435.95282  0.090371646  0.093693792            1 
  403000    1.1801576   -2.9261463    436.64983  0.090291527  0.093667069            2 
  404000     1.190419   -2.9414843    437.01789  0.090143954  0.093636086            3 
  405000    1.1789069   -2.9190382    437.88179  0.090099134  0.093607518            1 
  406000     1.201758   -2.9460884    439.24147  0.090156295   0.09357785            4 
  407000    1.1737855   -2.9208013    441.76271  0.090451005  0.093550145            5 
  408000     1.190011   -2.9602658    440.52105  0.089975705  0.093521132            4 
  409000    1.1915158   -2.9376835    441.36538  0.089927747  0.093489968            2 
  410000    1.2011461   -2.9480384    443.29351  0.090100307  0.093462091            1 
  411000    1.1471719   -2.9644727    444.16336  0.090057452   0.09343367            2 
  412000    1.1672577   -2.9481379    443.25004  0.089654135  0.093405335            3 
  413000    1.1877301   -2.9278373    447.37899  0.090270176  0.093377153            2 
  414000    1.1816975   -2.9427225    445.61034  0.089696122  0.093348735            2 
  415000    1.1819392   -2.9437154    447.77664  0.089914988  0.093321844            2 
  416000    1.1752816   -2.9394047    450.28475  0.090201272  0.093294036            2 
  417000    1.1851426   -2.9701358    449.11233  0.089750666  0.093266401            1 
  418000    1.1824205   -2.9416811    452.71393  0.090253973  0.093241537            1 
  419000    1.1857171   -2.9422707    454.26207  0.090346474  0.093213716            1 
  420000    1.1991266   -2.9374576    455.75118  0.090426822  0.093190877            2 
  421000    1.1705495   -2.9275626    455.37514  0.090137596  0.093164411            1 
  422000    1.1793913   -2.9412583       455.81  0.090009874  0.093138912            1 
  423000    1.1678688   -2.9445277    458.08946  0.090246151  0.093112561            2 
  424000    1.1940556    -2.951173    457.13928  0.089846556  0.093084399       -1e+20 
  425000    1.1679333   -2.9461404    458.97737  0.089995563  0.093057729            2 
  426000    1.2089138   -2.9227018    461.17216  0.090213645  0.093030947            1 
  427000    1.1660434   -2.9350755    463.66358  0.090488598  0.093005643            3 
  428000    1.1825416    -2.969138    461.20126  0.089797753   0.09297587            2 
  429000    1.1811292   -2.9784716    460.01808  0.089358601  0.092947138            2 
  430000    1.1686071   -2.9656383    463.74299  0.089872672  0.092917065            2 
  431000    1.1903121    -2.908742    464.48891  0.089808373  0.092885887            3 
  432000    1.1817263   -2.9876996    461.62123  0.089047305   0.09285534            2 
  433000    1.2040376   -2.9626632    463.22408  0.089150131  0.092822536            2 
  434000    1.1695157   -2.9418078    463.62151  0.089021027  0.092789778            2 
  435000    1.1796962   -2.9820876    465.01624   0.08908357  0.092755509            2 
  436000    1.2024308   -2.9175547    468.96637  0.089634244  0.092722387            4 
  437000    1.1613295   -2.9685144     469.2954  0.089491877  0.092690213            2 
  438000    1.1904229   -2.9777127    468.55605  0.089146889   0.09265638            2 
  439000    1.1416709    -2.947011    469.70613  0.089162136  0.092624196            1 
  440000    1.1926302   -2.9355602    469.70944  0.088960122  0.092591511            1 
  441000    1.1683404   -2.9860417    472.16025  0.089221514  0.092559437            2 
  442000    1.2046224   -2.9300922    474.63882  0.089486956  0.092529205            2 
  443000    1.1895453   -2.9411108    475.26532  0.089402807  0.092498473            3 
  444000    1.1887236   -2.9555908    476.11269   0.08936049  0.092468248            5 
  445000    1.1686464   -2.9748731    476.50777  0.089233664  0.092438288            2 
  446000    1.1723238   -2.9731221    476.19366  0.088974899  0.092407845            2 
  447000    1.1589771   -2.9395676    479.31357  0.089357489  0.092380029            2 
  448000    1.1823249   -2.9461026    480.60291  0.089397863   0.09235274            2 
  449000    1.1808163   -2.9704021    481.26631  0.089321884  0.092324865            2 
  450000     1.167853   -2.9370329    485.39448  0.089887867  0.092298455            1 
  451000    1.1527925   -2.9248788    483.88918  0.089410418  0.092271294            2 
  452000    1.1616602   -2.9597101    486.62215  0.089716473  0.092245686            3 
  453000    1.1906207   -2.9511261    486.48516  0.089493222  0.092217097            2 
  454000    1.1881387   -2.9870497    487.11011  0.089410813  0.092188404            1 
  455000    1.1848417   -2.9599239    487.74512  0.089330608  0.092160101            3 
  456000    1.1669585   -2.9355793    488.60623  0.089292073  0.092132534            1 
  457000     1.180853    -2.970081     488.7407  0.089121207  0.092104126            1 
  458000    1.1782978    -2.953191    489.28239   0.08902518  0.092074509            2 
  459000    1.1685167   -2.9443311    490.40627  0.089035271  0.092046624            1 
  460000    1.1848623    -2.957227    490.26528  0.088816174  0.092018578            3 
  461000    1.1789348   -2.9538134    495.30313  0.089534188  0.091990432            1 
  462000    1.1712018   -2.9487325    495.45865  0.089368444  0.091965028            3 
  463000    1.1710212   -2.9533738    496.29043  0.089325132  0.091938893            2 
  464000    1.1737964   -2.9784123    496.24617  0.089124671  0.091912063       -1e+20 
  465000       1.1561   -2.9307023    498.46169  0.089330052  0.091885887            1 
  466000    1.2103624   -2.9259179    498.43004  0.089132696  0.091860218            2 
  467000    1.1688571   -2.9697371      498.622  0.088976089  0.091832144            1 
  468000    1.1993655   -2.9523488    499.37769  0.088920529  0.091805796            2 
  469000    1.1548263   -2.9668796    501.09834  0.089036664  0.091778581            3 
  470000    1.1961509   -2.9639274    504.16674  0.089391265  0.091752453            1 
  471000    1.1691237   -2.9533505    506.70761  0.089651028  0.091726677            3 
  472000    1.1882657   -2.9471252    504.14864  0.089009294  0.091699434            2 
  473000    1.1546713   -2.9559306    503.90613  0.088778388  0.091671123            3 
  474000    1.1488106   -2.9681363    506.81431  0.089102375   0.09164412            1 
  475000    1.1880737   -2.9438934    508.22476  0.089162238  0.091618793            4 
  476000    1.1889561   -2.9553384    507.97327  0.088930895  0.091593111            2 
  477000     1.196964   -2.9564899    512.08423  0.089462654  0.091567644            2 
  478000      1.20128   -2.9636413    509.32964  0.088795266  0.091542869            2 
  479000     1.198213   -2.9621914    512.56689  0.089173084  0.091518437            1 
  480000    1.1721732   -2.9356734    513.02234  0.089066378  0.091494411            1 
  481000    1.1566405   -2.9394476    514.08839  0.089065903  0.091470041            2 
  482000    1.1907457   -2.9764853    513.82868  0.088836217  0.091445607            2 
  483000    1.1560241   -2.9805952    516.42291  0.089099881  0.091420683            1 
  484000    1.1476923   -2.9727967     513.5277  0.088417304  0.091395688            2 
  485000    1.1675924   -2.9440561    519.54977   0.08926972  0.091372198            1 
  486000    1.1972162   -2.9418468    518.63593  0.088929343  0.091347377            1 
  487000    1.1464233   -2.9577952    519.05542  0.088818518  0.091323183            2 
  488000    1.1360466   -2.9754523    521.67501  0.089083847  0.091300783            6 
  489000    1.1751282   -2.9593812    521.53582  0.088877952  0.091279007            2 
  490000    1.1820176   -2.9618881    524.95797  0.089278566  0.091258006            2 
  491000    1.1366366    -2.955332    524.76156  0.089063402  0.091239526            1 
  492000    1.1640923   -2.9369398     528.1728  0.089460162  0.091219286            3 
  493000    1.1811977   -2.9554886    527.75955  0.089208849  0.091198043            1 
  494000    1.1543665    -2.967947    529.43342  0.089310631  0.091178514            5 
  495000    1.1781687   -2.9439092    531.58646   0.08949267  0.091157888            2 
  496000    1.1853651   -2.9278542     532.9559  0.089542322  0.091139233            2 
  497000    1.1734467   -2.9739959    529.07657  0.088711698   0.09111923            3 
  498000    1.1452989    -2.969082    530.92075  0.088842161  0.091097342            2 
  499000    1.1631352   -2.9604736    532.30453  0.088895211  0.091074941            3 
  500000     1.156109   -2.9414988    533.29645  0.088882741  0.091052584            2 
  501000    1.1666789   -2.9714065    532.87281  0.088634865    0.0910303            1 
  502000    1.1574226   -2.9526268    535.69111  0.088926147  0.091007428            6 
  503000    1.1497282   -2.9562644    535.03108  0.088640007  0.090985416            1 
  504000    1.1854314   -2.9699146    535.49604  0.088541012  0.090962517            1 
  505000    1.1711772   -2.9669387     540.2035  0.089142492   0.09094063            3 
  506000    1.1884769    -2.959982     539.8913  0.088914904  0.090919318            3 
  507000    1.1725671   -2.9546584    543.02195    0.0892541  0.090898512            2 
  508000    1.1692753   -2.9299441    543.51702  0.089159616  0.090880306            2 
  509000    1.1852707    -2.968647    544.46714  0.089140004  0.090861815            2 
  510000    1.1679457    -2.971347    544.39773  0.088953877  0.090844615            1 
  511000    1.1475387   -2.9734055    549.34359  0.089586365  0.090828647            2 
  512000    1.1708517   -2.9384415    547.92061  0.089179786  0.090812127            4 
  513000    1.1699588   -2.9443932    550.08243   0.08935712  0.090795214            2 
  514000    1.1830273   -3.0060477    550.49998  0.089250969  0.090779617            1 
  515000    1.1594079   -2.9741198    549.94044  0.088987126  0.090765665            3 
  516000    1.1645082   -2.9848049    555.90679  0.089778228  0.090753384            2 
  517000    1.1380689   -2.9776851    552.11989  0.088994179  0.090741333            2 
  518000     1.167467   -2.9237159    555.93003  0.089435333  0.090729036            3 
  519000    1.1782599   -2.9676907    557.00303  0.089435297   0.09071634            3 
  520000    1.1496925   -2.9702324    558.24937  0.089463041  0.090703737            1 
  521000    1.2066943   -2.9780272    556.55602  0.089020476  0.090690307            2 
  522000    1.1568739   -2.9816805    558.43896  0.089150537  0.090676135            1 
  523000    1.1718094   -2.9811272    559.59642  0.089164503  0.090661475            2 
  524000    1.1778254   -2.9653864    559.36643  0.088957766  0.090644737            3 
  525000    1.1878482   -2.9579714    563.31295  0.089414754  0.090629651            2 
  526000    1.1681326   -2.9686206    563.47236  0.089270019  0.090614676            1 
  527000    1.1681326   -2.9625892    563.01122  0.089027707   0.09060116            2 
  528000    1.1597927    -2.953523    566.09644  0.089346029  0.090587631            1 
  529000    1.1685155   -2.9470761    565.88338   0.08914357   0.09057509            1 
  530000    1.1675575    -3.004222    566.96162  0.089144909   0.09056048            3 
  531000    1.1647453   -2.9463082    570.32172  0.089504351  0.090548159            3 
  532000    1.1876461   -2.9835177    568.79489  0.089096944  0.090534393            4 
  533000    1.1584533   -2.9324414    573.48754  0.089663468  0.090521755            2 
  534000    1.1509627   -2.9815311    572.03908  0.089269519   0.09050931            2 
  535000    1.1682094   -2.9403615    572.30457  0.089144014  0.090495836            1 
  536000    1.1561661   -2.9775559    573.53432  0.089168892  0.090482579            3 
  537000    1.1568625   -2.9617195    577.27028  0.089582601   0.09046932            2 
  538000    1.1848851    -2.974704    576.60814  0.089313528  0.090456699            2 
  539000    1.1931105    -2.977566    578.05909  0.089372154   0.09044471            1 
  540000    1.1487013   -2.9923889    577.80628  0.089167635  0.090433581            4 
  541000     1.168022   -2.9653888    580.60104  0.089433308  0.090423427            2 
  542000    1.1516066   -2.9770946    580.93482  0.089319622  0.090414249            1 
  543000     1.149473      -2.9572    585.59189  0.089869842  0.090405112            2 
  544000    1.1553757   -3.0085045    583.27918  0.089350364  0.090394216            2 
  545000    1.1533575   -2.9666687    583.09533  0.089158307  0.090384505            2 
  546000      1.18364   -2.9839496    582.97157  0.088976124  0.090374665            1 
  547000     1.163318   -2.9781022    585.20233  0.089153311  0.090366105            2 
  548000    1.1687174    -2.982448     585.1157  0.088977448  0.090356042            1 
  549000    1.1543253   -3.0040699    585.13779   0.08881873  0.090346326            2 
  550000     1.148428   -2.9302286    590.08991  0.089407563  0.090336552            1 
  551000     1.158067   -2.9737588    587.82135  0.088902201  0.090327851            4 
  552000    1.1877852    -2.967758    593.59521  0.089612803  0.090318815            2 
  553000    1.1627201   -2.9282032    595.94683  0.089805128  0.090310944            3 
  554000    1.1810871   -2.9768198    596.41782  0.089713872   0.09030436            2 
  555000    1.1457954   -2.9703115    594.12071  0.089207314  0.090295635            2 
  556000    1.1638972   -2.9663884    594.09263  0.089042661  0.090287569            1 
  557000    1.1493286   -2.9679538    597.90724  0.089453506  0.090279401            1 
  558000     1.161734    -2.964859    597.33494  0.089207727  0.090271962            4 
  559000    1.1460166   -2.9963661     600.0902  0.089458885  0.090261146            1 
  560000    1.1508411    -2.965595    600.61674  0.089377492   0.09025219            1 
  561000    1.1639225   -2.9903718    600.46437  0.089195539  0.090245139            1 
  562000    1.1543458   -2.9914467    601.78049  0.089231983  0.090236781            2 
  563000    1.1709496   -2.9670424    603.61888  0.089345601  0.090228968            1 
  564000     1.131811   -2.9825277    605.12873  0.089410274  0.090221557            2 
  565000    1.1715018   -3.0043032    604.81862  0.089206286   0.09021474            1 
  566000    1.1754088   -2.9698555    606.28536  0.089264629  0.090207542            2 
  567000    1.1429028   -2.9661886    611.36827  0.089854243  0.090203323            1 
  568000    1.1643693   -2.9558642    612.79113  0.089904801  0.090198419            2 
  569000    1.1830673   -2.9858711    612.36079  0.089683771  0.090194511            3 
  570000    1.1841526   -2.9989752    611.83488  0.089449544  0.090192025            1 
  571000    1.1672683    -2.982129    614.05593  0.089617036  0.090187901            1 
  572000    1.1772031   -3.0079644    615.97116  0.089739387  0.090184443            4 
  573000    1.1405633   -2.9428727    618.48493  0.089948361  0.090181177            1 
  574000    1.1706251    -2.979049    620.52194   0.09008739  0.090178167            1 
  575000    1.1650475   -3.0019766    617.52432  0.089496278  0.090173946            1 
  576000    1.1586803   -2.9743051    621.45495   0.08990957   0.09017257            2 
  577000    1.1606096    -2.991166    623.38265  0.090032157  0.090172686            5 
  578000    1.1669133   -2.9882335    621.97887  0.089674001  0.090170538            3 
  579000    1.1522291   -2.9396414    625.82693  0.090072961  0.090170158            1 
  580000    1.1678671   -2.9655457    627.13101  0.090105031  0.090169133            1 
  581000    1.1683501   -2.9757396    625.43474  0.089706646  0.090168357            3 
  582000    1.1513842    -2.961707    628.97301  0.090059137  0.090166402            2 
  583000    1.1262102   -2.9601025       632.13  0.090355917  0.090165873            2 
  584000    1.1705763   -2.9714993    631.98442  0.090180426  0.090165567            1 
  585000     1.165468   -2.9626737     631.7768  0.089996696  0.090164594            1 
  586000    1.1735282   -2.9927713    630.63295  0.089680453   0.09016231            2 
  587000    1.1239479   -2.9868904    631.72804   0.08968314  0.090160927            1 
  588000    1.1656846    -2.985737    636.55606  0.090214862  0.090159401            3 
  589000    1.1421011   -2.9924716     635.7568  0.089948613  0.090157174            1 
  590000    1.1701859   -2.9443758    638.10563  0.090127913  0.090156697            2 
  591000    1.1623926   -2.9573665    641.22307  0.090414985  0.090156944            2 
  592000    1.1496031   -3.0141869    641.15573  0.090252777  0.090156405            1 
  593000    1.1594511   -2.9784529    639.92392  0.089927476  0.090158107            4 
  594000    1.1534861   -2.9909451    643.12016  0.090224489  0.090158653            1 
  595000     1.153829   -2.9752749    642.81011  0.090029427  0.090158374            1 
  596000    1.1495983   -2.9559968    645.04957  0.090191495  0.090158274            2 
  597000     1.138883   -2.9866331    645.49038  0.090101952   0.09015823            2 
  598000    1.1404803    -2.968286    647.13811  0.090180897  0.090158274            2 
  599000    1.1612582   -2.9685787    648.40273  0.090206278  0.090157885            1 
  600000    1.1521478   -2.9614557    649.46044  0.090202839  0.090157872            2 
  601000    1.1753003   -2.9872078    646.91095  0.089699245   0.09015839            2 
  602000    1.1564957   -2.9628723    652.79513  0.090364774  0.090159824            3 
  603000    1.1384459   -2.9982654    650.07449  0.089838928  0.090160123            1 
  604000    1.1325113   -2.9793509    652.84014  0.090071764  0.090159209            1 
  605000     1.163751   -2.9689258    651.51652  0.089740567  0.090158648            4 
  606000    1.1379023   -2.9743955    656.41496  0.090266083  0.090158765            2 
  607000    1.1697168   -3.0104939     656.4061  0.090116158  0.090159468            2 
  608000    1.1751307   -2.9620823    659.35829  0.090372572  0.090159989            1 
  609000    1.1806247    -2.982289    657.29886  0.089942373  0.090159404            2 
  610000    1.1494656   -2.9796404     659.2659  0.090063648  0.090158526            2 
  611000    1.1273885   -2.9445219    662.24293  0.090322276  0.090157429            2 
  612000    1.1395565   -2.9765036    661.04712  0.090011863  0.090156268            1 
  613000    1.1571902   -2.9610779     662.3913  0.090047757  0.090155382            5 
  614000    1.1606268   -2.9773821    663.09305  0.089996342    0.0901527            4 
  615000    1.1321706   -2.9896995    660.31836  0.089474033  0.090149093            2 
  616000    1.1537026   -2.9836031    664.55283  0.089901628  0.090146027            1 
  617000    1.1532879   -2.9794512    662.82178  0.089522121  0.090142983            2 
  618000    1.1786773   -2.9901675    664.74706  0.089636874  0.090140281            2 
  619000    1.1495705   -2.9507187    668.11486  0.089945458   0.09013775            1 
  620000    1.1329645   -2.9826704    669.10508  0.089933478  0.090135112            2 
  621000    1.1397366   -2.9488848    670.35556  0.089956462  0.090133309            2 
  622000    1.1301187    -2.985089    672.30183  0.090072593  0.090132631            2 
  623000    1.1556388   -2.9625264    675.36599  0.090337879  0.090130486            2 
  624000    1.1341041   -3.0034878    671.14431  0.089629315  0.090127981            2 
  625000    1.1271807   -2.9963642    670.63436  0.089417914  0.090124548            1 
  626000    1.1477934   -3.0054862    674.66346   0.08981143  0.090121421            3 
  627000    1.1552412   -2.9727824    677.01783  0.089981104  0.090119775            3 
  628000    1.1615181   -2.9969179    677.61272  0.089916762  0.090117052            1 
  629000    1.1575041   -2.9944482    678.98458  0.089955562  0.090116749            2 
  630000    1.1584262   -3.0018878    677.79226  0.089655061  0.090115901            1 
  631000    1.1387501   -2.9819918    681.25544  0.089970343  0.090113624            2 
  632000    1.1554249   -2.9583721    681.37205  0.089843361  0.090113109            1 
  633000    1.1319761   -2.9491073    683.19904  0.089941948  0.090110056            3 
  634000    1.1450733   -2.9824367    684.47893  0.089968313  0.090106995            1 
  635000     1.139586   -2.9809448    685.75052  0.089993507  0.090106262            1 
  636000    1.1575745   -2.9432716    687.20682  0.090042823  0.090105111            2 
  637000    1.1495564   -2.9978884    685.65526  0.089698491  0.090102781       -1e+20 
  638000    1.1514651   -2.9556878    686.42648  0.089658632  0.090099008            2 
  639000    1.1600951   -2.9973773     688.4594  0.089783437  0.090097302            2 
  640000    1.1519239    -2.998734    688.43261  0.089639662  0.090093894            1 
  641000    1.1823251    -2.958531    691.25952  0.089867333  0.090090376            3 
  642000    1.1444469   -3.0271769    689.04176   0.08943948  0.090089324            4 
  643000    1.1439387   -3.0026181    692.67956  0.089771845  0.090087443            1 
  644000    1.1583474   -2.9755693    692.37253  0.089592718   0.09008613            3 
  645000    1.1303325   -2.9870561    696.67353    0.0900095  0.090084789            2 
  646000    1.1524947   -2.9915904    696.64056  0.089865913  0.090082906            2 
  647000      1.14898   -2.9828965    696.50808  0.089709954  0.090081207            1 
  648000    1.1620189   -3.0035693    696.74223  0.089601624  0.090077615            2 
  649000      1.13366   -3.0092213    699.41398  0.089806623  0.090074671            2 
  650000    1.1479406   -2.9958149    697.57308  0.089432446  0.090071552            1 
  651000    1.1382925   -2.9740252    703.98863  0.090116312  0.090069138            5 
  652000    1.1656269   -2.9864414    702.14578  0.089742559  0.090066565            1 
  653000    1.1432035   -2.9912631    704.83681  0.089948547  0.090062624            3 
  654000    1.1621295   -2.9827042    705.42292  0.089885693  0.090061121            2 
  655000    1.1163033   -2.9979404    705.73347  0.089787973  0.090057378            2 
  656000    1.1226802    -2.997995    703.85853  0.089412923  0.090053729            4 
  657000    1.1355275   -2.9839565    708.58098  0.089875822  0.090048733            2 
  658000       1.1578   -3.0147825    703.50036   0.08909579  0.090043735            1 
  659000    1.1646704   -2.9784174    710.93479  0.089900706  0.090038348            1 
  660000    1.1365992   -2.9639957    710.50066   0.08970968  0.090033025            2 
  661000    1.1332097   -2.9954648    710.46652  0.089569658  0.090027452            1 
  662000    1.1347584   -2.9632885    708.56958  0.089195566  0.090022404            1 
  663000    1.1544219   -2.9870136    710.83103  0.089345277  0.090017699            2 
  664000    1.1581247   -2.9707906    711.29723  0.089269231  0.090011195            1 
  665000    1.1434714   -2.9736282    712.75277   0.08931739  0.090005712            2 
  666000    1.1628817   -2.9917361    715.80447  0.089565124  0.090001035            2 
  667000    1.1622363   -2.9922815    715.12711  0.089346215  0.089995106            5 
  668000    1.1212748   -2.9909482    715.77364  0.089293119  0.089989434            5 
  669000     1.153262   -2.9831559    719.46795  0.089619825  0.089984308            7 
  670000    1.1628758   -3.0110734    719.16702  0.089448634  0.089979631            3 
  671000     1.145278   -2.9688401    720.95545  0.089537438  0.089973833            1 
  672000    1.1425096   -3.0369939    712.95164  0.088411662  0.089967737            4 
  673000     1.178858   -3.0050141    723.35201  0.089568105  0.089960289            2 
  674000    1.1460728   -3.0089188     720.7775  0.089116901  0.089955687            4 
  675000    1.1376508   -2.9883109    722.71609  0.089224208  0.089948191            3 
  676000    1.1393525   -2.9768133    725.17146  0.089394904  0.089941445            2 
  677000    1.1502407   -2.9531877    726.39585   0.08941357  0.089935107            1 
  678000    1.1499178   -3.0039637    724.85892  0.089092787  0.089927754            1 
  679000    1.1455731   -2.9949878    726.80657   0.08920061  0.089920224            1 
  680000    1.1422956   -2.9867361    730.83015  0.089562518  0.089914189            2 
  681000    1.1415777   -2.9731898    731.68098  0.089535117  0.089908852            2 
  682000    1.1291312   -3.0079553    731.25819  0.089352173  0.089902971            2 
  683000    1.1338359   -3.0032529    729.85452  0.089050088  0.089896965            3 
  684000    1.1208771   -2.9912022    732.60026  0.089254417  0.089890851            2 
  685000    1.1315983   -2.9699001    736.43944  0.089591172  0.089884958            2 
  686000    1.1652977   -2.9943757     733.3805  0.089088983  0.089879374            2 
  687000    1.1407965   -2.9747552    733.99969  0.089034412  0.089873074            5 
  688000     1.146658   -2.9713163    735.76099  0.089118337  0.089865744            2 
  689000    1.1495083   -3.0114127    733.08688  0.088665563  0.089858664            1 
  690000    1.1461551   -3.0061193    737.64983  0.089088143  0.089852599            1 
  691000    1.1214852   -3.0008418    742.74193  0.089573315  0.089846278            1 
  692000    1.1310435   -3.0320357     736.8861  0.088738692  0.089839161            1 
  693000    1.1362702   -3.0144866    740.83573  0.089085586  0.089831805            2 
  694000    1.1341507   -2.9762877    743.84098  0.089318081  0.089826024            1 
  695000    1.1061826   -2.9909586    744.70676  0.089293376   0.08981973            3 
  696000    1.1347438   -3.0188685    744.64199  0.089157327  0.089814977            1 
  697000    1.1521949   -2.9753482    747.88753  0.089417448  0.089809424            2 
  698000    1.1452602   -2.9974105    749.00422  0.089422662  0.089803943            1 
  699000    1.1232669   -2.9680729    746.73408  0.089024092  0.089796112            2 
  700000    1.1671528   -3.0067166    751.24271  0.089433655  0.089789352            2 
  701000    1.1240316   -2.9864974    747.84797  0.088902516  0.089782123            1 
  702000    1.1507734   -3.0287406    749.07449  0.088921473  0.089774923            1 
  703000    1.1591827   -3.0050218    752.99019   0.08925915  0.089766923            2 
  704000    1.0986862   -3.0071652    748.03053  0.088545281  0.089758896            3 
  705000    1.1595388   -2.9840041    754.00785  0.089126224  0.089750661            1 
  706000     1.142921   -2.9765757    752.94042  0.088873987  0.089742222            2 
  707000    1.1215747   -2.9621504    757.27129  0.089258757  0.089733855            2 
  708000    1.1405749   -3.0147955    752.13327  0.088527927  0.089724888            2 
  709000    1.1198139   -2.9924583    752.28846  0.088421304  0.089715742            2 
  710000    1.1268696   -2.9501448    759.16094  0.089103396  0.089706764            5 
  711000    1.1290274   -3.0145848    753.62671  0.088329432  0.089698628            2 
  712000    1.1243592    -3.013566    759.21439  0.088859362  0.089689433            1 
  713000    1.1448518   -2.9976837      757.543  0.088539387   0.08967981            1 
  714000    1.1538538   -2.9922159      759.493  0.088642974  0.089670798            1 
  715000    1.1235071   -3.0096302     761.3263  0.088732669  0.089661068            2 
  716000    1.1473142   -3.0174055    762.85331  0.088786465  0.089651188            2 
  717000    1.1563516   -2.9903691    760.90086  0.088435711  0.089640678            2 
  718000    1.1424359   -2.9865487    763.04539  0.088561443  0.089630459            2 
  719000    1.1369366   -2.9865225    764.75206  0.088636076  0.089619163            4 
  720000    1.1215244   -2.9964741    766.10066  0.088669057  0.089607963            1 
  721000    1.1172377   -2.9818974      767.095  0.088661003  0.089598407            1 
  722000    1.1141993   -3.0091105    767.85195  0.088625571  0.089587751            1 
  723000    1.1312775   -3.0447902     766.5197  0.088349435  0.089578309            3 
  724000    1.1301643   -3.0002135    769.12881  0.088527717  0.089569212            1 
  725000    1.1444398   -3.0088157    770.61996  0.088577007  0.089560328            2 
  726000    1.1216086   -3.0370342    771.90829   0.08860288  0.089550821            2 
  727000    1.1437598   -2.9901914    773.45952  0.088658817  0.089541366            1 
  728000    1.1474197   -2.9867981    774.29113  0.088632226  0.089532749            1 
  729000    1.1232683   -2.9953967    775.83884  0.088687568  0.089523501            5 
  730000    1.1203616   -3.0071074    773.98804  0.088354799   0.08951438            1 
  731000    1.1253771   -2.9834362    778.10548  0.088703315  0.089504359            2 
  732000    1.1476283   -3.0010223    775.00494  0.088229159  0.089492934            2 
  733000    1.1467914   -2.9972692    778.28939  0.088482196  0.089481916            3 
  734000    1.1239208   -2.9887714    777.43259  0.088264372  0.089471179            1 
  735000    1.1436981   -2.9991894    777.25244  0.088123859  0.089460432            2 
  736000    1.1475981   -3.0099138    780.86563  0.088413228  0.089449074            4 
  737000    1.1459783   -3.0157942    778.07085  0.087977256  0.089437638            1 
  738000     1.142198   -3.0051231    784.88639  0.088627641  0.089427213            2 
  739000    1.1186985   -3.0016265    782.49076  0.088237569  0.089416243            2 
  740000    1.1333889   -3.0193254    783.22898  0.088201462  0.089404867            2 
  741000    1.1384979   -3.0151436    783.68547  0.088133769  0.089393902            1 
  742000    1.1314615   -2.9908746    787.77615  0.088474411  0.089382705            2 
  743000    1.1240387   -3.0001966    788.85555  0.088476396  0.089372026            1 
  744000    1.1651042    -3.007312    789.96668  0.088481931  0.089360615            1 
  745000    1.1381352   -2.9945244    789.15341  0.088272193  0.089350544            1 
  746000    1.1434092   -3.0057852    786.51242   0.08785885  0.089340731            2 
  747000    1.1246377   -2.9968152     790.6493  0.088202734  0.089329749            3 
  748000    1.1089108   -3.0087067    791.35297   0.08816321  0.089317365            2 
  749000    1.1446774   -2.9821721    794.09938  0.088351066  0.089305455            1 
  750000    1.1153639   -2.9858118    793.95294  0.088216994  0.089293508            1 
  751000    1.1557601   -3.0052377    793.17539  0.088013248  0.089280932            1 
  752000    1.1131208   -3.0285461     797.1764  0.088339584  0.089269904            2 
  753000    1.1461271   -3.0018722    796.00645   0.08809279  0.089259466            2 
  754000    1.1259403   -3.0206996      795.036    0.0878687  0.089248052            5 
  755000    1.1214982   -3.0172913    795.94024  0.087852123  0.089237088            2 
  756000    1.1055455    -3.001199    799.45898  0.088123785  0.089225171            3 
  757000    1.1209846   -2.9851191    801.66491   0.08825021  0.089214688            2 
  758000    1.1293781   -3.0113199    801.70506  0.088138199  0.089204667            2 
  759000    1.1490203   -2.9760607    804.83398  0.088365611  0.089194547            1 
  760000    1.1046589   -3.0178314    804.27812   0.08818839  0.089183876            4 
  761000    1.1541296   -3.0005968    801.72701  0.087793146  0.089173396            1 
  762000    1.1396281   -3.0059762    805.62967  0.088104732  0.089161815            1 
  763000    1.1680751   -3.0025634    807.86957  0.088233898  0.089150833            1 
  764000    1.1109455   -3.0107898    810.56886  0.088412833  0.089139825            5 
  765000    1.1301272   -2.9999109    810.66549  0.088307788  0.089129275            2 
  766000    1.1448408   -3.0337523    807.43606  0.087841173  0.089118079            6 
  767000     1.127924   -3.0208853    809.75906  0.087979037  0.089107301            2 
  768000    1.1099724   -2.9841935    811.55731  0.088059604  0.089096419            1 
  769000    1.1373135   -3.0138245    814.14693  0.088225718   0.08908616            2 
  770000    1.1616131   -3.0044343     815.0592   0.08820987  0.089076134            3 
  771000    1.1415613   -3.0011436    815.09606  0.088099444  0.089065376            2 
  772000    1.1121043   -3.0042615    817.71887  0.088268445  0.089055723            2 
  773000    1.1303357   -3.0012515    819.24651  0.088318943   0.08904711            2 
  774000     1.127391   -2.9984046    819.10582  0.088189688  0.089037322            2 
  775000    1.1217606   -3.0172836    819.86283  0.088157294  0.089027277            2 
  776000    1.1234392   -3.0290049    819.74068  0.088030571  0.089016756            2 
  777000    1.1298526    -3.012369    822.86699  0.088252572  0.089006483            1 
  778000    1.1475603   -2.9921337    819.91846  0.087823314  0.088997067            4 
  779000    1.1127261   -3.0192646    827.19447  0.088488925  0.088987014            2 
  780000    1.1396896   -3.0500484    820.43143   0.08765293  0.088976941            4 
  781000    1.1575743   -3.0209239    823.50269  0.087868405  0.088966612            1 
  782000      1.12701   -3.0531935    823.84599  0.087792625  0.088956902            2 
  783000    1.1346664   -3.0083014     830.3557  0.088373319  0.088947365            2 
  784000    1.1213423   -3.0045594    828.49405  0.088062718  0.088937445            2 
  785000    1.1366658   -3.0013441    830.91069   0.08820708  0.088928131            5 
  786000    1.1313352   -3.0248441    828.90056  0.087881739   0.08891801            1 
  787000    1.1054432   -2.9960852    831.64877  0.088061073  0.088907704            1 
  788000    1.1246081   -3.0392239    831.99996  0.087986459  0.088896508            2 
  789000    1.0806953   -3.0196344    832.18331  0.087894308  0.088886029            3 
  790000     1.143745   -3.0077625     833.9076  0.087964937  0.088875705            2 
  791000    1.1294329    -3.028963     834.0011   0.08786358  0.088865996            2 
  792000    1.1499069   -3.0094923    836.78795   0.08804587  0.088855544            2 
  793000    1.1221575   -3.0170735    835.93939   0.08784567  0.088844657            2 
  794000    1.1287098   -3.0104063    839.19558  0.088076782  0.088834845            1 
  795000    1.1226944   -2.9842008    842.38888  0.088300721  0.088826212            1 
  796000    1.1366882   -3.0185862    840.14058  0.087954416  0.088816139            1 
  797000    1.1225342   -3.0474617    839.36291  0.087762747   0.08880547            2 
  798000    1.1046526   -2.9739414     842.9496  0.088027318  0.088796562            2 
  799000     1.122372   -3.0294722    844.49283  0.088078101  0.088786984            1 
  800000    1.1075824   -3.0234651    845.92912  0.088117616  0.088778099            4 
  801000    1.1414829   -3.0133603    845.18626  0.087930322  0.088769226            2 
  802000    1.1457494    -3.019456    848.25858  0.088139919  0.088758552            3 
  803000    1.1090633   -3.0251681    847.98549  0.088001815  0.088748102            2 
  804000    1.1260179   -3.0361564    843.33918  0.087410778  0.088737728            3 
  805000    1.1145438    -3.002415     846.3043   0.08760914  0.088727367            1 
  806000    1.1166683   -3.0181873    847.55043  0.087629283  0.088716906            2 
  807000    1.1062715   -3.0262802    848.79486  0.087649201  0.088706904            1 
  808000    1.1415825   -3.0297083    848.28483  0.087488122  0.088695622            3 
  809000    1.1036446   -3.0447915    852.24655  0.087788066  0.088683874            2 
  810000    1.1241693   -2.9998008    853.10517  0.087768022   0.08867254            2 
  811000    1.1244123   -3.0112538    853.67331  0.087718179  0.088661319            2 
  812000    1.1051858   -3.0412064    853.45875  0.087588131  0.088649929            1 
  813000    1.1207422   -3.0231942    853.42245  0.087476676  0.088638258            1 
  814000    1.1162592   -3.0206534    855.32195  0.087563673  0.088626828            3 
  815000    1.1216137   -3.0344219     854.6018  0.087382597  0.088615791            4 
  816000     1.144295    -3.028124    859.74849  0.087801113  0.088605514            2 
  817000    1.1059649   -2.9829816     863.6531  0.088091911  0.088595494            2 
  818000     1.119443   -3.0186899    863.40056  0.087958492  0.088586828            1 
  819000     1.140332    -3.047529    864.36313  0.087949037  0.088578016            3 
  820000    1.1070523   -3.0188288    863.02688  0.087705983  0.088568866            2 
  821000    1.1385637   -3.0365596    864.42334  0.087740899    0.0885588            3 
  822000    1.1359031   -3.0469894    860.01255  0.087186998   0.08854936            3 
  823000    1.1189389    -3.042886    864.74825  0.087560576  0.088539257            1 
  824000    1.1262328   -3.0053378    866.65569  0.087647217  0.088527888            1 
  825000    1.1301863   -3.0067968    869.96031  0.087874779  0.088517798            1 
  826000    1.1206751    -3.069617    864.88854  0.087256713  0.088507431            2 
  827000    1.1242439   -3.0072513    867.94989  0.087459683  0.088496764            2 
  828000    1.1359506   -3.0253312    871.35328  0.087696586  0.088487289            2 
  829000    1.1092646   -3.0310398    871.37912  0.087593397  0.088478467            1 
  830000    1.1020051   -3.0500154    873.02175  0.087652786  0.088469685            2 
  831000    1.0981704   -3.0259805    875.33537  0.087779319   0.08846116            1 
  832000    1.1265645   -3.0170986    875.15214  0.087655463  0.088453471            1 
  833000    1.1140859   -3.0283997    873.33412   0.08736836  0.088444546            2 
  834000    1.1197589   -3.0259356    877.03945  0.087633838  0.088435225            2 
  835000    1.0882273   -3.0127609    880.27986  0.087852281  0.088426693            3 
  836000    1.1141313   -3.0444589    880.67854  0.087786935  0.088418362            2 
  837000     1.109524   -3.0354359    880.22507  0.087636905  0.088409777            2 
  838000    1.1144756   -3.0186921    883.27164  0.087835286  0.088401832            3 
  839000    1.1064453   -3.0148923    883.73161  0.087776283  0.088392899            2 
  840000    1.0900604   -3.0353461    885.60257  0.087857398  0.088384518            3 
  841000    1.1254023   -3.0273986    888.96706  0.088086312  0.088375488            3 
  842000    1.1343946     -3.00305    884.03372   0.08749344  0.088367296            1 
  843000    1.1217245   -3.0452891    886.52686  0.087636108   0.08835802            2 
  844000    1.1135247   -3.0383182    887.47147   0.08762554  0.088349607            1 
  845000    1.1179992   -3.0270794    887.01781  0.087477102  0.088340832            2 
  846000    1.1195056   -3.0373023    886.04058  0.087277441  0.088332388            3 
  847000    1.1468676   -3.0568321    889.48461  0.087513244  0.088323507            1 
  848000     1.106391   -3.0227123    887.94187  0.087258439  0.088315012            1 
  849000    1.1016881   -3.0318542    893.80579  0.087731232  0.088306704            3 
  850000    1.0715464   -3.0286916    897.11639  0.087952587   0.08829942            1 
  851000    1.1167652   -3.0252386    895.30372  0.087671731  0.088292552            4 
  852000    1.1320786   -3.0240922    896.70976  0.087706353  0.088284704            3 
  853000    1.1064231   -3.0245211    898.82433  0.087810115  0.088277399            4 
  854000    1.0914862   -3.0297439    901.50211   0.08796859  0.088270376            1 
  855000    1.0836583    -3.017078    900.76032  0.087793403  0.088264102            2 
  856000    1.1262603    -3.025617    907.64642  0.088361217  0.088258344            3 
  857000    1.1232708   -3.0354694    904.91636  0.087992644  0.088252659            3 
  858000    1.1144959   -3.0252792    907.57029  0.088147852  0.088246744            1 
  859000    1.1103239   -3.0465165     904.7992  0.087776406  0.088240552            1 
  860000    1.1177612   -3.0484813    908.47458  0.088030483  0.088233956            3 
  861000    1.1325137   -3.0222425    909.39694  0.088017513  0.088227885            5 
  862000    1.1292532   -2.9769609    910.28458  0.088001216  0.088221729            2 
  863000    1.1270804   -3.0206929    908.17665  0.087695698  0.088215431            1 
  864000    1.1031233   -3.0471649    913.93031  0.088149143   0.08820972            1 
  865000    1.1058396    -3.014248    915.50592  0.088199029  0.088203826            2 
  866000    1.1032337   -3.0130492    913.13597  0.087869127  0.088197531            2 
  867000    1.0995468   -3.0637881    913.31576   0.08778506  0.088191905            3 
  868000    1.1549946   -3.0236709    915.82324  0.087924658  0.088186437            4 
  869000    1.1318679   -3.0439238    916.16878  0.087856615  0.088181133            1 
  870000    1.1288056   -3.0283797    918.45271  0.087974398  0.088176183            1 
  871000    1.1359381   -3.0342971    919.66541  0.087989419   0.08817068            1 
  872000    1.1187927   -3.0270317    923.27083  0.088233069  0.088166449            1 
  873000    1.1292936   -3.0738252    922.22745  0.088032403  0.088161841            3 
  874000    1.1011166    -3.040265    922.51199  0.087958809  0.088156055            1 
  875000    1.1084314   -3.0623183    924.07096  0.088006758  0.088150867            3 
  876000    1.0878594   -3.0473265    921.51281  0.087662938  0.088144918            1 
  877000    1.1135603    -3.030516    926.77232  0.088062745  0.088139519            5 
  878000    1.1222399   -3.0133655    928.10698  0.088089121  0.088134802            1 
  879000    1.1221833    -3.002559    928.49832  0.088026007  0.088129325            1 
  880000    1.1253738   -3.0359079    930.05658   0.08807354  0.088123708            1 
  881000    1.0782094   -3.0115962     927.7901  0.087759185  0.088119066            2 
  882000    1.0977138   -3.0255867    936.35996  0.088469384  0.088113736            2 
  883000    1.1159854   -3.0323565    930.95453  0.087859054  0.088108594            1 
  884000    1.1032417   -3.0223685    929.41205  0.087614258  0.088103199            1 
  885000    1.0879446   -3.0138015    932.38153  0.087794871  0.088097573            1 
  886000    1.0826735   -3.0507519    929.81759  0.087454626  0.088091955            1 
  887000    1.1197833   -3.0247604    933.71927  0.087722592  0.088086114            1 
  888000    1.1149499   -3.0442823    930.97516  0.087366287  0.088079926            2 
  889000    1.1145757    -3.059119    934.56422  0.087604445  0.088071568            2 
  890000    1.0890382   -3.0501487    934.09639  0.087462209  0.088063165            1 
  891000    1.0964935    -3.017184    936.69909  0.087607472  0.088055484            2 
  892000    1.1223465   -3.0232316    938.00237  0.087631013  0.088047516            3 
  893000    1.0777681    -3.047991    937.85266  0.087518911  0.088039364            4 
  894000    1.0956267   -3.0477062    938.01331   0.08743599  0.088031733            3 
  895000    1.1236017   -3.0526628    936.80161  0.087225476  0.088022917            2 
  896000    1.1220074   -3.0785877    937.13439  0.087159077  0.088014094            3 
  897000    1.1073778   -3.0300635    942.84512  0.087592449  0.088006089            1 
  898000    1.1234139   -3.0478362    940.10226  0.087240373  0.087997564            2 
  899000    1.1042666   -3.0545957    940.86251  0.087213803  0.087989331            1 
  900000    1.1023092   -3.0586333    941.92413  0.087215198  0.087981025            2 
  901000    1.0881381   -3.0406965    944.65846  0.087371297  0.087971757            2 
  902000    1.1175395    -3.020048    944.33872  0.087244893  0.087962723            3 
  903000    1.0947425    -3.057657    944.51392  0.087164444  0.087952975            3 
  904000    1.1139785   -3.0366661    944.70748  0.087085867  0.087942893            1 
  905000    1.1017751   -3.0602483    948.43584   0.08733295  0.087932767            3 
  906000    1.0914155   -3.0710532    943.59512   0.08679131   0.08792369            3 
  907000    1.1104727    -3.030546    945.32029  0.086854124   0.08791508            4 
  908000     1.107719   -3.0197677    947.39464  0.086948847  0.087906535            5 
  909000    1.0818873   -3.0171775    952.49562  0.087320831  0.087898581            1 
  910000    1.1152039   -3.0413795    950.53164  0.087045022  0.087889632            2 
  911000    1.1028546   -3.0413754    948.43429  0.086757619  0.087882065            2 
  912000     1.112828   -3.0504355    951.84872   0.08697448  0.087873533            2 
  913000    1.1072264   -3.0439074    954.61715  0.087131905  0.087865938            2 
  914000    1.1114873   -3.0479805    957.51924   0.08730117  0.087856831            2 
  915000    1.1425125    -3.052579    956.81358  0.087141491  0.087848814            4 
  916000    1.1057499   -3.0562126    954.53868    0.0868394   0.08784064            3 
  917000    1.0976488   -3.0296808    955.30901  0.086814704  0.087831893            2 
  918000    1.0977163   -3.0315792    957.23087  0.086894596  0.087823452            1 
  919000    1.0963219   -3.0496587    959.70763  0.087024631  0.087814399            1 
  920000    1.0880498   -3.0253715    961.56549  0.087098324  0.087804931            3 
  921000    1.0966722   -3.0447645    962.55705  0.087093471  0.087795429            5 
  922000    1.1064375   -3.0441947    960.13454  0.086780056  0.087785976            1 
  923000    1.1211609    -3.044955    957.98608  0.086492062   0.08777442            3 
  924000    1.0710227   -3.0662009    964.56846  0.086992105  0.087763736            2 
  925000    1.0912962   -3.0201969     964.3916  0.086882126  0.087753564            3 
  926000    1.1037498    -3.022268    968.31961  0.087141794  0.087743746            2 
  927000    1.0926682   -3.0435948    967.47153   0.08697155  0.087733808            1 
  928000    1.0996026   -3.0444726    966.40159  0.086781752  0.087723804            2 
  929000    1.1058846   -3.0542575    965.97683  0.086650236  0.087713798            1 
  930000    1.1191397   -3.0788585    967.40849  0.086685349  0.087703919            2 
  931000     1.110453   -3.0319803    974.24163   0.08720387  0.087694767            3 
  932000     1.095312   -3.0143289    972.09388  0.086918265  0.087685917            2 
  933000     1.097276   -3.0506086    973.12383  0.086917098  0.087677224            2 
  934000    1.0904918   -3.0410468     972.0177  0.086725348  0.087667299            3 
  935000    1.0993902   -3.0058766     976.8324  0.087061712  0.087658168            3 
  936000    1.0911021   -3.0188697    971.76537  0.086517572  0.087648727            2 
  937000    1.1089441   -3.0589266    976.26139  0.086825097  0.087637992            2 
  938000    1.0900807   -3.0459488    974.03152  0.086534427  0.087627796            1 
  939000    1.1061549   -3.0420434    979.34955  0.086914231   0.08761875            2 
  940000    1.1018513   -3.0323307    980.06629  0.086885309  0.087609854            2 
  941000    1.0876711   -3.1004022    979.35945  0.086730379  0.087600549            3 
  942000    1.0987787   -3.0647037    977.45638  0.086469955   0.08759012            2 
  943000    1.0988539    -3.047622    981.62217  0.086746392  0.087580526            1 
  944000    1.1260011   -3.0516444    980.26703  0.086534872  0.087570398            2 
  945000    1.0856856   -3.0408132    981.51967  0.086553763  0.087560051            2 
  946000    1.1121441   -3.0620625    988.71773  0.087096347  0.087550365            1 
  947000    1.0839567   -3.0414814    988.07735  0.086948025  0.087540683            2 
  948000    1.1031064   -3.0519869    987.45929  0.086801977  0.087530995            1 
  949000     1.113413   -3.0470115    986.96298  0.086666928    0.0875209            2 
  950000    1.1000197   -3.0780938    986.20609  0.086509306  0.087510164            3 
  951000    1.1165875   -3.0424745    989.90638  0.086742585  0.087500516            3 
  952000    1.1024827    -3.043796    989.19657  0.086589336  0.087490786            2 
  953000     1.098673   -3.0628736    990.73404  0.086632917  0.087480598            3 
  954000    1.0918137   -3.0416909    992.55647  0.086701299   0.08747092            3 
  955000     1.092952   -3.0500074    996.83841  0.086984155  0.087461946            1 
  956000    1.0818053   -3.0383847    994.65794  0.086703098  0.087452674            4 
  957000    1.1158526   -3.0662292    991.48805  0.086336473  0.087443929            2 
  958000    1.1132771   -3.0310926    994.06683   0.08647067  0.087434443            2 
  959000     1.096554    -3.022376    996.64469  0.086604509  0.087424869            1 
  960000    1.0720293   -3.0339889    1001.2806  0.086916717  0.087415855            3 
  961000    1.0787519   -3.0650305     999.4698  0.086669251   0.08740677            2 
  962000    1.1179982   -3.0480844    998.84902  0.086525383   0.08739731            3 
  963000    1.0862015    -3.053821    1003.4687  0.086835301  0.087387799            1 
  964000    1.0991127   -3.0536115    1004.7113  0.086852635  0.087378372            1 
  965000    1.1057417   -3.0453884    1003.7381  0.086678592   0.08736868            3 
  966000    1.1018631   -3.0221263    1007.2366  0.086890663  0.087359776            2 
  967000     1.111448   -3.0653371    1003.6509  0.086491801  0.087349937            2 
  968000    1.0988612    -3.050556    1003.5037  0.086389782  0.087339702            2 
  969000    1.0818348   -3.0539874     1004.268  0.086366361  0.087330035            3 
  970000    1.0888474   -3.0469309    1004.8147   0.08632429  0.087321186            2 
  971000    1.1027732   -3.0450009    1013.8857  0.087013879  0.087311491            2 
  972000    1.0629646   -3.0335206    1011.5747  0.086726226  0.087301235            2 
  973000    1.0934893   -3.0510098    1009.7629  0.086481922  0.087291754            3 
  974000    1.1155515   -3.0480938    1010.7221  0.086475194  0.087282017            1 
  975000    1.1241376   -3.0484552     1015.161  0.086765901  0.087272069            1 
  976000    1.0964417    -3.058734     1014.438  0.086615266    0.0872632            1 
  977000    1.0851061   -3.0367886    1015.1881  0.086590594  0.087253434            3 
  978000    1.0927563   -3.0473701    1016.6599  0.086627465  0.087243482            2 
  979000    1.0935624     -3.07725     1018.434  0.086689993  0.087233755            1 
  980000    1.0836022   -3.0523368    1016.1255  0.086405227  0.087224233            2 
  981000    1.0849309   -3.0387101    1017.5475  0.086437944  0.087214535            3 
  982000    1.0811744   -3.0618365    1017.3211  0.086330712  0.087203811            1 
  983000    1.0812955   -3.0401904    1014.9594  0.086042678  0.087193088            3 
  984000    1.0888537   -3.0627794    1018.2802  0.086236463  0.087182381            2 
  985000     1.066516   -3.0290573    1022.6583  0.086519317  0.087171231            3 
  986000    1.0979143   -3.0547066    1022.9574  0.086456843  0.087160787            1 
  987000    1.0937021   -3.0574935    1020.7206  0.086180397   0.08715004            2 
  988000    1.0845791   -3.0612694    1023.7388  0.086347743  0.087138176            2 
  989000    1.0909438   -3.0818242    1016.5917  0.085658217  0.087127066            2 
  990000    1.1134513   -3.0437394    1023.6326  0.086164362   0.08711589            2 
  991000    1.1050279   -3.0462033    1020.7296  0.085833303  0.087105028            3 
  992000    1.0888647   -3.0698692    1023.5772  0.085985988  0.087093468            2 
  993000    1.1119948   -3.0641624    1019.8001  0.085582422  0.087082618            1 
  994000    1.0906464   -3.0465204    1025.2973  0.085957185  0.087071299            4 
  995000    1.0855658     -3.04741    1027.5138   0.08605643  0.087059566            3 
  996000    1.0792237   -3.0726915    1027.3243  0.085954179   0.08704901            2 
  997000    1.0856206   -3.0531188     1031.912  0.086251421  0.087038266            2 
  998000    1.0843304   -3.0466025    1034.9555  0.086419131  0.087028895            3 
  999000    1.1065261   -3.0808398    1034.9486  0.086332048  0.087019166            1 
 1000000    1.0588928   -3.0633494    1028.8377  0.085736471  0.087008413            1 
 1001000    1.0891316   -3.0301534    1037.5163  0.086373319  0.086998197            3 
 1002000    1.1152465   -3.0492098     1034.872  0.086067202  0.086987756            2 
 1003000    1.0684639   -3.0533351    1030.6958  0.085634412  0.086976552            1 
 1004000    1.0835388   -3.0301461    1035.3057   0.08593175  0.086965497            2 
 1005000    1.0872524   -3.0760217    1037.6076  0.086037118  0.086954471            4 
 1006000    1.1107178   -3.0703401    1032.3562  0.085516585  0.086943798            2 
 1007000    1.0832809   -3.0311324    1041.6804  0.086203279  0.086933206            4 
 1008000    1.1193134   -3.0561921    1040.4654  0.086017314  0.086923278            3 
 1009000    1.0790817   -3.0480272    1042.4428  0.086095372  0.086913561            1 
 1010000    1.0897759    -3.054192    1041.0539  0.085895538  0.086903424            1 
 1011000    1.0979215   -3.0480428    1043.4825  0.086010755  0.086894359            3 
 1012000    1.1098606   -3.0783776    1045.0856   0.08605777  0.086884239            1 
 1013000    1.0840488   -3.0653932    1043.1602  0.085814425  0.086873883            3 
 1014000    1.0817118   -3.0515585     1046.679  0.086018986  0.086863739            4 
 1015000    1.0883123   -3.0658762    1048.8419  0.086111813  0.086854188            4 
 1016000    1.0775129   -3.0783036     1051.779  0.086267966  0.086843978            2 
 1017000    1.0761476   -3.0424414    1055.2926   0.08647104  0.086833556            1 
 1018000    1.0993881    -3.060518    1051.4632  0.086072624  0.086823511            2 
 1019000    1.1046067   -3.0486397    1050.4568  0.085905859  0.086813472            3 
 1020000    1.0806429   -3.0566636    1057.1814  0.086371028   0.08680392            5 
 1021000    1.0993558   -3.0675835    1056.3842   0.08622137  0.086794815            1 
 1022000    1.0711984    -3.072041    1052.8165  0.085846092  0.086785512            2 
 1023000    1.0855847   -3.0823904     1056.423   0.08605596  0.086775292            2 
 1024000    1.0918003   -3.0774442    1055.8108  0.085922105  0.086765214            3 
 1025000    1.0751177   -3.0570963    1055.1794   0.08578694  0.086755064            2 
 1026000    1.0809182   -3.0598106    1057.0783   0.08585756  0.086744938            3 
 1027000    1.0799198   -3.0348174    1059.1758  0.085944154  0.086735435            4 
 1028000    1.0953886    -3.067797     1058.391  0.085796939  0.086725848            2 
 1029000    1.0779721   -3.0721379    1058.6496  0.085734502  0.086715855            2 
 1030000    1.0571912   -3.0640114    1059.8786  0.085750695  0.086705205            4 
 1031000    1.0830391   -3.0349672    1066.3698  0.086192189  0.086694929            3 
 1032000    1.0724792   -3.0727949     1065.443   0.08603383  0.086685223            6 
 1033000    1.0870517   -3.0368837    1065.3354  0.085941865  0.086674929            1 
 1034000    1.0819037   -3.0626744    1063.8508  0.085739102  0.086664964            2 
 1035000    1.1051646   -3.0696484     1064.753  0.085728905  0.086654562            6 
 1036000    1.1023186   -3.0761652    1064.7095  0.085642653  0.086643437            1 
 1037000    1.0998898   -3.0687057    1065.5416   0.08562694  0.086632704            1 
 1038000    1.0930392   -3.0850716    1068.0311  0.085744308  0.086622144            2 
 1039000    1.0765042    -3.089117    1069.0318   0.08574204  0.086610886            3 
 1040000    1.0833048    -3.056568    1069.8525  0.085725357  0.086600268            2 
 1041000    1.0833141   -3.0719203    1066.2218   0.08535237  0.086588859            3 
 1042000    1.0833051   -3.0929648    1070.1425  0.085584016  0.086577905            3 
 1043000    1.1052618   -3.0723675    1067.8868  0.085321732  0.086566487            2 
 1044000    1.0859386   -3.0681348     1074.645  0.085779457  0.086555107            3 
 1045000    1.0775074   -3.0374463    1073.9086  0.085638645  0.086544189            3 
 1046000    1.0917058   -3.0728469    1074.3007  0.085588013   0.08653303            2 
 1047000    1.0941664   -3.0218087    1076.4914   0.08568063  0.086522312            1 
 1048000    1.0927951    -3.073133     1077.143  0.085650688  0.086511607            2 
 1049000    1.0843621   -3.0637082    1075.4983  0.085438374  0.086499593            3 
 1050000    1.0945599    -3.074673    1075.5657  0.085362359  0.086487231            1 
 1051000    1.0916436   -3.0721619    1073.3806  0.085107879  0.086474595            3 
 1052000    1.0881716   -3.0614548     1077.377  0.085343554  0.086462089            4 
 1053000    1.0681918   -3.0889465    1076.9108  0.085225606  0.086450922            3 
 1054000    1.0842239   -3.0765738    1085.8818  0.085854035  0.086439152            1 
 1055000     1.079537   -3.0811672    1080.8841  0.085377894  0.086427002            1 
 1056000    1.0906186   -3.0517092    1087.1612  0.085792395   0.08641512            3 
 1057000    1.0974644   -3.0730922    1084.1451  0.085473437  0.086404291            2 
 1058000    1.0738761   -3.0808895    1082.5672  0.085268367  0.086392332            1 
 1059000    1.0531641   -3.0746387    1085.9864  0.085456911  0.086380655            1 
 1060000    1.1088589   -3.0594084    1088.5052  0.085574309  0.086368798            3 
 1061000    1.0711371   -3.1010655    1082.8154  0.085046765  0.086357454            2 
 1062000    1.0917304   -3.0689701    1089.4666  0.085488587  0.086345954            2 
 1063000    1.0867749   -3.0537423    1090.8829  0.085519199  0.086334798            1 
 1064000    1.0832107   -3.0941028    1088.6553  0.085264359  0.086323731            5 
 1065000    1.0662715   -3.0775955    1089.1275  0.085221245  0.086311221            2 
 1066000    1.0909316   -3.0515459    1088.3109  0.085077466  0.086299404            1 
 1067000     1.092652   -3.0818763    1087.9714  0.084971211  0.086286734            1 
 1068000    1.0868381   -3.0374777    1089.5511   0.08501491  0.086274506            1 
 1069000    1.0612381   -3.0666166    1091.8314  0.085113142   0.08626208            1 
 1070000     1.067801   -3.0589773    1095.1116  0.085289066    0.0862502            3 
 1071000    1.0889663   -3.0584032    1093.4392    0.0850793   0.08623738            2 
 1072000    1.0793128   -3.0538752    1097.7721  0.085336764  0.086225446            3 
 1073000    1.0649822    -3.073966    1098.4552   0.08531028   0.08621313            2 
 1074000    1.0741896   -3.0906569    1093.6239  0.084855986  0.086201336            2 
 1075000    1.0892119    -3.049868     1098.105  0.085124417    0.0861882            2 
 1076000    1.0633004   -3.0885715    1100.1877  0.085206608  0.086175755            1 
 1077000     1.087859   -3.0796657    1101.1311  0.085200484  0.086164222            3 
 1078000    1.0912204   -3.0838287    1094.7471  0.084627944  0.086151988            3 
 1079000    1.0874898   -3.0449477    1102.0249  0.085111594  0.086140212            3 
 1080000    1.0781989   -3.0795346    1099.1869  0.084813807  0.086127504            3 
 1081000     1.086622   -3.0354184    1103.0476  0.085032965  0.086115225            3 
 1082000    1.1013477   -3.0421703    1103.7826  0.085010984   0.08610314            4 
 1083000      1.07456   -3.0912315    1105.6404  0.085075442  0.086091045            1 
 1084000    1.0822393   -3.0410943    1108.5031  0.085217026  0.086079026            1 
 1085000    1.0869084   -3.0518178    1108.8778  0.085167263  0.086067832            2 
 1086000    1.0561672   -3.0869457    1108.1254   0.08503111  0.086055949            2 
 1087000    1.0636828    -3.057469     1109.478  0.085056581  0.086044326            2 
 1088000    1.0756805   -3.0526274    1105.3931  0.084665524  0.086031849            1 
 1089000    1.0621994   -3.0623609    1111.4953  0.085054735  0.086019414            3 
 1090000     1.080624   -3.0649006    1110.2546  0.084881853  0.086006732            2 
 1091000    1.0694104    -3.046446    1111.2556   0.08488051   0.08599402            1 
 1092000    1.0670174   -3.0778459    1109.1413  0.084641433  0.085980542            2 
 1093000      1.07452   -3.0693934    1114.0766  0.084940274  0.085966958            1 
 1094000    1.0655771    -3.060821    1112.9277  0.084775116  0.085954319            1 
 1095000    1.0830798   -3.0585284    1116.4168  0.084963229  0.085941305            1 
 1096000    1.0752637   -3.0923392     1118.189  0.085020454  0.085928697            3 
 1097000     1.098014   -3.0897386    1112.7853  0.084532463  0.085916331            3 
 1098000    1.0788119   -3.0755525    1120.7572  0.085060508  0.085903931            2 
 1099000    1.0725968   -3.0454341    1114.1546  0.084482457   0.08589201            2 
 1100000    1.0568275   -3.0742871    1119.8837  0.084839676  0.085878885            3 
 1101000    1.0708665   -3.0713859    1121.2183  0.084863635  0.085866309            2 
 1102000    1.0916523    -3.064981    1121.8162  0.084831837  0.085854629            2 
 1103000    1.0769203   -3.0853071    1120.0993  0.084625212  0.085842102            2 
 1104000    1.0770479   -3.0676074     1125.302  0.084941274  0.085829712            2 
 1105000    1.0665592   -3.0876559    1123.6744  0.084741659  0.085817062            3 
 1106000     1.080974   -3.0517287    1131.9778  0.085290674   0.08580466            2 
 1107000    1.0772183   -3.0730011    1126.8081  0.084824457   0.08579217            1 
 1108000    1.0845225   -3.0771146    1124.8128  0.084597833  0.085779596            1 
 1109000    1.0863492   -3.0597642    1127.7173  0.084739803  0.085766031            4 
 1110000    1.0775079   -3.0970082    1123.4354  0.084341996  0.085753067            3 
 1111000    1.0788484   -3.0609394     1129.282  0.084704619  0.085739795            1 
 1112000    1.0534292    -3.063533    1129.0752  0.084612949  0.085727057            2 
 1113000    1.0696923   -3.0942132    1129.2648  0.084551121  0.085713987            2 
 1114000    1.0865196   -3.0928334      1127.85  0.084369388  0.085700867            3 
 1115000    1.0706297   -3.0884888    1130.0839  0.084460676  0.085687627            2 
 1116000    1.0822837   -3.0726404    1131.4246  0.084485113  0.085674601            2 
 1117000    1.0698132   -3.0962541    1131.4875  0.084414166   0.08566152            4 
 1118000    1.0592208   -3.0846736    1133.7407  0.084506611  0.085647781            4 
 1119000    1.0606021   -3.0694742    1130.1453  0.084163336  0.085634035            2 
 1120000    1.0862667    -3.081914    1132.1903  0.084240351   0.08562102            2 
 1121000    1.1149939   -3.0763011    1137.0271  0.084524762  0.085607761            1 
 1122000    1.0727119   -3.0793653    1135.6873  0.084349919  0.085594513            2 
 1123000    1.0787531   -3.0629428    1139.8927  0.084586873  0.085581559            4 
 1124000     1.087376    -3.060646    1140.4624  0.084553852  0.085568538            1 
 1125000    1.0839158   -3.0945542    1140.3848  0.084472947  0.085555997            2 
 1126000    1.0585704   -3.0469744    1142.4479  0.084550616  0.085542888            2 
 1127000    1.0889045   -3.0435131    1141.5055   0.08440591   0.08552964            1 
 1128000    1.0719488   -3.0843226    1146.2956  0.084684958   0.08551749            4 
 1129000    1.0589156   -3.0847374    1146.1748  0.084601033  0.085504713            2 
 1130000    1.0876921    -3.084238    1143.5541  0.084332899  0.085492176            1 
 1131000    1.0993976   -3.0836246    1141.8344  0.084131626  0.085478957            2 
 1132000    1.0728955   -3.1022968    1149.6704  0.084634161  0.085466601            4 
 1133000    1.0456417   -3.0690936    1146.4738  0.084324342  0.085453936            2 
 1134000    1.0534063     -3.08133    1148.7997  0.084420909  0.085440801            3 
 1135000     1.071845   -3.0672914    1148.4188  0.084318562   0.08542764       -1e+20 
 1136000    1.0906027   -3.0535878    1153.3221  0.084604024  0.085415779            2 
 1137000    1.0656438   -3.0721008    1148.2332  0.084156642  0.085403098            2 
 1138000    1.0620592   -3.0929125    1150.3372  0.084236759  0.085390407            4 
 1139000      1.07496    -3.076324    1154.5897   0.08447393  0.085377088            1 
 1140000    1.0526724   -3.0843203    1153.5639  0.084324844   0.08536453            6 
 1141000    1.0706088   -3.0918216    1154.2017  0.084297523  0.085351749            4 
 1142000    1.0347974   -3.0986568    1154.1056  0.084216699  0.085338602            2 
 1143000    1.0639238   -3.0831426    1150.3667   0.08387042  0.085325337            3 
 1144000    1.0816815   -3.0690283    1153.2343  0.084005994   0.08531165            1 
 1145000    1.0675984   -3.0675746    1153.2292  0.083932258  0.085298143            3 
 1146000    1.0606524   -3.0932628    1157.2124  0.084148662  0.085284395            2 
 1147000    1.0788165   -3.0659674    1162.0388  0.084425953  0.085270475            2 
 1148000    1.0740494   -3.1095753    1154.1926  0.083782855  0.085256603            3 
 1149000     1.062865   -3.0868555    1156.4518  0.083873786  0.085242321            3 
 1150000    1.0332776   -3.0606641    1152.7405  0.083531918  0.085227921            4 
 1151000    1.0697902   -3.0735142    1154.1689  0.083562762  0.085212931            3 
 1152000    1.0531683   -3.0946389    1159.9167  0.083906014  0.085198335            5 
 1153000     1.081595   -3.0665207      1163.48  0.084090781  0.085184172            2 
 1154000    1.0603798   -3.0522561    1163.1238  0.083992186  0.085170118            1 
 1155000    1.0731263   -3.0833026    1161.3185  0.083789213  0.085156464            2 
 1156000    1.0647614   -3.1077979    1162.7408  0.083819262  0.085142834            2 
 1157000    1.0659083    -3.098589    1163.6254  0.083810533  0.085128275            2 
 1158000    1.0731727   -3.0715817    1163.9709  0.083763021  0.085114839            2 
 1159000    1.0592506   -3.0981097    1161.7712  0.083532583  0.085100826            2 
 1160000    1.0498588   -3.0583439    1168.9088  0.083973336  0.085086372            4 
 1161000    1.0491525   -3.0833657    1164.1919  0.083562441  0.085072467            2 
 1162000    1.0779701   -3.1131516    1169.2868   0.08385591   0.08505859            3 
 1163000    1.0734938   -3.1009245    1167.0892  0.083626341  0.085044898            2 
 1164000     1.071225   -3.0922415    1165.5996  0.083447852  0.085030075            3 
 1165000    1.0824688   -3.0998392    1168.6822  0.083596722  0.085015454            1 
 1166000    1.0770046   -3.0593443    1171.6135   0.08373453  0.085001243            2 
 1167000     1.056061   -3.0622214    1173.2035  0.083776312  0.084986951            2 
 1168000    1.0688761   -3.0975944    1169.2595  0.083423195  0.084972208            2 
 1169000    1.0649078   -3.0631961    1170.9397  0.083471608  0.084957545            2 
 1170000    1.0671668   -3.0943586    1172.2138   0.08349101  0.084943653            3 
 1171000    1.0632125   -3.0618571    1172.0439  0.083407619  0.084929021            2 
 1172000    1.0837968   -3.0960327    1176.4298  0.083648305  0.084915341            1 
 1173000    1.0760825   -3.0977813    1173.8591  0.083394369  0.084901098            1 
 1174000    1.0537238   -3.1237351    1177.0216  0.083547815  0.084887028            3 
 1175000    1.0649348   -3.0830522    1177.9582  0.083543133  0.084873534            2 
 1176000    1.0687675   -3.1038966    1178.5649   0.08351509   0.08486038            3 
 1177000    1.0617634   -3.1107052    1181.0783  0.083622084  0.084846707            1 
 1178000     1.068733   -3.0973815    1181.7026  0.083595257  0.084833307            4 
 1179000    1.0649774   -3.1003382    1181.4561  0.083506934  0.084819768            4 
 1180000    1.0641207   -3.1134754    1182.7323  0.083526294   0.08480614            6 
 1181000    1.0526422   -3.1122266    1183.0551  0.083478343  0.084792569            4 
 1182000    1.0658704     -3.10079     1182.189  0.083346659  0.084778858            3 
 1183000    1.0442652   -3.0964271    1183.8263  0.083391541  0.084764381            2 
 1184000    1.0551259   -3.1250925     1185.624  0.083447632   0.08475101            1 
 1185000    1.0547725   -3.0918283    1184.5051  0.083298532  0.084736432            2 
 1186000    1.0549652   -3.0873778    1189.9679  0.083612134  0.084722601            2 
 1187000    1.0593334   -3.0937572    1183.7303  0.083103786  0.084708661            1 
 1188000    1.0608031   -3.0794885    1182.0469  0.082915749  0.084694842            4 
 1189000     1.075269   -3.0821173    1189.2966  0.083354123  0.084680984            2 
 1190000     1.071094   -3.1074987    1189.8427  0.083322317  0.084667245            3 
 1191000    1.0277889   -3.0795988    1194.6487  0.083588628  0.084652866            3 
 1192000    1.0493406   -3.1304482    1190.5073  0.083228975  0.084639471            3 
 1193000    1.0777378   -3.0978265    1195.5556  0.083511845  0.084625462            3 
 1194000    1.0392498   -3.0892217    1191.5097  0.083159529  0.084610998            2 
 1195000    1.0681783   -3.0528107    1197.7908  0.083527953   0.08459628            3 
 1196000    1.0770963   -3.1157573     1194.105  0.083201298    0.0845817            2 
 1197000    1.0638842   -3.0810114    1201.2114  0.083626528  0.084566844            2 
 1198000    1.0658319   -3.0931675      1200.03  0.083474538  0.084552857            2 
 1199000    1.0644427    -3.079856    1198.2453  0.083280881   0.08453893            1 
 1200000    1.0687733   -3.1026837    1202.0802  0.083477788  0.084524881            1 
 1201000    1.0431424   -3.0794469    1204.5224  0.083577737  0.084511531            3 
 1202000    1.0519873   -3.0993362    1202.3676  0.083358817  0.084497843            2 
 1203000     1.084271   -3.0768385     1203.884  0.083394569   0.08448446            4 
 1204000    1.0635208   -3.0970638    1203.1579  0.083275047  0.084470578            1 
 1205000    1.0544869   -3.1102198    1203.9202  0.083258658  0.084457832            4 
 1206000    1.0315368   -3.1145261    1201.5581  0.083026405   0.08444432            2 
 1207000    1.0397813   -3.1093126     1206.068  0.083268985  0.084430749            2 
 1208000    1.0479866   -3.0767448    1209.6686  0.083448443   0.08441786            2 
 1209000    1.0302848   -3.1087278    1213.3195  0.083631065   0.08440542            1 
 1210000    1.0496425   -3.0698655    1215.3675  0.083702999  0.084392925            6 
 1211000    1.0608968   -3.1390456    1212.3662  0.083427345  0.084380542            3 
 1212000    1.0595318   -3.0973217    1220.2609  0.083901325  0.084367855            2 
 1213000     1.082915   -3.1060791    1214.6777  0.083448592  0.084355615            3 
 1214000    1.0717491   -3.1126179    1218.4019  0.083635493  0.084343256            4 
 1215000    1.0478358   -3.0842092    1210.1508  0.083000744  0.084330598            3 
 1216000    1.0658647   -3.0948596    1217.7303  0.083451911  0.084318594            2 
 1217000    1.0501173   -3.0999395    1219.3593  0.083494883   0.08430621            3 
 1218000    1.0504315   -3.0796656    1219.0801  0.083407234  0.084293542            5 
 1219000    1.0643829   -3.0740932    1218.6787  0.083311365    0.0842809            3 
 1220000    1.0387885   -3.1029949    1221.2832  0.083420983  0.084268988            3 
 1221000    1.0499266   -3.0957651    1219.2592  0.083214523   0.08425629            3 
 1222000    1.0489194    -3.107009    1223.0776  0.083406817  0.084244058            3 
 1223000      1.07663   -3.0891677     1221.007   0.08319753  0.084231215            2 
 1224000    1.0394927    -3.113132    1222.3738   0.08322262  0.084218936            3 
 1225000    1.0637292   -3.0965236    1218.9714  0.082923227  0.084205731            2 
 1226000    1.0643033   -3.0980378    1227.1308  0.083410197  0.084192655            1 
 1227000    1.0585633   -3.1038211     1228.736  0.083451239  0.084180777            4 
 1228000    1.0427986   -3.1085031    1223.6005  0.083034777  0.084168167            2 
 1229000    1.0416541    -3.105604    1226.8165  0.083185281   0.08415593            3 
 1230000    1.0707673   -3.1002732    1226.9069  0.083123776  0.084143792            3 
 1231000    1.0320074    -3.123274     1235.085  0.083609867  0.084131796            3 
 1232000    1.0395711   -3.1138832    1234.6568  0.083513038  0.084119874            1 
 1233000    1.0595016   -3.1021257    1235.1359  0.083477691  0.084107696            1 
 1234000    1.0485137   -3.0920487    1241.3367  0.083828786  0.084095978            2 
 1235000    1.0484197   -3.0994112    1236.6038  0.083441555  0.084084592            1 
 1236000    1.0581223   -3.1009209    1239.1436   0.08354528  0.084072585            6 
 1237000    1.0382111   -3.1241069    1231.9083   0.08299032  0.084060643            2 
 1238000    1.0663716   -3.1155325     1233.275  0.083015282  0.084048289            2 
 1239000     1.041758   -3.1062998    1236.3967   0.08315824  0.084036011            5 
 1240000    1.0367999   -3.1338798    1236.9555  0.083128729  0.084024189            2 
 1241000    1.0576497   -3.1270661    1233.4804  0.082828389  0.084011312            2 
 1242000    1.0600393   -3.1072386    1234.4005  0.082823435  0.083999082            2 
 1243000    1.0459918   -3.1017543     1240.891  0.083191943  0.083986379            1 
 1244000    1.0614826   -3.1121067    1240.9033  0.083125889  0.083973565            1 
 1245000    1.0372136    -3.126758    1238.7734  0.082916562  0.083961358            3 
 1246000    1.0561135   -3.0928488    1248.1402  0.083476472  0.083948417            1 
 1247000    1.0522354   -3.1006527    1238.6875  0.082777836  0.083936392            3 
 1248000     1.035975    -3.100604    1244.7691  0.083117595  0.083923402            6 
 1249000    1.0419807   -3.0998911    1238.3698  0.082624085  0.083911008            2 
 1250000    1.0610057   -3.1022868    1249.3606  0.083290706  0.083898578            2 
 1251000    1.0679764   -3.0969937    1243.7873  0.082852869  0.083886191            2 
 1252000    1.0397378   -3.1181883     1243.479  0.082766175  0.083873609            2 
 1253000    1.0678258   -3.1111741    1254.6303  0.083441762  0.083861221            4 
 1254000    1.0482106   -3.1063572    1243.8794  0.082660776  0.083849141            2 
 1255000    1.0359786   -3.1005837    1249.3808  0.082960213  0.083836159            2 
 1256000     1.062503   -3.0879132    1248.2067  0.082816264  0.083823999            2 
 1257000    1.0452134   -3.1102931      1252.82  0.083056217    0.0838116            1 
 1258000    1.0543298   -3.1042098    1248.2637  0.082688376  0.083798857            4 
 1259000    1.0325574   -3.1160299    1252.1388  0.082879188   0.08378663            3 
 1260000    1.0491634   -3.1393228    1251.7012  0.082784474  0.083774275            2 
 1261000    1.0494292   -3.1233933    1254.4981  0.082903654  0.083761655            4 
 1262000    1.0615342   -3.1174165    1258.5108  0.083102932  0.083749204            3 
 1263000    1.0785742    -3.107988    1257.9467  0.082999917  0.083737124            3 
 1264000    1.0464119   -3.1134081    1259.6324  0.083045384  0.083724631            1 
 1265000    1.0711191    -3.085275    1259.4341  0.082966674  0.083712105            1 
 1266000    1.0491614   -3.1271955    1255.3824  0.082634436  0.083699159            2 
 1267000    1.0506258   -3.1182766    1258.3383  0.082763634  0.083686726            3 
 1268000    1.0261788   -3.1212239    1260.7166  0.082854663  0.083674375            2 
 1269000    1.0574939   -3.1304552    1260.9888  0.082807252  0.083662076            1 
 1270000    1.0373932   -3.1388824    1262.1349  0.082817249  0.083650103            4 
 1271000     1.058362   -3.1257005    1263.5568  0.082845318    0.0836379            2 
 1272000    1.0340555   -3.1366216    1261.2538   0.08262931  0.083625678            3 
 1273000    1.0462393   -3.1288516    1262.6557  0.082656176  0.083613198            1 
 1274000    1.0297606   -3.0979759    1263.8408  0.082668811  0.083601226            2 
 1275000    1.0549711    -3.096404    1270.8361   0.08306118  0.083589618            2 
 1276000    1.0663768   -3.1129278    1266.0705  0.082684856  0.083577325            3 
 1277000    1.0509703   -3.1377624    1267.1186  0.082688499  0.083565029            1 
 1278000    1.0393659   -3.1098686     1269.108  0.082753524  0.083552438            4 
 1279000    1.0476447   -3.1198586    1269.8612  0.082737895  0.083540429            2 
 1280000    1.0619711   -3.0982677    1270.7256  0.082729531  0.083528414            3 
 1281000    1.0582949     -3.13101    1263.5372  0.082197317  0.083516215            2 
 1282000    1.0426757    -3.083854     1273.705  0.082794138   0.08350392            3 
 1283000    1.0561995   -3.1233591    1275.3733  0.082837962   0.08349143            2 
 1284000    1.0705163   -3.1093718    1273.6615   0.08266235  0.083479247            2 
 1285000    1.0578161   -3.1135167    1277.3083  0.082834522  0.083467021            4 
 1286000    1.0792138   -3.1088287    1281.5866  0.083047343  0.083455255            4 
 1287000    1.0354421   -3.1252426    1276.5933  0.082659499  0.083443431            1 
 1288000    1.0468152   -3.1093375    1277.4155  0.082648519  0.083431622            2 
 1289000    1.0663832   -3.1274866    1279.1164  0.082694362  0.083419795            3 
 1290000    1.0352658   -3.1153717     1280.481  0.082718413  0.083407859            1 
 1291000    1.0370805   -3.1013553    1281.7052  0.082733359   0.08339634            2 
 1292000    1.0385961   -3.1356781    1284.7169   0.08286358  0.083384927            2 
 1293000    1.0625574   -3.1270461    1280.5236  0.082529237  0.083373541            5 
 1294000    1.0443624   -3.1107307    1280.9326  0.082491792  0.083361208            4 
 1295000    1.0324524   -3.0999247    1288.5812  0.082920286    0.0833492            2 
 1296000    1.0531802   -3.1161977    1284.2188  0.082575797  0.083337851            2 
 1297000    1.0375232   -3.1194501      1288.29   0.08277371  0.083326051            4 
 1298000    1.0399531   -3.1329643      1283.43  0.082397922  0.083314394            2 
 1299000    1.0302543   -3.0918521    1282.6439  0.082284058  0.083301764            4 
 1300000    1.0555417   -3.1265686    1287.2496  0.082515998  0.083289607            5 
 1301000    1.0367579   -3.1500102    1282.5536  0.082151781  0.083277031            2 
 1302000    1.0398905   -3.1186153    1288.2042  0.082450344  0.083264686            2 
 1303000    1.0435343   -3.1332742    1288.8206  0.082426487  0.083252731            2 
 1304000    1.0475166   -3.1261981    1292.1379  0.082575276  0.083241009            2 
 1305000    1.0187537   -3.1297245    1287.1521  0.082193621  0.083229433            2 
 1306000    1.0520608   -3.1478295    1291.7632  0.082424912  0.083217496            4 
 1307000    1.0436681   -3.1195878    1287.2362  0.082073207  0.083205493            2 
 1308000    1.0254905   -3.1372807    1291.6547  0.082291964  0.083193914            3 
 1309000    1.0394038   -3.1113284    1291.2611  0.082204043  0.083182127            3 
 1310000    1.0436269   -3.1742445     1295.838  0.082432441  0.083170476            2 
 1311000    1.0360237   -3.1037424     1304.432  0.082915843  0.083158658            4 
 1312000    1.0457078   -3.1448259    1290.4411  0.081963989  0.083147223            3 
 1313000    1.0280639   -3.1396642    1301.1493  0.082581193  0.083135113            3 
 1314000    1.0482843   -3.1105409    1299.5527  0.082417093   0.08312342            4 
 1315000    1.0620391   -3.1278484    1302.0855  0.082514923  0.083111875            2 
 1316000    1.0348226    -3.112464    1304.2419  0.082588776  0.083100521            4 
 1317000     1.056523   -3.0880325    1305.0176  0.082575143  0.083088182            4 
 1318000    1.0267663   -3.1268569    1298.1028  0.082075289  0.083076485            2 
 1319000     1.035271   -3.1279614    1302.7799  0.082308563   0.08306442            3 
 1320000    1.0348088   -3.1445074    1300.1781  0.082081949  0.083052124            1 
 1321000    1.0493099   -3.1052546    1303.7312  0.082243956   0.08304066            3 
 1322000    1.0352625   -3.1605855    1301.9552  0.082069794  0.083028753            1 
 1323000    1.0265799   -3.1117523    1309.6606  0.082493108  0.083017406            3 
 1324000    1.0263991   -3.1478432    1306.3281  0.082221053  0.083006157            4 
 1325000    1.0287959   -3.1245316    1313.5056  0.082610417  0.082994533            3 
 1326000    1.0575755   -3.1703568    1310.8465  0.082381001  0.082983039            2 
 1327000    1.0544627    -3.147053     1311.098  0.082334712   0.08297177            2 
 1328000     1.048474   -3.1629533    1312.1984  0.082341767  0.082960598            2 
 1329000    1.0567762   -3.1350228    1311.0549   0.08220811  0.082949591            2 
 1330000    1.0406185   -3.1230006    1313.0257  0.082269783  0.082938745            2 
 1331000    1.0629281    -3.100419    1320.8531  0.082698041  0.082927531            2 
 1332000    1.0189606   -3.1047655    1318.0829  0.082462647  0.082916423            2 
 1333000    1.0512166    -3.122153    1315.9596   0.08226804  0.082905316            3 
 1334000    1.0471933   -3.1231269     1318.637  0.082373628  0.082893433            1 
 1335000    1.0337183   -3.1114481    1313.0568  0.081963594  0.082881903            2 
 1336000    1.0486522   -3.1390268    1315.4057  0.082048756  0.082869983            3 
 1337000    1.0431968   -3.1330456    1318.6177  0.082187587  0.082858217            2 
 1338000    1.0231349    -3.118931    1327.7162  0.082692838  0.082846999            1 
 1339000    1.0060386   -3.1226803    1320.4835   0.08218095  0.082835976            6 
 1340000    1.0318027   -3.1364439    1322.7214  0.082258791  0.082824601            2 
 1341000    1.0065131   -3.1306091    1321.4824   0.08212046  0.082813442            4 
 1342000    1.0474483   -3.1277451    1328.2018  0.082476516  0.082802239            2 
 1343000    1.0465752   -3.1174336    1326.2433  0.082293578  0.082791082            1 
 1344000    1.0134232   -3.1347245    1323.0301  0.082033117  0.082780007            2 
 1345000    1.0504702     -3.13129    1325.5542  0.082128513  0.082768761            3 
 1346000    1.0506045   -3.1090989    1330.5457  0.082376527  0.082757486            2 
 1347000    1.0185366   -3.1365756     1326.521  0.082066382   0.08274654            2 
 1348000    1.0587477   -3.1247886    1326.0292  0.081975099   0.08273474            4 
 1349000     1.050066   -3.1294428    1326.7383  0.081958138  0.082722728            2 
 1350000    1.0362424   -3.1393059    1324.2839  0.081745917  0.082711102            4 
 1351000    1.0496099   -3.1352091    1326.1904  0.081803012  0.082699764            2 
 1352000    1.0249326   -3.1506644    1327.6204  0.081830644  0.082688075            3 
 1353000    1.0461978   -3.1328554    1331.3773  0.082001556  0.082676337            2 
 1354000    1.0408935   -3.1196682    1333.3495  0.082062377  0.082664824            1 
 1355000    1.0234481   -3.0950049    1338.7895  0.082336375  0.082654052            2 
 1356000    1.0142252   -3.1292826    1338.9184  0.082283579  0.082643153            4 
 1357000    1.0294691   -3.1344554    1332.3025  0.081816661  0.082631461            1 
 1358000    1.0132197   -3.1224116    1337.3836  0.082068215  0.082619806            3 
 1359000    1.0349632   -3.1355339     1332.222  0.081691318  0.082608231            2 
 1360000    1.0417364   -3.1382463    1347.0533  0.082540032  0.082596553            6 
 1361000    1.0084759   -3.1215447    1341.2597  0.082124642  0.082585221            1 
 1362000    1.0345712   -3.1220043    1339.0799  0.081930976  0.082573844            2 
 1363000    1.0470782   -3.1401356    1340.5686  0.081961888  0.082562059            3 
 1364000      1.00529      -3.0992    1340.1009  0.081873224  0.082549955            1 
 1365000    1.0415785   -3.0957215    1343.9997  0.082051263  0.082537907            3 
 1366000    1.0290165   -3.1268153    1344.8049  0.082040318  0.082526045            2 
 1367000    1.0360286   -3.1215836    1344.0959  0.081937085   0.08251365            3 
 1368000    1.0322599    -3.138987    1340.5664  0.081662183  0.082501642            4 
 1369000    1.0098372   -3.1233342    1340.5602  0.081602152   0.08248904            4 
 1370000    1.0395668   -3.1324417    1340.6811  0.081549947   0.08247654            1 
 1371000     1.053399   -3.1423206    1343.3036  0.081649863  0.082463926            3 
 1372000    1.0345624   -3.1509296     1338.153  0.081277518  0.082450863            2 
 1373000    1.0160591   -3.1248491    1347.9654  0.081813873  0.082438025            2 
 1374000    1.0509157    -3.122603    1347.0939  0.081701475  0.082425227            3 
 1375000    1.0426797   -3.1511127    1339.8992  0.081206015  0.082412336            2 
 1376000    1.0347656   -3.1364314    1342.8602  0.081326321  0.082399123            4 
 1377000    1.0323199   -3.1430162     1338.104  0.080979423  0.082385831            2 
 1378000    1.0595942     -3.12042    1345.4034   0.08136208  0.082373117            1 
 1379000    1.0412017    -3.148494    1343.1514  0.081166992  0.082360019            7 
 1380000    1.0103835   -3.1119437    1344.4914  0.081189096  0.082347038            2 
 1381000    1.0269508   -3.1395613    1354.1615  0.081713827  0.082334161            4 
 1382000    1.0393305   -3.1644623     1350.898  0.081457909  0.082320644            1 
 1383000    1.0276202   -3.1480517    1349.7794  0.081331611  0.082307735            3 
 1384000    1.0391666   -3.1604934    1352.8453  0.081457446  0.082294717            2 
 1385000    1.0373402   -3.1518856    1348.8721  0.081159571  0.082281649            1 
 1386000    1.0563512   -3.1533358    1352.2776  0.081305774  0.082269041            3 
 1387000    1.0466789   -3.1315977    1351.2301  0.081184215  0.082255411            2 
 1388000    1.0087094   -3.1333564     1349.824  0.081041305  0.082241698            1 
 1389000    1.0519547    -3.155699    1350.4573  0.081020957  0.082228456            3 
 1390000    1.0176777   -3.1179836     1357.777  0.081401496   0.08221543            2 
 1391000    1.0245362   -3.1417612    1355.3145  0.081195455  0.082202469            3 
 1392000    1.0335332   -3.1422241    1353.9666   0.08105643  0.082189526            2 
 1393000    1.0253726   -3.1519591    1355.5746  0.081094436  0.082176415            3 
 1394000    1.0184855   -3.1384971    1354.6762  0.080982555  0.082163653            2 
 1395000    1.0225314   -3.1489934    1362.2553  0.081377256    0.0821506            2 
 1396000    1.0139325   -3.1285857    1359.2799  0.081141351   0.08213748            1 
 1397000    1.0223722   -3.1122001    1368.6688  0.081643331  0.082125198            3 
 1398000    1.0433414     -3.14729    1363.7747    0.0812932  0.082112655            4 
 1399000    1.0346109   -3.1451665    1360.5866  0.081045188  0.082099885            2 
 1400000    1.0158899   -3.1560446    1361.7384  0.081055856  0.082086667            4 
 1401000      1.04153   -3.1300037    1362.6022  0.081049384  0.082073715            2 
 1402000    1.0282334   -3.1490343    1361.3967   0.08091992  0.082060115            3 
 1403000   0.99987387    -3.165162    1358.8396  0.080710358  0.082047035            4 
 1404000    1.0349948   -3.1560854    1363.8559  0.080950609  0.082033705            2 
 1405000    1.0438464   -3.1365974    1368.9164  0.081193142  0.082020285            2 
 1406000    1.0252404   -3.1398775    1364.6396   0.08088191   0.08200724            3 
 1407000    1.0436352   -3.1674957    1365.9594  0.080902596  0.081994019            5 
 1408000    1.0157705   -3.1216592    1371.4092  0.081167684  0.081980759            2 
 1409000   0.99937835   -3.1301526     1371.055  0.081089128  0.081967697            2 
 1410000    1.0195899   -3.1060511    1370.9452  0.081025133  0.081954671            2 
 1411000    1.0486328   -3.1263336    1369.1383   0.08086099   0.08194175            3 
 1412000    1.0188163   -3.1404682    1378.4972  0.081356069  0.081928742            2 
 1413000    1.0367779   -3.1438403    1372.6797  0.080955399  0.081915201            2 
 1414000    1.0421438   -3.1481698    1367.0212   0.08056466  0.081901547            5 
 1415000    1.0211575   -3.1484025    1376.9272   0.08109112  0.081887875            1 
 1416000    1.0185467   -3.1557192    1376.1113  0.080985837  0.081874607            3 
 1417000    1.0305536   -3.1313623    1375.7246  0.080905941  0.081861454            3 
 1418000    1.0133943   -3.1455633    1376.2129  0.080877577  0.081848354            1 
 1419000    1.0391138   -3.1349175    1375.6999  0.080790459  0.081835547            3 
 1420000    1.0371791   -3.1506402    1380.4636  0.081013119  0.081822681            2 
 1421000    1.0146071   -3.1548871    1375.2254  0.080648923  0.081809693            2 
 1422000    1.0499937   -3.1563716    1378.9416  0.080809988  0.081796355            3 
 1423000    1.0196615   -3.1588383    1377.1711  0.080649512  0.081783081            2 
 1424000    1.0236635   -3.1415322    1383.5711  0.080967412  0.081769725            5 
 1425000    1.0176907   -3.1820258    1379.4769  0.080671162    0.0817563            3 
 1426000     1.043252   -3.1213417    1384.4482  0.080905109  0.081743221            1 
 1427000    1.0131659   -3.1319898    1384.3555     0.080843  0.081729849            3 
 1428000    1.0443304    -3.141385    1380.6977   0.08057293  0.081716405            2 
 1429000    1.0461062   -3.1443907    1381.2429  0.080548336  0.081703129            2 
 1430000    1.0171806   -3.1504386    1384.2194  0.080665469  0.081689674            5 
 1431000    1.0075775   -3.1380493     1384.147  0.080604882  0.081676399            3 
 1432000    1.0487184   -3.1538846    1384.7794  0.080585394  0.081663092            3 
 1433000    1.0535973   -3.1650413    1386.7032   0.08064103  0.081650177            1 
 1434000    1.0150521   -3.1546216    1389.8293  0.080766463  0.081636712            3 
 1435000    1.0088559   -3.1136008     1388.431  0.080628975  0.081623293            2 
 1436000    1.0208327   -3.1237863    1395.7009  0.080994714  0.081610326            1 
 1437000    1.0329738   -3.1480602    1393.1381  0.080789731  0.081597564            2 
 1438000    1.0100771   -3.1401126    1395.7097  0.080882576  0.081584562            2 
 1439000    1.0380942   -3.1715171    1391.0626  0.080557251   0.08157197            3 
 1440000    1.0135972   -3.1581771    1391.3456  0.080517687  0.081558746            2 
 1441000     1.036138   -3.1645222    1396.0147  0.080731822  0.081545518            3 
 1442000    1.0309905   -3.1579229    1393.3173  0.080519953  0.081532651            5 
 1443000    1.0002955   -3.1561611    1393.5826  0.080479477  0.081518964            4 
 1444000    1.0329811   -3.1293622    1399.2965  0.080753491  0.081506286            1 
 1445000    1.0246912   -3.1312964    1403.9518  0.080966077  0.081493668            2 
 1446000    1.0420673   -3.1637827    1394.3892  0.080358992  0.081480526            2 
 1447000     1.030122   -3.1570478    1399.5158  0.080598698  0.081468497            2 
 1448000   0.99787828   -3.1543452    1402.9722  0.080741955  0.081456087            3 
 1449000    1.0247785   -3.1175428    1404.1414  0.080753474  0.081443756            2 
 1450000    1.0126522   -3.1574507     1401.716  0.080558393  0.081431107            3 
 1451000     1.007796    -3.146391    1411.0965  0.081041611  0.081418535            2 
 1452000    1.0125932   -3.1277719    1407.4116   0.08077431  0.081406079            1 
 1453000    1.0050626   -3.1475297    1409.5928  0.080843819  0.081393803            3 
 1454000    1.0306649   -3.1484879    1409.2855  0.080770603  0.081381472            5 
 1455000    1.0052007   -3.1544301    1409.8451  0.080747144  0.081369222            4 
 1456000    1.0340545   -3.1428807    1415.3954  0.081009355   0.08135696            1 
 1457000    1.0317064   -3.1650759    1405.9709  0.080414714  0.081344845            2 
 1458000    1.0198198   -3.1431153    1407.3832  0.080440285  0.081332435            2 
 1459000    1.0109115    -3.143188    1412.1613   0.08065806  0.081319608            3 
 1460000    1.0081516   -3.1316814    1406.5476  0.080282399   0.08130708            2 
 1461000    1.0320717   -3.1441586    1415.3038  0.080726889  0.081294783            3 
 1462000    1.0096942   -3.1519444     1412.086  0.080488259  0.081282455            3 
 1463000     1.022134   -3.1785076    1413.6504  0.080522353  0.081269896            5 
 1464000   0.99933731   -3.1338385    1415.8494   0.08059252  0.081257743            2 
 1465000    1.0147114   -3.1555117    1411.6256  0.080297246  0.081245238            2 
 1466000    1.0151406    -3.153578    1405.3407  0.079885213  0.081232395            6 
 1467000    1.0199933   -3.1572623    1414.8283  0.080369707  0.081219664            2 
 1468000    1.0401047   -3.1703321    1414.6352  0.080303996  0.081206741            1 
 1469000    1.0225801   -3.1306834    1411.7822  0.080087489   0.08119356            2 
 1470000   0.98448361   -3.1754782    1410.2827  0.079948001  0.081180446            2 
 1471000    1.0151852   -3.1346347    1417.8668  0.080323295  0.081167284            3 
 1472000    1.0258736   -3.1519602    1412.8682  0.079985744  0.081154075            1 
 1473000     1.008432    -3.149428    1414.4294  0.080019766  0.081141456            2 
 1474000    1.0294041   -3.1775958    1418.0988  0.080172931  0.081128388            3 
 1475000    1.0076678    -3.134348    1423.6241  0.080430743  0.081114966            2 
 1476000    1.0302287   -3.1381296    1419.0722  0.080119251  0.081101845            1 
 1477000    1.0281054   -3.1528282    1418.5586  0.080036028  0.081088813            2 
 1478000    1.0007432   -3.1142157    1431.6709  0.080721182  0.081075509            1 
 1479000     1.004761    -3.133676    1421.6357  0.080101179  0.081062237            1 
 1480000   0.99002635   -3.1505869     1419.039  0.079900847  0.081047962            3 
 1481000    1.0062778   -3.1853793    1420.8662  0.079949706   0.08103424            1 
 1482000    1.0035024   -3.1685656    1419.8027  0.079835957  0.081020533            1 
 1483000    1.0286457   -3.1668513    1421.7355  0.079890731  0.081006626            1 
 1484000   0.99826053   -3.1436891    1425.1379  0.080027959  0.080992596            2 
 1485000    1.0318934   -3.1512547    1421.7916  0.079786288  0.080978565            3 
 1486000    1.0304501   -3.1888298    1424.3992  0.079878825  0.080964761            2 
 1487000    1.0158303   -3.1591522    1429.9204  0.080134519  0.080950578            3 
 1488000    1.0280898    -3.174434     1423.248  0.079706989  0.080936981            3 
 1489000    1.0211682   -3.1653187    1432.7088   0.08018294  0.080923025            4 
 1490000    1.0110215   -3.1454479    1426.8459  0.079801226  0.080909211            2 
 1491000    1.0096399   -3.1773395    1427.3955  0.079778419  0.080895416            4 
 1492000    1.0234832   -3.1443954    1434.1918  0.080104546  0.080881956            1 
 1493000    1.0061398   -3.1726381    1433.7108  0.080024044  0.080868525            5 
 1494000    1.0068396   -3.1823742    1432.8543  0.079922709  0.080855192            3 
 1495000    0.9954646   -3.1730368    1431.0222  0.079767122   0.08084183            1 
 1496000    1.0346293   -3.1623917    1428.4471  0.079570357  0.080828054            3 
 1497000    1.0079843   -3.1435457    1438.4654  0.080074893  0.080815077            2 
 1498000    1.0176548   -3.1565546    1441.8725  0.080210975  0.080801873            2 
 1499000    1.0149787   -3.1679102    1433.3708  0.079684837  0.080789399            2 
 1500000    1.0094203   -3.1699434    1434.1433  0.079674629  0.080776241            1 
 1501000     1.026165   -3.1620856    1435.2311  0.079681941  0.080763497            2 
 1502000    1.0001469   -3.1288795    1440.4269  0.079917162  0.080750546            2 
 1503000   0.99809545   -3.1388957    1437.5266  0.079703182  0.080737815            4 
 1504000    1.0084823   -3.1558792    1443.9842  0.080007988  0.080724501            1 
 1505000    1.0111458   -3.1553811    1435.9908  0.079512227  0.080711371            4 
 1506000    1.0231368   -3.1503513    1440.2684  0.079696129  0.080698599            2 
 1507000    1.0277012   -3.1496675    1445.6168  0.079938995  0.080685662            2 
 1508000    1.0146504   -3.1400439    1445.2191  0.079864009  0.080672377            2 
 1509000   0.99624557    -3.145388    1445.4552  0.079824124  0.080659158            2 
 1510000    1.0265894   -3.1583613    1445.3795  0.079767079  0.080645997            5 
 1511000    1.0026942   -3.1590988    1450.7699  0.080011576  0.080633357            2 
 1512000    1.0148442    -3.134343    1451.1527  0.079979757  0.080620803            2 
 1513000    1.0190911   -3.1646134    1441.9091  0.079417776  0.080608034            3 
 1514000   0.99670485   -3.1728795     1448.415  0.079723416  0.080595033            4 
 1515000    1.0245718    -3.196316    1448.7095  0.079686991  0.080582169            3 
 1516000    1.0328609   -3.1581218    1449.4773  0.079676635  0.080568933            3 
 1517000    1.0136878   -3.1647577    1450.9509  0.079705057  0.080555598            3 
 1518000     1.039436    -3.117123    1451.7136  0.079694424  0.080542434            5 
 1519000    1.0010175   -3.1729074    1447.8629  0.079430707   0.08052953            1 
 1520000    1.0257096   -3.1446291    1455.6037  0.079802836  0.080516397            2 
 1521000    0.9980156   -3.1706715    1448.3364  0.079352201  0.080502599            2 
 1522000    1.0114642   -3.1730621    1453.4798   0.07958168  0.080488839            1 
 1523000    1.0120676   -3.1313607    1449.8576   0.07933123  0.080475685            6 
 1524000    1.0124359   -3.1809254    1457.6996  0.079707986    0.0804622            2 
 1525000    1.0045879   -3.1771784    1457.4261  0.079640768   0.08044899            4 
 1526000    1.0267063   -3.1563296    1457.0727  0.079569284  0.080436004            3 
 1527000    1.0012727   -3.1819203    1456.0916  0.079463631  0.080422911            1 
 1528000   0.99213729   -3.1598984    1455.9682  0.079404897  0.080410008            1 
 1529000   0.98714746   -3.1670106     1457.529   0.07943803  0.080396737            2 
 1530000    1.0146635   -3.1899473    1455.3603   0.07926799  0.080383621            1 
 1531000    1.0236178   -3.1645604     1459.625  0.079448347  0.080370206            2 
 1532000    1.0415335   -3.1401651    1464.7362  0.079674512  0.080357317            3 
 1533000    1.0036829   -3.1546342     1465.309  0.079653677  0.080344113            3 
 1534000   0.98897695   -3.1533061     1468.493   0.07977472  0.080331104            3 
 1535000   0.97192489   -3.1680414     1460.724  0.079300977   0.08031782            3 
 1536000    1.0046642    -3.191568    1460.0329  0.079211856  0.080304539            1 
 1537000   0.99004745   -3.1758067    1461.7711   0.07925456  0.080291514            2 
 1538000    1.0234255   -3.1585931    1463.7646  0.079311041  0.080278277            3 
 1539000      1.00232   -3.1647269    1461.3312  0.079127744  0.080265416            3 
 1540000    1.0032541   -3.1808517    1460.8641  0.079051086  0.080252405            4 
 1541000   0.99273801    -3.148008    1466.6322  0.079311712  0.080238711            2 
 1542000    1.0275535   -3.1692608    1469.5302  0.079416896   0.08022559            2 
 1543000   0.99514342     -3.17419    1468.6984  0.079320503  0.080212375            3 
 1544000    1.0070048   -3.1599862    1469.2357  0.079298125  0.080198774            2 
 1545000    1.0173797   -3.1710576    1469.4092  0.079256161  0.080185425            1 
 1546000    1.0161471   -3.1543016     1475.316  0.079523285  0.080171764            4 
 1547000    1.0321584   -3.1801551    1461.4516  0.078725037  0.080158048            2 
 1548000    1.0204799   -3.1676183    1476.9856  0.079510423  0.080144533            2 
 1549000    1.0022039   -3.1920649    1471.6169  0.079170266   0.08013108            5 
 1550000   0.99836598   -3.1385795    1478.6314  0.079496311  0.080117947            2 
 1551000    1.0122487    -3.174944    1478.2535  0.079424753  0.080104921            7 
 1552000    1.0081057   -3.1953542    1475.5244  0.079227039  0.080092005            4 
 1553000   0.98182445   -3.1767107    1478.7129   0.07934712  0.080079035            2 
 1554000    1.0120143    -3.187687    1481.4804  0.079444468  0.080066093            2 
 1555000   0.98740485   -3.1721725     1475.589  0.079077651  0.080053365            2 
 1556000    1.0081862   -3.1913479    1480.9298  0.079312865  0.080040545            2 
 1557000   0.97960444   -3.2114154    1479.3738  0.079178647  0.080028026            2 
 1558000    1.0010283   -3.1988752    1479.5323  0.079136301  0.080015393            2 
 1559000   0.99922745    -3.168539    1483.6978  0.079308197  0.080002611            5 
 1560000    1.0028855   -3.1842032    1480.0964   0.07906498  0.079990229            2 
 1561000    1.0000675   -3.1818808    1477.4867  0.078875008   0.07997783            1 
 1562000   0.99191834   -3.1849033    1484.4908  0.079198186  0.079964873            2 
 1563000   0.99059225   -3.1950485    1480.5838  0.078939209  0.079952228            1 
 1564000    1.0159701   -3.1839571    1484.2453  0.079083831  0.079939398            2 
 1565000    1.0142139    -3.201014     1483.949  0.079017521  0.079926739            1 
 1566000   0.99432469   -3.1539621    1487.0572  0.079132459  0.079913666            3 
 1567000    1.0240107   -3.1905935    1486.6804  0.079061922  0.079900891            2 
 1568000    1.0078116   -3.1657992    1491.7155  0.079279095  0.079887778            8 
 1569000   0.98669568   -3.1854448    1486.5798  0.078955801  0.079874924            2 
 1570000    0.9946716   -3.2030491     1487.559  0.078957483  0.079861598            2 
 1571000    1.0018056   -3.1737958     1485.693  0.078808241  0.079848604            2 
 1572000   0.98879728   -3.1895099    1490.9616  0.079037406  0.079835509            4 
 1573000   0.98359333   -3.1656023     1490.344  0.078954442   0.07982267            3 
 1574000    1.0083636   -3.1708267    1496.8797  0.079250303  0.079809821            2 
 1575000     1.007952   -3.1496776    1490.8078  0.078878719  0.079796934            2 
 1576000    1.0009838   -3.1658764    1493.0517   0.07894732  0.079783888            2 
 1577000    1.0118995   -3.1769696    1490.9318  0.078785235   0.07977086            3 
 1578000   0.98987047   -3.1478876    1500.5252  0.079241931   0.07975806            4 
 1579000    1.0107363   -3.1704591    1496.0766  0.078956968  0.079744736            4 
 1580000   0.98394144   -3.1851236    1492.8318  0.078735855  0.079731564            2 
 1581000   0.98194361   -3.1742104    1497.3886  0.078926238   0.07971849            1 
 1582000   0.99888576   -3.1907558    1493.0891  0.078649868   0.07970594            2 
 1583000   0.98891614   -3.1890517    1502.3823  0.079089403  0.079692913            4 
 1584000   0.99370341   -3.1812298    1497.1598  0.078764721  0.079680539            2 
 1585000   0.98341688   -3.1557008    1498.8336  0.078803029  0.079667972            3 
 1586000    1.0151451   -3.1876537    1498.8153   0.07875238  0.079655406            1 
 1587000   0.98247419   -3.1921985    1502.1898  0.078879953  0.079642695            2 
 1588000   0.99763552   -3.1694102    1499.8339  0.078706647   0.07962987            1 
 1589000   0.98918672   -3.1956838    1499.6704  0.078648543  0.079617393            2 
 1590000   0.99278589   -3.1840134    1506.2911  0.078946072  0.079604869            2 
 1591000   0.98350526   -3.1963872    1499.8795  0.078560626  0.079592208            3 
 1592000   0.99594767   -3.2093513    1507.0508  0.078886665  0.079579709            2 
 1593000    1.0225237   -3.2029204    1504.8598  0.078722526  0.079566825            1 
 1594000    1.0100015   -3.1687109    1509.7636  0.078929506  0.079553942            2 
 1595000    1.0188866   -3.2002777    1509.7503  0.078879328  0.079540936            3 
 1596000   0.98948841    -3.190497    1506.5755  0.078664134  0.079528501            2 
 1597000    1.0109515   -3.1843674    1512.7676  0.078937989  0.079515769            2 
 1598000   0.99292963   -3.1630177     1509.544  0.078720484  0.079502836            1 
 1599000    1.0007736   -3.2037358    1510.3658  0.078714084   0.07948984           10 
 1600000    1.0098272   -3.1709216    1508.1424  0.078549084  0.079476689            1 
 1601000   0.97599726   -3.2032782     1506.296  0.078403916  0.079463749            4 
 1602000   0.99883502   -3.1582548    1516.9013  0.078906641  0.079450599            2 
 1603000   0.97548321   -3.1928425    1512.5613  0.078631798  0.079437501            1 
 1604000    1.0030258   -3.1791143    1510.4655  0.078473892   0.07942412            2 
 1605000    1.0069044   -3.1577857    1516.8251  0.078755198  0.079410821            2 
 1606000   0.99616707   -3.1908056    1511.0272  0.078405313  0.079397135            6 
 1607000   0.99948595   -3.2062764    1509.9134  0.078298763   0.07938351            7 
 1608000   0.99555183   -3.2171734    1513.6262  0.078442487  0.079369775            2 
 1609000    1.0004364   -3.1876522    1514.7972  0.078454381  0.079355989            3 
 1610000    0.9851456   -3.1739638    1511.7944  0.078250229  0.079342882            4 
 1611000   0.97483631   -3.1860327    1507.0464   0.07795605   0.07932947            2 
 1612000   0.98415129   -3.2019368    1514.1383  0.078274314  0.079315863            2 
 1613000    1.0081468   -3.1760752    1520.8189  0.078570928  0.079302783            2 
 1614000   0.99872807   -3.1725037    1518.3988  0.078397296  0.079289411            2 
 1615000    1.0042034   -3.1800638     1521.097  0.078487979  0.079276265            2 
 1616000    1.0029375   -3.1857576    1517.7442  0.078266513  0.079262508            2 
 1617000    1.0119518   -3.1928078    1522.9448  0.078486128   0.07924909            8 
 1618000    1.0198245    -3.195211    1523.0613  0.078443621  0.079235244            3 
 1619000     1.004197   -3.1783381    1519.1221  0.078192405  0.079221412            5 
 1620000    1.0010791   -3.1711176    1524.2286   0.07840682  0.079207322            2 
 1621000   0.98863919   -3.1583874    1518.2411  0.078050641  0.079193431            3 
 1622000   0.97864451   -3.2134798    1513.8299  0.077775887  0.079178809            1 
 1623000    1.0030905   -3.1574838    1523.6211    0.0782307  0.079164567            5 
 1624000   0.99146792   -3.1859163    1524.0326  0.078203643  0.079150303            2 
 1625000     0.956684   -3.1958931    1520.2967  0.077963933  0.079135969            4 
 1626000   0.99691239   -3.1748738    1520.4948  0.077926138   0.07912154            2 
 1627000    1.0068648   -3.2000817    1522.6378  0.077988006  0.079107206            3 
 1628000    1.0259916   -3.2014119    1523.8029  0.077999737  0.079092689            7 
 1629000   0.98375756   -3.1868587     1524.908  0.078008391  0.079078114            5 
 1630000   0.98098389   -3.1897747    1525.7428  0.078003211  0.079063809            2 
 1631000    0.9957523   -3.2001861    1523.3844  0.077834886  0.079049747            3 
 1632000    1.0231348   -3.1597507    1527.0711  0.077975444  0.079035205            4 
 1633000   0.97971416   -3.1806014    1524.5814  0.077800643  0.079020899            3 
 1634000    1.0037395   -3.1968996    1529.2048  0.077988821  0.079006361            6 
 1635000   0.94843771   -3.1819335    1529.1444  0.077938045  0.078992352            3 
 1636000    1.0028359   -3.1582761     1530.358  0.077952222  0.078977871            2 
 1637000   0.98624575   -3.1873326    1527.5864  0.077763509   0.07896389            2 
 1638000    0.9843925   -3.1614182    1527.7908  0.077726435  0.078949434            2 
 1639000   0.99736907   -3.2042365    1529.4281  0.077762259  0.078934829            4 
 1640000   0.98499777   -3.1915524    1532.2755  0.077859528  0.078920407            2 
 1641000   0.96900657   -3.1753541    1535.1129  0.077956171  0.078906365            2 
 1642000   0.99349737   -3.2041299    1529.0703  0.077602027  0.078892071            1 
 1643000   0.99312488   -3.1958658    1529.6529  0.077584344  0.078877783            3 
 1644000    1.0068753   -3.2063715    1530.0115  0.077555325  0.078863671            3 
 1645000   0.98646293    -3.165423    1533.3195   0.07767576  0.078849669            2 
 1646000   0.97533529   -3.1755412    1541.4524   0.07804032  0.078835775            3 
 1647000   0.95579968   -3.1563033    1537.7481  0.077805512  0.078821641            1 
 1648000   0.99517188   -3.2057844    1533.5046  0.077543721  0.078807791            2 
 1649000    1.0027167   -3.2024633    1535.4044    0.0775927  0.078793233            3 
 1650000   0.96798474   -3.1784488    1540.3823  0.077797086  0.078779055            1 
 1651000   0.99702472   -3.1771488    1537.9807  0.077628747   0.07876477            4 
 1652000   0.98859058   -3.1956406    1532.6726  0.077313995  0.078750391            2 
 1653000   0.98381692   -3.1984023    1541.2283  0.077698544  0.078735745            2 
 1654000   0.98736318   -3.2236998    1535.0013  0.077337832  0.078721572            2 
 1655000   0.99179329   -3.1835713    1546.0708  0.077848478  0.078706768            2 
 1656000   0.98850828   -3.2003586    1539.3579  0.077463662   0.07869234            1 
 1657000    1.0084644   -3.1939532    1542.9396  0.077597041  0.078677778            2 
 1658000   0.98309251   -3.1928629    1540.1512  0.077410091  0.078663233            3 
 1659000    1.0000499   -3.1977093    1541.8786  0.077450203  0.078648871            3 
 1660000   0.98055964   -3.1995972    1549.8253  0.077802476  0.078634665            2 
 1661000   0.96794536   -3.1860374    1539.2961  0.077227376  0.078620086            2 
 1662000   0.98328013    -3.209951     1549.155  0.077675239  0.078605513            2 
 1663000   0.96534384   -3.2043911    1543.3486  0.077337571  0.078591262            2 
 1664000   0.99994247   -3.1945775     1541.552  0.077201122  0.078576491            3 
 1665000   0.98815456   -3.2046942    1548.4301  0.077499002  0.078561897            5 
 1666000   0.97775707    -3.192639    1548.3375  0.077447855  0.078547222            3 
 1667000   0.99832855    -3.189482    1549.3623  0.077452627   0.07853289            5 
 1668000    0.9961593   -3.1787188    1553.3318  0.077604506  0.078518359            1 
 1669000   0.99712386    -3.212362    1548.3192  0.077307731  0.078503446            2 
 1670000   0.98393598   -3.2037902    1550.7837  0.077384416   0.07848869            7 
 1671000   0.96860368   -3.1915615    1553.4624  0.077471692  0.078474614            3 
 1672000   0.98223868   -3.2251327    1553.1369  0.077409136  0.078459954            3 
 1673000   0.97245492   -3.2186626    1549.4903  0.077181227  0.078445239            3 
 1674000   0.98993545   -3.2285474    1554.2591  0.077372514  0.078430529            4 
 1675000   0.97420979   -3.1973072    1558.1565  0.077520224  0.078416174            5 
 1676000   0.98420918   -3.2015865    1553.0975   0.07722243  0.078401492            2 
 1677000     0.972994   -3.1869467    1560.3641  0.077537472   0.07838722            2 
 1678000    0.9666537   -3.2041686    1555.8731  0.077268231  0.078372827            3 
 1679000    1.0007366   -3.1740167    1556.4467  0.077250678  0.078358723            2 
 1680000   0.97683385   -3.1926731    1561.3885  0.077449827  0.078344387            3 
 1681000    1.0014799   -3.2230726    1566.2242  0.077643477  0.078330246            3 
 1682000    1.0053328   -3.1872995    1558.5557  0.077217385  0.078316049            3 
 1683000   0.99222815   -3.2199208    1557.5189  0.077120165  0.078301996            2 
 1684000   0.97830472   -3.1944936    1557.7224  0.077084443  0.078287927            3 
 1685000   0.98804366    -3.190428    1561.7626  0.077238508  0.078273969            2 
 1686000   0.99982635   -3.1997543    1566.2443  0.077414212  0.078259824            3 
 1687000    1.0045368   -3.1949453    1559.7311  0.077046589  0.078245769            7 
 1688000   0.98328666   -3.1998722    1566.3819  0.077329278  0.078231617            3 
 1689000   0.99814826   -3.1757705    1567.8281  0.077354851  0.078217623            2 
 1690000   0.98031294   -3.2079936    1561.2816  0.076986271  0.078203713            2 
 1691000   0.96815021   -3.1691905    1566.8231  0.077213832  0.078189836            4 
 1692000   0.98083058   -3.2066545    1569.4041  0.077295315  0.078175436            2 
 1693000   0.99048568   -3.1942763    1568.2256  0.077191653   0.07816155            4 
 1694000   0.99395309   -3.1739576    1568.2037  0.077145008  0.078147781            2 
 1695000    1.0040229   -3.1700938    1571.4954  0.077261326  0.078134171            2 
 1696000   0.96673497   -3.1881673    1577.9318  0.077532024   0.07812067            1 
 1697000   0.99280797   -3.2067516    1576.1147  0.077397107  0.078106852            3 
 1698000   0.96073644   -3.1654325    1570.3675  0.077069469  0.078093108            2 
 1699000   0.95789926   -3.2013284    1566.5377  0.076836263  0.078078991            1 
 1700000   0.99233317     -3.18063    1575.6353  0.077237023  0.078065134            3 
 1701000   0.96886351   -3.2138429    1566.8917  0.076763264   0.07805107            3 
 1702000    0.9855027   -3.1978269    1575.4234  0.077135889  0.078036898            2 
 1703000   0.98400433   -3.2101646    1565.5974  0.076609777  0.078022469            4 
 1704000   0.98507612   -3.2213293    1569.4436  0.076752912  0.078008091            7 
 1705000   0.98025096   -3.2182927    1570.1419  0.076742028  0.077993812            2 
 1706000   0.99472388   -3.2177471     1577.815  0.077071855  0.077979664            3 
 1707000   0.98782413   -3.2021054    1573.3289  0.076807697  0.077965391            3 
 1708000   0.96310242   -3.1822199    1578.5759   0.07701873  0.077951471            3 
 1709000   0.97226807   -3.2072753    1582.6447  0.077172063  0.077937258            6 
 1710000   0.97671393   -3.2115817    1578.5954  0.076929602  0.077923271            3 
 1711000   0.98619357   -3.2152211    1581.3701  0.077019778  0.077909011            5 
 1712000     0.977685   -3.2224771    1576.8103  0.076752837  0.077894576            2 
 1713000   0.97978549   -3.2186344     1578.602  0.076795194   0.07788019            7 
 1714000   0.98108085   -3.2198035    1574.4685  0.076549422  0.077865927            4 
 1715000   0.96887582   -3.2215154    1582.8793  0.076913472   0.07785161            5 
 1716000   0.97805147   -3.1989043    1586.0128  0.077020825  0.077837355            3 
 1717000   0.96758791   -3.1976807    1585.8207  0.076966643  0.077823218            2 
 1718000   0.97753737   -3.1995929    1580.3426  0.076656119  0.077809358            1 
 1719000   0.96413758   -3.1929664    1583.7326   0.07677587   0.07779536            2 
 1720000   0.97252306   -3.2140081    1587.5073  0.076914112  0.077781378            3 
 1721000   0.97950042   -3.2075967    1582.3131   0.07661791  0.077767426            2 
 1722000   0.97012048   -3.1975246     1581.807  0.076548923  0.077753613            2 
 1723000   0.99104862   -3.2176103    1588.1937  0.076813391  0.077739492            2 
 1724000    1.0086215   -3.1864298    1586.3948  0.076681884  0.077725374            1 
 1725000    0.9665677   -3.1924509    1591.8151  0.076899281  0.077711446            3 
 1726000   0.95218073   -3.2369248     1578.925   0.07623238  0.077697498            1 
 1727000   0.96752157   -3.2252963    1583.6647   0.07641694  0.077683212            2 
 1728000    0.9611943   -3.1951631    1590.7127  0.076712613  0.077669211            4 
 1729000   0.99228844    -3.204222    1593.5414   0.07680458  0.077655519            4 
 1730000   0.97233336   -3.2024302    1591.2015   0.07664747   0.07764161            5 
 1731000    1.0011658   -3.2097276     1592.225  0.076652466  0.077627701            2 
 1732000    0.9441634   -3.2059307     1593.993  0.076693274  0.077613874            3 
 1733000   0.98403882   -3.2143125    1596.3577   0.07676273  0.077599875            1 
 1734000   0.95114265   -3.2164677    1598.4514  0.076819078  0.077585874            2 
 1735000   0.97887571   -3.1857812    1596.5775    0.0766848  0.077572518            4 
 1736000    0.9809544   -3.2115028    1600.3474  0.076821593  0.077559295            4 
 1737000   0.98598148   -3.2104046    1593.9526  0.076470572  0.077545219            2 
 1738000   0.97761843    -3.183626    1602.7308  0.076847467  0.077531087            1 
 1739000    0.9626019   -3.1936675    1596.2466  0.076492552  0.077517474            4 
 1740000   0.96433661   -3.2340346    1593.8864  0.076335557  0.077503285            3 
 1741000   0.95943572   -3.1937591    1599.0603  0.076539358  0.077489097            1 
 1742000   0.95985649   -3.2093154    1594.3737  0.076271225  0.077475073            4 
 1743000   0.98675457   -3.1878386    1599.8362  0.076488633  0.077461324            1 
 1744000   0.96921286   -3.1822958    1598.9681   0.07640329  0.077447679            1 
 1745000   0.94922186    -3.224447    1600.7859  0.076446319  0.077433617            3 
 1746000   0.96749479   -3.2212499    1595.1664  0.076134328  0.077419319            2 
 1747000   0.96359632   -3.2241992    1605.1173  0.076565414   0.07740512            4 
 1748000   0.95982879   -3.2078084    1606.2319  0.076574748   0.07739108            1 
 1749000   0.97326239   -3.2450229    1599.2627  0.076198909  0.077376856            2 
 1750000   0.97994529   -3.2063829     1605.943  0.076473476  0.077362531            3 
 1751000   0.95312799   -3.2217432    1608.2195  0.076538144  0.077348578            2 
 1752000    1.0119186    -3.213804    1605.8224   0.07638044  0.077334762            6 
 1753000   0.99566309   -3.2133211    1609.6723  0.076519885   0.07732095            4 
 1754000   0.95666801   -3.2164668    1609.1577  0.076451811  0.077306869            7 
 1755000   0.97831559   -3.2099501    1615.1751  0.076693977  0.077293007            2 
 1756000   0.96425846   -3.2002273    1609.0317  0.076358757  0.077279536            2 
 1757000   0.97818077   -3.2093252    1611.2629  0.076421122  0.077266003            2 
 1758000   0.97603807   -3.1945906    1608.5313  0.076248164  0.077252352            1 
 1759000    0.9837642   -3.2368893    1611.3832  0.076339928  0.077238606            3 
 1760000    0.9627945   -3.2079296    1605.2271  0.076005073  0.077224726            3 
 1761000   0.95625751   -3.2230757    1610.1406  0.076194427  0.077211074            4 
 1762000   0.96193926   -3.1964236    1613.7395  0.076321393  0.077197619            2 
 1763000    0.9633732   -3.2348924     1618.839  0.076519144  0.077183907            3 
 1764000   0.96867314   -3.1679247    1620.8901  0.076572661   0.07717026            2 
 1765000     0.977695   -3.2072771     1623.093  0.076633285  0.077156825            1 
 1766000   0.97611591   -3.2266787    1614.5765   0.07618802  0.077143094            2 
 1767000     0.951122   -3.2199538    1616.2808  0.076225278    0.0771296            4 
 1768000   0.97357454    -3.235817    1616.9984  0.076215986  0.077116093            3 
 1769000   0.95583545   -3.2004108    1619.2696  0.076279894  0.077102216            3 
 1770000   0.94555694   -3.2220988    1622.8789  0.076406726  0.077088499            3 
 1771000   0.97321132   -3.2020431    1623.0003  0.076369299  0.077075063            2 
 1772000   0.98394403    -3.202398    1618.8214  0.076129674  0.077061508            2 
 1773000   0.96906421   -3.2222996    1620.0066  0.076142441  0.077047678            4 
 1774000   0.97452113   -3.2041153    1619.4131  0.076071643  0.077033531            5 
 1775000   0.96297062   -3.1950275     1623.386  0.076215306  0.077019523            3 
 1776000   0.95956378   -3.2200105    1618.4173   0.07593925  0.077005871            1 
 1777000   0.93882012   -3.2265287     1619.597  0.075951839  0.076991668            2 
 1778000   0.95601239   -3.2051374    1627.1526  0.076263247  0.076977532            3 
 1779000   0.96071721   -3.2244204    1623.6281  0.076055279  0.076963613            3 
 1780000   0.95545935   -3.2205859    1627.6142  0.076199165  0.076949478            1 
 1781000   0.98381484   -3.2259598    1625.9111  0.076076692  0.076936072            2 
 1782000   0.95075346   -3.1996664    1622.2404  0.075862346  0.076922413            2 
 1783000   0.95937681   -3.2262573    1625.1776  0.075957075   0.07690888            2 
 1784000   0.97315304   -3.2433346    1629.5587  0.076119149  0.076895069            2 
 1785000   0.97115982    -3.229525    1631.1498  0.076150784  0.076880973            4 
 1786000   0.97183713   -3.2095625    1627.1192  0.075920084  0.076866838            2 
 1787000   0.95432625   -3.2262344    1627.9711  0.075917323  0.076853081            2 
 1788000   0.97373189    -3.209903    1625.5597  0.075762477  0.076839385            2 
 1789000   0.96803426   -3.2250456    1632.8993  0.076062015  0.076825752            9 
 1790000   0.98054956   -3.2132594    1633.4613  0.076045685  0.076812157            4 
 1791000   0.97366807   -3.2157764    1630.7501  0.075877076  0.076798518            1 
 1792000   0.97330828   -3.2460997    1637.0968  0.076129875  0.076784455            1 
 1793000   0.98360963   -3.2370967    1629.0112  0.075711619  0.076770771            1 
 1794000   0.95039608   -3.2113458    1636.6214   0.07602292   0.07675712            2 
 1795000   0.95906578   -3.2268281    1634.1408  0.075865405  0.076743198            3 
 1796000   0.96203376   -3.2673446    1632.5884  0.075751132  0.076729355            3 
 1797000   0.94825865   -3.2076588    1636.5108  0.075890872  0.076715634            3 
 1798000   0.94380313   -3.2366577    1639.6767  0.075995396  0.076702146            2 
 1799000    0.9876565   -3.2143175     1641.166   0.07602214  0.076688287            5 
 1800000   0.96926454   -3.2426931     1636.817  0.075778566  0.076674283            4 
 1801000   0.95279394    -3.257038    1634.2175  0.075616209  0.076660413            4 
 1802000   0.98089572   -3.2250637    1638.9588  0.075793509  0.076646497            3 
 1803000   0.95557226     -3.25126    1635.7354  0.075602489  0.076632527            1 
 1804000   0.97652989   -3.2199897    1636.4111  0.075591792  0.076618461            2 
 1805000   0.96268397   -3.2369824    1640.9538   0.07575964  0.076604629            3 
 1806000   0.96857739   -3.2409708    1641.8422  0.075758683  0.076590368            3 
 1807000   0.96502957   -3.2242547    1638.6719  0.075570556  0.076576627            4 
 1808000   0.97775563    -3.192309    1642.2778  0.075694958   0.07656289            6 
 1809000   0.95511806   -3.2353613    1642.4483   0.07566097  0.076548951            6 
 1810000   0.96640142   -3.2328837    1646.4097  0.075801553  0.076535082            2 
 1811000   0.98289658   -3.2089063    1643.0486  0.075605033  0.076521294            2 
 1812000   0.98496096   -3.1979431    1645.6921  0.075684882  0.076507771            2 
 1813000   0.95983409   -3.2046433    1647.3953  0.075721424   0.07649423            3 
 1814000   0.95067262   -3.2148399    1652.6079  0.075919144  0.076480795            2 
 1815000   0.96810649   -3.2430611    1642.1681  0.075397984  0.076467172            1 
 1816000   0.95474574   -3.2303378    1652.3839  0.075825252  0.076453566            1 
 1817000   0.93446558   -3.2521065    1649.5607  0.075654042  0.076439602            7 
 1818000    0.9586111   -3.2291066    1647.0745  0.075498463  0.076425887            3 
 1819000   0.97466486   -3.2519981    1641.9905  0.075224049  0.076412025            6 
 1820000   0.94240503   -3.2410863    1643.2657  0.075241102   0.07639803            3 
 1821000   0.94820662   -3.2362577    1643.3718  0.075204641  0.076383959            5 
 1822000   0.95867431   -3.2357826    1652.2743   0.07557054  0.076369802            2 
 1823000   0.95307647   -3.2203063    1652.5975  0.075543863  0.076356089            2 
 1824000   0.97693514   -3.2160157    1657.0595  0.075706301  0.076342392            2 
 1825000   0.96488234   -3.2293465     1653.364  0.075496071  0.076328613            4 
 1826000   0.98223554   -3.2342889    1650.0529  0.075303619  0.076314893            5 
 1827000   0.94886812   -3.2406424    1655.9376  0.075530817  0.076301013            2 
 1828000    0.9621554   -3.2329408    1652.6968  0.075341758  0.076286954            3 
 1829000   0.94799861   -3.2347184    1652.3889  0.075286536  0.076273204            2 
 1830000   0.96918474   -3.2175953    1657.8541  0.075494266  0.076259478            4 
 1831000   0.96234068   -3.2317996    1657.2889  0.075427313  0.076246126            2 
 1832000   0.93882887   -3.2099578     1657.714  0.075405477  0.076232179            3 
 1833000   0.95119879    -3.228684    1662.7312  0.075592434  0.076218944            2 
 1834000   0.96899578   -3.2318817    1661.4153  0.075491428  0.076205339            2 
 1835000   0.93468658   -3.2498205    1659.1268  0.075346359  0.076191737            3 
 1836000   0.94990062   -3.2470372    1659.1291  0.075305425  0.076177716            3 
 1837000   0.95471382   -3.2497464    1659.3707  0.075275389  0.076163866            2 
 1838000   0.96721171   -3.2269727    1662.1229  0.075359217  0.076150056            5 
 1839000   0.96869709   -3.2463495    1662.8066  0.075349222  0.076136165            4 
 1840000   0.96162266   -3.2351252    1665.4425  0.075427651  0.076122325            6 
 1841000   0.97909555   -3.2234675    1668.1577  0.075509584  0.076108481            2 
 1842000   0.94639951   -3.2401821    1659.0299  0.075055642  0.076094756            2 
 1843000   0.94752082   -3.2161973    1658.5967   0.07499533  0.076081025            7 
 1844000   0.93773454    -3.244627    1661.0716  0.075066503  0.076066994            2 
 1845000   0.95917221   -3.2441067    1663.1542  0.075119883  0.076052914            3 
 1846000   0.95869156   -3.2276666      1658.41  0.074865023  0.076039257            1 
 1847000   0.95817942   -3.2294903    1671.0281  0.075393798  0.076025369            3 
 1848000    0.9521717   -3.2452425     1666.702   0.07515792  0.076011108            3 
 1849000   0.93420727   -3.2527518     1661.951  0.074903144  0.075997011            4 
 1850000   0.93140292   -3.2126824    1667.2211  0.075100048  0.075982968            3 
 1851000   0.94757787   -3.2147561    1669.0198  0.075140457  0.075968777            1 
 1852000   0.95483101   -3.2206827    1666.3005  0.074977526  0.075955182            3 
 1853000   0.94552108   -3.2155521    1668.9049  0.075054185  0.075941151            2 
 1854000   0.97444216   -3.2479362     1665.432  0.074857604  0.075927397            2 
 1855000   0.95301841   -3.2336107    1674.1244  0.075207746   0.07591323            5 
 1856000   0.93136302   -3.2522195    1672.3933  0.075089498  0.075899212            2 
 1857000   0.95762772   -3.2257812    1668.3024   0.07486548  0.075884983            2 
 1858000   0.95789168    -3.232768    1673.4783  0.075057332  0.075871049            5 
 1859000   0.95372434   -3.2383724    1673.7829  0.075030612  0.075857281            4 
 1860000   0.95508156   -3.2306702    1677.0564  0.075136937  0.075843168            4 
 1861000   0.95025533   -3.2502142    1671.4644  0.074846158   0.07582927            2 
 1862000    0.9434184    -3.222729    1685.5681  0.075437171  0.075815318            2 
 1863000   0.95326868   -3.2516873    1671.7818  0.074780005  0.075801522            1 
 1864000    0.9374589   -3.2367685    1677.9565  0.075015937  0.075787809            2 
 1865000   0.95044737   -3.2319881    1678.0057  0.074977915  0.075774117            1 
 1866000   0.92120667   -3.2258977    1676.3704  0.074864703  0.075760268            2 
 1867000   0.95850977   -3.2628663    1673.3735  0.074690837  0.075746349            4 
 1868000    0.9481991   -3.2421224    1680.3819  0.074963503   0.07573282            3 
 1869000    0.9607126    -3.218169    1679.4444  0.074881595  0.075719192            1 
 1870000   0.95416169   -3.2353862     1687.283  0.075190866   0.07570565            3 
 1871000   0.95503222   -3.2369251    1680.6156  0.074853716  0.075691872            2 
 1872000   0.96929608   -3.2357311    1682.5489  0.074899791  0.075677865            1 
 1873000   0.93369851   -3.2360828    1682.9865   0.07487927  0.075663679            6 
 1874000    0.9415195   -3.2409929    1679.6683  0.074691758  0.075649657            4 
 1875000    0.9452605   -3.2280051    1678.5751  0.074603339  0.075635643            2 
 1876000   0.94956734   -3.2422027    1682.0454  0.074717725  0.075621515            1 
 1877000   0.92916637   -3.2408103    1679.6866  0.074573192  0.075607139            3 
 1878000   0.94055025   -3.2291692    1682.5148  0.074658983   0.07559267            2 
 1879000   0.96690779   -3.2359864    1683.8009  0.074676284  0.075578414            2 
 1880000   0.94988352   -3.2606753    1686.8274  0.074770716   0.07556402            2 
 1881000   0.93943106   -3.2387259    1679.3355  0.074399054  0.075549662            4 
 1882000   0.94144004   -3.2547963    1686.6909  0.074685216   0.07553511            2 
 1883000   0.95737876    -3.229592    1686.3945  0.074632434  0.075521061            2 
 1884000   0.94680696   -3.2319449    1683.8337  0.074479551  0.075507483            1 
 1885000     0.922171   -3.2533482    1682.2914  0.074371857  0.075493228            3 
 1886000    0.9368062   -3.2499275    1682.8609  0.074357586  0.075478789            3 
 1887000   0.97293165   -3.2671684    1689.7862  0.074624014  0.075464311            2 
 1888000   0.95886343   -3.2507034    1685.8694  0.074411609  0.075449861            2 
 1889000   0.92633773   -3.2172403    1686.5835  0.074403721  0.075435452            3 
 1890000   0.95920502   -3.2458821    1684.7504  0.074283527  0.075421014            2 
 1891000   0.95605035   -3.2631653    1680.2688   0.07404675  0.075406348            2 
 1892000   0.96159745   -3.2392245    1681.9124  0.074080004   0.07539177            3 
 1893000   0.93697777    -3.267282     1687.832   0.07430146  0.075376951            3 
 1894000   0.94413796   -3.2548285    1692.4954  0.074467414  0.075362566            4 
 1895000   0.95193078   -3.2443968    1692.1347  0.074412255   0.07534814            2 
 1896000   0.96572998   -3.2518014    1693.3968  0.074428479   0.07533365            3 
 1897000   0.96160249   -3.2742916    1686.8629  0.074102219  0.075318886            2 
 1898000   0.93689347   -3.2747375    1686.7501  0.074058223  0.075304427            1 
 1899000   0.94519297   -3.2521572    1688.3002  0.074087249  0.075290064            3 
 1900000   0.94939572   -3.2409244    1691.2529  0.074177757  0.075275904            2 
 1901000   0.95624075   -3.2337421    1694.1669  0.074266478  0.075261681            3 
 1902000   0.94757633   -3.2406146    1698.8435  0.074432329  0.075247386            4 
 1903000   0.94569581   -3.2784986    1694.0498  0.074183297  0.075233154            3 
 1904000   0.94693197   -3.2723076    1695.3661  0.074201949  0.075218917            4 
 1905000   0.94327551   -3.2327874    1700.6107  0.074392418  0.075204402            2 
 1906000   0.93320218   -3.2528581    1697.5503  0.074219583  0.075190054            2 
 1907000   0.93917194   -3.2243563    1701.4435  0.074350793   0.07517603            3 
 1908000   0.97197396     -3.25707    1704.4444  0.074442888  0.075162061            5 
 1909000    0.9571188   -3.2780671    1687.6354  0.073670134  0.075147951            3 
 1910000   0.95036451   -3.2552691    1707.7195  0.074507833   0.07513359            2 
 1911000   0.94261543    -3.248107      1700.58  0.074157511  0.075119402            2 
 1912000   0.95873812   -3.2563508    1698.5404  0.074029829  0.075105257            4 
 1913000   0.93419564   -3.2613461    1702.0101  0.074142277  0.075091143            2 
 1914000   0.94071396   -3.2484956    1701.4717  0.074080097  0.075076777            4 
 1915000   0.95791477   -3.2688723    1696.2854  0.073815728  0.075062247            3 
 1916000   0.94579522   -3.2280003    1703.3556  0.074084706  0.075048021            3 
 1917000   0.94966046   -3.2466422    1707.8159  0.074239956  0.075033843            2 
 1918000   0.93654923   -3.2154796    1713.6495  0.074454706  0.075019609            3 
 1919000   0.94911831   -3.2818152    1701.0883  0.073870431  0.075005128            2 
 1920000   0.95920676   -3.2865821    1703.9967  0.073958189  0.074990881            5 
 1921000   0.92781414   -3.2452307    1709.1884  0.074144906  0.074976603            4 
 1922000   0.95311737   -3.2579883    1700.3276  0.073722147  0.074962314            3 
 1923000   0.93803932   -3.2947055    1701.1974  0.073721502  0.074947939            3 
 1924000   0.94474986   -3.2552488    1704.6701  0.073833599  0.074933921            6 
 1925000   0.94801714   -3.2668104    1713.3765  0.074172145  0.074919721            5 
 1926000   0.94167375   -3.2581072    1706.5543  0.073838451  0.074905554            5 
 1927000   0.96048712   -3.2947415    1714.6308  0.074149402   0.07489164            3 
 1928000   0.96161216   -3.2579242    1709.3763   0.07388383  0.074877656            5 
 1929000   0.93961503   -3.2598588    1719.0345  0.074262764  0.074863931            5 
 1930000   0.96383367   -3.2361348     1715.196   0.07405855  0.074850207            3 
 1931000   0.92682249   -3.2521722    1716.1461  0.074061198   0.07483667            2 
 1932000   0.93813329   -3.2430965    1718.8495  0.074139472  0.074823227            4 
 1933000    0.9468136   -3.2667947    1713.1461   0.07385524  0.074809411            2 
 1934000   0.94010549   -3.2562616    1721.1783  0.074163145  0.074795871            2 
 1935000   0.90153034   -3.2649042    1719.5855  0.074056225  0.074782138            3 
 1936000    0.9564441   -3.2639795     1712.702  0.073721679  0.074768386            2 
 1937000   0.91601985   -3.2556071    1720.7518  0.074029933  0.074754213            3 
 1938000   0.91041553    -3.279804     1717.308  0.073843652  0.074740334            3 
 1939000   0.93593486   -3.2564481    1717.3964  0.073809369   0.07472629            1 
 1940000   0.96121632   -3.2723995    1719.8274  0.073875746  0.074712366            2 
 1941000   0.94663638   -3.2624407    1724.2913  0.074029338  0.074698206            2 
 1942000   0.95169771   -3.2418403    1722.5228  0.073915326    0.0746841            3 
 1943000   0.96996039   -3.2248205    1722.3318  0.073869092  0.074669976            3 
 1944000   0.93481898   -3.2313053    1719.0445  0.073690179  0.074655947            3 
 1945000   0.94943793    -3.243067     1722.971  0.073820522  0.074641897            6 
 1946000   0.93816299   -3.2383299    1722.1736  0.073748441  0.074627799            4 
 1947000   0.91727016   -3.2587508    1725.0681  0.073834449  0.074613537            3 
 1948000   0.94357674     -3.26566    1720.7159  0.073610367  0.074599461            1 
 1949000   0.92268435   -3.2785168    1722.4425   0.07364642  0.074585048            6 
 1950000   0.96611894   -3.2648865    1724.7769  0.073708415  0.074571082            2 
 1951000   0.93823019   -3.2644955    1726.6219  0.073749439    0.0745569            4 
 1952000   0.94386435   -3.2611821    1728.8216  0.073805568  0.074542711            4 
 1953000   0.95007363   -3.2270306    1733.4557  0.073965511  0.074529069            4 
 1954000   0.94164188   -3.2428144    1730.0291  0.073781519  0.074515373            3 
 1955000   0.93436885   -3.2666189    1733.8736  0.073907654  0.074501556            2 
 1956000   0.94268288   -3.2634906    1731.0878  0.073751184   0.07448802            3 
 1957000   0.92627756   -3.2601764    1734.4338  0.073855978  0.074474447            3 
 1958000   0.94292474   -3.2399721     1732.179  0.073722292     0.074461            1 
 1959000   0.91740599   -3.2637742    1731.0083   0.07363486  0.074447447            2 
 1960000   0.95795593   -3.2439509    1737.2635  0.073863243  0.074433762            2 
 1961000   0.94126776   -3.2582497    1737.2193  0.073823702  0.074420125            2 
 1962000   0.92253561   -3.2418668    1731.6501  0.073549529  0.074406703            3 
 1963000   0.93258561   -3.2384215    1735.4427  0.073673063  0.074393233            2 
 1964000   0.93075107    -3.274642    1731.4218  0.073464943  0.074379228            5 
 1965000   0.94501992   -3.2770608    1734.9058  0.073575308  0.074365434            2 
 1966000   0.91902646   -3.2411156    1737.6725   0.07365516  0.074351508            1 
 1967000   0.90765573   -3.3046097    1724.7429  0.073069943  0.074337208            2 
 1968000   0.96036355    -3.271507    1733.2628  0.073393579  0.074322808            2 
 1969000   0.92126429   -3.2765573    1730.8485  0.073254125  0.074308476            2 
 1970000   0.92762613   -3.2586031    1735.2516  0.073403198  0.074294493            4 
 1971000   0.93990742   -3.2542206    1736.4103  0.073414944  0.074280205            2 
 1972000    0.9243153   -3.2407568    1744.6495  0.073725893  0.074266063            5 
 1973000   0.94391912   -3.2632263    1732.6168  0.073180301  0.074251898            2 
 1974000   0.95020114   -3.2758076     1739.864  0.073449172  0.074237822            3 
 1975000   0.93874019   -3.2681522     1735.486  0.073227256  0.074223407            3 
 1976000   0.95281379   -3.2637766    1733.5899  0.073110236  0.074208872            6 
 1977000   0.92678264   -3.2715358    1737.4731  0.073236939   0.07419465            3 
 1978000    0.9450207   -3.2743886    1739.0733  0.073267327  0.074180204            4 
 1979000   0.94109701   -3.2463661     1732.122  0.072937595    0.0741656            3 
 1980000   0.94307725   -3.3110852    1737.7103  0.073135955  0.074151415            7 
 1981000   0.91265136   -3.2442952    1745.8427  0.073441136  0.074137142            2 
 1982000   0.92887183   -3.2859355    1733.9968  0.072906023  0.074122681            4 
 1983000   0.94581749   -3.2444309     1733.641  0.072854302  0.074108216            3 
 1984000   0.92654408   -3.2573869    1740.6729  0.073112943  0.074093839            3 
 1985000   0.94051145   -3.2618053    1740.2159  0.073056923  0.074079317            4 
 1986000   0.93468327   -3.2513537    1735.7431  0.072832456  0.074064523            2 
 1987000   0.93405315    -3.266736    1743.4239  0.073117927  0.074049761            4 
 1988000   0.92531836   -3.2396267     1742.866  0.073057764  0.074035097            3 
 1989000    0.9094927   -3.2375607    1744.0009  0.073068581  0.074020251            3 
 1990000   0.93246548   -3.2735351    1741.0256  0.072907271   0.07400551            4 
 1991000   0.94930424   -3.2841426    1742.3433  0.072925805  0.073990685            6 
 1992000   0.93403256    -3.295162     1744.745  0.072989668  0.073975902            6 
 1993000   0.93424973   -3.2515459     1739.963  0.072753096  0.073961292            2 
 1994000   0.93425706   -3.2657014    1746.8426   0.07300412  0.073946631            2 
 1995000   0.94901208   -3.2715476    1748.5859  0.073040347  0.073931861            2 
 1996000   0.94219968   -3.2412387    1749.4739  0.073040826  0.073917217            2 
 1997000   0.93802886   -3.2811772     1742.449  0.072711107  0.073902778            4 
 1998000   0.94025124   -3.2899322    1748.1428  0.072912195  0.073888064            4 
 1999000   0.95152038   -3.2778495    1748.2597  0.072880596  0.073873558            5 
 2000000   0.92972013   -3.3124892    1749.0592  0.072877467    0.0738591            2 
 2001000   0.93334265   -3.2842451     1739.868  0.072458269  0.073844172            5 
 2002000    0.9492678    -3.272347    1749.6717  0.072830158  0.073829417            2 
 2003000   0.95330382   -3.2780188    1745.8121  0.072633222  0.073814349            3 
 2004000   0.94898494   -3.2670781    1745.2186  0.072572298   0.07379923            3 
 2005000     0.922114   -3.2973595    1740.5692  0.072342858  0.073784008            2 
 2006000   0.95362603   -3.2775947     1751.974  0.072780575  0.073769031            2 
 2007000   0.90489191   -3.2503729    1741.3123  0.072301622  0.073753758            4 
 2008000   0.91639931   -3.2835993    1743.5539  0.072358643  0.073738364            4 
 2009000   0.94080861   -3.2916875     1742.174   0.07226539  0.073722968            2 
 2010000   0.90566166   -3.2734324    1749.5188  0.072533949  0.073707658            4 
 2011000   0.94712525   -3.2707707    1749.8057  0.072509768  0.073692262            4 
 2012000    0.9241735   -3.2613422    1753.0127  0.072606555  0.073676915            3 
 2013000   0.95137178   -3.2772182    1744.6171  0.072222931   0.07366145            4 
 2014000   0.92992753   -3.2804618    1746.0954  0.072248239  0.073646049            3 
 2015000   0.91811488   -3.2595847    1756.5336  0.072644068  0.073630945            2 
 2016000   0.91156141   -3.2653609    1750.0511  0.072340077  0.073615888            3 
 2017000   0.95061262   -3.2743412    1756.0961  0.072553964  0.073600769            7 
 2018000   0.93598883   -3.2492478    1746.2281  0.072110509  0.073585935            1 
 2019000   0.92220177   -3.2391333     1756.995  0.072519195  0.073570799            5 
 2020000   0.91602431   -3.2643245    1757.4704  0.072502902   0.07355553            4 
 2021000   0.93217182   -3.2822173    1751.0043   0.07220041   0.07354054            4 
 2022000   0.93755884   -3.2477588    1757.4718  0.072431249  0.073525241            5 
 2023000    0.9312828   -3.2758231    1747.9464  0.072003064  0.073509961            3 
 2024000   0.93385634   -3.2469512    1755.8755  0.072293954  0.073494566            4 
 2025000   0.92150644    -3.238396    1756.4713   0.07228277  0.073479327            2 
 2026000   0.93127944   -3.2556238    1753.5058  0.072125115  0.073464188            1 
 2027000   0.92367441   -3.2758045    1756.9043  0.072229251  0.073448777            4 
 2028000   0.94195123   -3.2772181    1764.4453  0.072503507  0.073433535            4 
 2029000   0.91809396   -3.2723373    1752.5437  0.071978958  0.073417987            2 
 2030000   0.91920154   -3.2435099    1760.5404  0.072271772  0.073402877            3 
 2031000   0.93489611   -3.2763522    1759.7332  0.072203069  0.073387621            4 
 2032000   0.92774035   -3.2731601    1761.7047  0.072248388  0.073372577            4 
 2033000    0.9089134   -3.2684057    1755.0129  0.071938553  0.073357288            2 
 2034000   0.95390731   -3.2385178    1768.0855  0.072438772  0.073342358            2 
 2035000   0.91576779   -3.2734387    1767.5587  0.072381602  0.073327603            3 
 2036000   0.93931103   -3.2666589    1762.5696  0.072141845    0.0733124            2 
 2037000   0.93530861   -3.2764146    1765.7981  0.072238507  0.073297549            2 
 2038000   0.90381266   -3.2597288    1765.7154  0.072199682  0.073282598            6 
 2039000   0.94175237   -3.2817499     1767.394  0.072232876  0.073267911            5 
 2040000   0.94082365   -3.2632046    1774.8058  0.072500239  0.073253295            2 
 2041000   0.96077425   -3.2545409    1768.9342  0.072224978  0.073238806            4 
 2042000   0.91739695    -3.294399     1770.268   0.07224404  0.073224044            2 
 2043000   0.94625119   -3.2822834    1765.9196  0.072031309  0.073209015            4 
 2044000   0.90437676   -3.2826988    1768.6174  0.072106057  0.073194133            3 
 2045000   0.92071152   -3.2759203      1771.18  0.072175223  0.073179299            3 
 2046000   0.92464939   -3.3021238    1770.6549  0.072118562  0.073164198            3 
 2047000   0.92826978   -3.2883526     1767.687  0.071962507  0.073149359            2 
 2048000   0.92200556   -3.2959022    1774.4198  0.072201325  0.073134542            2 
 2049000   0.92823038   -3.3000557    1766.5719  0.071846912  0.073119736            4 
 2050000   0.91193267   -3.2820628    1770.9442  0.071989601  0.073104622            5 
 2051000   0.91478031   -3.3161437    1767.1625  0.071800849  0.073089597            6 
 2052000   0.94425332   -3.2672279    1772.6531  0.071988838  0.073074466            2 
 2053000    0.9109102   -3.2659769    1769.7782  0.071837077  0.073059362            2 
 2054000   0.89837419   -3.2804108     1767.838  0.071723387  0.073044141            6 
 2055000   0.91828929   -3.2674854    1772.4051  0.071873688  0.073029159            2 
 2056000   0.94182203   -3.2887338    1770.8615  0.071776163  0.073014103            6 
 2057000   0.92331741   -3.2911811    1777.9615  0.072028904   0.07299877            2 
 2058000   0.91376234   -3.2901857    1774.5915  0.071857448  0.072983506            1 
 2059000   0.90803871   -3.2663008    1768.2536  0.071566033  0.072968044            3 
 2060000   0.93426936   -3.2788297    1773.6411  0.071749236  0.072952744            3 
 2061000   0.92337533     -3.27833    1771.9536   0.07164619  0.072937348            3 
 2062000   0.90086031   -3.2766135    1778.8298   0.07188934  0.072921942            6 
 2063000   0.93787114   -3.2847199    1777.6452  0.071806643  0.072906463            5 
 2064000   0.90426452   -3.2813407    1769.7393  0.071452654  0.072891108            3 
 2065000   0.93158383    -3.292875    1776.1017  0.071674805  0.072875529            2 
 2066000   0.93759116   -3.2944003    1779.2555  0.071767324  0.072860341            2 
 2067000      0.90915   -3.2987906    1776.6867  0.071629039  0.072844956            3 
 2068000   0.92706323   -3.2973646    1775.6141   0.07155118  0.072829471            7 
 2069000   0.92502633   -3.2817589    1775.4475  0.071509888  0.072813923            3 
 2070000   0.90687834   -3.2835482    1779.5378   0.07164001  0.072798535            2 
 2071000   0.92474808   -3.2865342    1776.0462  0.071464921  0.072782818            1 
 2072000   0.91046336   -3.3097841     1774.533  0.071369569  0.072767355            4 
 2073000     0.921654    -3.250039    1790.0014  0.071956963   0.07275218            3 
 2074000   0.92067598    -3.267385    1787.6113  0.071826233  0.072737032            4 
 2075000   0.91397818   -3.2774683    1778.1013  0.071409693  0.072722001            6 
 2076000   0.90637399   -3.2805447    1784.6572  0.071638455  0.072706655            2 
 2077000   0.90895309   -3.2908654     1775.554  0.071238725  0.072691263            2 
 2078000   0.91758626   -3.2679344    1784.6809  0.071570456  0.072675817            5 
 2079000   0.92852786   -3.2904127    1780.4621  0.071366929  0.072660687            5 
 2080000   0.90831329   -3.2731725    1786.5373  0.071576016  0.072645611            2 
 2081000   0.90990654   -3.3108003    1784.3302  0.071453236  0.072630488            4 
 2082000   0.92226372   -3.2982957    1783.6507  0.071391719    0.0726152            4 
 2083000   0.90875246   -3.3126531    1788.5805  0.071554669  0.072599914            4 
 2084000   0.93034007   -3.3330543    1780.1008  0.071181255  0.072584629            3 
 2085000   0.91489289   -3.2681789    1787.9239  0.071459789  0.072569329            2 
 2086000   0.91152023   -3.3024578    1787.4882  0.071408125  0.072554116            1 
 2087000   0.93004369   -3.2946997    1782.6049   0.07117892  0.072538895            3 
 2088000   0.92441675   -3.2924393    1787.6646  0.071346768  0.072524107            3 
 2089000   0.92469948   -3.2761483    1795.9608  0.071643562  0.072509047            2 
 2090000    0.9192919   -3.3063874    1789.9698  0.071370407  0.072494027            3 
 2091000   0.91809744   -3.2925964     1790.133   0.07134278  0.072478664            4 
 2092000   0.91367834   -3.2917764    1794.7862  0.071494034  0.072463647            6 
 2093000   0.92812119   -3.3085768     1789.397  0.071245303  0.072448562            2 
 2094000   0.92423432   -3.2927753    1794.3147  0.071406985  0.072433172            2 
 2095000   0.90843563    -3.284553    1795.6911   0.07142765  0.072417799            5 
 2096000   0.91130175   -3.2833547      1789.22  0.071136291  0.072402658            2 
 2097000   0.91233487   -3.2927388    1793.3207  0.071265327  0.072387162            3 
 2098000   0.91567604   -3.2794846     1790.425  0.071116341  0.072371702            4 
 2099000   0.93100816   -3.2893013     1790.447  0.071083333  0.072356627            3 
 2100000   0.89887872   -3.3024089    1787.5832  0.070935843  0.072341015            2 
 2101000   0.92596165   -3.2743149    1797.6747  0.071302342  0.072325613            2 
 2102000   0.91859701   -3.2904798    1800.3971  0.071376353  0.072310166            4 
 2103000   0.92096714   -3.2918369    1790.8202  0.070962917  0.072294513            2 
 2104000   0.91787214   -3.2951918    1791.6988   0.07096399  0.072279203            2 
 2105000   0.90994807   -3.2835271    1793.9912  0.071021028  0.072263751            2 
 2106000   0.89856255   -3.2626796    1801.8735  0.071299203  0.072248287            3 
 2107000   0.93040601   -3.2845577    1801.6897  0.071258097  0.072233172            3 
 2108000    0.9129428    -3.287123    1802.6927  0.071263944  0.072218097            4 
 2109000   0.91653341   -3.2704969     1798.369  0.071059309  0.072203001            4 
 2110000   0.91345383   -3.2985562    1796.1122    0.0709365  0.072187798            1 
 2111000   0.91224991   -3.3079818    1791.4106  0.070717297  0.072172406            3 
 2112000   0.91641351   -3.2966019    1800.7969  0.071054172  0.072157054            3 
 2113000   0.89924742   -3.3166937    1795.3578  0.070806034  0.072141356            2 
 2114000   0.91509198   -3.2695932    1799.7963  0.070947503  0.072125975            2 
 2115000   0.91611211   -3.3189477    1792.7401  0.070635937  0.072110659            5 
 2116000   0.91304667   -3.2754072    1793.3694   0.07062734  0.072095213            4 
 2117000   0.91401955   -3.2932099    1807.3438  0.071144063  0.072079743            3 
 2118000   0.92133157   -3.2835144    1799.5557  0.070804047  0.072064362            6 
 2119000   0.90228302    -3.312763    1798.8398  0.070742481  0.072048831            4 
 2120000   0.92355237   -3.3175357    1809.5646  0.071130684  0.072033275            2 
 2121000   0.91429018   -3.3399266    1796.5086  0.070584181  0.072017814            3 
 2122000   0.91394847   -3.2860575     1808.662  0.071028197  0.072002305            3 
 2123000   0.91222671   -3.3356821    1796.9883  0.070536516   0.07198698            3 
 2124000   0.89978563   -3.3150659    1804.7025  0.070805968  0.071971473            4 
 2125000   0.90655384   -3.2952554    1802.7394  0.070695662  0.071955939            3 
 2126000   0.92337648   -3.2989318    1804.8193  0.070743935  0.071940784            3 
 2127000   0.90217497    -3.275954    1808.5135  0.070855411  0.071925613            4 
 2128000   0.91911304   -3.2792124    1807.2183  0.070771393  0.071910715            7 
 2129000   0.90258552   -3.3020243    1806.6489  0.070715865  0.071895463            4 
 2130000   0.91421865   -3.2841319    1813.1902  0.070938584  0.071880273            3 
 2131000   0.91529785   -3.3315548    1811.5993  0.070843082  0.071864933            2 
 2132000   0.92396698   -3.2834345     1816.269  0.070992376  0.071849583            4 
 2133000   0.89166501   -3.2965459    1807.6469  0.070622242  0.071834327            2 
 2134000   0.92208181    -3.327141    1802.8998  0.070403772  0.071818856            4 
 2135000   0.90451639   -3.3069921    1812.9303  0.070762307  0.071803137            6 
 2136000    0.9265934   -3.3133838    1813.2468  0.070741527  0.071787634            3 
 2137000   0.89880545   -3.2946945    1808.8109  0.070535443  0.071772264            2 
 2138000   0.92049649     -3.32334    1809.2888   0.07052108  0.071757078            2 
 2139000   0.92087104   -3.2843187    1816.6032  0.070773073  0.071741707            6 
 2140000   0.89617542   -3.2793969    1813.2335  0.070608781  0.071726567            2 
 2141000   0.88718507    -3.289588    1822.8306  0.070949345   0.07171145            3 
 2142000   0.92450495   -3.2985491    1809.6919   0.07040507  0.071696129            5 
 2143000   0.91054051   -3.3328764    1815.4941  0.070597842  0.071681137            7 
 2144000   0.89313651   -3.3106548    1818.5165  0.070682388  0.071666043            3 
 2145000   0.91090845   -3.2874784     1814.102  0.070477933   0.07165112            6 
 2146000    0.9099172   -3.3119229    1814.3925  0.070456373  0.071636031            2 
 2147000   0.91087744   -3.3127684    1816.2921  0.070497287  0.071620771            3 
 2148000   0.91062746   -3.2694715    1818.6855   0.07055732   0.07160586            5 
 2149000   0.90455079    -3.300886    1826.2503  0.070817835  0.071590951            3 
 2150000   0.89428764   -3.3246649    1813.6176  0.070295257  0.071576066            2 
 2151000   0.90557864   -3.3008428    1818.2376   0.07044156  0.071561211            1 
 2152000   0.90625433   -3.3146213    1822.8433  0.070587179  0.071546635            3 
 2153000   0.92305026   -3.3007099    1823.4594  0.070578238   0.07153214            6 
 2154000   0.90485594   -3.2985748    1822.0881  0.070492421  0.071517914            4 
 2155000   0.91878489   -3.2974234    1829.9847  0.070765069  0.071503373            5 
 2156000   0.89755419   -3.3273653    1826.0407  0.070579803  0.071488736            4 
 2157000   0.91668345   -3.2821994    1817.7875  0.070228229  0.071474433            4 
 2158000   0.92159773   -3.2917425    1827.1749   0.07055819  0.071459814            2 
 2159000   0.92127557    -3.283344    1823.9261  0.070400114  0.071445403            3 
 2160000   0.90299816   -3.3212528    1836.4501    0.0708507  0.071430856            3 
 2161000   0.90117105    -3.342786    1824.7071  0.070365073  0.071416204            2 
 2162000   0.89854431   -3.3013249     1831.134  0.070580251  0.071401595            2 
 2163000    0.9159968   -3.3024546    1829.7847  0.070495633  0.071386722            3 
 2164000   0.88991973    -3.306464    1825.8166  0.070310252  0.071372102            3 
 2165000   0.91684161   -3.2998265    1829.0534  0.070402363  0.071357536            3 
 2166000   0.88881625   -3.3025917     1832.598  0.070506232  0.071343037            4 
 2167000   0.91291729   -3.3113803    1833.2842  0.070500084  0.071328476            3 
 2168000   0.90558462   -3.2879482     1833.873  0.070490198  0.071314055            3 
 2169000    0.9041525   -3.3032791    1834.8516  0.070495299  0.071299548            5 
 2170000   0.91156681   -3.3118617    1826.7508  0.070151722  0.071285113            8 
 2171000   0.90131876   -3.2962981    1837.5078  0.070532314  0.071270725            5 
 2172000   0.90442414   -3.3113576    1836.5588  0.070463428  0.071256256            2 
 2173000    0.8815157   -3.3207323    1834.8253  0.070364522  0.071241492            2 
 2174000   0.89611346   -3.3255546     1830.488  0.070165899  0.071226792            6 
 2175000   0.92790221   -3.3091659    1834.5525  0.070289368  0.071212216            4 
 2176000    0.9183967   -3.2960913    1837.2635  0.070360887   0.07119772            4 
 2177000   0.89730565   -3.3057669    1835.4461  0.070259001  0.071183476            5 
 2178000   0.89255787   -3.3045709    1838.5404  0.070345134  0.071168928            1 
 2179000   0.90713521   -3.2863825    1839.6018  0.070353442  0.071154561            9 
 2180000   0.91094022   -3.3021502    1832.2686  0.070040848  0.071139894            1 
 2181000   0.90484165   -3.3228221     1837.198  0.070197082  0.071125656            2 
 2182000   0.90216537   -3.3192572     1833.941  0.070040519  0.071110898            2 
 2183000   0.91481324   -3.3155314    1837.9835  0.070162755  0.071096348            2 
 2184000   0.90704024   -3.3024761    1836.6452  0.070079562  0.071081795            3 
 2185000   0.89736856   -3.3158958    1841.3156  0.070225616  0.071067355            3 
 2186000   0.89798796   -3.3199992    1836.1199  0.069995423  0.071052667            5 
 2187000   0.89559329   -3.3293567    1838.2918  0.070046174  0.071037981            4 
 2188000   0.90478814   -3.3204339    1840.1822  0.070086158  0.071023421            2 
 2189000   0.91837378   -3.3149347    1838.7635  0.070000133  0.071008765            8 
 2190000   0.92654314   -3.3031349     1844.035   0.07016876  0.070993969            8 
 2191000   0.90691583   -3.3316381    1842.9949  0.070097176  0.070979093            8 
 2192000   0.91547524   -3.3089679    1838.3918    0.0698902  0.070964318            2 
 2193000   0.89738249   -3.3400192    1838.1274  0.069848284  0.070949541            4 
 2194000   0.91204394   -3.3143209    1840.9137  0.069922278  0.070934561            3 
 2195000    0.9077653   -3.2971094    1844.5251  0.070027528    0.0709198            8 
 2196000   0.89162263   -3.3229539    1836.7336  0.069699969  0.070904992            4 
 2197000   0.88909865   -3.3337917    1840.5688  0.069813715  0.070890072            3 
 2198000   0.89362429   -3.3051388    1848.7581  0.070092437  0.070874989            3 
 2199000   0.89520292   -3.3186915     1845.814  0.069948992  0.070860179            4 
 2200000   0.89447518    -3.311027    1844.0728  0.069851242  0.070845388            3 
 2201000   0.87421857   -3.3387502    1844.2005  0.069824343  0.070830461            1 
 2202000   0.90065842   -3.3275011    1844.7811  0.069814605  0.070815579            3 
 2203000   0.91684122   -3.3278293    1846.9802  0.069866098  0.070800773            2 
 2204000   0.89252863   -3.3418513    1843.2157  0.069692064  0.070785822            3 
 2205000   0.93151977   -3.3539072    1834.7681  0.069341198  0.070770821            4 
 2206000   0.89616694   -3.3044981    1852.0572  0.069962874  0.070756342            1 
 2207000   0.87161266   -3.3045777    1847.8412  0.069771984  0.070741586            4 
 2208000   0.89156482   -3.3163935     1851.514     0.069879  0.070726928            2 
 2209000   0.90536216   -3.3088697    1851.2602  0.069837794  0.070712345            3 
 2210000   0.88194543   -3.3270379    1853.2901  0.069882735  0.070697739           13 
 2211000   0.89587673   -3.3057231    1857.4934  0.070009551  0.070683279            6 
 2212000   0.91252481   -3.3097272    1853.8875  0.069842053  0.070668537            3 
 2213000   0.89823476   -3.3130391    1858.3419  0.069978233    0.0706537            5 
 2214000   0.92645201   -3.3215203    1855.4773  0.069838801   0.07063895            2 
 2215000   0.90955498   -3.2985339    1852.9414  0.069711864  0.070624072            2 
 2216000   0.90681082   -3.3212426    1852.5806   0.06966684  0.070609289            2 
 2217000   0.90580104   -3.3291596    1848.4866   0.06948153  0.070594334            6 
 2218000   0.90649496   -3.2950506    1860.5493  0.069903417  0.070579386            3 
 2219000   0.90684922   -3.3341009    1855.6853  0.069689249  0.070564487            2 
 2220000   0.87420802   -3.3044734    1852.9296  0.069554416  0.070549652            2 
 2221000   0.91310723   -3.3398319     1849.015  0.069376218  0.070534796            4 
 2222000   0.88489862   -3.2769257    1866.7992  0.070011972   0.07052022            2 
 2223000   0.89001658   -3.3268697    1856.3124  0.069587359  0.070505571            2 
 2224000   0.88462526   -3.3112472    1859.7555  0.069685084   0.07049086            2 
 2225000   0.88728406   -3.3106022    1861.3715  0.069714287  0.070476171            6 
 2226000   0.89966756   -3.3129292    1857.7103  0.069545907  0.070461427            3 
 2227000   0.89450659   -3.3202658    1851.8278  0.069294557  0.070446799            4 
 2228000   0.88951542   -3.3004884    1857.6328  0.069480581  0.070432024            3 
 2229000   0.89041044   -3.3031875    1856.2656  0.069398296  0.070417423            4 
 2230000   0.89413654   -3.3315085    1859.1674  0.069475611  0.070402692            3 
 2231000   0.88435682   -3.2815559    1870.9526  0.069884677  0.070387822            3 
 2232000   0.90490083   -3.3197512    1863.5791  0.069578074  0.070373076            2 
 2233000   0.89347038   -3.2991904    1859.4388  0.069392403   0.07035823            3 
 2234000    0.9169881   -3.3243901    1861.1197  0.069424041  0.070343512            4 
 2235000   0.89638974   -3.2982219    1870.4627  0.069741338  0.070328989            3 
 2236000   0.89647122   -3.3433116    1856.8005  0.069200973  0.070314258            4 
 2237000   0.89796245    -3.329501    1863.1655  0.069407149  0.070299634            2 
 2238000   0.89168194   -3.3433836    1860.5529  0.069278856  0.070284975            2 
 2239000   0.91178228   -3.3142175    1864.3536   0.06938937  0.070270243            4 
 2240000   0.89090219   -3.3158553    1865.3585  0.069395776  0.070255573            4 
 2241000   0.88917937    -3.320821    1864.6772  0.069339477  0.070240768           11 
 2242000   0.88423395   -3.3168309    1860.0749  0.069137484  0.070226028            5 
 2243000   0.89032163   -3.3523175    1856.5361  0.068975185  0.070211101            4 
 2244000   0.87487136   -3.3342561    1864.3356  0.069234092  0.070196041            4 
 2245000   0.88491459   -3.3694704    1866.5995  0.069287286  0.070181123            5 
 2246000   0.89548111    -3.329123    1864.2663  0.069169869  0.070166267            2 
 2247000   0.89660933   -3.3294488    1858.6444  0.068930588  0.070151495            3 
 2248000   0.89533977   -3.3215247     1875.187  0.069513159  0.070136784            2 
 2249000   0.89304172   -3.3147822    1873.4496  0.069417876  0.070122029            4 
 2250000   0.86973345   -3.3130706    1869.4455  0.069238722  0.070107523            3 
 2251000   0.90158379   -3.3310685    1870.6586  0.069252872  0.070092907            3 
 2252000   0.89078328   -3.3114338    1871.5138  0.069253766  0.070078259            4 
 2253000   0.89869637   -3.3119344    1868.6835  0.069118341  0.070063758            6 
 2254000   0.91215741   -3.3088767    1873.5583  0.069267905  0.070049242            6 
 2255000   0.89016856   -3.3316526    1870.7661  0.069134002  0.070034823            4 
 2256000   0.89459377   -3.3378704    1868.6863  0.069026534  0.070020263            4 
 2257000   0.91074315   -3.3176594    1876.4486  0.069282549  0.070005895            2 
 2258000   0.89506118   -3.2993056    1879.0087  0.069346352  0.069991391            4 
 2259000    0.8842734   -3.3478533    1877.9664  0.069277202  0.069976849            6 
 2260000   0.90285098   -3.3605668     1871.921  0.069023634  0.069962499            2 
 2261000   0.87530347   -3.3605222    1873.1886  0.069039828  0.069948079            3 
 2262000   0.87808035    -3.324248    1880.0444  0.069261876  0.069933718            2 
 2263000    0.8810731   -3.3508424    1872.6672   0.06895961  0.069919177            2 
 2264000   0.90954289   -3.3218223    1873.0629  0.068943718  0.069904666            4 
 2265000   0.88873435   -3.3505127    1880.0723  0.069171165  0.069890278            5 
 2266000   0.88499467   -3.3135951     1878.766  0.069092602  0.069875997            2 
 2267000   0.88979302   -3.3222405    1880.2183   0.06911551  0.069861713            4 
 2268000   0.88750545   -3.3489783    1886.2765  0.069307633  0.069847629            4 
 2269000   0.89348853   -3.3178712     1884.522  0.069212647  0.069833807            2 
 2270000   0.89255618   -3.3487117    1879.9767  0.069015298  0.069819964            2 
 2271000   0.90709526   -3.3345896    1890.3389  0.069365143  0.069805801            7 
 2272000   0.87901302   -3.3120305    1887.7281  0.069238852  0.069791674            5 
 2273000    0.8836258   -3.3390981    1886.1858  0.069151846  0.069777533            3 
 2274000   0.88172059   -3.3284376    1891.1515  0.069303412  0.069763495            2 
 2275000   0.87820272   -3.3299452     1889.347   0.06920685  0.069749559            3 
 2276000   0.88358221   -3.3247842    1887.3728  0.069104161  0.069735672            3 
 2277000   0.88038621   -3.3349593    1886.5465   0.06904357   0.06972164            5 
 2278000   0.87131776   -3.3531245    1890.5416  0.069159409  0.069707575            5 
 2279000   0.89113962   -3.3176129    1894.2622  0.069265108  0.069693621            5 
 2280000   0.90200475   -3.3297568    1894.7835  0.069253782  0.069679835            2 
 2281000   0.89314423   -3.3188235    1892.9435    0.0691562  0.069666106            2 
 2282000   0.87837664   -3.3454574    1902.1204  0.069461012  0.069652184            6 
 2283000   0.88053621   -3.3134151    1901.2952  0.069400468  0.069638449            4 
 2284000   0.87730887   -3.2939634    1897.6909  0.069238577  0.069624707            3 
 2285000   0.88729854   -3.3279995    1904.1047  0.069442185  0.069610991            2 
 2286000   0.88804199   -3.3364786     1891.134  0.068938977  0.069597399            7 
 2287000   0.89364969     -3.33787      1905.32   0.06942574  0.069583811            3 
 2288000   0.88670624   -3.3744041    1893.3528  0.068959529  0.069570281            8 
 2289000   0.88383718   -3.3370139    1892.8257  0.068910213  0.069556523            4 
 2290000   0.88054979   -3.3508606    1898.5532  0.069088543  0.069542781            2 
 2291000   0.89974556   -3.3280614    1893.8844  0.068888565  0.069529136            4 
 2292000   0.87858814   -3.3386273      1894.02  0.068863437  0.069515397            2 
 2293000   0.88275857   -3.3246106    1902.4653  0.069140329  0.069501671            2 
 2294000   0.88436537   -3.3590015    1900.2013  0.069027946  0.069487901            4 
 2295000   0.88015407   -3.3315024    1897.0935  0.068885023  0.069474391            3 
 2296000   0.89129324   -3.3192397    1909.1339  0.069292027  0.069460748            5 
 2297000   0.90400837   -3.3456219    1897.8034  0.068850798  0.069446994            3 
 2298000   0.88710911   -3.3321601    1901.1088  0.068940701  0.069433447            3 
 2299000   0.86059014    -3.342244    1900.7506  0.068897731  0.069419742            3 
 2300000   0.91266159   -3.3036169    1907.1958  0.069101297  0.069406176            6 
 2301000    0.8999614   -3.3666012    1902.7494  0.068910234  0.069392241            9 
 2302000   0.87876937    -3.338914    1898.2774  0.068718413  0.069378173            5 
 2303000   0.89226301   -3.3294691    1905.5327  0.068951104  0.069364208            4 
 2304000   0.88631063   -3.3239297    1896.5239  0.068595338  0.069350606            3 
 2305000   0.89463146   -3.3326972    1903.1019  0.068803394  0.069336985            7 
 2306000   0.88048944   -3.3040986    1909.3135  0.068998029  0.069322893            4 
 2307000   0.86361722   -3.3345925    1906.4274  0.068863872  0.069309215            4 
 2308000    0.8694784   -3.3550949    1907.0435  0.068856279  0.069295176            5 
 2309000   0.86981567   -3.3490127     1908.714  0.068886749  0.069281497            5 
 2310000   0.87649571   -3.3612393    1902.1561  0.068620348  0.069267624            5 
 2311000   0.90178052   -3.3703266     1906.843  0.068759663  0.069253671            3 
 2312000   0.88704246   -3.3382437     1909.495  0.068825512  0.069239654            3 
 2313000    0.8919537   -3.3607689    1910.0231  0.068814784   0.06922563            4 
 2314000   0.89554961   -3.3346423    1910.8415  0.068814516  0.069211677            4 
 2315000   0.88030731   -3.3655823    1904.9875  0.068574064  0.069197775            2 
 2316000   0.87897157   -3.3347986    1905.4937  0.068562668  0.069183846            3 
 2317000   0.88697839    -3.361017    1910.2915  0.068705638  0.069169916            2 
 2318000   0.89601033   -3.3454505    1909.3923  0.068643668  0.069155924            2 
 2319000   0.86568206   -3.3551147    1907.1179  0.068532339   0.06914205            7 
 2320000   0.87434927   -3.3485963    1903.6805  0.068379329  0.069128074            4 
 2321000   0.88240318   -3.3456552    1915.9086  0.068788905  0.069114082            5 
 2322000   0.87619522   -3.3255035    1916.0121  0.068762995  0.069100238            5 
 2323000   0.88961183   -3.3535646    1914.6683  0.068685187  0.069086509            3 
 2324000   0.87702447   -3.3602428    1916.0542   0.06870533  0.069073038            1 
 2325000   0.87694983   -3.3553557     1908.969   0.06842183  0.069059512            3 
 2326000    0.8809916   -3.3209384    1916.4969  0.068662114  0.069045725            6 
 2327000   0.85525824   -3.3311618    1914.7066  0.068568493  0.069032259            4 
 2328000   0.89129091    -3.334244    1919.4792  0.068709879  0.069018564            3 
 2329000    0.8806649   -3.3309156    1918.9823  0.068662599  0.069004824            3 
 2330000   0.88393948   -3.3322607    1922.5376  0.068760285  0.068991125            7 
 2331000   0.89144246    -3.356938    1915.3237  0.068472889    0.0689776            2 
 2332000   0.87940238   -3.3421203    1912.0725  0.068327346  0.068963958            3 
 2333000   0.88177143   -3.3592617    1913.4246  0.068346358  0.068950391            1 
 2334000   0.89529138   -3.3139628    1921.2635  0.068596956  0.068936605            3 
 2335000   0.86913623   -3.3076694    1928.1015  0.068811617  0.068923091            2 
 2336000   0.88083118   -3.3482836    1911.0225   0.06817289  0.068909324            3 
 2337000   0.87707712    -3.333094    1921.7557  0.068526449  0.068895452            6 
 2338000   0.87638531   -3.3423837    1916.9612  0.068326247  0.068881762            2 
 2339000   0.89400667   -3.3655138    1928.9737  0.068725015  0.068868155            6 
 2340000   0.88297935    -3.339367    1918.5511  0.068324468  0.068854557            4 
 2341000   0.86193574   -3.3526527    1921.2883   0.06839272  0.068840731            2 
 2342000   0.86562404   -3.3529851    1922.4889  0.068406239  0.068827009            5 
 2343000   0.86171149   -3.3547565    1918.6917  0.068241988  0.068813203            7 
 2344000   0.86923904   -3.3326341    1921.0314  0.068296053  0.068799487            5 
 2345000    0.8682646   -3.3534428    1923.0586   0.06833897  0.068785731            4 
 2346000   0.87114533     -3.36359    1920.9449  0.068234758  0.068771989            2 
 2347000   0.88279963    -3.334672    1921.7683  0.068234921  0.068758579            3 
 2348000   0.86730407   -3.3504627    1928.3622  0.068439886   0.06874486            4 
 2349000   0.87109116   -3.3446469     1924.623  0.068278098  0.068731155            5 
 2350000   0.88416441    -3.349096    1927.3312  0.068345079   0.06871764            3 
 2351000    0.8711097   -3.3519945    1930.9183  0.068443156  0.068704191            2 
 2352000   0.87042158   -3.3523261    1935.7615  0.068585653    0.0686907            2 
 2353000   0.86500812   -3.3454932    1928.8199  0.068310665  0.068677274            3 
 2354000   0.88064214   -3.3643023    1926.4331  0.068197151  0.068663973            2 
 2355000    0.8960856   -3.3801021    1932.0061  0.068365396  0.068650714            3 
 2356000   0.88927138   -3.3498274    1935.9816  0.068476994  0.068637217            5 
 2357000   0.86588191   -3.3550283    1929.4373  0.068216562  0.068624046            4 
 2358000   0.87101182   -3.3547594    1925.6665  0.068054371  0.068610746            3 
 2359000    0.8701385   -3.3435375    1933.1841  0.068291087  0.068597532            2 
 2360000   0.88955678   -3.3538756    1933.8206  0.068284624  0.068584167            3 
 2361000   0.87803174   -3.3645512     1933.801  0.068255014  0.068570729            5 
 2362000   0.87414499   -3.3482926    1936.6441  0.068326423  0.068557286            6 
 2363000   0.89061884   -3.3453304    1939.1109  0.068384502  0.068543818            5 
 2364000   0.87181023   -3.3771571    1935.2233  0.068218532  0.068530452            3 
 2365000    0.8668702   -3.3650953     1934.226  0.068154546  0.068517037            4 
 2366000   0.86855302   -3.3646419    1933.3738  0.068095724  0.068503801            2 
 2367000   0.87796163   -3.3601749     1936.934  0.068192299  0.068490592            3 
 2368000   0.86329368   -3.3375229    1936.2209  0.068138403  0.068477594            3 
 2369000   0.86898739   -3.3572449    1940.0097  0.068242919   0.06846427            3 
 2370000   0.86454793   -3.3559799    1937.0644  0.068110564  0.068450982            2 
 2371000   0.86768682   -3.3510373    1934.8045  0.068002406  0.068437869            3 
 2372000     0.879432   -3.3749176    1928.7694  0.067761715  0.068424646            6 
 2373000   0.86717279   -3.3520073    1943.3603  0.068245551  0.068411278            3 
 2374000   0.85440188   -3.3461433    1935.9344  0.067956136  0.068398198            3 
 2375000   0.88290978   -3.3351535    1942.0812  0.068143199  0.068385229            6 
 2376000   0.87428515   -3.3568175    1941.7169  0.068101744  0.068372083            2 
 2377000    0.8837297   -3.3375469    1943.9037  0.068149758  0.068358948            2 
 2378000   0.85099066    -3.348633    1938.5328  0.067932885  0.068345868            6 
 2379000   0.87101468   -3.3626123    1945.1845   0.06813733   0.06833285            3 
 2380000   0.87258509   -3.3462023    1947.5171  0.068190375  0.068319972            2 
 2381000   0.85980372   -3.3393823    1947.4601  0.068159739  0.068306981            3 
 2382000   0.88283919   -3.3525731    1945.5133  0.068063017  0.068294134            4 
 2383000   0.85946267   -3.3628107    1950.0868  0.068194392  0.068281037            7 
 2384000   0.88068229   -3.3388656     1953.047   0.06826926  0.068268073            2 
 2385000   0.88616752   -3.3624293     1947.141  0.068034277  0.068255297            3 
 2386000   0.87727609   -3.3394212    1947.9968  0.068035653  0.068242456            2 
 2387000   0.86652527   -3.3550787     1949.176  0.068048317  0.068229532            4 
 2388000   0.87341885   -3.3635781    1947.4288  0.067958851  0.068216584            3 
 2389000    0.8837027   -3.3722482    1951.5868  0.068075444  0.068203658            3 
 2390000   0.86611037   -3.3635767     1952.528  0.068079777  0.068190787            3 
 2391000    0.8930416   -3.3892225    1946.0179  0.067824406  0.068177834            3 
 2392000   0.84875658   -3.3191649    1951.3568   0.06798205  0.068164864            4 
 2393000   0.89628576   -3.3800778    1952.6093  0.067997261  0.068151994            2 
 2394000   0.88131343   -3.3547338    1953.0136  0.067982928  0.068138808            9 
 2395000    0.8794211   -3.3815294    1948.2977  0.067790455  0.068125614            4 
 2396000   0.86187642   -3.3738037    1953.6979  0.067949982  0.068112613            5 
 2397000   0.86269685   -3.3466549    1945.2078   0.06762647  0.068099767            9 
 2398000   0.86931211   -3.3567323    1953.9396  0.067901709  0.068086752            1 
 2399000   0.86220274   -3.3562143    1962.8084  0.068181479  0.068073763            3 
 2400000   0.87258699    -3.383511    1950.8721  0.067738615  0.068060851            3 
 2401000    0.8543667   -3.3603368    1954.7075  0.067843521  0.068047811            6 
 2402000   0.88073415   -3.3693478    1955.1353  0.067830119  0.068034778            4 
 2403000   0.87646986   -3.3902187    1949.1655  0.067594865  0.068021871            3 
 2404000   0.87269184   -3.3524609    1957.4311   0.06785327  0.068008752            3 
 2405000   0.88129492   -3.3731676    1952.7669   0.06766344  0.067995631            2 
 2406000   0.88610074    -3.376429    1958.7459  0.067842405  0.067982434            3 
 2407000   0.85535555   -3.3345965    1962.6698  0.067950071   0.06796948            3 
 2408000   0.86343305   -3.3665091    1946.5621  0.067364412  0.067956498            7 
 2409000   0.85943819    -3.368685    1959.3403   0.06777848  0.067943272            4 
 2410000   0.87751207   -3.3966737    1960.4935  0.067790233   0.06793023            7 
 2411000   0.85538093   -3.3743239    1954.6154  0.067558946  0.067917147            3 
 2412000   0.86481788   -3.3405729    1962.0664  0.067788364  0.067903824            3 
 2413000   0.85893747   -3.3664136    1956.6717  0.067573966  0.067890939            4 
 2414000   0.85532897   -3.3370462    1966.0527   0.06786981  0.067878006            4 
 2415000   0.86480423   -3.3607673     1956.466  0.067510904  0.067865312            3 
 2416000   0.85799635   -3.3676787    1962.3309  0.067685256  0.067852433            5 
 2417000   0.85215951   -3.3571452    1973.9682  0.068058481   0.06783984            5 
 2418000   0.86188153   -3.3417297    1961.2673  0.067592613  0.067827107            2 
 2419000   0.87408428    -3.375863    1967.9764  0.067795796  0.067814433            3 
 2420000    0.8613628   -3.3423673     1960.937  0.067525378  0.067801619            3 
 2421000   0.84918703   -3.3700744    1962.3301  0.067545438  0.067788867            3 
 2422000   0.86217088   -3.3604675    1970.8002  0.067808981  0.067775963            2 
 2423000   0.86476384   -3.3805057    1965.6642  0.067604354  0.067763047            2 
 2424000   0.84538394   -3.3697388    1970.4544  0.067741144  0.067750213            5 
 2425000   0.86888081   -3.3647295    1967.8594  0.067624034   0.06773744            7 
 2426000    0.8735464    -3.361171     1975.857  0.067870878  0.067724431            4 
 2427000   0.87489057   -3.3448184    1972.8794  0.067740673   0.06771155            2 
 2428000   0.86587643   -3.3690678    1968.0172  0.067545896  0.067698576           10 
 2429000   0.87932534   -3.3633498    1963.5105  0.067363474  0.067685495            3 
 2430000   0.86971709   -3.3877411    1960.3375  0.067226937  0.067672457            5 
 2431000   0.87263341   -3.3739473      1969.96  0.067529138  0.067659365            3 
 2432000   0.86783913   -3.3692775    1968.6338  0.067455929  0.067646395            3 
 2433000   0.84873633   -3.3558533    1968.6458  0.067428614  0.067633351            4 
 2434000   0.86219041   -3.3525927    1970.6285  0.067468792  0.067620662            3 
 2435000   0.85811308   -3.3548108    1973.2617  0.067531201  0.067608078            3 
 2436000   0.88058126    -3.375963    1979.3415  0.067711464  0.067595312            6 
 2437000   0.85684456   -3.3404166    1976.3277  0.067580621  0.067582506            3 
 2438000   0.86942988   -3.3746199    1967.8516  0.067263181  0.067569719            5 
 2439000    0.8559522   -3.3579842    1975.4139  0.067493982  0.067556929            8 
 2440000   0.87291849   -3.3746689    1970.4393  0.067296424  0.067544112            2 
 2441000   0.85975438   -3.3681838    1969.4402  0.067234747  0.067531394            5 
 2442000   0.85453835   -3.3860267    1969.4288  0.067206824  0.067518382            3 
 2443000    0.8568122    -3.371849    1971.4045  0.067246707  0.067505413            3 
 2444000   0.85823358   -3.3869552    1971.5675  0.067224752  0.067492402            3 
 2445000   0.85863269   -3.3704777    1972.8115  0.067239655  0.067479511            5 
 2446000    0.8495258     -3.34247    1971.4165  0.067164641  0.067466494            2 
 2447000   0.86300541   -3.3715608    1972.3339  0.067168436  0.067453492            3 
 2448000   0.86876471   -3.3573222    1974.1602  0.067203167  0.067440624            8 
 2449000   0.87680957   -3.3728678    1979.1663  0.067346069  0.067427579            6 
 2450000   0.87871097   -3.3561219    1976.7504  0.067236409  0.067414498            4 
 2451000   0.85035896   -3.3782365    1978.3557  0.067263556  0.067401422            4 
 2452000   0.86926936   -3.3768095    1973.9887  0.067087709  0.067388378            2 
 2453000   0.85784794   -3.3691817     1970.483  0.066941262  0.067375166            5 
 2454000   0.86092558   -3.3765306    1977.3638  0.067147645  0.067361776            3 
 2455000   0.84759898   -3.3708589    1969.0901  0.066839447  0.067348521            2 
 2456000   0.88274671   -3.3687547    1978.2075  0.067121591  0.067335405            3 
 2457000   0.84952716   -3.3819836    1977.8124  0.067080871  0.067322208            3 
 2458000   0.84967342   -3.3761297    1977.5729   0.06704546  0.067308863            3 
 2459000   0.84294734   -3.3661471    1984.0001  0.067236006  0.067295584            2 
 2460000   0.84507365   -3.3781282    1975.3143   0.06691444  0.067282409            3 
 2461000   0.85385696   -3.3627526    1981.8949   0.06711008  0.067269209            3 
 2462000   0.88004832   -3.3687031    1988.8402  0.067317907  0.067255967            3 
 2463000   0.84758217   -3.3762519    1984.6951  0.067150327  0.067242917            3 
 2464000   0.85829919   -3.3712567    1983.9006  0.067096206  0.067229783            7 
 2465000   0.85011829   -3.3837109    1981.2304  0.066978716  0.067216658            3 
 2466000   0.84953194    -3.369651    1988.2783  0.067189723  0.067203493            4 
 2467000   0.85590104   -3.3449442    1987.1084  0.067122971  0.067190454           10 
 2468000   0.86131309   -3.3774511    1976.8657  0.066749921  0.067177415            3 
 2469000   0.86390746   -3.3693742    1983.4847   0.06694629  0.067164223            4 
 2470000   0.83887757   -3.3677299    1993.2965  0.067250219    0.0671513            3 
 2471000   0.86046017   -3.3623258    1977.5392  0.066691596  0.067138148            5 
 2472000   0.85616503   -3.3943295    1983.8453  0.066877201  0.067125143            3 
 2473000   0.85155353   -3.3812273    1983.0527  0.066823448  0.067112078            5 
 2474000   0.85028736   -3.3694366    1986.0915  0.066898797  0.067098838            4 
 2475000   0.86079896   -3.4018277    1988.7427  0.066961034  0.067085837            6 
 2476000   0.86047526   -3.4022973    1979.5705  0.066625286  0.067072646            5 
 2477000   0.84116413   -3.3697381    1992.7965  0.067043349  0.067059461            2 
 2478000    0.8574066   -3.3613889    1988.2687  0.066864026  0.067046206            6 
 2479000   0.85153177   -3.3986924    1990.6112  0.066915799  0.067033001            3 
 2480000   0.86303467   -3.3969514     1989.617  0.066855409   0.06701972            3 
 2481000   0.84687494   -3.3807393    1995.9949  0.067042687  0.067006428            3 
 2482000   0.86157237   -3.3903979    1989.4243  0.066795066  0.066993246            3 
 2483000   0.84655136   -3.3775612    1994.7359  0.066946432  0.066980052            2 
 2484000   0.85092248   -3.3865493    1994.7133  0.066918723  0.066966673            4 
 2485000   0.85635884   -3.3628046    1984.2726  0.066541672  0.066953443            3 
 2486000   0.83740597   -3.3834237     1984.257   0.06651438  0.066940194            4 
 2487000   0.85470941      -3.3829    1986.3938  0.066559234  0.066926871            3 
 2488000   0.82817278   -3.4059583    1990.8698  0.066682402   0.06691364            5 
 2489000   0.83276557   -3.3649372    1991.2137  0.066667125  0.066900612            1 
 2490000   0.85421889   -3.3587172    1994.3698  0.066745976  0.066887549            5 
 2491000   0.86570167   -3.3463025    1994.3261  0.066717721  0.066874527            2 
 2492000   0.87776358   -3.3746671    1999.4832  0.066863402  0.066861453            3 
 2493000   0.85253192   -3.3641851    1994.6174  0.066673933  0.066848538            5 
 2494000   0.83777678      -3.3757    1995.8179  0.066687312  0.066835524            2 
 2495000   0.86369876   -3.3700821    1998.5056  0.066750353  0.066822495            4 
 2496000   0.85176946   -3.3684009    1997.8439   0.06670152  0.066809587            3 
 2497000   0.86360226   -3.3936723    1999.5978  0.066733339  0.066796659            4 
 2498000   0.86630718    -3.378758    1998.3411  0.066664703  0.066783612            2 
 2499000   0.86040232   -3.3907427    1997.8091  0.066620286  0.066770484            4 
 2500000   0.84695465   -3.3719088    1997.7638  0.066592126  0.066757359            4 
 2501000   0.84728057    -3.403343    1994.0906   0.06644311  0.066744308            3 
 2502000   0.85867721   -3.3827527    1999.6144  0.066600532  0.066731348            2 
 2503000   0.84702072   -3.3997807    1993.4871  0.066369926  0.066718336            3 
 2504000   0.85563174   -3.4031587    2002.0788  0.066629352  0.066705264            1 
 2505000    0.8308508     -3.37053    1998.8718  0.066496067   0.06669205            2 
 2506000   0.86005797    -3.379158    2002.9107   0.06660384  0.066679051            4 
 2507000   0.85555992   -3.3669424    2002.1513  0.066552031  0.066665994            2 
 2508000   0.86611217   -3.3847288    2004.4475  0.066601791  0.066652992            2 
 2509000   0.84847398     -3.40517    1993.2319  0.066202734  0.066639872            8 
 2510000   0.84512498   -3.3952513    2001.5252    0.0664517   0.06662656            4 
 2511000   0.86279596   -3.3735554    2002.6476  0.066462486  0.066613345            2 
 2512000   0.86769401   -3.3515323    2002.6358  0.066435634   0.06660055            3 
 2513000   0.82222301   -3.3863484    2001.5481  0.066373129  0.066587596            3 
 2514000   0.83271538   -3.3558042    2009.4954  0.066610163  0.066574605            4 
 2515000    0.8587733   -3.3969302    2012.6266  0.066687428  0.066561781            3 
 2516000   0.85636332   -3.3750248    2001.3367  0.066286986  0.066548867            3 
 2517000   0.84697409   -3.3824929    1999.4594  0.066198496  0.066536118            4 
 2518000   0.85090974   -3.3941858    2008.8283  0.066482269  0.066523364            6 
 2519000   0.84033918   -3.4080407    2002.0805  0.066232649  0.066510331            5 
 2520000   0.84432966   -3.4018047    2003.3298  0.066247678  0.066497334            5 
 2521000   0.86869856   -3.3880465    2011.9966  0.066507888  0.066484251            3 
 2522000   0.88347122   -3.3866153    1998.3277  0.066029861  0.066471213            3 
 2523000   0.84124092   -3.4047152    2004.0608   0.06619305   0.06645818            3 
 2524000   0.84719409   -3.4019259    2002.3225  0.066109432  0.066444953            5 
 2525000   0.83787778   -3.3903414     2007.768  0.066262971  0.066431794            4 
 2526000   0.84560496   -3.4135968    2000.8308  0.066007879   0.06641854            5 
 2527000    0.8398589   -3.4028981    2003.8839  0.066082438  0.066405321            4 
 2528000   0.84055075   -3.4091112    2002.8384  0.066021835  0.066391972            3 
 2529000   0.84668723     -3.38394    2003.6408  0.066022168  0.066378622            7 
 2530000   0.84635483   -3.3882528    2003.3294  0.065985816  0.066365191            4 
 2531000    0.8317158   -3.3828246    2002.6906  0.065938713  0.066351825            3 
 2532000   0.85919174   -3.3874335    2006.2258  0.066029022  0.066338313            2 
 2533000   0.85662247   -3.4045742    2007.8672  0.066056954  0.066325005            6 
 2534000   0.83853144   -3.3760014    2005.1791  0.065942486  0.066311857            3 
 2535000   0.84512513   -3.3863687    2002.5906  0.065831381  0.066298182            5 
 2536000   0.83878906   -3.3734633    2009.6491  0.066037366  0.066284869            6 
 2537000   0.84228561    -3.379095    2004.7453   0.06585026  0.066271453            5 
 2538000   0.85188317   -3.3828024    2001.2466  0.065709437  0.066258151            3 
 2539000   0.83218591   -3.3828648    2008.1503  0.065910144  0.066244652            2 
 2540000   0.83973134   -3.3722456    2007.9747  0.065878436  0.066231239            4 
 2541000   0.86588715   -3.3823517    2005.1461  0.065759742  0.066217786            2 
 2542000   0.85326659   -3.3853865    2003.2384  0.065671333  0.066204089            3 
 2543000   0.82977445   -3.3909315    2008.1114  0.065805197  0.066190603            5 
 2544000   0.84159542   -3.3999691    2010.2205  0.065848419  0.066177082            3 
 2545000   0.83167683   -3.4193842    2005.4779  0.065667253  0.066163506            3 
 2546000     0.852124   -3.3693327    2007.7944  0.065717281  0.066149776            5 
 2547000   0.83682796   -3.3853987    2013.4474  0.065876437  0.066136377            3 
 2548000   0.86244462   -3.4099886    2003.8447  0.065536521  0.066122718            3 
 2549000   0.84575324   -3.4109025    2005.6512  0.065569872  0.066108799            7 
 2550000   0.83386806   -3.3887383    2013.7943  0.065810272  0.066095161            5 
 2551000   0.83846545     -3.40206    2004.4749  0.065480039  0.066081551            2 
 2552000   0.85473506   -3.3702936    2009.9505  0.065633179  0.066067889            3 
 2553000   0.83828813   -3.4015354     2011.189  0.065647898  0.066054386            5 
 2554000   0.83528627   -3.4180276    2012.4016  0.065661759  0.066040616            5 
 2555000   0.84293962   -3.3986395    2011.2923  0.065599878   0.06602713            5 
 2556000   0.85086778   -3.4245867    2016.5298  0.065744971   0.06601359            4 
 2557000   0.84589159   -3.3906202    2016.2117  0.065708895  0.066000068            2 
 2558000   0.84111906   -3.4073872    2015.8272  0.065670682  0.065986634            8 
 2559000   0.83003867   -3.3947526    2010.6612  0.065476788   0.06597305            4 
 2560000   0.86350216   -3.4439979    2015.5518   0.06561041  0.065959442            7 
 2561000   0.85208014   -3.3973687    2020.0972  0.065732696  0.065945894            2 
 2562000   0.86030619   -3.3657874    2012.1898  0.065449839   0.06593239            5 
 2563000   0.84023614   -3.4183119    2010.6084  0.065372883  0.065918606            3 
 2564000    0.8438056   -3.3888028    2015.7997  0.065516112  0.065904724            5 
 2565000   0.85858468   -3.4013139    2005.5997  0.065159183  0.065891004            4 
 2566000   0.84124086   -3.3977853    2010.6088  0.065296468  0.065877249            7 
 2567000   0.82419964   -3.4080024    2013.8674  0.065376814  0.065863482            4 
 2568000   0.84636829     -3.43136    2015.4558  0.065402902    0.0658498            4 
 2569000   0.84432339   -3.4228233    2013.4485   0.06531233  0.065836068            2 
 2570000   0.85269915   -3.4149757    2015.5541  0.065355193  0.065822339            4 
 2571000   0.84912012   -3.3977318    2018.5052  0.065425423  0.065808631            2 
 2572000   0.83924434   -3.4238411    2013.7593  0.065246219  0.065794895            6 
 2573000   0.84649809   -3.4063808    2015.8433  0.065288356  0.065781219            5 
 2574000   0.84009082   -3.4103967    2025.1422  0.065564044  0.065767326            5 
 2575000   0.83964609   -3.4170821     2009.918   0.06504589   0.06575362            4 
 2576000   0.84580566   -3.3901548    2021.9398  0.065409543  0.065739773            7 
 2577000   0.84174781   -3.4031254    2011.5652  0.065048675  0.065726129            3 
 2578000   0.83954599   -3.4065805     2024.904  0.065454618   0.06571238            3 
 2579000    0.8483858   -3.4026782    2017.0115  0.065174211  0.065698459            8 
 2580000   0.82342587   -3.4111487    2014.5587  0.065069725  0.065684716            7 
 2581000    0.8195387   -3.3844579    2024.0407  0.065350663  0.065670924            3 
 2582000   0.82950104   -3.4011864    2020.4734  0.065210219  0.065657167            3 
 2583000    0.8529248   -3.4041591    2019.6928  0.065159788  0.065643273            4 
 2584000   0.84641043    -3.404673     2021.576  0.065195305  0.065629344            3 
 2585000   0.82554684   -3.4189447    2018.7203  0.065078024  0.065615354            4 
 2586000   0.84501026   -3.4053386    2018.2767  0.065038565  0.065601256            4 
 2587000   0.83502687   -3.3943734    2019.9128  0.065066124  0.065587225            4 
 2588000   0.82182958   -3.3923334    2011.8844   0.06478247  0.065573231            7 
 2589000   0.83894887   -3.3937585    2023.9868  0.065146992  0.065559277            3 
 2590000   0.84390863   -3.4197818     2014.234  0.064808043  0.065545211            2 
 2591000   0.84440166   -3.4169637    2025.3885  0.065141787  0.065531347            9 
 2592000   0.83914264    -3.394784    2030.4396  0.065279052   0.06551747            3 
 2593000   0.85111149   -3.4205232    2016.8331  0.064816594   0.06550374            2 
 2594000    0.8362914   -3.4258686    2025.1509  0.065058819  0.065489974            2 
 2595000    0.8570103   -3.4152335    2020.0972  0.064871457  0.065476033            4 
 2596000   0.83293413   -3.4132228    2024.6475  0.064992536  0.065462191            9 
 2597000   0.82913797   -3.4008266    2028.4695  0.065090154  0.065448203            4 
 2598000   0.83039137   -3.3983218    2022.4606  0.064872358  0.065434458            1 
 2599000   0.83025415   -3.3935491    2022.5801  0.064851229  0.065420598            3 
 2600000   0.83601383   -3.4099829    2025.1371  0.064908241  0.065406747            3 
 2601000   0.83381315   -3.3891899    2023.6794  0.064836581  0.065392833            4 
 2602000   0.83053479   -3.4207284    2022.3841  0.064770179  0.065379091            2 
 2603000    0.8438582   -3.4310913    2023.9234  0.064794577  0.065365349            4 
 2604000   0.83555314   -3.4234354     2021.952  0.064706605  0.065351442            2 
 2605000   0.83787455   -3.3967208    2026.3784  0.064823364   0.06533746            3 
 2606000   0.84524087   -3.4163676    2022.5388  0.064675711  0.065323729            3 
 2607000   0.82510468   -3.4308928    2025.0668  0.064731709   0.06530985            3 
 2608000   0.84695912   -3.3928441    2026.8016  0.064762321  0.065296039            3 
 2609000   0.83438018   -3.4302086    2015.8693  0.064388314  0.065282165            6 
 2610000   0.82249992   -3.4103839    2029.3171   0.06479301  0.065268298            7 
 2611000   0.83091532   -3.4390887    2024.6631  0.064619658  0.065254416            3 
 2612000   0.83354426   -3.4040367     2026.205  0.064644111  0.065240526            3 
 2613000   0.83112011   -3.4233339     2035.315  0.064909907  0.065226642            2 
 2614000   0.84357384   -3.3818471    2040.9554  0.065064888  0.065212957            5 
 2615000   0.82736228   -3.4011729    2027.7533  0.064619289  0.065199113            4 
 2616000   0.84446524   -3.3915213    2028.2076  0.064609061  0.065185262            2 
 2617000   0.81958479   -3.4136688    2023.6245   0.06443843  0.065171386            4 
 2618000   0.81984385   -3.4177131    2028.1175  0.064556835   0.06515741            4 
 2619000   0.82257281   -3.4190381    2026.1383   0.06446921  0.065143398            2 
 2620000    0.8260237   -3.4290212    2028.8185  0.064529852  0.065129342            3 
 2621000   0.83589929   -3.4105862    2026.7938  0.064440855  0.065115314            3 
 2622000   0.82182719   -3.3956489    2030.4577  0.064532726   0.06510107            2 
 2623000   0.84425878   -3.4202334     2032.607  0.064576407  0.065087041            7 
 2624000   0.83068592   -3.4234262    2039.2118  0.064761554  0.065072911            3 
 2625000   0.84682473      -3.4055    2032.2225  0.064514999  0.065058665            3 
 2626000   0.82221218   -3.3933244    2030.4031  0.064432694  0.065044514            8 
 2627000   0.84221247   -3.4342087    2023.6532  0.064194048  0.065030403            4 
 2628000   0.81478827   -3.4278402    2025.9224  0.064241577  0.065016158            6 
 2629000   0.84395991   -3.4293881    2021.9566  0.064091435  0.065001868            3 
 2630000    0.8223708   -3.4043692      2034.45  0.064462927  0.064987616            8 
 2631000   0.84238738   -3.4312065    2021.6889  0.064034237  0.064973423            3 
 2632000   0.83872336   -3.4116703    2030.4737  0.064288049  0.064959178            8 
 2633000   0.81583106   -3.4238004    2028.6247  0.064205111  0.064945008            5 
 2634000   0.81964911   -3.4131126    2034.0925  0.064353722   0.06493081            3 
 2635000   0.82097875    -3.424632    2028.0442  0.064138019  0.064916695            3 
 2636000   0.82473439   -3.4178076    2036.6629  0.064386157  0.064902246            5 
 2637000   0.81362447   -3.4258805    2024.9496   0.06399158  0.064887972            5 
 2638000   0.82717958   -3.4270782    2032.6529  0.064210667  0.064873753            4 
 2639000   0.84705535   -3.4269368    2035.0189  0.064261048  0.064859626            4 
 2640000   0.82486349   -3.4244229    2025.4907  0.063935943  0.064845324            5 
 2641000   0.83139729   -3.4268325    2029.1377  0.064026812  0.064831014            3 
 2642000   0.82718829   -3.4420121    2028.7607  0.063990685  0.064816693            3 
 2643000   0.82205868   -3.4377267    2029.7724  0.063998375  0.064802375            2 
 2644000    0.7994305    -3.421324    2037.3471  0.064212907  0.064788076            2 
 2645000   0.83145026   -3.3939563    2036.9957   0.06417756  0.064773918            5 
 2646000    0.8185994   -3.4094172    2033.6777  0.064048805  0.064759733            5 
 2647000   0.82056833   -3.4272298    2025.1768  0.063756984   0.06474555            4 
 2648000   0.81182166   -3.4015398    2033.6082  0.063998244  0.064731038            4 
 2649000   0.82984548   -3.4256142     2037.292  0.064089972  0.064716882            3 
 2650000   0.81693194   -3.4018231      2035.16  0.063998742  0.064702527            4 
 2651000   0.82768199   -3.4175014    2032.8098  0.063900723  0.064688303            3 
 2652000   0.82608919   -3.4279245     2031.498  0.063835407  0.064673982            3 
 2653000   0.83184556   -3.4112474    2043.5268  0.064189182  0.064659676            7 
 2654000   0.82902871   -3.4254675    2035.9784  0.063927984  0.064645397            3 
 2655000   0.82821861    -3.401945    2035.4221  0.063886445  0.064631066            4 
 2656000    0.8595357   -3.4328417    2030.5272  0.063708811  0.064616843            5 
 2657000   0.81001277   -3.4293218    2038.1377  0.063923526  0.064602459            7 
 2658000   0.81053673   -3.4274676    2036.5803  0.063850648   0.06458818            3 
 2659000   0.80897172   -3.4400262    2037.3395  0.063850431  0.064573795            5 
 2660000   0.81221839    -3.407038    2035.6785   0.06377439  0.064559492            4 
 2661000   0.82718495   -3.4461788    2031.3284  0.063614192  0.064545143            3 
 2662000    0.8178729   -3.4654676    2044.1117  0.063990474  0.064530875            3 
 2663000   0.83194227   -3.4386425    2043.8214  0.063957361  0.064516535            4 
 2664000   0.82418296   -3.4098853    2038.1297  0.063755309  0.064502196            2 
 2665000   0.82777161   -3.4480841    2047.7958  0.064033639  0.064487911            4 
 2666000   0.83997074   -3.4138563     2040.528  0.063782446  0.064473519            4 
 2667000   0.82564931   -3.4129195    2042.9981  0.063835713  0.064459392            3 
 2668000   0.81041292   -3.4326582    2038.4508  0.063669753  0.064445114            3 
 2669000   0.83320902   -3.4508912    2047.7526  0.063936326  0.064430951            5 
 2670000   0.83716343   -3.4200235    2055.6955  0.064160283  0.064417038            6 
 2671000   0.84790407   -3.4242567     2046.281  0.063842538  0.064403052            5 
 2672000   0.82666071   -3.4279024    2051.9053  0.063994051  0.064389119            4 
 2673000   0.81848609   -3.4415799    2044.4328   0.06373715  0.064375035            3 
 2674000   0.84083717   -3.4392979    2048.7982  0.063849359  0.064360951            5 
 2675000   0.81319455   -3.4380928    2051.7223  0.063916582  0.064346912            2 
 2676000   0.82939257   -3.4240651    2051.8844  0.063897746  0.064332981            4 
 2677000    0.8262413   -3.4399051    2041.8129  0.063560358  0.064319114            2 
 2678000   0.83240467   -3.4474633    2047.6346  0.063717781  0.064305087            3 
 2679000   0.82977034   -3.4558039    2054.7616  0.063915688  0.064291122            8 
 2680000   0.83680596    -3.426775    2053.8381  0.063863124   0.06427717            3 
 2681000   0.83675698   -3.4100996    2056.6255  0.063925944  0.064263333            4 
 2682000   0.82683192   -3.4280694    2051.5754  0.063745196  0.064249477            6 
 2683000   0.81661441   -3.4545211    2044.9999  0.063517203  0.064235721            6 
 2684000   0.82082723   -3.4411024    2051.7072  0.063701787  0.064221862            4 
 2685000   0.82128079   -3.4283198    2052.9088  0.063715357   0.06420802            3 
 2686000   0.81514892   -3.4206261    2045.9586  0.063476004  0.064194043            4 
 2687000   0.82052068   -3.4573245     2052.061  0.063641639  0.064180044            2 
 2688000   0.80969039   -3.4411176    2049.5485   0.06354007  0.064166094            3 
 2689000   0.81690147   -3.4383592    2057.0914  0.063750198  0.064152304            3 
 2690000   0.84330246   -3.4432923    2047.8419  0.063439959  0.064138529            4 
 2691000   0.81718209   -3.4095462    2050.0916  0.063486051  0.064124496            3 
 2692000   0.81017807   -3.4555704    2054.7936  0.063608025   0.06411072            6 
 2693000   0.80657174   -3.4605596    2050.5676  0.063453632  0.064096766            4 
 2694000   0.82527534   -3.4223282    2053.7649   0.06352898  0.064082788            3 
 2695000   0.80847163    -3.414284    2053.1123  0.063485228  0.064068822            6 
 2696000   0.80931726   -3.4361699    2054.3557  0.063500114  0.064054811            7 
 2697000   0.82398088   -3.4257468    2050.2978  0.063351187   0.06404079            5 
 2698000   0.81833697   -3.4412772    2057.7963  0.063559314  0.064026832            4 
 2699000   0.80904069   -3.4537218    2058.6962  0.063563548  0.064012887            5 
 2700000   0.81432355   -3.4502551    2053.4881  0.063379263  0.063998859            4 
 2701000   0.82497539    -3.425159     2053.385  0.063352617   0.06398472            4 
 2702000   0.84190556   -3.4497857    2058.1102  0.063474903  0.063970654            3 
 2703000   0.81554446   -3.4542378    2055.4169  0.063368385  0.063956719           16 
 2704000   0.81341854    -3.432797    2058.0163  0.063425059  0.063942687            3 
 2705000   0.81293407    -3.442592    2062.3278  0.063534436  0.063928804            4 
 2706000   0.81121256   -3.4362592    2060.2098  0.063445733  0.063914943            5 
 2707000   0.81735777   -3.4273804    2063.3721  0.063519644  0.063901028            5 
 2708000   0.81736637     -3.44496    2061.6583  0.063443447  0.063887139           11 
 2709000   0.81501495   -3.4330807    2057.2559  0.063284604  0.063873296            2 
 2710000   0.82185501   -3.4046436    2066.5618  0.063547412  0.063859584            7 
 2711000   0.82109862   -3.4567434    2060.2532  0.063330052  0.063845781            4 
 2712000   0.81593142   -3.4441993    2058.6235   0.06325662  0.063831986            3 
 2713000   0.80443003   -3.4277112    2064.1917  0.063404341  0.063818247            5 
 2714000   0.82777983   -3.4495016     2060.615  0.063271156  0.063804506            3 
 2715000   0.82500894   -3.4607739    2059.8624  0.063224751   0.06379078            3 
 2716000   0.81938028   -3.4290027    2067.9411  0.063449345  0.063777131            4 
 2717000   0.80894192   -3.4561253    2068.4297  0.063440979  0.063763432            7 
 2718000   0.81395676   -3.4353422    2066.0485   0.06334463  0.063749767            7 
 2719000   0.81643291    -3.415415    2067.8639  0.063376975  0.063736071            8 
 2720000    0.8179127   -3.4552742    2072.2364  0.063487635   0.06372234            3 
 2721000   0.81548801    -3.413182    2069.0781  0.063367575  0.063708603            2 
 2722000    0.8149996   -3.4635118     2054.289  0.062891533  0.063694812            6 
 2723000   0.81332447   -3.4495387    2064.3193  0.063175398   0.06368101            4 
 2724000   0.80496088   -3.4396726    2065.8634  0.063199443  0.063667146            2 
 2725000   0.81173179   -3.4466653    2064.5147  0.063135007  0.063653336            2 
 2726000   0.80449333   -3.4269694    2064.8728  0.063122793  0.063639669            2 
 2727000   0.82451978    -3.442884    2072.9104  0.063345262  0.063626042            6 
 2728000   0.83158167   -3.4550258    2067.8479  0.063167396  0.063612244            2 
 2729000   0.81556409   -3.4244072    2073.9149  0.063329513  0.063598527            2 
 2730000   0.82675063   -3.4317506    2066.2607   0.06307267  0.063584859            2 
 2731000   0.81457796   -3.4021428    2073.1127  0.063258656  0.063571027            7 
 2732000   0.82035271   -3.4273963    2064.8872  0.062984601  0.063557166            6 
 2733000   0.80022389   -3.4555599    2062.9319  0.062901937  0.063543314            4 
 2734000   0.80881862   -3.4431601     2061.472  0.062834429    0.0635294            2 
 2735000   0.81532902   -3.4171104    2072.8076  0.063156843  0.063515539            3 
 2736000   0.79713249   -3.4452355    2067.5436  0.062973429  0.063501705            4 
 2737000   0.79563757   -3.4493347    2073.6154  0.063135289  0.063487951            3 
 2738000   0.80794153   -3.4256468    2067.8842  0.062937796  0.063474282            3 
 2739000   0.80010704   -3.4418694    2073.2308  0.063077486  0.063460404            5 
 2740000   0.81790612   -3.4314827     2068.838  0.062920864  0.063446676            5 
 2741000    0.8051446   -3.4392482    2064.2205  0.062757525  0.063432878            3 
 2742000   0.80873649   -3.4523845    2073.3648  0.063012546  0.063419051            3 
 2743000   0.79809248   -3.4484845    2073.9507  0.063007374  0.063405158            2 
 2744000   0.78254206   -3.4378271     2071.289  0.062903577  0.063391497            5 
 2745000   0.81698477   -3.4184106    2077.6952  0.063075142  0.063377824            2 
 2746000   0.81394741   -3.4613796    2071.3636  0.062860028  0.063364073            5 
 2747000   0.80567027   -3.4729059    2070.2852  0.062804429  0.063350125            4 
 2748000   0.79723555   -3.4481178    2080.6433  0.063095686  0.063336362            2 
 2749000   0.81785347   -3.4417036    2079.9864   0.06305282  0.063322665            3 
 2750000   0.80760388   -3.4475808    2077.9191  0.062967246  0.063309203            8 
 2751000   0.79967039   -3.4374144    2079.9719   0.06300654  0.063295479            5 
 2752000   0.79523796   -3.4667607    2079.6219  0.062973047  0.063281882            5 
 2753000   0.80147206   -3.4342261    2079.4627  0.062945352  0.063268125            2 
 2754000   0.81062791   -3.4331346    2082.8691  0.063025572  0.063254603            6 
 2755000    0.8293721   -3.4345152    2079.0983  0.062888635  0.063240948            5 
 2756000   0.80086148   -3.4216199    2081.6793  0.062943858  0.063227421            5 
 2757000   0.81739981    -3.446749    2080.8084  0.062894705  0.063213779            3 
 2758000    0.8116883   -3.4625515    2083.8327  0.062963281  0.063200267            2 
 2759000    0.8106842   -3.4440905    2088.3744  0.063077638  0.063186729            3 
 2760000   0.83989148   -3.4492498    2083.4943  0.062907436  0.063173227            2 
 2761000   0.81338234   -3.4575571    2084.2108  0.062906278  0.063159931            4 
 2762000   0.80122014   -3.4638734    2084.0618  0.062879006  0.063146419            5 
 2763000   0.80916982   -3.4562137    2078.3265   0.06268327   0.06313273            3 
 2764000   0.81135748   -3.4394227    2087.2815   0.06293058  0.063119291            3 
 2765000   0.80559128   -3.4377926    2085.6577  0.062858882  0.063105709            3 
 2766000   0.80669712   -3.4613902    2082.2248  0.062732732  0.063092153            5 
 2767000    0.7989336   -3.4347895    2088.8754  0.062910353  0.063078671            2 
 2768000   0.79411053    -3.416614     2087.971  0.062860398  0.063065159            4 
 2769000    0.8259581   -3.4321768     2079.869  0.062593868  0.063051599            4 
 2770000   0.79296178   -3.4738616    2079.3105  0.062554469  0.063037888            3 
 2771000   0.80099244   -3.4413325    2080.2144  0.062559078  0.063024217            3 
 2772000   0.81246615   -3.4684266     2085.508  0.062695647   0.06301062            5 
 2773000   0.82181184   -3.4646941    2087.8085  0.062742172  0.062996917            2 
 2774000   0.79119609   -3.4367887    2094.0167  0.062906054  0.062983463            5 
 2775000   0.80549848   -3.4545348     2087.011  0.062673004  0.062969924            2 
 2776000   0.81551638   -3.4476079    2090.0848  0.062742701  0.062956414            4 
 2777000   0.80642912   -3.4769604    2090.9557  0.062746238  0.062943005            3 
 2778000   0.81965923   -3.4798362    2091.3079  0.062734218  0.062929747            5 
 2779000   0.78283484   -3.4459938    2091.6104  0.062720713  0.062916362            6 
 2780000   0.80659965   -3.4358611     2092.838  0.062734953  0.062903049            4 
 2781000   0.80543401   -3.4570469    2093.5709  0.062734356  0.062889719            3 
 2782000   0.80509176   -3.4399836    2092.0236  0.062665457  0.062876332            2 
 2783000   0.80818681   -3.4481273     2093.755  0.062694784  0.062862872            3 
 2784000    0.8067447   -3.4746269    2083.3974   0.06236223  0.062849419            2 
 2785000   0.82471199   -3.4612294    2087.5801  0.062464994  0.062836021            7 
 2786000   0.80394532   -3.4713702    2097.9518  0.062752805  0.062822479            3 
 2787000   0.81368596   -3.4645691    2092.7174  0.062573778  0.062809148            5 
 2788000   0.81512063   -3.4657034    2086.8515  0.062376001   0.06279569            7 
 2789000   0.82185426   -3.4794372    2087.2062  0.062364233  0.062782217            2 
 2790000   0.79711503   -3.4535363    2089.1944  0.062401267  0.062768696            3 
 2791000   0.79196256   -3.4321275    2095.2081  0.062558466  0.062755338            7 
 2792000   0.80377887   -3.4593996    2088.2086  0.062327144  0.062741948            5 
 2793000   0.82301716   -3.4701305    2093.8518  0.062473201  0.062728535            6 
 2794000   0.79741214   -3.4423392    2093.4788  0.062439717  0.062715007            2 
 2795000   0.80909608   -3.4503454    2092.6637  0.062393075  0.062701446            4 
 2796000   0.81212197   -3.4511135    2089.0515  0.062263098  0.062687917            4 
 2797000   0.80608759    -3.451839    2096.8779  0.062474017  0.062674416            8 
 2798000   0.82718993   -3.4681096    2090.6778  0.062267031  0.062660948            9 
 2799000   0.82061745   -3.4759967    2095.5905  0.062391048  0.062647476            3 
 2800000   0.81489794   -3.4584885    2093.8457  0.062316836  0.062633953            2 
 2801000   0.79755114   -3.4477632    2096.1527  0.062363226   0.06262029            5 
 2802000   0.80831333   -3.4617435    2084.3015  0.061988504   0.06260668            2 
 2803000   0.80452223   -3.4592611    2098.6661  0.062393449  0.062593087            4 
 2804000   0.81013584   -3.4641351    2095.0021  0.062262305  0.062579336            3 
 2805000   0.81911811   -3.4582984    2090.1152  0.062094925  0.062565915            3 
 2806000   0.79029269   -3.4546275     2090.356  0.062079949  0.062552356            2 
 2807000   0.81376439   -3.4596573    2094.0582   0.06216774  0.062538701            7 
 2808000   0.81494925   -3.4416663    2097.2114  0.062239178   0.06252512            4 
 2809000   0.81532565    -3.477804    2098.0302  0.062241313   0.06251151            7 
 2810000   0.80754863   -3.4749546     2097.028  0.062189444   0.06249775            8 
 2811000    0.7979307   -3.4654765    2097.2934  0.062175187  0.062483987            4 
 2812000   0.80907856   -3.4655256    2097.9549  0.062172678  0.062470401            2 
 2813000   0.80199957   -3.4623883    2087.0942  0.061828837  0.062456731            3 
 2814000   0.80965956    -3.457165    2089.9574  0.061891656  0.062443108            7 
 2815000   0.78856502   -3.4622374    2096.0106  0.062048864  0.062429466            4 
 2816000   0.77859395   -3.4663392    2091.6264  0.061897088  0.062415901            4 
 2817000    0.7946598   -3.4862169    2101.3485  0.062162717  0.062402268            6 
 2818000   0.79991957   -3.4769373    2090.3764  0.061816193  0.062388591            9 
 2819000   0.79201846   -3.4879794    2096.5364  0.061976362  0.062374791            5 
 2820000   0.79039081   -3.4941007    2091.9587   0.06181911  0.062361053            6 
 2821000   0.79177568   -3.4625943    2098.9742  0.062004436  0.062347456            3 
 2822000   0.78272799   -3.4285805    2106.3573  0.062200487  0.062333815            4 
 2823000   0.81000317   -3.4693119    2099.1945  0.061967012  0.062320246            2 
 2824000   0.80749701   -3.4391611    2100.1262  0.061972564  0.062306569            4 
 2825000   0.78831012   -3.4653685    2105.2483   0.06210172  0.062293023            6 
 2826000   0.79152993   -3.4883034    2097.1623  0.061841305  0.062279344           11 
 2827000    0.8124829   -3.4495564    2101.0607  0.061934346  0.062265711            4 
 2828000   0.79732675   -3.4908231    2096.4714   0.06177721  0.062252217            3 
 2829000   0.80570436   -3.4520728    2103.6414  0.061966579  0.062238663            5 
 2830000   0.79829392   -3.4727316    2100.2153  0.061843795  0.062225019            8 
 2831000   0.79154169   -3.4579981    2107.7008  0.062042293  0.062211494            5 
 2832000   0.80578641   -3.4343356    2104.2641  0.061919259  0.062197916            5 
 2833000   0.78931637   -3.4745027    2109.0445  0.062038019   0.06218452            4 
 2834000   0.79761331   -3.4775322    2106.5236  0.061942001  0.062171077            3 
 2835000   0.80191797   -3.4805332    2102.4501  0.061800415  0.062157586            7 
 2836000    0.8027111   -3.4880398    2105.0341  0.061854551  0.062144195            3 
 2837000   0.80697801   -3.4709128    2110.8654  0.062004035  0.062130786            5 
 2838000   0.79472311   -3.4853632    2109.1132  0.061930738  0.062117385            4 
 2839000      0.81376   -3.4891384     2108.427   0.06188878  0.062103989            7 
 2840000   0.77688281   -3.4618987    2106.2011  0.061801675  0.062090522            4 
 2841000    0.8009318   -3.4635899    2111.7257  0.061941972  0.062077084            6 
 2842000   0.81512588   -3.4676826    2111.4152  0.061911073  0.062063774            4 
 2843000   0.79247361   -3.4635358    2112.0275  0.061907243  0.062050365            5 
 2844000   0.80566153     -3.44115    2108.0194  0.061768031  0.062037097            4 
 2845000   0.79994783   -3.4431183    2109.3826   0.06178625  0.062023742            4 
 2846000   0.80073338   -3.4875484    2100.4785  0.061503821  0.062010194           12 
 2847000   0.80521694    -3.461156    2116.2998  0.061945316  0.061996697            4 
 2848000   0.78470049   -3.4762634    2107.1489  0.061655809  0.061983208            7 
 2849000   0.80990188    -3.460039    2110.9495  0.061745336  0.061969727            2 
 2850000   0.78957062   -3.4723766    2109.6556  0.061685835   0.06195622           10 
 2851000   0.80735142   -3.4645163    2109.1507  0.061649441  0.061942756            1 
 2852000   0.79787207   -3.4831038    2109.4924  0.061637809  0.061929165            4 
 2853000   0.77781704   -3.4574193    2114.7997  0.061771225  0.061915658            3 
 2854000   0.81117896   -3.4727147    2114.0044  0.061726361   0.06190225            5 
 2855000   0.80056774   -3.4490174    2112.5035   0.06166093  0.061888762            3 
 2856000   0.79863207   -3.4571683    2108.2862  0.061516287   0.06187527            3 
 2857000   0.78566495   -3.4835146     2110.678  0.061564519  0.061861584            4 
 2858000   0.79184176   -3.4768933    2110.5495  0.061539233  0.061847912            5 
 2859000   0.80257783   -3.4616439    2104.1748  0.061331899  0.061834252            4 
 2860000    0.7751968   -3.4691972    2106.1622  0.061368362  0.061820668            2 
 2861000   0.80690418   -3.4855143    2106.7841  0.061365027  0.061807186            4 
 2862000   0.78661759   -3.4719851    2113.6537   0.06154361   0.06179359            6 
 2863000   0.81478204   -3.4836794      2116.25  0.061597682  0.061780139            5 
 2864000    0.7938249    -3.468821    2107.6595  0.061326218  0.061766636            6 
 2865000   0.79661727   -3.4825926    2112.3644  0.061441664  0.061753003            2 
 2866000   0.79577296   -3.4809447    2117.5329  0.061570508  0.061739615            6 
 2867000   0.79322079   -3.4538187    2114.2768   0.06145439  0.061726161            3 
 2868000   0.81478045   -3.4822395    2120.6221  0.061617331  0.061712843            5 
 2869000   0.80324404   -3.4963646    2118.0553  0.061521299  0.061699381            4 
 2870000   0.79864068   -3.4538273    2118.9524  0.061525912  0.061686021            6 
 2871000   0.76730687   -3.4826723     2109.357  0.061225966   0.06167268            5 
 2872000   0.80259001    -3.489065    2119.4029  0.061496137  0.061659366            3 
 2873000   0.78504647   -3.4838803     2118.087  0.061436565  0.061646128            3 
 2874000   0.79659826   -3.5024169    2117.2104  0.061389771  0.061632701            4 
 2875000   0.78683856   -3.4610851    2113.6415  0.061264971  0.061619159            3 
 2876000   0.79699749   -3.4594645    2112.9439  0.061223455  0.061605701            4 
 2877000   0.79880644   -3.4764775    2117.9738  0.061347869  0.061592201            3 
 2878000   0.78904488   -3.4476577    2121.3691  0.061424865  0.061578916            5 
 2879000   0.79112414   -3.4996675    2123.5191  0.061465761  0.061565454            3 
 2880000   0.78912729   -3.4998552    2113.8791  0.061165484  0.061552081            4 
 2881000   0.77783588   -3.5155282    2115.2879  0.061185003  0.061538666            4 
 2882000   0.80101251   -3.4759554    2124.4196  0.061427815  0.061525318            5 
 2883000   0.80096635   -3.4882835    2122.0942  0.061339294  0.061512043            3 
 2884000   0.79947398   -3.4868911    2118.0076  0.061199943  0.061498712            4 
 2885000   0.80407667   -3.4892048    2125.6889  0.061400604  0.061485406            7 
 2886000   0.80910236   -3.4923814    2117.2209  0.061134815  0.061471987            4 
 2887000   0.77863681   -3.4735631     2124.452  0.061322364  0.061458619            5 
 2888000   0.79382189   -3.4768714    2114.7509  0.061021206  0.061445311            4 
 2889000   0.78497704   -3.4961447    2119.5958  0.061139835   0.06143203            5 
 2890000   0.78385727   -3.4787607     2125.866  0.061299481  0.061418747            7 
 2891000    0.7968905   -3.4780435    2120.6648  0.061128353  0.061405567            5 
 2892000    0.7804163    -3.459423    2134.6001  0.061508764  0.061392215            3 
 2893000   0.79031244     -3.48194    2121.5788   0.06111242   0.06137887            5 
 2894000   0.76639204   -3.4706725    2125.3479  0.061199835  0.061365532            3 
 2895000    0.7719656   -3.4510628    2124.7381  0.061161142  0.061352268            4 
 2896000   0.78749566   -3.4598427    2129.6649  0.061281794  0.061338983            4 
 2897000   0.79265459   -3.5006215     2129.369  0.061252128  0.061325854            4 
 2898000   0.79046709   -3.5081364     2124.799  0.061099581  0.061312596            3 
 2899000   0.80134268   -3.4616834    2127.8117  0.061165106  0.061299191            3 
 2900000   0.79815739   -3.4644492    2127.0808  0.061123012  0.061285963            4 
 2901000   0.79447017   -3.4825588    2128.3739  0.061139087  0.061272642            7 
 2902000   0.78724436    -3.507381    2126.6126  0.061067443  0.061259361            4 
 2903000    0.7840896   -3.4926255    2127.2133  0.061063648  0.061246158            6 
 2904000   0.77372403   -3.4964933    2122.8906  0.060918577  0.061232825            4 
 2905000   0.80651045   -3.4983719     2126.182  0.060992024  0.061219692            3 
 2906000   0.78210951    -3.502214    2126.4237  0.060977968   0.06120649            4 
 2907000   0.79111874    -3.484426     2129.866  0.061055671  0.061193385            2 
 2908000   0.77339138   -3.4854059    2129.1258  0.061013463   0.06118031            3 
 2909000    0.7848449   -3.4813204    2125.0097  0.060874575  0.061167143            5 
 2910000   0.78853397   -3.5093591    2128.8574  0.060963844  0.061153938            3 
 2911000   0.77880103   -3.5059788    2133.0093  0.061061757  0.061140894            5 
 2912000   0.78840062   -3.4810474    2129.9063  0.060951989  0.061127676            2 
 2913000   0.78093351   -3.4945117    2142.8692    0.0613019  0.061114596           10 
 2914000    0.7842802   -3.5046714      2135.43  0.061068119  0.061101559            5 
 2915000   0.77668418   -3.4847836    2136.1359  0.061067351  0.061088521            9 
 2916000   0.79292146   -3.4931908    2132.0318  0.060929122  0.061075576            7 
 2917000   0.79255832    -3.480294    2137.3141  0.061059138  0.061062636            9 
 2918000   0.78771796   -3.4941775    2133.5193  0.060929841  0.061049564            4 
 2919000   0.77848252   -3.4950708    2138.2644  0.061044434  0.061036565            6 
 2920000   0.78599754   -3.4825723     2141.728  0.061122375  0.061023782            8 
 2921000   0.80661087   -3.4567838    2142.1272  0.061112838  0.061010805            3 
 2922000   0.76779122   -3.4674947    2144.2288   0.06115186  0.060997862            3 
 2923000   0.78218571   -3.5045089    2137.4565  0.060937863  0.060984856            8 
 2924000   0.79783396   -3.5151287    2130.1988  0.060710179  0.060971892            4 
 2925000   0.78883932   -3.4627873    2142.8134  0.061048816  0.060958994            7 
 2926000   0.79266794   -3.4663685    2135.4398  0.060817949  0.060946079            4 
 2927000   0.79455235   -3.4897986    2147.3677  0.061136765   0.06093325            5 
 2928000   0.77935004   -3.4970738    2141.8424  0.060958629  0.060920414            7 
 2929000   0.76754788   -3.4815828    2146.7436  0.061077262  0.060907528            4 
 2930000   0.79360224   -3.5020681     2139.326   0.06084545  0.060894617            5 
 2931000   0.79686137   -3.5188883    2140.3649  0.060854228  0.060881723            7 
 2932000   0.78421568   -3.4880758    2145.9906  0.060993367  0.060868914            3 
 2933000   0.77056315   -3.4931353    2151.4416  0.061127445  0.060856057            7 
 2934000   0.79285668   -3.4896695    2146.9617  0.060979372  0.060843281            3 
 2935000   0.77106905   -3.4794486    2144.0736  0.060876593  0.060830494            3 
 2936000   0.78849803   -3.5087066    2140.6757  0.060759414  0.060817761            6 
 2937000    0.7855249   -3.4776976    2149.4285  0.060987075  0.060804996            2 
 2938000   0.79644326   -3.5073952    2137.1612  0.060618368  0.060792214            6 
 2939000   0.77621914   -3.4816853    2146.4052  0.060859849  0.060779401            7 
 2940000   0.78878368    -3.487829     2143.874  0.060767405  0.060766606            5 
 2941000    0.7707626   -3.5020003    2145.6421  0.060796842  0.060753741            3 
 2942000   0.78724315   -3.5070516    2146.0769  0.060788491  0.060740912            5 
 2943000   0.77664184   -3.4924919      2151.73  0.060927908  0.060728196            3 
 2944000   0.78324184   -3.4886132    2141.4505  0.060616238  0.060715442            4 
 2945000   0.79008585   -3.5048559    2140.6795   0.06057384   0.06070262            6 
 2946000   0.77913649   -3.4948205    2151.5654  0.060861208  0.060689975            7 
 2947000    0.7766298   -3.5016055    2146.2082  0.060689069  0.060677277            2 
 2948000   0.78347884   -3.4956264    2151.4567  0.060816845  0.060664589            6 
 2949000   0.77778272   -3.4908471    2145.5123  0.060628244  0.060651948            4 
 2950000   0.80474093   -3.4791209    2143.5786  0.060553068  0.060639275            7 
 2951000   0.78133418   -3.5033065    2147.9596  0.060656263  0.060626542            5 
 2952000   0.76528213   -3.4911165    2143.0092   0.06049597  0.060613824            6 
 2953000   0.77848036   -3.5225652    2154.1204   0.06078904  0.060601073            3 
 2954000   0.78257082    -3.482033    2158.2916  0.060886131  0.060588408            3 
 2955000   0.77295667    -3.490326    2152.3288  0.060697371   0.06057569            3 
 2956000   0.77002658   -3.4889037    2158.6385  0.060854715  0.060562888            3 
 2957000   0.78903517   -3.4986572    2152.6276  0.060664739   0.06055015            2 
 2958000   0.80232228   -3.4926978     2154.885  0.060707826  0.060537431            3 
 2959000   0.77849138   -3.5044541    2149.0355  0.060522572   0.06052483           11 
 2960000   0.77530217   -3.5094569    2149.2498   0.06050816  0.060512056            3 
 2961000   0.78422794   -3.5002082    2152.4108  0.060576686  0.060499234            5 
 2962000   0.78405673   -3.4808709    2158.9366  0.060739833  0.060486594            4 
 2963000   0.79160324   -3.5120437    2153.6589    0.0605709  0.060473893            7 
 2964000    0.7816292   -3.4845473    2147.1843   0.06036843  0.060461138            7 
 2965000   0.77587028   -3.5073156    2148.5477  0.060386388  0.060448372            5 
 2966000   0.78163286   -3.4925507    2155.1834  0.060552467   0.06043551            3 
 2967000   0.78683064   -3.5188232     2150.836  0.060409953  0.060422741            7 
 2968000    0.7831695    -3.514456    2143.8432   0.06019326  0.060409982            5 
 2969000   0.77310403   -3.5077657    2152.9695  0.060429142  0.060397297            2 
 2970000   0.78604782   -3.5059774    2154.9872  0.060465409  0.060384591            4 
 2971000   0.78468447   -3.4892973    2155.4443   0.06045788  0.060371892            5 
 2972000   0.77049823   -3.4758406    2159.6981   0.06055681  0.060359282            4 
 2973000   0.80045047   -3.4778253    2158.6564  0.060507244   0.06034673           13 
 2974000   0.77819352   -3.5101033    2156.2928  0.060420668  0.060334057            7 
 2975000   0.77511329   -3.5237935    2158.9503  0.060474799  0.060321389           10 
 2976000   0.77570625   -3.4921817    2165.4871   0.06063752  0.060308752           12 
 2977000    0.7893806   -3.5116615    2157.9019  0.060404823   0.06029626            4 
 2978000   0.76476374   -3.5072749    2160.4968  0.060457153   0.06028367            3 
 2979000    0.7762268    -3.482976    2160.5603  0.060438635  0.060271138            6 
 2980000   0.76622961   -3.5069367    2164.5423  0.060529706  0.060258701            7 
 2981000   0.77698752   -3.5257693    2165.5689    0.0605381  0.060246266            7 
 2982000   0.77354129   -3.4970936    2168.8259  0.060608818  0.060233794            3 
 2983000    0.7752761   -3.4947421    2163.0135  0.060426122  0.060221388            4 
 2984000   0.77178518   -3.4943193    2159.9341  0.060319874  0.060209022           12 
 2985000   0.77588323   -3.4835265    2172.4924  0.060650264  0.060196554            5 
 2986000   0.76914099   -3.4889917    2164.7209  0.060413064  0.060184117            3 
 2987000   0.78215205   -3.4915467     2163.873  0.060369182  0.060171816            8 
 2988000   0.77279894   -3.5041287    2168.1547  0.060468392  0.060159372            4 
 2989000   0.77680043   -3.4918257    2166.3093  0.060396712  0.060146965            7 
 2990000   0.75828861   -3.4847778    2162.5941  0.060272968  0.060134615            3 
 2991000   0.76443784   -3.5087778    2166.7325  0.060368119  0.060122096            2 
 2992000    0.7688495   -3.5140161     2165.008  0.060299911  0.060109618           10 
 2993000   0.76854919   -3.5094476    2163.5186  0.060238295  0.060097167            6 
 2994000   0.76493939   -3.5044848    2166.4117  0.060298701  0.060084677            3 
 2995000   0.77422884   -3.5037975    2168.7368  0.060343262  0.060072166            4 
 2996000   0.77622566   -3.5000737    2168.7392  0.060323186  0.060059727            5 
 2997000   0.77910176   -3.5093948    2175.5107  0.060491344  0.060047294            4 
 2998000   0.76022949   -3.5108533    2172.5893  0.060389963  0.060034896            3 
 2999000   0.77861957   -3.5203366    2161.6982  0.060067193  0.060022418            3 
 3000000   0.76814121   -3.4833491    2171.9427  0.060331742  0.060009952            2 
 3001000   0.76762264   -3.5049631    2167.7668   0.06019568  0.059997575            3 
 3002000   0.76502928   -3.5383145    2164.1047   0.06007397  0.059985064            7 
 3003000   0.75140638   -3.4874533    2167.3356  0.060143624  0.059972654            4 
 3004000   0.76922908    -3.506999    2165.7636  0.060079995  0.059960228            6 
 3005000   0.77461473   -3.5147527    2169.2048  0.060155429  0.059947795            5 
 3006000   0.76050705   -3.5283057    2174.6889  0.060287451  0.059935275            4 
 3007000    0.7759597   -3.4979126    2167.6477  0.060072267  0.059922825            4 
 3008000   0.77155478   -3.5366199    2169.1704  0.060094481  0.059910244           11 
 3009000   0.76177329   -3.4914611     2173.379  0.060191065   0.05989788            4 
 3010000   0.77539108   -3.4982539    2173.0286  0.060161368  0.059885502            4 
 3011000    0.7590133   -3.5076992    2171.6975  0.060104546  0.059873104            5 
 3012000   0.75808185   -3.5169564    2170.9447  0.060063765  0.059860537            3 
 3013000   0.75885919   -3.4954771    2171.0731  0.060047381  0.059848031            3 
 3014000   0.77823903   -3.5074493    2174.8252    0.0601312  0.059835599            3 
 3015000   0.77898474   -3.5019523    2177.8049  0.060193613    0.0598232            5 
 3016000   0.76822706   -3.4995814    2182.3064  0.060298032   0.05981084            4 
 3017000   0.78246973   -3.5194267    2170.5301  0.059952772   0.05979852           11 
 3018000   0.77034889   -3.5087378     2170.254  0.059925282  0.059786202            4 
 3019000   0.77861455   -3.5376671    2171.3696  0.059936226  0.059773774            6 
 3020000   0.75969199   -3.5336103    2171.5224  0.059920595  0.059761381            5 
 3021000   0.76160181   -3.5139145    2177.7885  0.060073609  0.059749148            2 
 3022000   0.77194851   -3.5249645    2179.6852  0.060106034  0.059736819            5 
 3023000   0.77951101   -3.4985115    2171.4769  0.059859878  0.059724453            6 
 3024000   0.74901606   -3.5367665    2169.9785   0.05979879  0.059711979            5 
 3025000   0.78278598   -3.5260565    2179.3121  0.060036145  0.059699594            4 
 3026000   0.78159521   -3.4939663    2171.2574  0.059794487   0.05968725            4 
 3027000   0.77137622   -3.5276748    2175.5644  0.059893305  0.059674877            2 
 3028000   0.75768843   -3.5113546    2171.2327  0.059754312  0.059662366            5 
 3029000   0.76227194   -3.5007574    2182.2813  0.060038551  0.059649976            7 
 3030000   0.75907994   -3.5133803    2181.3045  0.059991874  0.059637557            2 
 3031000   0.77662842   -3.5063841     2180.079  0.059938388  0.059625421            3 
 3032000   0.77811803   -3.5323642    2178.1677  0.059866086  0.059613167            7 
 3033000   0.77043956   -3.5256408    2177.9288  0.059839783  0.059600778            6 
 3034000   0.75799305   -3.4946249    2189.5028  0.060137958  0.059588556            3 
 3035000   0.76633228   -3.5088459    2175.3572  0.059729741  0.059576312            3 
 3036000   0.75885877   -3.5316841    2174.5927  0.059689083   0.05956388            2 
 3037000   0.77484622   -3.5223871    2178.1525  0.059767109  0.059551331            7 
 3038000    0.7579969   -3.5178669     2182.448  0.059865262  0.059538943            4 
 3039000   0.76668497    -3.503804    2175.3933  0.059652115  0.059526586            4 
 3040000   0.75352897    -3.509425    2173.2065  0.059572546  0.059514059            8 
 3041000   0.76667289   -3.4962487    2188.0727  0.059960339  0.059501735            4 
 3042000   0.76637267   -3.4969943    2195.3258  0.060139322  0.059489507            4 
 3043000   0.77005374   -3.5201742    2177.4097  0.059628922  0.059477177            7 
 3044000   0.75991396   -3.5366886    2181.1476  0.059711662  0.059464688            3 
 3045000   0.75930264   -3.5036698    2183.2059  0.059748383  0.059452295            4 
 3046000   0.76645816    -3.521946    2182.9705  0.059722326  0.059439814            6 
 3047000   0.75172207   -3.5436872    2183.7293  0.059723481  0.059427501            4 
 3048000   0.77226768   -3.5429188    2186.8263  0.059788559   0.05941519            3 
 3049000   0.74758174   -3.5091038    2193.7772  0.059958925  0.059402895           14 
 3050000   0.77320898   -3.5301526    2176.4457  0.059465731  0.059390713            4 
 3051000    0.7623863   -3.5183015     2192.833  0.059893832  0.059378397            5 
 3052000   0.75258142   -3.5221657    2179.5617  0.059511842  0.059366124            6 
 3053000   0.77004673   -3.5132659    2178.4771  0.059462745  0.059353746            5 
 3054000   0.75718403   -3.5038405    2181.9652  0.059538453  0.059341404            7 
 3055000   0.75778149   -3.5140991    2189.4801  0.059723952  0.059329055            3 
 3056000   0.74045111   -3.5287601    2183.1464  0.059531697  0.059316661           10 
 3057000   0.76219801   -3.5124912    2183.1431  0.059512133   0.05930437            6 
 3058000   0.75478259   -3.5394651    2187.9816  0.059624525  0.059291889            5 
 3059000   0.75524688   -3.5329992    2187.6691  0.059596522  0.059279552            2 
 3060000   0.75979932   -3.5348587    2183.6161   0.05946667  0.059267146            8 
 3061000   0.75843228   -3.5244363    2186.5252   0.05952644  0.059254737            5 
 3062000   0.74352166   -3.5351067    2180.4162  0.059340742  0.059242339            4 
 3063000   0.74209087   -3.5002049    2183.4399  0.059403632  0.059230064            4 
 3064000   0.77882437   -3.5274436    2185.0355   0.05942764  0.059217692            3 
 3065000   0.75413747   -3.5260419    2179.6726  0.059262442  0.059205329            5 
 3066000   0.75126915   -3.5033737    2186.2336   0.05942144  0.059192904            5 
 3067000   0.78828354   -3.5202701    2187.8795  0.059446787  0.059180448            3 
 3068000   0.75027733   -3.5173944     2187.803   0.05942533  0.059168079            5 
 3069000   0.76718224    -3.531496    2188.0974  0.059413963  0.059155632            2 
 3070000   0.76451169   -3.5013962    2192.2103   0.05950625  0.059143196            8 
 3071000   0.76053363   -3.5342647    2182.9206  0.059234793  0.059130816            8 
 3072000   0.74302078   -3.5288538    2183.7953  0.059239239  0.059118372            5 
 3073000   0.77480208     -3.52821    2186.8483  0.059302752  0.059106028            7 
 3074000   0.75919944   -3.5343432    2192.8283  0.059445574   0.05909359            4 
 3075000    0.7570783   -3.5183509    2191.9094  0.059401339  0.059081222            8 
 3076000   0.76896405   -3.5024734    2194.4321  0.059450372  0.059068858            4 
 3077000   0.74793236   -3.5106598    2193.9053  0.059416784  0.059056615            3 
 3078000   0.75792858   -3.5250391    2193.9453  0.059398564  0.059044317            4 
 3079000   0.74536165   -3.5091449    2195.4647  0.059420392  0.059031987            6 
 3080000   0.75291736   -3.5058787    2194.1201  0.059364721  0.059019735            6 
 3081000   0.75514541   -3.5354666    2197.0611  0.059425001  0.059007407            4 
 3082000   0.76891013   -3.5276234    2197.8024  0.059425761  0.058995047            2 
 3083000   0.75910061   -3.5319815    2184.8678  0.059056865  0.058982629            5 
 3084000   0.76749339   -3.5465736    2185.5289  0.059055579  0.058970298            6 
 3085000   0.76031402   -3.5402276    2188.9364  0.059128482     0.058958            3 
 3086000   0.73985292    -3.531355    2195.5436   0.05928774  0.058945766            5 
 3087000   0.76222455    -3.538173    2190.2581  0.059125854  0.058933407            4 
 3088000    0.7425722   -3.5257718    2206.2875  0.059539278  0.058921127            5 
 3089000   0.77228639   -3.5403202    2193.0732  0.059163516  0.058908907            6 
 3090000   0.75610766   -3.5261839    2195.3483  0.059205726  0.058896491            2 
 3091000   0.76134886   -3.5405031    2187.6553  0.058979167  0.058884203            5 
 3092000     0.759385   -3.5255514    2201.4654  0.059332292  0.058871892            4 
 3093000   0.76086383   -3.5331155    2192.5671  0.059073366  0.058859677            5 
 3094000    0.7490897   -3.5150815    2192.5864  0.059054795  0.058847501            4 
 3095000   0.74106865   -3.5237872    2199.6424  0.059225698  0.058835288            4 
 3096000   0.75869101   -3.5232454    2193.9567   0.05905353  0.058823025            7 
 3097000   0.73521952   -3.5335022    2199.2756   0.05917758  0.058810802            9 
 3098000   0.76100903   -3.5461914    2202.2885  0.059239523  0.058798623            5 
 3099000   0.75824353   -3.5499913    2201.6049  0.059202025  0.058786327            5 
 3100000   0.73746755   -3.5251386    2198.7052  0.059104978  0.058774105            6 
 3101000   0.77438294    -3.534234    2188.4698  0.058810861  0.058761774            4 
 3102000   0.76117345   -3.5485898    2199.4567   0.05908706  0.058749427            7 
 3103000   0.75772839   -3.5298658    2196.0381  0.058976208  0.058737219            4 
 3104000   0.76710867   -3.5404399    2198.3742  0.059019927  0.058725019            6 
 3105000   0.76480537   -3.5382993    2203.4662   0.05913758   0.05871276            4 
 3106000   0.76373901       -3.529    2204.2859  0.059140532  0.058700694            4 
 3107000    0.7342643     -3.54943     2198.954  0.058978489  0.058688407            9 
 3108000    0.7709135   -3.5328894     2197.103  0.058909882   0.05867615            7 
 3109000   0.75852458   -3.5480514      2202.08  0.059024338  0.058663897            4 
 3110000   0.75678433   -3.5056077    2203.1116  0.059033001  0.058651794            5 
 3111000   0.75510385   -3.5237173    2199.4215  0.058915181  0.058639647           13 
 3112000   0.74495986   -3.5324642    2203.0805   0.05899423  0.058627493            5 
 3113000   0.75696395   -3.5351825    2207.6351  0.059097204   0.05861526            6 
 3114000   0.76644631   -3.5570063    2208.6418  0.059105165  0.058603212            5 
 3115000   0.75871386   -3.5487392    2205.1511  0.058992805  0.058591056            4 
 3116000    0.7347027   -3.5400653    2205.9271  0.058994626  0.058579052            5 
 3117000   0.74476408   -3.5581817    2200.7442  0.058837134  0.058566944            5 
 3118000   0.74396918   -3.5430797    2210.2079  0.059071198  0.058554755            5 
 3119000   0.76383028     -3.52966    2207.6838  0.058984819  0.058542712            4 
 3120000   0.75747519    -3.510266    2216.8037  0.059209502  0.058530785            7 
 3121000   0.74421619   -3.5164058    2210.6013  0.059024919  0.058518907            4 
 3122000   0.74808717   -3.5482464    2209.9148  0.058987689  0.058506989            3 
 3123000   0.75853292   -3.5319868    2208.5564  0.058932554  0.058494987            5 
 3124000   0.76126482   -3.5445403    2210.8384  0.058974562  0.058483105            6 
 3125000   0.77177765   -3.5513986    2217.8368  0.059142314  0.058471104            6 
 3126000   0.75327267   -3.5190598    2215.9252  0.059072435   0.05845925           10 
 3127000   0.76941094   -3.5480856    2206.5445  0.058803552    0.0584473            6 
 3128000   0.73867605   -3.5310777    2213.4432  0.058968542  0.058435282            3 
 3129000   0.75157022   -3.5285463    2219.1142  0.059100729  0.058423312            9 
 3130000   0.75124159   -3.5747914    2215.7607  0.058992563  0.058411356            7 
 3131000   0.74331478   -3.5395775    2214.4882  0.058939853  0.058399388            8 
 3132000   0.74214173   -3.5531524    2218.3776  0.059024522   0.05838742            6 
 3133000   0.74678288   -3.5402171    2212.6128  0.058852346  0.058375521            4 
 3134000   0.74109056   -3.5328369    2207.9554  0.058709727  0.058363521            5 
 3135000   0.74272799   -3.5476637    2212.1276  0.058801902  0.058351587            8 
 3136000   0.75685377   -3.5530153    2218.3114  0.058947475  0.058339652            2 
 3137000   0.73909918   -3.5341634    2220.9578  0.058998985  0.058327758            3 
 3138000   0.73947764   -3.5454468    2213.7294  0.058788224  0.058315881            2 
 3139000   0.75835107   -3.5446959    2218.5936   0.05889863  0.058304076            5 
 3140000   0.75138053   -3.5463163     2206.952  0.058570913  0.058292242            9 
 3141000   0.75827988   -3.5373007    2218.3173  0.058853795  0.058280319            6 
 3142000   0.74577931   -3.5461891    2215.9313  0.058771784   0.05826853            5 
 3143000   0.75011766   -3.5199289    2213.8567  0.058698079  0.058256691            2 
 3144000   0.74989087   -3.5531102    2221.2339  0.058874944  0.058244909            5 
 3145000   0.74028114   -3.5433565    2213.7295  0.058657379  0.058233059            6 
 3146000   0.73904885   -3.5604264    2213.4652  0.058631732  0.058221204            7 
 3147000   0.74201182    -3.546084    2217.5257  0.058720626  0.058209383            6 
 3148000   0.73791212   -3.5498237    2222.7352  0.058839877  0.058197615            2 
 3149000   0.73560232   -3.5470937    2219.8507  0.058744859  0.058185867            2 
 3150000   0.75506687   -3.5558507    2219.7002  0.058722228  0.058174075            2 
 3151000   0.75330891   -3.5496712    2218.4853  0.058671462  0.058162272            3 
 3152000   0.74153937   -3.5548747    2217.7536  0.058633502  0.058150404            4 
 3153000   0.72004653   -3.5512555    2214.4374   0.05852726  0.058138446            4 
 3154000   0.73897978   -3.5745716    2221.6223   0.05869854  0.058126565            6 
 3155000   0.75421557   -3.5712206    2218.1359  0.058587848  0.058114592            6 
 3156000   0.74214729   -3.5471686    2219.5651  0.058607022  0.058102787            3 
 3157000    0.7261878   -3.5399055    2217.8294  0.058542641  0.058091004           10 
 3158000    0.7507095    -3.556807    2225.4692  0.058725702  0.058079162            6 
 3159000   0.75990581   -3.5715221    2220.2901  0.058570489  0.058067204            6 
 3160000   0.74488054   -3.5722934    2226.4934  0.058715543  0.058055381            4 
 3161000   0.75511993   -3.5513021    2224.6791  0.058649138  0.058043588            5 
 3162000   0.74242926   -3.5381312    2221.2923  0.058541333  0.058031886            5 
 3163000   0.74898617   -3.5490818    2212.9982  0.058304304  0.058020064            5 
 3164000    0.7538112   -3.5364567    2226.5499  0.058642802  0.058008212            3 
 3165000   0.73240238   -3.5186166    2227.1775  0.058640799  0.057996429            5 
 3166000   0.76443577    -3.541073    2228.7589  0.058663899  0.057984675            5 
 3167000   0.73161807    -3.576396    2216.4921  0.058322602  0.057972901            3 
 3168000   0.73812954   -3.5420553    2231.8731  0.058708784  0.057961111            3 
 3169000   0.76308473   -3.5496996    2220.7307  0.058397253  0.057949378            7 
 3170000   0.75711363    -3.544682    2225.2387  0.058497337  0.057937605           16 
 3171000   0.74999008   -3.5719758    2226.9951  0.058525047  0.057925847            3 
 3172000   0.73442256    -3.560524    2222.6773   0.05839316  0.057914044            5 
 3173000   0.75263798   -3.5543663    2225.1753  0.058440363  0.057902212            4 
 3174000    0.7380112   -3.5556112    2221.6756  0.058330068  0.057890445            7 
 3175000   0.75050571   -3.5639268    2227.5377  0.058465556  0.057878634            4 
 3176000   0.76164305   -3.5674014    2220.4737  0.058261799  0.057866863           12 
 3177000    0.7366025   -3.5509848    2226.9113   0.05841232  0.057855073            7 
 3178000    0.7424858   -3.5767592    2228.2322  0.058428576  0.057843346            3 
 3179000   0.75100312   -3.5786798      2219.83  0.058189943  0.057831539           10 
 3180000   0.75360292   -3.5461547    2230.7604  0.058458081  0.057819865            5 
 3181000   0.74313165   -3.5562534    2234.6116  0.058540595  0.057808149            4 
 3182000   0.73347985   -3.5672037    2230.7732  0.058421674  0.057796579            4 
 3183000   0.73075003   -3.5653795    2222.7971  0.058194498  0.057784769            5 
 3184000    0.7488185   -3.5458921    2239.1365  0.058603865  0.057772945            6 
 3185000   0.74816039   -3.5830727    2225.4219  0.058226633  0.057761292           13 
 3186000   0.73466297   -3.5442936    2229.4392  0.058313434   0.05774957            6 
 3187000   0.73511933   -3.5464088    2232.9114  0.058385927  0.057737926            2 
 3188000   0.74282862   -3.5600433    2236.6747  0.058465984   0.05772624            4 
 3189000   0.74516031   -3.5588005    2234.3371  0.058386565   0.05771462            7 
 3190000   0.73688789   -3.5506311    2225.6862  0.058142273  0.057702975            4 
 3191000   0.73542513   -3.5380466    2230.8993  0.058260192  0.057691422            9 
 3192000   0.74804178    -3.552688     2229.978   0.05821789  0.057679746            2 
 3193000   0.76321993   -3.5679484    2236.9793  0.058382382  0.057668181            4 
 3194000    0.7280039   -3.5331655    2235.2147  0.058318063  0.057656573            9 
 3195000   0.73811407   -3.5803612    2230.7002   0.05818206  0.057644947            4 
 3196000   0.74868285   -3.5623447     2236.388  0.058312161  0.057633318            4 
 3197000   0.72423474   -3.5653922    2232.5014  0.058192614  0.057621595            6 
 3198000   0.74979162   -3.5638759    2239.9698  0.058369028  0.057609908            3 
 3199000   0.73129173   -3.5557494    2236.2232  0.058253182  0.057598261            8 
 3200000   0.73401306   -3.5721822    2237.3518  0.058264371  0.057586654            5 
 3201000    0.7317168   -3.5612758    2232.8927  0.058130081  0.057575128            3 
 3202000    0.7475862   -3.5605523    2236.4493  0.058204489  0.057563556            3 
 3203000   0.74497946   -3.5719294    2240.8136  0.058299865  0.057551977            4 
 3204000   0.74200863   -3.5500553    2245.5469  0.058404777  0.057540426            5 
 3205000   0.73712536   -3.5646138    2236.1202  0.058141452  0.057528785            7 
 3206000   0.76249722   -3.5584894    2243.3154   0.05831034  0.057517272            7 
 3207000   0.76010826   -3.5279778    2240.8894  0.058229119   0.05750578            4 
 3208000   0.73734395   -3.5754473    2242.0077  0.058240017  0.057494297            5 
 3209000   0.73709666   -3.5715495    2240.4889  0.058182428  0.057482801           11 
 3210000   0.73706661   -3.5611171    2235.4235  0.058032802  0.057471248            6 
 3211000   0.73162368   -3.5761609    2235.4209  0.058014661  0.057459724            8 
 3212000   0.74676004   -3.5587125    2248.3046  0.058330857  0.057448182            3 
 3213000   0.74992486    -3.559887    2238.7435  0.058064725  0.057436746            3 
 3214000   0.73845388   -3.6002457    2243.9803  0.058182438  0.057425197            7 
 3215000   0.73400732    -3.564793    2238.9451   0.05803383   0.05741367            5 
 3216000   0.73960223   -3.5426213    2243.0869  0.058123105  0.057402146            3 
 3217000   0.73533975   -3.5878362    2237.9807  0.057972768  0.057390577            5 
 3218000    0.7593522   -3.5920354    2242.3116  0.058066905  0.057379025            9 
 3219000   0.73726813   -3.5378617    2235.7678  0.057879461  0.057367439            3 
 3220000   0.73702127   -3.5629467    2250.1063  0.058232564  0.057355984            3 
 3221000   0.74402152   -3.5868426    2240.5854  0.057968161  0.057344449            8 
 3222000   0.73356329   -3.5815729    2243.7885  0.058033014  0.057332767            4 
 3223000   0.74225912   -3.5819758    2241.5756  0.057957792  0.057321209            4 
 3224000   0.72281158   -3.5719313    2240.6114  0.057914893  0.057309649            4 
 3225000   0.72538919   -3.5535649     2249.974  0.058138862  0.057298088            4 
 3226000   0.73879254   -3.5563381    2246.2867  0.058025593   0.05728649           11 
 3227000   0.72423143   -3.5678074    2232.6531   0.05765554  0.057274837            6 
 3228000   0.74908629   -3.5519177    2238.3972  0.057785966  0.057263129            2 
 3229000   0.73407771   -3.5659495    2243.5375   0.05790073  0.057251514            3 
 3230000   0.73052003   -3.5760424     2236.214  0.057693859  0.057239786            4 
 3231000   0.72086485    -3.568836    2239.1971  0.057752943  0.057228058            3 
 3232000   0.73500428   -3.5735471    2243.7459  0.057852359  0.057216361            8 
 3233000   0.73520258   -3.5687579    2244.5301  0.057854679  0.057204584            2 
 3234000   0.72062439   -3.5718442    2237.4644   0.05765472  0.057192797           12 
 3235000   0.73005483   -3.5793862    2242.2589  0.057760404  0.057181041            5 
 3236000   0.73449252   -3.5766046    2243.2811  0.057768879  0.057169221            5 
 3237000   0.72438449    -3.581195    2241.8298  0.057713671  0.057157433            9 
 3238000   0.74860682   -3.5778657    2248.2903  0.057862113  0.057145666            5 
 3239000   0.73256008   -3.5573475    2238.5822  0.057594478  0.057133978            4 
 3240000   0.74731703    -3.553173    2246.5101   0.05778061  0.057122275            4 
 3241000   0.73092384   -3.5793335    2240.0482  0.057596632  0.057110507            5 
 3242000   0.73201477   -3.5841228    2243.5471  0.057668803    0.0570988            8 
 3243000   0.73624239   -3.5704726    2240.7418  0.057578934  0.057087078            8 
 3244000   0.74168143   -3.5497638    2244.7446   0.05766401  0.057075487            5 
 3245000    0.7321767   -3.5692368    2244.1754  0.057631623  0.057063789            6 
 3246000   0.74368383   -3.5808341    2240.6236  0.057522683  0.057052067            8 
 3247000   0.72918282   -3.5787478    2243.5415  0.057579857  0.057040269           12 
 3248000   0.73156223   -3.5474906    2254.0699  0.057832254   0.05702853            3 
 3249000   0.73922508   -3.5796204    2247.2305  0.057639031  0.057016771            4 
 3250000   0.75005189   -3.5722365    2255.9757   0.05784553  0.057005128            3 
 3251000   0.73264498   -3.5498301     2248.977  0.057648338  0.056993474            6 
 3252000   0.74342076   -3.5743958    2243.0925  0.057479819  0.056981797            2 
 3253000     0.719615   -3.5465941    2248.3898  0.057597854  0.056970174            4 
 3254000   0.73729569   -3.5716063    2249.8785  0.057618279  0.056958546           14 
 3255000   0.72489367   -3.5696803    2243.7961  0.057444857  0.056946894            7 
 3256000   0.72550806    -3.555112    2249.6691  0.057577525  0.056935232            4 
 3257000    0.7322339   -3.6021301     2245.274  0.057447396  0.056923437            2 
 3258000   0.73928312   -3.5639574    2245.8651  0.057444882  0.056911776            3 
 3259000   0.72125607   -3.5642291    2236.5535  0.057189155  0.056900069            5 
 3260000   0.74045515   -3.5869053    2245.3105  0.057395462  0.056888293            8 
 3261000   0.73478815   -3.5782791    2253.2239  0.057580085  0.056876641            4 
 3262000   0.73020775   -3.5655533    2255.8913  0.057630576  0.056865113            6 
 3263000   0.74710077   -3.5702736    2249.2006  0.057442042  0.056853544            5 
 3264000   0.73210744   -3.5798984     2249.516  0.057432496  0.056841826            8 
 3265000   0.73235551   -3.5882608    2251.3455  0.057461601  0.056830111            3 
 3266000   0.71797194   -3.5608143    2249.7226  0.057402598  0.056818518            4 
 3267000   0.73658883   -3.6109526    2242.4125  0.057198564  0.056806762            6 
 3268000   0.71946638   -3.5979358    2248.9902  0.057348792  0.056795004            5 
 3269000   0.73494281   -3.5868619    2252.1211   0.05741106  0.056783289            3 
 3270000   0.72206324   -3.5849695    2243.8253  0.057182092  0.056771497            3 
 3271000   0.74323015   -3.5818558     2251.621  0.057363217  0.056759782            5 
 3272000   0.73810059   -3.5808078    2242.9939  0.057125964  0.056748092            7 
 3273000   0.72292037   -3.5915178    2252.4991  0.057350523  0.056736394            6 
 3274000    0.7272082   -3.5957178    2252.3381  0.057328907  0.056724689            5 
 3275000    0.7284797    -3.590872    2252.2766  0.057309837  0.056712996           23 
 3276000   0.71757341   -3.5879325    2256.0561  0.057388484  0.056701333            7 
 3277000   0.73941681   -3.5643854    2255.2635  0.057350816  0.056689603            5 
 3278000   0.72577307   -3.5923142     2251.759  0.057244229  0.056677976            4 
 3279000   0.71517134   -3.5792688    2252.4404  0.057244087  0.056666241            4 
 3280000   0.73063297   -3.5905173    2256.7541  0.057336231  0.056654617            5 
 3281000   0.73365947   -3.5871264    2255.7293  0.057292728  0.056642977            5 
 3282000   0.72383278   -3.5751243     2256.468  0.057294029  0.056631351            8 
 3283000   0.73308239   -3.5887181    2251.5149  0.057150851  0.056619819            3 
 3284000   0.73655729     -3.59792    2250.5355  0.057108595  0.056608096            8 
 3285000   0.71641196   -3.5673314    2257.2369  0.057261209  0.056596484            7 
 3286000    0.7321641   -3.5757636     2253.634  0.057152415  0.056584806            6 
 3287000   0.71259615   -3.5413114    2254.0029  0.057144379  0.056573214            9 
 3288000    0.7313532   -3.5691507    2255.7133  0.057170349  0.056561679            3 
 3289000   0.71694681   -3.5876143    2252.8808  0.057081199  0.056550039            5 
 3290000   0.72614711   -3.5925831    2254.2231  0.057097848  0.056538422            6 
 3291000   0.72353895   -3.5676985    2256.2462  0.057131727  0.056526834            7 
 3292000   0.73103234   -3.5893001    2248.1283  0.056908878  0.056515201           16 
 3293000   0.74238183   -3.5972275    2252.9294  0.057013092  0.056503653            4 
 3294000   0.74390417   -3.5728414    2256.1749  0.057077891  0.056492012            6 
 3295000   0.73670968   -3.5615824    2265.9264  0.057307194   0.05648052           11 
 3296000   0.72928751   -3.5756105    2255.6896  0.057030987  0.056469056            8 
 3297000    0.7141302   -3.5941244    2254.1036  0.056973602  0.056457537            4 
 3298000   0.71975315   -3.5710013    2268.3294  0.057315782  0.056446094            6 
 3299000   0.72668214    -3.595893    2261.1169   0.05711622  0.056434712           10 
 3300000   0.73459193   -3.6028287    2256.0893  0.056971953  0.056423199            6 
 3301000    0.7210967   -3.5750106    2261.8789   0.05710085  0.056411741            3 
 3302000   0.70698913   -3.5820125    2263.1609  0.057115911  0.056400293            5 
 3303000   0.72700987   -3.5708497    2261.0765  0.057046032  0.056388854           21 
 3304000   0.71337147   -3.5727658    2264.1046  0.057105141  0.056377424            6 
 3305000   0.72075313   -3.5923225    2258.2862  0.056941154   0.05636583            6 
 3306000   0.71560513   -3.5883113    2260.1038  0.056969747   0.05635435            4 
 3307000    0.7543823   -3.5919646    2261.6675  0.056991923  0.056342835            6 
 3308000   0.73039469   -3.6042541     2256.411  0.056842276   0.05633123            3 
 3309000   0.73746265   -3.5888545    2269.9911  0.057167098  0.056319719            6 
 3310000   0.74917846   -3.5727697     2257.547   0.05683653  0.056308207            5 
 3311000   0.72832122   -3.6054933     2262.397  0.056941432   0.05629661           10 
 3312000    0.7076481   -3.5919717    2264.2123  0.056969916  0.056285015            5 
 3313000   0.72410857   -3.5772357    2264.6652   0.05696411  0.056273418            5 
 3314000   0.71167372   -3.5608428    2258.5421  0.056792951  0.056261781            3 
 3315000    0.7249877   -3.5949579     2266.589  0.056978106  0.056250166           10 
 3316000   0.72193716   -3.5906091    2265.9133  0.056943941  0.056238644            5 
 3317000   0.72552917   -3.6047288      2264.29  0.056885992  0.056227049            6 
 3318000   0.70732005   -3.5978745    2273.9532  0.057111543    0.0562155            4 
 3319000   0.73304177   -3.5783218    2272.3066  0.057052993  0.056204012            9 
 3320000   0.71759014   -3.5994636     2267.731  0.056920958  0.056192506            3 
 3321000   0.73203132   -3.6081385    2267.4473  0.056896701  0.056180972            3 
 3322000   0.72571569   -3.6069633    2266.6048  0.056858438  0.056169306            8 
 3323000   0.71248402   -3.5968213     2269.877  0.056923388  0.056157741            6 
 3324000   0.71525197   -3.6053961    2266.3803    0.0568186  0.056146208            3 
 3325000   0.71950937   -3.6117273    2263.5231  0.056729903  0.056134598            5 
 3326000   0.71983754    -3.596885    2262.0454  0.056675821  0.056122798            3 
 3327000    0.7283445   -3.5932573    2267.0245  0.056783502  0.056111122            6 
 3328000   0.72022185   -3.5965369    2263.7425  0.056684258  0.056099504            5 
 3329000   0.70973723   -3.5871339    2258.1716  0.056527777  0.056087905           13 
 3330000   0.71085455   -3.6049098    2263.0146  0.056631996  0.056076307            4 
 3331000   0.73333677   -3.6011116    2261.7568   0.05658353  0.056064619            2 
 3332000   0.72346247    -3.595214    2266.2114  0.056677957  0.056052929            5 
 3333000   0.70873076   -3.5942274    2269.1418  0.056734218  0.056041302            5 
 3334000   0.72611458   -3.6024352    2260.0043   0.05648881  0.056029663            4 
 3335000   0.71165103   -3.5946024      2262.88  0.056543729   0.05601796            9 
 3336000   0.72896386    -3.614714    2266.2244  0.056610322  0.056006371            5 
 3337000   0.71196226   -3.6005132    2267.5277  0.056625903  0.055994828            4 
 3338000   0.71855632   -3.6077052     2259.095  0.056398417  0.055983185            6 
 3339000   0.71588419   -3.5905952    2266.6761  0.056570733  0.055971473            6 
 3340000    0.7197014   -3.5895139    2261.8934  0.056434466  0.055959826            8 
 3341000   0.69967336   -3.6013754    2263.4326  0.056455965   0.05594811            6 
 3342000   0.72190346   -3.5862722    2267.5657  0.056542134  0.055936509            5 
 3343000   0.71931938   -3.6019026    2264.8456  0.056457412  0.055924891            4 
 3344000   0.70777651   -3.6039323    2263.7229  0.056412552  0.055913173            7 
 3345000     0.703165   -3.6146569    2264.1363  0.056405986  0.055901486            6 
 3346000   0.72173957   -3.5887462    2266.3299  0.056443761  0.055889834            5 
 3347000   0.70783753   -3.5983942    2268.2286  0.056474171  0.055878229            5 
 3348000   0.71643587   -3.5921308    2269.1997  0.056481473  0.055866532            7 
 3349000   0.71304068     -3.61382    2260.2967  0.056243075  0.055854776            4 
 3350000   0.71971621   -3.5995903    2263.6629  0.056310024  0.055842968           11 
 3351000   0.69800303   -3.5887775    2261.4473  0.056238121  0.055831091            5 
 3352000   0.71919638   -3.6317895    2264.7459  0.056303349  0.055819246            3 
 3353000   0.71466991   -3.6146954    2268.0909  0.056369692   0.05580739            5 
 3354000   0.72088187   -3.5802028    2264.8595  0.056272597  0.055795585            5 
 3355000   0.72215759    -3.598095    2269.7856  0.056378182  0.055783892            5 
 3356000   0.71594342   -3.6027847     2272.047  0.056417535  0.055772044            7 
 3357000   0.70498538   -3.6158457    2268.8394  0.056321106  0.055760161            4 
 3358000   0.70570753   -3.5937048     2268.237  0.056289384  0.055748412            8 
 3359000   0.70838482   -3.5954227    2264.2802  0.056174461  0.055736587            5 
 3360000   0.70320628   -3.6020901    2266.4802  0.056212306  0.055724782            5 
 3361000   0.72254384   -3.5886713    2267.9945  0.056233127  0.055712994            8 
 3362000   0.72488901   -3.6155224    2272.0059  0.056315832   0.05570132            8 
 3363000    0.7196747   -3.6060048     2270.149  0.056253074  0.055689592            7 
 3364000   0.70811917   -3.6299364    2263.0699  0.056060986  0.055677757            4 
 3365000   0.70880546   -3.6009757    2269.4995  0.056203554  0.055665972            5 
 3366000   0.70640706   -3.6261939     2268.804  0.056169637  0.055654339            5 
 3367000   0.70881705   -3.6047767    2276.5942  0.056345762  0.055642727            6 
 3368000   0.70277671   -3.6062578    2276.0036   0.05631442  0.055631039            3 
 3369000   0.71149566   -3.5809156    2276.4648  0.056309113  0.055619322            6 
 3370000   0.72324185   -3.6172748    2274.8497  0.056252464   0.05560763            7 
 3371000   0.71485126   -3.6141219    2272.0342  0.056166176  0.055595881            9 
 3372000   0.71623645   -3.6116488    2274.7283  0.056216101   0.05558419            5 
 3373000   0.70491205   -3.5908984    2269.9956  0.056082508  0.055572563            4 
 3374000   0.70766875   -3.6138374    2270.7814  0.056085294  0.055560752            4 
 3375000   0.70147882   -3.6175585     2268.355  0.056008766  0.055549157            7 
 3376000   0.69952237   -3.5913375    2274.2745  0.056138293  0.055537476            5 
 3377000   0.71287904   -3.6024773    2274.2261  0.056120474  0.055525859           12 
 3378000   0.71894829    -3.602444    2273.5125  0.056086258  0.055514134            5 
 3379000   0.69585593   -3.6114708    2265.4656  0.055871205  0.055502435            5 
 3380000   0.70065273    -3.584344    2275.1445  0.056093305  0.055490727            7 
 3381000    0.7121487   -3.6095575      2276.32   0.05610569  0.055478992            2 
 3382000   0.70650927   -3.5991381     2272.687  0.055999582  0.055467325            5 
 3383000   0.73231104   -3.6113142    2274.5867  0.056029822  0.055455662            7 
 3384000   0.72003874   -3.6097609    2277.6105   0.05608773  0.055444095            4 
 3385000   0.72617979   -3.5918585    2276.8366  0.056052108  0.055432463            3 
 3386000   0.71605755   -3.6020665    2274.6921  0.055982775  0.055420819            7 
 3387000   0.71023152    -3.619204    2272.9614  0.055923664  0.055409169           15 
 3388000   0.71679596   -3.6166229    2286.1875  0.056232476  0.055397593            7 
 3389000   0.70201038   -3.6085944    2283.3743  0.056146709  0.055385965            7 
 3390000   0.69873106    -3.615599    2281.0138  0.056072118  0.055374373           11 
 3391000   0.69810373   -3.5968089    2283.6052  0.056119268  0.055362941            5 
 3392000   0.70615384   -3.6210434    2274.2277  0.055872339  0.055351374            4 
 3393000   0.72701178   -3.6106786    2274.2848  0.055857275   0.05533971            6 
 3394000   0.71286105   -3.6086167    2275.7443  0.055876653  0.055327926           12 
 3395000    0.7112408   -3.6180516    2279.6366  0.055955733  0.055316303            6 
 3396000    0.7143362   -3.5997866    2278.8425   0.05591977  0.055304621            4 
 3397000   0.71354673   -3.6112411    2276.3344  0.055841781  0.055293071            8 
 3398000   0.72892062   -3.6150834    2273.3921  0.055753191  0.055281439            5 
 3399000   0.70836779   -3.6187741    2279.0081  0.055874474  0.055269765            8 
 3400000   0.73406882   -3.6105634    2277.6524  0.055824813  0.055258115            4 
 3401000    0.6989001   -3.6090213    2278.0317  0.055817693  0.055246537            3 
 3402000   0.70706406   -3.6341407    2283.8168  0.055942995  0.055234984            5 
 3403000    0.6990962   -3.6032576    2276.1838  0.055739637  0.055223387            4 
 3404000   0.71598248   -3.6068927    2277.4951  0.055755365  0.055211817            5 
 3405000   0.71703606   -3.6217251    2281.5784  0.055838924  0.055200258           11 
 3406000   0.71333933   -3.6148394    2285.8733   0.05592761  0.055188576            5 
 3407000   0.70820035   -3.6398319    2273.2849  0.055603291  0.055176924            8 
 3408000   0.69941365   -3.6206789    2276.3067  0.055660865  0.055165282            5 
 3409000   0.70530293   -3.6154982    2275.9602  0.055636065  0.055153656            8 
 3410000   0.71000787   -3.6260421    2284.8346  0.055836623  0.055142083            5 
 3411000   0.71049809   -3.6370711    2282.3404  0.055759318  0.055130573            5 
 3412000   0.71815688   -3.6245329    2279.5056   0.05567374  0.055119091            4 
 3413000   0.71358991   -3.6263916     2286.292  0.055823128  0.055107531            4 
 3414000   0.70777003   -3.6339273    2279.5065  0.055641147  0.055095999            5 
 3415000   0.72578594   -3.6134504    2285.2445  0.055764873  0.055084442            8 
 3416000   0.71026942   -3.6160851    2284.2792     0.055725     0.055073            4 
 3417000   0.71185423   -3.6045973    2293.0114  0.055921651  0.055061677            4 
 3418000   0.71824767    -3.599917    2294.8182  0.055949341  0.055050231            5 
 3419000   0.69339698   -3.6178192    2282.3304  0.055628606  0.055038732            5 
 3420000   0.69189453   -3.6304376     2281.449  0.055590864  0.055027233            4 
 3421000   0.70541285   -3.6328321    2288.4371  0.055744839  0.055015667            3 
 3422000    0.7077713   -3.6072486    2285.3788  0.055654071   0.05500416            7 
 3423000   0.69995746   -3.6219445    2289.0292  0.055726681  0.054992713            6 
 3424000   0.71152017   -3.5899442    2290.9124  0.055756239  0.054981264           11 
 3425000   0.71220801   -3.6212123    2283.9165  0.055569744  0.054969903           12 
 3426000   0.70081654   -3.6172525    2290.8328  0.055721754   0.05495838            5 
 3427000   0.70906425   -3.6026644    2287.1533  0.055616023   0.05494687            8 
 3428000   0.70838215   -3.6096931    2290.0409  0.055669994  0.054935364            3 
 3429000   0.69612741   -3.5924958    2287.9051  0.055601854  0.054923928            7 
 3430000   0.71011061   -3.6085023    2287.2152  0.055568882  0.054912466            8 
 3431000    0.7120834   -3.6062497    2280.6817     0.055394  0.054901083            3 
 3432000   0.71726306   -3.6254443    2285.8832  0.055504157  0.054889685            4 
 3433000   0.69999669   -3.5961524     2295.671  0.055725581  0.054878365            5 
 3434000   0.71139081   -3.6250962    2291.9203  0.055618334  0.054867031            3 
 3435000   0.70816198   -3.6249351     2294.153  0.055656308   0.05485564            4 
 3436000   0.70252863   -3.6365405    2291.5825  0.055577768  0.054844357            6 
 3437000   0.70077593   -3.6070665    2295.3372  0.055652633  0.054833021            5 
 3438000   0.69952724   -3.6466548    2286.3589  0.055418822  0.054821626           13 
 3439000   0.69935012   -3.6168884    2288.8657  0.055463451   0.05481015            6 
 3440000   0.70451079    -3.629374    2293.1971  0.055552254  0.054798717            3 
 3441000   0.71343573   -3.6284517    2289.1414  0.055437891  0.054787379            6 
 3442000   0.69866095   -3.6120224    2291.9834  0.055490592  0.054775863            4 
 3443000   0.70481538   -3.6402136    2281.3695   0.05521758  0.054764426            8 
 3444000   0.70900821    -3.644477    2289.3809  0.055395395  0.054752921            6 
 3445000   0.68974472   -3.6144169    2297.5095  0.055575944  0.054741484            7 
 3446000   0.69011742   -3.6119727     2294.538  0.055487956  0.054730049            6 
 3447000   0.70049665   -3.6390725    2299.9041  0.055601588  0.054718561            7 
 3448000   0.69213109   -3.6218715    2296.9719  0.055514596  0.054707161            5 
 3449000   0.70591802   -3.6274355    2291.4324  0.055364656  0.054695663            4 
 3450000    0.6961667   -3.5998247    2289.9734  0.055313367  0.054684245            5 
 3451000   0.69277591   -3.6000647     2293.033   0.05537122  0.054672855            5 
 3452000   0.69077481   -3.6281381    2294.6313  0.055393764  0.054661479            6 
 3453000   0.70939591   -3.5969686    2297.4921  0.055446763  0.054650135            5 
 3454000   0.70932923    -3.624571    2299.5598  0.055480597   0.05463877            5 
 3455000   0.69342355   -3.6228919     2294.643  0.055345949  0.054627346            3 
 3456000   0.70789294   -3.6135774    2294.8872  0.055335821  0.054615983            3 
 3457000   0.71237168   -3.5951048     2295.821  0.055342326  0.054604714            3 
 3458000   0.69418176   -3.6212586    2296.3528  0.055339137  0.054593417           11 
 3459000   0.70484334   -3.6262816    2295.5905  0.055304773  0.054582036            3 
 3460000    0.7122056   -3.6189797    2300.0417  0.055395994   0.05457075            8 
 3461000   0.71126316   -3.6137072    2297.8614  0.055327493  0.054559538            7 
 3462000   0.68480132   -3.6149649    2302.5268   0.05542381   0.05454827            6 
 3463000   0.70637793   -3.6269933    2303.6423  0.055434649  0.054536989            3 
 3464000   0.69891697   -3.6073987    2303.4662   0.05541441  0.054525697            8 
 3465000   0.70106915   -3.6412737    2293.3571  0.055155294  0.054514401            6 
 3466000   0.68607168   -3.6270695    2300.1631  0.055303018  0.054503044            4 
 3467000   0.70096986   -3.6082426    2299.7851  0.055277981  0.054491681            4 
 3468000    0.7084175   -3.6440415    2290.4712  0.055038236  0.054480283            5 
 3469000   0.68733019   -3.6313907    2294.8841  0.055128378  0.054468875            4 
 3470000   0.69881088   -3.6162839     2292.451  0.055054058  0.054457501            9 
 3471000   0.70034719   -3.6235916    2297.8873  0.055168715  0.054446049            8 
 3472000   0.68894628   -3.6062586    2303.6356  0.055290793  0.054434691           11 
 3473000   0.69305225    -3.637548    2288.7521  0.054917748  0.054423192            7 
 3474000   0.69720251   -3.6202864    2294.4196   0.05503789  0.054411768            4 
 3475000   0.69877943   -3.6288897    2295.8858  0.055057213  0.054400328            6 
 3476000   0.69706879   -3.6437735    2290.7228  0.054917597  0.054388874            8 
 3477000   0.69379991    -3.644237    2292.8937  0.054953833  0.054377341            5 
 3478000    0.6918167   -3.6500042    2291.1799   0.05489697    0.0543658            9 
 3479000    0.6877031   -3.6389845    2295.4116  0.054982553  0.054354325            5 
 3480000   0.69586782   -3.6561001    2292.3609    0.0548937   0.05434292            6 
 3481000   0.68326355   -3.6418416    2296.9271  0.054987242  0.054331498            8 
 3482000   0.70413864   -3.6321143    2301.6484  0.055084443   0.05431995            7 
 3483000   0.70823585   -3.6467707     2293.725  0.054879056  0.054308499            8 
 3484000   0.66857988    -3.647163    2303.4389  0.055095648  0.054296999            8 
 3485000   0.68463296   -3.6217904    2299.2739  0.054980246  0.054285602            6 
 3486000   0.69446597   -3.6352978    2303.5354  0.055066346  0.054274152            4 
 3487000   0.70046052   -3.6551918    2301.3521  0.054998377  0.054262722            4 
 3488000   0.69185592   -3.6446005    2305.6173  0.055084511  0.054251391            4 
 3489000   0.69842185   -3.6398775    2306.1631  0.055081759  0.054240047            9 
 3490000   0.68899127   -3.6206633    2296.6582  0.054839022   0.05422869            3 
 3491000   0.69395736   -3.6241236    2309.4432  0.055128501  0.054217333            5 
 3492000   0.68144891   -3.6479556    2302.3969  0.054944562  0.054206007            6 
 3493000   0.68709508   -3.6319496    2310.3861  0.055119432  0.054194646            5 
 3494000   0.68504474   -3.6291361    2294.6696  0.054728812  0.054183302            9 
 3495000   0.69196831   -3.6406204    2302.8395  0.054907952  0.054171989            6 
 3496000   0.68864338   -3.6392384    2301.6851  0.054864729  0.054160604            3 
 3497000   0.71575129   -3.6267749    2302.9182  0.054878425  0.054149219            7 
 3498000   0.69301778   -3.6427208    2303.4879  0.054876309  0.054137896           10 
 3499000    0.6851129   -3.6467534    2300.3972  0.054787016  0.054126539            5 
 3500000    0.6887482   -3.6517254    2298.5386   0.05472711   0.05411522            8 
 3501000   0.68666721   -3.6511247    2301.4772  0.054781423  0.054103811            6 
 3502000    0.6991564   -3.6502798    2297.6496    0.0546747  0.054092492            7 
 3503000   0.69459583   -3.6368931    2308.8027  0.054924414  0.054081202           11 
 3504000   0.69186954    -3.654131     2298.562  0.054665191  0.054069797            8 
 3505000   0.68514665   -3.6369836    2296.4672   0.05459979  0.054058246            5 
 3506000   0.69390044   -3.6374285    2300.3187  0.054675764  0.054046859            3 
 3507000   0.68871312   -3.6537726    2302.1936  0.054704725  0.054035458            8 
 3508000   0.68179022   -3.6418088    2312.9066  0.054943618  0.054024104            5 
 3509000   0.69804976   -3.6271904    2312.9801  0.054929707  0.054012821            5 
 3510000   0.68883717   -3.6340873    2306.1277   0.05475137  0.054001493           11 
 3511000    0.7067866   -3.6377275    2309.4992  0.054815798  0.053990086            3 
 3512000   0.70807256   -3.6312008    2300.8821  0.054595722   0.05397858            4 
 3513000    0.6831019   -3.6587858    2302.8478  0.054626811  0.053967119            3 
 3514000   0.68900852   -3.6349829    2297.3341  0.054480509  0.053955644            6 
 3515000   0.68689459   -3.6542945    2305.3851  0.054655882  0.053944171            9 
 3516000   0.67601517    -3.626224    2304.5346  0.054620179  0.053932727            4 
 3517000   0.69329292   -3.6462775    2304.2933  0.054598931  0.053921362            9 
 3518000   0.68627829   -3.6409892    2305.7338  0.054617533   0.05391001           10 
 3519000   0.67165105   -3.6366112    2307.7756  0.054650364  0.053898656            8 
 3520000   0.67246547   -3.6330528    2309.8781  0.054684614  0.053887386            5 
 3521000   0.69147566   -3.6585005    2304.7611  0.054547976  0.053876051           10 
 3522000   0.68739946   -3.6403264    2310.4067  0.054666069  0.053864701            7 
 3523000   0.66771965   -3.6466957    2311.3167  0.054672076  0.053853368            6 
 3524000    0.6956577   -3.6531407     2311.989   0.05467246  0.053842083           18 
 3525000   0.68395581   -3.6664325    2303.7849     0.054463  0.053830811            8 
 3526000   0.68409931   -3.6435155    2312.5911  0.054655679  0.053819466            8 
 3527000    0.6907886   -3.6379687    2306.7674  0.054502585  0.053808118            7 
 3528000   0.67765898   -3.6542335    2302.9187  0.054396228  0.053796784            6 
 3529000   0.68907335   -3.6695928    2307.6583  0.054492735  0.053785466            4 
 3530000    0.6911079   -3.6250909    2315.9968  0.054674146  0.053774198            6 
 3531000   0.68249846   -3.6611379    2313.0722  0.054589639  0.053762973           13 
 3532000   0.68880478   -3.6531469    2311.8165  0.054544556  0.053751711            8 
 3533000   0.68676579   -3.6491147    2315.1223  0.054607092  0.053740385            5 
 3534000   0.68609947   -3.6447847    2312.1439  0.054521409  0.053729089            5 
 3535000   0.68539179   -3.6208406    2316.1036  0.054599331  0.053717839            5 
 3536000   0.68360961    -3.653272    2310.5066  0.054451985  0.053706609            8 
 3537000   0.69476051   -3.6474015    2316.3624  0.054574554  0.053695293            4 
 3538000   0.67803417   -3.6517286    2318.1158  0.054600428  0.053684061            4 
 3539000   0.67921145   -3.6545256    2306.2979  0.054306722  0.053672791            6 
 3540000    0.6986541   -3.6491384    2318.3888  0.054576007  0.053661517            6 
 3541000   0.68153929   -3.6595501    2315.0525  0.054482079  0.053650176           10 
 3542000   0.68220614   -3.6372988     2314.069  0.054443558  0.053639006            4 
 3543000   0.68747705   -3.6477826    2314.2344  0.054432081  0.053627811            8 
 3544000   0.68268971   -3.6349627    2315.6298  0.054449535   0.05361659            9 
 3545000   0.69542159   -3.6453632     2311.993  0.054348684  0.053605331            4 
 3546000   0.68268298   -3.6587956    2312.4349  0.054343741  0.053594006           11 
 3547000   0.69858977   -3.6550757    2318.7078  0.054475797  0.053582719           14 
 3548000   0.68040113   -3.6689584    2314.4284  0.054359931  0.053571501            8 
 3549000   0.68861676   -3.6571283    2313.2602  0.054317183  0.053560286            7 
 3550000   0.69531254   -3.6722326    2313.9711  0.054318571  0.053549033            5 
 3551000   0.69166779   -3.6723375    2314.6911  0.054320169  0.053537725            5 
 3552000   0.68758164   -3.6431939    2323.4222  0.054509719   0.05352658            8 
 3553000   0.69421447   -3.6630919     2312.403  0.054235927  0.053515332            3 
 3554000   0.67983873   -3.6654855    2318.8411  0.054371627  0.053504138            8 
 3555000   0.68207854   -3.6541721    2314.8441  0.054262638  0.053492951            5 
 3556000   0.67682921   -3.6577627    2315.5039  0.054262839  0.053481783            3 
 3557000   0.67806312    -3.668581    2322.8672  0.054420093  0.053470415            8 
 3558000   0.67808622   -3.6251022    2326.7324  0.054495325  0.053459249           11 
 3559000    0.6859787   -3.6451271    2318.8025  0.054294336  0.053448015            6 
 3560000   0.68004366   -3.6534258    2316.1428  0.054216826  0.053436811            7 
 3561000   0.67969653    -3.662734    2311.7732  0.054099344  0.053425577            6 
 3562000   0.67879161   -3.6435297    2317.1671  0.054210347  0.053414422            6 
 3563000   0.67437141   -3.6650789     2317.497  0.054202848  0.053403217           13 
 3564000   0.66662667   -3.6777614    2317.9824   0.05419899  0.053391956            3 
 3565000    0.6757316    -3.670003    2323.0353    0.0543019  0.053380732            9 
 3566000    0.6666077   -3.6719952    2314.5607   0.05408863  0.053369542            5 
 3567000   0.68060039   -3.6423622    2325.3889  0.054326439  0.053358318            7 
 3568000    0.6770772   -3.6705792    2315.1549   0.05407219   0.05334713            5 
 3569000   0.67351222   -3.6600067    2313.0858  0.054008727  0.053335958           11 
 3570000   0.67861157   -3.6559968    2320.9834  0.054177951  0.053324738            5 
 3571000   0.67282628   -3.6768756    2324.0791  0.054235021  0.053313556            4 
 3572000   0.68272625   -3.6685552    2325.9845   0.05426429  0.053302452            4 
 3573000   0.69089027   -3.6616924    2319.7533   0.05410377  0.053291346            4 
 3574000   0.67798235   -3.6539069    2320.8953  0.054115261  0.053280275            3 
 3575000   0.68580003   -3.6581518    2319.1875  0.054060315  0.053269142            5 
 3576000   0.67387483   -3.6480175    2322.8949  0.054131593  0.053257994            7 
 3577000    0.6883168   -3.6708558    2323.5425  0.054131547  0.053246868           13 
 3578000   0.68163291   -3.6718738    2322.0155  0.054080853  0.053235616            8 
 3579000   0.67145908   -3.6487489    2322.1247  0.054068284  0.053224386            6 
 3580000   0.67538402   -3.6505531    2321.7978  0.054045573  0.053213172            6 
 3581000   0.66973721   -3.6577598    2329.4195  0.054207844  0.053201953            9 
 3582000    0.6857019   -3.6758133    2321.3123  0.054004101  0.053190676            3 
 3583000   0.68630805   -3.6840714     2322.421  0.054014816  0.053179329           17 
 3584000   0.67472253   -3.6704032    2317.9612  0.053896047  0.053168029            8 
 3585000    0.6791223   -3.6609236    2327.7847  0.054109362  0.053156797            6 
 3586000   0.68516321   -3.6694036     2320.503  0.053925055   0.05314558            3 
 3587000   0.67903319   -3.6751829    2319.7103  0.053891606  0.053134376            5 
 3588000   0.67587839   -3.6768908    2319.4626  0.053870834  0.053123246            9 
 3589000   0.66704706   -3.6480755    2323.7697  0.053955831  0.053111981            5 
 3590000   0.68227783    -3.670965    2316.0478  0.053761554  0.053100709           14 
 3591000    0.6869335   -3.6718863    2318.2849  0.053798497  0.053089498            4 
 3592000   0.66895228   -3.6811429     2324.924  0.053937548  0.053078242           13 
 3593000   0.68021153   -3.6756891    2326.5429  0.053960083  0.053066974            6 
 3594000   0.67452407   -3.6736246    2322.0469  0.053840819  0.053055776            2 
 3595000   0.68662418   -3.6680587    2326.3858  0.053926421  0.053044601            7 
 3596000   0.67547117   -3.6704527     2326.066  0.053904013  0.053033425            7 
 3597000   0.66894563   -3.6664811    2325.0543   0.05386559  0.053022283            7 
 3598000   0.67452951   -3.6630791    2325.2299  0.053854684  0.053011101            7 
 3599000    0.6857266    -3.674196    2326.9404  0.053879327  0.052999963           10 
 3600000    0.6690046   -3.6831483    2326.1343  0.053845702  0.052988841            7 
 3601000    0.6732658   -3.6725009    2322.8776  0.053755382  0.052977652            8 
 3602000    0.6661297   -3.6635396    2321.9367  0.053718691  0.052966516            5 
 3603000    0.6730596   -3.6897206    2320.7854  0.053677154  0.052955399           10 
 3604000   0.68286193   -3.6937042    2326.4016   0.05379212  0.052944279            5 
 3605000   0.68398374   -3.6730523    2336.4421  0.054009294  0.052933098            4 
 3606000    0.6754072   -3.6850331    2332.0892  0.053893723  0.052922001           10 
 3607000   0.67822944   -3.6945357    2330.5335  0.053842841  0.052910836           13 
 3608000   0.66428224   -3.6708702    2329.0376  0.053793367  0.052899759            5 
 3609000   0.66734088   -3.6719465    2332.9984  0.053869918  0.052888638            6 
 3610000   0.66873421   -3.6760763    2325.0438  0.053671371  0.052877591            8 
 3611000   0.68418875   -3.6489169    2328.0768  0.053726503  0.052866557            7 
 3612000   0.68164054   -3.6783754    2330.6964  0.053772065  0.052855575           15 
 3613000    0.6765192   -3.6705867     2327.948  0.053693792  0.052844469           10 
 3614000   0.67104605   -3.6908056    2326.5952   0.05364774  0.052833445           12 
 3615000   0.67623505   -3.6632476    2330.5653   0.05372442  0.052822352            9 
 3616000   0.68235008   -3.6806968     2331.849  0.053739145  0.052811245            5 
 3617000   0.65443071    -3.686444    2331.7016  0.053720893  0.052800198            6 
 3618000   0.65674095   -3.6990276    2329.9147  0.053664885  0.052789057            6 
 3619000   0.67628358   -3.7017678    2327.9221  0.053604175  0.052777995            4 
 3620000   0.66375404   -3.6739338    2326.1212   0.05354791  0.052766855           16 
 3621000   0.66826721   -3.6679287    2326.9405  0.053551978  0.052755743            6 
 3622000   0.66010234   -3.6689595    2334.0208  0.053700093  0.052744606            4 
 3623000   0.65845419   -3.6530574    2336.7086  0.053747092  0.052733563            4 
 3624000   0.65800824   -3.6823786    2330.9934  0.053600842  0.052722533            7 
 3625000   0.65726608   -3.6593653    2327.2827  0.053500752  0.052711431            8 
 3626000   0.67022045   -3.6636992    2333.5453  0.053629926  0.052700317            6 
 3627000   0.67742828   -3.6868144    2333.9661  0.053624807  0.052689276            7 
 3628000   0.65752244   -3.6720757     2327.068  0.053451581   0.05267819            4 
 3629000   0.69257593   -3.6671721    2332.8985  0.053570739  0.052667129            6 
 3630000   0.67746964   -3.6694418    2333.1767  0.053562366  0.052656109            5 
 3631000   0.66028849   -3.6758715     2334.165  0.053570299  0.052645165            4 
 3632000   0.68053533   -3.6723233    2331.3639  0.053491278  0.052634097            5 
 3633000   0.66832848   -3.6593035    2332.8701  0.053511105  0.052623186            5 
 3634000   0.66885629   -3.6830589    2337.8654  0.053610929  0.052612215           13 
 3635000   0.66500261   -3.6739513    2335.0839  0.053532415  0.052601188            8 
 3636000   0.68543782   -3.6540055    2338.7905  0.053602643  0.052590176           16 
 3637000   0.66552279   -3.6673429    2335.4898  0.053512277  0.052579196            5 
 3638000   0.67915159   -3.6727699    2335.6068  0.053500248  0.052568261            6 
 3639000   0.66525908    -3.682685    2330.1931  0.053361571  0.052557332            4 
 3640000   0.66497849   -3.6841843    2333.1061  0.053413601   0.05254627            3 
 3641000   0.66392714   -3.6730871    2337.3243  0.053495476  0.052535243           17 
 3642000   0.65474143   -3.6795183    2332.7725  0.053376636  0.052524223            5 
 3643000   0.65483213   -3.6643916    2334.5772  0.053403266  0.052513202            6 
 3644000    0.6744058   -3.6866959    2335.3715  0.053406776  0.052502214            8 
 3645000    0.6600124   -3.6842278    2338.7789  0.053470026  0.052491255            9 
 3646000   0.65748835   -3.6681678     2348.327  0.053673593  0.052480306           17 
 3647000   0.66356541   -3.6709107    2336.6163  0.053391286  0.052469256            5 
 3648000   0.65669891   -3.6646048    2338.4773  0.053419164    0.0524583            5 
 3649000   0.66296629   -3.6718083    2335.8856  0.053345336  0.052447273            4 
 3650000   0.67824973   -3.6982703     2332.236  0.053247398  0.052436119            4 
 3651000   0.66679872   -3.6667583    2344.2038  0.053505975  0.052425072            8 
 3652000   0.66896524   -3.6711453    2334.8828  0.053278633  0.052414062           10 
 3653000   0.65659257   -3.6617745    2341.1452  0.053406907  0.052403106           10 
 3654000   0.65584267   -3.7070177    2331.5435  0.053173314  0.052392019            7 
 3655000   0.66040404   -3.6769482    2338.3082  0.053313001  0.052380954            5 
 3656000   0.65939509   -3.6720212    2338.8618  0.053311037  0.052369987            4 
 3657000   0.68157738   -3.6565814    2338.9595  0.053298684  0.052359096           10 
 3658000   0.66850468   -3.6747302    2343.5255  0.053388133  0.052348152           13 
 3659000   0.66598906   -3.6930295     2332.857  0.053130568  0.052337159            7 
 3660000   0.66428962   -3.6815533    2339.9385  0.053277289  0.052326205           10 
 3661000   0.63834308   -3.7128637    2338.0176  0.053219012  0.052315195            9 
 3662000   0.66157329   -3.6836685    2343.3721  0.053326327  0.052304155            7 
 3663000   0.66991285   -3.6938985    2340.1015  0.053237363  0.052293138            8 
 3664000   0.65869842   -3.6690113    2347.4619  0.053390236  0.052282168            4 
 3665000   0.64983642   -3.7036884    2338.2013  0.053165105  0.052271229            9 
 3666000   0.64561645     -3.68445    2337.8839  0.053143387  0.052260219            5 
 3667000   0.65611814   -3.6817156    2343.5349  0.053257315  0.052249238            5 
 3668000   0.65757892   -3.6770777    2342.7465  0.053224885  0.052238217            3 
 3669000   0.65503529   -3.6778589    2349.1664  0.053356192  0.052227277            6 
 3670000   0.65527032   -3.6929148    2341.7199  0.053172569  0.052216343           20 
 3671000   0.66887959    -3.675857    2344.1478  0.053213199  0.052205303            6 
 3672000   0.67877187   -3.7058049    2342.1088  0.053152433  0.052194325            4 
 3673000   0.67364609   -3.6717408    2340.9369  0.053111374   0.05218342            4 
 3674000   0.66914071   -3.6987332    2336.7184  0.053001233  0.052172387            5 
 3675000   0.66402528   -3.6817608    2338.2591  0.053021748  0.052161353            9 
 3676000   0.67331954   -3.6909762    2337.4625  0.052989266  0.052150432            5 
 3677000   0.66456908   -3.6934532    2338.4861  0.052998053   0.05213943            5 
 3678000   0.64170982   -3.6653744      2343.21  0.053090674  0.052128468           10 
 3679000   0.66801529   -3.6904076    2336.3038   0.05291981  0.052117492            7 
 3680000    0.6611139   -3.6750527    2347.0149  0.053147982  0.052106491            4 
 3681000   0.65912119   -3.6938175    2348.5761  0.053168887  0.052095519            3 
 3682000    0.6447741   -3.6924708    2337.6566  0.052907311  0.052084618            5 
 3683000   0.66264366   -3.6818508    2345.7842  0.053076843  0.052073701            4 
 3684000   0.67178061   -3.6755186    2348.8499  0.053131784  0.052062718            4 
 3685000   0.67010269   -3.6978671    2345.6291  0.053044529   0.05205175           11 
 3686000   0.66023043   -3.6797544    2350.7628  0.053146202   0.05204073            5 
 3687000   0.65939456   -3.6957563    2349.6841  0.053107406  0.052029768            8 
 3688000   0.65634928   -3.7017762     2345.328  0.052994577  0.052018802            8 
 3689000   0.65575756   -3.6872567    2346.7274  0.053011823  0.052007892            5 
 3690000   0.65534888   -3.6973983    2343.2272   0.05291841   0.05199699            7 
 3691000   0.65608218   -3.7036386    2345.3138  0.052951183  0.051986016            7 
 3692000   0.66085021    -3.703451    2342.4922  0.052873154  0.051975045            6 
 3693000   0.66021329   -3.6837769    2341.3584  0.052833253  0.051964077           15 
 3694000    0.6599305   -3.7237802    2335.8476  0.052694631  0.051952995           10 
 3695000   0.66336022   -3.6743124    2339.0855  0.052753395  0.051942015            5 
 3696000   0.66075522   -3.6880876    2336.2732  0.052675712  0.051931002            8 
 3697000   0.64980349   -3.6773102    2345.0858  0.052860107  0.051920001            3 
 3698000   0.65136024   -3.7076081    2338.7965  0.052704085  0.051908983            4 
 3699000   0.64774975   -3.6884124    2343.6282  0.052798688  0.051897959            6 
 3700000   0.66427762    -3.685726    2352.9479  0.052994323  0.051886969            5 
 3701000   0.65439773   -3.6886851    2345.9032  0.052821381  0.051876075            4 
 3702000   0.65714634   -3.6999264    2348.4437  0.052864302  0.051865065            6 
 3703000    0.6573659   -3.6761641    2345.6217  0.052786517  0.051854143            6 
 3704000   0.65041412   -3.6963088     2342.609  0.052704486  0.051843191            9 
 3705000   0.64784324   -3.6914483    2341.9289  0.052674964  0.051832242            8 
 3706000   0.65251947   -3.7080487    2346.5804  0.052765345  0.051821264            8 
 3707000   0.65959217   -3.7049297    2339.9477  0.052602007   0.05181033            5 
 3708000     0.663806    -3.700187    2352.5061  0.052870058  0.051799375            9 
 3709000   0.65144259   -3.7097604     2341.976  0.052619215  0.051788436            5 
 3710000   0.66234526   -3.7106669    2344.0628  0.052651905  0.051777515           11 
 3711000   0.66485712   -3.6893526    2350.4084  0.052780212  0.051766609            7 
 3712000   0.65169588   -3.6864744    2353.3208  0.052831375  0.051755681            6 
 3713000    0.6542735   -3.6974983    2344.9604  0.052629509  0.051744703            8 
 3714000    0.6500907   -3.7035604    2351.1727  0.052754727  0.051733827            7 
 3715000   0.65866106   -3.6936127    2343.6003  0.052570667  0.051722967           10 
 3716000   0.66396903   -3.7179956    2346.1682  0.052614105  0.051712059            7 
 3717000   0.64516536   -3.6766757    2347.6292  0.052632705  0.051701186            7 
 3718000   0.66607553   -3.6879508    2343.3015  0.052521551  0.051690312            5 
 3719000    0.6457007   -3.6836221    2351.0615  0.052681309  0.051679385            3 
 3720000   0.64822388   -3.7192797    2348.9767  0.052620446  0.051668511            5 
 3721000   0.65657592   -3.6934626    2344.9313  0.052515705  0.051657681            5 
 3722000    0.6568983     -3.70013    2350.7361  0.052631562  0.051646747            6 
 3723000   0.64961582   -3.7006293    2349.6813  0.052593814  0.051635739            7 
 3724000    0.6615906    -3.680464    2355.2572  0.052704466  0.051624853            4 
 3725000    0.6534146   -3.6810714    2350.3007  0.052579433  0.051614019            6 
 3726000   0.63721209   -3.7041259    2346.8267  0.052487625  0.051603131            7 
 3727000   0.65743733   -3.6963729    2353.6297  0.052625654  0.051592208            7 
 3728000   0.64267058    -3.686926    2352.9737  0.052596873  0.051581362            5 
 3729000   0.65277625   -3.6970088    2349.3383  0.052501525  0.051570423            6 
 3730000   0.64983423    -3.723702    2343.7952  0.052363611  0.051559407            8 
 3731000    0.6497225   -3.6913688    2351.7414  0.052527058  0.051548435            9 
 3732000   0.65610873   -3.6909443    2350.1355  0.052477124   0.05153752            5 
 3733000   0.64371878   -3.6876675    2352.1715  0.052508517  0.051526512            6 
 3734000   0.65914886   -3.7228137    2347.0633  0.052380452  0.051515513            6 
 3735000   0.65346225   -3.6950412    2353.3429  0.052506536  0.051504581           12 
 3736000   0.64476663   -3.6840768     2343.123  0.052264521  0.051493701            4 
 3737000   0.64260303    -3.704159     2346.424  0.052324147  0.051482743            6 
 3738000   0.66541729   -3.7005939    2349.7061  0.052383318  0.051471779           10 
 3739000   0.64439874   -3.6896155    2350.3044  0.052382642  0.051460801            6 
 3740000   0.65771886   -3.7129427    2348.6841  0.052332533  0.051449875           11 
 3741000   0.65520789   -3.7125055    2352.6159  0.052406127  0.051438938            7 
 3742000   0.65094619   -3.6860418    2349.1061  0.052313961  0.051428048            6 
 3743000   0.65538611   -3.6925798    2352.1701  0.052368201   0.05141714            7 
 3744000   0.65317376   -3.6912322    2349.8963  0.052303603   0.05140618            6 
 3745000   0.64952812   -3.7057854    2351.1271  0.052317024  0.051395246           12 
 3746000   0.65222679   -3.6963545    2352.4319  0.052332084  0.051384261            5 
 3747000   0.65099507   -3.7078676    2351.9713  0.052307876  0.051373258            5 
 3748000   0.64894063   -3.6987083     2355.021  0.052361725  0.051362292            9 
 3749000   0.64392272   -3.7174332    2348.5665  0.052204287  0.051351348            8 
 3750000    0.6560749   -3.7060409    2355.6293  0.052347319   0.05134036            7 
 3751000   0.64291766   -3.7181034    2346.4078  0.052128494  0.051329404            4 
 3752000   0.64802409   -3.7183395    2353.4475  0.052270955  0.051318454            6 
 3753000   0.66466525    -3.718315     2358.618  0.052371835  0.051307439            7 
 3754000   0.64829112   -3.7130676    2347.0447  0.052100975  0.051296433            6 
 3755000   0.64933825   -3.6860301    2355.5411  0.052275657  0.051285484            4 
 3756000   0.66349639   -3.6890269    2353.9791  0.052227084  0.051274596            5 
 3757000   0.64624196   -3.7112034    2354.7833   0.05223102  0.051263617           10 
 3758000   0.64543278   -3.6955278     2352.414  0.052164582  0.051252684           12 
 3759000   0.65396629   -3.7198408    2355.8879  0.052227719  0.051241746            4 
 3760000   0.66109551   -3.7242389    2355.7966  0.052211804   0.05123076            7 
 3761000   0.66099123   -3.7252241     2355.046   0.05218129   0.05121975            6 
 3762000   0.65023286   -3.7074483    2358.9341  0.052253546  0.051208799           12 
 3763000   0.65264302   -3.7116935    2361.6129  0.052298983  0.051197827           11 
 3764000    0.6470761   -3.7110188    2350.7277  0.052044096  0.051186922           10 
 3765000   0.65119652   -3.7245533    2353.8665  0.052099746  0.051175933            4 
 3766000   0.64184824   -3.6999704    2353.4228  0.052076093  0.051164867           10 
 3767000   0.64416847   -3.6919572    2348.4102  0.051951381  0.051153973            6 
 3768000   0.65781155   -3.7044795    2354.0713  0.052062794  0.051143025            7 
 3769000   0.63916011   -3.7284178    2354.5726  0.052060065   0.05113205            7 
 3770000   0.64989615   -3.7300913    2355.6404  0.052069859  0.051121035            3 
 3771000   0.66145186   -3.7181314    2348.3193  0.051894265  0.051110024            7 
 3772000   0.66319245   -3.7274684    2361.2324  0.052165792  0.051098982            5 
 3773000   0.64415713   -3.7181014     2359.562  0.052115071  0.051088023            7 
 3774000   0.64992577   -3.7229743    2354.7066  0.051994051  0.051076975            7 
 3775000   0.65156305   -3.7107481     2358.436  0.052062604  0.051065935           16 
 3776000   0.63944326   -3.6947274    2356.7213  0.052010975  0.051054974            4 
 3777000   0.65166439   -3.7286067    2363.1054   0.05213806  0.051044033           10 
 3778000   0.66093612   -3.7124418    2356.0562   0.05196877  0.051033101            4 
 3779000   0.64575994   -3.7190184    2355.9718  0.051953157  0.051022107           19 
 3780000   0.64221907   -3.7118547     2364.679  0.052131372  0.051011125            5 
 3781000   0.63574228   -3.7117728    2353.2683  0.051866092  0.051000235            5 
 3782000   0.64641974    -3.718579    2356.0047  0.051912671  0.050989309            6 
 3783000   0.65517875   -3.7181548    2363.6037  0.052066343  0.050978355            8 
 3784000   0.63974143   -3.7400283    2351.5957  0.051788137  0.050967358            6 
 3785000   0.64947432   -3.7390666    2354.8859  0.051846893  0.050956416            8 
 3786000   0.65475056   -3.7060006    2362.5457  0.052001797  0.050945446            8 
 3787000   0.65332158   -3.7070271    2353.0571  0.051779269  0.050934554           10 
 3788000   0.64897477   -3.7070724    2360.4001   0.05192714  0.050923635            5 
 3789000   0.65322334    -3.700129    2356.5661  0.051829112  0.050912723            5 
 3790000   0.63844584   -3.7120569    2361.9693  0.051934241  0.050901864            3 
 3791000   0.64615535   -3.7299326    2353.4519  0.051733314  0.050890914           11 
 3792000   0.65258409   -3.7342878    2354.9213  0.051751961  0.050880016            6 
 3793000   0.63164715   -3.7167749    2356.7078  0.051777569  0.050869065            9 
 3794000   0.64066943   -3.7351435     2360.014   0.05183654  0.050858204            4 
 3795000   0.63934532   -3.7005077    2360.1327  0.051825488  0.050847344            4 
 3796000   0.65044749   -3.7046841    2363.1915  0.051878985   0.05083647           10 
 3797000   0.64545268   -3.7115797    2361.2077  0.051821783  0.050825575            7 
 3798000   0.63381745   -3.7358991    2362.1763  0.051829391  0.050814624            5 
 3799000   0.63307002   -3.7368144    2354.4257  0.051645733  0.050803649            7 
 3800000   0.63868362   -3.7169688    2364.8281  0.051860266  0.050792698            3 
 3801000   0.63452274    -3.712036     2361.194  0.051766946   0.05078179           12 
 3802000   0.64357577   -3.7179987    2361.2044  0.051753559   0.05077096            9 
 3803000   0.64999816   -3.7138726    2364.7206  0.051816999  0.050760099            8 
 3804000   0.63624789   -3.7179819    2361.9749  0.051743229  0.050749332           11 
 3805000   0.62709493   -3.6860283    2371.0345  0.051928045  0.050738518            6 
 3806000   0.65148829   -3.7237138    2358.4982  0.051639914  0.050727662            8 
 3807000   0.64891943   -3.7248145    2356.7176  0.051587375   0.05071673            9 
 3808000   0.65296452   -3.7426663    2359.8962  0.051643387  0.050705772            6 
 3809000   0.63421223   -3.7352395    2361.1844  0.051658012  0.050694842           11 
 3810000   0.64393131   -3.7252318    2362.0055  0.051662413  0.050683935            4 
 3811000   0.64450286   -3.7407298     2361.612  0.051640252  0.050673083            5 
 3812000   0.64005294   -3.7219564     2359.717   0.05158528  0.050662239            6 
 3813000    0.6354279   -3.7180718    2366.0403  0.051709947  0.050651376            5 
 3814000   0.64850984    -3.731439    2361.6859  0.051601248  0.050640514            6 
 3815000   0.65447905   -3.7130287    2365.4748  0.051670485  0.050629672           10 
 3816000    0.6478703    -3.721323    2364.4762  0.051635137  0.050618834           16 
 3817000   0.63246675   -3.7305894    2361.0286  0.051546342  0.050607976            7 
 3818000   0.64484008   -3.7279618      2366.31  0.051648113  0.050597144            7 
 3819000   0.63939005   -3.7222748    2363.7209  0.051578094  0.050586252            5 
 3820000   0.64196301   -3.7208883     2365.455  0.051602421  0.050575403            5 
 3821000   0.65051474   -3.7102379    2366.5139   0.05161201  0.050564655           10 
 3822000    0.6288402    -3.722844    2362.2394  0.051505307  0.050553828           15 
 3823000     0.645931   -3.7325301    2363.3229  0.051515453  0.050542966            9 
 3824000   0.63692668    -3.728001    2362.0404  0.051474033  0.050532069            8 
 3825000   0.64343379   -3.7174639    2368.3229  0.051597449  0.050521263           23 
 3826000   0.64841277   -3.7321303    2363.6024  0.051481146  0.050510418            7 
 3827000   0.63904061   -3.7087613    2362.8232  0.051450727  0.050499587            6 
 3828000   0.64454796   -3.7352361    2366.7469  0.051522703  0.050488746            8 
 3829000   0.62410523   -3.7272255     2362.615  0.051419322  0.050477913            6 
 3830000   0.65136892   -3.7445449    2358.3645  0.051313413  0.050467066           13 
 3831000   0.63977044   -3.7414962    2363.4744  0.051411172  0.050456106           12 
 3832000   0.63837822   -3.7355629     2365.086  0.051432804  0.050445247            6 
 3833000   0.63116003   -3.7233279    2357.8896  0.051262926   0.05043433           19 
 3834000   0.63738033   -3.7203168    2364.3746  0.051390509  0.050423482            7 
 3835000   0.64498819   -3.7399216    2362.4428  0.051335133  0.050412612            5 
 3836000   0.64260455   -3.7214845     2371.549  0.051519574  0.050401738           10 
 3837000   0.62523779   -3.7189099     2359.257  0.051239185  0.050390994            5 
 3838000   0.64111105   -3.7335431    2359.8867  0.051239506  0.050380086            7 
 3839000   0.64953265   -3.7122299    2367.0568    0.0513818  0.050369211            5 
 3840000   0.64029949   -3.7256667    2370.1288  0.051435087  0.050358306           11 
 3841000   0.63446021   -3.7194107    2366.0411  0.051333009  0.050347492            5 
 3842000   0.63579853    -3.753599    2360.6295  0.051202271  0.050336655            8 
 3843000   0.63982776   -3.7289022    2364.4145  0.051271023  0.050325802            5 
 3844000   0.64164809   -3.7396241    2363.3975  0.051235638  0.050314871            5 
 3845000   0.64021715   -3.7376838    2363.9921    0.0512352  0.050304033           10 
 3846000   0.62688512   -3.7194792    2364.3495  0.051229622  0.050293226           14 
 3847000   0.64572341   -3.7198559    2364.8147  0.051226381  0.050282435            8 
 3848000   0.64017402   -3.7527044    2373.5521  0.051402288  0.050271659            7 
 3849000   0.62975408   -3.7392421    2363.9527  0.051181101  0.050260846           20 
 3850000   0.64202748   -3.7334862    2362.1857  0.051129561  0.050249919           13 
 3851000   0.64259427   -3.7318809    2367.4762  0.051230767  0.050239085            8 
 3852000    0.6347139   -3.7245186    2364.0597  0.051143554  0.050228171           15 
 3853000   0.62628012   -3.7375374    2365.6428   0.05116452  0.050217348            8 
 3854000   0.62923745   -3.7233357    2369.4996   0.05123464  0.050206528            6 
 3855000    0.6254735   -3.7426841     2372.192  0.051279551  0.050195765            6 
 3856000   0.62335878   -3.7242111    2368.5968  0.051188554  0.050184939            3 
 3857000   0.63912554   -3.7326661    2372.0268  0.051249392   0.05017417            7 
 3858000    0.6337294   -3.7278681    2370.0851  0.051194166  0.050163343            9 
 3859000    0.6305655   -3.7153875    2367.6763  0.051128883  0.050152569           13 
 3860000   0.64920659   -3.7364928    2361.6987  0.050986587  0.050141669            6 
 3861000   0.63883703   -3.7377722    2364.8753  0.051041943  0.050130769            3 
 3862000   0.62526739   -3.7415512    2367.9388  0.051094831  0.050119894            9 
 3863000   0.62306451    -3.723613    2371.9551  0.051168243  0.050109022            7 
 3864000   0.63793242   -3.7311735    2363.4272  0.050971084   0.05009815           12 
 3865000   0.63724632   -3.7595019     2359.873  0.050881262  0.050087191           17 
 3866000   0.63831878   -3.7271143    2368.7616  0.051059701  0.050076237            5 
 3867000   0.63362156   -3.7207311    2370.5929   0.05108596  0.050065301            7 
 3868000   0.62788282   -3.7578172    2369.1511   0.05104169  0.050054348            5 
 3869000   0.63458439   -3.7289451     2368.472  0.051013871  0.050043456            8 
 3870000   0.62347885   -3.7402478    2367.6661  0.050983335  0.050032547           13 
 3871000   0.62325738   -3.7498655    2371.7803  0.051058734  0.050021663            7 
 3872000   0.63491662   -3.7546738    2368.1265   0.05096691  0.050010797           11 
 3873000    0.6407774   -3.7383943    2369.2278  0.050977446  0.049999957            6 
 3874000   0.64222551   -3.7554872    2370.0823  0.050982669  0.049989091           12 
 3875000   0.63191693   -3.7400062    2372.2309  0.051015719  0.049978204            6 
 3876000   0.62404912   -3.7352102    2372.6448  0.051011456  0.049967337            5 
 3877000   0.62850331    -3.725139    2366.4103  0.050864291  0.049956467           14 
 3878000   0.62041473   -3.7330507    2370.1839  0.050932265  0.049945613            5 
 3879000   0.62905918   -3.7356278    2367.1393  0.050853728  0.049934764            7 
 3880000   0.60840358   -3.7594087    2371.4154  0.050932461  0.049923887           18 
 3881000   0.63098172   -3.7329014    2375.9992  0.051017763   0.04991303            7 
 3882000   0.60895522   -3.7439233    2374.7423  0.050977638   0.04990224            8 
 3883000   0.64133429    -3.750646      2373.59  0.050939779  0.049891425            7 
 3884000   0.63836621   -3.7548344    2367.9934  0.050806588  0.049880602            6 
 3885000   0.62696938   -3.7516065    2363.4986  0.050697095  0.049869758           20 
 3886000   0.62141334   -3.7376863    2371.2266  0.050849773  0.049858896            7 
 3887000   0.63263649   -3.7339827    2372.8167  0.050870781  0.049848151            3 
 3888000   0.63000358   -3.7401998     2366.903  0.050730945  0.049837344           12 
 3889000   0.63796419    -3.750114    2370.0153  0.050784591    0.0498266           16 
 3890000   0.63897258    -3.759656    2376.1152   0.05090221  0.049815788            5 
 3891000   0.61063647   -3.7547411    2373.6635  0.050836621  0.049804995            7 
 3892000   0.62154857   -3.7527387    2377.5449  0.050906666  0.049794242            8 
 3893000   0.61690315   -3.7216724    2374.3857  0.050825962    0.0497835            7 
 3894000   0.62413419   -3.7436366    2374.5892  0.050817265  0.049772753            9 
 3895000   0.63459399   -3.7465705    2370.2411  0.050711191  0.049761929           10 
 3896000   0.63632527   -3.7553128    2370.8424  0.050711036  0.049751088            7 
 3897000   0.61452372   -3.7660644    2367.8339  0.050633691  0.049740245            5 
 3898000   0.62004856   -3.7543331    2377.5508  0.050828433  0.049729502            8 
 3899000   0.61656401   -3.7432078     2381.179  0.050892944    0.0497188            6 
 3900000   0.62149672    -3.748202    2370.9606  0.050661552  0.049708075           14 
 3901000   0.63678357   -3.7460019    2370.1619  0.050631503  0.049697247            7 
 3902000   0.61947703   -3.7637006    2366.5816  0.050542065  0.049686477            8 
 3903000   0.61623255   -3.7377443    2375.9534  0.050729213  0.049675734           10 
 3904000   0.62812206   -3.7617379    2376.1654  0.050720745  0.049665022            9 
 3905000   0.62154361   -3.7446183    2370.7959  0.050593169  0.049654271            8 
 3906000   0.62690157   -3.7311245    2379.8837  0.050774102  0.049643467            6 
 3907000   0.62778314   -3.7493038    2373.5482  0.050625975  0.049632756            7 
 3908000   0.62546225    -3.758294    2372.5026  0.050590724  0.049622039           12 
 3909000   0.61996961   -3.7401884    2379.5873  0.050728817  0.049611332            6 
 3910000   0.62910505    -3.742902    2380.8185  0.050742083  0.049600598           10 
 3911000   0.63748954   -3.7479768    2381.0957  0.050735015  0.049589849            5 
 3912000   0.62463846   -3.7292921    2380.1578  0.050702065  0.049579158            4 
 3913000   0.63866966   -3.7438671    2380.1144  0.050688184  0.049568517            9 
 3914000   0.61887113   -3.7464435    2377.6756  0.050623309  0.049557776            6 
 3915000   0.62761882   -3.7521123    2376.2451   0.05057993  0.049546943           14 
 3916000   0.63492008    -3.764762    2369.2601  0.050418371  0.049536137            9 
 3917000   0.62019812   -3.7547909    2373.1056  0.050487311   0.04952532            9 
 3918000   0.62368547   -3.7649806    2370.1117  0.050410747  0.049514555           13 
 3919000   0.62257481   -3.7384306    2372.4013  0.050446571  0.049503806           10 
 3920000   0.62640656   -3.7451144    2372.2152  0.050429744  0.049493005           14 
 3921000   0.62599726   -3.7454499    2378.7586  0.050555952  0.049482188           14 
 3922000   0.61885216   -3.7494352    2379.0532   0.05054932  0.049471447            6 
 3923000   0.61749516   -3.7552771    2376.7997  0.050488565  0.049460676           10 
 3924000    0.6220122   -3.7383758    2385.3362  0.050656988  0.049450016            6 
 3925000   0.61729873   -3.7556414    2377.9182  0.050486586  0.049439359            8 
 3926000   0.62125181   -3.7405101     2379.656  0.050510614  0.049428622            9 
 3927000   0.61767931   -3.7513705    2381.5028  0.050536942  0.049417891            9 
 3928000   0.62782444    -3.749909    2380.3563  0.050499751  0.049407249            6 
 3929000    0.6151682   -3.7603389    2380.1804  0.050483168  0.049396576            6 
 3930000   0.62599161   -3.7616873    2367.5141  0.050201741   0.04938593            9 
 3931000   0.63184844   -3.7587776    2376.0009  0.050368882  0.049375274            6 
 3932000   0.62644434    -3.745377    2383.1294  0.050507151  0.049364674            4 
 3933000   0.61041823   -3.7597039    2383.2177  0.050496179     0.049354            6 
 3934000    0.6190107   -3.7588637    2382.4053  0.050466134  0.049343379            5 
 3935000      0.63606   -3.7720202    2382.8177  0.050462044   0.04933275            9 
 3936000    0.6203673   -3.7819537    2385.0502  0.050496489  0.049322124           10 
 3937000   0.62144557   -3.7648426    2383.9112  0.050459554  0.049311494            4 
 3938000   0.62314913   -3.7782004    2376.4748  0.050289377   0.04930086            5 
 3939000   0.62562749   -3.7808621    2376.7435  0.050282294  0.049290153            5 
 3940000    0.6188136   -3.7597881    2379.6957  0.050331974  0.049279475            9 
 3941000   0.63086084   -3.7478754    2377.3008  0.050268562  0.049268797            5 
 3942000   0.61555877   -3.7721734    2374.3727  0.050193911  0.049258077           14 
 3943000   0.62485327    -3.770604      2376.25  0.050220855  0.049247414           11 
 3944000   0.62403617   -3.7596394    2384.1031  0.050374052  0.049236728            7 
 3945000   0.61528318   -3.7456028    2378.7727  0.050248683  0.049226113            4 
 3946000   0.61379908   -3.7592024    2377.2874  0.050204583  0.049215415            5 
 3947000   0.63714622   -3.7540865    2377.4163  0.050194584  0.049204703           10 
 3948000   0.61421762    -3.772186    2379.9516  0.050235385  0.049194056           11 
 3949000   0.61048338   -3.7637999    2377.2163  0.050164943   0.04918332            7 
 3950000   0.61478647   -3.7686784    2377.7308  0.050163096  0.049172643            8 
 3951000   0.62725231   -3.7442912     2388.465  0.050376804  0.049161949           11 
 3952000   0.62958141   -3.7551387    2383.8458  0.050266655  0.049151274           11 
 3953000   0.62502305   -3.7464357    2383.6178  0.050249132  0.049140582            6 
 3954000   0.60891924   -3.7387516    2382.9914  0.050223221  0.049129954            3 
 3955000   0.60787475    -3.758019    2383.3196  0.050217437  0.049119315           14 
 3956000   0.62367104   -3.7560097    2386.1953  0.050265321   0.04910859            5 
 3957000   0.62927276   -3.7742688    2388.2379  0.050295633  0.049097886            7 
 3958000   0.61963395   -3.7956438    2382.2423  0.050156693  0.049087227            5 
 3959000   0.61136181   -3.7622996    2382.1864  0.050142847   0.04907656            6 
 3960000   0.60873235   -3.7395594    2381.5175  0.050116108  0.049065826            7 
 3961000   0.62015858     -3.74682     2376.548  0.049998907  0.049055171            9 
 3962000   0.61741158   -3.7609473    2388.1185  0.050229651  0.049044567           13 
 3963000   0.62841101   -3.7856369    2378.3701  0.050011989  0.049033883           12 
 3964000   0.62602892   -3.7675498    2383.4604  0.050106383  0.049023157            8 
 3965000   0.59998335   -3.7785629    2383.6459  0.050097644  0.049012469            6 
 3966000   0.60855816   -3.7899183    2379.4343  0.049996519  0.049001742           18 
 3967000   0.61847908   -3.7710576    2374.7976  0.049886514  0.048990981           31 
 3968000   0.62079808    -3.778723    2383.5271  0.050057273  0.048980272            9 
 3969000   0.62195169   -3.7679799    2384.0315  0.050055251  0.048969639            6 
 3970000   0.62577149   -3.7719651    2383.7625  0.050036996  0.048959047            4 
 3971000   0.61480802   -3.7678848    2384.7063  0.050044202  0.048948375            6 
 3972000   0.62658567   -3.7722154    2379.5545  0.049923517  0.048937668            8 
 3973000   0.62427906   -3.7832424    2382.4685  0.049972073  0.048926994            8 
 3974000   0.61238617   -3.7551469    2386.2518  0.050038832  0.048916366            7 
 3975000   0.61440798   -3.7631812    2380.3035   0.04990154  0.048905724           12 
 3976000   0.61378843   -3.7624169    2380.9487  0.049902513  0.048895039           10 
 3977000   0.62411362   -3.7708738    2386.1276  0.049998482  0.048884299            7 
 3978000   0.61387511   -3.7665758    2383.4548  0.049929923  0.048873656            6 
 3979000   0.60890744   -3.7759685    2383.3999  0.049916225  0.048863048           10 
 3980000   0.61124633   -3.7935048    2385.0067  0.049937327  0.048852412            5 
 3981000      0.62776   -3.7927222    2386.9755  0.049965995  0.048841824           14 
 3982000   0.62562973   -3.7681552    2388.1461  0.049977945  0.048831155           20 
 3983000   0.61192865   -3.7560798    2384.3046  0.049885024   0.04882052            6 
 3984000   0.60027643   -3.7705603    2380.8523   0.04980029  0.048809802           16 
 3985000   0.62608058    -3.771193    2391.2537  0.050005305  0.048799191            4 
 3986000   0.60742028   -3.7778086    2384.1273  0.049843772  0.048788593            5 
 3987000   0.60788743   -3.7722198    2385.8624  0.049867537  0.048777997           15 
 3988000   0.61728611   -3.7602979    2388.8102  0.049916628  0.048767422            9 
 3989000   0.62843133   -3.7749481    2390.9697  0.049949229   0.04875679            9 
 3990000   0.61007283    -3.763501    2392.5956  0.049970668  0.048746229           10 
 3991000   0.61050512   -3.7754547    2373.1964  0.049553086  0.048735618           10 
 3992000   0.62114143   -3.7680259    2386.7715  0.049824055  0.048725019           10 
 3993000    0.6136156   -3.7906365    2384.0994  0.049755811  0.048714465            8 
 3994000   0.60957124   -3.7776786    2384.0289  0.049741882  0.048703772            7 
 3995000   0.62063486   -3.7681917    2393.4241  0.049925409  0.048693192            6 
 3996000   0.60952052   -3.7508569    2392.5494  0.049894674   0.04868269           11 
 3997000    0.6205657    -3.777868    2381.6534  0.049655021  0.048672068           22 
 3998000   0.60845791   -3.7800331    2374.1894  0.049487023  0.048661426           15 
 3999000   0.63122508   -3.7552395    2388.2864  0.049768409  0.048650844           23 
 4000000   0.63405306   -3.7925303     2391.242  0.049817541  0.048640296            7 
 4001000   0.60872556   -3.7597115     2387.933  0.049736169  0.048629727            9 
 4002000   0.60777103   -3.7737027    2386.4444  0.049692744  0.048619221           13 
 4003000   0.60368198   -3.7722561    2393.4941   0.04982709  0.048608736            7 
 4004000   0.60462157   -3.7764573    2386.9312  0.049678054  0.048598189            7 
 4005000   0.60383301   -3.7655962    2385.2664  0.049631012  0.048587616            9 
 4006000   0.62482582   -3.7847628    2392.7834  0.049774992  0.048577013           10 
 4007000   0.61511095   -3.7817201    2389.2298  0.049688666  0.048566456           16 
 4008000   0.59848777   -3.7630987     2391.195  0.049717129  0.048555952            7 
 4009000     0.615183   -3.7694193     2393.751  0.049757858  0.048545453            8 
 4010000   0.60911991   -3.7927443    2386.9277  0.049603651  0.048534941            9 
 4011000   0.60802982   -3.7889436     2389.261  0.049639761  0.048524466           19 
 4012000   0.61372846   -3.7799805    2395.2606  0.049752006  0.048513988            7 
 4013000   0.62445057   -3.7826671    2386.8054  0.049564029  0.048503514            7 
 4014000   0.60273283   -3.7772415    2388.8808  0.049594768  0.048492973           10 
 4015000   0.62574358   -3.7734881    2391.5376  0.049637559   0.04848245            9 
 4016000   0.61333512   -3.7747031    2392.9572  0.049654656  0.048471928           11 
 4017000   0.62247882   -3.7978095    2388.0101  0.049539668  0.048461362           12 
 4018000   0.62621081   -3.7798893    2389.1119  0.049550188  0.048450841           12 
 4019000   0.60226247   -3.7919215    2386.6286   0.04948637  0.048440287            6 
 4020000   0.59762316   -3.7931738    2394.7091  0.049641565  0.048429712            5 
 4021000   0.60691534   -3.7813622    2386.4224  0.049457482  0.048419149           10 
 4022000   0.59918341   -3.7781697      2396.38  0.049651501  0.048408562            9 
 4023000   0.61519112   -3.7971303    2386.5181  0.049434876  0.048398011            8 
 4024000   0.59978769   -3.7820012    2384.4909  0.049380609  0.048387402            7 
 4025000    0.6142462   -3.8078627    2383.7677  0.049353368  0.048376829            9 
 4026000   0.61021278   -3.7993967    2386.8528  0.049404968  0.048366209            6 
 4027000   0.60737554   -3.7687763    2387.0738  0.049397273  0.048355579           13 
 4028000   0.61263831   -3.7727418    2393.8484  0.049525166  0.048345069            5 
 4029000   0.61406249   -3.7832329     2385.633  0.049342951  0.048334515            7 
 4030000   0.59933711   -3.7729932    2391.5638  0.049453345   0.04832391            5 
 4031000   0.61351835   -3.7712952    2386.8867  0.049344387   0.04831339            8 
 4032000   0.60973264   -3.7803521    2387.5107  0.049345047  0.048302822           12 
 4033000   0.60327405    -3.772721    2391.3132  0.049411381  0.048292191            9 
 4034000   0.60417934   -3.7930559    2387.9065  0.049328757  0.048281636            3 
 4035000   0.60723341   -3.7819164    2389.1089  0.049341366  0.048271023            8 
 4036000   0.59905064   -3.8033953     2384.238  0.049228568  0.048260332           14 
 4037000   0.61019009   -3.8082973    2388.7102   0.04930869  0.048249694            9 
 4038000   0.60379476   -3.7877929     2388.692  0.049296105  0.048239014            5 
 4039000    0.6048791   -3.7890667    2392.1795  0.049355853  0.048228354            9 
 4040000   0.60832057   -3.7779871    2392.3801  0.049347774  0.048217822           11 
 4041000   0.60439534    -3.787804    2387.1363  0.049227424  0.048207241           12 
 4042000   0.60181222    -3.782165    2394.2789  0.049362505  0.048196637            7 
 4043000   0.60043135   -3.8124876    2379.3148  0.049041858  0.048185951            9 
 4044000   0.60300202   -3.7987726    2386.7149  0.049182223  0.048175294           12 
 4045000    0.6010394   -3.7752665    2388.7311  0.049211601  0.048164686           14 
 4046000   0.60509053   -3.7849534    2395.0091  0.049328741  0.048154033            8 
 4047000    0.6090871   -3.7980652    2389.7902  0.049209089  0.048143399            8 
 4048000    0.5968529   -3.8058298    2385.6513  0.049111727  0.048132728            6 
 4049000   0.60811764   -3.8078152    2391.4682  0.049219318  0.048122115            7 
 4050000   0.59874927   -3.7773423     2390.565   0.04918858  0.048111481            8 
 4051000   0.60128785   -3.7905397    2389.5029   0.04915459  0.048100892            4 
 4052000   0.60557314   -3.8066801    2389.1859  0.049135939  0.048090238           11 
 4053000   0.60617407    -3.791707    2386.4447  0.049067454  0.048079573            8 
 4054000   0.60120697   -3.7905521    2384.4671    0.0490147  0.048068896            6 
 4055000    0.5951389   -3.7902117     2390.454  0.049125646  0.048058207           21 
 4056000   0.59939275   -3.8054694    2395.1063   0.04920912  0.048047558           22 
 4057000   0.59943883   -3.7865044    2392.5824  0.049145148  0.048036893           12 
 4058000   0.59639087   -3.8047347    2382.4213  0.048924374  0.048026225           16 
 4059000   0.59211435    -3.796805    2391.9198  0.049107329  0.048015461            5 
 4060000   0.60552868   -3.8043041    2387.0544   0.04899537  0.048004734           12 
 4061000   0.59185749   -3.7848645    2395.1929   0.04915031   0.04799401           14 
 4062000   0.60420752   -3.7779586    2386.6645  0.048963247   0.04798335           17 
 4063000   0.60861932   -3.7895671    2390.8734  0.049037522  0.047972655            5 
 4064000   0.59932771    -3.804001    2391.0694  0.049029473  0.047961986            6 
 4065000   0.60204154   -3.7951985    2388.6105  0.048967005  0.047951303            6 
 4066000   0.60454825   -3.8077618    2382.3644  0.048826946  0.047940586            9 
 4067000   0.60014535    -3.806656    2389.4858   0.04896086  0.047929894           11 
 4068000   0.59310773    -3.784271    2392.3861  0.049008238   0.04791924            4 
 4069000    0.5960219     -3.79055    2393.0947  0.049010704  0.047908514           12 
 4070000   0.60063872   -3.8213533    2386.3576  0.048860721  0.047897823            9 
 4071000   0.59659329   -3.7901732    2389.9965  0.048923206  0.047887118            5 
 4072000   0.59094506   -3.7891608    2384.0733  0.048789975  0.047876394            7 
 4073000   0.59816679   -3.8107129    2382.0997  0.048737615  0.047865603            9 
 4074000   0.57768548   -3.8011361    2385.4173  0.048793513  0.047854853            8 
 4075000   0.60583978   -3.8063942    2391.6041   0.04890806  0.047844106            7 
 4076000   0.59613656   -3.8045302    2387.5664   0.04881351   0.04783336           15 
 4077000   0.59665963    -3.789709    2397.5329  0.049005252  0.047822572            6 
 4078000   0.59504457   -3.7972412     2395.828  0.048958394  0.047811843           12 
 4079000   0.60702939   -3.8112106    2388.2555  0.048791687  0.047801044           19 
 4080000   0.60248328   -3.7808466    2381.9288  0.048650507  0.047790235           11 
 4081000   0.58248201   -3.8050286    2390.7968  0.048819669  0.047779457            5 
 4082000   0.59252177   -3.7935267    2388.2084  0.048754866   0.04776874            7 
 4083000   0.58958742   -3.8164085    2389.3403  0.048766029  0.047757939            6 
 4084000   0.59849579   -3.8124408    2387.0857  0.048708083  0.047747097           12 
 4085000   0.58581833   -3.8120148    2383.9419  0.048632025  0.047736296           32 
 4086000   0.58749276   -3.8183086    2387.3522  0.048689677   0.04772553            5 
 4087000   0.60699338   -3.8265674    2385.8939  0.048648029  0.047714762            9 
 4088000   0.59861464   -3.8135996    2384.6273   0.04861031  0.047704015            7 
 4089000   0.58466232   -3.8025204     2387.684  0.048660716  0.047693276            5 
 4090000   0.59655303   -3.7958137    2388.1673  0.048658665  0.047682544            7 
 4091000   0.60662453   -3.7916802    2388.7049  0.048657723  0.047671823            9 
 4092000   0.59148651   -3.7988677     2385.824  0.048587162  0.047661101           20 
 4093000   0.58728499   -3.7880831    2385.6745  0.048572247  0.047650366            7 
 4094000   0.60134083   -3.8112989    2392.9335   0.04870814  0.047639656           11 
 4095000   0.59400399   -3.7869081    2396.2191  0.048763108  0.047628932           11 
 4096000   0.60203988   -3.8094524     2384.867  0.048520244   0.04761824           11 
 4097000   0.59564682   -3.7905453     2385.069  0.048512509  0.047607553           15 
 4098000   0.60420249   -3.7967145    2395.7784  0.048718448   0.04759684           19 
 4099000   0.59630775   -3.7917476    2391.2165  0.048613818  0.047586128           12 
 4100000   0.58529688   -3.7979906    2387.1616  0.048519545  0.047575437            4 
 4101000    0.5968283   -3.8000961    2388.4511  0.048533917  0.047564781           12 
 4102000   0.59599333   -3.8099071    2390.9694  0.048573244  0.047554204           10 
 4103000    0.5906079   -3.7958808    2392.3818  0.048590093  0.047543541            8 
 4104000   0.59373298   -3.8134927    2390.8448  0.048547044  0.047532877            8 
 4105000   0.60272733   -3.7971506    2395.6133   0.04863202  0.047522241            8 
 4106000   0.60037971   -3.7914216     2397.113  0.048650613  0.047511571           11 
 4107000    0.6003471   -3.8211459    2394.2415  0.048580503  0.047500947            9 
 4108000   0.59919167     -3.81187    2391.0445  0.048503824  0.047490346           15 
 4109000   0.59206968   -3.8043001    2396.6899  0.048606513  0.047479702           10 
 4110000   0.58335964   -3.8222195    2391.0793  0.048480927  0.047469035            9 
 4111000   0.59317106   -3.8171967    2393.1672  0.048511458  0.047458404           10 
 4112000   0.60220926   -3.7957577     2392.543  0.048487009  0.047447736            8 
 4113000   0.60177727   -3.8086294    2388.5259   0.04839383  0.047437154            7 
 4114000   0.58735437   -3.8113002    2390.7494  0.048427107  0.047426454            5 
 4115000   0.58810391    -3.820817    2386.4603  0.048328479  0.047415795            9 
 4116000   0.58234939   -3.7806356    2395.1124  0.048491909  0.047405195            7 
 4117000   0.59813021   -3.8295438    2395.2619  0.048483158  0.047394604            4 
 4118000   0.60021239   -3.8139533    2394.6465   0.04845893  0.047384023            5 
 4119000   0.58867973   -3.8174448    2395.8881  0.048472286  0.047373363            5 
 4120000   0.57981482    -3.811718    2398.7291  0.048517983  0.047362741           11 
 4121000   0.58514724   -3.8319912    2391.7441  0.048364961  0.047352119            5 
 4122000   0.58506556   -3.8233426    2387.4632  0.048266682  0.047341481            5 
 4123000   0.59359223   -3.8271884    2399.5379  0.048499027  0.047330823            4 
 4124000   0.59468943   -3.8268951    2396.2626  0.048421085  0.047320137            4 
 4125000   0.59893537    -3.820011    2389.8775  0.048280354  0.047309483            6 
 4126000   0.59893972   -3.7978794    2399.8166  0.048469393  0.047298821            7 
 4127000   0.59020569   -3.8354416    2393.9787  0.048339769  0.047288144           21 
 4128000   0.59736305   -3.8063691    2394.7532  0.048343694   0.04727747           23 
 4129000   0.59383322   -3.8174223     2397.136  0.048380076  0.047266806           10 
 4130000   0.58235824   -3.8250561    2391.5536  0.048255723  0.047256091           11 
 4131000   0.58223023   -3.8102112    2394.9785   0.04831313  0.047245468            8 
 4132000   0.57405521   -3.8120363    2393.3018  0.048267624  0.047234844            5 
 4133000   0.59692379   -3.8269449    2397.0185  0.048330884  0.047224278           16 
 4134000   0.59459075   -3.8150084    2396.0518  0.048299705  0.047213656           20 
 4135000   0.58264567   -3.8249525    2395.5882  0.048278682  0.047203064           15 
 4136000   0.58549962   -3.8153317    2403.6023   0.04842848   0.04719245            8 
 4137000   0.59962391   -3.8108721    2400.8972  0.048362283  0.047181871            8 
 4138000   0.59637638   -3.8111085    2397.3145  0.048278446  0.047171298           10 
 4139000   0.58809374   -3.8248088    2396.0372  0.048241064  0.047160634            9 
 4140000   0.58737045    -3.827008    2395.9871  0.048228403  0.047150005           22 
 4141000   0.59592366   -3.8196293    2399.0957  0.048279314  0.047139371           18 
 4142000   0.56433255   -3.8002534    2393.2673  0.048150397  0.047128783           10 
 4143000   0.58107951   -3.8034496    2404.5235  0.048365185  0.047118193            4 
 4144000   0.59425455   -3.8106107    2395.9224   0.04818055  0.047107618           15 
 4145000   0.57682504   -3.8167073    2396.3473   0.04817747  0.047096985            9 
 4146000   0.58933892   -3.8286175    2398.4627  0.048208368  0.047086395           19 
 4147000   0.58647428   -3.8306866    2392.7669  0.048082286  0.047075755           12 
 4148000   0.58442994    -3.833261    2389.1276  0.047997582  0.047065129           19 
 4149000   0.58739629   -3.8397187    2388.3236  0.047969864  0.047054457           10 
 4150000   0.58964213   -3.8292052    2393.1491  0.048055204   0.04704382           12 
 4151000   0.58755994   -3.8496295    2388.3966  0.047948216  0.047033135            8 
 4152000   0.58738073   -3.8155338    2393.4497  0.048038089  0.047022528            9 
 4153000   0.60092193   -3.8008626    2397.0338  0.048098438  0.047011957           10 
 4154000   0.59069148   -3.8016682    2393.6059  0.048018093  0.047001357           15 
 4155000   0.58373814   -3.8347518    2386.7812  0.047869659   0.04699068           12 
 4156000   0.59803182   -3.8203584     2391.796  0.047958693  0.046980003            9 
 4157000   0.59544046   -3.8215159    2397.5728  0.048062961  0.046969331            9 
 4158000   0.59378137   -3.8089495    2385.0058  0.047799539  0.046958653            8 
 4159000   0.58884515   -3.8129133    2395.9893   0.04800812   0.04694799           14 
 4160000   0.57969938   -3.8241498    2395.8857  0.047994505  0.046937379           13 
 4161000   0.58626389   -3.8356171    2393.4402  0.047933994  0.046926694            8 
 4162000   0.59023337   -3.8537712    2394.7626  0.047948955  0.046915966            9 
 4163000   0.58794011   -3.8351833    2390.1583   0.04784527  0.046905277           10 
 4164000   0.57643265   -3.8152364    2393.9029  0.047908719  0.046894587            8 
 4165000   0.58915448    -3.832162    2397.3406  0.047965999  0.046883911            7 
 4166000   0.58550583   -3.8193132    2394.8519  0.047904702  0.046873265           18 
 4167000   0.59952833   -3.8024691    2400.6732  0.048009623  0.046862637            4 
 4168000   0.57724466   -3.8093831    2395.4926  0.047894526  0.046852034           11 
 4169000   0.59187076   -3.8437862    2394.8142  0.047869476  0.046841414           11 
 4170000   0.58019367   -3.8173331    2391.6449  0.047794662  0.046830755           20 
 4171000   0.59486701   -3.8371978    2393.5971  0.047822206   0.04682012           11 
 4172000    0.5757094    -3.841226    2397.2342  0.047883393  0.046809435            5 
 4173000   0.58388499    -3.824923    2393.4824  0.047796996  0.046798783           13 
 4174000   0.57351588   -3.8264369    2397.1071  0.047857913  0.046788138           12 
 4175000   0.58001641   -3.8179477    2402.3414  0.047950926  0.046777486           12 
 4176000     0.593548   -3.8352453    2392.7947  0.047748936  0.046766883            8 
 4177000     0.588452   -3.8443042    2390.6041  0.047693801  0.046756255            9 
 4178000   0.56956824   -3.8222359    2396.6283  0.047802543   0.04674559           13 
 4179000   0.58751569   -3.8359091    2390.8641   0.04767616   0.04673496            6 
 4180000   0.58449227   -3.8168465    2398.1868  0.047810741  0.046724323           11 
 4181000   0.59676119   -3.8401367    2398.9853  0.047815221  0.046713643           12 
 4182000   0.59450268   -3.8304469    2390.5515  0.047635731  0.046702937           13 
 4183000   0.58686135   -3.8377668    2390.9202  0.047631688  0.046692192           11 
 4184000   0.58218372   -3.8246173    2399.2508  0.047786225  0.046681538            6 
 4185000   0.58872281   -3.8203624    2394.7924  0.047686029   0.04667091           16 
 4186000   0.57944828   -3.8359786    2392.0966   0.04762097   0.04666027           13 
 4187000   0.57779955   -3.8561951    2390.8781  0.047585346  0.046649555            7 
 4188000   0.58114462   -3.8494161    2393.8163  0.047632448   0.04663885           14 
 4189000   0.57428541    -3.844711      2394.07  0.047626123   0.04662815           11 
 4190000    0.5894654   -3.8234219    2394.5789   0.04762488  0.046617491           10 
 4191000   0.58245123   -3.8386311    2392.2929  0.047568061  0.046606898           12 
 4192000   0.56767021   -3.8291387     2400.042  0.047710758  0.046596274            9 
 4193000   0.58649759   -3.8330169     2400.744  0.047713331   0.04658568           19 
 4194000   0.57750313   -3.8090549    2402.4922  0.047736691  0.046575106            6 
 4195000    0.5752973   -3.8402504    2399.5948  0.047667755  0.046564559            8 
 4196000   0.59159635   -3.8297428    2398.2465  0.047629617  0.046553996            6 
 4197000   0.57759322   -3.8252611    2390.8755  0.047471915  0.046543329           11 
 4198000   0.59138251   -3.8430678    2393.7411   0.04751749  0.046532654            9 
 4199000   0.58509501    -3.825136    2397.8588  0.047587893   0.04652203           10 
 4200000   0.58730082   -3.8228272     2399.174   0.04760266  0.046511429            9 
 4201000   0.56060881   -3.8443444    2399.0099  0.047588073  0.046500816            7 
 4202000   0.58857917   -3.8340066    2399.1323  0.047579174    0.0464902            4 
 4203000   0.57604661   -3.8344128    2401.2416  0.047609675  0.046479619            5 
 4204000   0.56549628   -3.8399051    2400.1513  0.047576739  0.046469069            7 
 4205000   0.57926946   -3.8424351    2395.5001  0.047473248  0.046458495            3 
 4206000   0.57067428   -3.8341031    2396.7198  0.047486127  0.046447914            6 
 4207000   0.58126677   -3.8260906    2395.5956  0.047452571  0.046437304           10 
 4208000   0.56974296   -3.8397646    2397.7944  0.047484839  0.046426702           12 
 4209000   0.59244415   -3.8347599    2390.9082  0.047337219  0.046416102            7 
 4210000   0.59045344   -3.8635093    2401.0176  0.047526081  0.046405491            6 
 4211000   0.57361581   -3.8265136    2401.6801  0.047527904  0.046394853            4 
 4212000   0.57285851   -3.8356721    2394.5456  0.047375467  0.046384233            7 
 4213000   0.58253094   -3.8451977    2394.3071  0.047359504  0.046373618           12 
 4214000   0.57507776   -3.8297984    2393.3016  0.047328382  0.046362965            6 
 4215000   0.55961184   -3.8157426     2393.035  0.047311882  0.046352366            5 
 4216000    0.5714514   -3.8393352    2396.7603  0.047374295  0.046341797            7 
 4217000   0.57190897   -3.8264738    2397.8423  0.047384442   0.04633121           16 
 4218000   0.57406378   -3.8386765    2398.8979  0.047394064  0.046320671           15 
 4219000   0.57443185   -3.8420172    2395.2399  0.047310577  0.046310128            9 
 4220000   0.57508229   -3.8201668    2396.3436  0.047321161  0.046299558            6 
 4221000   0.57651044   -3.8366889    2397.9494  0.047341653  0.046289003           11 
 4222000   0.57333875   -3.8405813    2393.9923  0.047252335  0.046278427            9 
 4223000   0.57511849   -3.8418901    2394.6117  0.047253369  0.046267833           18 
 4224000   0.58195509    -3.840219    2401.3817  0.047375743  0.046257214            8 
 4225000   0.57909471   -3.8411717    2401.3668  0.047364236   0.04624663           11 
 4226000   0.56277975    -3.819769    2399.4809   0.04731584  0.046236136            6 
 4227000   0.57285213    -3.835231    2403.8207  0.047390203  0.046225611           10 
 4228000   0.57486056   -3.8469371    2395.8231  0.047221364  0.046214989           20 
 4229000   0.56979639   -3.8340538    2398.9998  0.047272794  0.046204373            7 
 4230000   0.57811021   -3.8519097    2400.9532  0.047300103  0.046193813           12 
 4231000   0.58339333   -3.8374221    2405.4843  0.047378168  0.046183298            7 
 4232000   0.59121151    -3.834371    2400.7056  0.047272873  0.046172773           11 
 4233000   0.58505379   -3.8667278    2393.7141  0.047124066  0.046162202           10 
 4234000   0.56390253    -3.854237    2397.6396  0.047190199  0.046151592           13 
 4235000   0.57423887    -3.847347    2400.3458  0.047232307  0.046140977            6 
 4236000   0.58332794   -3.8642255    2402.5809  0.047265127  0.046130351           16 
 4237000   0.58683384    -3.870597    2399.2453  0.047188366  0.046119757            5 
 4238000   0.55966138   -3.8528096    2404.2389  0.047275422  0.046109165            8 
 4239000   0.58375561   -3.8123338    2405.9884  0.047298663  0.046098658           11 
 4240000   0.56807347   -3.8369443    2399.4247  0.047158504  0.046088112           10 
 4241000   0.57117701   -3.8757658     2398.811  0.047135326  0.046077545           20 
 4242000   0.56067578   -3.8757437    2391.9013  0.046988474  0.046066963           12 
 4243000   0.57900677   -3.8503544    2397.6169  0.047089656  0.046056355            5 
 4244000   0.56702025   -3.8680789    2400.6972  0.047139044  0.046045742            8 
 4245000   0.58425222   -3.8526319    2400.8665  0.047131263  0.046035123            6 
 4246000   0.57131804   -3.8288207    2401.9755  0.047141928  0.046024577            9 
 4247000   0.57073442   -3.8473623    2402.0687  0.047132656   0.04601402           20 
 4248000    0.5761836   -3.8553221     2400.419  0.047089199  0.046003449           11 
 4249000   0.56929795   -3.8606914    2400.6324  0.047082302  0.045992943            7 
 4250000   0.58073626   -3.8463395    2397.0059  0.047000116  0.045982401           10 
 4251000   0.56749685   -3.8469365    2398.3358   0.04701513  0.045971831            5 
 4252000   0.57082438   -3.8515714    2392.3209  0.046886189  0.045961266           14 
 4253000   0.57806135   -3.8524759    2404.5664  0.047115102  0.045950703           33 
 4254000   0.55470688   -3.8416226    2401.6472  0.047046842   0.04594017           14 
 4255000   0.56756385   -3.8696521    2402.3463  0.047049478  0.045929662            3 
 4256000   0.56715837     -3.85162    2402.5301  0.047042021  0.045919146           22 
 4257000   0.57459095   -3.8476008    2398.0448  0.046943169  0.045908593           10 
 4258000   0.56980941    -3.848479    2402.3107  0.047015631  0.045898035           19 
 4259000   0.57230595   -3.8489169    2402.2104  0.047002629  0.045887537           10 
 4260000   0.57328046   -3.8534956    2407.1518   0.04708826  0.045876983           12 
 4261000   0.57582769   -3.8504268    2397.8592   0.04689547  0.045866393           11 
 4262000   0.55869238   -3.8595681    2403.7789  0.047000214  0.045855872           10 
 4263000    0.5686785   -3.8637276    2404.0884  0.046995239   0.04584532           11 
 4264000   0.56505248   -3.8593116    2399.2392  0.046889447  0.045834714            5 
 4265000   0.57701961   -3.8439042    2407.8615  0.047046923  0.045824239           13 
 4266000   0.57366037   -3.8596558     2396.964  0.046823018  0.045813662           17 
 4267000   0.56518104   -3.8403514    2403.6301  0.046942232  0.045803088            7 
 4268000   0.56941085   -3.8588092    2389.3262  0.046651948   0.04579249            6 
 4269000   0.56708078   -3.8597546    2398.9532  0.046828944  0.045781906           22 
 4270000   0.55650223   -3.8451471    2397.7026  0.046793571  0.045771325            8 
 4271000   0.57086563   -3.8437036    2400.8051  0.046843149  0.045760771            7 
 4272000   0.55916965   -3.8666032    2393.9994  0.046699427  0.045750224           15 
 4273000    0.5624472   -3.8573335    2399.5636  0.046797011  0.045739639           21 
 4274000   0.57996303   -3.8509105    2395.9981  0.046716543   0.04572908           19 
 4275000   0.55938519   -3.8519542    2396.3115  0.046711725  0.045718498           11 
 4276000   0.57016918   -3.8523445    2405.1299   0.04687266  0.045707933            4 
 4277000   0.58502273   -3.8479585    2407.4973  0.046907826  0.045697391           11 
 4278000   0.57604465   -3.8611705    2398.4424  0.046720478  0.045686852           19 
 4279000   0.56896607   -3.8619274    2399.6882  0.046733819  0.045676277           14 
 4280000   0.56982961   -3.8524511    2399.9721  0.046728428  0.045665722           19 
 4281000   0.54850762   -3.8572818    2394.9623  0.046619993  0.045655136           12 
 4282000    0.5673378   -3.8619732    2398.9588  0.046686884  0.045644525            7 
 4283000   0.56925511   -3.8585146    2396.3681  0.046625575  0.045633889            8 
 4284000   0.56516364    -3.871756    2395.9011  0.046605607  0.045623259           20 
 4285000   0.57051431   -3.8586913    2401.7163  0.046707823  0.045612632           12 
 4286000   0.56637076   -3.8639263     2394.015  0.046547189  0.045602059           15 
 4287000   0.55918252   -3.8571318    2393.9578  0.046535219  0.045591473           11 
 4288000   0.55613061   -3.8863885    2393.5313  0.046516079  0.045580828           11 
 4289000   0.56449498   -3.8707791    2396.5484  0.046563853  0.045570154            9 
 4290000   0.57327733   -3.8652691    2396.5858  0.046553725   0.04555946           12 
 4291000   0.56470813   -3.8514301    2394.2335  0.046497194  0.045548828           11 
 4292000   0.56521456   -3.8767705    2389.7392  0.046399099  0.045538192            9 
 4293000   0.56100506   -3.8616238    2395.7975  0.046505892   0.04552751            9 
 4294000   0.57199556   -3.8532295    2400.6344  0.046588929  0.045516858           12 
 4295000    0.5693553       -3.852    2397.9874  0.046526724  0.045506223            8 
 4296000   0.55208676   -3.8712269    2394.3632  0.046445593  0.045495539           16 
 4297000   0.56048752   -3.8760849    2400.4526  0.046552878  0.045484832           13 
 4298000   0.55043523   -3.8489116    2393.6413  0.046409983   0.04547419            9 
 4299000   0.57278605   -3.8655663    2390.3597  0.046335577  0.045463502            7 
 4300000   0.56043559   -3.8533588    2400.3908  0.046519201  0.045452897           14 
 4301000   0.56435034    -3.861294    2399.2489  0.046486261  0.045442325            6 
 4302000   0.57227536   -3.8649618    2400.8519  0.046506508  0.045431693           16 
 4303000   0.57630394   -3.8691054    2399.2138  0.046463975  0.045421054           11 
 4304000   0.56302694   -3.8642225    2402.2018  0.046511032  0.045410437            9 
 4305000   0.57136406   -3.8771771     2394.355  0.046348336  0.045399773            8 
 4306000   0.55901435   -3.8735859    2395.4692  0.046359134  0.045389167            8 
 4307000   0.56351799   -3.8622502     2397.964  0.046396642  0.045378577            8 
 4308000   0.55163006    -3.867203    2404.8359    0.0465188  0.045367965            9 
 4309000   0.56672581   -3.8631467    2400.8309  0.046430551  0.045357388           10 
 4310000   0.56374247   -3.8379502    2403.5349   0.04647206  0.045346762            7 
 4311000   0.57515263    -3.866526    2395.2331  0.046300803  0.045336167            9 
 4312000   0.54381282   -3.8668434    2400.1664  0.046385405  0.045325536           18 
 4313000   0.55633304   -3.8495842    2395.7754   0.04628981  0.045314922            5 
 4314000   0.56993078   -3.8781048    2396.9966   0.04630267  0.045304321           19 
 4315000   0.55951789   -3.8709245    2399.5267  0.046340802  0.045293663           20 
 4316000   0.56242696   -3.8665616    2408.9736  0.046512464  0.045283089           20 
 4317000   0.55367415   -3.8555862    2404.7049  0.046419289  0.045272533           11 
 4318000   0.57109303   -3.8720345    2394.9506  0.046220291  0.045261987           25 
 4319000   0.55260242   -3.8687349    2402.6962  0.046359037    0.0452514           14 
 4320000   0.56710896   -3.8745381    2396.9702  0.046237851  0.045240826           11 
 4321000   0.56187926   -3.8745421     2386.556  0.046026305  0.045230183           10 
 4322000   0.54913525   -3.8803995    2393.3201  0.046146076  0.045219551           15 
 4323000   0.57852517   -3.8740101    2400.5426  0.046274628  0.045208964            7 
 4324000   0.55758036   -3.8749866    2403.3489   0.04631801   0.04519836            6 
 4325000   0.54112066   -3.8502622    2399.3639  0.046230519  0.045187778            7 
 4326000   0.54437665   -3.8892973    2401.4062  0.046259174   0.04517718           11 
 4327000   0.55255544   -3.8697669    2398.4168   0.04619091  0.045166597           27 
 4328000   0.56761623   -3.8698091    2400.0562  0.046211803  0.045156099           10 
 4329000   0.56875079   -3.8757334    2401.1532  0.046222245  0.045145611            8 
 4330000    0.5692962   -3.8566276    2401.8584  0.046225143  0.045135065            7 
 4331000   0.55588754   -3.8744945    2403.7836  0.046251512  0.045124498           10 
 4332000   0.55778213   -3.8813647     2397.359  0.046117247  0.045113889           15 
 4333000   0.56643179   -3.8771224    2396.9628  0.046098985  0.045103298            8 
 4334000   0.56117775   -3.8856155    2398.8681  0.046124983  0.045092717           14 
 4335000   0.56053125   -3.8571391    2399.6112  0.046128627  0.045082182            7 
 4336000   0.55983973   -3.8584464    2399.5623  0.046117048  0.045071702            5 
 4337000    0.5497022   -3.8714318    2394.9798  0.046018364  0.045061177           16 
 4338000   0.56202301   -3.8671823    2405.0087  0.046200413  0.045050628           11 
 4339000   0.55818065   -3.8616283    2403.2896  0.046156749  0.045040105           13 
 4340000   0.56948674    -3.887399    2403.9672  0.046159125  0.045029535            8 
 4341000   0.55177331   -3.8689054    2401.5671  0.046102416  0.045018997           10 
 4342000   0.56580154   -3.8927374    2403.3809   0.04612661  0.045008432            9 
 4343000   0.55226662   -3.8824016    2404.3679  0.046134927   0.04499786            9 
 4344000   0.55445589   -3.8664189    2403.9051   0.04611543  0.044987373           21 
 4345000   0.55212099   -3.8911968    2400.9094  0.046047361   0.04497685            9 
 4346000   0.54472953   -3.8924348    2401.4576  0.046047277  0.044966314           16 
 4347000   0.55761174    -3.876904     2403.766  0.046080938  0.044955798            6 
 4348000   0.55214058   -3.8796147    2402.4646  0.046045397  0.044945257            8 
 4349000   0.55218227   -3.8754666    2397.4507  0.045938734   0.04493475           11 
 4350000   0.55503277   -3.8750408    2401.7044  0.046009663  0.044924244            8 
 4351000   0.54997888     -3.87186    2401.2779  0.045990919  0.044913781           24 
 4352000   0.55745288   -3.8943363    2398.7055  0.045931094  0.044903247           11 
 4353000   0.55752947   -3.8934661    2403.9265  0.046020493  0.044892696           27 
 4354000   0.55507321   -3.9037619    2400.2247  0.045939074  0.044882179           19 
 4355000   0.56070421   -3.8833908    2400.3137  0.045930228   0.04487161           16 
 4356000   0.55865503   -3.8977554    2405.0057  0.046009446  0.044861084           17 
 4357000    0.5621494   -3.9037125    2403.1154   0.04596273  0.044850515           12 
 4358000   0.54708848   -3.8916394    2402.6284  0.045942871  0.044839933           15 
 4359000   0.56017319   -3.8758106      2400.67  0.045894891  0.044829431           10 
 4360000   0.55815176   -3.8754566    2405.9109  0.045984535  0.044818958           20 
 4361000   0.55658889   -3.8922192    2393.6535  0.045739767  0.044808492           16 
 4362000   0.54644584   -3.8913087    2401.8409  0.045885697  0.044797996           11 
 4363000   0.54810591   -3.8607567     2409.732    0.0460259  0.044787571           17 
 4364000   0.55111986   -3.8719453    2407.6632  0.045975849  0.044777172            7 
 4365000   0.56102644   -3.8765788     2398.536  0.045791065  0.044766686            6 
 4366000   0.55986869   -3.8713601    2405.5601  0.045914646  0.044756239           21 
 4367000     0.545499   -3.8759215    2403.5785  0.045866318  0.044745763           10 
 4368000   0.55421019   -3.8884123    2399.4688  0.045777412  0.044735291           17 
 4369000   0.54796467    -3.895163    2407.6707  0.045923375  0.044724832           11 
 4370000   0.55177588   -3.8951994    2404.5073  0.045852542   0.04471432           13 
 4371000   0.53908587    -3.889071    2404.8943  0.045849429  0.044703836            8 
 4372000   0.54127625   -3.8642625    2403.4155  0.045810756  0.044693366            8 
 4373000   0.56110834   -3.8961901    2402.6115  0.045784958   0.04468296           13 
 4374000   0.54188923    -3.869423    2405.8157  0.045835538  0.044672507            7 
 4375000   0.54245471   -3.8928375    2403.0768  0.045772892  0.044662091            5 
 4376000   0.55252654     -3.88011    2413.3871  0.045958773  0.044651615           10 
 4377000   0.54021398   -3.9034571    2407.8798   0.04584342  0.044641151            7 
 4378000   0.56121294    -3.880625    2400.4803  0.045692102  0.044630695           15 
 4379000   0.54460121   -3.8860304    2403.1681  0.045732819  0.044620295           12 
 4380000   0.54699088   -3.8854685    2408.9581  0.045832537   0.04460991           15 
 4381000   0.54738704   -3.8873388    2405.7896  0.045761804  0.044599484           14 
 4382000   0.54184332   -3.8860495    2408.2875  0.045798865   0.04458903           10 
 4383000   0.54899511   -3.9025565    2395.8676  0.045552277  0.044578551           23 
 4384000   0.55327434   -3.8876564    2400.8028  0.045635699  0.044568056           14 
 4385000   0.54947647   -3.8911375    2406.0099  0.045724248  0.044557569           17 
 4386000   0.55745374   -3.9039133    2404.6829   0.04568861  0.044547113           15 
 4387000    0.5441486   -3.8745402     2409.548   0.04577061  0.044536701            7 
 4388000   0.55955062   -3.8928558    2402.0824  0.045618399  0.044526301            9 
 4389000   0.54985551   -3.8801777    2403.8291   0.04564117  0.044515907            7 
 4390000   0.55144137   -3.9083165    2406.5019  0.045681509  0.044505462            8 
 4391000   0.54622798   -3.9036925    2398.8875  0.045526597  0.044494963           10 
 4392000   0.56321487   -3.9065123    2398.4273    0.0455075  0.044484472            8 
 4393000    0.5498294    -3.921209    2404.9868  0.045621573  0.044474049           15 
 4394000   0.54674593   -3.8971467     2401.981  0.045554184  0.044463569            9 
 4395000   0.54413436   -3.9025749    2403.5181  0.045572964  0.044453101           11 
 4396000   0.54346528   -3.8837867      2403.25  0.045557514  0.044442656           16 
 4397000   0.55145679   -3.9024331    2403.3106  0.045548303  0.044432246            9 
 4398000    0.5503418   -3.9078131     2404.087  0.045552656  0.044421792            9 
 4399000    0.5572013   -3.8959976    2399.1283  0.045448365  0.044411301           18 
 4400000   0.54959608   -3.8879014    2408.1827   0.04560952  0.044400932           11 
 4401000   0.54845279   -3.9063829    2401.1895  0.045466741  0.044390487           13 
 4402000   0.53550137   -3.8927965    2403.1343  0.045493229  0.044380064           18 
 4403000   0.55226219   -3.8921225    2405.6831  0.045531136  0.044369706            9 
 4404000   0.54905277   -3.8783485    2406.1236  0.045529133  0.044359317           20 
 4405000   0.54966153   -3.8918742    2404.5275  0.045488602  0.044348897           24 
 4406000   0.53949799   -3.8800278     2406.609  0.045517647    0.0443385           12 
 4407000    0.5495586    -3.906863    2400.3005  0.045388029  0.044328074           10 
 4408000   0.54614696   -3.8874732    2402.9702  0.045428203  0.044317623           12 
 4409000   0.55412173   -3.9026501     2410.256  0.045555607  0.044307228            9 
 4410000   0.54247086   -3.9026104    2407.2445  0.045488369  0.044296853           14 
 4411000   0.52928363   -3.9015366    2406.5697  0.045465308  0.044286442           17 
 4412000   0.55338886   -3.9030117    2405.0134  0.045425608   0.04427599           11 
 4413000   0.54805619   -3.8992306    2403.9867  0.045395927  0.044265557            9 
 4414000    0.5576834   -3.8879474    2410.9776  0.045517626  0.044255216            6 
 4415000   0.55064917   -3.8865908    2407.1088  0.045434292  0.044244917           11 
 4416000   0.53728392   -3.8877027    2406.1156  0.045405261  0.044234546            6 
 4417000   0.54704092   -3.8893627    2408.7484  0.045444653  0.044224197           10 
 4418000   0.54754087   -3.8975318     2406.069  0.045383828  0.044213858           14 
 4419000   0.55915112   -3.8985783    2405.3311  0.045359643  0.044203466           16 
 4420000   0.54554513   -3.9053409    2405.0006  0.045343149  0.044193106            8 
 4421000   0.53721631   -3.8978653    2407.0917  0.045372307  0.044182775           10 
 4422000   0.53569783   -3.9070669    2400.5398  0.045238575  0.044172385           12 
 4423000    0.5483384   -3.8975386      2402.87  0.045272251  0.044161998           13 
 4424000   0.54434515   -3.8934095    2409.5297  0.045387464  0.044151679           17 
 4425000   0.54340003   -3.9200614    2408.2442  0.045352998  0.044141322           14 
 4426000   0.53948588   -3.8896183    2409.4825  0.045366065  0.044130945            9 
 4427000   0.53754076   -3.9120316     2413.194  0.045425684  0.044120543           12 
 4428000   0.54481478   -3.8866945    2413.8912  0.045428546   0.04411021            9 
 4429000   0.53482893   -3.9134873    2411.0268  0.045364394  0.044099876            6 
 4430000    0.5612329   -3.9074167    2404.1064  0.045223973  0.044089522           10 
 4431000   0.56515102   -3.9011289    2400.8507  0.045152536  0.044079149           18 
 4432000   0.54130227   -3.9079347    2410.2756  0.045319563  0.044068758            9 
 4433000   0.54526209   -3.9058328    2404.9953  0.045210079  0.044058417           11 
 4434000   0.53746816   -3.9034238    2406.1998  0.045222519  0.044047986           10 
 4435000   0.53948308   -3.8989208    2410.7746  0.045298282  0.044037672           18 
 4436000   0.53007429   -3.9030654    2408.3432  0.045242396  0.044027275           19 
 4437000   0.55727148   -3.9131938    2405.6898  0.045182365  0.044016929           10 
 4438000   0.54900165   -3.8988458    2411.7572  0.045286112  0.044006587            9 
 4439000   0.54534261   -3.9141896    2407.3361  0.045192914  0.043996231           24 
 4440000   0.56062667   -3.8955261    2405.1084  0.045140923   0.04398588            9 
 4441000   0.54770067   -3.9004726    2405.0491  0.045129646  0.043975535           15 
 4442000   0.54601164    -3.906556    2405.8006  0.045133584  0.043965167           17 
 4443000   0.54636535   -3.9033314    2398.9146  0.044994272  0.043954804           14 
 4444000   0.54270122   -3.9220248    2405.4524  0.045106744   0.04394444            9 
 4445000   0.53338576   -3.8939626    2401.7187  0.045026597  0.043934038           12 
 4446000   0.52938569   -3.9232554    2406.5482  0.045106991  0.043923627           12 
 4447000   0.54642694   -3.9059121    2406.0832  0.045088134  0.043913249           27 
 4448000   0.54073801   -3.8961541    2405.5728  0.045068436  0.043902874            8 
 4449000   0.52578485    -3.916266    2401.1105  0.044974723  0.043892513           14 
 4450000   0.53598897    -3.908775     2407.055  0.045075936   0.04388213           17 
 4451000   0.53904146   -3.9324715    2406.8982  0.045062873  0.043871708           17 
 4452000   0.54102376   -3.9122992    2403.0518  0.044980753  0.043861318            9 
 4453000   0.54280214   -3.8907342    2403.9062  0.044986641  0.043850937           10 
 4454000   0.53938218   -3.8899307    2414.2581  0.045170224   0.04384064            6 
 4455000   0.53370443   -3.9153976    2406.7951  0.045020485   0.04383032           27 
 4456000   0.54792042   -3.9210252    2409.5486  0.045061876   0.04381994           39 
 4457000   0.53584358   -3.9131799     2408.095  0.045024586   0.04380961           14 
 4458000   0.54430713   -3.9002682     2402.779  0.044915116  0.043799294           14 
 4459000    0.5337332   -3.9160074    2407.9786  0.045002217  0.043789006           11 
 4460000   0.54007167   -3.9121569    2405.8412  0.044952191  0.043778688           10 
 4461000   0.54355776    -3.916932    2408.3014  0.044988071  0.043768351           11 
 4462000    0.5425108   -3.9157336    2412.4876   0.04505617  0.043758025           13 
 4463000    0.5259212   -3.9370102    2410.9901  0.045018113  0.043747741           27 
 4464000   0.54195707   -3.9147393    2410.6757   0.04500216  0.043737461           17 
 4465000   0.53854505   -3.9218251    2412.0401  0.045017546  0.043727172           16 
 4466000   0.53746718   -3.9133829    2406.3352  0.044901015  0.043716893           13 
 4467000   0.54989668   -3.9056325    2408.9162  0.044939112  0.043706604            7 
 4468000   0.54497799   -3.8987729    2411.0727  0.044969275  0.043696366           10 
 4469000   0.53005257   -3.9057943    2411.4579  0.044966396  0.043686092           24 
 4470000   0.54195608   -3.9171283    2407.8557  0.044889182  0.043675807           17 
 4471000   0.53256859    -3.917828    2405.8914  0.044842529  0.043665528            7 
 4472000   0.53692919    -3.884172    2409.5623  0.044900907  0.043655263           15 
 4473000   0.53756163   -3.9126946    2409.4025  0.044887892  0.043645002           28 
 4474000   0.53241246   -3.9329694    2408.2576  0.044856534  0.043634692           26 
 4475000   0.53177869   -3.9022109    2409.8299  0.044875789   0.04362435           16 
 4476000    0.5357643   -3.9077269    2409.1373  0.044852869  0.043614095           34 
 4477000    0.5410412   -3.9148736    2411.3585  0.044884195  0.043603826           14 
 4478000   0.54599701   -3.9254334     2400.764  0.044677013  0.043593523           23 
 4479000   0.54104611   -3.9120592    2406.6126  0.044775854  0.043583214            8 
 4480000   0.54231768   -3.9067302    2403.2889  0.044704035  0.043572936           11 
 4481000   0.52536778   -3.9170336    2410.9307  0.044836173  0.043562627           26 
 4482000   0.53338365   -3.9230869    2408.2357  0.044776061  0.043552289           11 
 4483000   0.52804642   -3.9102498     2405.842  0.044721579  0.043542005            9 
 4484000   0.53331363   -3.9211857    2403.6878  0.044671569  0.043531699           11 
 4485000   0.53593217   -3.9118149     2410.072   0.04478023  0.043521378           10 
 4486000   0.52997277    -3.916808    2400.9948  0.044601627  0.043511069           18 
 4487000   0.53985188   -3.9052636    2414.1235  0.044835516  0.043500758           10 
 4488000   0.53703508    -3.919374    2410.5263  0.044758732  0.043490464            9 
 4489000   0.54167997   -3.9294856    2409.0448  0.044721259  0.043480145           10 
 4490000   0.54059187   -3.9356748    2400.6092  0.044554736  0.043469792           20 
 4491000   0.52233249    -3.919108    2402.9236  0.044587761  0.043459429           19 
 4492000   0.53178198   -3.9059586    2402.1042  0.044562634  0.043449124           10 
 4493000   0.51771174   -3.9393156    2403.4804   0.04457824  0.043438796           10 
 4494000   0.52300629   -3.9238509    2413.1384   0.04474741  0.043428481            8 
 4495000   0.52761595   -3.9312522    2405.9597   0.04460437  0.043418187           16 
 4496000   0.53836438   -3.9291426    2408.0684  0.044633534  0.043407902           36 
 4497000   0.54735441   -3.9353328    2406.3318  0.044591428  0.043397596           11 
 4498000   0.53715235   -3.9071894    2403.6052  0.044530999  0.043387337           18 
 4499000   0.53487311   -3.9289986    2415.1471  0.044734888  0.043377065           21 
 4500000   0.54049572   -3.9179388    2409.5035  0.044620434  0.043366827           10 
 4501000   0.53048574   -3.9235479    2402.7271   0.04448506  0.043356542            5 
 4502000   0.52545522   -3.9177844     2408.911  0.044589646  0.043346257           15 
 4503000   0.52845791    -3.925618    2410.0668  0.044601133  0.043335939           16 
 4504000   0.54013704   -3.9113451    2406.6607  0.044528209  0.043325658           10 
 4505000   0.53710411    -3.922343     2411.153  0.044601424  0.043315373           15 
 4506000   0.52570118   -3.9323139    2403.9899  0.044459052  0.043305098           12 
 4507000   0.52344245   -3.9081372    2412.3588  0.044603927  0.043294789           12 
 4508000    0.5289515   -3.9247759    2411.0842  0.044570471  0.043284553           11 
 4509000   0.53237805    -3.922416    2405.8511   0.04446387  0.043274313           13 
 4510000   0.52917266   -3.9238234    2416.3093  0.044647252  0.043264062           12 
 4511000   0.52806184   -3.9181458    2407.7441  0.044479127  0.043253809            6 
 4512000   0.53387303   -3.9124649    2406.9692  0.044454957  0.043243536           26 
 4513000   0.51760117   -3.9313905    2405.2517  0.044413393  0.043233224            8 
 4514000   0.52952165   -3.9302624    2405.7358  0.044412491   0.04322292            7 
 4515000   0.53223151   -3.9418796    2405.1923  0.044392623  0.043212601           15 
 4516000   0.53462923   -3.9347483    2405.3688   0.04438605  0.043202296           10 
 4517000   0.53978457   -3.9271945    2404.3163  0.044356806  0.043191986           22 
 4518000   0.51442659   -3.9243939    2406.3067  0.044383701  0.043181673           12 
 4519000   0.53292994   -3.9360654    2410.7891  0.044456537  0.043171389           17 
 4520000    0.5296761   -3.9206514     2409.569  0.044424207  0.043161156            6 
 4521000   0.53639068   -3.9269748    2408.0031  0.044385518  0.043150893           14 
 4522000   0.53162475   -3.9271943    2411.6976  0.044443787   0.04314067           12 
 4523000   0.52412683    -3.928618    2412.6192  0.044450939  0.043130424           14 
 4524000   0.52100144   -3.9264663    2415.5422  0.044494957  0.043120216           21 
 4525000   0.53110025   -3.9391079    2407.8692  0.044343816  0.043109959           10 
 4526000   0.52351612   -3.9309565    2406.2572  0.044304339  0.043099753            9 
 4527000   0.52195136   -3.9257716    2410.8013    0.0443782  0.043089535           13 
 4528000   0.53541269   -3.9339716    2409.8456   0.04435081  0.043079348            7 
 4529000   0.53068962    -3.914618    2410.2488  0.044348435  0.043069141           15 
 4530000   0.52170191   -3.9236453    2406.1656  0.044263532  0.043058901           12 
 4531000    0.5066746   -3.9228883    2407.9939  0.044287389  0.043048661           13 
 4532000   0.52445781   -3.9300093    2408.1086  0.044279726  0.043038384           15 
 4533000   0.54267629   -3.9336612    2406.2166  0.044235176  0.043028157           13 
 4534000   0.53711491    -3.915186    2404.8151   0.04419966  0.043017958           11 
 4535000    0.5266938   -3.9375198    2410.0605  0.044286301  0.043007785            6 
 4536000   0.53118463   -3.9328122    2412.5943  0.044323087  0.042997574           11 
 4537000   0.52685685   -3.9318879    2411.6566  0.044296095  0.042987378           19 
 4538000    0.5344217   -3.9250444    2408.8318   0.04423446  0.042977137           14 
 4539000   0.52687116   -3.9421168     2408.395  0.044216697  0.042966892           19 
 4540000   0.53110022   -3.9351759    2411.0024  0.044254816  0.042956648           48 
 4541000   0.50306085   -3.9340887    2416.4527  0.044345091  0.042946418            8 
 4542000   0.51316453   -3.9372531    2409.3582  0.044205163  0.042936202           10 
 4543000     0.517745   -3.9435585    2409.2365    0.0441932  0.042925969           13 
 4544000   0.53170347   -3.9467168     2409.315  0.044184913  0.042915721           11 
 4545000   0.53505482   -3.9371966    2399.8231  0.044001158  0.042905462            7 
 4546000   0.52600817   -3.9413314    2407.5333  0.044132815  0.042895248           15 
 4547000   0.51848961   -3.9359956    2403.8742  0.044056048   0.04288505           12 
 4548000   0.52361239   -3.9359521    2413.8947  0.044229967  0.042874856            7 
 4549000   0.52372206   -3.9334594    2413.0545  0.044204853  0.042864659            8 
 4550000   0.53293983   -3.9390886    2406.1572  0.044068813  0.042854446           10 
 4551000   0.51297933   -3.9385563     2407.929  0.044091574  0.042844229           11 
 4552000   0.53363952   -3.9262318    2407.7285  0.044078217  0.042834027            8 
 4553000   0.52388135   -3.9350653    2407.3292  0.044061228  0.042823804           11 
 4554000   0.52419925   -3.9205197    2405.6751  0.044021283  0.042813585            6 
 4555000   0.53656563   -3.9496659    2405.7645  0.044013255  0.042803404           12 
 4556000   0.52397648   -3.9285475    2410.4841  0.044089921  0.042793217           28 
 4557000   0.52335523    -3.922467    2407.3038  0.044022087  0.042783026           11 
 4558000   0.52849495   -3.9525011    2409.9131  0.044060133  0.042772805           11 
 4559000   0.53002367   -3.9431795    2409.4307  0.044041651  0.042762639           13 
 4560000   0.51779698   -3.9500206    2402.8927  0.043912512  0.042752491           12 
 4561000   0.52723738   -3.9305843    2408.0877  0.043997802  0.042742344           17 
 4562000   0.52284484   -3.9470026    2414.0114  0.044096365  0.042732178           24 
 4563000   0.51375227   -3.9508742    2408.0461  0.043977758  0.042722007            6 
 4564000   0.53537516   -3.9270796    2413.1381  0.044061095  0.042711834           13 
 4565000   0.52247184    -3.938911    2413.4677   0.04405746  0.042701673           11 
 4566000   0.51976637   -3.9423073    2406.8736  0.043927464  0.042691486           18 
 4567000    0.5115656    -3.922543    2412.5256  0.044020976  0.042681319           34 
 4568000   0.51252523   -3.9294817    2410.7555  0.043979048   0.04267119           20 
 4569000   0.51889874   -3.9466919    2408.7977  0.043933715  0.042661049           13 
 4570000   0.52222923   -3.9146839    2413.6436  0.044012466  0.042650914           11 
 4571000   0.52840894   -3.9405711     2415.747  0.044041184  0.042640828           16 
 4572000   0.51717684   -3.9477299    2405.7401  0.043849157  0.042630654           22 
 4573000   0.51404488   -3.9429864    2418.7433  0.044076524  0.042620525           16 
 4574000   0.52484994   -3.9461236    2405.5719  0.043826918  0.042610364           17 
 4575000   0.52119032   -3.9455992    2415.8202  0.044004012  0.042600268            9 
 4576000   0.52458542   -3.9531388     2412.133  0.043927247  0.042590185           20 
 4577000   0.52516777   -3.9330893    2412.7808  0.043929445  0.042580092           15 
 4578000   0.51841553   -3.9460493    2410.0687   0.04387048  0.042569992            7 
 4579000   0.52265031   -3.9234687     2408.585  0.043833897  0.042559871           16 
 4580000   0.52045724   -3.9452409    2407.7582  0.043809283  0.042549747           16 
 4581000   0.52344484   -3.9482636    2407.4408  0.043793946  0.042539599            6 
 4582000    0.5147981    -3.952534    2407.6356  0.043787931  0.042529497           10 
 4583000   0.52297091    -3.955094    2410.6761  0.043833663   0.04251937           31 
 4584000   0.51260153   -3.9423185    2412.7831  0.043862405  0.042509256           30 
 4585000   0.50827084   -3.9520068     2409.549  0.043794057   0.04249912           36 
 4586000    0.5242835   -3.9271417    2411.8094  0.043825581  0.042489017           13 
 4587000   0.52570503    -3.950073    2404.3083  0.043679753  0.042478898           22 
 4588000    0.5238462   -3.9581274    2410.7572  0.043787366  0.042468816            9 
 4589000   0.50461736   -3.9385026    2413.6311  0.043830012  0.042458717            9 
 4590000   0.51161718    -3.953804    2410.4907  0.043763448  0.042448657           15 
 4591000   0.50663668   -3.9432827    2407.7055   0.04370336  0.042438567            8 
 4592000   0.50887736   -3.9443088    2410.9556  0.043752823  0.042428504           15 
 4593000   0.51756345   -3.9449784    2411.8761  0.043759999  0.042418431           20 
 4594000    0.5115916   -3.9527708    2410.3367  0.043722549  0.042408342           13 
 4595000   0.50993003   -3.9422105    2417.0187  0.043834216    0.0423983           32 
 4596000   0.51448297   -3.9540702    2413.6404  0.043763424  0.042388242           36 
 4597000   0.51021643   -3.9571523    2407.9184  0.043650177  0.042378184           24 
 4598000   0.50011386   -3.9435763    2409.8163  0.043675082  0.042368087           12 
 4599000   0.50673548    -3.949709    2416.2878  0.043782847  0.042358062           28 
 4600000   0.51789127   -3.9610707    2413.3552  0.043720204  0.042348007            9 
 4601000    0.5255284   -3.9671347    2418.9186  0.043811465  0.042337919           11 
 4602000   0.51599168   -3.9582762    2408.8269  0.043619203  0.042327842           16 
 4603000   0.51185882   -3.9664366    2407.0414  0.043577403  0.042317718           12 
 4604000   0.51368146   -3.9515863    2415.5425  0.043721809  0.042307613            7 
 4605000   0.50734776   -3.9760851    2413.4299  0.043674084  0.042297589           11 
 4606000   0.50978356   -3.9458222    2419.9216  0.043782052  0.042287575           22 
 4607000    0.5025778   -3.9477081    2419.0862  0.043757437  0.042277583            8 
 4608000   0.51100851    -3.943451    2418.2925  0.043733589  0.042267619           14 
 4609000   0.51938813   -3.9575556    2413.7763  0.043642444  0.042257624            7 
 4610000   0.50995046   -3.9500075    2418.2402   0.04371367  0.042247614           16 
 4611000   0.50834632   -3.9537935    2416.2333  0.043667919  0.042237562           11 
 4612000   0.51100137   -3.9764371    2416.0319  0.043654812  0.042227487           17 
 4613000   0.52299003   -3.9507335    2414.1631  0.043611589    0.0422175            5 
 4614000   0.51444812   -3.9616684    2411.8223  0.043559859  0.042207522            8 
 4615000    0.5135515   -3.9628098    2412.8975  0.043569835  0.042197549           20 
 4616000   0.51154627   -3.9584077    2408.0696  0.043473238  0.042187523           13 
 4617000   0.50811003    -3.974363    2409.2729   0.04348554  0.042177481           18 
 4618000   0.50700915   -3.9454246    2417.3682  0.043622206  0.042167461           12 
 4619000   0.51675077    -3.959142    2411.4743  0.043506427  0.042157483            7 
 4620000   0.51575163   -3.9654672    2413.3847   0.04353147  0.042147479           13 
 4621000   0.51054374   -3.9651416    2409.3542  0.043449366  0.042137472           14 
 4622000   0.51646781   -3.9734942    2414.9556  0.043540957  0.042127457           14 
 4623000   0.50344637   -3.9528064    2413.7541   0.04350988  0.042117425           18 
 4624000   0.51161561   -3.9543296    2419.8374  0.043610103  0.042107457           12 
 4625000   0.51999762   -3.9730791    2419.3662  0.043592184  0.042097491           37 
 4626000   0.50388469   -3.9501975    2412.4518  0.043458203  0.042087488            8 
 4627000   0.51498494   -3.9681821    2413.1611  0.043461587  0.042077481            8 
 4628000   0.51424084   -3.9755485    2415.0361  0.043485957   0.04206751           21 
 4629000   0.51159752   -3.9598734    2413.0308  0.043440463  0.042057508           15 
 4630000   0.51433771   -3.9555118    2411.8701  0.043410188  0.042047524           13 
 4631000    0.5034841   -3.9621705    2413.1764  0.043424322  0.042037553           11 
 4632000   0.51218778   -3.9591123    2416.5781  0.043476145  0.042027602           21 
 4633000   0.50316317   -3.9681234    2410.4878  0.043357216  0.042017624           31 
 4634000   0.50953317   -3.9649112    2410.6962  0.043351607  0.042007647           11 
 4635000   0.50642635   -3.9674741    2414.4817  0.043410314  0.041997692           18 
 4636000   0.50006433   -3.9496611    2409.0701  0.043303676  0.041987739           16 
 4637000   0.50745522   -3.9602348    2417.5122  0.043446053   0.04197776           14 
 4638000   0.51143125   -3.9675037    2407.7935  0.043262065  0.041967753           19 
 4639000   0.52352761   -3.9718158    2413.6676   0.04335826  0.041957743           18 
 4640000   0.50836689    -3.959992    2410.1647  0.043286004  0.041947767           32 
 4641000   0.50685436   -3.9609094    2411.7491  0.043305126  0.041937722           18 
 4642000   0.51624623   -3.9795809    2411.9426  0.043299271  0.041927757            9 
 4643000   0.51158778   -3.9724306    2410.9572   0.04327226  0.041917746           20 
 4644000   0.50891297   -3.9608753    2414.2642  0.043322284  0.041907774           11 
 4645000   0.51012657   -3.9698059    2412.2652  0.043277093   0.04189779           15 
 4646000   0.50970559   -3.9490007     2411.081  0.043246539  0.041887857           10 
 4647000   0.50704625    -3.963894    2410.4807  0.043226466  0.041877912           24 
 4648000   0.49888189   -3.9805623    2411.9745  0.043243948  0.041867958           14 
 4649000    0.5038847   -3.9641169    2413.4816  0.043261662  0.041857997            4 
 4650000   0.50387114    -3.981086    2418.1019  0.043335159  0.041848073           16 
 4651000   0.51182497   -3.9778311     2417.152  0.043308822  0.041838146           23 
 4652000   0.51904623   -3.9861618    2414.6745  0.043255133  0.041828169            9 
 4653000   0.49984438   -3.9680144    2415.5467  0.043261458   0.04181824           14 
 4654000   0.51068199   -3.9749827    2414.7428  0.043237767   0.04180827           56 
 4655000   0.51445635   -3.9692527    2420.1884  0.043325965  0.041798323           20 
 4656000   0.51229681   -3.9811972    2413.6131  0.043198975  0.041788344           16 
 4657000   0.51229042   -3.9662924    2410.7335  0.043138169  0.041778367           13 
 4658000   0.50755126   -3.9766974    2411.8946  0.043149681  0.041768383           16 
 4659000   0.52330237   -3.9812256    2417.7673  0.043245463   0.04175846           56 
 4660000   0.50355645   -3.9741203    2409.6199  0.043090485  0.041748492           12 
 4661000   0.51040624   -3.9782871    2408.6716  0.043064285  0.041738489           15 
 4662000   0.51580617   -3.9805346    2415.2801  0.043173176   0.04172852           29 
 4663000   0.50955408    -3.971679     2414.459  0.043149243  0.041718565           64 
 4664000   0.51149584   -3.9849632    2416.2984  0.043172856  0.041708641           25 
 4665000   0.51967685   -3.9845999     2414.597  0.043133209  0.041698738           13 
 4666000   0.49096555   -3.9662812    2413.2607  0.043100099  0.041688781           16 
 4667000   0.50732568   -3.9538653    2414.0786  0.043105467  0.041678847           10 
 4668000   0.51204394   -3.9808553    2412.7694  0.043072861  0.041668929            7 
 4669000   0.50606293    -3.971414     2420.774  0.043206504  0.041659008           23 
 4670000   0.50543485   -3.9782495    2417.1246  0.043132131  0.041649089           16 
 4671000   0.49918742   -3.9536414    2415.9867  0.043102596   0.04163915           16 
 4672000   0.50318579   -3.9700441    2427.4148  0.043297211  0.041629269           13 
 4673000   0.49722776   -3.9880974    2417.2343  0.043106397  0.041619356           20 
 4674000    0.5035718   -3.9768326    2416.5912  0.043085708  0.041609437           10 
 4675000    0.4982728   -3.9867408    2422.3227  0.043178658  0.041599555           17 
 4676000   0.50186544   -3.9843398    2416.1911  0.043060149  0.041589659           32 
 4677000   0.51157982    -3.976406    2415.2804  0.043034716  0.041579791            7 
 4678000   0.49160036   -3.9778812    2417.9858   0.04307371  0.041569875           12 
 4679000   0.48886162   -3.9714782    2414.8364  0.043008413  0.041559996           16 
 4680000   0.51351316   -3.9712219    2415.3391  0.043008174  0.041550099           10 
 4681000   0.50597278   -3.9760567    2418.6248   0.04305748  0.041540216           23 
 4682000   0.49720483   -3.9883836    2416.4268  0.043009163   0.04153033           22 
 4683000   0.48953827   -3.9798263    2415.3233  0.042980342  0.041520446           12 
 4684000   0.50556406   -3.9728835    2411.4305  0.042901909  0.041510541           12 
 4685000   0.50221179   -3.9836944    2415.9587  0.042973297   0.04150065           11 
 4686000   0.50565137   -3.9744974    2414.3991  0.042936391  0.041490754            8 
 4687000   0.50204421   -3.9769413    2417.4056  0.042980684  0.041480868            8 
 4688000   0.48736457   -3.9806741    2415.1847  0.042932037  0.041470969            9 
 4689000   0.50538478   -3.9804307    2419.1381  0.042993142  0.041461118           28 
 4690000    0.4993315   -3.9715232    2421.1861  0.043020365  0.041451278           17 
 4691000   0.50573991   -3.9809028    2418.1227  0.042956773  0.041441467           18 
 4692000   0.51056988   -3.9722933    2419.5687    0.0429733  0.041431641           10 
 4693000   0.51391623   -3.9706539    2422.0783  0.043008705  0.041421835            7 
 4694000   0.50443201   -3.9964228     2418.007  0.042927266  0.041412028           11 
 4695000   0.49960192   -3.9793357    2416.1441  0.042885056  0.041402182           11 
 4696000   0.50686051   -3.9720457    2420.0593  0.042945403  0.041392337           17 
 4697000   0.49075423   -3.9725723    2418.0851  0.042901233  0.041382452           21 
 4698000   0.50297895   -3.9868622    2421.8895  0.042959584  0.041372641           12 
 4699000   0.50667945   -3.9977066    2419.2531  0.042903687  0.041362809           17 
 4700000   0.49633408    -3.978959     2427.831  0.043046649  0.041352983            9 
 4701000   0.50501437   -3.9883942    2418.6479  0.042874706  0.041343169           15 
 4702000   0.50971585   -3.9909847    2414.6525  0.042794777  0.041333366           13 
 4703000   0.50502786   -3.9940183    2413.0946  0.042758072  0.041323572           10 
 4704000   0.49296134    -3.974123    2421.7395  0.042902131  0.041313786           10 
 4705000   0.50693923   -4.0028742     2411.607  0.042713549  0.041303984           20 
 4706000   0.49410589   -3.9741663    2419.5183  0.042844566  0.041294202           46 
 4707000   0.50822035   -3.9923406    2414.8243   0.04275236  0.041284402           25 
 4708000   0.50205379   -4.0051291    2419.9747  0.042834443  0.041274583           17 
 4709000   0.49615941   -3.9892155      2420.08   0.04282721  0.041264767           15 
 4710000   0.49438011   -3.9993754    2417.5931  0.042774117  0.041254931           25 
 4711000   0.50324635   -3.9843118     2418.834  0.042786988  0.041245114           18 
 4712000   0.49950994   -3.9993011    2420.3038  0.042803901  0.041235291           22 
 4713000   0.48537435   -3.9884127    2420.8052  0.042803686  0.041225523           19 
 4714000    0.4998493   -4.0039587    2425.5653  0.042878753  0.041215755           18 
 4715000   0.49548015   -3.9765477    2417.2614  0.042722896  0.041205989           25 
 4716000   0.48854764   -3.9776108    2417.6059  0.042719923  0.041196231            6 
 4717000   0.49330715   -3.9873828    2416.8403  0.042697341  0.041186479            9 
 4718000   0.49324748   -3.9897601    2423.4362  0.042804793  0.041176706           35 
 4719000   0.50044161   -3.9878748    2425.1323  0.042825675   0.04116694            8 
 4720000   0.49593078   -3.9805728     2417.865  0.042688294  0.041157201           20 
 4721000   0.50045336   -3.9781145    2423.7149  0.042782512  0.041147434           11 
 4722000   0.48976267   -3.9880094    2423.4057  0.042767996  0.041137703           19 
 4723000   0.49271412   -3.9805822    2424.5209  0.042778617  0.041127939           32 
 4724000   0.50326697   -3.9877157    2421.0185  0.042707777  0.041118225            7 
 4725000   0.49478441   -3.9876499    2419.2757  0.042668002  0.041108528           10 
 4726000   0.48494467   -3.9910689    2417.1744  0.042621921  0.041098809            6 
 4727000   0.48373277   -3.9846316    2414.6549  0.042568488  0.041089067            8 
 4728000   0.49413629   -4.0121957    2420.8942  0.042669455  0.041079329           15 
 4729000   0.50456915   -3.9842926    2420.1236  0.042646853  0.041069598           27 
 4730000   0.49150131   -4.0051972    2420.5424  0.042645214  0.041059873           13 
 4731000    0.5013361   -4.0070715    2422.5592  0.042671726  0.041050163           16 
 4732000    0.4865573   -3.9858247    2429.0045  0.042776214  0.041040436           14 
 4733000   0.49903683   -4.0011369    2419.7974  0.042605067  0.041030723            9 
 4734000   0.49050212   -4.0102232    2421.4067  0.042624396  0.041021033           10 
 4735000   0.49092063   -4.0001895    2420.9905  0.042608069  0.041011334           13 
 4736000   0.48333074   -3.9755057    2420.1688  0.042584614  0.041001639           13 
 4737000   0.49769079   -4.0048176    2417.8819  0.042535393  0.040991942           11 
 4738000   0.49419262   -4.0111598    2420.4619  0.042571793  0.040982218           29 
 4739000   0.49614285   -3.9920558    2420.8101  0.042568934   0.04097248           13 
 4740000   0.48089938   -4.0036784    2417.9171   0.04250909  0.040962763           16 
 4741000    0.5022145   -3.9801154    2420.2084    0.0425404  0.040953023            9 
 4742000   0.48156859   -3.9854666    2417.4916  0.042483685  0.040943334           32 
 4743000   0.49537177    -4.004116    2414.7587  0.042426711   0.04093361           11 
 4744000   0.49318878   -4.0132338    2417.4352  0.042464784  0.040923847            8 
 4745000   0.49842155   -3.9762763    2426.5703  0.042616268  0.040914131           24 
 4746000   0.49263391   -3.9869369    2421.6726  0.042521292  0.040904423           19 
 4747000   0.49884304   -3.9881124    2415.9523  0.042411914  0.040894693           14 
 4748000   0.50011022   -3.9992931    2419.9806  0.042473683  0.040884987           24 
 4749000   0.49374543   -4.0134858    2421.8482  0.042497512  0.040875281           20 
 4750000   0.49054066   -3.9846519    2423.9884  0.042526113  0.040865605           15 
 4751000   0.49918261   -4.0007735    2425.2131  0.042538642   0.04085596           17 
 4752000   0.48892267   -3.9736132    2417.3617  0.042392005  0.040846304           14 
 4753000   0.49541776   -3.9925149    2417.2771  0.042381602  0.040836623           19 
 4754000   0.49542264   -4.0005907    2423.8525  0.042487948  0.040826925           13 
 4755000    0.4859822   -4.0182589    2418.3758  0.042383031  0.040817227           17 
 4756000   0.48147754   -4.0226191    2416.0693  0.042333707  0.040807519           26 
 4757000   0.48983857    -4.010297    2419.3037  0.042381467  0.040797817           38 
 4758000   0.48447232   -4.0054117    2415.8921  0.042312809  0.040788137           19 
 4759000   0.49637617   -4.0081468    2415.0734   0.04228958  0.040778439           12 
 4760000   0.49152534   -4.0036364    2418.4205  0.042339295  0.040768774           14 
 4761000   0.48800513   -4.0096146    2418.7215   0.04233567  0.040759063           17 
 4762000   0.49340246   -4.0142402     2421.341   0.04237262  0.040749364           29 
 4763000   0.48869059    -3.987668    2417.8286  0.042302271    0.0407397           25 
 4764000   0.49288537   -3.9861695    2417.0747  0.042280204  0.040730017           38 
 4765000   0.48834221   -3.9916309    2421.6936   0.04235211  0.040720303           29 
 4766000   0.48361574   -4.0028073    2419.3942  0.042303019  0.040710605           26 
 4767000   0.48110801   -4.0079664    2417.0175  0.042252596    0.0407009           13 
 4768000   0.49464686   -4.0055766    2415.3466   0.04221453  0.040691171           10 
 4769000   0.50765743   -4.0161605    2419.0655  0.042270663  0.040681463            9 
 4770000   0.49075826   -4.0155253    2422.7446  0.042326076  0.040671794           13 
 4771000   0.49708279   -4.0149581    2418.6818   0.04224624  0.040662108           22 
 4772000   0.48971018   -4.0258843    2423.6236  0.042323688  0.040652413           21 
 4773000   0.49057671   -4.0072402    2418.4499   0.04222449  0.040642746           34 
 4774000   0.49395716   -3.9989183    2419.3306  0.042231018   0.04063311           13 
 4775000   0.48757495    -4.000356     2421.089  0.042252863  0.040623458           22 
 4776000   0.49235651   -4.0060856    2422.4947  0.042268542  0.040613822           12 
 4777000   0.48829816   -4.0110023    2418.8572  0.042196239  0.040604186            9 
 4778000   0.50216133   -4.0124117     2418.807  0.042186533  0.040594534           16 
 4779000   0.49230131   -4.0170933    2416.4393  0.042136418   0.04058489           20 
 4780000   0.48292884   -4.0156495    2418.6606  0.042166328  0.040575229           39 
 4781000   0.48741585   -4.0077036    2419.6601  0.042174931   0.04056557           19 
 4782000   0.49030264   -4.0093118    2421.3272  0.042195163  0.040555931           17 
 4783000   0.48356995   -3.9937985    2419.0494  0.042146655    0.0405463           36 
 4784000   0.47832616   -4.0118932    2416.6479  0.042096012  0.040536623           43 
 4785000   0.48874676   -4.0142791    2427.0679  0.042268686  0.040526953           19 
 4786000   0.47637735   -4.0251205    2420.6371  0.042147882  0.040517286           42 
 4787000    0.4796903   -4.0401174    2416.4604  0.042066367  0.040507581           57 
 4788000   0.48418983   -4.0144321    2419.7145  0.042114219  0.040497904           80 
 4789000   0.47481928   -4.0175502    2418.2616  0.042080142  0.040488244           46 
 4790000   0.48837929   -4.0272694    2418.6628  0.042078337  0.040478577           29 
 4791000   0.49193718   -3.9940966    2421.0818  0.042111629  0.040468946           18 
 4792000   0.47501028   -4.0153301    2422.0278  0.042119292  0.040459314           20 
 4793000   0.48151956   -4.0090059    2419.2378  0.042061997  0.040449699           16 
 4794000   0.48006215   -4.0116034    2423.5673  0.042128482  0.040440081           29 
 4795000   0.48626915   -4.0084808    2424.8332  0.042141695   0.04043048           27 
 4796000    0.4714402   -4.0061189    2428.5921  0.042198223  0.040420917           21 
 4797000   0.47747799   -4.0055818    2422.5385  0.042084262  0.040411324           26 
 4798000   0.49524313   -4.0011725    2420.7094  0.042043723  0.040401731           42 
 4799000   0.48878494   -3.9998823    2424.3466  0.042098121  0.040392156           30 
 4800000   0.48659968    -4.014804    2421.3248  0.042036889  0.040382559           12 
 4801000   0.48800434   -4.0240512    2418.2025  0.041973938  0.040372913           16 
 4802000   0.47631372   -4.0227815    2422.7825  0.042044678  0.040363303           11 
 4803000   0.47803807   -4.0061679    2418.7317  0.041965641  0.040353686            9 
 4804000   0.47724552   -4.0258982    2422.0673  0.042014767  0.040344107           18 
 4805000   0.49414428   -4.0302567    2427.1416  0.042094027  0.040334533           12 
 4806000   0.49265713   -4.0340904    2421.9812   0.04199579  0.040324975           17 
 4807000   0.47909092    -4.013834    2421.1579  0.041972781  0.040315382           22 
 4808000   0.48520597   -4.0170682    2423.8154  0.042010112  0.040305807           25 
 4809000   0.47069404   -4.0282708    2416.9775  0.041882885  0.040296199           43 
 4810000   0.48757288   -4.0138288    2421.5822  0.041953954  0.040286576           34 
 4811000   0.48110805   -4.0149804    2416.0548  0.041849491  0.040276952           45 
 4812000   0.47523196   -4.0279241    2417.8402  0.041871712  0.040267336           55 
 4813000   0.48397479   -4.0115012    2414.6318  0.041807463  0.040257745           18 
 4814000   0.49162455     -4.01141     2421.379  0.041915575  0.040248131            8 
 4815000   0.48445693   -4.0248414    2418.6542  0.041859714  0.040238524           23 
 4816000    0.4904181   -4.0134135    2418.3786  0.041846251  0.040228928           23 
 4817000   0.48187516   -4.0139428    2417.4396  0.041821321  0.040219321           22 
 4818000   0.48589951   -4.0184286    2418.6151  0.041832972  0.040209755           20 
 4819000   0.48650226   -4.0267081    2423.7624  0.041913301  0.040200172           19 
 4820000   0.47951437   -4.0198876    2421.2024  0.041860346  0.040190582           24 
 4821000   0.46809794    -4.017302    2424.2014  0.041903502  0.040181022           39 
 4822000   0.48823539   -4.0144072    2427.0018  0.041943207  0.040171487           47 
 4823000   0.47480593   -4.0170771    2421.9004  0.041846369  0.040161903           14 
 4824000   0.48661755   -4.0291962     2424.105  0.041875777  0.040152351           27 
 4825000   0.47577044    -4.033784    2424.8842  0.041880556  0.040142808           19 
 4826000   0.48122107   -4.0279232    2423.8974  0.041854839   0.04013324            9 
 4827000   0.48736987   -4.0243907    2420.0207   0.04177924  0.040123667           28 
 4828000   0.48281966   -4.0078214    2424.3419  0.041845173  0.040114139           28 
 4829000   0.48260324   -4.0148557    2426.8018  0.041878958  0.040104637           21 
 4830000   0.47248017   -4.0176938    2418.3476  0.041724424  0.040095119           48 
 4831000   0.47749632   -4.0300298    2421.7121  0.041773824  0.040085617           22 
 4832000   0.47909098   -4.0304776    2422.2576  0.041774586  0.040076106           14 
 4833000   0.46978016   -4.0266805    2426.7901  0.041844094  0.040066614           11 
 4834000   0.48301432   -4.0173526    2424.4156  0.041794504  0.040057101           24 
 4835000   0.47978768   -4.0137233      2424.92  0.041794554  0.040047594           48 
 4836000   0.47690844   -4.0205452    2421.0546  0.041719303  0.040038077           38 
 4837000   0.48082401   -4.0328084    2420.9214  0.041708384  0.040028508           76 
 4838000   0.47496549   -4.0396529    2425.4824  0.041778324  0.040018955           54 
 4839000   0.47163867   -4.0317664    2426.1629  0.041781409  0.040009435           61 
 4840000   0.48210618   -4.0339521     2422.472  0.041709229   0.03999992           62 
 4841000   0.47304714   -4.0197518    2421.8008  0.041689059  0.039990413           84 
 4842000   0.47572096   -4.0202688    2426.3516  0.041758771    0.0399809           48 
 4843000   0.47383487   -4.0293398    2423.3126  0.041697856  0.039971392           45 
 4844000   0.48403501   -4.0192294    2422.0595  0.041667691   0.03996188           25 
 4845000   0.48049247   -4.0069595    2426.9705  0.041743559  0.039952394            9 
 4846000   0.47155431   -4.0163793    2426.0377  0.041718904  0.039942957            7 
 4847000    0.4687634   -4.0113957    2424.0454  0.041676044  0.039933501           15 
 4848000   0.47147493   -4.0256195    2425.1991  0.041687277  0.039924037           15 
 4849000   0.48268783   -4.0299892    2429.0144  0.041744249   0.03991458           19 
 4850000   0.47444708   -4.0292135    2423.6394  0.041643288  0.039905099           10 
 4851000   0.48296332   -4.0363903    2421.0542  0.041590295  0.039895599           16 
 4852000   0.46186986   -4.0311112    2426.8123  0.041680618  0.039886111           36 
 4853000   0.48499046   -4.0340147    2420.6583  0.041566356  0.039876595           43 
 4854000   0.47729131   -4.0428229    2417.6077   0.04150542  0.039867091           18 
 4855000   0.46961914   -4.0497404    2422.9014  0.041587734  0.039857592           27 
 4856000   0.47373672   -4.0396726    2427.1677  0.041652384  0.039848127           28 
 4857000   0.47098911   -4.0165134    2419.9829  0.041520536  0.039838607           17 
 4858000   0.46910096   -4.0309432    2421.0212  0.041529799  0.039829121           18 
 4859000   0.47489054   -4.0376439    2419.9063  0.041502132  0.039819625           25 
 4860000   0.47454479    -4.059698    2423.8018  0.041560387  0.039810118           36 
 4861000   0.47519248    -4.030173    2423.9145  0.041553769   0.03980061           36 
 4862000   0.47665332   -4.0488678    2421.1534  0.041497899  0.039791091           43 
 4863000    0.4684367   -4.0406897    2423.2986  0.041526125  0.039781615           42 
 4864000   0.47697811     -4.03631    2420.6553  0.041472301  0.039772138           45 
 4865000   0.46621734    -4.026627    2420.6168  0.041463118  0.039762637           82 
 4866000   0.47756936   -4.0375011    2422.6858  0.041490029  0.039753144           61 
 4867000   0.46404448   -4.0443287    2427.8954  0.041570705  0.039743625           71 
 4868000   0.46862983   -4.0426462    2420.7627  0.041440063  0.039734138          117 
 4869000   0.47080596   -4.0356332    2419.4438  0.041408979  0.039724658           83 
 4870000    0.4786574   -4.0260807    2426.2009    0.0415161  0.039715204           98 
 4871000   0.46838351   -4.0379194    2423.8958  0.041468142  0.039705772           38 
 4872000   0.47359693   -4.0396789    2421.8072  0.041423906  0.039696348           76 
 4873000   0.46216743    -4.024686    2427.5037   0.04151282  0.039686908           38 
 4874000   0.45445618   -4.0415166     2421.152  0.041395705  0.039677469           42 
 4875000   0.45883005   -4.0350396    2427.0745  0.041488453  0.039667975           30 
 4876000   0.47198411    -4.032055    2420.0246  0.041359458  0.039658531           57 
 4877000   0.47556959   -4.0233398    2423.4335  0.041409224  0.039649096           56 
 4878000   0.46791883   -4.0386941    2421.6807  0.041370791  0.039639651           50 
 4879000   0.46424797   -4.0469193    2422.3863  0.041374365  0.039630177           34 
 4880000   0.47702914   -4.0552333    2421.3965  0.041348984  0.039620736           31 
 4881000   0.47058986   -4.0308611    2422.2293  0.041354731  0.039611288           17 
 4882000   0.47794679   -4.0466939    2423.0576  0.041360399  0.039601854           13 
 4883000   0.46416654   -4.0399554    2419.6196  0.041293255  0.039592429            9 
 4884000   0.46408241   -4.0414663    2424.7593  0.041372497  0.039583005           14 
 4885000   0.47635736   -4.0446742    2424.8283  0.041365205  0.039573592            7 
 4886000   0.46213749   -4.0473033    2420.8446  0.041288795  0.039564149           51 
 4887000   0.46910632   -4.0516097    2421.0688   0.04128417  0.039554693           90 
 4888000    0.4718929   -4.0549907    2420.4811  0.041265704   0.03954526           42 
 4889000   0.46437291   -4.0411557    2419.3514  0.041238008  0.039535813           23 
 4890000   0.46762521   -4.0385168    2422.5926  0.041284809   0.03952637           38 
 4891000   0.47313942   -4.0540707    2424.1768  0.041303361   0.03951694           44 
 4892000   0.46786125   -4.0463814    2420.7278  0.041236165  0.039507521           36 
 4893000   0.46860005   -4.0451694    2423.6011  0.041276673  0.039498082           35 
 4894000   0.47276299   -4.0360378     2424.073  0.041276274  0.039488646           11 
 4895000   0.47246914   -4.0458434    2423.9228  0.041265284  0.039479189           60 
 4896000   0.47377895    -4.047219    2418.4196  0.041163188  0.039469737           52 
 4897000    0.4674055   -4.0397142    2418.1388  0.041150004  0.039460328           47 
 4898000   0.47560769   -4.0561898    2422.2276  0.041211169  0.039450843           59 
 4899000   0.46806307   -4.0388379    2420.7495  0.041177612  0.039441362           50 
 4900000   0.46642501   -4.0385288    2418.8601  0.041137077  0.039431904           39 
 4901000    0.4687989   -4.0505625    2421.8297  0.041179176  0.039422437           15 
 4902000   0.46560212   -4.0443571    2421.6022  0.041166908  0.039413024           42 
 4903000    0.4656558   -4.0256864    2415.0639  0.041047384  0.039403627           22 
 4904000   0.46610055   -4.0367331    2422.6136  0.041167306  0.039394225           25 
 4905000   0.46071895   -4.0393971    2425.1163  0.041201432  0.039384843           51 
 4906000   0.46999721   -4.0308231    2430.5729   0.04128572  0.039375443           24 
 4907000   0.47255422    -4.036107    2421.5725  0.041124456  0.039366089           25 
 4908000   0.46818777    -4.040728    2421.3324     0.041112  0.039356718           15 
 4909000   0.47063809   -4.0393622    2425.4536  0.041173585   0.03934734           37 
 4910000   0.47325748   -4.0445814    2417.0152  0.041021983  0.039337962           28 
 4911000   0.46224564   -4.0444361     2423.564  0.041124753  0.039328522           13 
 4912000   0.46940332   -4.0595639    2423.4704  0.041114793  0.039319096           29 
 4913000   0.46617331   -4.0401583    2418.7474  0.041026315  0.039309672           22 
 4914000   0.46772827    -4.050774    2423.0078  0.041090214  0.039300266           21 
 4915000   0.45988253   -4.0429683    2425.9362  0.041131505  0.039290888           24 
 4916000   0.45613584   -4.0473029    2423.3295  0.041078952  0.039281508           18 
 4917000   0.46744469   -4.0546933    2422.5142  0.041056779  0.039272103           24 
 4918000   0.47170787   -4.0388753    2421.1237  0.041024869   0.03926271           32 
 4919000   0.46571361   -4.0412148    2421.4579  0.041022192  0.039253356           26 
 4920000   0.46239361   -4.0326211    2423.2345  0.041043945  0.039244004           27 
 4921000   0.47080348   -4.0612002    2424.6592  0.041059731  0.039234679           21 
 4922000   0.45392929   -4.0590838    2424.0732  0.041041466  0.039225337           30 
 4923000   0.47366042   -4.0793573    2421.3493  0.040987022  0.039215921           27 
 4924000   0.47857412   -4.0715296    2423.6759  0.041018073  0.039206519           15 
 4925000   0.46991536   -4.0526315    2422.4393   0.04098882   0.03919708           12 
 4926000   0.46111969   -4.0630909    2419.4097  0.040929247  0.039187704           15 
 4927000   0.46616968   -4.0475006    2422.6901  0.040976425  0.039178325           26 
 4928000   0.45787441   -4.0592248    2428.4228   0.04106505  0.039168975           10 
 4929000   0.46867075   -4.0538668    2420.6505  0.040925314   0.03915959            9 
 4930000    0.4649492   -4.0566459    2423.7331   0.04096912  0.039150239           12 
 4931000    0.4759652   -4.0493987    2418.6616  0.040875103  0.039140863           24 
 4932000   0.46411846   -4.0541189    2423.6349  0.040950846  0.039131473           23 
 4933000   0.45758372   -4.0623879    2422.4232  0.040922076  0.039122101           23 
 4934000   0.44898995   -4.0577031    2423.8993  0.040938713  0.039112716           50 
 4935000   0.45598618   -4.0598332    2424.2196  0.040935825  0.039103334           25 
 4936000   0.45999188    -4.049959    2422.1558   0.04089269  0.039093964           17 
 4937000   0.47010678   -4.0550909    2417.9371  0.040813198   0.03908456           32 
 4938000   0.45796983   -4.0610359    2422.6393  0.040884287  0.039075161           43 
 4939000   0.44497622   -4.0712844    2424.6475  0.040909892  0.039065753           44 
 4940000   0.46433306   -4.0743732    2418.3134   0.04079476  0.039056331          111 
 4941000   0.46784821   -4.0661082     2418.446  0.040788741  0.039046914           33 
 4942000   0.46278028   -4.0666863    2418.6288   0.04078357  0.039037498           60 
 4943000   0.46392672   -4.0707203     2421.452  0.040822914  0.039028088           91 
 4944000   0.45306195   -4.0683688    2418.1158  0.040758424  0.039018701           93 
 4945000   0.47046995   -4.0495606    2419.5274   0.04077397  0.039009289           30 
 4946000    0.4620601   -4.0661752    2417.5281  0.040732041  0.038999907           46 
 4947000   0.47003629   -4.0753135    2416.1598  0.040700758  0.038990497           88 
 4948000   0.46044453   -4.0653819    2416.3357  0.040695495  0.038981109           38 
 4949000   0.45254484   -4.0714856    2421.8334  0.040779844  0.038971744           49 
 4950000   0.45814112      -4.0603    2429.6285  0.040902837  0.038962392           68 
 4951000   0.46041616   -4.0608339    2423.1773  0.040785992  0.038953052           16 
 4952000   0.47371185   -4.0717726    2422.8066  0.040771516  0.038943695           51 
 4953000   0.46255831   -4.0674999    2422.4107  0.040756624  0.038934353           36 
 4954000   0.46921042   -4.0817045     2421.236  0.040728637  0.038924999           54 
 4955000   0.45984922   -4.0733588    2417.3794  0.040655556   0.03891564           36 
 4956000   0.48166168   -4.0558104    2422.4166  0.040732053  0.038906306           24 
 4957000   0.44610702   -4.0623886     2427.623  0.040811361   0.03889698           35 
 4958000   0.45526095    -4.056888    2422.5102  0.040717194  0.038887661           22 
 4959000   0.45106893   -4.0658413    2421.9184  0.040699039  0.038878334           29 
 4960000   0.45730081   -4.0760618    2419.5255  0.040650631  0.038868984           19 
 4961000    0.4624463    -4.067249    2417.5611  0.040609438  0.038859635           26 
 4962000   0.45718261   -4.0606378    2422.3882  0.040682323  0.038850293           19 
 4963000   0.45944157   -4.0585836     2422.929  0.040683206  0.038840961           27 
 4964000   0.45249164   -4.0636278    2418.7952  0.040605614  0.038831628           37 
 4965000   0.46391203   -4.0510499    2426.5053  0.040726843  0.038822314           34 
 4966000   0.45417861   -4.0567645     2419.278  0.040597362  0.038813001           38 
 4967000   0.46172702   -4.0623675    2425.1588  0.040687853  0.038803669           23 
 4968000   0.45098027   -4.0784435    2420.2317  0.040597015  0.038794312           28 
 4969000   0.45302409   -4.0652763    2422.6968  0.040630188  0.038784985           47 
 4970000   0.45372094   -4.0759889    2417.2381  0.040530485   0.03877565           33 
 4971000   0.45426599   -4.0742354    2418.9793   0.04055152  0.038766313           40 
 4972000   0.45782169   -4.0699764    2421.6583  0.040588266  0.038756979           85 
 4973000   0.45395361   -4.0815518     2420.697  0.040563996  0.038747644           55 
 4974000   0.44807667    -4.086953    2418.4309  0.040517875  0.038738312          131 
 4975000   0.46147757   -4.0634397    2421.0156  0.040553026  0.038728955           59 
 4976000   0.45836595   -4.0799125     2422.065  0.040562449  0.038719625          109 
 4977000   0.46135531   -4.0917274    2420.7008  0.040531457  0.038710283          105 
 4978000   0.45111052   -4.0863261    2418.9606  0.040494184  0.038700953           39 
 4979000   0.45787823   -4.0773517    2420.7538  0.040516063  0.038691619           57 
 4980000   0.45125642   -4.0795049    2425.1303  0.040581163  0.038682282           46 
 4981000   0.45229281   -4.0639617    2415.5145  0.040412141  0.038672943           24 
 4982000   0.45083914   -4.0784655    2415.4501  0.040402952  0.038663645           23 
 4983000   0.45308194   -4.0792114    2423.0628  0.040522155  0.038654299           42 
 4984000   0.45557079   -4.0907613    2422.4828  0.040504327  0.038644968           20 
 4985000    0.4576711   -4.0745918    2420.6243  0.040465133  0.038635639           57 
 4986000   0.45808522   -4.0541408     2418.043  0.040413876  0.038626318           64 
 4987000   0.45386961     -4.06546    2426.2808  0.040543426  0.038616994           15 
 4988000    0.4569246   -4.0722926    2415.8621  0.040361235  0.038607701           21 
 4989000   0.44886524   -4.0684371    2421.0641  0.040440036  0.038598392           33 
 4990000   0.45685536    -4.073219    2421.3383  0.040436511  0.038589075           18 
 4991000   0.45265935   -4.0833447    2419.7127  0.040401267  0.038579771           45 
 4992000   0.45773831   -4.0814971    2418.8287  0.040378418  0.038570446           17 
 4993000   0.45326498   -4.0816579    2419.8825  0.040387919  0.038561128           36 
 4994000   0.44907927   -4.0686566    2419.3736  0.040371339  0.038551819           25 
 4995000   0.46008004   -4.0742018     2417.667  0.040334785  0.038542524          125 
 4996000   0.45575796   -4.0764664    2419.8505  0.040363131  0.038533223           64 
 4997000   0.45119884   -4.0594917     2418.071  0.040325379  0.038523959           15 
 4998000   0.45984921   -4.0672755    2424.9934   0.04043273  0.038514667           13 
 4999000   0.45556211   -4.0637362    2424.0869  0.040409531  0.038505391           12 
 5000000   0.44821328   -4.0922896     2419.742  0.040329033    0.0384961           15 
 5001000   0.44705029   -4.0754075     2420.314  0.040330501  0.038486821           11 
 5002000     0.444812   -4.0737824    2422.4895  0.040358682  0.038477539           10 
 5003000   0.44147137   -4.0852238    2415.1284  0.040228003  0.038468222           31 
 5004000   0.45192863   -4.0788623    2419.1398  0.040286768  0.038458923           51 
 5005000   0.45740777   -4.0750233    2422.4593  0.040333988  0.038449655           20 
 5006000   0.44899889   -4.0747544    2419.7412  0.040280684  0.038440378           20 
 5007000   0.45675059    -4.081043    2420.1965  0.040280216  0.038431104           44 
 5008000   0.44698122   -4.0707628     2415.447  0.040193142  0.038421841           26 
 5009000   0.44933592   -4.0708293    2417.2861  0.040215713  0.038412565           31 
 5010000   0.45563293   -4.0801919    2422.1678  0.040288886   0.03840331           46 
 5011000   0.45556033   -4.0800391    2417.9087  0.040210017  0.038394009           17 
 5012000   0.44832832   -4.0925689    2421.5825  0.040263077  0.038384707           16 
Loop time of 12218 on 48 procs for 5000000 steps with 4000 atoms

Performance: 70715.060 tau/day, 409.231 timesteps/s
99.4% CPU use with 48 MPI tasks x no OpenMP threads

MPI task timing breakdown:
Section |  min time  |  avg time  |  max time  |%varavg| %total
---------------------------------------------------------------
Pair    | 818.48     | 877.32     | 938.17     | 102.0 |  7.18
Neigh   | 81.826     | 85.428     | 89.424     |  18.9 |  0.70
Comm    | 797.79     | 855.43     | 925.34     | 109.1 |  7.00
Output  | 13.987     | 13.992     | 14.084     |   0.4 |  0.11
Modify  | 10252      | 10272      | 10289      |   9.1 | 84.08
Other   |            | 113.4      |            |       |  0.93

Nlocal:        83.3333 ave          91 max          76 min
Histogram: 2 0 8 2 12 10 7 2 3 2
Nghost:        2215.58 ave        2235 max        2198 min
Histogram: 4 4 3 5 7 10 7 5 2 1
Neighs:        14763.4 ave       16669 max       13082 min
Histogram: 2 2 6 9 8 11 5 2 0 3
FullNghs:      29527.8 ave       32680 max       26817 min
Histogram: 1 4 6 4 14 11 2 3 1 2

Total # of neighbors = 1417335
Ave neighs/atom = 354.33375
Neighbor list builds = 271013
Dangerous builds = 1

#clear
#
#next RN
#
#jump SELF
Total wall time: 3:23:41
